LAMMPS (10 Feb 2015)
# ---- initialize simulations
clear
units metal
dimension 3
boundary p p p
atom_style charge
atom_modify map array
# ---- create atoms
read_data /Users/eugeneragasa/pyflamestk_git/pypospack/tests/tests_integration/workflow/WorkflowLammpsThermalExpansion/MgO_NaCl_unit.npt.T400/lammps.structure
  triclinic box = (0 0 0) to (4.2565 4.2565 4.2565) with tilt (0 0 0)
  1 by 1 by 1 MPI processor grid
  reading atoms ...
  8 atoms
# ---- define interatomic potential
include potential.mod
mass 1 24.305
mass 2 15.999

group Mg type 1
4 atoms in group Mg
group O type 2
4 atoms in group O

set group Mg charge 2.0
  4 settings made for charge
set group O charge -2.0
  4 settings made for charge

variable R_cut equal 10.0

pair_style buck/coul/long ${R_cut}
pair_style buck/coul/long 10
pair_coeff 1 1 0.0 0.5 0.0 ${R_cut}
pair_coeff 1 1 0.0 0.5 0.0 10
pair_coeff 1 2 821.6 0.3242 0.0 ${R_cut}
pair_coeff 1 2 821.6 0.3242 0.0 10
pair_coeff 2 2 2274.0 0.149 27.88 ${R_cut}
pair_coeff 2 2 2274.0 0.149 27.88 10

kspace_style pppm 1.0e-5

neighbor 1.0 bin
neigh_modify every 1 delay 0 check yes
# ---- define settings
compute eng all pe/atom
compute eatoms all reduce sum c_eng
# ---- run minimization
reset_timestep 0
fix 1 all box/relax iso 0.0 vmax 0.001
thermo 10
thermo_style custom step pe lx ly lz xy xz yz press pxx pyy pzz pxy pxz pyz c_eatoms
min_style cg
minimize 1e-25 1e-25 5000 10000
PPPM initialization ...
  G vector (1/distance) = 0.354854
  grid = 8 8 8
  stencil order = 5
  estimated absolute RMS force accuracy = 5.34408e-05
  estimated relative force accuracy = 3.71126e-06
  using double precision FFTs
  3d grid and FFT values/proc = 3375 512
Neighbor list info ...
  1 neighbor list requests
  update every 1 steps, delay 0 steps, check yes
  master list distance cutoff = 11
Memory usage per processor = 4.06549 Mbytes
Step PotEng Lx Ly Lz Xy Xz Yz Press Pxx Pyy Pzz Pxy Pxz Pyz eatoms 
       0   -162.12848       4.2565       4.2565       4.2565            0            0            0    -64012.53    -64012.53    -64012.53    -64012.53 -3.8759874e-11 -1.4292379e-10 -3.6687737e-10   -162.12848 
      10   -162.17871     4.213935     4.213935     4.213935            0            0            0   -4821.7526   -4821.7526   -4821.7526   -4821.7526 8.9106085e-11 8.5332225e-11 -4.2335946e-10   -162.17871 
      14   -162.17896    4.2106915    4.2106915    4.2106915            0            0            0    -1.347652    -1.347652    -1.347652    -1.347652 2.5597609e-11 1.0162971e-11 2.8091283e-10   -162.17896 
Loop time of 0.016052 on 1 procs for 14 steps with 8 atoms

Minimization stats:
  Stopping criterion = linesearch alpha is zero
  Energy initial, next-to-last, final = 
        -162.128476026     -162.178964554     -162.178964554
  Force two-norm initial, final = 9.24344 0.000276677
  Force max component initial, final = 9.24344 0.000190436
  Final line search alpha, max atom move = 0.125 2.38044e-05
  Iterations, force evaluations = 14 33

Pair  time (%) = 0.00609016 (37.9402)
Kspce time (%) = 0.00240302 (14.9702)
Neigh time (%) = 0 (0)
Comm  time (%) = 0.00111866 (6.96897)
Outpt time (%) = 1.3113e-05 (0.0816909)
Other time (%) = 0.00642705 (40.0389)

Nlocal:    8 ave 8 max 8 min
Histogram: 1 0 0 0 0 0 0 0 0 0
Nghost:    2189 ave 2189 max 2189 min
Histogram: 1 0 0 0 0 0 0 0 0 0
Neighs:    2344 ave 2344 max 2344 min
Histogram: 1 0 0 0 0 0 0 0 0 0

Total # of neighbors = 2344
Ave neighs/atom = 293
Neighbor list builds = 0
Dangerous builds = 0
unfix 1
# ---- define output variables ----
variable natoms equal "count(all)"
variable tot_energy equal "c_eatoms"
variable length_x equal "lx"
variable length_y equal "ly"
variable length_z equal "lz"
variable tilt_xy equal "xy"
variable tilt_xz equal "xz"
variable tilt_yz equal "yz"
variable tot_press equal "press"
variable press_xx equal "pxx"
variable press_yy equal "pyy"
variable press_zz equal "pzz"
variable press_xy equal "pxy"
variable press_xz equal "pxz"
variable press_yz equal "pyz"

# ---- output ----
print "pypospack:output_section:begin"
pypospack:output_section:begin
print "tot_energy = ${tot_energy}"
tot_energy = -162.17896455406
print "num_atoms = ${natoms}"
num_atoms = 8
print "xx = ${length_x}"
xx = 4.21069146013408
print "yy = ${length_y}"
yy = 4.21069146013408
print "zz = ${length_z}"
zz = 4.21069146013408
print "xy = ${tilt_xy}"
xy = 0
print "xz = ${tilt_xz}"
xz = 0
print "yz = ${tilt_yz}"
yz = 0
print "tot_press = ${tot_press}"
tot_press = -1.34765197939399
print "pxx = ${press_xx}"
pxx = -1.34765197919426
print "pyy = ${press_yy}"
pyy = -1.3476519793348
print "pzz = ${press_zz}"
pzz = -1.34765197965291
print "pxy = ${press_xy}"
pxy = 2.55976090046832e-11
print "pxz = ${press_xz}"
pxz = 1.01629705561986e-11
print "pyz = ${press_yz}"
pyz = 2.80912827691917e-10
print "pypospack:output_section:done"
pypospack:output_section:done
print "pypospack:lammps_sim:done"
pypospack:lammps_sim:done
#------------------------------------------------------------------------------
# RUN THERMOSTAT
# running using an NPT Nose-Hoover style thermostat
#------------------------------------------------------------------------------
variable tempdamp equal 0.1
variable pressdamp equal 1.0
# set initial velocities
velocity all create 400 5928441 mom yes dist gaussian loop all
# fix for Nose-Hoover style thermostat
fix 20 all npt temp 400 400 0.1 aniso 0.0 0.0 1.0 drag 1.0 couple xyz
variable boxx equal lx
variable boxy equal ly
variable boxz equal lz
variable boxp equal press
variable boxt equal temp
# calculate averages every 10000 steps
reset_timestep 0
fix 21 all ave/time 10 10 100 v_boxx v_boxy v_boxz v_boxp v_boxt file lattice.out
thermo_style custom step temp pe ke etotal press lx ly lz press pxx pyy pzz pxy pxz pyz vol
thermo_modify flush yes
thermo 100
run 100000
PPPM initialization ...
  G vector (1/distance) = 0.355384
  grid = 8 8 8
  stencil order = 5
  estimated absolute RMS force accuracy = 5.2136e-05
  estimated relative force accuracy = 3.62065e-06
  using double precision FFTs
  3d grid and FFT values/proc = 3375 512
Memory usage per processor = 3.06549 Mbytes
Step Temp PotEng KinEng TotEng Press Lx Ly Lz Press Pxx Pyy Pzz Pxy Pxz Pyz Volume 
       0          400   -162.17896   0.36192841   -161.81703    5177.7386    4.2106915    4.2106915    4.2106915    5177.7386    2114.3866    5757.5116    7661.3175    -111.3157   -516.88445   -939.41023    74.655234 
     100     330.0131   -162.06081   0.29860278    -161.7622   -7427.0665    4.2221077    4.2221077    4.2221077   -7427.0665   -9961.0112   -5692.6465   -6627.5419    643.09913   -393.36412   -7471.1403     75.26411 
     200    419.88283   -162.04988   0.37991881   -161.66996   -97.525557    4.2163326    4.2163326    4.2163326   -97.525557   -2003.0435    3576.1956   -1865.7287   -723.75896   -1411.1406   -4216.1222    74.955688 
     300    514.92733   -162.04799   0.46591707   -161.58208   -13359.473    4.2259726    4.2259726    4.2259726   -13359.473   -13738.784   -12537.971   -13801.663   -1184.0813   -1781.8827   -5552.2192    75.470989 
     400    567.40124    -162.0299   0.51339656    -161.5165     1713.555    4.2178835    4.2178835    4.2178835     1713.555    1623.4868   -1673.0824    5190.2605    1066.7974   -718.24881   -13219.723    75.038429 
     500    677.98009   -162.08682   0.61345064   -161.47337    -7694.467    4.2238116    4.2238116    4.2238116    -7694.467   -11775.598     -4555.55   -6752.2535   -372.72948   -1656.4872   -3170.2495    75.355265 
     600    475.82581   -161.88381    0.4305372   -161.45328    5860.4879    4.2204808    4.2204808    4.2204808    5860.4879   -277.91659    21571.312   -3711.9314    1778.2157   -124.04704   -9711.6632    75.177138 
     700    565.75531   -161.95896    0.5119073   -161.44705   -8975.4579    4.2281655    4.2281655    4.2281655   -8975.4579   -16221.835    -12.61583   -10691.923    1258.2267   -1981.1878   -3175.2995    75.588536 
     800    629.54512   -162.01778   0.56962566   -161.44815   -6011.0169     4.222732     4.222732     4.222732   -6011.0169   -5110.9701   -12251.123   -670.95799   -1519.5632   -2252.4126   -5598.3462    75.297502 
     900    539.79468    -161.9388   0.48841757   -161.45038   -8658.4727    4.2227829    4.2227829    4.2227829   -8658.4727   -2744.9912   -14351.334    -8879.093    549.88903     74.63885   -10693.207    75.300221 
    1000    463.29056    -161.8709   0.41919504   -161.45171    2358.2217    4.2190286    4.2190286    4.2190286    2358.2217   -2107.4437     13695.43   -4513.3217    -40.23912   -1409.1913   -2999.1898    75.099564 
    1100    426.71188   -161.83841   0.38609788   -161.45231    3528.2578    4.2250082    4.2250082    4.2250082    3528.2578   -6384.2975     28599.14   -11630.069    1324.8708     -202.976   -4726.3797     75.41933 
    1200    520.36127   -161.92421   0.47083381   -161.45338    -1389.401    4.2259551    4.2259551    4.2259551    -1389.401   -10693.839    3509.7573    3015.8783    1455.9169   -2501.8592    483.29151    75.470048 
    1300    478.58667   -161.88649   0.43303527   -161.45345   -8785.8213    4.2249853    4.2249853    4.2249853   -8785.8213    405.01072   -18937.606   -7824.8686   -1217.8979   -1206.3355    1142.6528    75.418101 
    1400    383.47521   -161.80007   0.34697643   -161.45309   -4553.5577    4.2201529    4.2201529    4.2201529   -4553.5577    7658.6221   -8652.0514   -12667.244    663.20348   -162.28203   -895.58581    75.159616 
    1500    357.40592   -161.77641   0.32338839   -161.45302    4136.9439    4.2216309    4.2216309    4.2216309    4136.9439   -2205.4718    20495.026    -5878.722    -1011.435   -1225.8237   -210.54356    75.238611 
    1600     472.2289   -161.88077   0.42728264   -161.45349    3668.6214    4.2257987    4.2257987    4.2257987    3668.6214   -9028.2897     28051.61   -8017.4565   -358.71421     532.9075    439.63935    75.461672 
    1700    468.03168   -161.87735    0.4234849   -161.45386   -6164.8006    4.2276118    4.2276118    4.2276118   -6164.8006   -12876.239    -4518.272   -1099.8909    2161.6786   -4677.8872    3164.1627    75.558844 
    1800     370.6247   -161.79003   0.33534902   -161.45468   -11315.419    4.2247266    4.2247266    4.2247266   -11315.419    3660.5266   -18344.098   -19262.685   -237.98181   -1482.4769    7936.8078    75.404253 
    1900    374.28042    -161.7929   0.33865679   -161.45424   -2775.0535    4.2218696    4.2218696    4.2218696   -2775.0535    9770.5333   -2967.4098   -15128.284    1141.6088    2681.3353    5310.9194    75.251377 
    2000    407.77783   -161.82309   0.36896595   -161.45413    7108.1246    4.2246251    4.2246251    4.2246251    7108.1246   -1386.2972    24933.054   -2222.3835    865.67204    564.33015    1673.9695    75.398817 
    2100    504.60227   -161.91047   0.45657473   -161.45389    1403.0614    4.2261109    4.2261109    4.2261109    1403.0614   -8733.6348    18434.432   -5491.6125    78.702079    1706.4468    596.56316    75.478398 
    2200    405.34339   -161.82239   0.36676322   -161.45562   -11463.862    4.2282334    4.2282334    4.2282334   -11463.862   -15300.853   -10508.258   -8582.4739    2041.2475   -2325.2574     1708.545     75.59218 
    2300    379.79854   -161.80003    0.3436497   -161.45638   -7140.9394    4.2232031    4.2232031    4.2232031   -7140.9394   -1342.8984   -6901.8202     -13178.1     605.7772   -1890.3791    7173.0266    75.322704 
    2400    499.68339    -161.9077   0.45212403   -161.45558    989.83885    4.2231342    4.2231342    4.2231342    989.83885   -712.45306    8293.1736    -4611.204    831.53154    3220.2722    1745.8218    75.319019 
    2500    415.42323   -161.83043   0.37588367   -161.45455    12561.762    4.2235855    4.2235855    4.2235855    12561.762   -1045.4085    34208.343    4522.3519   -840.37754     210.6315    -882.3531    75.343165 
    2600    488.68066   -161.89686   0.44216853   -161.45469   -4526.3769     4.228353     4.228353     4.228353   -4526.3769   -9823.9828    4109.9948   -7865.1428   -4174.3919    1742.3086    -2297.412    75.598591 
    2700    398.20559   -161.81537   0.36030478   -161.45507   -7332.2128    4.2258056    4.2258056    4.2258056   -7332.2128   -9233.4214   -7716.0188   -5047.1982   -332.32266   -2794.8809   -1153.6643    75.462042 
    2800    460.11294   -161.87106   0.41631985   -161.45474   -4569.7568    4.2226416    4.2226416    4.2226416   -4569.7568   -5208.9438   -5219.8956   -3280.4309   -196.11047   -4367.0344    5557.1652    75.292663 
    2900    543.73808   -161.94536   0.49198564   -161.45338    5404.0236    4.2198969    4.2198969    4.2198969    5404.0236    15.083044    16091.235    105.75254   -1066.6771    3540.9002    371.75279     75.14594 
    3000    414.59629   -161.82838   0.37513544   -161.45325    4217.8893    4.2254863    4.2254863    4.2254863    4217.8893   -6815.2481    25169.258   -5700.3421   -387.78466    1222.2105    58.136174    75.444937 
    3100    464.60018   -161.87421   0.42038001   -161.45383   -4269.5739    4.2272112    4.2272112    4.2272112   -4269.5739   -8824.9216   -2652.8842    -1330.916   -3761.2283    3089.8183    622.22311    75.537368 
    3200    454.28226   -161.86555   0.41104413   -161.45451   -6675.1213    4.2264489    4.2264489    4.2264489   -6675.1213   -9762.0173   -14028.415    3765.0681   -789.75635     1905.851    2262.8458    75.496506 
    3300    480.25566   -161.88865   0.43454541    -161.4541   -1727.2496    4.2195624    4.2195624    4.2195624   -1727.2496   -241.75678   -4364.6764   -575.31577   -1145.3914   -2443.6461    10669.321    75.128074 
    3400     429.2273   -161.84178   0.38837388    -161.4534   -777.48156    4.2204938    4.2204938    4.2204938   -777.48156    2145.1077    12990.245   -17467.798   -1973.9248    3324.8185    4633.6859    75.177832 
    3500    398.26298   -161.81375   0.36035671   -161.45339   -93.267827    4.2240033    4.2240033    4.2240033   -93.267827   -4974.9042    14120.101   -9424.9999    1961.8172    1788.1459    4729.2828    75.365526 
    3600    389.76857   -161.80681   0.35267079   -161.45414   -528.61112    4.2284176    4.2284176    4.2284176   -528.61112   -8367.0843   -9564.0433    16345.294    -1842.542    1903.8227    4086.9449     75.60206 
    3700    437.96224   -161.85042   0.39627744   -161.45415      882.005    4.2250605    4.2250605    4.2250605      882.005   -3867.5297   -11077.091    17590.636    -1675.612    2558.9504    5652.8234    75.422131 
    3800    390.64296   -161.80723   0.35346196   -161.45377   -2499.3693    4.2211048    4.2211048    4.2211048   -2499.3693    3038.2566   -1669.7745   -8866.5899   -753.10544   -3806.6858    12545.543    75.210486 
    3900    284.73728   -161.71198   0.25763628   -161.45434     -2154.15    4.2198456    4.2198456    4.2198456     -2154.15    5978.0022    6956.7125   -19397.165   -4455.5193    778.95256    9251.6896      75.1432 
    4000     405.4142   -161.82179   0.36682729   -161.45497    -3887.563    4.2239985    4.2239985    4.2239985    -3887.563   -4529.6064   -793.29949   -6339.7831   -2007.0441    1722.2224    7985.4119    75.365272 
    4100    304.57451   -161.73136   0.27558542   -161.45578    7306.1352    4.2270799    4.2270799    4.2270799    7306.1352    1051.6591   -8584.2212    29450.968   -2469.2396    1544.5492    4422.9582    75.530326 
    4200    328.61131   -161.75273   0.29733442    -161.4554    7235.1848    4.2260815    4.2260815    4.2260815    7235.1848    5678.7734    -2576.475    18603.256    -2448.382    2694.1534     7236.819     75.47682 
    4300    304.64127   -161.72942   0.27564582   -161.45378    233.15622    4.2220172    4.2220172    4.2220172    233.15622    9216.2337    5792.1881   -14308.953   -3453.8828   -1831.6501    11445.812    75.259268 
    4400     216.1583   -161.65053   0.19558457   -161.45494   -1635.9815    4.2195525    4.2195525    4.2195525   -1635.9815    7706.2503    971.74737   -13585.942   -7488.8277    177.07862    13516.052    75.127542 
    4500    379.08499   -161.79817   0.34300407   -161.45517    -3575.237    4.2228031    4.2228031    4.2228031    -3575.237   -3254.4394   -6106.3727    -1364.899   -2437.3312   -1369.9583    10610.237    75.301305 
    4600    233.49765   -161.66635   0.21127358   -161.45507    9163.1181     4.226868     4.226868     4.226868    9163.1181    4079.6549   -7888.9399    31298.639   -1059.5094    448.13211    3396.4407    75.518969 
    4700    290.91258   -161.71792   0.26322382   -161.45469    6108.0841    4.2269092    4.2269092    4.2269092    6108.0841     4695.743    934.81898     12693.69   -980.29136    3191.6644    8925.9008     75.52118 
    4800    290.68029   -161.71689   0.26301364   -161.45387    200.26496    4.2223453    4.2223453    4.2223453    200.26496    3755.6202    10128.116   -13282.941    1213.1639   -3211.1208    8000.0656    75.276818 
    4900    225.90258   -161.65907    0.2044014   -161.45467   -902.17643    4.2194598    4.2194598    4.2194598   -902.17643    7920.1698   -2962.8802   -7663.8189    -1669.193    -808.9053    15926.445    75.122591 
    5000    318.58165    -161.7425   0.28825937   -161.45424   -837.27752    4.2222305    4.2222305    4.2222305   -837.27752    7757.5052   -12157.657    1888.3189   -1438.2504   -330.62483    13500.689    75.270677 
    5100    251.37279   -161.68181   0.22744738   -161.45436    6603.1355    4.2266279    4.2266279    4.2266279    6603.1355    11539.582   -16663.494    24933.319   -504.26929    2095.5958    2068.9382    75.506099 
    5200    330.26172   -161.75293   0.29882774    -161.4541    2562.2886    4.2267346    4.2267346    4.2267346    2562.2886    1942.9373   -223.91576    5967.8443    1983.6895    3720.4773    9263.4518    75.511822 
    5300    287.87294   -161.71425   0.26047348   -161.45377    890.42213     4.222619     4.222619     4.222619    890.42213   -3059.0601    16558.905   -10828.578    2200.3267    1155.5686     4899.035    75.291453 
    5400     297.7903    -161.7229   0.26944692   -161.45345   -1952.3551    4.2196435    4.2196435    4.2196435   -1952.3551    2238.5432   -1219.8309   -6875.7775    255.63677    2923.8428     15067.69    75.132403 
    5500    313.78651   -161.73733   0.28392063   -161.45341   -689.54645    4.2222188    4.2222188    4.2222188   -689.54645    8385.6282   -16009.687     5555.419    2118.5334   -775.89369    15154.101    75.270052 
    5600    352.09813   -161.77179   0.31858579   -161.45321     656.7434     4.226614     4.226614     4.226614     656.7434    7104.5001   -20699.297    15565.027    1462.1187    607.38562    3752.8603    75.505355 
    5700    359.15246   -161.77807    0.3249687    -161.4531   -790.26777    4.2270865    4.2270865    4.2270865   -790.26777   -5614.6962    1582.2591    1661.6337    2386.4146    3027.3355    8915.5804    75.530684 
    5800    277.06755   -161.70327   0.25069654   -161.45257    4716.8384    4.2221607    4.2221607    4.2221607    4716.8384   -2963.5688    26104.907   -8990.8226    5407.1935    1444.2266    4695.6834    75.266943 
    5900    405.17979   -161.81837   0.36661519   -161.45176    1276.7601    4.2193944    4.2193944    4.2193944    1276.7601    5672.3155    6148.5554   -7990.5907    4194.8057    2996.0623    11535.241    75.119099 
    6000    361.29465   -161.77951   0.32690699   -161.45261    1317.7343    4.2215768    4.2215768    4.2215768    1317.7343    6372.6036   -11178.054    8758.6532    2894.7112   -308.55214    14082.492    75.235721 
    6100    411.00619   -161.82456   0.37188704   -161.45267   -6053.4138    4.2272944    4.2272944    4.2272944   -6053.4138   -2001.1942   -19182.558    3023.5111    1819.9163    851.11744    5987.1465    75.541825 
    6200    400.13543   -161.81467   0.36205095   -161.45262   -4306.9312    4.2265488    4.2265488    4.2265488   -4306.9312   -5288.2886    4021.2578   -11653.763    2148.3864    3625.3463    6017.9215    75.501863 
    6300    351.20629   -161.76964   0.31777884   -161.45186    3003.5297    4.2228555    4.2228555    4.2228555    3003.5297   -870.28464    27704.663    -17823.79    4205.8713    4315.4528    3617.0029    75.304109 
    6400    523.81671   -161.92496   0.47396037     -161.451    3363.3314    4.2188316    4.2188316    4.2188316    3363.3314    2007.0539    12601.327   -4518.3868    3877.1952    6693.0167    5452.8701    75.089041 
    6500    414.69283   -161.82731   0.37522279   -161.45208   -1260.4009    4.2228163    4.2228163    4.2228163   -1260.4009   -9131.5931    -5517.458    10867.848    4540.6241    2763.2631    9299.1667     75.30201 
    6600     418.0766   -161.83031   0.37828449   -161.45202   -10005.948    4.2261852    4.2261852    4.2261852   -10005.948   -14644.146   -12949.648   -2424.0514    1673.7078    3244.6718    6317.8765    75.482376 
    6700    443.75486   -161.85371   0.40151872   -161.45219   -8951.7797    4.2275437    4.2275437    4.2275437   -8951.7797   -4763.9765    -587.1261   -21504.236   -2711.1492    5555.2928    2121.7946    75.555195 
    6800    411.72849   -161.82496   0.37254059   -161.45242    5426.2941    4.2221176    4.2221176    4.2221176    5426.2941    7949.6029    23455.174   -15125.895    3380.5157    3031.1513    323.03235    75.264636 
    6900    492.97094   -161.89814   0.44605047   -161.45209    4860.8108    4.2200844    4.2200844    4.2200844    4860.8108   -3223.1077    14376.607    3428.9329    3669.2657    6164.4515    566.85148    75.155955 
    7000    370.19879    -161.7874   0.33496364   -161.45244    1169.5955    4.2222199    4.2222199    4.2222199    1169.5955   -11460.306   -1316.2987    16285.391    894.39403    3837.9436    4464.7648     75.27011 
    7100     365.3063   -161.78332   0.33053681   -161.45278   -6902.9271    4.2265895    4.2265895    4.2265895   -6902.9271   -9936.3416   -11912.264    1139.8248     688.7723    3552.6057    5229.9659    75.504046 
    7200    440.95788   -161.85215   0.39898795   -161.45316    -5576.272    4.2264958    4.2264958    4.2264958    -5576.272    3225.5944    -3869.881   -16084.529   -4238.5749    4845.6336    516.09082     75.49902 
    7300    389.00295   -161.80511   0.35197805   -161.45313    4627.5908    4.2219609    4.2219609    4.2219609    4627.5908    6897.4201    17078.613   -10093.261    131.08013    2213.4665     844.1456    75.256256 
    7400    380.15995   -161.79679   0.34397671   -161.45281    4030.8154    4.2204128    4.2204128    4.2204128    4030.8154   -7114.9253     13860.75    5346.6212    3381.3746    6279.2377   -776.24472    75.173502 
    7500     322.1023   -161.74416   0.29144493   -161.45272    511.08316    4.2224804    4.2224804    4.2224804    511.08316   -9490.3383   -1724.7051    12748.293    626.54236    5906.3019     1608.266     75.28404 
    7600    341.17424   -161.76147   0.30870163   -161.45277   -3571.4904    4.2269377    4.2269377    4.2269377   -3571.4904   -4319.3032   -13420.183    7025.0153   -630.51629    4136.3413    6077.2872    75.522707 
    7700    395.28206   -161.80961   0.35765952   -161.45195   -1654.9447    4.2255393    4.2255393    4.2255393   -1654.9447    6411.0476    -7439.946   -3935.9356   -6881.7087    5780.5993    1077.8457    75.447776 
    7800    324.95817   -161.74607   0.29402898   -161.45204    165.23994      4.22179      4.22179      4.22179    165.23994   -2291.4806     9492.697   -6705.4966   -2026.8439    4042.3325   -867.11746     75.24712 
    7900    272.95032   -161.69962   0.24697118   -161.45265     1129.336    4.2195272    4.2195272    4.2195272     1129.336   -13834.597    11889.213    5333.3923    3899.4977    5833.5449    -621.0398    75.126193 
    8000    313.06126   -161.73652   0.28326441   -161.45325    370.72218    4.2234389    4.2234389    4.2234389    370.72218   -5097.4361   -5228.9523    11438.555   -4540.9794    5798.2729    422.78413    75.335319 
    8100    342.09461   -161.76298    0.3095344   -161.45345    1416.7952    4.2263736    4.2263736    4.2263736    1416.7952    2542.8421   -12985.017     14692.56   -3314.3042    3834.8817    4637.9148    75.492473 
    8200    314.26906    -161.7372   0.28435725   -161.45284    4330.5002    4.2246081    4.2246081    4.2246081    4330.5002    12334.024   -9096.5617    9754.0383   -4920.3332    5333.8204    1741.0709    75.397905 
    8300    324.90732   -161.74659   0.29398297   -161.45261    1367.7421    4.2204714    4.2204714    4.2204714    1367.7421    -845.9715    3916.5614    1032.6365    -5770.409    4390.8692    360.59567    75.176635 
    8400    295.27525   -161.72071   0.26717125   -161.45354   -349.28327    4.2201918    4.2201918    4.2201918   -349.28327   -16318.567    8432.6994    6838.0183    3226.0594    4715.7235      -1086.8    75.161696 
    8500    409.40619   -161.82363   0.37043932   -161.45319    -2601.709    4.2244408    4.2244408    4.2244408    -2601.709   -13032.454   -6682.0884    11909.415   -5014.4014    5966.7197   -1653.7838    75.388949 
    8600    414.59869   -161.82788   0.37513761   -161.45275   -1241.2736    4.2269987    4.2269987    4.2269987   -1241.2736   -2934.4924   -11626.962    10837.634   -3138.9675    3610.2857     3805.943    75.525977 
    8700    331.49043     -161.752   0.29993951   -161.45206    3590.1275    4.2235326    4.2235326    4.2235326    3590.1275    13178.486   -6820.0748    4411.9716   -1965.7716    5213.3093    974.88636    75.340335 
    8800    469.15711   -161.87586   0.42450321   -161.45136   -1648.8494    4.2197096    4.2197096    4.2197096   -1648.8494    1003.4203    2567.3873   -8517.3558   -7081.0801      7406.33   -910.68237    75.135934 
    8900    433.71618   -161.84498   0.39243551   -161.45255   -1450.0702    4.2210457    4.2210457    4.2210457   -1450.0702    -13027.66    7193.9225    1483.5268     4225.447    5297.7302    174.79842     75.20733 
    9000    484.24664   -161.88997   0.43815654   -161.45182   -5146.4076    4.2257777    4.2257777    4.2257777   -5146.4076   -18725.091   -5754.5788    9040.4466    -4575.701    4691.7511   -1701.0943    75.460547 
    9100    504.67368   -161.90765   0.45663935   -161.45101   -6837.4413    4.2265316    4.2265316    4.2265316   -6837.4413   -8699.2553   -9072.8672   -2740.2014   -3676.3084    2341.6997    1104.6791     75.50094 
    9200    392.35426   -161.80608   0.35501038   -161.45107    1494.1042    4.2220089    4.2220089    4.2220089    1494.1042    17328.069   -4804.6567   -8041.0994    3919.3325     1950.708    1089.4687    75.258823 
    9300    563.37191   -161.96079   0.50975075   -161.45103   -1694.3313    4.2203005    4.2203005    4.2203005   -1694.3313    7370.3381   -1849.2394   -10604.093   -7683.2896    3730.1884   -1247.7463    75.167506 
    9400    493.01434   -161.89814   0.44608974   -161.45205   -996.19673    4.2225638    4.2225638    4.2225638   -996.19673    -11538.76    899.37548    7650.7939    3129.5788    3443.7826   -3946.6009      75.2885 
    9500      444.601   -161.85402   0.40228433   -161.45174   -3340.0674    4.2260862    4.2260862    4.2260862   -3340.0674   -16780.753    -7877.901    14638.451    1282.9253      1983.37   -3924.0842    75.477075 
    9600    544.52005   -161.94413   0.49269319   -161.45143   -5474.4744    4.2249418    4.2249418    4.2249418   -5474.4744   -5496.0437   -6960.2995     -3967.08   -4354.7797   -645.66497   -3392.5311    75.415775 
    9700    466.86175   -161.87435   0.42242633   -161.45192    1322.0592    4.2212168    4.2212168    4.2212168    1322.0592    14495.525   -1121.2357   -9408.1118    3334.1669    176.90102   -4212.1746    75.216472 
    9800    582.33549   -161.97814   0.52690939   -161.45123   -2828.3646    4.2216257    4.2216257    4.2216257   -2828.3646     1848.047   -711.68573   -9621.4552   -4510.6593    3795.0702   -4558.7575    75.238335 
    9900    531.30108   -161.93232   0.48073238   -161.45159   -6551.3534    4.2246678    4.2246678    4.2246678   -6551.3534   -15878.195   -4812.3451    1036.4797    1936.5567    3546.5814   -6283.0495    75.401101 
   10000    428.04151   -161.83919   0.38730095   -161.45189   -4552.0956    4.2258403    4.2258403    4.2258403   -4552.0956   -9915.0329   -9678.9163    5937.6623    3025.5175    275.43998   -6134.2514    75.463899 
   10100    601.29557   -161.99533   0.54406487   -161.45126   -4792.4953    4.2230744    4.2230744    4.2230744   -4792.4953    413.08944   -3863.1169   -10927.458   -4657.1061    588.18438   -8187.2396    75.315816 
   10200    526.68048   -161.92818   0.47655157   -161.45163    1312.3329    4.2203278    4.2203278    4.2203278    1312.3329    8026.9914    6317.8274    -10407.82    2952.8847   -1208.8346   -5946.0359    75.168964 
   10300    499.26461   -161.90349   0.45174511   -161.45174   -1712.5293    4.2226237    4.2226237    4.2226237   -1712.5293   -6644.8323    10338.415   -8831.1709   -2970.7407     323.6445   -5627.6748    75.291709 
   10400    551.24307   -161.95014   0.49877631   -161.45136   -9095.2838    4.2260996    4.2260996    4.2260996   -9095.2838   -16759.033    146.34933   -10673.167   -2421.8813    2061.2554   -7376.4764    75.477794 
   10500    469.45945   -161.87635   0.42477678   -161.45158    -4266.079    4.2245345    4.2245345    4.2245345    -4266.079    1438.6224   -10334.343   -3902.5163    5506.1129   -1529.7834   -2600.1683    75.393964 
   10600    584.05821   -161.97983   0.52846814   -161.45136    -806.8782    4.2205451    4.2205451    4.2205451    -806.8782    4253.3808   -1939.2975   -4734.7179   -3765.8716    -613.6711   -5692.4758    75.180572 
   10700    524.48275   -161.92612   0.47456301   -161.45156    3390.4984    4.2195754    4.2195754    4.2195754    3390.4984   -4121.2723    13829.658    463.10916   -3014.4684   -1927.5805   -4744.0436    75.128764 
   10800    401.90962   -161.81575   0.36365627   -161.45209    185.30078    4.2242404    4.2242404    4.2242404    185.30078       -13208    17948.311    -4184.408   -5365.5935    359.45926   -1962.9674    75.378222 
   10900     556.4677   -161.95505   0.50350367   -161.45155   -10230.592    4.2272246    4.2272246    4.2272246   -10230.592   -14684.932      2768.51   -18775.353   -7222.4226    1119.8499   -4119.0793    75.538086 
   11000     462.8769   -161.87067   0.41882075   -161.45185   -5503.0998    4.2236281    4.2236281    4.2236281   -5503.0998     9392.365   -9825.2881   -16076.376    2699.3172   -2215.9646    4545.9085    75.345448 
   11100    435.50665   -161.84585   0.39405557    -161.4518    1287.7269    4.2190031    4.2190031    4.2190031    1287.7269     11995.58   -2656.8691   -5475.5304   -1787.8186   -683.52152    5103.5209    75.098203 
   11200    450.27399    -161.8592   0.40741737   -161.45178    3607.0617    4.2199659    4.2199659    4.2199659    3607.0617     -5639.97    15758.991    702.16403   -3374.1741   -3777.3211    811.75688    75.149626 
   11300    328.63418    -161.7501   0.29735511   -161.45275     3934.288     4.225293     4.225293     4.225293     3934.288    -9603.793    18284.385    3122.2715   -5582.4191    -1266.313    3245.3569     75.43458 
   11400    477.43264   -161.88417   0.43199109   -161.45218   -6236.3808    4.2274055    4.2274055    4.2274055   -6236.3808   -13556.768    147.54788   -5299.9219   -8892.5561   -1640.8341    2069.4158    75.547781 
   11500    396.75647   -161.81157    0.3589936   -161.45258   -5220.0207    4.2233471    4.2233471    4.2233471   -5220.0207    1517.4795   -7793.0781   -9384.4636    716.69491   -3162.9672    9110.7505    75.330407 
   11600    305.68112   -161.72939   0.27658671    -161.4528    1984.4634    4.2187443    4.2187443    4.2187443    1984.4634    10330.352   -1500.9279   -2876.0337    -393.7991   -402.62626    12013.706    75.084381 
   11700    413.33463    -161.8264   0.37399386   -161.45241    2601.2477     4.220803     4.220803     4.220803    2601.2477   -3265.2582    13744.759   -2675.7579   -3247.4597   -2796.8373    6036.3855    75.194359 
   11800    343.88419   -161.76448   0.31115364   -161.45333    4181.3458    4.2255614    4.2255614    4.2255614    4181.3458   -6163.4049    12366.467    6340.9753   -4728.6414    592.65576    6378.7157    75.448961 
   11900    387.35335   -161.80319   0.35048545    -161.4527   -2602.8279      4.22691      4.22691      4.22691   -2602.8279   -12736.746    853.59134    4074.6713   -7629.8406   -1106.9983     3837.419    75.521222 
   12000    354.05019   -161.77239   0.32035206   -161.45204   -3717.9998    4.2222324    4.2222324    4.2222324   -3717.9998   -3556.4529    458.17211   -8055.7186    880.33369    -2475.678    10548.689    75.270778 
   12100    292.44067   -161.71716   0.26460646   -161.45255    1575.3933      4.21962      4.21962      4.21962    1575.3933    12420.561    73.862553   -7768.2433    1873.3648   -543.47768    13270.853    75.131148 
   12200    422.27809   -161.83496   0.38208609   -161.45288    4150.8428    4.2221328    4.2221328    4.2221328    4150.8428    4498.3658    11442.887    -3488.724    115.91643   -3242.5979    6423.7851    75.265453 
   12300    348.10636   -161.76833   0.31497395   -161.45336    4623.0554    4.2262553    4.2262553    4.2262553    4623.0554   -4225.9021    10461.996     7633.072   -1169.8176    76.407953    7960.2007    75.486132 
   12400     332.4288    -161.7534   0.30078856   -161.45261   -2415.2762    4.2252607    4.2252607    4.2252607   -2415.2762    -14462.72    2503.9779    4712.9138   -5573.1185    -1228.189    4001.8522    75.432854 
   12500    355.82648   -161.77448   0.32195927   -161.45252   -5960.9268    4.2212496    4.2212496    4.2212496   -5960.9268   -10180.053    4296.2832    -11999.01    944.89994   -4530.7999    6054.5799    75.218227 
   12600    333.69126   -161.75518   0.30193087   -161.45325    329.68973    4.2203692    4.2203692    4.2203692    329.68973    7520.9961    2167.3987   -8699.3256    3416.4564    -440.7295    10138.305    75.171173 
   12700    415.43661   -161.82896   0.37589577   -161.45307    3164.7505    4.2239745    4.2239745    4.2239745    3164.7505    -3980.623    13162.554    312.32052    1647.9623   -764.61739    5866.4514    75.363985 
   12800    303.64417    -161.7279   0.27474363   -161.45316    5677.1594    4.2261436    4.2261436    4.2261436    5677.1594   -11616.376    15110.007    13537.847    794.81928    -963.6136     4021.968    75.480151 
   12900     283.6591   -161.70938   0.25666072   -161.45272     690.9223    4.2236964    4.2236964    4.2236964     690.9223   -8086.9154    4297.8293    5861.8529   -2478.4732   -374.44453     1207.637    75.349104 
   13000    344.97088   -161.76495    0.3121369   -161.45281   -6161.7252    4.2209838    4.2209838    4.2209838   -6161.7252   -6009.2144     2999.802   -15475.763    1956.8797   -4601.9284     5189.126     75.20402 
   13100    279.10986   -161.70654   0.25254446   -161.45399   -1302.5881    4.2215704    4.2215704    4.2215704   -1302.5881    874.74599    3727.2059   -8509.7163    1549.1493   -1181.2667    5789.5075    75.235378 
   13200    286.99138   -161.71379   0.25967583   -161.45411    4902.7439    4.2249719    4.2249719    4.2249719    4902.7439   -10442.408    16286.673    8863.9672    1798.9217    502.17899    2545.3597    75.417387 
   13300     225.7614   -161.65897   0.20427366   -161.45469    10414.664    4.2250165    4.2250165    4.2250165    10414.664   -9934.7304    18912.809    22265.915    2452.4091   -1614.7822    2285.8421    75.419774 
   13400    231.25961   -161.66446   0.20924856   -161.45521     6857.829     4.222338     4.222338     4.222338     6857.829    4445.9222    5507.0249     10620.54   -4837.1754    848.92804    -238.3289    75.276427 
   13500     303.8655    -161.7299   0.27494389   -161.45496   -1889.1076    4.2209466    4.2209466    4.2209466   -1889.1076    -3066.795    4621.1609   -7221.6887    1124.6421   -5115.6038   -62.918561     75.20203 
   13600    231.33801   -161.66475    0.2093195   -161.45543   -2466.8945    4.2235679    4.2235679    4.2235679   -2466.8945   -11463.612    4291.8281   -228.89917    1857.6612   -1772.3341    2388.7419    75.342223 
   13700    225.65729   -161.65943   0.20417946   -161.45525    3259.0901    4.2264381    4.2264381    4.2264381    3259.0901   -18213.419    8212.8656    19777.824    361.01972    3037.2356      2957.86    75.495932 
   13800    292.07978    -161.7197   0.26427992   -161.45542    7401.0743      4.22535      4.22535      4.22535    7401.0743   -10576.719    9236.9463    23542.996    4334.7376    1131.7399   -845.49122    75.437635 
   13900     275.6718   -161.70579   0.24943364   -161.45636     6074.769    4.2219987    4.2219987    4.2219987     6074.769    5095.8273     965.0408    12163.439    -3770.408     5331.976   -1424.2068     75.25828 
   14000    290.93963   -161.71894   0.26324829   -161.45569   -228.96292    4.2212015    4.2212015    4.2212015   -228.96292   -8291.1127    3579.5387    4024.6852   -732.39807   -1618.5336      561.004    75.215657 
   14100    288.01847    -161.7155   0.26060517   -161.45489   -1604.7605    4.2248579    4.2248579    4.2248579   -1604.7605   -16095.042    4552.6979    6728.0621    3155.2834    873.36494   -1574.4532    75.411281 
   14200    257.31222   -161.68783    0.2328215   -161.45501    5630.8599    4.2272717    4.2272717    4.2272717    5630.8599   -14928.784      4071.87    27749.493    1391.2782    5549.0807   -1277.4676    75.540612 
   14300    343.53839   -161.76626   0.31084075   -161.45542    4916.0951    4.2258805    4.2258805    4.2258805    4916.0951   -11704.355    1982.4229    24470.217    5825.3303    3843.1561   -961.75298    75.466052 
   14400    282.82553   -161.71172   0.25590649   -161.45582    1539.4579    4.2221511    4.2221511    4.2221511    1539.4579   -5797.1871    1719.1883    8696.3725   -2168.2805     9194.461   -1967.4394    75.266429 
   14500    274.84989   -161.70376   0.24868996   -161.45507   -680.64834    4.2206648    4.2206648    4.2206648   -680.64834   -10115.778    5418.8412    2654.9914   -1697.6577    1163.4754   -2729.0461    75.186969 
   14600    380.23484   -161.79772   0.34404447   -161.45367    311.96385    4.2238931    4.2238931    4.2238931    311.96385   -12495.304    7041.5216    6389.6738     6734.391    580.52469   -4063.9358    75.359629 
   14700    308.90367   -161.73311   0.27950253   -161.45361    6859.9168     4.227163     4.227163     4.227163    6859.9168   -16272.202    6393.9317     30458.02    1985.5604    5824.6899   -2467.7487    75.534783 
   14800    408.53714   -161.82282   0.36965299   -161.45317   -3981.1999    4.2274033    4.2274033    4.2274033   -3981.1999   -28143.412   -791.47021    16991.282    7090.5851    2350.2553   -2154.6066    75.547664 
   14900    368.60935   -161.78636   0.33352548   -161.45283   -6136.3237    4.2223279    4.2223279    4.2223279   -6136.3237   -18321.485    2846.2992   -2933.7857    3558.0012    5620.7966   -3907.1169    75.275886 
   15000    340.17542   -161.76089   0.30779787   -161.45309   -1369.1665    4.2197737    4.2197737    4.2197737   -1369.1665    -1490.736    4278.9497   -6895.7131   -3005.5102    2927.3144   -2084.8051    75.139358 
   15100    484.02558   -161.89121   0.43795651   -161.45326    1534.2998    4.2222544    4.2222544    4.2222544    1534.2998   -2922.0932    4512.0114    3012.9812     5436.873   -112.32676   -1999.7523    75.271955 
   15200    367.74549   -161.78628   0.33274385   -161.45354    3921.9222    4.2276207    4.2276207    4.2276207    3921.9222   -14952.172    2548.0491     24169.89    1162.9938    6506.8691   -3735.2207    75.559319 
   15300    424.80037   -161.83715    0.3843683   -161.45278   -5388.8826    4.2272198    4.2272198    4.2272198   -5388.8826   -21980.823    -4893.394    10707.569    4597.0264     4289.668    -1479.274     75.53783 
   15400    474.43352   -161.88201   0.42927742   -161.45274   -9209.0677    4.2232833    4.2232833    4.2232833   -9209.0677   -12599.744   -2178.0359   -12849.424    4334.6874    6707.2473   -178.34287    75.326998 
   15500    424.38961   -161.83743   0.38399664   -161.45343    989.92953    4.2200388    4.2200388    4.2200388    989.92953    8830.1651     252.5981   -6112.9746   -2446.7994    6713.8997   -2049.8379    75.153519 
   15600    526.83906   -161.93026   0.47669505   -161.45356     2213.061    4.2232994    4.2232994    4.2232994     2213.061   -689.64786    1349.8751    5978.9558     4319.911    1209.7932    -1857.946    75.327855 
   15700    448.30693    -161.8588   0.40563753   -161.45316   -1447.5436    4.2273605    4.2273605    4.2273605   -1447.5436    -19024.09   -2159.4186    16840.877    787.55278    7851.7418    -2682.331    75.545373 
   15800    463.00545   -161.87208   0.41893706   -161.45314   -8803.6161    4.2269257    4.2269257    4.2269257   -8803.6161   -20137.216   -12561.324     6287.692     2677.327    5566.5433    162.76796    75.522061 
   15900    533.22289   -161.93562   0.48247127   -161.45315   -8427.9353    4.2236692    4.2236692    4.2236692   -8427.9353   -9688.3678   -6520.2697   -9075.1686    6434.4903    5349.3864    23.801117    75.347648 
   16000    452.31711   -161.86282   0.40926603   -161.45355    855.22886    4.2213642    4.2213642    4.2213642    855.22886     4536.239   -3852.9291    1882.3767   -1419.6154    5593.3207   -1643.5596    75.224355 
   16100    477.24563   -161.88584   0.43182187   -161.45402    4611.3893    4.2231298    4.2231298    4.2231298    4611.3893    540.06733   -33.526342    13327.627    716.72911   -1234.3055    926.83542    75.318781 
   16200    437.33927   -161.84923   0.39571376   -161.45352    1055.4176    4.2271464    4.2271464    4.2271464    1055.4176    -7040.714   -2075.1272    12282.094    1285.0494    2438.2015   -2366.8756    75.533891 
   16300    416.35922   -161.83052   0.37673057   -161.45379   -4313.0015    4.2264215    4.2264215    4.2264215   -4313.0015    668.07425    -15792.12    2185.0413   -1075.3829    3519.4915   -638.63165    75.495042 
   16400    486.31788   -161.89387   0.44003064   -161.45384   -4697.2844    4.2220995    4.2220995    4.2220995   -4697.2844     1632.862   -9463.4707   -6261.2445    942.79848    4716.9906    3955.5359    75.263669 
   16500    431.06955   -161.84353   0.39004079   -161.45349    4134.8115    4.2203658    4.2203658    4.2203658    4134.8115    7647.9092   -1759.6718     6516.197   -988.48073    4195.7931    445.68133    75.170993 
   16600    423.46763   -161.83711   0.38316241   -161.45395    5290.0879    4.2244252    4.2244252    4.2244252    5290.0879    5302.3062    1660.2828    8907.6747    1411.1125   -2277.4647    2034.2661    75.388114 
   16700    459.30164   -161.86849   0.41558577   -161.45291    -3127.794    4.2276296    4.2276296    4.2276296    -3127.794   -3330.1433   -3718.0555   -2335.1833   -21.776431    1392.7391    999.85255    75.559797 
   16800    415.02875    -161.8283   0.37552674   -161.45278   -5783.4417    4.2240107    4.2240107    4.2240107   -5783.4417   -3253.1132   -11885.412   -2211.7997    2042.6637    5154.0065    3248.3827    75.365926 
   16900    483.52626   -161.89015   0.43750472   -161.45265   -3678.6694    4.2190521    4.2190521    4.2190521   -3678.6694   -4824.6757   -3823.2965   -2388.0361    1901.2401    4746.1547    7752.0844    75.100816 
   17000    428.78568   -161.84075   0.38797429   -161.45277    2001.6127    4.2214611    4.2214611    4.2214611    2001.6127    4290.9687   -1907.4975    3621.3667    1064.5755    4915.9816    4262.6527    75.229532 
   17100    374.01166   -161.79143   0.33841361   -161.45302    4159.9098    4.2264121    4.2264121    4.2264121    4159.9098    7060.5829    914.85723    4504.2893    4075.1412   -903.73623    7388.1744    75.494536 
   17200    477.01029   -161.88382   0.43160894   -161.45222     -5128.23     4.227391     4.227391     4.227391     -5128.23   -5467.3311   -4268.5094   -5648.8497    1465.4838   -1891.3804    6687.1023    75.547004 
   17300    388.63489   -161.80494   0.35164502    -161.4533   -2751.5973    4.2220274    4.2220274    4.2220274   -2751.5973   -5098.4491   -4566.2617    1409.9188     4890.515    3005.4765    4658.9087    75.259815 
   17400    439.24767   -161.85075   0.39744052   -161.45331   -612.29107    4.2199096    4.2199096    4.2199096   -612.29107   -560.54338   -1127.0295   -149.30036    988.12378    3286.9049    9249.1991     75.14662 
   17500    419.01744   -161.83187   0.37913579   -161.45273   -3.1801931    4.2236312    4.2236312    4.2236312   -3.1801931    9871.0838   -5422.7899   -4457.8345    1306.6274    2558.1668    6090.2617    75.345615 
   17600    353.98082   -161.77259   0.32028929    -161.4523    21.921936    4.2278587    4.2278587    4.2278587    21.921936    9013.3467   -6230.0965   -2717.4844    4117.1401   -2323.1629    3584.1301    75.572086 
   17700    483.57483   -161.88938   0.43754867   -161.45183    -5478.747    4.2276167    4.2276167    4.2276167    -5478.747   -10895.781    463.68965   -6004.1494   -2090.1627   -5095.8953    8290.8746    75.559109 
   17800    401.39726   -161.81695   0.36319268   -161.45375   -2012.0215    4.2220306    4.2220306    4.2220306   -2012.0215   -14947.028    6889.3618     2021.602    1840.9837   -1047.1045    4678.1834    75.259986 
   17900    392.12759   -161.80892   0.35480529   -161.45411   -1317.1971    4.2192164    4.2192164    4.2192164   -1317.1971   -1826.9652   -322.92792   -1801.6982   -3171.1607   -1661.3609    5811.7456    75.109592 
   18000    395.94043   -161.81155   0.35825523   -161.45329    -930.7775    4.2226198    4.2226198    4.2226198    -930.7775    6629.8377   -2566.3669   -6855.8033   -3153.8687   -121.85639    5545.9519      75.2915 
   18100    358.29679    -161.7771   0.32419446    -161.4529   -1605.8252      4.22828      4.22828      4.22828   -1605.8252   -428.98743   -2863.5395   -1524.9487    3412.5953   -5534.9214    1888.1635    75.594676 
   18200    410.52051   -161.82349   0.37144758   -161.45205   -2671.9171     4.227572     4.227572     4.227572   -2671.9171   -16601.735    10150.848   -1564.8643   -2573.3001   -11421.071    5487.4189     75.55671 
   18300    331.55181   -161.75251   0.29999505   -161.45251    642.16768    4.2220561    4.2220561    4.2220561    642.16768   -14199.898    18518.255   -2391.8536    2686.5098   -9287.1911    4292.2357    75.261347 
   18400    304.26922   -161.72834   0.27530918   -161.45303     3852.295    4.2178131    4.2178131    4.2178131     3852.295    2661.2372    11255.825   -2360.1769   -566.51937   -6503.9361    6158.9794    75.034674 
   18500    334.45222   -161.75592    0.3026194    -161.4533    2583.6696    4.2229219    4.2229219    4.2229219    2583.6696    6160.0231    6214.5888   -4623.6031   -2792.9143   -2621.4982    2972.7517    75.307661 
   18600    341.07668   -161.76192   0.30861335    -161.4533    2689.2489    4.2278413    4.2278413    4.2278413    2689.2489   -1351.3555    7383.0691    2036.0332    3695.4369   -8237.5977   -2277.5632    75.571149 
   18700    337.38519   -161.75771   0.30527321   -161.45244   -445.00913    4.2282315    4.2282315    4.2282315   -445.00913   -16494.685    18054.302   -2894.6435    508.63996   -12563.027    5244.6238    75.592078 
   18800    278.27541   -161.70472   0.25178944   -161.45293     1770.146     4.220738     4.220738     4.220738     1770.146   -15952.037    25934.023   -4671.5476    1975.4713   -13410.908    1766.7039     75.19088 
   18900    292.47886   -161.71861   0.26464102   -161.45397    569.30369    4.2180392    4.2180392    4.2180392    569.30369   -6190.3787    10527.189   -2628.8994   -884.93816    -10981.63    2057.3463     75.04674 
   19000    332.98561   -161.75605   0.30129238   -161.45476    2064.0275     4.222159     4.222159     4.222159    2064.0275    267.66894    2778.8783    3145.5352   -2701.7741    -3193.602    3055.1889    75.266854 
   19100    310.91572   -161.73579   0.28132308   -161.45447    4510.6708    4.2286571    4.2286571    4.2286571    4510.6708   -1828.1129    8523.9338    6836.1917   -156.49432   -7551.0637   -4212.1242    75.614906 
   19200    266.99679   -161.69598   0.24158431    -161.4544     6088.991    4.2275509    4.2275509    4.2275509     6088.991   -9795.5138    21669.938    6392.5484   -189.63353   -10856.533   -315.50477    75.555578 
   19300    253.91499   -161.68529   0.22974762   -161.45554    3993.7693    4.2211072    4.2211072    4.2211072    3993.7693   -14877.396    22325.857    4532.8474    3305.2647   -12507.057    3031.1826    75.210613 
   19400     322.7268   -161.74768   0.29200999   -161.45567   -3827.9831    4.2195224    4.2195224    4.2195224   -3827.9831   -14948.546    3909.9617   -445.36515   -1138.2984   -11946.811    562.14372    75.125933 
   19500    353.93748   -161.77545   0.32025007    -161.4552   -3493.0735    4.2234988    4.2234988    4.2234988   -3493.0735    -5907.994   -2254.3366   -2316.8899   -643.29367    -1520.825   -542.65508     75.33853 
   19600    289.56325   -161.71625   0.26200291   -161.45425    2175.9068    4.2293191    4.2293191    4.2293191    2175.9068   -1769.5726    9809.7699   -1512.4769    782.13239   -2081.8353   -663.98024    75.650421 
   19700    312.49611   -161.73612   0.28275305   -161.45336    8085.8617    4.2273494    4.2273494    4.2273494    8085.8617   -8401.2794    23775.871    8882.9938   -1913.0556   -2895.1784    -1366.701    75.544777 
   19800    359.98869   -161.77995   0.32572533   -161.45422    5243.5824    4.2211085    4.2211085    4.2211085    5243.5824   -8358.5972     16866.16    7223.1847   -600.19089    -3780.077   -711.30937    75.210685 
   19900    334.48262   -161.75738    0.3026469   -161.45474   -5248.9126    4.2187133    4.2187133    4.2187133   -5248.9126   -6427.9112    1312.1256   -10630.952    799.02853   -8070.3104    2596.3988    75.082724 
   20000    330.82668   -161.75346   0.29933893   -161.45412   -9499.0473    4.2239169    4.2239169    4.2239169   -9499.0473   -6143.6868   -440.76613   -21912.689    1352.5219    2469.6231    1037.0349    75.360902 
   20100    300.00938    -161.7254    0.2714548   -161.45394    969.45776    4.2293645    4.2293645    4.2293645    969.45776   -4059.5307    18774.704     -11806.8   -3163.3111    3233.1649   -1998.5341    75.652858 
   20200     356.9136   -161.77671   0.32294292   -161.45377    11732.962    4.2267558    4.2267558    4.2267558    11732.962   -10620.043    31181.651    14637.278   -1377.9817    494.91461   -1874.8539    75.512958 
   20300    431.21416   -161.84416   0.39017163   -161.45399    6679.7828    4.2202342    4.2202342    4.2202342    6679.7828   -5021.0759    15854.488     9205.936   -465.70149    3132.8519   -2164.5392    75.163962 
   20400    319.25281   -161.74351   0.28886665   -161.45464   -4498.8385    4.2189294    4.2189294    4.2189294   -4498.8385    501.97296    4340.7477   -18339.236    -1453.525   -2920.0388   -335.48945    75.094266 
   20500    381.68966    -161.7992   0.34536083   -161.45384    -11628.24    4.2245675    4.2245675    4.2245675    -11628.24   -10644.322    1109.8222   -25350.219     1815.489    4620.5519   -909.35129    75.395734 
   20600    423.75548   -161.83712   0.38342286    -161.4537   -3675.1087    4.2300658    4.2300658    4.2300658   -3675.1087   -16894.122    19199.957   -13331.161   -34.940709    5401.4366    -656.7582      75.6905 
   20700     410.5165   -161.82528   0.37144396   -161.45384    9901.7625    4.2258902    4.2258902    4.2258902    9901.7625   -13086.463    29274.101     13517.65   -1415.7059    2202.9931   -854.30816    75.466574 
   20800    421.09687   -161.83463    0.3810173   -161.45361    6674.9267    4.2205959    4.2205959    4.2205959    6674.9267    3298.0272    13672.445    3054.3074    743.00958    6260.1744   -1547.8067     75.18329 
   20900    350.94053   -161.77102   0.31753837   -161.45348   -1384.1978    4.2191182    4.2191182    4.2191182   -1384.1978    6311.4693    5220.5398   -15684.602    745.82118     1337.307    1521.1832    75.104345 
   21000    455.28663   -161.86457   0.41195291   -161.45262   -10536.506    4.2252801    4.2252801    4.2252801   -10536.506   -15011.471   -1940.1229   -14657.925    3042.4087     6858.125   -2611.3426    75.433889 
   21100    480.08201   -161.88629   0.43438829    -161.4519   -5498.5438    4.2289211    4.2289211    4.2289211   -5498.5438    -20196.61     15527.23   -11826.252    3967.1417     6377.396    -2529.048    75.629069 
   21200    365.21511   -161.78339   0.33045431   -161.45294    3605.7315    4.2264614    4.2264614    4.2264614    3605.7315   -10347.393    21191.301   -26.713127     418.5062    2514.6893    97.832427    75.497178 
   21300    425.82143   -161.83875   0.38529218   -161.45345    1881.4458    4.2204604    4.2204604    4.2204604    1881.4458    7097.4758    1148.5973   -2601.7357   -1960.4291    7077.5865    -5770.113    75.176047 
   21400    427.65004   -161.84012   0.38694674   -161.45318   -1722.1014    4.2190515    4.2190515    4.2190515   -1722.1014    4425.8311   -3834.8795   -5757.2556    849.99867    7277.8313   -2192.5968    75.100787 
   21500    441.86306    -161.8528   0.39980698   -161.45299   -6219.8438    4.2241364    4.2241364    4.2241364   -6219.8438   -15945.686    895.65566   -3609.5014    729.71251    8341.4852   -854.80069    75.372652 
   21600    421.36418   -161.83311   0.38125917   -161.45185   -7109.9694      4.22889      4.22889      4.22889   -7109.9694   -15552.248    13796.553   -19574.214    1615.8918    5010.1741   -3279.6759    75.627399 
   21700    294.98304   -161.71961   0.26690685    -161.4527    485.04055    4.2267637    4.2267637    4.2267637    485.04055   -2032.9998    14485.007   -10996.886    727.35815      778.024   -1865.9817     75.51338 
   21800     411.0329    -161.8255    0.3719112   -161.45359    1437.1365    4.2209717    4.2209717    4.2209717    1437.1365    3607.7958    2313.1818   -1609.5681   -1854.8379    1357.7101   -3459.4157    75.203371 
   21900    421.19608   -161.83509   0.38110706   -161.45398     3428.418    4.2188582    4.2188582    4.2188582     3428.418    1463.7688    8149.3301    672.15509    1827.0268    6670.8575   -780.36901    75.090466 
   22000    295.37642   -161.72176   0.26726279    -161.4545    5037.5911    4.2226642    4.2226642    4.2226642    5037.5911    -3736.449    19300.199   -450.97647    3046.0557    5868.8571    949.79797    75.293875 
   22100    363.02024   -161.78199   0.32846835   -161.45352    -3621.068    4.2281473    4.2281473    4.2281473    -3621.068   -2217.3118    14467.088   -23112.981    4526.2178    411.34143   -1405.8089     75.58756 
   22200    314.27204    -161.7378   0.28435995   -161.45344    1068.2044    4.2267352    4.2267352    4.2267352    1068.2044    4072.4313    11580.037   -12447.855    2499.5298   -3984.3772   -1498.5459    75.511853 
   22300    409.42407   -161.82328    0.3704555   -161.45282    305.26561    4.2222626    4.2222626    4.2222626    305.26561   -1211.6735    4210.5147   -2083.0444    1085.1241   -6555.9552   -2456.9254    75.272392 
   22400    416.66287   -161.82958   0.37700532   -161.45258    1885.8726    4.2185419    4.2185419    4.2185419    1885.8726   -2741.3991    10909.535   -2510.5184    3560.1589    891.19635   -107.00393    75.073574 
   22500    275.26844   -161.70272   0.24906867   -161.45365    3916.7604    4.2225863    4.2225863    4.2225863    3916.7604   -6830.8739     16955.12    1626.0353    914.99831    1494.6906    1910.6462    75.289709 
   22600    436.41852   -161.84792   0.39488065   -161.45304   -3912.0327    4.2275126    4.2275126    4.2275126   -3912.0327   -3404.6511    3827.7003   -12159.147    3162.2542   -4186.1726   -714.62772    75.553525 
   22700    377.22011   -161.79403   0.34131668   -161.45272   -2778.4082    4.2270793    4.2270793    4.2270793   -2778.4082    1748.4202    1300.6359   -11384.281    4378.3845   -5866.5361    -829.6018    75.530294 
   22800    368.18947    -161.7859   0.33314557   -161.45276   -2299.2912     4.220984     4.220984     4.220984   -2299.2912   -1165.8834    4209.7184   -9941.7086    3196.8506   -12945.229   -2281.5001    75.204028 
   22900    343.07053   -161.76317   0.31041742   -161.45275     279.6376    4.2181435    4.2181435    4.2181435     279.6376    -2944.742    10242.681    -6459.026    2696.7216   -7532.0846   -2296.0285    75.052307 
   23000    275.30922    -161.7031   0.24910556   -161.45399    5636.2027    4.2224814    4.2224814    4.2224814    5636.2027   -8239.1333    11966.357    13181.384    3870.0556   -3659.8695    2504.2625    75.284096 
   23100     411.6241   -161.82608   0.37244614   -161.45363     153.3397     4.228689     4.228689     4.228689     153.3397    -2140.037    1468.0094    1132.0466    5825.2652   -7828.1068    1138.1323    75.616614 
   23200    259.75139   -161.68845   0.23502852   -161.45342     1512.038    4.2269176    4.2269176    4.2269176     1512.038    10961.405    7445.1871   -13870.478     7001.831   -7092.2045   -10.372465     75.52163 
   23300    236.76721   -161.66842   0.21423194   -161.45419   -1449.3621    4.2190521    4.2190521    4.2190521   -1449.3621    1020.2726    11881.413   -17249.772    9287.5858   -16770.718    493.73854    75.100819 
   23400    252.91521   -161.68347     0.228843   -161.45462    1079.3251    4.2167679    4.2167679    4.2167679    1079.3251   -5523.8427    12165.614   -3403.7957    4095.7283   -11772.948    951.00276    74.978903 
   23500    259.15313   -161.68981    0.2344872   -161.45532    6340.2313    4.2241085    4.2241085    4.2241085    6340.2313   -9363.0816    7206.2379    21177.538    2305.3508   -6669.0211    2427.9904    75.371158 
   23600    281.34772   -161.70898   0.25456933   -161.45441     4842.277    4.2301704    4.2301704    4.2301704     4842.277    10250.159   -1089.3659    5366.0376    4929.0099   -9386.3661    2270.7906    75.696113 
   23700    177.25363   -161.61468   0.16038281   -161.45429    1856.3916     4.225487     4.225487     4.225487    1856.3916    13616.737    5525.6918   -13573.254    8300.5926   -4167.0455   -198.61147    75.444975 
   23800    192.07566    -161.6284    0.1737941    -161.4546   -2227.1982    4.2175168    4.2175168    4.2175168   -2227.1982   -8617.9894    7700.0399   -5763.6451    12151.862   -13568.642    -2377.766    75.018862 
   23900    259.47833   -161.68979   0.23478144   -161.45501   -1343.6006    4.2179806    4.2179806    4.2179806   -1343.6006   -12192.115     1756.925    6404.3883    5396.7869   -11674.314   -955.28549    75.043615 
   24000    221.39134   -161.65602   0.20031954    -161.4557    6430.1979    4.2268976    4.2268976    4.2268976    6430.1979     5689.801   -2535.1608    16135.953    5640.3107   -8346.5034    3132.2883    75.520559 
   24100    145.27814   -161.58709   0.13145072   -161.45564    11529.665    4.2301281    4.2301281    4.2301281    11529.665    30060.163   -1091.5562     5620.388    5084.9153   -9607.4047    1116.8753    75.693842 
   24200    193.70447   -161.63047   0.17526788    -161.4552    4290.3006     4.223354     4.223354     4.223354    4290.3006    6782.7014    6308.9529   -220.75246    9414.3871   -8226.0375    1035.2537    75.330779 
   24300    173.71392   -161.61319      0.15718   -161.45601    313.14855    4.2168004    4.2168004    4.2168004    313.14855   -13038.771    6423.4745    7554.7422    19030.333   -13377.195     466.8886    74.980636 
   24400    293.81273   -161.72155   0.26584793    -161.4557   -3188.6103    4.2207847    4.2207847    4.2207847   -3188.6103   -8542.1231   -3301.6536    2277.9458    9816.4972   -7720.4637   -2256.8685    75.193377 
   24500    194.22496    -161.6312   0.17573883   -161.45546    6638.5844    4.2281753    4.2281753    4.2281753    6638.5844    23888.621   -4176.0665    203.19811    4490.0326   -4776.3614    2640.9452    75.589062 
   24600     223.0984   -161.65584   0.20186412   -161.45397    6114.7273    4.2294178    4.2294178    4.2294178    6114.7273    18832.125    2876.0513   -3363.9941     4433.597   -7173.8255    1458.9053    75.655719 
   24700    361.44986   -161.78036   0.32704743   -161.45332     2217.871    4.2217764    4.2217764    4.2217764     2217.871   -5198.3326    6902.1455    4949.8002     4373.993   -5274.0543   -2114.5975    75.246394 
   24800       315.98   -161.73948   0.28590534   -161.45357   -2697.6959    4.2180168    4.2180168    4.2180168   -2697.6959   -16101.849    672.55447    7336.2071    13605.262   -11283.557   -2369.8845    75.045547 
   24900    321.57834   -161.74437   0.29097084    -161.4534   -6747.5999    4.2220302    4.2220302    4.2220302   -6747.5999   -5590.5437   -8220.5448   -6431.7112    7466.6579    -8731.248   -1910.3582    75.259963 
   25000    285.30001   -161.71183   0.25814544   -161.45368   -1187.3774    4.2291966    4.2291966    4.2291966   -1187.3774    18202.465   -10443.422   -11321.175    5358.3036   -4223.5165    2264.7851    75.643848 
   25100    335.21061   -161.75638    0.3033056   -161.45308    6252.4022    4.2278725    4.2278725    4.2278725    6252.4022    5205.9575     9167.176     4384.073    4468.1368   -6513.3064     2727.849    75.572825 
   25200    421.95123    -161.8336   0.38179034   -161.45181    5760.5157    4.2202839    4.2202839    4.2202839    5760.5157   -5861.1937    13218.788    9923.9527    -548.5055   -7289.5538    1177.3256    75.166617 
   25300    372.35259   -161.78888   0.33691245   -161.45197   -748.84675     4.216922     4.216922     4.216922   -748.84675   -7119.8733    2462.6586    2410.6744    9690.0394   -12088.231   -1576.6547    74.987128 
   25400    346.02925   -161.76562   0.31309453   -161.45252   -5853.1397    4.2228795    4.2228795    4.2228795   -5853.1397   -2424.7195   -5324.0304   -9810.6692    3434.9755   -6879.9224   -5161.3644     75.30539 
   25500    454.66113   -161.86346   0.41138695   -161.45207   -6133.0237    4.2293605    4.2293605    4.2293605   -6133.0237    5116.8301   -11665.611   -11850.291   -643.73546    -2565.469   -1059.6897    75.652647 
   25600    455.17875   -161.86393    0.4118553   -161.45207    2816.8041    4.2274778    4.2274778    4.2274778    2816.8041   -2925.0435    7842.1187     3533.337    2033.4111   -2948.9153    2396.3727     75.55166 
   25700     462.8372   -161.86986   0.41878482   -161.45107    4911.2796    4.2197732    4.2197732    4.2197732    4911.2796   -2271.5186    15198.928    1806.4291   -2880.8161    147.76365   -2804.1851     75.13933 
   25800    455.19235   -161.86315   0.41186761   -161.45128   -3240.5951    4.2179156    4.2179156    4.2179156   -3240.5951   -3334.3569    3048.1257   -9435.5541    1275.4363   -5915.6681   -1941.6029    75.040143 
   25900    449.80397   -161.85919   0.40699208    -161.4522   -8939.1704    4.2236783    4.2236783    4.2236783   -8939.1704   -9853.3281   -5605.1276   -11359.055   -2475.4585    -4679.002   -3128.3235    75.348131 
   26000    537.58192   -161.93847   0.48641542   -161.45205   -9143.7767    4.2297708    4.2297708    4.2297708   -9143.7767    -9408.722   -14497.811   -3524.7967   -2593.7941    1714.0648    -5176.899    75.674666 
   26100    476.79131   -161.88327   0.43141079   -161.45186    2421.5257    4.2261535    4.2261535    4.2261535    2421.5257   -1532.8566    5180.5475    3616.8862    -574.7152   -457.86133    1641.5614    75.480678 
   26200     459.9281    -161.8671   0.41615261   -161.45094     3957.033    4.2214278    4.2214278    4.2214278     3957.033    4981.5984    15071.841   -8182.3408   -3821.8488     1700.709    758.51085    75.227755 
   26300    519.11003   -161.92146   0.46970167   -161.45175   -1997.4653    4.2197524    4.2197524    4.2197524   -1997.4653     748.3259    1338.9025   -8079.6245   -884.96989   -1416.2186   -419.16609    75.138222 
   26400    515.82782   -161.91942   0.46673185   -161.45269   -10233.357    4.2246437    4.2246437    4.2246437   -10233.357   -13552.247   -14071.723   -3076.1005   -7528.2884   -2138.5979   -3197.0063    75.399814 
   26500     491.5828   -161.89759   0.44479445   -161.45279   -7297.0168    4.2272327    4.2272327    4.2272327   -7297.0168   -10856.024    -20071.65    9036.6233   -7228.7272    2051.6541   -4232.8841    75.538519 
   26600    509.68453   -161.91347   0.46117327   -161.45229   -1404.5849      4.22584      4.22584      4.22584   -1404.5849    1683.9572   -3828.6594   -2069.0525   -2301.1156   -808.90209    1451.8786    75.463884 
   26700    478.90791   -161.88549   0.43332594   -161.45217    4166.0278    4.2217829    4.2217829    4.2217829    4166.0278      4632.16    11667.194   -3801.2706   -3705.8621    2427.5147    429.02515    75.246742 
   26800    549.86338   -161.94909   0.49752794   -161.45156   -4092.3151    4.2212304    4.2212304    4.2212304   -4092.3151   -4004.2624   -7774.3613   -498.32163   -5109.4305    834.84012    912.29103    75.217201 
   26900    511.45603   -161.91464   0.46277617   -161.45186   -9946.2104    4.2237435    4.2237435    4.2237435   -9946.2104   -13343.649   -19756.322    3261.3395   -10274.659    1701.6811   -44.359649    75.351622 
   27000    442.90404    -161.8528   0.40074889   -161.45205   -5596.6565     4.225494     4.225494     4.225494   -5596.6565   -9491.0132   -14666.081    7367.1253    -10104.45    2282.6726   -5927.5594    75.445346 
   27100    524.57246   -161.92626   0.47464419   -161.45162   -1274.7792    4.2254802    4.2254802    4.2254802   -1274.7792    4958.6836    -4543.319   -4239.7021   -3004.1871    254.42219   -2268.6225    75.444612 
   27200    472.92878   -161.87968    0.4279159   -161.45177    3848.1727    4.2240501    4.2240501    4.2240501    3848.1727    3995.5205    4858.7994    2690.1982   -1852.4038    3951.9558    529.59363    75.368035 
   27300    489.37482   -161.89481   0.44279662   -161.45201   -2780.7972    4.2231324    4.2231324    4.2231324   -2780.7972   -3271.8742   -8299.7878    3229.2704   -892.42514    4258.3959   -2528.6877     75.31892 
   27400    469.76078    -161.8775   0.42504943   -161.45245   -6032.6135    4.2221237    4.2221237    4.2221237   -6032.6135   -4290.2801   -13163.056   -644.50408   -7339.6282    4849.9593    710.19794    75.264962 
   27500    438.02961   -161.84878    0.3963384   -161.45244   -3053.8814    4.2239734    4.2239734    4.2239734   -3053.8814    1869.8491   -10297.802   -733.69114   -8446.4854    6330.9173   -2348.8492    75.363926 
   27600    513.62291   -161.91643    0.4647368    -161.4517   -326.38037    4.2260008    4.2260008    4.2260008   -326.38037    10081.569   -8895.8593   -2164.8506   -982.58619    2581.5556   -3065.1494    75.472498 
   27700    476.25902   -161.88291   0.43092917   -161.45198    849.16704     4.225618     4.225618     4.225618    849.16704    3382.5711   -5585.4193    4750.3493   -1830.0812    3685.9014    774.19195    75.451991 
   27800    434.15034   -161.84474   0.39282835   -161.45191    -1031.721    4.2226674    4.2226674    4.2226674    -1031.721    4805.7207   -10578.161    2677.2778   -1539.7185    5856.3076   -3133.8627    75.294043 
   27900    462.54698   -161.87031   0.41852223   -161.45179   -2763.4797    4.2209062    4.2209062    4.2209062   -2763.4797    5781.4096   -8579.9026   -5491.9463   -5389.5728    3964.2196    743.47048    75.199873 
   28000    467.14655   -161.87492   0.42268401   -161.45223   -2881.6636    4.2226861    4.2226861    4.2226861   -2881.6636    -95.60823   -8960.4068    411.02414   -11252.523    980.02627   -1245.0759    75.295042 
   28100    434.48995   -161.84584   0.39313564    -161.4527    58.496452    4.2257033    4.2257033    4.2257033    58.496452    6366.2784   -9152.0779    2961.2888   -5117.1704   -1555.5116    -6244.923    75.456561 
   28200    420.73592   -161.83278    0.3806907   -161.45209    1389.2205    4.2261495    4.2261495    4.2261495    1389.2205    5588.1883   -2441.3009    1020.7742   -2718.2426   -1696.9166     1695.484    75.480463 
   28300    415.87271   -161.82791   0.37629037   -161.45162   -310.18351     4.223065     4.223065     4.223065   -310.18351    2448.2703   -2957.3496   -421.47125    1119.7424    967.03128   -3715.6594    75.315315 
   28400    437.15573   -161.84742   0.39554769   -161.45187   -57.074301    4.2194394    4.2194394    4.2194394   -57.074301    3147.4598   -912.43211   -2406.2506   -971.33274   -1205.1409   -4550.2048      75.1215 
   28500    477.64826   -161.88422   0.43218618   -161.45204   -4876.4246    4.2222384    4.2222384    4.2222384   -4876.4246   -8074.8428    -7348.741    794.30991   -7623.3961   -2993.9193     574.2945    75.271101 
   28600     363.2212    -161.7812   0.32865017   -161.45255   -1540.9571    4.2258236    4.2258236    4.2258236   -1540.9571   -1364.9298   -3845.2236      587.282   -1140.5016   -6437.6404   -6706.7968    75.463006 
   28700    387.09255   -161.80265   0.35024947    -161.4524   -1992.7146    4.2279303    4.2279303    4.2279303   -1992.7146     2611.962    1955.5771   -10545.683   -8.2182975   -7770.6073   -2316.2189     75.57592 
   28800     472.6689   -161.88017   0.42768075   -161.45249   -2204.7761    4.2229554    4.2229554    4.2229554   -2204.7761    1197.5904   -2810.9345   -5000.9841    1343.8439   -3626.2734   -2496.9187     75.30945 
   28900    393.12984   -161.80936   0.35571214   -161.45364   -1216.2597    4.2198033    4.2198033    4.2198033   -1216.2597    2708.3985   -7286.5592    929.38148    2625.3187   -5322.6661   -9487.6742    75.140939 
   29000    418.65313   -161.83256   0.37880615   -161.45376   -3668.1864    4.2221525    4.2221525    4.2221525   -3668.1864   -1411.4302   -9812.7734    219.64432   -2588.8096   -5357.0406   -1667.9851    75.266505 
   29100    357.92226   -161.77787   0.32385559   -161.45401   -2056.2625     4.227589     4.227589     4.227589   -2056.2625    820.31885    -3426.138   -3562.9683   -2596.0297   -5610.1686   -5426.7764     75.55762 
   29200    370.03142   -161.78919    0.3348122   -161.45438    3939.0921    4.2277059    4.2277059    4.2277059    3939.0921     11493.51    7012.3854   -6688.6193    2247.7136   -7664.7553   -3552.5628    75.563889 
   29300    440.44005    -161.8514   0.39851942   -161.45288    927.19004    4.2243875    4.2243875    4.2243875    927.19004    11862.643   -5850.2941   -3230.7784    1103.0093   -4254.6699   -748.90285    75.386095 
   29400     287.2145   -161.71314   0.25987772   -161.45327    3349.4639    4.2200893    4.2200893    4.2200893    3349.4639    11498.792   -4755.6836    3305.2834    40.563879   -3379.5605   -10405.724     75.15622 
   29500     336.8551   -161.75875   0.30479358   -161.45396    286.70663    4.2210833    4.2210833    4.2210833    286.70663    4377.9653    783.41961    -4301.265    -1783.221    -6220.797   -1865.7114    75.209338 
   29600    377.38956   -161.79543      0.34147   -161.45396    2615.2062     4.225977     4.225977     4.225977    2615.2062    4144.3434    5025.9537   -1324.6786   -3328.3999   -7358.0797   -1295.7381    75.471221 
   29700    324.44614    -161.7478   0.29356569   -161.45424    7387.7982    4.2283255    4.2283255    4.2283255    7387.7982    9404.3286     11628.94    1130.1261   -458.20698   -8280.9284   -6443.9607    75.597118 
   29800     400.5647   -161.81574   0.36243936    -161.4533   -365.41907    4.2239596    4.2239596    4.2239596   -365.41907    1050.3242    820.23758   -2966.8189   -1776.4891   -9018.8116    1113.2788    75.363188 
   29900    269.69952   -161.69741   0.24402979   -161.45338   -461.88083    4.2184262    4.2184262    4.2184262   -461.88083    3634.5804   -1631.2255   -3388.9975    2164.7317   -6721.5673   -10653.305    75.067401 
   30000    376.72862   -161.79448   0.34087197   -161.45361   -1353.1395    4.2202511    4.2202511    4.2202511   -1353.1395    2413.2482    1623.3385   -8096.0052    2566.7321   -6856.5154    -7555.666    75.164864 
   30100    437.56068    -161.8493   0.39591409   -161.45338    644.29163    4.2268643    4.2268643    4.2268643    644.29163    1686.8074   -2277.9642    2524.0318    -3873.219   -9254.2597   -970.35888    75.518773 
   30200    287.49739    -161.7141   0.26013368   -161.45396    4282.8796    4.2288712    4.2288712    4.2288712    4282.8796    1782.3745     6384.215    4682.0492    1822.5686   -9783.4216   -5853.7403    75.626391 
   30300    386.41498   -161.80241   0.34963639   -161.45277   -2403.8142    4.2238769    4.2238769    4.2238769   -2403.8142   -7027.1473    5699.5061   -5883.8014    968.72287   -9412.2567   -1525.4394    75.358761 
   30400    369.90512   -161.78718   0.33469792   -161.45249   -1002.7985    4.2190375    4.2190375    4.2190375   -1002.7985    3059.5914    447.91089   -6515.8976   -1252.2314   -8091.5124   -8640.7206    75.100038 
   30500    417.24625   -161.83028   0.37753318   -161.45275   -1354.1015    4.2207143    4.2207143    4.2207143   -1354.1015    9229.0427   -4554.3071   -8737.0401    3309.6634   -8760.1185   -11021.255    75.189614 
   30600    432.30892   -161.84391   0.39116219   -161.45275   -2192.4376    4.2266067    4.2266067    4.2266067   -2192.4376    4741.9477   -9989.0695   -1330.1909   -1687.0924   -7905.6647   -2686.8756    75.504966 
   30700    283.68763   -161.70986   0.25668652   -161.45317    4792.4212    4.2285613    4.2285613    4.2285613    4792.4212    9374.0864     1161.922    3841.2552   -1841.6341   -7005.9827   -6376.9268    75.609765 
   30800    429.97992   -161.84093   0.38905487   -161.45188      791.133    4.2243103    4.2243103    4.2243103      791.133    3654.8265    6285.9324   -7567.3599    80.043148   -8632.2237   -1400.9489    75.381961 
   30900     472.0759   -161.87886    0.4271442   -161.45172   -1326.6117    4.2188568    4.2188568    4.2188568   -1326.6117    4535.3702   -1503.8877   -7011.3175     -151.528   -4722.7325   -2598.8005    75.090387 
   31000    388.04041   -161.80319   0.35110712   -161.45209   -898.37565    4.2200589    4.2200589    4.2200589   -898.37565    9272.5922    -6518.824   -5448.8951     2709.368   -1267.9741   -10366.468    75.154593 
   31100    419.99424   -161.83167   0.38001961   -161.45165   -4425.5897     4.226242     4.226242     4.226242   -4425.5897    6143.6965   -11764.025   -7656.4406   -3108.3233    -4771.542    69.591867    75.485424 
   31200    408.41612   -161.82153   0.36954349   -161.45198   -1552.4657     4.228359     4.228359     4.228359   -1552.4657    6738.3344   -6588.4359   -4807.2956   -2464.2525   -4962.0325   -522.09871    75.598913 
   31300    487.74619   -161.89248     0.441323   -161.45115   -240.30548    4.2229031    4.2229031    4.2229031   -240.30548   -1857.5196    146.38285    990.22029   -1515.6032   -2782.4863   -1677.8077    75.306654 
   31400    503.80183   -161.90628   0.45585049   -161.45043   -2086.4496    4.2184419    4.2184419    4.2184419   -2086.4496   -4487.9573   -3874.9953    2103.6039   -5644.6021   -3189.9714     5089.283    75.068237 
   31500     365.0678   -161.78158   0.33032101   -161.45126   -208.45792     4.220633     4.220633     4.220633   -208.45792     5449.543   -3805.7318   -2269.1849    3717.5056   -1093.1194   -2693.7039    75.185269 
   31600    416.93637   -161.82895   0.37725279    -161.4517   -2680.9174    4.2267571    4.2267571    4.2267571   -2680.9174    9391.5115   -6166.3484   -11267.915    1048.8172   -580.95969    343.04666    75.513026 
   31700    511.89027   -161.91519   0.46316907   -161.45202   -5362.0294    4.2271302    4.2271302    4.2271302   -5362.0294    5065.8434   -11778.806   -9373.1254   -3963.7411   -3438.9281    1234.6894    75.533023 
   31800      410.812   -161.82423   0.37171133   -161.45252   -1336.1611    4.2221389    4.2221389    4.2221389   -1336.1611    -772.7445   -7288.1146    4052.3757    392.48624   -1754.1653   -3085.0501    75.265777 
   31900    416.60041   -161.82906    0.3769488   -161.45211   -741.65091    4.2197951    4.2197951    4.2197951   -741.65091   -786.42894   -2640.7884    1202.2646   -1183.1152    1458.7295    4666.3422    75.140499 
   32000    313.14881   -161.73607   0.28334362   -161.45272    2415.7772    4.2226956    4.2226956    4.2226956    2415.7772    10065.376    4449.6889   -7267.7335    4910.5637    2193.7379    686.11993     75.29555 
   32100    376.01838   -161.79415   0.34022933   -161.45392    299.19851    4.2265137    4.2265137    4.2265137    299.19851    12530.109   -1010.8995   -10621.614    7501.4467    246.87587    748.97634    75.499982 
   32200    469.56897   -161.87835   0.42487587   -161.45348   -3479.5027    4.2262858    4.2262858    4.2262858   -3479.5027    9429.5851   -13930.824   -5937.2687    1888.0357   -2560.7202    534.03964    75.487768 
   32300    285.88374   -161.71235   0.25867362   -161.45367   -245.77211    4.2234956    4.2234956    4.2234956   -245.77211    8271.2362   -13647.715    4639.1622    770.48194    2209.5351   -7858.7003    75.338353 
   32400     327.1278   -161.74974    0.2959921   -161.45375   -1134.3343    4.2218733    4.2218733    4.2218733   -1134.3343    6957.7625   -6993.3022   -3367.4632   -220.43698    1965.6242     -151.669    75.251576 
   32500    331.62719    -161.7541   0.30006325   -161.45403    2151.6111    4.2242773    4.2242773    4.2242773    2151.6111    12040.241     3146.452   -8731.8596    4957.4653    1724.6165    714.45468    75.380196 
   32600    383.82423   -161.80236   0.34729223   -161.45507   -1769.1369    4.2271519    4.2271519    4.2271519   -1769.1369    8174.5066   -9578.0258   -3903.8914    7334.1252    1807.6851   -575.33413     75.53419 
   32700    421.39441   -161.83637   0.38128652   -161.45508   -5557.7305    4.2259161    4.2259161    4.2259161   -5557.7305    856.52399   -17857.262    327.54674   -574.83709    921.25029    687.38595    75.467961 
   32800    266.37593   -161.69572   0.24102254    -161.4547    2462.2753    4.2225031    4.2225031    4.2225031    2462.2753     3665.242   -3463.4184    7185.0022   -2517.3157    899.62434   -7800.9938    75.285257 
   32900    352.50787   -161.77328   0.31895653   -161.45433    5414.6307    4.2217686    4.2217686    4.2217686    5414.6307      11832.6     2952.421    1458.8707   -1285.4063    1574.2252   -2288.8907    75.245977 
   33000    444.10822   -161.85644   0.40183845    -161.4546    1204.6309    4.2244669    4.2244669    4.2244669    1204.6309    7540.5414    6141.7626   -10068.411   -1548.2382    3792.2796    874.44599    75.390345 
   33100    420.08204   -161.83465   0.38009906   -161.45455   -5879.3104    4.2262415    4.2262415    4.2262415   -5879.3104   -6512.0974   -5159.3745   -5966.4592    6588.8177    3478.9564   -1680.6544    75.485396 
   33200    375.51378   -161.79341   0.33977276   -161.45364   -5795.9994    4.2255076    4.2255076    4.2255076   -5795.9994   -7146.0381   -4719.0828   -5522.8773    819.06445    1541.0366    2284.9566    75.446078 
   33300    398.36932   -161.81298   0.36045294   -161.45253    4881.2445    4.2223384    4.2223384    4.2223384    4881.2445    4008.7237    10090.611    544.39927   -2901.8016     2990.193   -4537.1102    75.276444 
   33400    498.02512   -161.90315   0.45062359   -161.45253    8639.5004    4.2223894    4.2223894    4.2223894    8639.5004    15742.733    3376.0966    6799.6719     2279.173    4371.1066   -1971.4281    75.279172 
   33500    553.10513   -161.95277   0.50046114   -161.45231    -1442.707    4.2231231    4.2231231    4.2231231    -1442.707    2380.2971   -3344.9276   -3363.4905    2676.6494     2893.649    2910.9485    75.318423 
   33600    469.95385   -161.87712   0.42522412    -161.4519   -12903.602    4.2263167    4.2263167    4.2263167   -12903.602   -13070.725   -15006.299    -10633.78    8161.8115    3627.2119   -906.73138    75.489427 
   33700     442.8417   -161.85267   0.40069248   -161.45198   -7852.3435     4.225378     4.225378     4.225378   -7852.3435   -897.44174    -14070.15   -8589.4389    5050.5405    2335.5563    3318.9978    75.439137 
   33800    567.64111   -161.96582   0.51361361    -161.4522   -1971.2501    4.2233279    4.2233279    4.2233279   -1971.2501     3970.656   -4454.1972   -5430.2091      1525.27    813.25808   -2710.9776    75.329381 
   33900    578.49042   -161.97557   0.52343029   -161.45214    3606.6623    4.2213106    4.2213106    4.2213106    3606.6623    10699.623   -8604.2324    8724.5964    4609.1031    3458.0347   -2544.6079     75.22149 
   34000    458.75933   -161.86727   0.41509508   -161.45217   -2365.2053    4.2244618    4.2244618    4.2244618   -2365.2053    2849.2941   -13011.775    3066.8647    2938.6496    4260.3531    1611.0529    75.390073 
   34100    415.93515   -161.82806   0.37634687   -161.45171   -10027.842    4.2263273    4.2263273    4.2263273   -10027.842   -12272.639   -10981.566   -6829.3192    5782.6789    4462.2759   -2857.2971    75.489992 
   34200    456.57186    -161.8652   0.41311582   -161.45209   -5932.8692    4.2256792    4.2256792    4.2256792   -5932.8692    -2107.953   -6990.9234   -8699.7313    4956.4422    573.83661     3221.822    75.455271 
   34300    507.53455   -161.91138   0.45922793   -161.45216    4269.2034    4.2217066    4.2217066    4.2217066    4269.2034    12258.434    6482.3231   -5933.1469   -94.791461    241.24637    1007.5185    75.242662 
   34400    452.96676   -161.86221   0.40985385   -161.45236    2033.2669    4.2225101    4.2225101    4.2225101    2033.2669     5056.772    2472.1719   -1429.1432    1641.0682    4581.4282   -4322.9218    75.285631 
   34500    348.23782   -161.76812    0.3150929   -161.45303   -1752.9173     4.224069     4.224069     4.224069   -1752.9173   -5378.8664   -6707.1636     6827.278    2146.1096    2654.5792    1498.8307    75.369044 
   34600    469.17918   -161.87717   0.42452318   -161.45264   -6525.2303    4.2273201    4.2273201    4.2273201   -6525.2303   -8018.4178   -15361.388     3804.115    1336.2655    2230.3156    205.42409    75.543204 
   34700    568.48455   -161.96682   0.51437677   -161.45244    -4231.293    4.2246361    4.2246361    4.2246361    -4231.293    5768.4237   -15815.892   -2646.4103    4092.8401   -668.88591    2254.2722    75.399402 
   34800    433.68932   -161.84477   0.39241121   -161.45235   -542.85336    4.2218286    4.2218286    4.2218286   -542.85336    11434.804   -5392.1237   -7671.2408    -1980.462    1068.0494    3803.6361    75.249182 
   34900    419.76567   -161.83145    0.3798128   -161.45164   -2137.6441    4.2215333    4.2215333    4.2215333   -2137.6441    6776.5568   -5928.5094   -7260.9797   -797.96953    2947.5351   -2406.6944    75.233394 
   35000    395.66561   -161.81072   0.35800655   -161.45271   -1190.4045    4.2250614    4.2250614    4.2250614   -1190.4045   -135.53247   -10045.661    6609.9804    4548.2817    1390.0094   -505.47944     75.42218 
   35100    460.50982    -161.8698   0.41667897   -161.45313    1009.9617    4.2264229    4.2264229    4.2264229    1009.9617   -1787.8958    -8803.474    13621.255    2248.4228    1781.6435   -757.89608    75.495118 
   35200    511.80031   -161.91565   0.46308767   -161.45256   -2076.1441    4.2245248    4.2245248    4.2245248   -2076.1441    3761.5302   -4884.8941   -5105.0683    5056.9386   -2362.1501   -1737.1908    75.393446 
   35300    262.64177    -161.6905   0.23764379   -161.45285    3748.1003    4.2218351    4.2218351    4.2218351    3748.1003    14455.956     9843.853   -13055.508    3170.7474     -2678.42      3511.91    75.249534 
   35400    395.32318   -161.81067   0.35769672   -161.45298    41.107492    4.2222635    4.2222635    4.2222635    41.107492    8509.8644    2398.9871   -10785.529    2818.3069    1333.2081   -4221.6983    75.272443 
   35500     480.3261   -161.88809   0.43460915   -161.45348   -78.181376    4.2242991    4.2242991    4.2242991   -78.181376    574.62996   -9856.2843    9047.1102    5713.2609    3233.0055   -4787.0696    75.381361 
   35600    392.97689   -161.80848   0.35557375   -161.45291     48.81424    4.2259595    4.2259595    4.2259595     48.81424   -1009.6459   -16579.981    17736.069    1924.4437   -1816.8807   -135.05233    75.470283 
   35700     429.3275   -161.84027   0.38846454   -161.45181   -4387.0939    4.2251026    4.2251026    4.2251026   -4387.0939   -2187.0665   -10013.585    -960.6301         3301   -2283.4504   -4793.1425    75.424383 
   35800    297.04143   -161.72207   0.26876933    -161.4533     1507.941    4.2237557    4.2237557    4.2237557     1507.941    6733.8473    4236.7726   -6446.7971    1970.4571    -1206.184     1380.065    75.352278 
   35900     468.1749    -161.8766   0.42361449   -161.45299   -2348.4957    4.2224625    4.2224625    4.2224625   -2348.4957    6860.1935   -9083.6874   -4821.9931    726.03768    -3891.089   -2985.8153    75.283084 
   36000    482.82033   -161.88965   0.43686598   -161.45278   -4419.1956    4.2242036    4.2242036    4.2242036   -4419.1956   -2672.0776   -14757.182    4171.6728    5530.0946   -1524.5064   -4478.3821    75.376248 
   36100    286.91068   -161.71265   0.25960282   -161.45305   -1883.8727    4.2262372    4.2262372    4.2262372   -1883.8727   -8881.8453   -13991.455    17221.682    2427.8139   -3306.6617    683.92738    75.485163 
   36200    343.15416   -161.76326   0.31049309   -161.45277   -988.05551    4.2258089    4.2258089    4.2258089   -988.05551   -8917.0769    1294.3592    4658.5512     2775.623   -5192.3076   -4922.9307    75.462216 
   36300    356.57165   -161.77617   0.32263352   -161.45354    5945.8347    4.2232992    4.2232992    4.2232992    5945.8347    8733.5604    16764.307   -7660.3635    6362.2786   -6280.6354    876.57864    75.327847 
   36400    390.22223   -161.80688   0.35308127    -161.4538    1861.1025    4.2227603    4.2227603    4.2227603    1861.1025    12005.166     3420.505   -9842.3636    3500.1461   -4683.4338   -4047.1788    75.299015 
   36500    323.72043   -161.74621   0.29290905    -161.4533    -3931.258    4.2242325    4.2242325    4.2242325    -3931.258   -5151.3381   -5031.0472   -1611.3887    7724.4703   -1208.8622   -5930.2574    75.377796 
   36600    276.89696   -161.70339   0.25054219   -161.45285   -1885.9478     4.225751     4.225751     4.225751   -1885.9478   -11288.477   -10059.053    15689.687    7234.6438   -5448.0142   -323.99025    75.459115 
   36700    412.22285   -161.82528   0.37298789   -161.45229    2039.2127    4.2249911    4.2249911    4.2249911    2039.2127   -5521.3566    2111.8143    9527.1803    686.45249   -6216.7595    -7492.922    75.418412 
   36800    421.06312   -161.83354   0.38098676   -161.45256    3321.6575     4.223888     4.223888     4.223888    3321.6575    10973.894    11033.342   -12042.264    2624.7455   -5551.8173   -2816.3596    75.359355 
   36900    369.70865   -161.78702   0.33452015    -161.4525   -2221.5273    4.2223784    4.2223784    4.2223784   -2221.5273    14119.132   -6309.5965   -14474.118    1788.3736   -8151.3259   -4361.0029    75.278588 
   37000    295.57975   -161.71969   0.26744677   -161.45225    -7619.525    4.2239716    4.2239716    4.2239716    -7619.525   -8008.3713   -14096.338   -753.86552    5659.1772   -3722.8578   -6526.6772    75.363833 
   37100    384.72533   -161.80066   0.34810756   -161.45255    -4156.039    4.2244507    4.2244507    4.2244507    -4156.039   -14224.129    -7849.732    9605.7442    4190.4818   -3922.9661    95.439285    75.389479 
   37200    380.84023   -161.79796   0.34459224   -161.45336     4895.002    4.2251491    4.2251491    4.2251491     4895.002   -4033.7979     18468.25    250.55435    45.311318   -9807.6147   -3378.3937    75.426873 
   37300    301.76168   -161.72622   0.27304031   -161.45318    8242.0481     4.223176     4.223176     4.223176    8242.0481    14720.882    21785.394   -11780.131     2378.102   -7264.7839   -1066.8478    75.321253 
   37400    273.59927   -161.70089   0.24755836   -161.45333   -580.10055    4.2226274    4.2226274    4.2226274   -580.10055    7711.6613    4148.7436   -13600.707    223.11126    -5323.048    -5091.205    75.291905 
   37500    245.18213   -161.67613   0.22184595   -161.45428   -149.86355    4.2233356    4.2233356    4.2233356   -149.86355   -6742.1235    4486.4413    1806.0916     4591.005   -4063.9709   -6195.4227    75.329793 
   37600    381.57871   -161.79928   0.34526044   -161.45402    1579.3418    4.2253589    4.2253589    4.2253589    1579.3418   -8078.7561    14647.799   -1831.0172    3373.1616   -5437.5333    1698.8526    75.438109 
   37700    268.13112   -161.69772   0.24261067   -161.45511    8033.8366    4.2250746    4.2250746    4.2250746    8033.8366   -578.16028    38790.392   -14110.722    1957.6359   -9732.5192    1093.0082    75.422885 
   37800    207.47539   -161.64297   0.18772809   -161.45524    5557.3819    4.2236938    4.2236938    4.2236938    5557.3819    8720.3405    23449.021   -15497.215     1183.244   -7088.7637   -1211.0668    75.348965 
   37900    324.90081   -161.74859   0.29397708   -161.45462   -1702.8736    4.2232233    4.2232233    4.2232233   -1702.8736   -840.66348    3573.4122   -7841.3695   -4152.8855   -6838.8642   -5115.4054    75.323785 
   38000    381.06289   -161.79993   0.34479371   -161.45513   -1568.3763    4.2244562    4.2244562    4.2244562   -1568.3763   -9659.8795    1335.6664    3619.0842    795.39077   -3791.5682   -4240.8832    75.389773 
   38100    347.46935   -161.76964   0.31439757   -161.45524    2477.0802    4.2253973    4.2253973    4.2253973    2477.0802    -5368.628    17915.452   -5115.5828    1672.6379   -2146.6083    -1671.135    75.440168 
   38200    317.79484   -161.74204   0.28754745   -161.45449      613.312    4.2260346    4.2260346    4.2260346      613.312   -4417.0968    22447.401   -16190.369    1721.5628   -7107.2426   -1309.2685     75.47431 
   38300    360.01506   -161.78026   0.32574919   -161.45451   -4451.8878    4.2242421    4.2242421    4.2242421   -4451.8878   -1502.5602   -2353.9496   -9499.1536   -1275.2121   -4862.7476   -1754.8857    75.378311 
   38400    452.34368   -161.86299   0.40929007    -161.4537   -6421.9884    4.2231843    4.2231843    4.2231843   -6421.9884   -3798.1174   -13576.701   -1891.1465   -1080.0508   -1695.8252   -330.88901    75.321697 
   38500    452.09332   -161.86231   0.40906354   -161.45324   -1213.2813    4.2237957    4.2237957    4.2237957   -1213.2813   -9881.8727    3825.3245    2416.7043    4422.7778   -2519.0114   -3301.7683    75.354419 
   38600     307.8225   -161.73219   0.27852427   -161.45367    1828.2821     4.226507     4.226507     4.226507    1828.2821   -16973.085     26612.53   -4154.5988    109.98298   -2347.3025   -3379.4133    75.499622 
   38700    449.99123   -161.86031   0.40716152   -161.45315   -6274.1542    4.2262812    4.2262812    4.2262812   -6274.1542   -13182.462    2339.7177   -7979.7184    4558.9209   -3182.2135   -2377.0315    75.487522 
   38800    468.84952   -161.87776    0.4242249   -161.45354   -7651.7611    4.2247685    4.2247685    4.2247685   -7651.7611   -7055.5869   -9683.8855   -6215.8109    4230.6863   -522.91841    54.542082    75.406496 
   38900    423.46228   -161.83628   0.38315757   -161.45312   -1616.6408    4.2221699    4.2221699    4.2221699   -1616.6408     -3872.03    3114.8995   -4092.7919    1522.5798    857.81857    2065.9445    75.267433 
   39000    365.96672   -161.78344   0.33113438    -161.4523    3182.1931    4.2245842    4.2245842    4.2245842    3182.1931   -12723.415    29718.026    -7448.032    3717.3657    475.29968    2382.2495    75.396627 
   39100     391.8278   -161.80741   0.35453402   -161.45288    3085.7418    4.2268535    4.2268535    4.2268535    3085.7418   -19664.992    28664.407    257.81002    872.17092     3273.971    2022.9572    75.518191 
   39200    510.27062   -161.91563   0.46170358   -161.45393   -6832.0322    4.2288989    4.2288989    4.2288989   -6832.0322   -19688.859    145.40541   -952.64347    4037.1214    1930.0021   -3761.1779    75.627876 
   39300    431.80273   -161.84404   0.39070418   -161.45333   -2811.4701    4.2249214    4.2249214    4.2249214   -2811.4701   -8782.9281    10137.842   -9789.3243    1682.2244    2365.2169    271.55358    75.414679 
   39400    364.20134   -161.78206   0.32953703   -161.45252    4216.2383    4.2227927    4.2227927    4.2227927    4216.2383   -2192.7284     24438.85   -9597.4069   -2313.8797    4915.6885    760.97217    75.300746 
   39500    367.82644   -161.78597    0.3328171   -161.45315    7562.8243     4.224426     4.224426     4.224426    7562.8243   -5780.3728    37608.035   -9139.1891    1958.0636    2875.4291   -347.44068    75.388154 
   39600    503.27312   -161.91061   0.45537209   -161.45524    178.24376    4.2278161    4.2278161    4.2278161    178.24376   -10916.099    15821.358   -4370.5282    3405.7901    3043.8285    2042.8752    75.569797 
   39700    440.59318    -161.8541   0.39865797   -161.45544   -526.18208    4.2265066    4.2265066    4.2265066   -526.18208   -12305.347    8441.0382    2285.7628     1495.025    64.545829   -5927.2531    75.499601 
   39800    399.39171   -161.81477   0.36137801   -161.45339    169.90798    4.2233685    4.2233685    4.2233685    169.90798   -12208.207    19039.941   -6322.0097    1475.7993    369.67408   -449.72304    75.331555 
   39900     404.0773   -161.81786   0.36561764   -161.45224    3292.3529    4.2227738    4.2227738    4.2227738    3292.3529   -6047.2782    26077.287    -10152.95    3535.1268    3040.6494   -4728.9213    75.299735 
   40000    508.03395   -161.91232   0.45967979   -161.45264   -516.27478    4.2252769    4.2252769    4.2252769   -516.27478   -4675.5951    14558.724   -11431.953    3560.9996    1469.3715    -7292.819    75.433721 
   40100    500.55951    -161.9069   0.45291676   -161.45398   -118.43269    4.2258247    4.2258247    4.2258247   -118.43269    1519.6442    11282.485   -13157.428    6559.5601    3896.3886    3283.1483    75.463066 
   40200    437.53705   -161.84975   0.39589272   -161.45385     3164.286    4.2245351    4.2245351    4.2245351     3164.286   -1596.0647    14346.374   -3257.4516    3213.6118    1304.9974   -2923.8426    75.393998 
   40300    460.76999   -161.86908   0.41691437   -161.45217   -457.65254    4.2246616    4.2246616    4.2246616   -457.65254   -12831.525    9541.0522    1917.5152    4099.2806   -2871.8634    3084.1564    75.400768 
   40400    522.19059   -161.92401   0.47248902   -161.45152   -8481.5973    4.2261151    4.2261151    4.2261151   -8481.5973    -16089.12    4462.7943   -13818.467    2729.3173   -357.39646   -1163.2714    75.478624 
   40500    562.64029   -161.96196   0.50908876   -161.45287   -7304.6158    4.2247034    4.2247034    4.2247034   -7304.6158   -5893.2659    1596.2651   -17616.847   -3136.8863   -869.65021   -1932.9224     75.40301 
   40600    449.10323   -161.86071   0.40635804   -161.45435    1557.2647    4.2254476    4.2254476    4.2254476    1557.2647    6241.9099     13003.65   -14573.766    692.62288   -352.77047    1083.8458    75.442864 
   40700    498.18548   -161.90383   0.45076869   -161.45306   -3287.6249    4.2264628    4.2264628    4.2264628   -3287.6249   -87.392252   -2407.4513   -7368.0311   -1023.3572   -2824.5571   -1501.7729    75.497253 
   40800    479.26691   -161.88595   0.43365077    -161.4523   -6595.5453    4.2273395    4.2273395    4.2273395   -6595.5453   -13941.848   -8362.1295    2517.3413   -1493.6853   -6584.1022    2593.7962    75.544243 
   40900    521.15678   -161.92313   0.47155361   -161.45157   -12358.865    4.2258754    4.2258754    4.2258754   -12358.865   -18505.289   -6110.9532   -12460.351    3330.8861   -5761.1314    1520.6412     75.46578 
   41000    410.76343   -161.82474   0.37166739   -161.45308   -4510.8802    4.2245512    4.2245512    4.2245512   -4510.8802   -4939.3934    7099.5366   -15692.784    1299.5117    -7325.705   -540.40012     75.39486 
   41100    375.19538    -161.7936   0.33948466   -161.45411    2748.8274    4.2247481    4.2247481    4.2247481    2748.8274    13367.494    5283.3244   -10404.336    1169.5278   -4193.9775   -3826.9596      75.4054 
   41200    419.03179   -161.83288   0.37914877   -161.45373    2078.6436      4.22581      4.22581      4.22581    2078.6436    12241.478   -7268.4201    1262.8734     435.2832   -998.01402   -4351.4055    75.462277 
   41300    376.12241    -161.7932   0.34032346   -161.45288    -3805.896    4.2259712    4.2259712    4.2259712    -3805.896   -7464.2251   -5391.9768    1438.5137    3819.2412   -9180.0347    1820.5804    75.470914 
   41400    336.98298   -161.75755   0.30490928   -161.45264   -4177.8932    4.2238323    4.2238323    4.2238323   -4177.8932   -12655.883    11903.919   -11781.715    7121.8695   -13886.529   -2153.0448    75.356377 
   41500     288.7251    -161.7146   0.26124454   -161.45336    4615.3471    4.2220105    4.2220105    4.2220105    4615.3471   -3370.0779      28072.9   -10856.781    5989.1346    -10879.54    38.575867     75.25891 
   41600    291.13154   -161.71813   0.26342193   -161.45471    7740.0677    4.2238565    4.2238565    4.2238565    7740.0677    15718.401    13265.572   -5763.7699    5525.1055   -5835.4794   -2672.1473    75.357673 
   41700    340.71717   -161.76281   0.30828806   -161.45452    2062.3722    4.2274592    4.2274592    4.2274592    2062.3722   -376.99923    5917.1217    646.99398    6671.3565   -3992.4886   -2945.1046    75.550662 
   41800    327.67261   -161.75017   0.29648506   -161.45369   -2255.1711    4.2267839    4.2267839    4.2267839   -2255.1711   -17979.272    9164.3443     2049.414    2647.6573   -6677.1402     1288.093    75.514461 
   41900    304.26678   -161.72893   0.27530698   -161.45363    859.99109    4.2240547    4.2240547    4.2240547    859.99109   -15435.978    24734.325   -6718.3731   -243.46664   -8532.8328   -2509.3071    75.368279 
   42000    356.32031   -161.77671   0.32240611    -161.4543    2862.9649    4.2232838    4.2232838    4.2232838    2862.9649    6.0473332    19812.713   -11229.865    818.81294   -7821.9624    339.69109    75.327023 
   42100    383.64153   -161.80134   0.34712692   -161.45421   -3024.5762    4.2273211    4.2273211    4.2273211   -3024.5762    11859.731   -4241.9762   -16691.484    2148.3134   -5522.2788   -1314.3878    75.543261 
   42200    421.37129   -161.83423    0.3812656   -161.45297   -10573.163    4.2287488    4.2287488    4.2287488   -10573.163   -1606.5967   -15639.178   -14473.714    3850.6095   -647.45016   -5761.2651    75.619824 
   42300    380.47571   -161.79668   0.34426242   -161.45242   -6210.8217     4.226879     4.226879     4.226879   -6210.8217   -10561.025   -12109.344    4037.9043    2084.5852    2067.1252    765.19604    75.519561 
   42400    384.56439   -161.80042   0.34796195   -161.45246     6920.175    4.2231407    4.2231407    4.2231407     6920.175    3373.5868    7082.8658    10304.072    2908.5352     -3619.58   -1466.7604    75.319363 
   42500    421.53682   -161.83406   0.38141537   -161.45265    6685.3971    4.2231531    4.2231531    4.2231531    6685.3971    20407.659     5810.692   -6162.1593    6175.9807   -4336.6667   -3091.1971     75.32003 
   42600    347.63014   -161.76785   0.31454305    -161.4533    548.83563    4.2255992    4.2255992    4.2255992    548.83563    17005.429   -3342.9932   -12015.929    8511.1794   -523.95514   -4791.4401    75.450983 
   42700    357.06039   -161.77638   0.32307575   -161.45331   -7023.9556    4.2267891    4.2267891    4.2267891   -7023.9556   -3268.7821   -4659.4844     -13143.6    13694.902   -1988.3519   -5601.6802    75.514739 
   42800    334.67395   -161.75622   0.30282002    -161.4534    654.13804    4.2258246    4.2258246    4.2258246    654.13804   -12325.951    6678.0562    7610.3089     11013.93   -1190.5226    1008.9915    75.463061 
   42900    368.27657   -161.78684   0.33322438   -161.45361    11778.475     4.223291     4.223291     4.223291    11778.475    2487.3256    21759.056    11089.043    9721.6782   -1113.8506   -2478.2635    75.327409 
   43000    349.37734    -161.7699   0.31612396   -161.45378    7630.9548    4.2235278    4.2235278    4.2235278    7630.9548    18779.413    13391.688   -9278.2366    8137.3984   -266.86243    613.99146    75.340078 
   43100    292.04088   -161.71761   0.26424472   -161.45337   -4456.9395    4.2250918    4.2250918    4.2250918   -4456.9395    32.436053    699.83037   -14103.085    7788.4266   -4044.3283    1203.7712    75.423809 
   43200    381.10029   -161.79831   0.34482755   -161.45348   -12085.826    4.2271826    4.2271826    4.2271826   -12085.826   -22549.341   -6321.9033   -7386.2338    8789.6157   -4297.4433   -5033.1643    75.535832 
   43300     380.8296   -161.79844   0.34458263   -161.45386   -2990.5102    4.2268197    4.2268197    4.2268197   -2990.5102    -20080.13     1624.283    9484.3167    9665.9903    2759.0417   -2235.0358    75.516384 
   43400    363.54932    -161.7824   0.32894707   -161.45345    3892.4041    4.2258375    4.2258375    4.2258375    3892.4041    2711.5713    7548.9216    1416.7194    6980.5835    1644.2856    747.06833    75.463748 
   43500    314.94041   -161.73833    0.2849647   -161.45336    3413.5289    4.2235611    4.2235611    4.2235611    3413.5289    15156.684   -43.555727   -4872.5415     2350.826    212.68096   -1373.1244    75.341863 
   43600    357.68942   -161.77872    0.3236449   -161.45507   -5656.0447    4.2235488    4.2235488    4.2235488   -5656.0447   -6700.4696   -6454.0801   -3813.5845    8514.4363    3367.5766   -3001.2953    75.341201 
   43700    365.23426   -161.78664   0.33047163   -161.45617   -5506.7787    4.2264852    4.2264852    4.2264852   -5506.7787   -5995.6425   -5354.5987   -5170.0948    8627.5411   -42.294058   -4510.2832    75.498456 
   43800    356.26322   -161.77757   0.32235445   -161.45522    4612.1099    4.2268729    4.2268729    4.2268729    4612.1099    6565.4705    8195.2791   -924.41982    8352.4089   -874.98299   -2464.2405    75.519232 
   43900    257.51935   -161.68714   0.23300892   -161.45413    9856.2969    4.2257743    4.2257743    4.2257743    9856.2969    21859.876    9451.4327   -1742.4178    7082.5953    267.63218   -1574.2239    75.460363 
   44000    302.79822   -161.72833   0.27397819   -161.45435    6329.1801    4.2220428    4.2220428    4.2220428    6329.1801    19729.328   -691.15893   -50.629001    4742.1753   -1890.7811   -3052.2449    75.260635 
   44100    363.96551   -161.78565   0.32932364   -161.45632   -2747.3225    4.2233649    4.2233649    4.2233649   -2747.3225    2853.9726   -9910.6658   -1185.2742    12771.851    1055.7401    1441.0782    75.331363 
   44200    327.06759   -161.75189   0.29593763   -161.45595   -283.52049    4.2246114    4.2246114    4.2246114   -283.52049    6462.7253    646.54021    -7959.827    9745.2997   -4840.7724   -2297.6772    75.398084 
   44300    310.82809   -161.73589   0.28124379   -161.45464    3345.7409    4.2274316    4.2274316    4.2274316    3345.7409    9917.6913    12341.642   -12222.111    8539.8928    -1415.641   -3416.0079    75.549182 
   44400    306.84646   -161.73193   0.27764112   -161.45428    9629.2364    4.2245158    4.2245158    4.2245158    9629.2364    16748.965    8467.4821    3671.2621    6197.7461   -1769.5968    3589.9606    75.392963 
   44500    424.42998   -161.83776   0.38403317   -161.45373    2448.6566    4.2233241    4.2233241    4.2233241    2448.6566    3455.6127   -2974.3025    6864.6595    3737.9986   -4358.6368    -213.0657     75.32918 
   44600    428.62651   -161.84175   0.38783028   -161.45392   -5320.0018    4.2232949    4.2232949    4.2232949   -5320.0018    -2961.078   -7485.0833   -5513.8439    12101.747    3027.4533   -1406.6135    75.327614 
   44700    384.77107   -161.80123   0.34814895   -161.45308   -8667.6445    4.2269644    4.2269644    4.2269644   -8667.6445   -12181.401    206.72247   -14028.255    6328.5729    904.14983    26.339425    75.524137 
   44800    421.22912   -161.83322   0.38113696   -161.45208   -6620.0066    4.2268923    4.2268923    4.2268923   -6620.0066   -8767.4849    3828.9568   -14921.492    1450.9555    2944.5405    1959.6972     75.52027 
   44900    427.24748   -161.83813    0.3865825   -161.45155    -819.3277     4.225626     4.225626     4.225626    -819.3277    3521.6867   -3229.6359   -2750.0339    3605.2728    1320.3628    6690.7702    75.452417 
   45000    488.71005   -161.89372   0.44219513   -161.45152    1532.1971    4.2226161    4.2226161    4.2226161    1532.1971      815.718      512.778    3268.0953    1889.7347   -3933.0217    1106.7736    75.291302 
   45100    341.38389   -161.76227   0.30889132   -161.45338   -1480.1488    4.2252498    4.2252498    4.2252498   -1480.1488    2548.0928    506.85847   -7495.3978    6228.9129   -1023.4368    4741.9567    75.432266 
   45200     331.4224   -161.75303   0.29987796   -161.45315    -2789.271    4.2262741    4.2262741    4.2262741    -2789.271   -3068.4424    7177.7933   -12477.164    5819.2755    -5055.552    8222.0229    75.487141 
   45300    394.83416   -161.81055   0.35725424   -161.45329   -3204.1336    4.2270567    4.2270567    4.2270567   -3204.1336    6008.0447    2592.2876   -18212.733    1835.9063   -3888.5711    3865.1485    75.529085 
   45400    324.38938   -161.74692   0.29351433   -161.45341    3907.9029    4.2230752    4.2230752    4.2230752    3907.9029     23356.86     1505.539    -13138.69    2060.0729    399.41074    12077.678    75.315863 
   45500    343.99767   -161.76418   0.31125632   -161.45292   -205.16635    4.2237535    4.2237535    4.2237535   -205.16635    14771.121    2011.0346   -17397.655    1352.3516   -1336.8178    10561.309    75.352157 
   45600    249.90714   -161.68027   0.22612123   -161.45415    8429.8518    4.2223744    4.2223744    4.2223744    8429.8518    18430.397    7057.8459    -198.6876    6317.5282   -1399.1983    3693.6811    75.278373 
   45700    344.14027    -161.7665   0.31138535   -161.45511    2822.6565    4.2264024    4.2264024    4.2264024    2822.6565    115.79285    8796.2803   -444.10375    4236.6274    -2302.442    5179.9701    75.494018 
   45800    408.36245   -161.82417   0.36949493   -161.45467   -271.11882    4.2251715    4.2251715    4.2251715   -271.11882    1795.8219    9262.7658   -11871.944   -2871.5699    204.48135    3744.1144    75.428076 
   45900     290.0105    -161.7172    0.2624076   -161.45479   -1350.2178    4.2255123    4.2255123    4.2255123   -1350.2178    7163.3428    2280.5794   -13494.576    499.19823    3080.3636    8858.8986    75.446327 
   46000    324.53047   -161.74749   0.29364199   -161.45385   -1058.3677    4.2213557    4.2213557    4.2213557   -1058.3677    1539.3235    3201.7714    -7916.198   -1436.2641    734.15254    8061.7436      75.2239 
   46100    333.49196   -161.75602   0.30175053   -161.45427   -869.33202    4.2245419    4.2245419    4.2245419   -869.33202   -1783.4073   -3103.7419    2279.1531   -1011.8361    -1008.489    770.14773    75.394364 
   46200    395.99682   -161.81277   0.35830624   -161.45447    2452.8192    4.2249069    4.2249069    4.2249069    2452.8192   -5228.8977    9487.0767    3100.2787    5995.4619   -4711.0818    5000.7858    75.413906 
   46300    306.93191   -161.73262   0.27771844    -161.4549   -1659.0613    4.2277823    4.2277823    4.2277823   -1659.0613   -615.24859    13972.137   -18334.072   -3086.7806   -4324.0488    4613.8938    75.567989 
   46400    247.80125   -161.67871   0.22421578   -161.45449    855.61669    4.2232009    4.2232009    4.2232009    855.61669    11648.614     7737.942   -16819.706   -4782.4122   -876.73715    3249.7969    75.322585 
   46500    330.14648   -161.75407   0.29872348   -161.45535    -2465.636    4.2239362    4.2239362    4.2239362    -2465.636    7451.7518   -1676.8825   -13171.777    2720.7785   -2623.0325    7445.4266    75.361937 
   46600    313.03188   -161.73975   0.28323782   -161.45651    4448.2329    4.2241178    4.2241178    4.2241178    4448.2329    15365.326    1135.2093   -3155.8369     1311.296   -565.59393    1811.7059    75.371658 
   46700    324.44365    -161.7487   0.29356344   -161.45514   -1523.7556    4.2274158    4.2274158    4.2274158   -1523.7556    4947.9949    7538.2752   -17057.537    3353.9488   -1177.1223   -887.96807    75.548334 
   46800     255.6568   -161.68524   0.23132364   -161.45392     2440.066    4.2239668    4.2239668    4.2239668     2440.066    3363.5007    15512.732   -11556.035   -1754.7676   -3107.2748     1722.025    75.363572 
   46900    290.74306   -161.71724   0.26307043   -161.45417     2200.948    4.2229359    4.2229359    4.2229359     2200.948    1732.6253    2658.4552    2211.7634   -4534.8519    2004.1112    4000.7655    75.308406 
   47000    415.91573   -161.83042   0.37632929   -161.45409   -1016.5549    4.2231393    4.2231393    4.2231393   -1016.5549   -5842.2126    413.68278     2378.865    131.10924    2770.3015    4037.2479    75.319289 
   47100    289.03147   -161.71592   0.26152175    -161.4544    3775.8506    4.2265671    4.2265671    4.2265671    3775.8506   -2115.5659    9319.8581    4123.2595   -1733.1621    2176.1179   -771.15687    75.502843 
   47200    282.43876   -161.70897   0.25555652   -161.45341    2498.6042    4.2257586    4.2257586    4.2257586    2498.6042   -9111.5646    15518.954    1088.4234    3334.2564   -2969.4284   -2796.6605    75.459524 
   47300    306.97629    -161.7311    0.2777586   -161.45334   -1979.6593    4.2242079    4.2242079    4.2242079   -1979.6593    -19524.48    8355.6365    5229.8657   -994.05027   -7100.7949   -380.61168    75.376481 
   47400    332.87624   -161.75487   0.30119342   -161.45367    348.53915    4.2229642    4.2229642    4.2229642    348.53915   -12159.908   -2252.2788    15457.805    -9680.031   -2480.5463   -3111.1106    75.309924 
   47500    373.20799   -161.79162   0.33768643   -161.45393   -563.89079    4.2246302    4.2246302    4.2246302   -563.89079   -6275.3299    1113.3345     3470.323   -511.13997   -4026.5347   -1193.9154    75.399091 
   47600    258.33484   -161.68778   0.23374679   -161.45403    3664.9258    4.2257837    4.2257837    4.2257837    3664.9258     1201.746    16493.805   -6700.7735    1037.9678   -1180.6877    2815.2089    75.460869 
   47700    312.10805   -161.73599   0.28240193   -161.45359    1295.2501    4.2257765    4.2257765    4.2257765    1295.2501   -9967.4175    19112.042   -5258.8738   -579.87047   -83.441122   -4876.8371     75.46048 
   47800     418.1137   -161.83148   0.37831806   -161.45316   -2636.7945    4.2239532    4.2239532    4.2239532   -2636.7945   -16084.286    6999.4017    1174.5007    468.04709   -5492.8956   -3040.4064    75.362845 
   47900    384.53425   -161.80135   0.34793467   -161.45342   -7295.2042    4.2246986    4.2246986    4.2246986   -7295.2042   -15307.678   -6148.4764   -429.45798   -6311.4656    775.74041    3296.0605    75.402751 
   48000    339.74213   -161.76166   0.30740582   -161.45425   -6481.4595    4.2265406    4.2265406    4.2265406   -6481.4595   -18480.246   -288.50733   -675.62503   -2781.1258    1452.1635    -1612.281    75.501425 
   48100    346.54503   -161.76818   0.31356122   -161.45462    2406.0622    4.2249417    4.2249417    4.2249417    2406.0622   -10771.544    15917.818    2071.9126    1869.6698    1399.7777    2078.5151    75.415771 
   48200    362.61215   -161.78292   0.32809909   -161.45482     4633.212    4.2242357    4.2242357    4.2242357     4633.212   -12860.094    19300.961    7458.7686     2795.994    1913.8673    1352.4011     75.37797 
   48300    359.01876   -161.77975   0.32484771    -161.4549    -453.3592    4.2243511    4.2243511    4.2243511    -453.3592    -11163.58    7815.5771    1987.9251    4918.5762   -7107.7506   -1723.2165    75.384146 
   48400    253.08755   -161.68392   0.22899893   -161.45492   -1764.4096    4.2257693    4.2257693    4.2257693   -1764.4096   -7835.0751   -2498.1162    5039.9624   -2666.4272   -1448.0449    1825.7758    75.460098 
   48500    207.70871   -161.64315    0.1879392   -161.45521      4561.94    4.2252819    4.2252819    4.2252819      4561.94   -14131.249     2238.767    25578.302   -2188.8182   -2499.4656    1490.0068    75.433988 
   48600    295.72785   -161.72375   0.26758078   -161.45617    7092.4895    4.2252229    4.2252229    4.2252229    7092.4895   -12794.488    14098.047    19973.909    3605.5535   -898.96388    3338.6547    75.430826 
   48700    274.21837   -161.70407   0.24811854   -161.45595     8408.247    4.2251293    4.2251293    4.2251293     8408.247   -11988.213    20634.405    16578.549    3223.5366    4622.5023    1969.7416    75.425816 
   48800    253.26273   -161.68409   0.22915744   -161.45493    2202.5017    4.2240566    4.2240566    4.2240566    2202.5017   -15784.062    11892.393    10499.174    2010.6771   -4367.0587    1322.4458    75.368379 
   48900    209.76336   -161.64548    0.1897983   -161.45568   -355.12201    4.2246174    4.2246174    4.2246174   -355.12201   -14796.128    1751.5252    11979.237   -1640.2043   -1530.6511    2278.9928    75.398404 
   49000    308.95098   -161.73543   0.27954534   -161.45588    1347.3346    4.2265158    4.2265158    4.2265158    1347.3346   -19246.108    324.41555    22963.696   -2497.2665    1197.6558   -4043.1941    75.500096 
   49100    372.14975   -161.79296   0.33672891   -161.45623   -422.64796       4.2281       4.2281       4.2281   -422.64796   -13766.547    8341.9648    4156.6387   -106.22804    2950.3536    3373.4296    75.585023 
   49200    273.72065   -161.70299   0.24766819   -161.45533   -1459.3359    4.2251862    4.2251862    4.2251862   -1459.3359   -4565.8611    14297.849   -14109.996    932.21399     7319.051    1458.3959    75.428864 
   49300    263.13655   -161.69201   0.23809148   -161.45392    -1439.547     4.222355     4.222355     4.222355    -1439.547   -2661.6714     12186.73   -13843.699    752.65364   -2340.4094   -4349.7065    75.277332 
   49400    294.24079   -161.72038   0.26623525   -161.45415     3011.731    4.2232595    4.2232595    4.2232595     3011.731   -1932.7385     5935.078    5032.8534   -1167.6864   -1586.2432    3004.3285    75.325724 
   49500    357.53838   -161.77862   0.32350824   -161.45512    1816.6791     4.227776     4.227776     4.227776    1816.6791   -9270.5237    3900.6477    10819.913   -4111.0991   -1025.5708    177.72871    75.567647 
   49600    281.64555   -161.70967   0.25483882   -161.45483   -866.05706    4.2274071    4.2274071    4.2274071   -866.05706   -3619.5475    10212.813   -9191.4363    211.20618   -1123.5171   -1426.9142    75.547869 
   49700    222.33472   -161.65566   0.20117312   -161.45449    -627.0637    4.2235881    4.2235881    4.2235881    -627.0637   -2163.4959    9967.0163   -9684.7115    2476.2996    4234.5008    2096.5292    75.343306 
   49800     286.4637   -161.71334   0.25919838   -161.45414    3869.6471    4.2215016    4.2215016    4.2215016    3869.6471   -5014.0549    10551.432    6071.5645   -3038.3198   -1922.4095   -231.23789    75.231697 
   49900    353.08634   -161.77359   0.31947994   -161.45411    5075.2309    4.2244873    4.2244873    4.2244873    5075.2309   -2706.7384    8479.9408    9452.4904   -2037.7903   -4475.1842    -655.3081    75.391441 
   50000    323.85813   -161.74679   0.29303365   -161.45376    3770.0958    4.2274797    4.2274797    4.2274797    3770.0958    -12329.75    11594.231    12045.807   -2893.5819    611.75912    -385.4709    75.551764 
   50100    237.01026   -161.66781   0.21445187   -161.45335   -756.48945    4.2260689    4.2260689    4.2260689   -756.48945   -16613.899     15143.85   -799.42012   -2337.5938    2759.6838    1021.0876    75.476148 
   50200    325.79084    -161.7473    0.2947824   -161.45251   -3814.1461    4.2229237    4.2229237    4.2229237   -3814.1461   -12111.157    5753.0961    -5084.377    207.83472    7420.8268    70.970098    75.307758 
   50300    398.54359   -161.81364   0.36061061   -161.45303   -79.943488    4.2224238    4.2224238    4.2224238   -79.943488   -3845.0248    4339.2047   -734.01038    1395.1097    4817.6647   -8001.4881    75.281017 
   50400    320.06325   -161.74317   0.28959995   -161.45357    1404.2942    4.2264211    4.2264211    4.2264211    1404.2942    3635.0133    10328.006   -9750.1371     1271.641    2224.1159   -1138.7759    75.495021 
   50500    301.86079   -161.72623   0.27312999    -161.4531     108.1323    4.2276495    4.2276495    4.2276495     108.1323   -3015.8759      14221.5   -10881.227   -3564.0872    3837.4968   -606.22681    75.560864 
   50600    279.71035   -161.70656    0.2530878   -161.45347   -1299.2896    4.2256975    4.2256975    4.2256975   -1299.2896   -10524.611    9933.5664   -3306.8244   -98.370845    2382.4373   -5067.0143     75.45625 
   50700    333.02312    -161.7557   0.30132632   -161.45438   -1164.5989    4.2219619    4.2219619    4.2219619   -1164.5989    -4880.702   -403.89545    1790.8006    2412.2172    4570.5517   -1469.9551    75.256312 
   50800    401.40304   -161.81731   0.36319791   -161.45412   -1729.1433    4.2226867    4.2226867    4.2226867   -1729.1433    44.725872   -1469.7126   -3762.4433   -3394.0578    2363.2176   -5379.0605    75.295077 
   50900    221.91318   -161.65527   0.20079171   -161.45448    4949.4826     4.227009     4.227009     4.227009    4949.4826    3462.4095    14057.279   -2671.2409   -700.73648   -3089.6938    -6213.544    75.526529 
   51000    294.99617   -161.72111   0.26691874   -161.45419    3176.1348    4.2285166    4.2285166    4.2285166    3176.1348   -9118.0344    10656.382    7990.0569   -483.52813    802.33105   -1333.5694    75.607368 
   51100    405.98215   -161.82157   0.36734118   -161.45423   -168.09066    4.2251663    4.2251663    4.2251663   -168.09066   -16515.169    1687.5203    14323.377   -1430.1595    2984.1717   -1344.5967    75.427798 
   51200     306.4762    -161.7321   0.27730611   -161.45479    999.01216    4.2217026    4.2217026    4.2217026    999.01216   -10430.784    834.05678    12593.764    2859.6787    3257.5764   -4868.4807    75.242447 
   51300    338.98701    -161.7605   0.30672257   -161.45378    521.22161    4.2221557    4.2221557    4.2221557    521.22161   -9857.3946    1524.1136    9896.9458    547.11591    5132.4419   -6337.7402    75.266674 
   51400    272.78483   -161.70047   0.24682145   -161.45365    7842.2787    4.2258036    4.2258036    4.2258036    7842.2787    2103.0084    7758.3702    13665.457   -936.49463    4236.6762    -5578.825    75.461931 
   51500     341.7141   -161.76283    0.3091901   -161.45364    7565.2373    4.2274997    4.2274997    4.2274997    7565.2373    2763.0928    4849.2882    15083.331    -1553.243    6530.0703   -1150.0722    75.552833 
   51600    446.53449   -161.85718   0.40403379   -161.45315   -423.42577    4.2264462    4.2264462    4.2264462   -423.42577   -2296.3115   -3887.0821    4913.1163   -1719.5019    4122.6401   -4032.6649    75.496365 
   51700    318.27082    -161.7412   0.28797812   -161.45323    682.74966    4.2215305    4.2215305    4.2215305    682.74966    1086.8621    1067.3623   -105.97541    2383.2916    6076.1076   -3106.7813    75.233244 
   51800    383.82798   -161.79979   0.34729562    -161.4525   -3770.3443    4.2222185    4.2222185    4.2222185   -3770.3443   -10186.152     2777.994   -3902.8748   -1035.7207     5154.236   -740.53717    75.270033 
   51900    485.39953   -161.89197   0.43919969   -161.45277   -2504.3587    4.2257844    4.2257844    4.2257844   -2504.3587   -7229.9125   -2203.9458    1920.7822   -2735.5621   -1256.6565   -6774.0146    75.460902 
   52000    496.72844   -161.90143   0.44945033   -161.45198   -3216.5011    4.2293305    4.2293305    4.2293305   -3216.5011   -2999.5936   -2804.1262   -3845.7834    1840.7654     376.0954    -1577.864    75.651036 
   52100    500.93027   -161.90481   0.45325223   -161.45156   -8658.4687    4.2277745    4.2277745    4.2277745   -8658.4687   -7902.7726   -2799.9623   -15272.671   -1040.3075    1402.5665   -2473.0192    75.567568 
   52200    478.99033   -161.88617   0.43340052   -161.45277   -7559.8392    4.2223097    4.2223097    4.2223097   -7559.8392   -10146.477   -2839.3934   -9693.6475    2569.9962     3074.377   -1377.1724    75.274914 
   52300    512.99754   -161.91727   0.46417095    -161.4531   -3248.7654    4.2218382    4.2218382    4.2218382   -3248.7654   -9135.0291    1126.7786   -1738.0458    6267.1758    1479.2141   -482.28998    75.249698 
   52400    609.01954   -162.00346   0.55105368    -161.4524    -7747.585    4.2275227    4.2275227    4.2275227    -7747.585   -4293.5519   -13618.316   -5330.8872   -576.52301    1855.2928    -6087.183    75.554068 
   52500    553.34253   -161.95291   0.50067595   -161.45224   -10503.817    4.2301163    4.2301163    4.2301163   -10503.817   -1661.1203   -13923.392    -15926.94   -198.49287    3583.7346    620.22441     75.69321 
   52600    484.08792   -161.89081   0.43801292    -161.4528   -5978.7359    4.2272097    4.2272097    4.2272097   -5978.7359   -4244.6587    -6975.528   -6716.0211    766.19743      2816.55     929.3354    75.537284 
   52700    625.08356   -162.01818   0.56558874   -161.45259   -3730.9788    4.2215939    4.2215939    4.2215939   -3730.9788   -9616.4038   -7106.0051    5529.4724   -1285.0565    839.45869   -1749.5738    75.236633 
   52800     615.8539    -162.0103   0.55723755   -161.45306   -2273.7647    4.2206071    4.2206071    4.2206071   -2273.7647   -6309.8731   -6068.6477    5557.2268    3713.1007    3528.3862   -1380.5169    75.183884 
   52900    566.84717   -161.96517   0.51289523   -161.45227   -9510.0581    4.2268019    4.2268019    4.2268019   -9510.0581   -10126.736   -9943.2194   -8460.2191     375.4974    5273.1058   -4183.2574    75.515424 
   53000    498.20573   -161.90288   0.45078701   -161.45209   -11268.395    4.2303161    4.2303161    4.2303161   -11268.395   -12393.352   -15756.334   -5655.4991    130.27049    2252.1876   -1770.1303    75.703936 
   53100    497.55224   -161.90257   0.45019572   -161.45238    -1236.688    4.2244505    4.2244505    4.2244505    -1236.688   -7572.3649   -9783.8127    13646.114    1097.3012    1075.9025   -1470.9369    75.389469 
   53200    573.38048   -161.97056   0.51880671   -161.45175    2856.4876    4.2201203    4.2201203    4.2201203    2856.4876   -2886.0552   -6026.4607    17481.979   -3703.8829    1391.4089   -2240.9341    75.157876 
   53300    499.67335     -161.904   0.45211495   -161.45188    1860.5742    4.2208147    4.2208147    4.2208147    1860.5742    6453.3334   -8436.2297    7564.6189    2348.0121    -1965.811   -5550.6381    75.194981 
   53400    420.72304   -161.83212   0.38067905   -161.45144    -4571.222    4.2274758    4.2274758    4.2274758    -4571.222   -4153.1651   -5698.3007   -3862.2002   -634.54405    503.46141   -8737.1092    75.551552 
   53500    417.12455   -161.82876   0.37742306   -161.45133    -145.8822    4.2284885    4.2284885    4.2284885    -145.8822   -6840.9601   -6719.7702    13123.084   -4376.1395    4779.0919    -6553.547     75.60586 
   53600    502.11746   -161.90663   0.45432643    -161.4523    2221.2597    4.2239305    4.2239305    4.2239305    2221.2597   -6386.1631   -6354.4102    19404.352      347.612    5884.6205   -2940.7975    75.361633 
   53700    474.47062   -161.88156   0.42931099   -161.45225     503.4893    4.2210222    4.2210222    4.2210222     503.4893   -9259.6491   -2446.9886    13217.106   -5237.8734    2679.4902   -3249.9276    75.206075 
   53800    384.34104   -161.80032   0.34775985   -161.45256    233.18947    4.2243588    4.2243588    4.2243588    233.18947    -512.2936   -6939.7917    8151.6537    -3458.362    1403.5245   -6818.1652    75.384559 
   53900    378.76777   -161.79558   0.34271704   -161.45287    -735.5261     4.228887     4.228887     4.228887    -735.5261   -3316.6398   -4859.7972    5969.8587    1562.2993    5015.5547   -8833.2951    75.627236 
   54000    405.02445   -161.82045   0.36647464   -161.45397    2358.1837    4.2285912    4.2285912    4.2285912    2358.1837   -4126.8823   -6063.7644    17265.198   -1692.7594    8347.0374   -3548.7057    75.611368 
   54100    434.10626   -161.84719   0.39278846    -161.4544    2088.0583    4.2252593    4.2252593    4.2252593    2088.0583    281.48294   -5147.0636    11129.756   -1467.2587    9615.2417    -2724.037    75.432778 
   54200    338.84972   -161.76091   0.30659835   -161.45432   -1628.6048    4.2220323    4.2220323    4.2220323   -1628.6048   -3109.3323   -2045.5589     269.0767   -3064.2193     9046.279   -4597.9209    75.260078 
   54300    289.85575   -161.71668   0.26226758   -161.45441   -3502.3806    4.2243792    4.2243792    4.2243792   -3502.3806    -5080.481   -8089.0478    2662.3869   -5368.9431    5630.5801   -1583.9244    75.385651 
   54400    362.70021   -161.78415   0.32817877   -161.45597    3266.0576    4.2279758    4.2279758    4.2279758    3266.0576   -1799.3479    -6350.835    17948.356   -1917.6902    323.10209   -3321.0396    75.578364 
   54500    405.11572   -161.82328   0.36655722   -161.45672    2083.1136    4.2284116    4.2284116    4.2284116    2083.1136    1530.1042   -6143.3772    10862.614   -3812.5128    4415.0451   -4088.7673    75.601738 
   54600    286.54985   -161.71431   0.25927633   -161.45503   -1535.4673    4.2239056    4.2239056    4.2239056   -1535.4673    328.74807    3953.5604   -8888.7104   -1422.5115    8163.3534   -7800.7226    75.360297 
   54700    284.69816    -161.7111   0.25760088    -161.4535   -8436.3894     4.223138     4.223138     4.223138   -8436.3894   -15260.685     168.8767    -10217.36   -1666.7228    5380.5546   -6517.3087     75.31922 
   54800    313.31734   -161.73797   0.28349611   -161.45447   -3363.8704    4.2247492    4.2247492    4.2247492   -3363.8704   -14560.079   -4703.0976    9171.5657   -6800.7028    5176.3709   -4125.0493     75.40546 
   54900    329.94286    -161.7535   0.29853923   -161.45496    2492.1997    4.2266174    4.2266174    4.2266174    2492.1997   -328.42125   -6264.6732    14069.694    -2845.317   -696.41027    -7489.273    75.505537 
   55000    306.24601   -161.73133   0.27709783   -161.45423    1015.7457    4.2257981    4.2257981    4.2257981    1015.7457    8827.4194    -1155.398   -4624.7843    291.48176    778.36986   -9099.4562    75.461638 
   55100    149.36794   -161.58961   0.13515125   -161.45446    4132.1504    4.2229848    4.2229848    4.2229848    4132.1504    10511.125    6500.4433   -4615.1169    -3956.306    5537.0466   -8520.9542    75.311022 
   55200    255.33589   -161.68554   0.23103328   -161.45451   -439.41899    4.2234164    4.2234164    4.2234164   -439.41899   -823.55961   -2316.0381    1821.3408   -68.672785    9394.8148   -9751.1057    75.334119 
   55300    309.39882   -161.73511   0.27995055   -161.45516    1508.7369    4.2258689    4.2258689    4.2258689    1508.7369   -1142.9534   -6397.6436    12066.808   -1594.7038    9501.9022   -9647.3819    75.465431 
   55400    242.19328    -161.6742   0.21914157   -161.45506     5936.513    4.2258741    4.2258741    4.2258741     5936.513    5406.0024   -946.97417    13350.511   -6275.4845    2123.4678   -4934.1281    75.465709 
   55500    251.64194   -161.68127   0.22769092   -161.45358    4390.9712    4.2246031    4.2246031    4.2246031    4390.9712    2220.7904    6183.6862     4768.437   -282.14106    3607.0286   -2085.1538     75.39764 
   55600    268.76139    -161.6971   0.24318095   -161.45392    4850.0408    4.2223552    4.2223552    4.2223552    4850.0408   -1659.3474    8569.7975    7639.6723    -1677.273    9023.3308   -3838.5125    75.277343 
   55700    397.66347   -161.81323   0.35981427   -161.45342   -3125.3508     4.224826     4.224826     4.224826   -3125.3508   -12783.215    663.19758    2743.9652   -2949.0732    7898.2707   -4578.9346    75.409575 
   55800    386.69729   -161.80295   0.34989183   -161.45306   -5100.6563    4.2274945    4.2274945    4.2274945   -5100.6563   -15961.551   -3307.9978    3967.5801   -2189.6275    7302.3576     2128.947    75.552553 
   55900    271.35285   -161.69892   0.24552577   -161.45339   -2760.1921     4.227407     4.227407     4.227407   -2760.1921    -11938.53    1877.9293    1780.0243   -2732.8877    4323.6749    -16.45986    75.547863 
   56000    341.66378   -161.76246   0.30914457   -161.45331    2809.8734    4.2237575    4.2237575    4.2237575    2809.8734   -3106.9433    8185.9271    3350.6365   -497.27676    355.09949   -2205.3755    75.352373 
   56100    421.46491   -161.83479   0.38135031   -161.45344    4510.4776    4.2227351    4.2227351    4.2227351    4510.4776    3105.5502    5490.7315    4935.1511    -1079.372     4331.618    3018.5586    75.297665 
   56200     387.1654   -161.80404   0.35031539   -161.45373   -2107.8875     4.226002     4.226002     4.226002   -2107.8875   -4409.2727    3707.0229   -5621.4127    1588.9597    6138.3484   -213.68539    75.472564 
   56300    323.40403   -161.74595   0.29262276   -161.45332    -6425.709    4.2289059    4.2289059    4.2289059    -6425.709   -4279.2202   -6034.3234   -8963.5835    1047.4004    4499.9671   -2127.7098    75.628252 
   56400    303.33057   -161.72772   0.27445987   -161.45326    825.93678    4.2269947    4.2269947    4.2269947    825.93678    8128.5047   -5658.7468    8.0524534   -1654.1999    2429.1225    203.31802     75.52576 
   56500    444.90041   -161.85578   0.40255524   -161.45323    7865.2065    4.2220824    4.2220824    4.2220824    7865.2065    17517.142    -1640.708    7719.1856    3195.5766    1786.5749    429.59898    75.262753 
   56600    434.21763   -161.84673   0.39288923   -161.45384     7015.159    4.2217017    4.2217017    4.2217017     7015.159    19910.193    3705.3123   -2570.0282   -725.63424    2997.1854      788.335      75.2424 
   56700    335.14012   -161.75687   0.30324182   -161.45363   -156.99114    4.2261713    4.2261713    4.2261713   -156.99114    8339.2199    2091.6201   -10901.813   -2248.1294    840.95595   -127.68985    75.481634 
   56800    413.15805   -161.82644   0.37383409    -161.4526   -6981.1866    4.2298365    4.2298365    4.2298365   -6981.1866    1075.1014   -9417.4354   -12601.226   -1657.5195   -598.24386    3532.9886    75.678189 
   56900    489.49512   -161.89621   0.44290547    -161.4533   -330.13155    4.2272473    4.2272473    4.2272473   -330.13155     11403.11   -10742.554   -1650.9507    223.73276    1839.4281    30.417066    75.539303 
   57000    502.34313   -161.90772   0.45453062   -161.45319    7773.8504    4.2213233    4.2213233    4.2213233    7773.8504    19246.635   -920.84339      4995.76   -1983.9021   -1263.9219   -1265.6953    75.222168 
   57100    479.27959   -161.88621   0.43366225   -161.45255    1058.3131    4.2213979    4.2213979    4.2213979    1058.3131    6913.9019    8422.4309   -12161.394   -3738.7637   -245.11932    4174.9323    75.226157 
   57200    380.71318   -161.79765   0.34447728   -161.45318   -3792.5497    4.2265315    4.2265315    4.2265315   -3792.5497   -1852.8701    5658.3632   -15183.142   -901.72811   -1786.8694    -312.0833    75.500934 
   57300    531.21574   -161.93415   0.48065517    -161.4535   -9016.0879    4.2315904    4.2315904    4.2315904   -9016.0879   -2276.4875   -8016.5918   -16755.184   -2134.2196   -5118.9423    836.20722    75.772371 
   57400    608.34797    -162.0042   0.55044603   -161.45375   -7503.1537    4.2277578    4.2277578    4.2277578   -7503.1537     2340.926   -14809.102   -10041.285    4790.8806    1062.3368     3160.898    75.566672 
   57500    486.06214   -161.89185   0.43979924   -161.45205   -4058.0416    4.2216296    4.2216296    4.2216296   -4058.0416    425.26739    -5833.585   -6765.8071   -1495.3293   -2365.8476    -1144.025    75.238541 
   57600    523.45391   -161.92446    0.4736321   -161.45083   -6458.0166    4.2210178    4.2210178    4.2210178   -6458.0166   -10360.169   -362.56742   -8651.3136    1662.7058   -1537.2528    1848.1291    75.205838 
   57700    498.99836   -161.90352    0.4515042   -161.45202   -3888.7991    4.2286696    4.2286696    4.2286696   -3888.7991   -7866.8611    7215.2984   -11014.835    3402.1994    -2177.263    3571.4603    75.615574 
   57800     577.8349   -161.97478   0.52283716   -161.45195   -6744.2507    4.2310915    4.2310915    4.2310915   -6744.2507    70.530353   -276.01896   -20027.264   -1653.3518    -4962.936     3660.081     75.74557 
   57900    523.43252   -161.92545   0.47361275   -161.45183   -11290.104    4.2256546    4.2256546    4.2256546   -11290.104   -3600.7501   -10445.611   -19823.951    6961.2301   -2793.7153    1876.8626    75.453953 
   58000    356.36831   -161.77453   0.32244953   -161.45208   -1170.6626    4.2180152    4.2180152    4.2180152   -1170.6626    4701.6485    447.04008   -8660.6763    5082.4842   -6154.5836   -1925.7002     75.04546 
   58100    431.10366   -161.84253   0.39007165   -161.45246    3975.8251     4.220193     4.220193     4.220193    3975.8251    6649.4436    8472.9416   -3194.9098   -292.27349   -3697.5719    641.45663    75.161758 
   58200    424.08074   -161.83779   0.38371717   -161.45407    7024.8134    4.2278164    4.2278164    4.2278164    7024.8134    7546.1427    17555.824   -4027.5268    -1135.041   -6248.1033   -820.48674    75.569814 
   58300    423.56348   -161.83708   0.38324913   -161.45383    458.49621    4.2303254    4.2303254    4.2303254    458.49621    9051.6955    9021.2384   -16697.445   -3685.6782   -8961.9635    1288.8288    75.704435 
   58400    287.21725   -161.71267    0.2598802   -161.45279   -3736.4416    4.2237403    4.2237403    4.2237403   -3736.4416    6713.4058    367.57747   -18290.308    2337.5434   -6478.7918   -692.85942    75.351453 
   58500    279.51777   -161.70577   0.25291356   -161.45285    376.77699    4.2184478    4.2184478    4.2184478    376.77699    7875.9679    5869.1046   -12614.742   -2327.1352   -10473.357   -6647.4675    75.068552 
   58600    359.12578    -161.7789   0.32494455   -161.45395    8461.1197    4.2228963    4.2228963    4.2228963    8461.1197    21069.209    11120.745   -6806.5949    2674.2837   -4963.5822   -88.728385    75.306292 
   58700    340.21026   -161.76217   0.30782939   -161.45434    9619.1592    4.2296798    4.2296798    4.2296798    9619.1592    17947.608    18039.331   -7129.4607    -253.6518   -306.51929   -381.04915    75.669779 
   58800    290.58912   -161.71615   0.26293114   -161.45322    216.83349    4.2308148    4.2308148    4.2308148    216.83349     4288.161    4669.9576   -8307.6182    -5592.577   -2753.2017   -2096.5102    75.730715 
   58900    254.82053   -161.68371   0.23056697   -161.45315   -4221.4234    4.2247841    4.2247841    4.2247841   -4221.4234   -2380.2115   -4707.1228   -5576.9361    9201.2012   -1470.3464    149.98006    75.407331 
   59000    374.56112   -161.79182   0.33891077   -161.45291   -2495.0896    4.2214961    4.2214961    4.2214961   -2495.0896    3544.4702    -3293.856   -7735.8828    3556.1006   -5546.0279    -3459.363    75.231407 
   59100    406.30642   -161.82172   0.36763459   -161.45408    4142.6096    4.2237626    4.2237626    4.2237626    4142.6096    16812.579    4436.0308   -8820.7813    1337.1451   -5493.8626   -3416.6426    75.352645 
   59200    285.96998   -161.71377   0.25875164   -161.45502     1990.405    4.2308966    4.2308966    4.2308966     1990.405    2294.9209    13038.131   -9361.8371    4009.4397   -2940.3651   -5218.8737    75.735106 
   59300    331.55799   -161.75435   0.30000064   -161.45435    -5482.031    4.2281796    4.2281796    4.2281796    -5482.031   -13939.545   -645.83604   -1860.7118    813.84603   -5380.5767   -4875.5853    75.589291 
   59400    359.20492   -161.77868   0.32501616   -161.45367   -7862.6831    4.2232245    4.2232245    4.2232245   -7862.6831     -10681.2   -9003.1731   -3903.6761    8839.3193   -7096.8153   -1011.1399    75.323848 
   59500    436.30666   -161.84783   0.39477944   -161.45305   -2072.8808     4.219176     4.219176     4.219176   -2072.8808    7893.9396    -1034.232    -13078.35     1892.392   -8228.2952   -6473.0417    75.107435 
   59600    356.70037   -161.77705   0.32274999    -161.4543    1425.9171    4.2244497    4.2244497    4.2244497    1425.9171    13884.174    9189.3329   -18795.755    4345.5957   -8388.5929   -2444.7716    75.389428 
   59700      267.302   -161.69627   0.24186047   -161.45441     1445.727    4.2273317    4.2273317    4.2273317     1445.727   -6053.6554    18971.732   -8580.8953    1856.7741   -5428.3928   -3686.6813    75.543825 
   59800     351.5605   -161.77236   0.31809932   -161.45426   -7243.2552    4.2273421    4.2273421    4.2273421   -7243.2552   -8930.5394   -10627.365   -2171.8608    2377.2238   -1714.2352   -5686.1285    75.544385 
   59900     385.9885   -161.80297    0.3492505   -161.45372   -199.33376    4.2221629    4.2221629    4.2221629   -199.33376    13162.458   -13129.846   -630.61286    11405.433   -460.67739   -263.20168    75.267063 
   60000    316.28747   -161.74018   0.28618355     -161.454    5864.3856    4.2228357    4.2228357    4.2228357    5864.3856    30552.611   -3703.7539   -9255.7009    776.21608   -73.406975   -2864.0048    75.303045 
   60100    283.36642   -161.71237   0.25639589   -161.45597    4890.6418    4.2239888    4.2239888    4.2239888    4890.6418     14756.89    13383.967   -13468.932    340.89544   -1378.6924   -938.70217     75.36475 
   60200    286.72476   -161.71584   0.25943458    -161.4564    138.28662    4.2292951    4.2292951    4.2292951    138.28662    1673.2557     13247.15   -14505.546   -2123.1353    1167.8242   -3102.3419    75.649135 
   60300    351.09847    -161.7724   0.31768127   -161.45472    2799.2628    4.2285898    4.2285898    4.2285898    2799.2628    27117.914   -8629.5718   -10090.554    1605.0246   -1790.5014   -5544.8632    75.611295 
   60400    311.85417   -161.73618   0.28217221     -161.454     4572.635    4.2246898    4.2246898    4.2246898     4572.635    39853.032   -16758.109   -9377.0181    6364.8366    -1283.656   -1585.8174    75.402279 
   60500    237.29403   -161.66948   0.21470863   -161.45477    5524.3982     4.222442     4.222442     4.222442    5524.3982     30773.14   -7244.9239   -6955.0218    1249.4816   -2422.6392   -4962.9366    75.281987 
   60600    257.82876   -161.68962   0.23328888   -161.45633    3126.4046    4.2262548    4.2262548    4.2262548    3126.4046    14946.477    5491.7576   -11059.021    1388.5061   -4976.6664    34.085629    75.486107 
   60700    326.05988   -161.75123   0.29502583    -161.4562    5046.0084    4.2278867    4.2278867    4.2278867    5046.0084    13340.362    12292.829   -10495.166    3111.7502   -1918.7759   -334.40879    75.573586 
   60800     381.3628   -161.79906   0.34506508   -161.45399    3499.5555    4.2259467    4.2259467    4.2259467    3499.5555    22714.234   -3982.5068   -8233.0612    6967.7083   -3877.6602   -4861.4517    75.469598 
   60900    235.18705   -161.66609   0.21280218   -161.45329    5635.4264    4.2227498    4.2227498    4.2227498    5635.4264    29434.823    -10615.11   -1913.4337    5508.6265   -1910.1593   -780.83935    75.298452 
   61000    359.22488   -161.77908   0.32503422   -161.45404   -5740.6509    4.2236361    4.2236361    4.2236361   -5740.6509    2301.4879   -14067.875   -5455.5652     8751.803      1612.07    -2453.555    75.345877 
   61100    416.88274   -161.83158   0.37720427   -161.45438   -544.11083    4.2244172    4.2244172    4.2244172   -544.11083     75.71091    5274.4676    -6982.511    5813.1367    -2665.853    1923.2979    75.387684 
   61200    444.48532    -161.8556   0.40217966   -161.45342    1170.0301    4.2264658    4.2264658    4.2264658    1170.0301      625.712    11763.622   -8879.2443    5214.4987     2816.192    764.98792    75.497416 
   61300    420.69433   -161.83269   0.38065307   -161.45204   -3345.9563    4.2251482    4.2251482    4.2251482   -3345.9563    2848.7674   -5986.4096   -6900.2268    10023.996    2416.7308   -3019.1242    75.426826 
   61400    362.65058   -161.78002   0.32813386   -161.45189   -3908.4805    4.2227659    4.2227659    4.2227659   -3908.4805    557.57075   -12173.666   -109.34591    6934.7895   -760.63467    2662.7384    75.299316 
   61500    516.61822   -161.92036   0.46744702   -161.45291   -4849.5973    4.2225601    4.2225601    4.2225601   -4849.5973   -3159.4406   -8796.7155   -2592.6359    6196.3728    919.84357   -2726.0228    75.288303 
   61600    523.16898   -161.92727   0.47337429    -161.4539   -1709.3331    4.2262132    4.2262132    4.2262132   -1709.3331   -8222.9451    9469.9972   -6375.0514    1683.9654   -309.51736    1707.3243     75.48388 
   61700    467.32967   -161.87629   0.42284971   -161.45344   -3232.3767    4.2281381    4.2281381    4.2281381   -3232.3767   -6893.1957    7850.0116   -10653.946    1937.7836    1423.5399    3697.1707    75.587068 
   61800    446.94376   -161.85656   0.40440411   -161.45216   -6655.2108    4.2258024    4.2258024    4.2258024   -6655.2108   -619.26907   -12448.612   -6897.7511    3902.9709   -1171.0489    850.96773    75.461871 
   61900    465.44819   -161.87348   0.42114731   -161.45233   -8803.0507    4.2229601    4.2229601    4.2229601   -8803.0507     1654.418   -17076.288   -10987.282     6660.028    1231.0409    7948.3005    75.309705 
   62000     556.8266   -161.95679   0.50382841   -161.45296   -6268.7037    4.2244274    4.2244274    4.2244274   -6268.7037    3528.7185   -8098.9082   -14235.921    7049.2614   -1494.6605    1927.5041    75.388234 
   62100    427.34279   -161.84058   0.38666874   -161.45391    6384.7395    4.2267066    4.2267066    4.2267066    6384.7395    7324.9548    13795.555   -1966.2914    1107.8088   -2342.8383    1467.0221     75.51032 
   62200    373.52721    -161.7919   0.33797527   -161.45392    5222.9905    4.2270053    4.2270053    4.2270053    5222.9905     10000.11    7235.2026   -1566.3412    2485.8514    3978.8135    3901.1406     75.52633 
   62300    436.32176   -161.84815    0.3947931   -161.45335   -4509.2259    4.2249954    4.2249954    4.2249954   -4509.2259    8306.6935   -14533.157   -7301.2146    3055.6764   -355.49789    3193.3747    75.418644 
   62400    395.54949   -161.81244   0.35790149   -161.45454    -3532.746    4.2219575    4.2219575    4.2219575    -3532.746    20287.732   -16341.949   -14544.021    4238.1852    4375.9077    12017.303    75.256075 
   62500    444.80934    -161.8565   0.40247283   -161.45403    429.10187    4.2226394    4.2226394    4.2226394    429.10187    19823.076   -4396.0412   -14139.729    5056.0694    3237.1931    8377.0179    75.292547 
   62600    331.10281   -161.75329   0.29958878   -161.45371    9239.5783    4.2257348    4.2257348    4.2257348    9239.5783    10536.103    14252.298    2930.3333    4338.8222   -2896.4499    3774.4071    75.458246 
   62700    399.81944   -161.81477   0.36176503   -161.45301    4868.4569    4.2265963    4.2265963    4.2265963    4868.4569    10355.742    350.61589    3899.0132   -931.31103    3490.3261    5562.8422     75.50441 
   62800    469.75011   -161.87842   0.42503977   -161.45338   -3658.4589    4.2243228    4.2243228    4.2243228   -3658.4589    13175.443   -12671.253   -11479.567    3704.6405      693.551    6584.8746    75.382634 
   62900    400.72987   -161.81716    0.3625888   -161.45457   -3106.4254    4.2225699    4.2225699    4.2225699   -3106.4254    21455.271   -10590.405   -20184.142    960.81569   -3371.6428    9578.8484    75.288831 
   63000    427.21643   -161.84028   0.38655441   -161.45372   -3457.8372    4.2249707    4.2249707    4.2249707   -3457.8372    6620.8695   -6448.3156   -10546.065    318.13958   -1674.3239    9712.1221    75.417323 
   63100    400.65785   -161.81553   0.36252364   -161.45301    1051.5965    4.2276953    4.2276953    4.2276953    1051.5965   -2695.1005     1502.085    4347.8049    6467.2361   -3591.7711    4405.9157     75.56332 
   63200    494.24138   -161.89993   0.44719999   -161.45273    2546.3005    4.2267748    4.2267748    4.2267748    2546.3005    8113.6428   -8178.3333    7703.5921    1299.4054   -3826.2977    3960.4294    75.513974 
   63300     484.7892   -161.89236   0.43864746   -161.45371   -2309.2717    4.2253125    4.2253125    4.2253125   -2309.2717    8186.8715   -10047.446   -5067.2405    946.00127    823.38996    5153.0484    75.435629 
   63400    438.35889   -161.85038   0.39663634   -161.45374   -8789.9901     4.225512     4.225512     4.225512   -8789.9901    116.36759   -11960.591   -14525.747   -448.68761    164.09897    5792.5743    75.446313 
   63500    492.64907   -161.89906   0.44575923    -161.4533   -7235.2112    4.2254827    4.2254827    4.2254827   -7235.2112    -1024.851   -10357.116   -10323.667   -686.14203   -1210.3265    6796.7739    75.444745 
   63600    514.46491   -161.91832   0.46549866   -161.45282   -3366.5167    4.2261631    4.2261631    4.2261631   -3366.5167   -1800.7164   -4989.0439   -3309.7898    3170.7544    502.16983    2391.3069    75.481193 
   63700    535.06646   -161.93694   0.48413938    -161.4528   -2657.9587     4.226603     4.226603     4.226603   -2657.9587    2735.4954   -12735.452    2026.0809    2109.3022   -367.82441    1126.6544    75.504768 
   63800    452.67402   -161.86421   0.40958896   -161.45462   -1715.6693    4.2255791    4.2255791    4.2255791   -1715.6693    7342.6611   -10988.344   -1501.3253    1648.6867    4976.6681    2008.3541    75.449909 
   63900     408.9805   -161.82407   0.37005415   -161.45402   -6804.2394    4.2237326    4.2237326    4.2237326   -6804.2394   -4717.4015    -13779.52   -1915.7967   -2552.1154    2450.3088    357.03396    75.351039 
   64000    457.57361   -161.86696   0.41402222   -161.45294   -11018.971    4.2247199    4.2247199    4.2247199   -11018.971   -3707.5455   -17913.437   -11435.931    428.51987   -630.60654   -1397.8797    75.403894 
   64100    457.00538   -161.86615   0.41350808   -161.45264   -447.97212    4.2248372    4.2248372    4.2248372   -447.97212    11599.523   -12974.314     30.87488   -381.40164   -2958.7023   -1509.9892    75.410172 
   64200    336.41954    -161.7574   0.30439947   -161.45301    8420.4288    4.2258719    4.2258719    4.2258719    8420.4288    22520.487   -13310.232    16051.031    619.76136   -3511.9102   -1535.1364    75.465592 
   64300    340.63365   -161.76246   0.30821248   -161.45425    4438.1814    4.2239398    4.2239398    4.2239398    4438.1814    10443.798   -8383.7841     11254.53    6294.0633   -2546.0018   -1291.1358    75.362127 
   64400    353.16265   -161.77447   0.31954899   -161.45493   -4246.5136    4.2255116    4.2255116    4.2255116   -4246.5136    7962.4229   -16702.188   -3999.7753    985.18621   -5218.9275   -2901.4822    75.446291 
   64500    364.79703   -161.78492   0.33007602   -161.45485   -2189.7411    4.2254526    4.2254526    4.2254526   -2189.7411    28630.485   -19817.431   -15382.276   -10.257414      1945.82   -8558.9359    75.443131 
   64600    316.68556     -161.741   0.28654375   -161.45446    2719.5157    4.2257264    4.2257264    4.2257264    2719.5157    35310.775   -21720.668   -5431.5605     2499.087   -739.08441   -8655.4302      75.4578 
   64700    264.40509   -161.69388   0.23923928   -161.45464    8463.2339    4.2248247    4.2248247    4.2248247    8463.2339    25642.044    -12704.32    12451.978   -277.20141   -4215.9031    -6584.624    75.409502 
   64800    265.30018   -161.69504   0.24004918   -161.45499    8242.0487    4.2246034    4.2246034    4.2246034    8242.0487    21302.993   -3296.7235    6719.8765    3532.9444    4584.4661   -4999.7302    75.397656 
   64900    377.95761   -161.79593   0.34198399   -161.45395     1579.092    4.2246686    4.2246686    4.2246686     1579.092    19935.538   -10528.764   -4669.4986    6801.1347   -1052.3081   -7087.1575    75.401144 
   65000    335.06556   -161.75678   0.30317436   -161.45361   -1987.9439    4.2255115    4.2255115    4.2255115   -1987.9439    26704.734   -21508.207    -11160.36   -322.20816    286.64903   -10769.226    75.446287 
   65100     234.1801   -161.66638   0.21189107   -161.45449    244.94346    4.2260824    4.2260824    4.2260824    244.94346    25356.643   -25942.005    1320.1918    1616.5112     4705.227   -11100.839     75.47687 
   65200    340.22989    -161.7635   0.30784716   -161.45565    1606.3308    4.2248733    4.2248733    4.2248733    1606.3308     9657.022    -16003.58    11165.551    809.38261   -216.74683   -9626.0102    75.412104 
   65300    390.58767   -161.80854   0.35341194   -161.45513    4498.0322    4.2235872    4.2235872    4.2235872    4498.0322    8012.6179   -113.50131    5594.9799      603.738    3373.4591   -4928.7447    75.343256 
   65400    390.54929   -161.80689    0.3533772   -161.45351    500.20439    4.2241794    4.2241794    4.2241794    500.20439    3189.2444   -2681.9308    993.29951    5733.2874   -1568.3735   -2984.1494    75.374954 
   65500    371.55952   -161.78847   0.33619486   -161.45228   -4989.1901     4.226839     4.226839     4.226839   -4989.1901    6502.1592   -19348.007   -2121.7229   -124.21518   -3803.4145   -5611.7311    75.517417 
   65600    313.67428   -161.73647   0.28381908   -161.45265    1031.6569    4.2272841    4.2272841    4.2272841    1031.6569    15748.549   -14415.369    1761.7912    305.71118   -1157.0176   -6086.0125    75.541274 
   65700    458.05571   -161.86775   0.41445843   -161.45329   -2859.3197    4.2249301    4.2249301    4.2249301   -2859.3197   -3193.2037   -7949.6009    2564.8453    2258.0576   -417.07968   -7044.4855    75.415146 
   65800    475.40599   -161.88388   0.43015733   -161.45373   -2986.0553    4.2244492    4.2244492    4.2244492   -2986.0553   -5466.5794    933.33015   -4424.9166    6467.8436   -1483.0005   -4992.5897      75.3894 
   65900    360.92439   -161.77962   0.32657197   -161.45304   -135.43308    4.2258669    4.2258669    4.2258669   -135.43308    4605.3819    3194.7952   -8206.4763    7573.1101   -5348.6782   -3950.0928    75.465325 
   66000    378.38513   -161.79501   0.34237082   -161.45264   -6250.4433    4.2286585    4.2286585    4.2286585   -6250.4433    3504.6975    -14213.62   -8042.4077    4443.4067   -1058.5912   -5013.3115     75.61498 
   66100    500.16767    -161.9056   0.45256222   -161.45304   -7959.8586     4.226374     4.226374     4.226374   -7959.8586    2751.5729   -19630.216   -7000.9332    6314.4586   -1007.9433   -2130.4191    75.492497 
   66200    469.22931    -161.8791   0.42456854   -161.45453   -4279.2495    4.2253852    4.2253852    4.2253852   -4279.2495    5233.0858   -14872.239    -3198.595    1952.5335   -3829.4795   -3303.5237    75.439523 
   66300    426.97794   -161.84036   0.38633862   -161.45402   -1129.0176     4.224437     4.224437     4.224437   -1129.0176    220.14442    11.614248   -3618.8115     1850.215    3666.1231   -2263.4593    75.388746 
   66400    375.24607    -161.7927   0.33953053   -161.45317   -1639.8557    4.2278624    4.2278624    4.2278624   -1639.8557   -114.20761    4430.1145    -9235.474    4007.8741   -2064.2645    2459.6344     75.57228 
   66500    430.67187    -161.8425   0.38968096   -161.45282   -2083.7613      4.22783      4.22783      4.22783   -2083.7613    8560.3287   -4831.1767   -9980.4361   -4064.8189   -91.083326    595.60004    75.570543 
   66600    491.16793   -161.89928   0.44441906   -161.45486   -4236.2198    4.2264387    4.2264387    4.2264387   -4236.2198    8649.9298   -16372.367    -4986.222    2810.7243    6649.0963    3214.6608    75.495961 
   66700    440.90007   -161.85429   0.39893565   -161.45535   -412.33052    4.2244229    4.2244229    4.2244229   -412.33052    9936.3814   -12311.281    1137.9083   -1998.7903   -1094.5522    3310.7957     75.38799 
   66800    374.10026   -161.79318   0.33849377   -161.45469    3190.8822    4.2259279    4.2259279    4.2259279    3190.8822    6105.7872    2891.9664    574.89291   -3003.2618    1333.4797    1727.8473     75.46859 
   66900    409.94509   -161.82506   0.37092693   -161.45413     3313.745    4.2281971    4.2281971    4.2281971     3313.745    11280.588    4973.8067   -6313.1594    3751.7438    2182.0385    2716.4623    75.590229 
   67000    507.14429   -161.91218   0.45887481   -161.45331   -4251.4061    4.2282495    4.2282495    4.2282495   -4251.4061    15253.877   -9417.1977   -18590.897   -2921.3056   -2049.2695    670.04625    75.593043 
   67100    368.45293   -161.78711   0.33338396   -161.45372   -1692.2429    4.2251452    4.2251452    4.2251452   -1692.2429    19018.776   -18298.991   -5796.5136    3763.8835    2348.6456    3782.9256    75.426669 
   67200    394.77356   -161.81095   0.35719942   -161.45375    2150.5987    4.2226651    4.2226651    4.2226651    2150.5987    13334.721   -12802.635    5919.7099    3771.6481    787.44914    3294.6971    75.293921 
   67300    418.03977   -161.83215   0.37825117    -161.4539    7910.4994    4.2252583    4.2252583    4.2252583    7910.4994     20195.88     304.5754    3231.0424    158.76622   -3005.4923    1974.6684    75.432726 
   67400     409.2388   -161.82412   0.37028787   -161.45383    5789.9435    4.2283723    4.2283723    4.2283723    5789.9435     15401.75    8891.7598   -6923.6792    6113.7901   -1365.8222    5051.3591    75.599626 
   67500    493.38363   -161.89874   0.44642388   -161.45232   -3949.9904      4.22788      4.22788      4.22788   -3949.9904    4449.0517   -3706.0323   -12592.991    3294.2791   -4565.0335    2495.7226    75.573226 
   67600    394.27273   -161.81018   0.35674625   -161.45344    2336.5098    4.2223481    4.2223481    4.2223481    2336.5098    12106.038   -8883.9851    3787.4765    7087.8424   -3672.9895     1048.021    75.276965 
   67700    459.18817   -161.86931   0.41548311   -161.45383    1545.0613     4.221302     4.221302     4.221302    1545.0613    5317.8555    -6182.895    5500.2234    454.77138   -374.99369    913.02661    75.221031 
   67800    536.35347   -161.93856   0.48530389   -161.45326   -1748.6233    4.2248421    4.2248421    4.2248421   -1748.6233    2047.7568   -5623.8722   -1669.7547   -2036.0236    2541.7246    3118.8763    75.410434 
   67900    462.81658   -161.87134   0.41876617   -161.45257   -2076.4285    4.2299405    4.2299405    4.2299405   -2076.4285   -1340.3762    4781.0109   -9669.9201    1024.5067    3253.1813    3358.8934    75.683772 
   68000    517.97495   -161.92093   0.46867462   -161.45225   -4674.7803     4.227856     4.227856     4.227856   -4674.7803   -9338.9577    2260.8871   -6946.2705   -2985.8613   -1613.9027   -1361.6624     75.57194 
   68100    541.36648    -161.9428   0.48983977   -161.45296   -7673.7466    4.2238441    4.2238441    4.2238441   -7673.7466   -10802.965   -8954.8662   -3263.4089    2734.0006    2266.0135   -577.73122    75.357009 
   68200    504.54135   -161.90945   0.45651962   -161.45293   -5155.3138    4.2211173    4.2211173    4.2211173   -5155.3138   -2674.7353    -9986.592   -2804.6141   -3054.7138   -574.40881   -1041.8026    75.211158 
   68300    535.03375   -161.93631   0.48410978    -161.4522    -11074.72    4.2266891    4.2266891    4.2266891    -11074.72   -8780.4627   -14941.475   -9502.2222   -4662.2069   -568.64171   -3190.3774     75.50938 
   68400    492.81146    -161.8983   0.44590617    -161.4524   -7098.6419    4.2300886    4.2300886    4.2300886   -7098.6419   -16949.915   -1489.1327   -2856.8782    2196.3945    6247.5774    3465.4227    75.691725 
   68500    473.54739   -161.88094   0.42847563   -161.45246   -1665.2214    4.2280145    4.2280145    4.2280145   -1665.2214   -6740.1852    5052.4622   -3307.9412   -1158.1917   -2330.4826   -745.15582    75.580437 
   68600    545.09379   -161.94435   0.49321231   -161.45114   -25.050554    4.2208978    4.2208978    4.2208978   -25.050554     8143.583    1602.4057   -9821.1404    3310.5005   -3141.3246   -3832.4485    75.199423 
   68700    439.65114   -161.84955   0.39780559   -161.45174   -247.63185    4.2203698    4.2203698    4.2203698   -247.63185    15729.318   -8872.9555   -7599.2578    2068.9387    820.11668   -3265.5175    75.171207 
   68800    491.94972   -161.89804   0.44512645   -161.45291   -8338.7748     4.226009     4.226009     4.226009   -8338.7748   -995.63404   -16946.649   -7074.0419    1102.1667   -2336.1853   -4192.6658    75.472935 
   68900    551.64899   -161.95182    0.4991436   -161.45268   -8232.0272    4.2297044    4.2297044    4.2297044   -8232.0272    -8381.213   -9187.2806   -7127.5881    4052.6088    4755.3565    1204.9826    75.671102 
   69000    467.76312   -161.87469    0.4232419   -161.45145    3691.6209    4.2259965    4.2259965    4.2259965    3691.6209    9472.2017    7467.8364   -5865.1755    2580.3775    1619.6079   -2062.3752    75.472268 
   69100    542.83391   -161.94124   0.49116753   -161.45007    2668.2107    4.2198143    4.2198143    4.2198143    2668.2107    14100.224    5344.7348   -11440.326    5426.5124    2231.4999   -2285.8423     75.14153 
   69200    466.31417   -161.87253   0.42193086    -161.4506    1945.1833    4.2207019    4.2207019    4.2207019    1945.1833    17706.028   -5466.9522   -6403.5255    5184.2188     1156.907   -4399.9851    75.188951 
   69300    494.72735   -161.89879    0.4476397   -161.45115   -2590.9291    4.2258471    4.2258471    4.2258471   -2590.9291    11391.334   -13003.335    -6160.786    7416.8259   -797.56659    -8905.758    75.464264 
   69400    550.56346   -161.94885   0.49816139   -161.45069   -9836.0452    4.2296608    4.2296608    4.2296608   -9836.0452   -3610.4536   -12944.412    -12953.27    8182.7775    7869.5626    729.91868    75.668759 
   69500     421.5138   -161.83122   0.38139455   -161.44982    1083.2088    4.2253569    4.2253569    4.2253569    1083.2088    6171.9005    4035.6484   -6957.9226    210.65785    72.878525   -1109.3859    75.438007 
   69600     516.9528   -161.91687   0.46774976   -161.44912   -1388.6256     4.222028     4.222028     4.222028   -1388.6256    1691.6453    2462.3973   -8319.9196    1548.5456    1094.1721    -4280.827    75.259847 
   69700    494.30384   -161.89801    0.4472565   -161.45075   -896.97626    4.2216242    4.2216242    4.2216242   -896.97626    2183.7656    624.40515   -5499.0996    3964.8395    2636.8497   -3042.0291    75.238256 
   69800    453.64808   -161.86221   0.41047032   -161.45174   -4221.1887    4.2266076    4.2266076    4.2266076   -4221.1887    8123.1069   -4980.4922   -15806.181    -866.5438   -4135.9569   -5813.6528    75.505011 
   69900    502.89571    -161.9066   0.45503061   -161.45157   -9550.7788    4.2281286    4.2281286    4.2281286   -9550.7788   -2460.5754   -10131.491    -16060.27   -48.316937    3510.1611     445.8933    75.586558 
   70000    358.13449   -161.77618   0.32404762   -161.45214   -2316.2808    4.2238764    4.2238764    4.2238764   -2316.2808   -9460.6218    1038.9715    1472.8079   -7460.4206   -27.709654    1451.4251    75.358737 
   70100    428.13069     -161.839   0.38738164   -161.45162   -635.56279    4.2216816    4.2216816    4.2216816   -635.56279   -7385.5508    1325.8416    4153.0209   -9871.3083    947.20788    1170.3121    75.241326 
   70200    476.49471   -161.88299   0.43114243   -161.45184   -1137.5194     4.223966     4.223966     4.223966   -1137.5194    3065.8184   -1024.5359   -5453.8407   -6423.1097     4105.965   -506.36869    75.363531 
   70300    366.12814    -161.7846   0.33128043   -161.45332    -2294.004    4.2269298    4.2269298    4.2269298    -2294.004    12009.815    313.70212   -19205.529   -3766.1693   -1509.7253   -5520.8225    75.522284 
   70400    478.74232   -161.88608   0.43317611   -161.45291   -11295.277    4.2268967    4.2268967    4.2268967   -11295.277   -7317.0824   -9324.6675    -17244.08   -6797.4602    4047.9766   -967.48803    75.520508 
   70500    414.53733   -161.82894   0.37508209   -161.45386   -4606.3642    4.2264708    4.2264708    4.2264708   -4606.3642    -8032.119    -4333.595   -1453.3786   -9109.4608    2815.5441    1873.0082    75.497682 
   70600    427.07164   -161.84036   0.38642339   -161.45394    3120.3688    4.2243583    4.2243583    4.2243583    3120.3688    6900.4749     1226.236    1234.3956   -4714.3042    46.118561   -233.81146    75.384531 
   70700      445.276   -161.85676   0.40289509   -161.45386     25.32346    4.2266853    4.2266853    4.2266853     25.32346     12763.62    3179.0645   -15866.715   -6093.8407   -221.41736    1812.2015     75.50918 
   70800    349.30498   -161.77054   0.31605849   -161.45448   -851.85582    4.2273337    4.2273337    4.2273337   -851.85582    12141.318    2887.5347    -17584.42    -3973.594   -2885.0981    829.38097    75.543933 
   70900    390.23304   -161.80895   0.35309105   -161.45586   -4436.0988    4.2260089    4.2260089    4.2260089   -4436.0988   -1267.3232   -3704.5706   -8336.4027   -2471.1124   -3039.8773    217.72644    75.472934 
   71000     401.5661    -161.8191   0.36334545   -161.45575    4402.3538    4.2226607    4.2226607    4.2226607    4402.3538    2641.1446    11126.427   -560.51046   -2046.3593   -1346.7804    2837.1554    75.293686 
   71100    395.04928   -161.81206   0.35744889   -161.45461    9551.4818    4.2246282    4.2246282    4.2246282    9551.4818    20147.754    15447.966   -6941.2745    3247.2749   -1843.5629    2860.6261     75.39898 
   71200    380.98892   -161.79873   0.34472678   -161.45401    2786.6141     4.227185     4.227185     4.227185    2786.6141    13711.163    12016.082   -17367.404    3752.7608    1380.5743    4747.6035    75.535962 
   71300    399.74369   -161.81671   0.36169649   -161.45502   -6435.8896    4.2281348    4.2281348    4.2281348   -6435.8896   -2272.9622    257.43838   -17292.145     2221.429   -889.93985    3215.8448    75.586887 
   71400    359.77525   -161.78104   0.32553221    -161.4555    2892.7219    4.2233691    4.2233691    4.2233691    2892.7219    2716.7437    8937.0318   -2975.6098   -4431.9155    21.866536   -2687.8375    75.331586 
   71500    418.99983   -161.83367   0.37911985   -161.45455    6011.5561    4.2229489    4.2229489    4.2229489    6011.5561    11381.959    16227.317   -9574.6079    2795.0725    3046.2396    1185.5271    75.309106 
   71600    372.37018   -161.79045   0.33692836   -161.45352    6734.2283    4.2249845    4.2249845    4.2249845    6734.2283    17285.708    15084.759   -12167.782    4084.4622   -2654.4212    940.10645    75.418063 
   71700    339.89063   -161.76077   0.30754019   -161.45323   -2628.7135     4.229082     4.229082     4.229082   -2628.7135    1826.3002    5356.7062   -15069.147   -359.69345   -1148.3813    2297.2857      75.6377 
   71800    482.33778     -161.889   0.43642936   -161.45257   -6006.7367    4.2271099    4.2271099    4.2271099   -6006.7367   -748.60528   -1641.5511   -15630.054   -156.37444   -1663.3799     6166.758    75.531936 
   71900    422.13471   -161.83527   0.38195636   -161.45331    2445.5711    4.2250865    4.2250865    4.2250865    2445.5711    6919.5155    9801.6789   -9384.4811   -5736.4866    -2335.749    3223.9569    75.423521 
   72000    452.06355   -161.86166    0.4090366   -161.45262     762.9933    4.2231748    4.2231748    4.2231748     762.9933    3722.4534     8215.366   -9648.8395   -7118.7117   -741.49636    3021.5169    75.321188 
   72100    451.83247   -161.86086   0.40882752   -161.45203   -4786.9808    4.2259492    4.2259492    4.2259492   -4786.9808   -2013.0531   -769.62385   -11578.265   -2729.0094   -4498.2168    538.28404    75.469732 
   72200    388.60227    -161.8043    0.3516155   -161.45269   -2173.4306    4.2271652    4.2271652    4.2271652   -2173.4306    6038.8964   -3435.5542    -9123.634   -2440.8463   -2939.5548    2541.3285    75.534899 
   72300    517.00858   -161.92049   0.46780023   -161.45269   -9999.7876    4.2276073    4.2276073    4.2276073   -9999.7876   -4953.3624   -7360.8496   -17685.151   -3961.2008    474.28817    3653.6852    75.558602 
   72400    451.29426   -161.86104   0.40834053    -161.4527   -2934.8507    4.2236114    4.2236114    4.2236114   -2934.8507   -2891.3017    7678.1774   -13591.428    -10175.09   -241.62803   -1629.1447    75.344555 
   72500    407.35141    -161.8209   0.36858011   -161.45232   -1439.8609    4.2235887    4.2235887    4.2235887   -1439.8609   -82.705509    2375.9142   -6612.7915   -4505.7798    698.95531   -793.58168    75.343339 
   72600    462.59653   -161.87154   0.41856706   -161.45297   -3968.8227     4.224739     4.224739     4.224739   -3968.8227   -2145.6418   -2250.4997   -7510.3266   -5830.1164   -1587.4222   -2957.9334    75.404912 
   72700    438.99681   -161.85195   0.39721354   -161.45474   -5079.6774    4.2284638    4.2284638    4.2284638   -5079.6774    4830.7796   -1897.5486   -18172.263   -2994.3348   -4552.7262   -1081.2612    75.604536 
   72800    438.99542   -161.85234   0.39721228   -161.45512   -2147.5308    4.2262885    4.2262885    4.2262885   -2147.5308    4161.4033    2111.7814   -12715.777    3302.4152    -7317.899    1632.7136    75.487914 
   72900     354.8477   -161.77574   0.32107365   -161.45467   -1953.4519    4.2266761    4.2266761    4.2266761   -1953.4519   -7797.2742    13617.993   -11681.074   -1872.4155   -6016.4633    247.16647    75.508682 
   73000    352.79667   -161.77327   0.31921784   -161.45405    2789.7596    4.2245147    4.2245147    4.2245147    2789.7596    667.79141    11471.977   -3770.4897    2639.5097   -6679.9185   -279.24317    75.392907 
   73100    389.22422   -161.80606   0.35217825   -161.45388    1177.4656    4.2270629    4.2270629    4.2270629    1177.4656    13145.712     1046.359   -10659.674    4919.9865   -5410.4034   -5184.2608    75.529418 
   73200    427.28025   -161.84034   0.38661215   -161.45372    -1591.579     4.227852     4.227852     4.227852    -1591.579    18950.151   -4549.4645   -19175.423   -634.31159   -4767.1013   -5414.7253    75.571723 
   73300    336.53804   -161.75889   0.30450669   -161.45438   -1371.3114    4.2283883    4.2283883    4.2283883   -1371.3114    8881.0702    755.13916   -13750.143    1853.0566   -6033.1694   -4151.8743    75.600487 
   73400    280.86771   -161.70904     0.254135   -161.45491    2627.8998    4.2265029    4.2265029    4.2265029    2627.8998     6056.876    11641.842   -9815.0181    6678.0403   -4667.0063   -3328.4949    75.499405 
   73500    390.46884   -161.80801   0.35330441   -161.45471     2377.115    4.2258226    4.2258226    4.2258226     2377.115    20757.734   -3788.8499   -9837.5386    570.11155   -395.64186   -3966.4956     75.46295 
   73600    296.67107   -161.72429   0.26843422   -161.45585    8164.2164    4.2254208    4.2254208    4.2254208    8164.2164     41085.48    -6733.809   -9859.0221   -1878.9617   -1726.2299   -6617.8061    75.441428 
   73700    314.80214    -161.7415   0.28483959   -161.45666    1356.0036    4.2266959    4.2266959    4.2266959    1356.0036    17945.527   -4201.5483   -9675.9681   -255.68268    680.49824   -4202.3926    75.509748 
   73800    288.40731    -161.7169     0.260957   -161.45594    1613.5132    4.2261244    4.2261244    4.2261244    1613.5132    8189.7827    7400.3614   -10749.604   -4054.5344   -3733.9142   -2314.8872    75.479122 
   73900    299.46732   -161.72563   0.27096432   -161.45466    6463.6324    4.2256369    4.2256369    4.2256369    6463.6324     21582.82    9916.0694   -12107.992   -316.76065   -5530.3205   -2310.9845    75.453005 
   74000    408.79549   -161.82402   0.36988675   -161.45413    6595.9456    4.2248322    4.2248322    4.2248322    6595.9456    31422.952    756.50273   -12391.618   -1062.1623   -3490.2889    229.98564    75.409904 
   74100    336.08228    -161.7593   0.30409431    -161.4552    4675.2032    4.2255487    4.2255487    4.2255487    4675.2032    28831.247   -353.56904   -14452.069   -3614.8258   -6703.6898   -2979.0726    75.448277 
   74200    260.27029   -161.69065   0.23549803   -161.45515     3603.831    4.2262764    4.2262764    4.2262764     3603.831    13882.137    5767.3363   -8837.9807   -5429.8044   -6554.9359    -6497.902    75.487265 
   74300    385.45586     -161.803   0.34876856   -161.45423    31.872143    4.2259874    4.2259874    4.2259874    31.872143    3716.0459    9055.9341   -12676.364   -4594.5164   -7035.2431   -1255.6394    75.471782 
   74400    431.35353   -161.84362   0.39029774   -161.45332    3915.9238    4.2250068    4.2250068    4.2250068    3915.9238    17904.785    7523.4887   -13680.502   -1192.7218   -1377.3132   -467.14249    75.419256 
   74500    408.74888    -161.8226   0.36984458   -161.45276    1033.7778    4.2267339    4.2267339    4.2267339    1033.7778    21559.768   -4304.7635   -14153.671    -5016.943    19.230909     305.0598     75.51178 
   74600    438.00663   -161.84917    0.3963176   -161.45286   -7300.7335    4.2263899    4.2263899    4.2263899   -7300.7335   -6184.8789   -3165.7375   -12551.584    569.25389   -2320.1972    2255.8461    75.493347 
   74700    423.92546   -161.83618   0.38357666    -161.4526   -7920.0351    4.2252498    4.2252498    4.2252498   -7920.0351   -14884.293    2006.8935   -10882.706    2361.3827    1731.9784   -169.62184    75.432267 
   74800    507.05378   -161.91093   0.45879291   -161.45214   -6176.1637    4.2256585    4.2256585    4.2256585   -6176.1637   -4337.3723    541.49778   -14732.617   -2805.7634    264.69799   -85.648174    75.454161 
   74900     461.2265    -161.8695   0.41732743   -161.45217    214.67282    4.2257597    4.2257597    4.2257597    214.67282    4398.6905    4372.9722   -8127.6442    1802.0629    1506.1529   -424.74977    75.459581 
   75000    372.98545   -161.78983   0.33748508   -161.45234   -4103.6144    4.2267023    4.2267023    4.2267023   -4103.6144   -7840.5538   -547.52504   -3922.7644   -3475.1281    1862.3367    1749.5742     75.51009 
   75100    384.79117   -161.80163   0.34816714   -161.45346   -4457.9414    4.2237373    4.2237373    4.2237373   -4457.9414   -15727.674    4528.9007    -2175.051   -5006.9608    882.69352    3332.4269    75.351289 
   75200    477.15084    -161.8856   0.43173611   -161.45387    -4703.145    4.2251631    4.2251631    4.2251631    -4703.145   -11486.894    9335.3749   -11957.916    1395.4093    2102.9014    -2276.707    75.427626 
   75300    410.14258   -161.82473   0.37110563   -161.45362    378.16876    4.2262769    4.2262769    4.2262769    378.16876     2875.863    8667.8349   -10409.192   -5706.7715   -187.50997    579.37753    75.487291 
   75400    372.89874   -161.79099   0.33740661   -161.45359    -637.5777    4.2266069    4.2266069    4.2266069    -637.5777   -7528.8199    14037.329    -8421.242   -3240.3192    788.86318    1010.8583    75.504977 
   75500    344.77394   -161.76621    0.3119587   -161.45425    1143.5994    4.2243272    4.2243272    4.2243272    1143.5994   -5557.6127    8181.6375    806.77337   -5230.7593    3516.8157    2127.3852    75.382867 
   75600    359.83858   -161.78035   0.32558951   -161.45476    2552.4424    4.2256332    4.2256332    4.2256332    2552.4424    3044.5408     5939.629   -1326.8426   -9266.8152    1527.0033    1823.7206    75.452806 
   75700    430.94738   -161.84408   0.38993024   -161.45415   -255.57503    4.2267923    4.2267923    4.2267923   -255.57503    434.05614    8464.4511   -9665.2324   -2546.9334    1696.9536   -826.01575     75.51491 
   75800    269.94785   -161.69818   0.24425448   -161.45393    4895.2217    4.2274197    4.2274197    4.2274197    4895.2217    5339.6657     12655.44   -3309.4412   -4143.8794     2940.258    1567.3712    75.548542 
   75900    319.33092   -161.74173   0.28893733   -161.45279    3195.0715    4.2264155    4.2264155    4.2264155    3195.0715   -489.95791     17704.78   -7629.6077   -5414.4258    278.73883    -2356.057    75.494717 
   76000    404.29641   -161.81907   0.36581589   -161.45325    1245.5646    4.2248106    4.2248106    4.2248106    1245.5646   -5395.8982    7738.1781     1394.414   -6762.3547    2207.6963    -3992.255    75.408747 
   76100    371.13019   -161.78954   0.33580639   -161.45373   -756.74149    4.2234987    4.2234987    4.2234987   -756.74149   -4372.7425   -4176.1501    6278.6681   -10900.623    3002.1285    1358.9319    75.338523 
   76200    374.34105    -161.7915   0.33871165   -161.45279   -7453.4523    4.2261586    4.2261586    4.2261586   -7453.4523   -22130.899   -2020.6406    1791.1829    283.31679    1753.7399   -756.27716    75.480952 
   76300    230.03692   -161.66194   0.20814224    -161.4538    1210.2613    4.2280008    4.2280008    4.2280008    1210.2613   -20958.895    19913.224    4676.4549    641.90392    3908.6325   -4074.2507    75.579704 
   76400    344.51505   -161.76555   0.31172446   -161.45383    939.18155    4.2252326    4.2252326    4.2252326    939.18155   -9530.8627    14509.261   -2160.8536   -2418.3575    3519.8988   -2855.9606    75.431348 
   76500    356.68935   -161.77657   0.32274002   -161.45383   -1326.6016     4.222785     4.222785     4.222785   -1326.6016   -7648.0979    149.01452    3519.2785   -5385.3758    4894.4472    2791.8317    75.300333 
   76600    230.02112   -161.66251   0.20812794   -161.45438   -2838.5472    4.2244069    4.2244069    4.2244069   -2838.5472   -20338.564   -1528.3318    13351.255    -10289.55     5590.692    698.47573    75.387133 
   76700    237.57609   -161.66952   0.21496384   -161.45456   -1806.3108    4.2270139    4.2270139    4.2270139   -1806.3108   -24206.191    13799.271    4987.9877   -6186.4467    4036.8487   -2543.7174    75.526788 
   76800    226.44499   -161.66041   0.20489218   -161.45552     5366.871    4.2267113    4.2267113    4.2267113     5366.871    1365.5312    23643.726   -8908.6443   -4043.5595    2397.9149    1032.8068    75.510569 
   76900    261.06632    -161.6929   0.23621829   -161.45668    7606.6387    4.2239564    4.2239564    4.2239564    7606.6387    9874.8913    21691.209   -8746.1848   -1211.5053    945.16604   -5258.9081    75.363015 
   77000    225.80367   -161.66029    0.2043119   -161.45598    6268.2742    4.2240485    4.2240485    4.2240485    6268.2742   -3694.9808    17512.487    4987.3167   -6245.6154     2449.114   -5551.4361    75.367946 
   77100    148.68788   -161.59036   0.13453592   -161.45583    6193.5406    4.2258739    4.2258739    4.2258739    6193.5406   -14701.071     16419.29    16862.402   -9828.2052    3367.6111    -3135.266    75.465699 
   77200    259.51635   -161.68953   0.23481584   -161.45471    3893.7118    4.2275197    4.2275197    4.2275197    3893.7118   -21851.689    25339.608    8193.2159   -4134.8681    4606.6435   -4655.0671    75.553903 
   77300    318.27352   -161.74206   0.28798057   -161.45407    4009.0459    4.2265186    4.2265186    4.2265186    4009.0459   -5176.4638    26737.497   -9533.8955     1036.751    5634.0539   -1815.9654    75.500243 
   77400    298.69474   -161.72511   0.27026528   -161.45485   -947.17155    4.2246725    4.2246725    4.2246725   -947.17155     -6216.05    14696.703   -11322.167    2185.1192    2538.6497   -5485.0141    75.401352 
   77500    255.14454   -161.68637   0.23086014   -161.45551   -4605.0218    4.2239184    4.2239184    4.2239184   -4605.0218   -19969.532    9091.0661   -2936.5998   -1321.6381    4323.1274   -3012.7239    75.360982 
   77600    283.94641   -161.71209   0.25692068   -161.45517   -1126.5081    4.2257187    4.2257187    4.2257187   -1126.5081   -15363.107    6381.8662    5601.7163   -746.37827    5671.6307    2436.0135    75.457385 
   77700    356.72014   -161.77771   0.32276788   -161.45494    2105.6858    4.2271764    4.2271764    4.2271764    2105.6858   -8253.0877     17792.81   -3222.6642   -158.75646    2326.0369   -3070.5654    75.535499 
   77800    265.35104   -161.69568    0.2400952   -161.45558     2801.145    4.2257879    4.2257879    4.2257879     2801.145    552.34039    11154.248   -3303.1529    1241.4766    3709.5648   -326.09632    75.461091 
   77900    227.60505   -161.66088   0.20594184   -161.45494   -133.21965    4.2227602    4.2227602    4.2227602   -133.21965   -4313.6558    2734.0275    1179.9693    2343.4015    2027.4976   -1625.5117    75.299011 
   78000    275.13633   -161.70359   0.24894913   -161.45465    1929.1366    4.2229836    4.2229836    4.2229836    1929.1366   -706.02165    7686.6388   -1193.2074   -2706.8597   -803.44418   -1688.8623    75.310959 
   78100    319.29191   -161.74318   0.28890203   -161.45428    5393.4038    4.2261184    4.2261184    4.2261184    5393.4038    5421.4268    9046.7222    1712.0623   -1531.6308     2006.164   -639.90581      75.4788 
   78200    369.15567   -161.78719   0.33401981   -161.45317    476.62765    4.2282395    4.2282395    4.2282395    476.62765   -5240.1112    10223.005   -3553.0108   -2578.0087    1646.4591   -1003.8704    75.592506 
   78300    256.96737   -161.68703   0.23250948   -161.45452    1538.3839    4.2249428    4.2249428    4.2249428    1538.3839    3909.1591    804.99179   -98.999261   -365.76396    3175.6851   -450.85257    75.415827 
   78400    292.90455   -161.72039   0.26502619   -161.45537    1137.6153    4.2245234    4.2245234    4.2245234    1137.6153    2962.1556    1631.1114    -1180.421   -4247.8675    5340.1301   -5526.1296    75.393373 
   78500    403.13484   -161.81889   0.36476488   -161.45413   -654.36866    4.2251776    4.2251776    4.2251776   -654.36866   -3662.0942    12932.696   -11233.708   -7795.5226    4970.9864   -426.99591    75.428402 
   78600     302.4683   -161.72737   0.27367967   -161.45369     3725.455    4.2282286    4.2282286    4.2282286     3725.455   -4283.1582    22751.961   -7292.4383   -6831.7643    4752.2108    4490.9265     75.59192 
   78700    320.47394   -161.74279   0.28997156   -161.45281   -1680.6616    4.2284965    4.2284965    4.2284965   -1680.6616   -18619.093    19124.512    -5547.404   -3709.2511    98.859732    720.13669    75.606288 
   78800    302.36892   -161.72712   0.27358976   -161.45353   -1314.1505    4.2273339    4.2273339    4.2273339   -1314.1505   -13979.109    9086.1191    950.53852    1405.2722    3188.3166    415.66771    75.543947 
   78900    388.35654    -161.8054   0.35139316     -161.454    1724.3928    4.2241512    4.2241512    4.2241512    1724.3928   -2705.9221    12207.713    -4328.613   -2605.3844    1600.6403    2815.7232    75.373443 
   79000    403.50806   -161.81862   0.36510257   -161.45352    598.77521    4.2249766    4.2249766    4.2249766    598.77521   -11857.098    22590.719   -8937.2951   -3329.9532   -709.62961     2181.386    75.417635 
   79100    252.89962   -161.68317   0.22882889   -161.45435    1945.3339    4.2275185    4.2275185    4.2275185    1945.3339   -19808.863    32002.055   -6357.1906   -1928.4551    209.35439   -1944.2708     75.55384 
   79200    332.66614   -161.75616   0.30100332   -161.45516   -2937.1136    4.2291697    4.2291697    4.2291697   -2937.1136   -18342.726    19485.888   -9954.5027   -2125.6145   -3468.6179     -222.438    75.642406 
   79300    364.01875   -161.78414   0.32937181   -161.45477    5482.2189    4.2247757    4.2247757    4.2247757    5482.2189    4948.8758    9145.9552    2351.8257    9184.2431   -1158.7904    836.46511     75.40688 
   79400    407.02522    -161.8212   0.36828498   -161.45292    4385.2475    4.2228976    4.2228976    4.2228976    4385.2475    1005.2435    13445.928   -1295.4286    82.097385   -2630.1223    1592.5524     75.30636 
   79500    326.08303   -161.74723   0.29504678   -161.45219    4149.4739    4.2239491    4.2239491    4.2239491    4149.4739   -13029.776    21523.737    3954.4614   -4203.6813   -2886.1993   -1415.4158    75.362629 
   79600     374.0419   -161.79005   0.33844097   -161.45161   -1658.1225    4.2278446    4.2278446    4.2278446   -1658.1225   -13793.619    12397.854   -3578.6025   -2372.8459   -1847.6492    15.318508    75.571326 
   79700     509.1387    -161.9122    0.4606794   -161.45153   -7410.1165    4.2280195    4.2280195    4.2280195   -7410.1165    -5396.558   -4862.3802   -11971.411   -7268.1557   -3369.4783    5514.1465    75.580704 
   79800    480.70362   -161.88756   0.43495074   -161.45261    -7824.896    4.2256981    4.2256981    4.2256981    -7824.896    554.43913   -15523.816   -8505.3112   -486.25656   -3017.3978    2140.2575     75.45628 
   79900    436.69775   -161.84722    0.3951333   -161.45209   -682.13263    4.2224268    4.2224268    4.2224268   -682.13263   -4772.2459   -1768.6787    4494.5267   -3748.6343   -5635.5963   -453.62056    75.281177 
   80000    411.36327   -161.82436   0.37221013   -161.45215     912.1949    4.2245574    4.2245574    4.2245574     912.1949   -16851.629    7934.9219    11653.292   -5687.1967   -3605.0196     1980.525    75.395189 
   80100    498.60029   -161.90344   0.45114402    -161.4523   -1902.9033    4.2266371    4.2266371    4.2266371   -1902.9033   -15531.349    5955.0903    3867.5489   -5550.0271   -4363.2267   -708.18496    75.506594 
   80200    497.63581   -161.90284   0.45027134   -161.45257   -6657.4381    4.2290678    4.2290678    4.2290678   -6657.4381   -14494.539   -6258.8794    781.10385   -8906.5569   -3524.0226   -1714.6017     75.63694 
   80300    346.49364   -161.76629   0.31351473   -161.45278   -1506.1465     4.225206     4.225206     4.225206   -1506.1465   -11747.085    1938.1528     5290.493    1212.8482     1938.152    2859.9744    75.429924 
   80400    368.71422   -161.78587   0.33362037   -161.45225    2269.6037    4.2233596    4.2233596    4.2233596    2269.6037   -6612.2739    8118.1739    5302.9112    89.765436    1717.2877    1727.0131     75.33108 
   80500    467.07101   -161.87503   0.42261567   -161.45241    10628.268    4.2219852    4.2219852    4.2219852    10628.268   -46.606069    16387.947    15543.462   -3418.0575   -295.39776   -1344.9594    75.257558 
   80600    457.02542   -161.86631   0.41352621   -161.45278    1302.5437    4.2273232    4.2273232    4.2273232    1302.5437   -9852.1758    6151.0536    7608.7532    2222.2391    2420.1324    -322.0458    75.543369 
   80700    450.15939   -161.85902   0.40731368    -161.4517   -10367.404    4.2274862    4.2274862    4.2274862   -10367.404    -25119.73   -4457.5941   -1524.8882   -6528.6287    2916.2699    4503.3323    75.552108 
   80800    390.64728   -161.80561   0.35346586   -161.45214   -9357.6198    4.2253904    4.2253904    4.2253904   -9357.6198   -18920.176   -5138.8285   -4013.8544     -16.1099    2726.5076    1062.5287      75.4398 
   80900    510.06641   -161.91363    0.4615188   -161.45211   -369.37356    4.2218019    4.2218019    4.2218019   -369.37356    729.54665    2272.0847    -4109.752   -685.73248    5345.4394    2820.0063    75.247756 
   81000    545.10933   -161.94608   0.49322638   -161.45285   -1652.4087    4.2262092    4.2262092    4.2262092   -1652.4087   -7537.3908    3301.9812   -721.81631    -4172.952     3871.371    6725.5586    75.483666 
   81100    371.68273   -161.78951   0.33630634    -161.4532    252.85632    4.2267388    4.2267388    4.2267388    252.85632   -7889.1526    575.58188    8072.1397    498.52593    5311.0972    1402.7446    75.512042 
   81200     354.4001   -161.77352   0.32066866   -161.45285   -7733.5951    4.2283887    4.2283887    4.2283887   -7733.5951   -19106.503   -4491.6569    397.37491   -5797.2896    6733.4785     284.0054    75.600508 
   81300    355.05966   -161.77392   0.32126544   -161.45265   -612.36533    4.2253893    4.2253893    4.2253893   -612.36533   -9868.6696    5102.8025    2928.7711    135.74853    9384.7129    2862.8111    75.439742 
   81400    371.63435   -161.78911   0.33626257   -161.45285    4270.4707    4.2230089    4.2230089    4.2230089    4270.4707   -538.79242    10156.181     3194.023    7700.3787    13494.097   -2411.4906    75.312315 
   81500    310.42607     -161.734   0.28088003   -161.45312    5938.2976     4.224836     4.224836     4.224836    5938.2976   -12873.341     15584.55    15103.684   -2638.2876    10188.162   -4711.4886    75.410111 
   81600    231.13699   -161.66178   0.20913761   -161.45265    4297.1749    4.2284868    4.2284868    4.2284868    4297.1749   -15867.465    10291.354    18467.636    203.28794    10049.465   -1488.3144    75.605772 
   81700    404.52957   -161.81903   0.36602686     -161.453   -4608.9045    4.2279587    4.2279587    4.2279587   -4608.9045   -7007.4627    -3184.251   -3634.9997   -1019.0506    9335.6965   -2120.0902    75.577447 
   81800    442.28486   -161.85319   0.40018864     -161.453   -2093.0828    4.2231407    4.2231407    4.2231407   -2093.0828   -2821.6961    1324.6893   -4782.2418   -3869.8317    6104.2098   -3424.3369    75.319363 
   81900    376.40957   -161.79312   0.34058329   -161.45254    -3683.553    4.2241468    4.2241468    4.2241468    -3683.553   -8678.1975    1602.7336    -3975.195    -721.2061    5726.2441    471.27702    75.373212 
   82000    328.92099   -161.74977   0.29761462   -161.45215    1502.2431    4.2256872    4.2256872    4.2256872    1502.2431   -4655.7541    4251.6774    4910.8061   -833.92123    4587.8458    2753.3983    75.455697 
   82100    345.40428   -161.76505   0.31252905   -161.45252    2790.4152    4.2297733    4.2297733    4.2297733    2790.4152    11150.417   -5003.6876    2224.5158    342.75849     6349.528   -185.69394    75.674798 
   82200     448.6323   -161.85909   0.40593193   -161.45316    1247.1535     4.226144     4.226144     4.226144    1247.1535    24274.493     -7500.69   -13032.343   -3184.3796     8486.376   -1057.2737    75.480169 
   82300    347.68853   -161.76808   0.31459589   -161.45348    442.40285    4.2245203    4.2245203    4.2245203    442.40285    10802.047    2340.4338   -11815.272    2603.4052    9560.1016   -533.11396    75.393204 
   82400    209.29935   -161.64274   0.18937845   -161.45336    5900.1897    4.2223111    4.2223111    4.2223111    5900.1897    7597.3444    7809.8429    2293.3819    7884.8789    10194.127   -2744.3912    75.274986 
   82500    364.09117   -161.78415   0.32943734   -161.45471    1849.1605    4.2276987    4.2276987    4.2276987    1849.1605    8287.8266   -3532.2503    791.90525    1657.3728    6148.1457   -3896.1972    75.563502 
   82600    335.30708   -161.75938   0.30339289   -161.45598    13336.155    4.2262783    4.2262783    4.2262783    13336.155    43148.146    -3029.281   -110.39917    831.20237    6482.9781   -2070.4374    75.487365 
   82700    380.50223   -161.80035   0.34428641   -161.45606    465.30024    4.2281885    4.2281885    4.2281885    465.30024    19150.089     -4661.24   -13092.949    3020.5362    5909.9148     -2094.56    75.589768 
   82800    292.20809   -161.71835   0.26439602   -161.45396    -3664.601    4.2244673    4.2244673    4.2244673    -3664.601   -1748.7425   -1812.0285   -7433.0322   -1216.2469    6929.8172   -3026.3444    75.390366 
   82900    359.03571   -161.77782   0.32486306   -161.45296   -5479.0791    4.2262809    4.2262809    4.2262809   -5479.0791    1374.2049   -6874.4827   -10936.959    2906.2049    4980.8503   -1044.5401    75.487505 
   83000     495.3538   -161.90117   0.44820653   -161.45296    1559.5318    4.2258103    4.2258103    4.2258103    1559.5318    17971.928   -10488.342   -2804.9901    282.69994   -1773.0601   -65.603418    75.462289 
   83100    356.98791   -161.77661   0.32301016    -161.4536    4928.8847    4.2285084    4.2285084    4.2285084    4928.8847    16759.592   -6689.5916    4716.6537   -5087.4979    -2643.398   -2405.2006    75.606927 
   83200     292.2706   -161.71647   0.26445258   -161.45201    2303.3972    4.2268778    4.2268778    4.2268778    2303.3972   -9425.0854    9614.0178    6721.2592    65.075542     2152.434   -6004.7104    75.519495 
   83300    334.55949   -161.75545   0.30271646   -161.45273   -5223.3205    4.2266874    4.2266874    4.2266874   -5223.3205   -18717.698   -1690.9291    4738.6657    1352.8159    2237.8846   -6472.2501     75.50929 
   83400    426.64875   -161.84048   0.38604076   -161.45444   -1766.7431     4.222844     4.222844     4.222844   -1766.7431   -1746.9811   -4854.6034    1301.3552    6282.1697    3058.3592   -4298.3058     75.30349 
   83500    382.67809   -161.80053   0.34625518   -161.45428     558.3469    4.2263202    4.2263202    4.2263202     558.3469    5881.3524   -2855.2362   -1351.0755    1648.9974    5092.4083   -4269.4343    75.489613 
   83600    287.28241    -161.7142   0.25993916   -161.45426    4152.2233    4.2261614    4.2261614    4.2261614    4152.2233    3310.6816     2189.926    6956.0624    1933.8221    3289.2442     -3735.14    75.481104 
   83700     326.2308   -161.74927   0.29518048   -161.45409   -1591.6635     4.225241     4.225241     4.225241   -1591.6635   -11378.506    6322.3653    281.15049    5780.4397    4639.0787   -1859.8212    75.431796 
   83800    418.81577   -161.83216   0.37895331   -161.45321   -7640.1109    4.2225207    4.2225207    4.2225207   -7640.1109   -10371.575   -5158.8137   -7389.9442     6110.489    10385.697   -3479.8176    75.286199 
   83900    426.43082   -161.83837   0.38584357   -161.45252   -8135.7158    4.2251463    4.2251463    4.2251463   -8135.7158    -1731.251    -14373.68   -8302.2165      10742.5    5289.2554    -1774.583    75.426726 
   84000    259.03278   -161.68701    0.2343783   -161.45264    2917.3561     4.227728     4.227728     4.227728    2917.3561    10135.518   -8997.4563    7614.0065    6189.9552    1830.7807    474.79203    75.565075 
   84100    312.78364   -161.73604   0.28301321   -161.45303    5627.2095     4.225797     4.225797     4.225797    5627.2095    4114.4514    652.36604    12114.811    1454.6205    1519.8725   -1784.7655    75.461582 
   84200    350.48048   -161.77233   0.31712211   -161.45521    3837.8745    4.2235967    4.2235967    4.2235967    3837.8745   -316.63081     8524.775    3305.4792   -397.60894     2328.056   -4336.3416    75.343767 
   84300    302.37647   -161.72903   0.27359658   -161.45543    1988.7775    4.2232729    4.2232729    4.2232729    1988.7775   -6003.6204    3055.0937    8914.8593    2124.1877   -898.83124   -7541.6901    75.326438 
   84400    234.24986   -161.66669    0.2119542   -161.45473   -267.77616    4.2279701    4.2279701    4.2279701   -267.77616   -11551.492   -3099.6874    13847.851    5957.8808   -2658.7759   -7643.4901    75.578058 
   84500     168.9149   -161.60891   0.15283775   -161.45607    10847.822    4.2267424    4.2267424    4.2267424    10847.822    9103.4189   -1807.3981    25247.444    5463.5297    2150.8638   -6012.5552    75.512238 
   84600     334.2411   -161.75801   0.30242838   -161.45558    7874.2084     4.227009     4.227009     4.227009    7874.2084     10911.69   -4060.7559    16771.691    5344.2892   -581.72943   -1648.2793    75.526528 
   84700    352.65376     -161.773   0.31908853   -161.45391    759.50782    4.2248351    4.2248351    4.2248351    759.50782   -4013.2728    1183.7334    5108.0628     6003.046     2257.312    -2424.652    75.410063 
   84800    276.31112   -161.70335   0.25001211   -161.45333   -9349.7767    4.2261481    4.2261481    4.2261481   -9349.7767   -24082.095   -9036.6994    5069.4638    8604.2714    7328.1621   -4666.7689    75.480392 
   84900    275.24744   -161.70202   0.24904967   -161.45297    -5167.993    4.2261507    4.2261507    4.2261507    -5167.993   -7136.9323   -14366.345     5999.298    11128.689    1944.5157    73.092769    75.480532 
   85000    386.10122   -161.80243    0.3493525   -161.45307   -2857.5774    4.2283795    4.2283795    4.2283795   -2857.5774    13405.684   -17296.487   -4681.9293    11607.193    1420.4481   -728.65106    75.600015 
   85100    325.53124   -161.74859   0.29454751   -161.45404    7023.7357     4.226041     4.226041     4.226041    7023.7357     10977.94    3519.5906    6573.6768    8063.5851    5057.5495   -3873.7684    75.474651 
   85200     204.8974   -161.63918   0.18539548   -161.45379    1928.2793    4.2248987    4.2248987    4.2248987    1928.2793   -9665.4582    12417.297    3032.9995    4789.4411    2427.3859   -2576.9652    75.413467 
   85300    157.65347   -161.59784   0.14264817   -161.45519    1344.9998    4.2236128    4.2236128    4.2236128    1344.9998   -8812.2889    4648.8684    8198.4199    5262.8699    2438.8802   -5251.8396    75.344626 
   85400    244.25631   -161.67721   0.22100824    -161.4562    5117.0535    4.2252441    4.2252441    4.2252441    5117.0535    13627.922   -4162.4159    5885.6544    4389.9042   -1132.8287   -9502.1567    75.431962 
   85500    274.97351   -161.70459   0.24880181   -161.45579    7539.6796    4.2279068    4.2279068    4.2279068    7539.6796    25534.241   -6168.4777     3253.276    8181.9574   -1230.0103   -5831.9631    75.574661 
   85600    202.03966   -161.63815   0.18280973   -161.45534    8617.4916    4.2260409    4.2260409    4.2260409    8617.4916    3560.4143    3554.3356    18737.725    9919.3732   -1636.6366    -2074.197    75.474647 
   85700    183.29545   -161.62143   0.16584958   -161.45558    2293.0483    4.2229804    4.2229804    4.2229804    2293.0483   -6391.0458    4053.5957     9216.595    9779.1652    1245.8726   -2020.1571    75.310789 
   85800    302.50784   -161.72875   0.27371545   -161.45504   -882.46085    4.2225885    4.2225885    4.2225885   -882.46085    5197.1266   -9248.9231     1404.414    9170.1581    6232.8165   -3820.6645    75.289825 
   85900    364.57754   -161.78423   0.32987742   -161.45436   -1827.9853     4.227602     4.227602     4.227602   -1827.9853    15827.026   -17050.757   -4260.2246    7510.2017   -1325.9723    284.43399    75.558318 
   86000    263.90693    -161.6931   0.23878854   -161.45431    494.68652    4.2286558    4.2286558    4.2286558    494.68652    12845.412   -10163.822     -1197.53    12315.895   -1598.2184   -813.80451    75.614834 
   86100    217.70687   -161.65071   0.19698576   -161.45372    783.18011    4.2267542    4.2267542    4.2267542    783.18011   -5268.0015    2044.7768    5572.7651    15022.514    5792.8702   -1884.3304    75.512872 
   86200    280.18324   -161.70774   0.25351568   -161.45422      2111.73    4.2230744    4.2230744    4.2230744      2111.73   -2593.5595    3993.2054    4935.5441    13058.691    4540.1495    1082.1152    75.315818 
   86300    334.30984   -161.75632   0.30249057   -161.45383    3369.4144    4.2237166    4.2237166    4.2237166    3369.4144    2807.1119   -1332.0556    8633.1868    11735.075    1698.3247   -2873.4161    75.350183 
   86400      248.699   -161.67841   0.22502808   -161.45338    4376.9132    4.2275487    4.2275487    4.2275487    4376.9132    7249.3435    811.40676    5069.9893    6497.2721      847.459   -6087.6517     75.55546 
   86500     243.6612   -161.67394   0.22046977   -161.45347   -878.45592    4.2292983    4.2292983    4.2292983   -878.45592   -3994.4506   -4039.6616    5398.7444     5950.995    1160.3828   -2862.8152    75.649308 
   86600    313.02354     -161.737   0.28323028   -161.45377     282.5388    4.2261434    4.2261434    4.2261434     282.5388   -8493.1891    5277.2356    4063.5699    6594.5554   -975.28672    1915.3074     75.48014 
   86700    408.37618   -161.82278   0.36950735   -161.45328   -410.77701    4.2232224    4.2232224    4.2232224   -410.77701    191.99876    361.53763   -1785.8674    7712.7889   -1388.1432   -2376.2236    75.323738 
   86800    329.73276   -161.75209   0.29834913   -161.45374    -1019.407    4.2243458    4.2243458    4.2243458    -1019.407    3561.8593   -10948.548    4328.4673    6405.4797     2241.906   -2736.4292    75.383862 
   86900    234.71334   -161.66677   0.21237356   -161.45439   -2765.0739    4.2276489    4.2276489    4.2276489   -2765.0739    6654.9398   -10999.701   -3950.4602    3487.9457    2248.3616    914.58955    75.560835 
   87000    323.18753   -161.74787   0.29242687   -161.45544   -774.96089    4.2285157    4.2285157    4.2285157   -774.96089    7794.3435   -7600.1215   -2519.1046    585.48704    60.134562    -721.6386    75.607317 
   87100    322.69689   -161.74867   0.29198293   -161.45669     6345.457     4.225403     4.225403     4.225403     6345.457    17228.673    3249.4197    -1441.722    3644.0353    4434.6442   -812.66871    75.440473 
   87200    290.61655   -161.71797   0.26295596   -161.45501    7999.0171    4.2235108    4.2235108    4.2235108    7999.0171    17657.871    -1708.177    8047.3571    8240.7499    5036.1449   -350.75308    75.339172 
   87300    227.30993    -161.6602    0.2056748   -161.45452    4650.4871    4.2243077    4.2243077    4.2243077    4650.4871    18478.659   -13190.964    8663.7672    6708.5863    1624.8713   -1186.9054    75.381825 
   87400    254.66698   -161.68614   0.23042804   -161.45571    1553.9362    4.2267558    4.2267558    4.2267558    1553.9362    19223.016   -12140.247   -2420.9599    7703.5854    3300.0962   -3370.1598    75.512957 
   87500    380.91032   -161.80038   0.34465567   -161.45572    1358.6842    4.2265387    4.2265387    4.2265387    1358.6842    11579.747   -3052.8189   -4450.8756    1463.5273    4010.0284   -770.64179     75.50132 
   87600    398.46422    -161.8144    0.3605388   -161.45386    1535.0016    4.2258021    4.2258021    4.2258021    1535.0016   -1473.9711    6737.7236   -658.74766     5005.138    1826.4661   -384.04132    75.461854 
   87700     349.9588   -161.77009   0.31665008   -161.45344    4624.2328    4.2237189    4.2237189    4.2237189    4624.2328    939.09208    -151.5604    13085.167    6869.8571   -1023.8748   -2685.9253    75.350305 
   87800    394.62517   -161.81075   0.35706515   -161.45368   -2916.6862    4.2238384    4.2238384    4.2238384   -2916.6862   -799.10271    -10213.82    2262.8636    5509.9908   -1871.4397   -2575.1756    75.356699 
   87900    471.62433   -161.87995   0.42673561   -161.45322   -8508.0524    4.2265597    4.2265597    4.2265597   -8508.0524   -8851.3944   -5764.7747   -10907.988    6042.3714   -1145.6732    1805.8878    75.502444 
   88000    498.31703    -161.9027   0.45088772   -161.45181   -8786.7969    4.2279367    4.2279367    4.2279367   -8786.7969   -16411.119   -4397.8809   -5551.3913   -1898.9212   -2909.9617    2011.2659    75.576267 
   88100    415.21617   -161.82656   0.37569632   -161.45086    477.20136    4.2271451    4.2271451    4.2271451    477.20136   -10275.741    4808.1889    6899.1563     732.5374    1984.4024   -3353.1385    75.533824 
   88200    423.55538   -161.83499   0.38324181   -161.45175    4149.4892    4.2241799    4.2241799    4.2241799    4149.4892    5440.8099   -3465.0835    10472.741    885.82205    3162.4647    1029.7646    75.374981 
   88300    433.82215   -161.84606    0.3925314   -161.45353   -555.30436    4.2246036    4.2246036    4.2246036   -555.30436    8743.5401   -8184.9412    -2224.512    1855.9663   -1375.9621   -351.09804    75.397663 
   88400    428.46874   -161.84124   0.38768752   -161.45355   -3525.9313    4.2269745    4.2269745    4.2269745   -3525.9313    6481.8905   -8236.8857   -8822.7987    4827.1258    1632.5185   -5461.7183    75.524676 
   88500    390.59497   -161.80675   0.35341854   -161.45333   -4169.3443    4.2299874    4.2299874    4.2299874   -4169.3443   -671.01961   -7018.8556   -4818.1577   -2262.5089    2324.4099    2839.5382    75.686293 
   88600    341.22957   -161.76268   0.30875169   -161.45393    6451.7339    4.2276021    4.2276021    4.2276021    6451.7339    12372.566    3162.5976    3820.0381   -30.448596    993.65409    2420.5772    75.558322 
   88700      459.851    -161.8697   0.41608285   -161.45362    5685.6816    4.2242943    4.2242943    4.2242943    5685.6816      28475.9   -7625.8699   -3792.9849     744.8423    360.98006   -2346.6518    75.381105 
   88800    399.05312   -161.81612   0.36107165   -161.45505    5234.1098    4.2227859    4.2227859    4.2227859    5234.1098    19185.166    3073.9182   -6556.7542   -562.72147   -4243.8232   -2428.8969    75.300382 
   88900    377.99934   -161.79703   0.34202175   -161.45501   -5252.2545    4.2263534    4.2263534    4.2263534   -5252.2545   -2549.2813   -8745.5301   -4461.9522    2074.2642   -4665.7378    706.33923    75.491391 
   89000    430.81775   -161.84338   0.38981295   -161.45357      -6216.9    4.2294173    4.2294173    4.2294173      -6216.9   -12277.136   -5485.8905   -887.67306   -1915.7361   -4098.3278    2782.6489    75.655692 
   89100    427.18208   -161.84099   0.38652333   -161.45447    3918.7707      4.22758      4.22758      4.22758    3918.7707    3884.0495    5588.6974    2283.5653    957.24924   -2401.4743    -2110.901    75.557139 
   89200    519.23477   -161.92343   0.46981453   -161.45361    338.68644    4.2239008    4.2239008    4.2239008    338.68644    5243.6892   -6451.8645    2224.2347    -1917.435   -855.67706   -810.16672    75.360039 
   89300    422.50091   -161.83653   0.38228771   -161.45424   -1062.7627    4.2228078    4.2228078    4.2228078   -1062.7627   -11643.984    804.75169    7650.9439    920.16009   -898.93254    1149.2851    75.301555 
   89400    450.02924   -161.86147   0.40719591   -161.45427   -10017.349    4.2269096    4.2269096    4.2269096   -10017.349   -19770.746   -11632.652    1351.3516    3373.9526    1591.1563   -5930.1717    75.521199 
   89500    548.30099   -161.94984   0.49611426   -161.45373   -11155.831    4.2293964    4.2293964    4.2293964   -11155.831    -13243.39   -8326.6713   -11897.432    489.54893    2881.7115    486.20577    75.654573 
   89600    504.60458    -161.9102   0.45657683   -161.45363   -1876.0097    4.2274647    4.2274647    4.2274647   -1876.0097    5919.2694   -4591.7828   -6955.5157    2721.4775    651.22761    3632.9693    75.550958 
   89700    495.34855   -161.90087   0.44820178   -161.45267    234.58267    4.2233301    4.2233301    4.2233301    234.58267    2486.4066   -2047.3484    264.68976    1394.4034    2857.0675   -3695.4313    75.329497 
   89800    433.06602   -161.84541   0.39184723   -161.45356    -2479.919    4.2227748    4.2227748    4.2227748    -2479.919   -6878.9963     -1580.91    1020.1493    2180.8197    3076.6484   -1865.7047    75.299788 
   89900    495.49937   -161.90193   0.44833824    -161.4536   -8670.5636    4.2264313    4.2264313    4.2264313   -8670.5636   -3528.9678   -14343.781   -8138.9418    349.56402    1339.2314     2002.081    75.495566 
   90000    481.76212   -161.89025   0.43590849   -161.45434   -2043.5243    4.2285905    4.2285905    4.2285905   -2043.5243    7245.0601   -4132.3618   -9243.2711    1614.8397     1776.067    2085.3474    75.611332 
   90100    398.29561   -161.81392   0.36038624   -161.45354    2188.9199    4.2273084    4.2273084    4.2273084    2188.9199    9276.2594   -7073.1672    4363.6673    77.429935   -3031.5517    1151.1675    75.542576 
   90200    401.43708   -161.81601    0.3632287   -161.45279    6217.8526    4.2232036    4.2232036    4.2232036    6217.8526     6105.802    -1.378813    12549.135   -53.995387   -4730.0332    154.98262    75.322732 
   90300    421.44654   -161.83583   0.38133369   -161.45449    5725.5833    4.2235084    4.2235084    4.2235084    5725.5833    11111.258   -1439.6661    7505.1581    1039.6001   -113.56844    1835.4123    75.339043 
   90400    493.40751   -161.90053   0.44644549   -161.45408   -3686.4139    4.2259781    4.2259781    4.2259781   -3686.4139    5090.0815    -13668.21   -2481.1138   -2202.0393    1692.6445   -2722.3941    75.471281 
   90500    430.88468   -161.84316   0.38987351   -161.45329    -8046.394    4.2292255    4.2292255    4.2292255    -8046.394   -12817.385   -3975.6989   -7346.0981   -3330.9017    3257.2092   -2857.8332    75.645399 
   90600    436.61203   -161.84813   0.39505574   -161.45308   -4267.8551    4.2271409    4.2271409    4.2271409   -4267.8551   -15485.024   -1330.3434    4011.8021   -2049.5436    3947.2101    3755.3755      75.5336 
   90700    510.93508   -161.91531   0.46230479     -161.453    1575.1198     4.224535     4.224535     4.224535    1575.1198   -7916.2937    6476.1213    6165.5319   -2754.4683    3585.6763   -2596.0066    75.393994 
   90800    501.70073   -161.90743   0.45394937   -161.45348     317.0708    4.2228541    4.2228541    4.2228541     317.0708    923.35297     7893.185   -7865.3256    238.56817    3290.0174   -3912.0391    75.304035 
   90900    437.71582   -161.84883   0.39605447   -161.45278   -8923.3541    4.2266625    4.2266625    4.2266625   -8923.3541   -9838.4376   -671.78568   -16259.839   -691.26979      4663.84    3305.1446    75.507955 
   91000    398.02021   -161.81307   0.36013705   -161.45293   -6286.4334    4.2287488    4.2287488    4.2287488   -6286.4334   -18626.561     2430.941   -2663.6797   -2422.2494    4296.7635    2343.2893    75.619822 
   91100    413.93229    -161.8284   0.37453463   -161.45386    605.89671     4.227027     4.227027     4.227027    605.89671   -7169.2482   -2189.0658    11176.004   -698.09269    14.056886    3249.7404    75.527491 
   91200    428.76594   -161.84211   0.38795643   -161.45415    9671.2354    4.2220511    4.2220511    4.2220511    9671.2354    9462.2836     9195.276    10356.146    526.86538   -1003.8824    3682.3961    75.261079 
   91300    323.21624   -161.74714   0.29245285   -161.45469    6314.4234     4.221983     4.221983     4.221983    6314.4234     10404.41    7277.2696    1261.5905     1370.278    648.10566   -116.93088    75.257439 
   91400    313.34673    -161.7384   0.28352271   -161.45488   -4376.8004    4.2263881    4.2263881    4.2263881   -4376.8004   -8352.0668   -6850.1952    2071.8609   -887.22166    1416.6569    1337.2443    75.493252 
   91500    378.88721   -161.79812   0.34282511    -161.4553   -4641.1742    4.2289624    4.2289624    4.2289624   -4641.1742   -16783.079   -7970.2299    10829.786   -6028.6038     182.0176   -1192.4112    75.631283 
   91600    394.89731   -161.81285   0.35731139   -161.45554    285.52757    4.2258465    4.2258465    4.2258465    285.52757   -8516.5522   -10026.634    19399.769   -7171.9868   -462.60129    2365.9104    75.464233 
   91700    359.56572   -161.77993   0.32534262   -161.45458    1214.0923    4.2220923    4.2220923    4.2220923    1214.0923   -10087.044    981.47389    12747.847   -6780.3106    2811.7647    1283.1916    75.263283 
   91800    308.62976   -161.73332   0.27925469   -161.45407   -2015.4143    4.2234535    4.2234535    4.2234535   -2015.4143   -12781.141    5560.4878    1174.4106   -4913.8694    3350.8117   -4530.9369    75.336102 
   91900    362.16489    -161.7821   0.32769441   -161.45441   -2935.3616    4.2258798    4.2258798    4.2258798   -2935.3616    -3669.971   -8826.4063    3690.2925   -1260.3978    7521.4132    1126.9557    75.466018 
   92000    409.72914   -161.82534   0.37073154    -161.4546   -2837.9229    4.2282668    4.2282668    4.2282668   -2837.9229   -4984.3555   -9369.4118    5839.9987   -7605.0108    5990.2093   -435.17786    75.593968 
   92100    371.85953   -161.78983   0.33646632   -161.45336   -2885.0813    4.2264457    4.2264457    4.2264457   -2885.0813   -5565.4925   -6994.5125    3904.7611   -4893.5895    2174.3035   -245.84564    75.496339 
   92200    256.67648   -161.68494   0.23224627   -161.45269    3906.6779      4.22308      4.22308      4.22308    3906.6779   -897.28797    9464.8603    3152.4613   -425.59549    4758.0594    4633.7801    75.316119 
   92300    312.71865   -161.73597   0.28295441   -161.45301    5310.2013    4.2223473    4.2223473    4.2223473    5310.2013    8589.6011    11745.165   -4404.1622   -1678.4104    3351.0585    2675.8665    75.276923 
   92400    365.78976    -161.7847   0.33097426   -161.45372    2930.3514    4.2264685    4.2264685    4.2264685    2930.3514    17056.361   -4983.2186   -3282.0883    1245.0682    3438.9062    4599.3084    75.497557 
   92500    335.45148   -161.75681   0.30352355   -161.45329    548.28153    4.2284162    4.2284162    4.2284162    548.28153    4680.3372   -10197.888     7162.395    -4619.563    1456.9217    4802.8117    75.601981 
   92600    278.94289   -161.70498   0.25239339   -161.45259   -3131.6784    4.2270456    4.2270456    4.2270456   -3131.6784   -12552.347   -13860.762    17018.074   -4545.4094    784.95031    3776.3093    75.528487 
   92700    311.28909   -161.73469   0.28166091   -161.45303     1722.829    4.2223117    4.2223117    4.2223117     1722.829   -9941.4272    286.52123    14823.393   -4565.9888   -434.16285    6545.7778    75.275017 
   92800    403.32204   -161.81909   0.36493425   -161.45415    3122.2792    4.2221897    4.2221897    4.2221897    3122.2792    5906.0922    3319.8247    140.92063   -6326.6489   -46.121988    1326.6484    75.268493 
   92900    375.79891   -161.79396   0.34003075   -161.45393    1922.8791    4.2249168    4.2249168    4.2249168    1922.8791    10429.616   -7844.9191    3183.9408   -3342.1422    3202.4144    3933.3534    75.414435 
   93000    265.50574   -161.69346   0.24023517   -161.45322   -3211.2147     4.228794     4.228794     4.228794   -3211.2147   -12693.903    -15138.95    18199.209   -8369.3529    3189.4211    1774.4745    75.622251 
   93100    284.07588   -161.71138   0.25703783   -161.45434    -3015.865    4.2256957    4.2256957    4.2256957    -3015.865   -18190.714   -8443.2901    17586.409   -6468.6514    1142.3262   -883.90475    75.456151 
   93200    314.48577   -161.73938   0.28455334   -161.45483    1380.0178    4.2217872    4.2217872    4.2217872    1380.0178    -5746.956    8187.7227    1699.2868   -2466.9153   -1584.5118    3435.1529    75.246972 
   93300    326.77923   -161.75015   0.29567671   -161.45447    5104.0365    4.2212438    4.2212438    4.2212438    5104.0365    9688.9932    12744.046   -7120.9296    -3180.425    782.42476     1739.233     75.21792 
   93400    227.12046    -161.6607   0.20550337    -161.4552    6641.7371    4.2252022    4.2252022    4.2252022    6641.7371    10967.373    1978.3976    6979.4413    1304.9921   -1567.7029     4548.951    75.429719 
   93500    167.71087    -161.6072   0.15174832   -161.45545    4850.6788    4.2273779    4.2273779    4.2273779    4850.6788   -3177.6909    -2052.894    19782.621   -1447.0574    2012.6437    6112.3808    75.546303 
   93600    374.22814   -161.79286   0.33860948   -161.45425   -3124.7844    4.2233353    4.2233353    4.2233353   -3124.7844   -6682.7639   -4818.7564     2127.167   -1570.0286   -2246.3089     7536.055    75.329778 
   93700    320.72787   -161.74501   0.29020131   -161.45481   -1935.3625    4.2222621    4.2222621    4.2222621   -1935.3625   -6035.2211    6647.9505   -6418.8169    2060.3062   -7925.5311    7705.7168    75.272364 
   93800    301.70778   -161.72767   0.27299154   -161.45467   -688.11554    4.2241177    4.2241177    4.2241177   -688.11554   -6870.5918    5605.4148    -799.1697   -4466.3573   -823.97495    7188.4437    75.371654 
   93900     262.0192   -161.69038   0.23708048    -161.4533   -789.91026    4.2285283    4.2285283    4.2285283   -789.91026   -5663.1144   -12369.682    15663.065   -2765.2456   -5704.7465    8927.7936    75.607997 
   94000    349.75864   -161.76969   0.31646896   -161.45322    2689.2851    4.2262322    4.2262322    4.2262322    2689.2851    4784.4561   -14134.321    17417.721   -3779.0222   -3062.2392    6604.1899    75.484896 
   94100    469.57083   -161.87772   0.42487756   -161.45284   -4846.9759    4.2256469    4.2256469    4.2256469   -4846.9759    1153.8218   -15437.867   -256.88209   -3311.3311    2409.8817    3971.5308    75.453541 
   94200    263.00743   -161.69154   0.23797465   -161.45356    135.63885    4.2238498    4.2238498    4.2238498    135.63885    -6061.739   -1030.6048    7499.2604    2124.9412   -2599.9838    3875.0796    75.357314 
   94300    223.93877   -161.65648    0.2026245   -161.45386    1693.7531    4.2258681    4.2258681    4.2258681    1693.7531   -5297.0645    293.24794    10085.076    587.12856   -1736.6421    3801.6568     75.46539 
   94400     312.1521   -161.73605   0.28244178    -161.4536    8458.7199    4.2269043    4.2269043    4.2269043    8458.7199    13072.186   -4438.3388    16742.313    74.578834   -1519.5873    2043.8774    75.520917 
   94500    302.84686   -161.72823    0.2740222    -161.4542    10762.128    4.2283164    4.2283164    4.2283164    10762.128    19771.231   -4628.7696    17143.924    1043.9463   -100.59122    3254.7844    75.596631 
   94600    322.57642   -161.74585   0.29187392   -161.45397    370.36876    4.2251825    4.2251825    4.2251825    370.36876    5523.3552   -4388.8818   -23.367146    781.53111   -85.052326    6392.5871    75.428663 
   94700    189.74026   -161.62529   0.17168098   -161.45361   -3286.9718    4.2228408    4.2228408    4.2228408   -3286.9718   -13483.543    7518.7187   -3896.0915    3027.1161   -6799.3681     3905.731    75.303322 
   94800    298.90361   -161.72432   0.27045427   -161.45387   -1385.8067    4.2242651    4.2242651    4.2242651   -1385.8067   -11566.013    4551.4509    2857.1415   -1149.2329    2074.5984      5631.04    75.379543 
   94900    403.31563   -161.81985   0.36492846   -161.45492    3435.4204      4.22689      4.22689      4.22689    3435.4204    12272.356   -16666.689    14700.595   -5163.6866   -3729.3238    7792.8435    75.520151 
   95000    279.64381    -161.7078   0.25302759   -161.45478    2134.6346    4.2266421    4.2266421    4.2266421    2134.6346    12777.258   -18942.573     12569.22   -2496.2722   -7058.0059    8700.4542    75.506865 
   95100      245.397   -161.67576   0.22204037   -161.45372   -7485.2004    4.2236295    4.2236295    4.2236295   -7485.2004   -5433.2387   -14660.219   -2362.1434    -6033.858    279.40521    10055.605    75.345521 
   95200    209.48465   -161.64434   0.18954612   -161.45479   -3424.2694    4.2227424    4.2227424    4.2227424   -3424.2694   -4083.8394   -198.87412   -5990.0947    732.01649   -4801.4156     7069.772    75.298056 
   95300    340.59352   -161.76357   0.30817617   -161.45539    4821.0127    4.2238845    4.2238845    4.2238845    4821.0127     13526.82   -4723.3632    5659.5816    2099.5935   -208.60489    9707.2521     75.35917 
   95400    318.78518   -161.74396   0.28844353   -161.45551    6347.1903    4.2261583    4.2261583    4.2261583    6347.1903    23368.258   -18502.154    14175.466   -1325.4227    1282.0991    9683.3751    75.480938 
   95500    184.57552   -161.62327   0.16700781   -161.45626    1435.2411    4.2255641    4.2255641    4.2255641    1435.2411    6026.9361   -11605.676    9884.4633   -475.91526   -2069.5644    9050.1171    75.449101 
   95600    258.33703   -161.68904   0.23374877   -161.45529   -3285.7605    4.2242785    4.2242785    4.2242785   -3285.7605   -742.43389   -6106.2897   -3008.5579   -2918.7561   -2906.2552    5052.3883    75.380258 
   95700    353.91856   -161.77573   0.32023295   -161.45549    660.62381    4.2253051    4.2253051    4.2253051    660.62381    199.04692    3820.3255    -2037.501    702.35276    558.18983   -1289.6349    75.435228 
   95800    383.97587   -161.80283   0.34742943    -161.4554    4479.1185     4.227452     4.227452     4.227452    4479.1185   -3168.6814   -2390.1647    18996.201   -524.29904    3468.9145    1783.8722    75.550278 
   95900    288.65548   -161.71504   0.26118155   -161.45386    1911.8046    4.2279048    4.2279048    4.2279048    1911.8046   -1692.5682   -13326.241    20754.223   -2896.7591     612.6868    4082.9579    75.574554 
   96000    309.11816   -161.73433   0.27969661   -161.45463   -3594.5434    4.2254145    4.2254145    4.2254145   -3594.5434   -6906.3812   -14775.361    10898.112   -3991.1011    770.03479    6319.6055    75.441087 
   96100    392.84237   -161.81134   0.35545203   -161.45589   -2996.9142    4.2250896    4.2250896    4.2250896   -2996.9142   -2033.3737   -16816.696    9859.3274   -7288.8469   -1591.4249    3264.3795    75.423689 
   96200    384.85269    -161.8028    0.3482228   -161.45458    7607.6541    4.2262618    4.2262618    4.2262618    7607.6541     6120.937   -2577.2985    19279.324    -1580.255   -3709.9555    2759.9283    75.486483 
   96300    290.83413   -161.71653   0.26315284   -161.45338    7587.4807    4.2275825    4.2275825    4.2275825    7587.4807   -8973.4847   -2353.3501    34089.277    149.36167   -8693.7889    7405.8411    75.557275 
   96400    267.24142   -161.69551   0.24180565    -161.4537    2415.5466    4.2276717    4.2276717    4.2276717    2415.5466   -6990.0054   -4898.5047     19135.15   -980.49702   -1481.3842     7593.023    75.562054 
   96500    442.97302   -161.85437   0.40081129   -161.45355    -1970.664    4.2256152    4.2256152    4.2256152    -1970.664    4457.3654    -12787.99    2418.6322    994.50644    3126.0808    7002.2756    75.451842 
   96600    527.94692   -161.93047   0.47769747   -161.45277   -1634.7354    4.2236938    4.2236938    4.2236938   -1634.7354    3941.3964   -12792.973    3947.3709   -5215.8909   -5676.7357    5276.6876    75.348962 
   96700    458.92902   -161.86686   0.41524862   -161.45161   -4193.6796    4.2258821    4.2258821    4.2258821   -4193.6796    -14837.57   -8241.0649    10497.596   -2200.3279    1747.1134    2917.2465    75.466139 
   96800    443.89552   -161.85212     0.401646   -161.45047   -6777.1077    4.2288764    4.2288764    4.2288764   -6777.1077   -19835.459    -11551.22    11055.355   -209.66511    2122.4746      559.268    75.626668 
   96900    514.70184   -161.91666   0.46571304   -161.45095   -3303.4775    4.2273497    4.2273497    4.2273497   -3303.4775   -1150.1665   -8404.0448   -356.22122   -859.50806   -2186.0533     1673.068    75.544791 
   97000    591.58446   -161.98773   0.53527805   -161.45245    -3775.769    4.2239154    4.2239154    4.2239154    -3775.769    11263.484   -13312.799   -9277.9915   -802.47982    5277.8489    4489.5953    75.360823 
   97100    505.53338   -161.91041   0.45741722   -161.45299   -2063.9864    4.2236103    4.2236103    4.2236103   -2063.9864    7944.6165   -7021.0178   -7115.5579   -3561.1522    3779.6703   -833.42823    75.344492 
   97200    364.71547   -161.78312   0.33000222   -161.45312    -428.9777    4.2269567    4.2269567    4.2269567    -428.9777    5685.7571   -7591.7726    619.08244    -2138.014    894.93836    -1370.697    75.523726 
   97300    465.48321   -161.87425   0.42117899   -161.45308   -1431.9186    4.2274933    4.2274933    4.2274933   -1431.9186    3974.9063   -11705.524    3434.8617   -577.80197   -738.12149    1570.4342    75.552489 
   97400    563.13706   -161.96277   0.50953825   -161.45323   -92.554495    4.2263122    4.2263122    4.2263122   -92.554495    16538.351   -8014.1533   -8801.8607    1799.4656    -3152.922    1161.9165    75.489184 
   97500    478.47858   -161.88606   0.43293747   -161.45313    3886.2642    4.2240084    4.2240084    4.2240084    3886.2642     18366.59   -3260.8736   -3446.9239    1684.3787   -590.53384    1807.6496    75.365803 
   97600    414.15634   -161.82668   0.37473736   -161.45194   -1199.0129    4.2250117    4.2250117    4.2250117   -1199.0129   -1760.0811   -2574.0196    737.06209   -3457.2732   -6187.6259   -658.34115     75.41952 
   97700     404.9787   -161.81794   0.36643324    -161.4515   -3492.5128    4.2258476    4.2258476    4.2258476   -3492.5128   -1495.7834   -13502.555    4520.8006   -1082.6329    519.41441     320.9561    75.464288 
   97800    533.22051   -161.93445   0.48246913   -161.45198    -5076.202    4.2274687    4.2274687    4.2274687    -5076.202   -48.874935   -18042.726    2862.9946   -1536.7561    2160.2562   -1876.1801    75.551171 
   97900     518.1595   -161.92218    0.4688416   -161.45334   -3033.7267    4.2269395    4.2269395    4.2269395   -3033.7267    1371.9468   -5504.4741   -4968.6528   -1030.2291   -7090.1745   -4213.3917    75.522803 
   98000    388.53214   -161.80438   0.35155205   -161.45282    1527.8882    4.2240866    4.2240866    4.2240866    1527.8882   -5267.5754    9800.5954    50.644445    3150.5647    3858.0158   -2406.2763    75.369987 
   98100    419.96007   -161.83183    0.3799887   -161.45185   -2476.7916     4.223873     4.223873     4.223873   -2476.7916   -7009.4492    3438.5188   -3859.4442    683.23469    2910.4245   -3989.9735    75.358555 
   98200    491.51798   -161.89639   0.44473579   -161.45166   -3065.7956    4.2248094    4.2248094    4.2248094   -3065.7956    2757.9723   -6564.7268   -5390.6322   -604.10321   -471.79573   -3603.5135    75.408683 
   98300    518.18883   -161.92016   0.46886814   -161.45129   -9084.1656    4.2289883    4.2289883    4.2289883   -9084.1656   -6102.5102   -12773.677   -8376.3099    1741.8988    8229.6631   -2918.8599    75.632672 
   98400    407.56882   -161.82012   0.36877683   -161.45135   -2948.5655    4.2256167    4.2256167    4.2256167   -2948.5655    4232.8608    -2850.784   -10227.773    4287.6293    1781.9479   -1226.4255    75.451922 
   98500    344.47347   -161.76396   0.31168683   -161.45227    5361.8102    4.2236116    4.2236116    4.2236116    5361.8102    18210.333    6729.1579   -8854.0598    4053.2449    661.47084    -2903.341    75.344566 
   98600     438.8603   -161.85098   0.39709002   -161.45389    6128.0588    4.2229399    4.2229399    4.2229399    6128.0588    23770.545   -945.93101   -4440.4375    1729.0499   -1075.5642   -4226.3435    75.308623 
   98700    485.58775   -161.89407      0.43937    -161.4547   -3683.7154    4.2266621    4.2266621    4.2266621   -3683.7154    12209.157   -13743.596   -9516.7076    411.72115   -2998.8172   -1690.6279    75.507936 
   98800    368.44807   -161.78747   0.33337956   -161.45409   -1708.1768    4.2265865    4.2265865    4.2265865   -1708.1768    7370.7116   -8717.2821   -3777.9601   -2355.2043      369.738   -4420.5091    75.503885 
   98900    322.59977   -161.74459   0.29189505   -161.45269    2707.6904    4.2248515    4.2248515    4.2248515    2707.6904     13751.45    868.73556   -6497.1148   -1531.3262   -4721.7617    -5299.538    75.410937 
   99000    363.36885   -161.78114   0.32878377   -161.45235    7814.9082    4.2247186    4.2247186    4.2247186    7814.9082    23005.461    9238.2256   -8798.9617    547.41493    1318.1812   -3136.4098     75.40382 
   99100    457.71659   -161.86605   0.41415159    -161.4519    6418.6482    4.2255251    4.2255251    4.2255251    6418.6482    23323.969     1915.664   -5983.6884    -1341.034    2433.9353   -1610.1861    75.447014 
   99200    443.67091   -161.85317   0.40144277   -161.45172   -2092.3539    4.2270498    4.2270498    4.2270498   -2092.3539    15.874107   -4532.9833   -1759.9526    2345.5411   -4027.4271   -3103.5803    75.528712 
   99300    382.94335   -161.79896   0.34649519   -161.45247    -7020.817    4.2267472    4.2267472    4.2267472    -7020.817   -5636.1345   -8890.2145   -6536.1021    1632.2194    5215.5717   -3110.7791    75.512497 
   99400    497.32031   -161.90166   0.44998587   -161.45167   -11121.035    4.2285947    4.2285947    4.2285947   -11121.035   -3205.6121   -9356.3257   -20801.167   -1065.5786    3960.0787    1037.6213    75.611559 
   99500    549.43347   -161.94841   0.49713895   -161.45127   -4174.5828    4.2276329    4.2276329    4.2276329   -4174.5828    3122.3133   -4481.1049   -11164.957    7254.5027    3117.0392   -946.23716    75.559974 
   99600    552.15498   -161.95122   0.49960143   -161.45162   -8574.0992    4.2268979    4.2268979    4.2268979   -8574.0992   -13886.855   -8729.5598   -3105.8831    2358.3309    9326.0612   -4536.0984    75.520573 
   99700    422.14803    -161.8347   0.38196841   -161.45273   -3029.4752    4.2239967    4.2239967    4.2239967   -3029.4752   -19271.446   -6666.2909    16849.311    3414.7319    2699.1827   -2701.5249    75.365177 
   99800    490.65617   -161.89662   0.44395601   -161.45266   -5750.3826    4.2269957    4.2269957    4.2269957   -5750.3826   -12881.374   -11897.726    7527.9519    3366.8099   -39.588728   -2703.8229    75.525815 
   99900    538.70154   -161.94061   0.48742847   -161.45318   -3262.8234    4.2275193    4.2275193    4.2275193   -3262.8234    1362.1947   -6306.4585   -4844.2064   -2409.4656   -1584.2384   -4963.8198    75.553886 
  100000    521.45563   -161.92515   0.47182401   -161.45333   -5497.6383    4.2266393    4.2266393    4.2266393   -5497.6383   -7001.7797   -8129.0073   -1362.1279    1218.3025   -980.11533   -1944.6494    75.506712 
Loop time of 34.7291 on 1 procs for 100000 steps with 8 atoms

Pair  time (%) = 11.7031 (33.6984)
Kspce time (%) = 8.47502 (24.4032)
Neigh time (%) = 0 (0)
Comm  time (%) = 1.72391 (4.96388)
Outpt time (%) = 0.0534468 (0.153896)
Other time (%) = 12.7736 (36.7806)

Nlocal:    8 ave 8 max 8 min
Histogram: 1 0 0 0 0 0 0 0 0 0
Nghost:    2189 ave 2189 max 2189 min
Histogram: 1 0 0 0 0 0 0 0 0 0
Neighs:    2472 ave 2472 max 2472 min
Histogram: 1 0 0 0 0 0 0 0 0 0

Total # of neighbors = 2472
Ave neighs/atom = 309
Neighbor list builds = 0
Dangerous builds = 0
unfix 20
unfix 21
print "seeds:5928441"
seeds:5928441
