LAMMPS (10 Feb 2015)
# ---- initialize simulations
clear
units metal
dimension 3
boundary p p p
atom_style charge
atom_modify map array
# ---- create atoms
read_data /Users/eugeneragasa/pyflamestk_git/pypospack/tests/tests_integration/workflow/WorkflowLammpsThermalExpansion/param_5378/MgO_NaCl_unit.npt.T900/lammps.structure
  triclinic box = (0 0 0) to (4.2565 4.2565 4.2565) with tilt (0 0 0)
  1 by 1 by 1 MPI processor grid
  reading atoms ...
  8 atoms
# ---- define interatomic potential
include potential.mod
mass 1 24.305
mass 2 15.999

group Mg type 1
4 atoms in group Mg
group O type 2
4 atoms in group O

set group Mg charge 1.67557694923
  4 settings made for charge
set group O charge -1.67557694923
  4 settings made for charge

variable R_cut equal 10.0

pair_style buck/coul/long ${R_cut}
pair_style buck/coul/long 10
pair_coeff 1 1 0.0 0.5 0.0 ${R_cut}
pair_coeff 1 1 0.0 0.5 0.0 10
pair_coeff 1 2 1405.50211521 0.282257384366 0.0 ${R_cut}
pair_coeff 1 2 1405.50211521 0.282257384366 0.0 10
pair_coeff 2 2 19860.1058829 0.143671361936 6.84969713079 ${R_cut}
pair_coeff 2 2 19860.1058829 0.143671361936 6.84969713079 10

kspace_style pppm 1.0e-5

neighbor 1.0 bin
neigh_modify every 1 delay 0 check yes
# ---- define settings
compute eng all pe/atom
compute eatoms all reduce sum c_eng
# ---- run minimization
reset_timestep 0
fix 1 all box/relax iso 0.0 vmax 0.001
thermo 10
thermo_style custom step pe lx ly lz xy xz yz press pxx pyy pzz pxy pxz pyz c_eatoms
min_style cg
minimize 1e-25 1e-25 5000 10000
PPPM initialization ...
  G vector (1/distance) = 0.352969
  grid = 8 8 8
  stencil order = 5
  estimated absolute RMS force accuracy = 4.01483e-05
  estimated relative force accuracy = 2.78815e-06
  using double precision FFTs
  3d grid and FFT values/proc = 3375 512
Neighbor list info ...
  1 neighbor list requests
  update every 1 steps, delay 0 steps, check yes
  master list distance cutoff = 11
Memory usage per processor = 4.06549 Mbytes
Step PotEng Lx Ly Lz Xy Xz Yz Press Pxx Pyy Pzz Pxy Pxz Pyz eatoms 
       0   -115.02334       4.2565       4.2565       4.2565            0            0            0    14836.064    14836.064    14836.064    14836.064 5.7083842e-11 -5.8546636e-11 3.613515e-11   -115.02334 
       4   -115.02629     4.268627     4.268627     4.268627            0            0            0   -3.7663252   -3.7663252   -3.7663252   -3.7663252 5.5364648e-11 -5.1262271e-11 1.3911233e-11   -115.02629 
Loop time of 0.00760984 on 1 procs for 4 steps with 8 atoms

Minimization stats:
  Stopping criterion = linesearch alpha is zero
  Energy initial, next-to-last, final = 
        -115.023341276       -115.0262927       -115.0262927
  Force two-norm initial, final = 2.14234 0.00179672
  Force max component initial, final = 2.14234 0.000546963
  Final line search alpha, max atom move = 0.00390625 2.13657e-06
  Iterations, force evaluations = 4 21

Pair  time (%) = 0.00208306 (27.3733)
Kspce time (%) = 0.00128436 (16.8776)
Neigh time (%) = 0 (0)
Comm  time (%) = 0.000231504 (3.04217)
Outpt time (%) = 0 (0)
Other time (%) = 0.00401092 (52.7069)

Nlocal:    8 ave 8 max 8 min
Histogram: 1 0 0 0 0 0 0 0 0 0
Nghost:    2189 ave 2189 max 2189 min
Histogram: 1 0 0 0 0 0 0 0 0 0
Neighs:    2344 ave 2344 max 2344 min
Histogram: 1 0 0 0 0 0 0 0 0 0

Total # of neighbors = 2344
Ave neighs/atom = 293
Neighbor list builds = 0
Dangerous builds = 0
unfix 1
# ---- define output variables ----
variable natoms equal "count(all)"
variable tot_energy equal "c_eatoms"
variable length_x equal "lx"
variable length_y equal "ly"
variable length_z equal "lz"
variable tilt_xy equal "xy"
variable tilt_xz equal "xz"
variable tilt_yz equal "yz"
variable tot_press equal "press"
variable press_xx equal "pxx"
variable press_yy equal "pyy"
variable press_zz equal "pzz"
variable press_xy equal "pxy"
variable press_xz equal "pxz"
variable press_yz equal "pyz"

# ---- output ----
print "pypospack:output_section:begin"
pypospack:output_section:begin
print "tot_energy = ${tot_energy}"
tot_energy = -115.026292700229
print "num_atoms = ${natoms}"
num_atoms = 8
print "xx = ${length_x}"
xx = 4.26862697136346
print "yy = ${length_y}"
yy = 4.26862697136346
print "zz = ${length_z}"
zz = 4.26862697136346
print "xy = ${tilt_xy}"
xy = 0
print "xz = ${tilt_xz}"
xz = 0
print "yz = ${tilt_yz}"
yz = 0
print "tot_press = ${tot_press}"
tot_press = -3.7663252179344
print "pxx = ${press_xx}"
pxx = -3.76632521787482
print "pyy = ${press_yy}"
pyy = -3.76632521789834
print "pzz = ${press_zz}"
pzz = -3.76632521803003
print "pxy = ${press_xy}"
pxy = 5.53646482695888e-11
print "pxz = ${press_xz}"
pxz = -5.12622707696674e-11
print "pyz = ${press_yz}"
pyz = 1.39112332535826e-11
print "pypospack:output_section:done"
pypospack:output_section:done
print "pypospack:lammps_sim:done"
pypospack:lammps_sim:done
#------------------------------------------------------------------------------
# RUN THERMOSTAT
# running using an NPT Nose-Hoover style thermostat
#------------------------------------------------------------------------------
variable tempdamp equal 0.1
variable pressdamp equal 1.0
# set initial velocities
velocity all create 900 2937064 mom yes dist gaussian loop all
# fix for Nose-Hoover style thermostat
fix 20 all npt temp 900 900 0.1 aniso 0.0 0.0 1.0 drag 1.0 couple xyz
variable boxx equal lx
variable boxy equal ly
variable boxz equal lz
variable boxp equal press
variable boxt equal temp
# calculate averages every 10000 steps
reset_timestep 0
fix 21 all ave/time 10 10 100 v_boxx v_boxy v_boxz v_boxp v_boxt file lattice.out
thermo_style custom step temp pe ke etotal press lx ly lz press pxx pyy pzz pxy pxz pyz vol
thermo_modify flush yes
thermo 100
run 100000
PPPM initialization ...
  G vector (1/distance) = 0.352845
  grid = 8 8 8
  stencil order = 5
  estimated absolute RMS force accuracy = 4.03767e-05
  estimated relative force accuracy = 2.80401e-06
  using double precision FFTs
  3d grid and FFT values/proc = 3375 512
Memory usage per processor = 3.06549 Mbytes
Step Temp PotEng KinEng TotEng Press Lx Ly Lz Press Pxx Pyy Pzz Pxy Pxz Pyz Volume 
       0          900    -115.0263   0.81433891   -114.21196    11178.807     4.268627     4.268627     4.268627    11178.807     5398.308    10829.783     17308.33   -3316.8386    6129.7818   -6329.6844    77.779404 
     100    493.77353     -114.548   0.44677666   -114.10122     8688.638    4.2890949    4.2890949    4.2890949     8688.638    758.82349    16890.781    8416.3094    4251.1168   -286.11933    8034.0089    78.903627 
     200    587.70459   -114.41021   0.53176746   -113.87844   -14044.138    4.3058111    4.3058111    4.3058111   -14044.138   -17074.234   -26029.146    970.96404   -2343.4518   -10168.792    15986.066    79.829776 
     300    1046.7802   -114.63049   0.94714872   -113.68334    14718.377    4.2848977    4.2848977    4.2848977    14718.377   -5647.5875    16734.253    33068.465   -920.63466   -4960.3371   -9980.6995    78.672215 
     400     938.3816   -114.39285   0.84906739   -113.54378    20357.283    4.2898925    4.2898925    4.2898925    20357.283     18297.89    29065.261    13708.697   -3442.7928    -187.8635    4015.9863    78.947655 
     500    860.93503   -114.22254   0.77899211   -113.44355   -42826.071     4.318608     4.318608     4.318608   -42826.071   -26212.906   -40723.165   -61542.141   -3829.5827   -3544.5717    28140.622    80.543661 
     600    859.92325   -114.16269   0.77807663   -113.38461    9930.3896    4.2933799    4.2933799    4.2933799    9930.3896   -1709.5286    38358.017   -6857.3193    1100.1086    510.08325    1518.7472    79.140347 
     700     1049.078   -114.31935   0.94922782   -113.37012     20170.79    4.2902136    4.2902136    4.2902136     20170.79    8262.1983    16990.556    35259.617   -696.43653    3024.9042    1258.5071    78.965383 
     800    794.83547   -114.09981   0.71918384   -113.38062   -18095.935    4.3104394    4.3104394    4.3104394   -18095.935   -17530.541   -25031.735   -11725.528   -2455.1408   -912.49916    12261.357     80.08748 
     900    467.03388   -113.80461   0.42258207   -113.38203    7191.3188    4.2998191    4.2998191    4.2998191    7191.3188   -20412.948     30148.74    11838.164   -7511.2937   -6888.4544    17725.322    79.496964 
    1000    1077.0041   -114.35609   0.97449591    -113.3816   -6875.2498    4.2943476    4.2943476    4.2943476   -6875.2498   -7143.9477     3289.704   -16771.506     -644.095    4438.8054   -15507.635    79.193872 
    1100     908.0692   -114.21348    0.8216401   -113.39184   -18511.011    4.3068829    4.3068829    4.3068829   -18511.011    -14506.74   -6805.6381   -34220.656   -1166.0915    2575.8555    7697.5902    79.889408 
    1200    517.97389   -113.86373   0.46867366   -113.39505   -9612.6647    4.3048896    4.3048896    4.3048896   -9612.6647   -19477.659    18739.021   -28099.357    -4483.697   -8513.2418    18525.073    79.778532 
    1300    789.15223   -114.10465   0.71404152    -113.3906   -4090.4457    4.2913643    4.2913643    4.2913643   -4090.4457   -11372.343   -3702.2147    2803.2204    4668.6234   -2332.7895   -1448.9772    79.028937 
    1400    807.97739   -114.12837   0.73107492    -113.3973   -6886.2195    4.3014067    4.3014067    4.3014067   -6886.2195   -14922.874   -6864.9251    1129.1404   -2013.2436    6139.2217   -9680.9775    79.585057 
    1500    637.19645   -113.97043   0.57654874   -113.39388    687.24444    4.3096084    4.3096084    4.3096084    687.24444   -16214.879    28705.787   -10429.174   -5107.9129    3720.0913    14563.144    80.041168 
    1600    983.35778   -114.27751   0.88976278   -113.38775   -13005.126    4.2966476    4.2966476    4.2966476   -13005.126   -17595.987   -4263.9432   -17155.447    -1297.553    1749.3487    2159.2261    79.321188 
    1700    947.23087   -114.24412    0.8570744   -113.38705    9799.9927     4.288703     4.288703     4.288703    9799.9927   -4317.2324    32768.259    948.95189    6437.5045    2611.5778   -11202.007    78.881998 
    1800    982.19648   -114.27986   0.88871202   -113.39115    -6444.969    4.3127786    4.3127786    4.3127786    -6444.969    -29063.14    25597.739   -15869.506   -2626.7605   -443.56746    7229.6605    80.217937 
    1900    1139.7482   -114.42147    1.0312681    -113.3902   -10075.306    4.3019519    4.3019519    4.3019519   -10075.306   -17345.211   -12759.512   -121.19616     4885.067   -8435.3833    9387.4931    79.615323 
    2000    848.08692    -114.1529   0.76736687   -113.38554    34553.794    4.2749219    4.2749219    4.2749219    34553.794    7991.7263    59172.398    36497.258   -5648.5315    1962.7746   -5200.2919    78.124017 
    2100    906.13202   -114.22073   0.81988729   -113.40084   -19107.961    4.3120634    4.3120634    4.3120634   -19107.961   -30302.333   -4193.3284   -22828.222   -3293.3331    9043.7277   -24807.493    80.178035 
    2200    1352.6855   -114.61547    1.2239383   -113.39153   -14776.749    4.3008785    4.3008785    4.3008785   -14776.749   -23394.465   -21518.673    582.89232   -1124.2897   -2406.2513     8047.904    79.555742 
    2300    900.09053   -114.20506   0.81442083   -113.39064    14295.763    4.2872703    4.2872703    4.2872703    14295.763   -6024.9931    52923.821   -4011.5404    1324.5552    -5599.487    1988.4655     78.80297 
    2400    865.12779   -114.17742   0.78278581   -113.39463   -15574.311    4.3042669    4.3042669    4.3042669   -15574.311   -16238.394   -4031.4846   -26453.054   -1141.8163    3519.1917   -9900.0946    79.743922 
    2500    1061.3598   -114.35102   0.96034067   -113.39068   -2784.1416    4.3029371    4.3029371    4.3029371   -2784.1416   -16400.758   -15015.213    23063.545    3394.7107    1949.6109   -15713.198    79.670034 
    2600    966.27239   -114.26327   0.87430356   -113.38897    12549.936    4.2939771    4.2939771    4.2939771    12549.936   -11950.993    29173.287    20427.515   -8259.5528    -965.1202     7569.061    79.173375 
    2700    764.18326   -114.08475   0.69144907    -113.3933   -2825.1553    4.2977487    4.2977487    4.2977487   -2825.1553   -11027.578    1474.0723    1078.0398   -746.20859    3232.3784   -8225.4257    79.382188 
    2800    767.66098   -114.08411   0.69459578   -113.38951   -31756.569    4.3153054    4.3153054    4.3153054   -31756.569   -26539.836   -32354.621   -36375.252   -984.35551    3540.2872   -14934.915    80.359015 
    2900    881.79586   -114.17961   0.79786742   -113.38174     12341.38    4.2929412    4.2929412    4.2929412     12341.38   -13019.638    35315.577      14728.2   -12634.587   -1163.7638    9971.6553    79.116091 
    3000    913.03155    -114.2094   0.82613013   -113.38327    10892.931    4.2880126    4.2880126    4.2880126    10892.931   -2049.5158   -864.82338    35593.131   -548.82663    1942.1359   -7917.1905    78.843913 
    3100    237.71833   -113.60769   0.21509254    -113.3926   -26988.355    4.3203041    4.3203041    4.3203041   -26988.355   -40930.256   -1089.0089   -38945.801   -7562.4064    12847.526   -13502.571    80.638594 
    3200     866.9529   -114.16467   0.78443721   -113.38024   -7469.2542     4.292103     4.292103     4.292103   -7469.2542   -23522.626   -1988.0061    3102.8699   -4821.9514   -3163.3031    -13705.96     79.06976 
    3300    873.79066   -114.17127   0.79062415   -113.38064    29920.035    4.2882986    4.2882986    4.2882986    29920.035   -1120.3395    70072.918    20807.526   -3127.5592   -2565.5242    6216.4184    78.859687 
    3400     898.6076   -114.19569   0.81307904   -113.38261   -29937.451    4.3171152    4.3171152    4.3171152   -29937.451   -25940.037   -30922.485   -32949.832    5194.8629    9501.2189   -6687.0026    80.460163 
    3500    660.44656   -113.98022   0.59758593   -113.38263    15840.185     4.291253     4.291253     4.291253    15840.185   -13626.851    21082.389    40065.016   -3631.4609   -5577.7574   -7162.0624     79.02279 
    3600    1180.2093   -114.45391    1.0678782   -113.38604    5399.3179     4.293753     4.293753     4.293753    5399.3179    -17645.31    27059.343    6783.9213   -8011.8324   -1376.2211    168.98604    79.160984 
    3700    1009.0583   -114.29791   0.91301717   -113.38489    13234.766    4.3058119    4.3058119    4.3058119    13234.766   -15644.932    23846.067    31503.164    3078.4085    4779.4208   -14624.783    79.829822 
    3800    1036.1593   -114.32465   0.93753874   -113.38712   -6151.3956    4.3020115    4.3020115    4.3020115   -6151.3956   -19699.044    15207.532   -13962.675    1063.5365    -6032.288   -10045.414    79.618631 
    3900    897.73093   -114.20165   0.81228581   -113.38936   -12315.755    4.2996897    4.2996897    4.2996897   -12315.755   -20928.138   -545.91277   -15473.213   -3498.9435   -7251.7861    2121.3322    79.489789 
    4000    1404.0126     -114.653    1.2703801   -113.38262    3892.1591    4.2888169    4.2888169    4.2888169    3892.1591   -5555.5569    13275.085    3956.9494   -2303.8891   -866.43786    7095.7556    78.888286 
    4100    887.18845     -114.194   0.80274676   -113.39125    236.57969    4.3107446    4.3107446    4.3107446    236.57969   -17545.443    44534.743   -26279.561    7282.8562    9581.4249   -10557.886    80.104493 
    4200    833.72326   -114.14398   0.75437032   -113.38961   -13185.438    4.3015475    4.3015475    4.3015475   -13185.438   -6067.7373    6938.4771   -40427.053   -4370.1176   -7860.9886   -11007.507    79.592873 
    4300    722.46961   -114.03351   0.65370568    -113.3798    33789.774    4.2811404    4.2811404    4.2811404    33789.774    26083.873    49228.726    26056.723    -12757.17   -9193.7542     10522.81     78.46544 
    4400    999.73968    -114.2937   0.90458547   -113.38911   -15840.047    4.3099891    4.3099891    4.3099891   -15840.047     73.51585    -8046.879   -39546.778    2940.3709    8557.1405    -2416.688    80.062384 
    4500    712.74073   -114.03413   0.64490279   -113.38923    3344.0758    4.2991381    4.2991381    4.2991381    3344.0758    11589.552    9417.2235   -10974.548    6807.2339   -7874.7985   -5986.3374    79.459198 
    4600    550.04528   -113.88584   0.49769253   -113.38815    4740.3304    4.2985834    4.2985834    4.2985834    4740.3304   -6480.4311    27207.077   -6505.6546    1400.2147   -8856.6882   -1164.2835    79.428449 
    4700    880.02253   -114.17944   0.79626288   -113.38318   -6505.7669    4.3004748    4.3004748    4.3004748   -6505.7669    13056.396   -8069.8359   -24503.861   -4232.7379    5077.2977    16711.297    79.533337 
    4800     786.8405   -114.09528   0.71194982   -113.38333    21328.632    4.2865087    4.2865087    4.2865087    21328.632    786.75509    61073.441    2125.6992    6529.6496   -143.84561   -13257.953    78.760984 
    4900    810.14195   -114.12532   0.73303346   -113.39229     -32300.7     4.310786     4.310786     4.310786     -32300.7   -38674.118   -15521.474   -42706.509   -2676.9949   -13108.456   -5557.8057    80.106801 
    5000     994.9877   -114.28514   0.90028578   -113.38485    901.62978    4.2946602    4.2946602    4.2946602    901.62978    514.22726    18972.108   -16781.446   -9102.3859   -4152.5663     2784.332    79.211169 
    5100    950.90675   -114.24262   0.86040041   -113.38222    27980.304    4.2874013    4.2874013    4.2874013    27980.304    21015.998    56413.347     6511.566    2625.3323    4445.2559    1335.8323    78.810198 
    5200    1007.6954   -114.29403     0.911784   -113.38225   -35492.252    4.3150983    4.3150983    4.3150983   -35492.252   -33929.554   -28705.149   -43842.052    2029.9946   -9234.2226   -10691.474    80.347445 
    5300    903.42182   -114.19694   0.81743505    -113.3795     7199.065    4.2900159    4.2900159    4.2900159     7199.065    14590.336    24455.981   -17449.122    4815.8921   -2149.5033    -3354.401    78.954465 
    5400    1090.8357   -114.36988   0.98701104   -113.38287    16590.758    4.2847075    4.2847075    4.2847075    16590.758    33276.837    15723.702    771.73616   -5984.1511    3231.7207    19120.673    78.661738 
    5500      1014.73   -114.30811   0.91814903   -113.38996   -24409.011     4.310138     4.310138     4.310138   -24409.011   -611.71873   -25837.338   -46777.975    6478.0583   -5600.2749   -14053.085    80.070683 
    5600    609.71379   -113.94171   0.55168185   -113.39003     3614.434    4.3033978    4.3033978    4.3033978     3614.434    2477.3658    43553.671   -35187.735    61.440242   -9318.8273   -9265.5093    79.695627 
    5700     1185.034   -114.45616    1.0722437   -113.38391    13053.724    4.2863765    4.2863765    4.2863765    13053.724    23101.526     18365.44   -2305.7922    -11629.63   -1267.4257    2687.7815    78.753694 
    5800    807.06447    -114.1218   0.73024889   -113.39155    12268.967    4.2967249    4.2967249    4.2967249    12268.967    32542.359    39042.552   -34778.008    3754.4718    7038.3683    3089.0848    79.325467 
    5900    534.98403    -113.8763    0.4840648   -113.39224   -29011.145     4.311148     4.311148     4.311148   -29011.145    -23140.73   -2213.0742   -61679.631    5858.6573    -18481.97   -18863.126    80.126986 
    6000    903.34668   -114.20173   0.81736706   -113.38436    7653.9274    4.2856106    4.2856106    4.2856106    7653.9274    3156.2512    25423.534   -5618.0029    12547.066   -1455.0574   -1038.4433    78.711487 
    6100     1082.235   -114.36608   0.97922896   -113.38685    3169.7757    4.2941735    4.2941735    4.2941735    3169.7757    13487.162    20720.295   -24698.131   -8999.3784    4465.2558    5164.3299    79.184243 
    6200    436.90201   -113.78986   0.39531812   -113.39454   -19579.512    4.3094688    4.3094688    4.3094688   -19579.512   -32315.128    22176.537   -48599.944   -2260.9992   -14070.584   -12083.598     80.03339 
    6300    840.42719   -114.15145   0.76043618   -113.39101    903.64058    4.2853877    4.2853877    4.2853877    903.64058    11883.598    12960.974    -22133.65    3592.6412   -7011.0521   -16749.645    78.699206 
    6400     1203.887   -114.48171    1.0893022   -113.39241    10897.516    4.2957172    4.2957172    4.2957172    10897.516    2188.6851    37936.654   -7432.7907    3771.5909   -437.70317     7303.248    79.269667 
    6500    827.45947   -114.14031   0.74870272   -113.39161   -6734.9891    4.3101787    4.3101787    4.3101787   -6734.9891   -4464.6449    3985.8817   -19726.204   -2075.3628   -4468.0799   -975.46113    80.072952 
    6600    888.26458   -114.18991   0.80372046   -113.38619   -596.72348    4.2889428    4.2889428    4.2889428   -596.72348       1325.3    18749.507   -21864.977    5216.9085   -14303.353   -15721.375    78.895232 
    6700    1006.1799   -114.29906   0.91041268   -113.38865    12615.568     4.298236     4.298236     4.298236    12615.568     7969.852    27868.328    2008.5248    12458.089    5699.8338     3648.647    79.409193 
    6800    1318.6664   -114.57662    1.1931571   -113.38346    165.26331    4.3010899    4.3010899    4.3010899    165.26331    -13100.43    17173.103   -3576.8829    1468.1483   -6132.5238   -5587.5715    79.567469 
    6900     913.1621   -114.21362   0.82624826   -113.38737   -9106.1597    4.2968043    4.2968043    4.2968043   -9106.1597   -1813.9982    5358.9242   -30863.405     -340.599   -20051.964   -5787.0308    79.329868 
    7000    808.08861   -114.12216   0.73117556   -113.39098    -10866.11    4.2976386    4.2976386    4.2976386    -10866.11   -15205.639   -20776.547    3383.8552    14787.357    2299.3164   -17037.345    79.376083 
    7100    1354.9695   -114.61208    1.2260049   -113.38608    -2050.475    4.2964411    4.2964411    4.2964411    -2050.475   -12873.205    16117.855   -9396.0754    3376.8753    4273.9756     4401.499    79.309752 
    7200    842.83207   -114.15079   0.76261217   -113.38818   -15282.711    4.3101372    4.3101372    4.3101372   -15282.711   -11034.395    9378.4856   -44192.223    667.63494    -6231.708   -12106.075    80.070636 
    7300    747.76757   -114.06344   0.67659581   -113.38685    7048.0459    4.2860998    4.2860998    4.2860998    7048.0459    16379.368   -3682.8991     8447.669    15577.597   -10929.364   -2054.2305    78.738447 
    7400    819.53427   -114.14021   0.74153183   -113.39868     11358.23    4.2946989    4.2946989    4.2946989     11358.23    38306.652   -2451.9246   -1780.0356    12030.556   -4404.6153   -747.16977    79.213311 
    7500    978.08917   -114.27078   0.88499563   -113.38578   -21146.594    4.3153902    4.3153902    4.3153902   -21146.594   -9713.5179    -8200.779   -45525.484   -2821.1189   -8334.0329   -65.072559    80.363753 
    7600     769.2383   -114.07517   0.69602298   -113.37915    17688.624    4.2843267    4.2843267    4.2843267    17688.624    17892.313    26803.009    8370.5514   -1414.2579   -1971.8296    -8749.986    78.640767 
    7700    789.95615   -114.10504   0.71476892   -113.39027   -11700.808    4.3021084    4.3021084    4.3021084   -11700.808    6366.5832   -25334.053   -16134.955    15879.805    4833.9056    4324.0092    79.624009 
    7800    958.42068   -114.25025   0.86719918   -113.38305   -20354.566    4.3072982    4.3072982    4.3072982   -20354.566    -7384.971   -26192.835   -27485.891    3522.6689    2152.7925    11576.393    79.912517 
    7900    821.93907   -114.11735   0.74370774   -113.37365    33504.996    4.2778418    4.2778418    4.2778418    33504.996    57446.471    36712.495    6356.0216    2025.8899   -9546.4115   -10514.003    78.284208 
    8000    677.95081   -114.00285   0.61342414   -113.38942   -28595.712    4.3141496    4.3141496    4.3141496   -28595.712   -17380.581   -38885.126   -29521.428    27765.153   -6929.2272    3444.7279    80.294466 
    8100    902.76348   -114.19746   0.81683936   -113.38062   -7464.0609    4.3005166    4.3005166    4.3005166   -7464.0609   -6973.3075   -18211.008    2792.1325    8447.6172    2489.9276    4203.6858     79.53566 
    8200    1017.6942   -114.29073    0.9208311   -113.36989    29416.501    4.2760663    4.2760663    4.2760663    29416.501    38922.221    29967.482    19359.802   -13555.926   -1873.2385    1029.0162    78.186775 
    8300    582.57947   -113.91495   0.52713015   -113.38782   -24619.296    4.3155087    4.3155087    4.3155087   -24619.296   -21589.269   -41353.444   -10915.175    19333.153   -3183.9731    3066.8947    80.370374 
    8400    866.00934   -114.16154   0.78358345   -113.37795    1205.0559    4.3005319    4.3005319    4.3005319    1205.0559    9491.5395   -14196.577    8320.2057    13644.435    4358.1819    -2538.712    79.536508 
    8500    1136.6237    -114.3964     1.028441   -113.36796    23278.458    4.2870164    4.2870164    4.2870164    23278.458    21717.305    23800.864    24317.205     -9044.57   -2961.8612    6782.2284    78.788975 
    8600    844.01939   -114.14317   0.76368649   -113.37948    -21168.68    4.3045241    4.3045241    4.3045241    -21168.68   -37833.137   -24608.235   -1064.6683    13515.954   -13253.803   -2998.8246    79.758216 
    8700    826.25692   -114.12976   0.74761463   -113.38215    1719.2303      4.29672      4.29672      4.29672    1719.2303    22500.861   -20917.216    3574.0465    28578.586   -8459.5229     2192.161    79.325196 
    8800    1211.7471   -114.48103    1.0964142   -113.38462    8290.3969    4.2986445    4.2986445    4.2986445    8290.3969    10452.062   -8553.9381    22973.067   -2047.8453    4463.7575     5640.452    79.431836 
    8900    1073.2866   -114.35768   0.97113229   -113.38655    27501.727    4.2862629    4.2862629    4.2862629    27501.727    66207.694    4237.4321    12060.054    647.29166    3984.6861   -3626.3805    78.747436 
    9000    658.65886   -113.99485   0.59596838   -113.39888     -14655.4    4.3023409    4.3023409    4.3023409     -14655.4   -38396.331   -27601.272    22031.403    23070.464    430.02494    5364.2133     79.63692 
    9100    953.73938   -114.25153   0.86296343   -113.38857   -14975.815    4.3028542    4.3028542    4.3028542   -14975.815   -12807.547   -20255.399   -11864.499    5262.8608   -1329.5359    3423.2357    79.665427 
    9200    1222.8478   -114.48794    1.1064584   -113.38148    25980.078    4.2839873    4.2839873    4.2839873    25980.078    53575.349    12704.037    11660.849   -5491.7863   -5831.4813   -420.56603    78.622077 
    9300    970.72875   -114.27082   0.87833577   -113.39249   -5592.8735    4.3002658    4.3002658    4.3002658   -5592.8735   -9916.7691   -20572.858    13711.007    29325.306     3759.979    3044.3168    79.521745 
    9400     882.4032   -114.18826   0.79841696   -113.38985   -599.44679    4.2998068    4.2998068    4.2998068   -599.44679    42677.691   -18775.356   -25700.675    5389.4883    1880.7329    4273.0973    79.496281 
    9500    1107.6245   -114.38645    1.0022019   -113.38425    3589.2815    4.2944461    4.2944461    4.2944461    3589.2815    9767.9527    -169.7029    1169.5945   -5300.2189    1298.1845    3597.6448    79.199325 
    9600    1000.5018   -114.28959   0.90527504   -113.38431    9173.3359    4.2920053    4.2920053    4.2920053    9173.3359    31009.443   -7078.5411    3589.1061    8130.1307    310.66231   -2842.5811    79.064356 
    9700    892.65699   -114.19533   0.80769481   -113.38763   -26167.513    4.3050848    4.3050848    4.3050848   -26167.513   -29479.034   -30200.593   -18822.912    15745.962   -10752.832    3464.9161    79.789389 
    9800    636.19492   -113.96512   0.57564253   -113.38947   -9277.8643    4.2917776    4.2917776    4.2917776   -9277.8643   -8580.3593    3270.3242   -22523.558   -3292.6486    -2902.843    13947.107    79.051775 
    9900    919.91075   -114.22128   0.83235458   -113.38892    4862.0184    4.2857498    4.2857498    4.2857498    4862.0184    20208.319    2390.9821   -8013.2456   -6106.8837    6811.6078   -3595.6535    78.719159 
   10000    715.19844   -114.03254   0.64712658   -113.38541   -29109.384    4.3140233    4.3140233    4.3140233   -29109.384   -29823.043   -44354.004   -13151.104    15823.439   -2345.5294     3259.704    80.287413 
   10100    803.27003   -114.10945   0.72681561   -113.38263   -1298.9152    4.2807281    4.2807281    4.2807281   -1298.9152     2553.099    7642.1274   -14091.972    2391.8118    -9547.761    13553.218    78.442774 
   10200    542.97552   -113.88859   0.49129566   -113.39729     12550.33    4.2879296    4.2879296    4.2879296     12550.33    28723.172    7564.6048    1363.2143   -9627.4851    3305.3748   -1400.6586    78.839331 
   10300    872.50279   -114.17558   0.78945886   -113.38612   -28942.365    4.3122068    4.3122068    4.3122068   -28942.365   -36643.703   -35851.281    -14332.11   -10132.141    12692.818    4337.8226    80.186038 
   10400    930.31007   -114.21812    0.8417641   -113.37635    22684.906    4.2796601    4.2796601    4.2796601    22684.906    32997.068     260.4804    34797.169    8499.3048   -15961.799    1437.2255    78.384077 
   10500    724.13733   -114.04549   0.65521467   -113.39027   -26717.826     4.303002     4.303002     4.303002   -26717.826   -27905.365   -24769.825   -27478.287   -8966.8419   -6888.1463    5951.4531     79.67364 
   10600    835.94623   -114.14444   0.75638172   -113.38806   -6893.3552    4.2953562    4.2953562    4.2953562   -6893.3552   -30173.195   -2507.6337    12000.763   -7918.7917     6484.054    1613.1438    79.249687 
   10700    1124.6911   -114.40328    1.0176441   -113.38564    15201.454    4.2865068    4.2865068    4.2865068    15201.454    41989.823   -8223.3215     11837.86   -9305.8816    4050.5339    5193.1712     78.76088 
   10800    936.44087   -114.23723   0.84731138   -113.38992   -16429.995    4.3052152    4.3052152    4.3052152   -16429.995   -8244.7472   -17970.195   -23075.043     1921.118   -27254.962    9263.6262     79.79664 
   10900    858.86577   -114.16324    0.7771198   -113.38612    20529.023    4.2830741    4.2830741    4.2830741    20529.023    42320.067    4224.7352    15042.266   -14459.799    4445.0708   -4832.8993    78.571811 
   11000    1138.1735   -114.42113    1.0298433   -113.39129   -9800.1984    4.3041485    4.3041485    4.3041485   -9800.1984   -12019.632   -7375.4392   -10005.524   -9467.7048    14553.247    1609.5952    79.737337 
   11100    1098.1493   -114.38139   0.99362859   -113.38776    1243.9969    4.2956297    4.2956297    4.2956297    1243.9969    20697.337   -1958.5079   -15006.838    14482.462   -3819.9631    4267.8605    79.264825 
   11200    916.51501   -114.21532   0.82928204   -113.38604    17626.396    4.2803241    4.2803241    4.2803241    17626.396    3882.6034     11333.85    37662.735    -8963.405   -19928.773    6613.2101    78.420565 
   11300    968.58861   -114.26368   0.87639933   -113.38728   -23803.366    4.3120665    4.3120665    4.3120665   -23803.366   -36263.633   -25356.185   -9790.2806   -10173.426     6982.323    -4923.434    80.178208 
   11400    1121.3392   -114.39582    1.0146113   -113.38121    19808.348    4.2863012    4.2863012    4.2863012    19808.348     30046.98    7108.4216    22269.644    5316.9035     10851.85    9866.1722    78.749545 
   11500    785.07062   -114.09806   0.71034839   -113.38771     8956.268    4.2906685    4.2906685    4.2906685     8956.268    4393.8389   -10834.808    33309.773    4703.4721   -11575.231    4582.3777    78.990503 
   11600    1062.1301   -114.34414   0.96103764    -113.3831   -21828.781    4.3058897    4.3058897    4.3058897   -21828.781   -33832.561   -14098.381   -17555.402   -9878.0063   -9743.6865    188.25983    79.834147 
   11700    961.03657   -114.25065   0.86956608   -113.38109    24259.829    4.2878212    4.2878212    4.2878212    24259.829    51361.603   -5419.9252     26837.81   -3450.4428    8975.4466   -743.99467    78.833355 
   11800    662.84612   -113.99283    0.5997571   -113.39307   -21587.967    4.2975193    4.2975193    4.2975193   -21587.967   -16710.889   -36909.945   -11143.067    16105.187    -761.3595     9435.163    79.369473 
   11900    687.09102   -114.01435   0.62169439   -113.39265    4419.9763    4.2867853    4.2867853    4.2867853    4419.9763    15955.991   -6327.9789    3631.9166   -1405.1307   -15642.058    2508.2646    78.776229 
   12000    918.00093   -114.22355   0.83062654   -113.39292   -5467.2657    4.3014585    4.3014585    4.3014585   -5467.2657   -7067.3347   -14794.338    5459.8755   -1460.1225   -5112.2748   -6083.8414    79.587931 
   12100    715.18296   -114.04379   0.64711257   -113.39668   -20822.918    4.2972822    4.2972822    4.2972822   -20822.918   -15416.911   -38930.945   -8120.8966    18956.708    10206.647    14591.665    79.356339 
   12200    437.79214   -113.78854   0.39612353   -113.39241    25641.882    4.2775254    4.2775254    4.2775254    25641.882     30422.03   -4572.2641     51075.88    9574.0164   -3771.3086    5850.1544     78.26684 
   12300    949.16773   -114.24778   0.85882691   -113.38895    -18494.84    4.3093629    4.3093629    4.3093629    -18494.84   -2386.4147       -25146   -27952.105   -7481.9435   -10281.246   -627.16074     80.02749 
   12400    812.49061   -114.12462   0.73515858   -113.38946    11795.694    4.2878392    4.2878392    4.2878392    11795.694    35102.881   -8438.4609    8722.6611     8866.722   -1948.4767    5112.7241    78.834345 
   12500    638.65435   -113.96908   0.57786788   -113.39121    8409.3122     4.281729     4.281729     4.281729    8409.3122    3586.1086   -10446.371    32088.199    15062.169   -488.05471    6400.4413    78.497807 
   12600    649.49715   -113.97598   0.58767867    -113.3883   -20109.705    4.3080992    4.3080992    4.3080992   -20109.705   -405.09348    -26344.44   -33579.581    831.48512   -6826.4301   -6136.1797    79.957111 
   12700    944.68211   -114.23775   0.85476823   -113.38298      -1196.7     4.286565     4.286565     4.286565      -1196.7   -1752.6932    5764.4217   -7601.8285   -1192.6382    3216.5479   -2563.0241    78.764089 
   12800    545.14489   -113.88622   0.49325855   -113.39296    -1557.098    4.2909532    4.2909532    4.2909532    -1557.098    17235.896   -18799.321   -3107.8684    17374.557    3960.1251    8594.9156    79.006231 
   12900     942.1483   -114.24265   0.85247558   -113.39018   -15975.786    4.2979443    4.2979443    4.2979443   -15975.786   -21231.943   -14977.758   -11717.657    11028.552   -7062.0258   -1523.6184    79.393022 
   13000     820.0929   -114.13119   0.74203729   -113.38915    13687.523    4.2899996    4.2899996    4.2899996    13687.523    32513.993     8627.807   -79.231332   -6731.8507   -8293.8278   -1664.6181    78.953566 
   13100    823.29058   -114.13776   0.74493062   -113.39283   -22766.538    4.2982556    4.2982556    4.2982556   -22766.538   -36873.197   -18630.895   -12795.522    7592.2365    6726.7443    8685.5829    79.410276 
   13200    760.11317   -114.08268   0.68776637   -113.39491    9527.5434    4.2863838    4.2863838    4.2863838    9527.5434    28857.133       -12831    12556.497    10431.273    5748.2823    6255.9109    78.754097 
   13300    1232.0678   -114.50811    1.1148008   -113.39331    9925.5933    4.2907651    4.2907651    4.2907651    9925.5933    9754.8181    2349.4818     17672.48   -175.16351   -6542.5441   -9786.5985    78.995842 
   13400    871.78582   -114.18414   0.78881013   -113.39533   -16011.041    4.3037223    4.3037223    4.3037223   -16011.041   -13761.076   -17690.547   -16581.501   -6442.1383    11777.802    215.45709    79.713653 
   13500     690.3893   -114.02199   0.62467875   -113.39731    253.75818     4.282991     4.282991     4.282991    253.75818   -2023.9898   -18843.958    21629.223    20009.215    2959.4392    4579.4808     78.56724 
   13600    1213.1385    -114.4956    1.0976732   -113.39793    7917.2124    4.2914968    4.2914968    4.2914968    7917.2124    -559.7929    11801.361    12510.069    5922.2687   -8929.5587   -1608.9446    79.036261 
   13700    1343.4932   -114.60719    1.2156209   -113.39157   -2283.8582    4.3043267    4.3043267    4.3043267   -2283.8582     17098.85   -13891.581   -10058.843   -4527.6396    2943.9999    5090.3957    79.747242 
   13800    779.75417   -114.10348   0.70553796   -113.39794    9928.9815      4.28509      4.28509      4.28509    9928.9815   -1282.2625    1812.2165     29256.99    9371.7505    10919.892    1232.6847    78.682805 
   13900    782.26458    -114.1093   0.70780943   -113.40149    7372.0672    4.2914001    4.2914001    4.2914001    7372.0672    28936.108   -13556.307    6736.4007    6214.2371    5385.1047    5208.5226    79.030915 
   14000    1556.6755   -114.79676    1.4085127   -113.38825   -7799.6301    4.2993806    4.2993806    4.2993806   -7799.6301   -11817.568    521.90391   -12103.227    2278.7967   -13496.344    -2949.842    79.472649 
   14100    987.61082   -114.28632   0.89361102   -113.39271    12575.137    4.2888236    4.2888236    4.2888236    12575.137     31789.38   -5210.9083    11146.939   -1327.0922    5277.0417   -4742.2989    78.888656 
   14200    903.42745   -114.21419   0.81744014   -113.39675   -18586.617    4.2948075    4.2948075    4.2948075   -18586.617   -24522.567   -27872.961   -3364.3216     11643.44    7836.7999    7648.2538     79.21932 
   14300    1041.5444   -114.33518   0.94241128   -113.39277    3853.5183    4.2923188    4.2923188    4.2923188    3853.5183    15865.239    8848.7007   -13153.385    2127.8011   -17141.571   -520.44238    79.081683 
   14400    1302.0022    -114.5665     1.178079   -113.38842    1999.0689    4.2906951    4.2906951    4.2906951    1999.0689    13616.305    1360.0504   -8979.1492    4285.0287   -10299.867    3407.6111    78.991971 
   14500     934.3454   -114.23781   0.84541536   -113.39239    -11445.61     4.300263     4.300263     4.300263    -11445.61   -2898.8762   -21068.943   -10369.012    15305.062    10019.835    6467.3497    79.521587 
   14600    862.84872    -114.1735   0.78072365   -113.39278    12337.446    4.2848081    4.2848081    4.2848081    12337.446    32612.407    9525.3014   -5125.3705    1432.9638   -3154.5465   -3192.3364    78.667279 
   14700    991.01491   -114.29229   0.89669112   -113.39559    360.42441    4.2934426    4.2934426    4.2934426    360.42441    173.16626    11890.734   -10982.627   -2171.3365   -20433.031    316.16666    79.143818 
   14800    1009.7129   -114.30329   0.91360949   -113.38968   -8353.2605    4.3005757    4.3005757    4.3005757   -8353.2605    11068.648   -19634.233   -16494.197    19.344243    2245.3542   -816.65939    79.538939 
   14900    949.46257   -114.24421   0.85909369   -113.38512    15697.015    4.2835134    4.2835134    4.2835134    15697.015    9774.4332    18606.172     18710.44    7346.9715   -1110.4387    4332.4996    78.595991 
   15000    738.72308   -114.06132   0.66841216   -113.39291   -4789.0093    4.2931208    4.2931208    4.2931208   -4789.0093   -3756.2257    2250.3397   -12861.142    4141.1454   -18034.413   -3190.1346    79.126023 
   15100    809.72585   -114.12387   0.73265697   -113.39121   -10920.612    4.2982976    4.2982976    4.2982976   -10920.612   -19.457346   -1847.8501   -30894.529    1925.2957   -6883.6709    4609.8776    79.412605 
   15200    863.15289   -114.16982   0.78099887   -113.38882     4084.729    4.2890331    4.2890331    4.2890331     4084.729    28888.639   -18454.311    1819.8592     8369.618    9925.7985    10292.121    78.900218 
   15300    977.39546   -114.27383   0.88436796   -113.38946   -1988.7752    4.2866568    4.2866568    4.2866568   -1988.7752   -26356.354    17818.502    2571.5268     2139.724   -16943.464   -2491.7716    78.769148 
   15400     618.0302   -113.95391   0.55920672   -113.39471   -10506.613    4.2987426    4.2987426    4.2987426   -10506.613    21755.983   -16771.651   -36504.172    892.78616   -10880.245     3426.752    79.437275 
   15500    772.03673    -114.0923   0.69855506   -113.39374   -12406.787    4.2915268    4.2915268    4.2915268   -12406.787    -6734.691   -23472.336   -7013.3341    2225.0624    8617.3366    174.43568    79.037918 
   15600    752.07314      -114.07   0.68049159   -113.38951    27902.389    4.2827282    4.2827282    4.2827282    27902.389    47240.684    6042.9524    30423.532      2889.45    5780.2202   -2563.1032    78.552774 
   15700    964.45318   -114.26323    0.8726575   -113.39057    -14105.75    4.2989289    4.2989289    4.2989289    -14105.75   -38805.831   -4629.0594    1117.6408    2314.8913   -17396.295   -1243.7415    79.447599 
   15800    470.91052   -113.81947   0.42608973   -113.39338    697.25207    4.2913623    4.2913623    4.2913623    697.25207    13993.696   -19866.805     7964.865   -9715.1894   -6314.0649   -2477.9043    79.028829 
   15900    766.58454   -114.08569    0.6936218   -113.39207   -10387.665    4.2892828    4.2892828    4.2892828   -10387.665    5949.0079   -31916.942   -5195.0601    8894.5947    10847.167    4204.3302    78.913996 
   16000     780.4016   -114.09638   0.70612376   -113.39026    8935.1003    4.2938875    4.2938875    4.2938875    8935.1003   -2432.9501    17207.381    12030.871    1678.1265   -1151.9601    4492.3449     79.16842 
   16100    962.41923   -114.26255   0.87081715   -113.39173   -8571.2541    4.2922746    4.2922746    4.2922746   -8571.2541    6571.0245     -26587.2   -5697.5868    3682.1349   -13097.696    -4913.997    79.079244 
   16200    402.91241   -113.76351   0.36456361   -113.39895   -11454.637    4.2950532    4.2950532    4.2950532   -11454.637    16799.314   -23523.341   -27639.884   -5755.6963    10326.767    3789.4993    79.232919 
   16300    1020.5748   -114.31639   0.92343753   -113.39296     1594.818    4.2855129    4.2855129    4.2855129     1594.818   -1997.3816   -1751.8095    8533.6452    5509.1301    16584.981   -1721.6098    78.706106 
   16400    996.72782    -114.2923   0.90186028   -113.39044     10755.16    4.2973666    4.2973666    4.2973666     10755.16    23609.515    1908.7318    6747.2324   -5369.6449   -417.05516    4580.0967    79.361017 
   16500    842.40533   -114.15401   0.76222605   -113.39179   -10551.042    4.2955166    4.2955166    4.2955166   -10551.042    -3516.627   -23300.787   -4835.7133   -7028.8763   -10709.306    6136.1124    79.258563 
   16600    585.59878   -113.92127   0.52986208   -113.39141    14771.102     4.281009     4.281009     4.281009    14771.102    40313.662    -6969.143    10968.787    590.47134     6149.641   -7631.0665    78.458216 
   16700    1074.4684   -114.36503   0.97220161   -113.39283   -17037.254    4.2988781    4.2988781    4.2988781   -17037.254   -31361.948   -2251.8272   -17497.987     2234.954    18083.614    4031.6098    79.444785 
   16800    1085.3619   -114.36978   0.98205825   -113.38773    8568.0542    4.2909698    4.2909698    4.2909698    8568.0542    14940.126   -180.09209    10944.128   -2144.0985   -296.81135    1133.1789    79.007145 
   16900    845.35862   -114.15656   0.76489824   -113.39166    164.31858    4.2876634    4.2876634    4.2876634    164.31858    7941.3538   -2747.4208   -4700.9772   -4976.7038    2773.7191   -7227.6833    78.824649 
   17000    743.39027   -114.06906   0.67263514   -113.39643   -15520.228    4.2970091    4.2970091    4.2970091   -15520.228   -981.47912   -7519.2279   -38059.977    4109.8687    15947.034   -1952.9271    79.341211 
   17100    1115.8788   -114.40097    1.0096706    -113.3913    9785.5417    4.2893014    4.2893014    4.2893014    9785.5417    1891.1407    18949.712     8515.772    -4284.758   -6586.6605    1495.5998    78.915026 
   17200    1142.5552   -114.42358     1.033808   -113.38977   -2387.9641    4.2965884    4.2965884    4.2965884   -2387.9641    21866.621   -22392.033   -6638.4801   -5670.3646    5547.7919    3229.0074    79.317911 
   17300    866.64982   -114.17721   0.78416297   -113.39305   -4592.3022    4.2889287    4.2889287    4.2889287   -4592.3022   -8432.6059     8301.004   -13645.305    217.25711    16836.724   -7421.1177    78.894453 
   17400    773.06671   -114.09702     0.699487   -113.39754    10095.229     4.289428     4.289428     4.289428    10095.229    29584.445    16323.317   -15622.073    3265.3831   -3826.7512    3348.3501    78.922009 
   17500    1381.3532     -114.637    1.2498774   -113.38712   -14701.335     4.303104     4.303104     4.303104   -14701.335   -17475.048   -20408.691   -6220.2661   -5426.4971   -14771.632    3968.5062    79.679306 
   17600    1146.1449    -114.4247     1.037056   -113.38764    20225.157    4.2820164    4.2820164    4.2820164    20225.157    40056.055      5577.22    15042.195     111.4943     11239.05   -6059.0588    78.513615 
   17700    733.36722   -114.06463   0.66356607   -113.40107    4060.1226    4.2898184    4.2898184    4.2898184    4060.1226   -16584.701    21783.476    6981.5925   -1542.7388    13754.396    -949.1926    78.943562 
   17800     919.6355   -114.22672   0.83210553   -113.39461   -20705.159    4.3057992    4.3057992    4.3057992   -20705.159   -21437.306   -21346.001   -19332.172     5351.084   -15975.835   -6308.7962    79.829113 
   17900    1258.6779   -114.52297    1.1388782   -113.38409    25153.697    4.2774557    4.2774557    4.2774557    25153.697    13574.674    25932.294    35954.124   -895.63742   -1916.7067    4283.3621    78.263011 
   18000    954.87517   -114.26274   0.86399112   -113.39875    1391.1499    4.2909066    4.2909066    4.2909066    1391.1499     4070.354    6408.3338   -6305.2381    6020.5823    20545.137    2194.9001    79.003657 
   18100    527.57054    -113.8757   0.47735692   -113.39834   -31714.162    4.3051839    4.3051839    4.3051839   -31714.162   -51129.216    2755.0534   -46768.322   -1226.2443   -12073.408   -4707.4548    79.794899 
   18200    870.21078   -114.17863     0.787385   -113.39125     8701.229    4.2809541    4.2809541    4.2809541     8701.229    11705.772    4602.4947    9795.4201   -246.53864    -17534.92    5838.5792    78.455198 
   18300    1129.8467   -114.41394    1.0223091   -113.39163    7756.9845    4.2913892    4.2913892    4.2913892    7756.9845    19669.011   -6459.8387    10061.781   -4762.9758    5442.0804     -6181.29    79.030313 
   18400    621.02868   -113.95783    0.5619198   -113.39591   -4845.3727    4.2997691    4.2997691    4.2997691   -4845.3727   -11038.355    7743.3213   -11241.085   -3135.9354   -1804.5614    2504.0233     79.49419 
   18500    463.10692   -113.81358   0.41902887   -113.39455   -10776.974    4.2881882    4.2881882    4.2881882   -10776.974   -27998.002   -4256.3911   -76.528662    9417.0677   -16230.214     2704.966    78.853599 
   18600    668.47774   -113.99889    0.6048527   -113.39403    3945.5274    4.2896311    4.2896311    4.2896311    3945.5274    29205.119   -6043.3561    -11325.18   -4880.5253   -964.45072    426.63643    78.933221 
   18700    1174.1286   -114.45243    1.0623762   -113.39006   -4105.8494    4.2938233    4.2938233    4.2938233   -4105.8494    -8720.501   -8523.3604    4926.3131    4686.6088   -2092.5302    1921.6392    79.164869 
   18800    538.91278   -113.88461    0.4876196   -113.39699    724.61764    4.2968012    4.2968012    4.2968012    724.61764    3979.4804    8391.5058   -10197.133   -2167.6695   -13621.021    4493.2624    79.329696 
   18900    617.02582   -113.95411   0.55829793   -113.39582   -20698.871    4.2910186    4.2910186    4.2910186   -20698.871   -10621.681   -15314.131   -36160.801    7298.6315   -2972.5971    7824.7788    79.009842 
   19000    817.01068   -114.13298   0.73924843   -113.39373    12412.514     4.287464     4.287464     4.287464    12412.514     44084.15   -21542.161    14695.552   -8778.2676    5861.4823   -8689.2261    78.813655 
   19100    1291.4244   -114.55534     1.168508   -113.38683    -4932.953    4.2983991    4.2983991    4.2983991    -4932.953   -15437.676    -4301.854    4940.6713   -1905.3532    2366.9403   -246.83427    79.418229 
   19200    737.79108   -114.06088   0.66756888   -113.39331    6664.9186     4.291324     4.291324     4.291324    6664.9186    37046.736   -15414.918    -1637.062    8514.9852   -9849.6372    8157.8102    79.026714 
   19300    713.92168     -114.044   0.64597134   -113.39802   -5032.6305     4.289992     4.289992     4.289992   -5032.6305    14447.337   -31230.832    1685.6041   -1688.9283    3318.2151   -8667.4244    78.953147 
   19400    1148.5842   -114.43281    1.0392631   -113.39354    2073.7051    4.2950692    4.2950692    4.2950692    2073.7051     29113.41   -23451.022    558.72748    4948.5324    2739.6274   -7839.9537    79.233805 
   19500    1371.2818   -114.62951    1.2407646   -113.38875    6656.2111    4.2905064    4.2905064    4.2905064    6656.2111    20346.579   -21169.318    20791.372   -8582.8116    2357.7046    594.21225    78.981552 
   19600    769.94821   -114.09376   0.69666532   -113.39709   -2771.8191    4.2944999    4.2944999    4.2944999   -2771.8191    31750.223   -37894.268   -2171.4123    11775.348   -1732.5532   -6068.4706    79.202299 
   19700    929.70599   -114.23877   0.84121752   -113.39755   -11483.848    4.2909245    4.2909245    4.2909245   -11483.848    17676.204   -27764.233   -24363.515    1037.3741    4265.6699   -5940.9044    79.004643 
   19800    1162.4086    -114.4497    1.0517718   -113.39793    6496.7646    4.2933273    4.2933273    4.2933273    6496.7646    24391.785   -14545.537    9644.0454    8036.9997    6459.1066    4257.5883    79.137441 
   19900    1255.6523   -114.53141    1.1361405   -113.39527   -7296.3538     4.296792     4.296792     4.296792   -7296.3538    10217.538    -29822.34   -2284.2592    9843.4382    1089.1408   -9743.9759    79.329183 
   20000    830.13133    -114.1472   0.75112028   -113.39608    9060.5682     4.285689     4.285689     4.285689    9060.5682    44372.125   -13234.799    -3955.622   -7986.8183    7296.6318    -10319.66    78.715809 
   20100    785.27717   -114.10905   0.71053528   -113.39852   -4493.6142    4.2962036    4.2962036    4.2962036   -4493.6142   -8009.4319    4328.1409   -9799.5516    5386.1347     9354.971    1890.3217    79.296601 
   20200     1187.125   -114.46395    1.0741356   -113.38981   -7175.9791    4.2983141    4.2983141    4.2983141   -7175.9791    3503.4322    -12849.04   -12182.329    2981.7653   -2353.5325    4473.3649    79.413517 
   20300    1081.0574   -114.36538   0.97816346   -113.38722    20842.304    4.2848494    4.2848494    4.2848494    20842.304    42814.671    5061.2781    14650.965    11585.056   -275.08921   -4394.7868    78.669556 
   20400    798.28322    -114.1167   0.72230344    -113.3944   -7793.2746    4.2962813    4.2962813    4.2962813   -7793.2746   -18913.364    6857.5263   -11323.986   -10316.614    14494.512   -5159.1016    79.300903 
   20500    647.61899   -113.97789   0.58597927   -113.39191    -9073.958    4.3004695    4.3004695    4.3004695    -9073.958     4745.295   -4444.7448   -27522.424   -975.28903    1822.6518     5669.699    79.533045 
   20600    1131.0815    -114.4076    1.0234263   -113.38418    11766.859    4.2835095    4.2835095    4.2835095    11766.859     4133.268    16743.216    14424.093    7134.9289   -7376.6282   -1737.8991    78.595776 
   20700    853.16423   -114.16322   0.77196093   -113.39126    9662.4063    4.2925446    4.2925446    4.2925446    9662.4063    24109.129   -3591.9371    8470.0267   -2627.2366    13835.855    313.90788    79.094165 
   20800    710.99463   -114.03823   0.64332288   -113.39491   -33069.569    4.3045909    4.3045909    4.3045909   -33069.569   -52272.776   -9856.0275   -37079.905    4174.1485    2211.7424    1649.2437     79.76193 
   20900    552.02074   -113.89316   0.49947997   -113.39368    17999.269    4.2812598    4.2812598    4.2812598    17999.269     19190.87    25653.416    9153.5217   -1462.1158   -13073.035   -328.62076    78.472003 
   21000    1202.2281   -114.47968    1.0878013   -113.39188    -4661.229    4.2918735    4.2918735    4.2918735    -4661.229   -16637.198   -7060.2606    9713.7712    4174.6528    5443.0545     2321.207    79.057075 
   21100    700.09931   -114.02452   0.63346457   -113.39106    -14646.55    4.3063902    4.3063902    4.3063902    -14646.55   -16937.347   -17299.446   -9702.8577   -8500.1144    12140.644   -1612.7415    79.861993 
   21200     660.4543   -113.98338   0.59759293   -113.38579    5751.4739    4.2790925    4.2790925    4.2790925    5751.4739   -23774.891    31018.057    10011.255    453.04769   -14849.971    4637.3297    78.352893 
   21300    778.53504   -114.09782   0.70443486   -113.39338    7404.7619    4.2922589    4.2922589    4.2922589    7404.7619    23330.362   -8266.6947    7150.6188    5771.8299   -10757.703   -3811.8453    79.078376 
   21400    1064.5175   -114.34696   0.96319779   -113.38376   -11078.432    4.3043426    4.3043426    4.3043426   -11078.432    -25009.37   -7864.5211   -361.40624   -5023.2373    12678.272   -1358.7157    79.748126 
   21500    782.28563   -114.09294   0.70782848   -113.38511    5628.4271    4.2839749    4.2839749    4.2839749    5628.4271    9597.4049    10717.366   -3429.4892    1292.5198   -8116.0152    5687.1361    78.621394 
   21600    631.90126   -113.96479   0.57175754   -113.39303   -8658.9567    4.2897798    4.2897798    4.2897798   -8658.9567   -9582.2789    4942.0241   -21336.615    5394.8365   -13337.727    3147.2638    78.941431 
   21700     941.1061   -114.24151   0.85153257   -113.38997   -4447.0314    4.2949623    4.2949623    4.2949623   -4447.0314    14004.305   -23227.086   -4118.3129    3981.4729    1766.7817   -1719.9099    79.227884 
   21800    1089.7073   -114.37228   0.98599005   -113.38629   -3368.1648    4.2965009    4.2965009    4.2965009   -3368.1648   -3317.6682   -627.09277   -6159.7334   -14123.794    6610.4854   -2258.4658    79.313062 
   21900    927.10808   -114.22813   0.83886688   -113.38927   -8717.7337    4.2894547    4.2894547    4.2894547   -8717.7337   -7639.5239    3851.8716   -22365.549    7891.1374   -7357.0363    7201.3656    78.923487 
   22000    608.07926   -113.94342    0.5502029   -113.39321    17778.126    4.2828308    4.2828308    4.2828308    17778.126    24659.203    248.46899    28426.706    8165.8419   -6043.8136   -11250.076    78.558423 
   22100    1168.3837   -114.44857    1.0571781   -113.39139   -14643.794     4.303111     4.303111     4.303111   -14643.794   -8625.6742   -20000.319    -15305.39   -2518.5744    1615.4294   -12934.032    79.679691 
   22200    1212.9351   -114.48406    1.0974892   -113.38657    14380.172    4.2882118    4.2882118    4.2882118    14380.172    15169.852    3270.1678    24700.496   -1691.8412   -3297.5777    10387.774    78.854897 
   22300    767.17023   -114.08668   0.69415174   -113.39253    7351.4653    4.2818611    4.2818611    4.2818611    7351.4653    24653.564   -545.12908   -2054.0391   -2219.0843   -4858.0491   -8314.8308    78.505074 
   22400    723.69005   -114.04945   0.65480996   -113.39464   -26716.641    4.3038265    4.3038265    4.3038265   -26716.641   -653.48433   -37162.206   -42334.231   -1077.6057    59.072496   -17632.046    79.719447 
   22500    1289.9668   -114.55081    1.1671891   -113.38362    7226.4996    4.2866101    4.2866101    4.2866101    7226.4996    7593.8822    4832.2972    9253.3192   -2332.5191    6982.6842    8135.6632    78.766572 
   22600    1227.0307   -114.49738    1.1102432   -113.38714   -1444.7586     4.285263     4.285263     4.285263   -1444.7586     8420.476   -12698.865   -55.886371    9954.1031   -2146.8372   -10877.898    78.692337 
   22700    672.02684   -114.00549   0.60806401   -113.39743   -9001.8947    4.2955918    4.2955918    4.2955918   -9001.8947    9741.0364   -29024.125   -7722.5958   -6493.7491   -4403.6619   -11647.316    79.262726 
   22800    999.98082   -114.29715   0.90480366   -113.39234    964.81411    4.2896422    4.2896422    4.2896422    964.81411   -4248.4161   -2981.2893    10124.148   -7815.7076    7785.1493   -4441.6694    78.933835 
   22900    1158.0083   -114.43535    1.0477902   -113.38756    4786.3272    4.2936543    4.2936543    4.2936543    4786.3272    1854.1795    5101.4966    7403.3054    1291.7035    7113.3824    2229.2592    79.155523 
   23000    1122.5468   -114.40379     1.015704   -113.38809    5738.7945    4.2881416    4.2881416    4.2881416    5738.7945    7118.7776   -23854.488    33952.094    6570.7272   -1565.5445   -2777.4804    78.851026 
   23100    758.93564   -114.07936   0.68670091   -113.39266    3129.5081    4.2917195    4.2917195    4.2917195    3129.5081   -1301.9292     7030.321    3660.1326   -1889.1361    7498.3915   -9240.1501    79.048562 
   23200    803.20431   -114.11946   0.72675614    -113.3927   -7872.1868    4.2934533    4.2934533    4.2934533   -7872.1868   -19526.011    4135.0313   -8225.5812   -4667.8846     4001.061    9559.6841    79.144405 
   23300    1151.7488   -114.42919    1.0421265   -113.38706    6660.2414    4.2830099    4.2830099    4.2830099    6660.2414   -16167.422    13566.503    22581.643    2571.9265   -5260.3417   -7384.9795     78.56828 
   23400     913.0652   -114.21645   0.82616058   -113.39029   -2474.0007     4.296799     4.296799     4.296799   -2474.0007    4090.8795   -16389.539    4876.6571    2879.5669    2344.8697   -7655.1655    79.329572 
   23500    656.59032   -113.98799   0.59409672   -113.39389   -14754.917    4.2920309    4.2920309    4.2920309   -14754.917   -36396.947    6422.7268   -14290.529    1056.1794    11706.118    6331.3559    79.065771 
   23600    656.02343   -113.98691   0.59358378   -113.39333    11699.561    4.2817814    4.2817814    4.2817814    11699.561   -21650.277    24869.782    31879.179    121.48012   -1010.9789    17.494496    78.500691 
   23700    1064.3997   -114.35144   0.96309121   -113.38835    508.14599    4.2971865    4.2971865    4.2971865    508.14599   -9728.4498     1067.979    10184.909   -445.72688    -8125.284    2952.1501    79.351035 
   23800    823.49454   -114.13555   0.74511517   -113.39044   -1808.1942    4.2915252    4.2915252    4.2915252   -1808.1942   -17520.474   -6100.7143    18196.606   -6880.8695    8672.5117    2135.5055    79.037827 
   23900     403.2988   -113.75949   0.36491323   -113.39458   -5234.8768    4.2857918    4.2857918    4.2857918   -5234.8768   -39444.557    20090.391    3649.5347    534.27289    5052.5895    1594.4519    78.721472 
   24000    765.88799   -114.08654   0.69299155   -113.39355   -7037.2883    4.2939206    4.2939206    4.2939206   -7037.2883   -11490.505    11032.688   -20654.048   -396.16576   -5200.2635    4298.4939     79.17025 
   24100    1091.9949   -114.37472    0.9880599   -113.38666    -3486.736    4.2931867    4.2931867    4.2931867    -3486.736   -12126.183    -10912.77    12578.745   -6878.4519   -1285.3354   -5029.2944    79.129665 
   24200    688.56526   -114.01609   0.62302832   -113.39306   -8689.5688    4.2890949    4.2890949    4.2890949   -8689.5688   -22743.138    4095.8369   -7421.4052   -4051.1923    11073.734   -2330.8863    78.903628 
   24300    595.59638   -113.93681   0.53890812    -113.3979   -3685.7405    4.2889789    4.2889789    4.2889789   -3685.7405   -14104.952    19593.345   -16545.614    1259.4333   -13971.872    5180.4233    78.897225 
   24400    1034.0909   -114.32804   0.93566721   -113.39237   -2255.6037    4.2982422    4.2982422    4.2982422   -2255.6037    557.24677    -14954.39    7630.3328   -1212.3807   -3291.0674   -7202.0708    79.409534 
   24500    1209.2967    -114.4811     1.094197    -113.3869   -1210.0681    4.2915438    4.2915438    4.2915438   -1210.0681    299.45623   -4581.2686    651.60803    1087.2154    9193.3335   -2550.5797    79.038858 
   24600     754.0485   -114.07324   0.68227893   -113.39097    19553.671    4.2824386    4.2824386    4.2824386    19553.671    1493.9162    22279.481    34887.616    1328.2973   -7650.1489    4745.3794    78.536844 
   24700    933.17443   -114.24106   0.84435584   -113.39671   -21947.011    4.3016657    4.3016657    4.3016657   -21947.011   -8422.9484   -26523.043   -30895.043    -2528.581   -11179.456   -1162.2121    79.599432 
   24800     1160.921   -114.44049    1.0504257   -113.39007    10034.161     4.286724     4.286724     4.286724    10034.161    33473.677   -9029.9894    5658.7971    -2863.226    1130.0207   -3935.1023     78.77285 
   24900    1220.3548   -114.49356    1.1042026   -113.38935    8504.4684    4.2873456    4.2873456    4.2873456    8504.4684    6211.2389    10116.059    9186.1076    1979.6904   -5330.9843   -8187.9903    78.807124 
   25000    992.72948   -114.28798    0.8982425   -113.38973   -25083.045    4.3041602    4.3041602    4.3041602   -25083.045   -22403.198   -21089.307   -31756.631    5908.1569    2433.8378    6682.3182    79.737988 
   25100    807.19172   -114.11712   0.73036403   -113.38676    21376.614     4.280167     4.280167     4.280167    21376.614    47455.992   -3944.5462    20618.396    979.06899    44.175579   -12926.169     78.41193 
   25200    1216.9017   -114.49068    1.1010782    -113.3896    2984.2238    4.2917846    4.2917846    4.2917846    2984.2238    10834.682   -14895.894    13013.883   -5148.1284   -2134.0694   -12773.662    79.052164 
   25300    1071.7482   -114.35527   0.96974032   -113.38553    6105.3526    4.3000643    4.3000643    4.3000643    6105.3526     10595.97   -6645.7146    14365.803   -2240.1292   -5288.6159    7508.9872    79.510569 
   25400    864.38344   -114.16732    0.7821123    -113.3852    3939.7301    4.2861799    4.2861799    4.2861799    3939.7301    4396.5089    1668.5717    5754.1095   -1229.2454    9414.6344   -16560.853    78.742863 
   25500    716.99762   -114.03886   0.64875451   -113.39011    -10788.12    4.2961487    4.2961487    4.2961487    -10788.12    28522.833   -33553.851   -27333.344    4003.2536    78.651466    -7380.112     79.29356 
   25600    1185.6481   -114.45685    1.0727993   -113.38405    9725.8493    4.2884054    4.2884054    4.2884054    9725.8493    22845.558   -349.63398    6681.6237    4928.3466   -3703.3992    10669.321    78.865579 
   25700    1025.5076   -114.31734   0.92790086   -113.38944    838.22427    4.2935505    4.2935505    4.2935505    838.22427    179.40261   -5669.8937    8005.1639   -1100.7249   -1545.5078   -4701.8862    79.149782 
   25800     602.9969    -113.9418   0.54560427    -113.3962   -9004.2552     4.294927     4.294927     4.294927   -9004.2552    10203.276   -30576.074   -6639.9677   -1112.6699   -822.83127   -14916.486    79.225931 
   25900    790.12577   -114.10712    0.7149224    -113.3922    14700.154    4.2838962    4.2838962    4.2838962    14700.154     36073.56   -15094.362    23121.265    878.46069    3352.0248     7812.287    78.617062 
   26000    1075.2711   -114.36152   0.97292786   -113.38859   -8683.4407     4.300124     4.300124     4.300124   -8683.4407   -18773.519   -8189.4524    912.64988    3935.9603   -3662.6392    2196.5149    79.513876 
   26100    983.28878   -114.27964   0.88970035   -113.38994   -8118.7984    4.2908334    4.2908334    4.2908334   -8118.7984   -9385.5411   -21573.402    6602.5478   -8895.5125    8216.4913   -14168.786    78.999613 
   26200    427.65345   -113.78086   0.38694983   -113.39391    17885.235    4.2830296    4.2830296    4.2830296    17885.235    41512.539   -1362.7057    13505.871    391.03023   -1924.0163    7266.3761     78.56936 
   26300    717.33143   -114.04003   0.64905655   -113.39097   -20075.676    4.3021245    4.3021245    4.3021245   -20075.676   -25163.404   -23113.939   -11949.685    2498.1742    4996.9294    13723.532    79.624903 
   26400    1034.6541   -114.31893   0.93617674   -113.38275   -4118.6269    4.2883354    4.2883354    4.2883354   -4118.6269   -34392.317   -12384.646    34421.082    1232.8531   -4993.1514   -3333.2357    78.861716 
   26500    583.43838   -113.91786   0.52790731   -113.38995    14692.322    4.2849906    4.2849906    4.2849906    14692.322    50333.991   -10847.234    4590.2087   -4274.2146      2183.38    375.71177    78.677332 
   26600    704.52903   -114.03049   0.63747267   -113.39302   -21941.947    4.2975993    4.2975993    4.2975993   -21941.947   -19681.862   -25928.099   -20215.879     618.9371    -2136.178    20013.622     79.37391 
   26700    733.91719   -114.05506   0.66406369     -113.391    5574.8339    4.2909047    4.2909047    4.2909047    5574.8339    492.53023   -12641.427    28873.399   -3357.3567    489.94025   -5904.2606    79.003553 
   26800    1032.7198   -114.32252   0.93442656   -113.38809    5449.8063    4.2855943    4.2855943    4.2855943    5449.8063    298.17692   -10127.964    26179.206   -4498.1488    5654.2286   -662.35335    78.710592 
   26900    769.60681   -114.08906   0.69635641    -113.3927    7117.1816    4.2888304    4.2888304    4.2888304    7117.1816    23722.905   -25777.792    23406.432    3207.1407   -3048.3875    20276.692    78.889033 
   27000    596.03439   -113.93463   0.53930444   -113.39533   -26396.717    4.3025577    4.3025577    4.3025577   -26396.717   -35826.133    -19590.54   -23773.478   -88.114696   -9174.8412    5020.9026    79.648958 
   27100    844.04668   -114.15439   0.76371118   -113.39068   -3878.4325    4.2849268    4.2849268    4.2849268   -3878.4325   -15258.884   -9312.0605    12935.647   -1008.9462     -2037.44   -869.02845    78.673818 
   27200     1251.243   -114.51856    1.1321509   -113.38641    13544.412    4.2813813    4.2813813    4.2813813    13544.412    27487.133   -3416.1915    16562.294   -4570.9659    6063.3655    6259.0784    78.478687 
   27300    783.47306   -114.10362   0.70890289   -113.39472   -21354.145    4.3050556    4.3050556    4.3050556   -21354.145   -9536.3916   -21151.994   -33374.048    6141.4755   -1896.1103    6426.6522    79.787763 
   27400     726.5261   -114.05564   0.65737608   -113.39827    2381.0424    4.2813698    4.2813698    4.2813698    2381.0424   -7930.6958    1024.2945    14049.529   -89.921893   -7801.2753   -7388.6598    78.478055 
   27500    1094.5046   -114.38779   0.99033077   -113.39746    14627.289    4.2880152    4.2880152    4.2880152    14627.289    43736.047   -17290.316    17436.136   -1181.0052    7921.7509   -8418.5197    78.844054 
   27600    1383.9205   -114.64209    1.2522003   -113.38989    -1682.484    4.2961063    4.2961063    4.2961063    -1682.484    2588.8963   -17790.508     10154.16   -5335.1972   -2056.4732   -656.96696    79.291215 
   27700     967.2473   -114.26987   0.87518568   -113.39468    5548.1394    4.2812403    4.2812403    4.2812403    5548.1394     11909.41   -1534.3774    6269.3856    377.94386   -7414.1956   -510.49909    78.470932 
   27800    800.04889   -114.12086   0.72390105   -113.39695   -23057.812    4.2977971    4.2977971    4.2977971   -23057.812   -835.24613    -35228.01   -33110.181   -6376.1639   -3069.2929   -14987.085    79.384869 
   27900    1354.9716   -114.61295    1.2260068   -113.38694   -2083.6178    4.2847828    4.2847828    4.2847828   -2083.6178    21897.687   -27331.898   -816.64333    3948.9943    7386.5703    1253.3605    78.665887 
   28000    1144.1646   -114.42591    1.0352641   -113.39065    3512.6152    4.2893351    4.2893351    4.2893351    3512.6152    12271.914   -12229.144    10495.076    3362.6502   -1336.8713    3421.5921    78.916885 
   28100    925.83448    -114.2294    0.8377145   -113.39168   -22166.884    4.2982256    4.2982256    4.2982256   -22166.884   -28634.211   -30329.748   -7536.6942   -7119.6224   -3901.4968   -14052.412    79.408612 
   28200    908.25216   -114.20725   0.82180564   -113.38544    15398.403    4.2783831    4.2783831    4.2783831    15398.403    16244.257   -9744.4012    39695.354   -5574.7272    3641.6223   -10952.638    78.313927 
   28300    1078.1069   -114.36589   0.97549377    -113.3904   -2873.3007    4.2962052    4.2962052    4.2962052   -2873.3007    12897.285   -23220.609    1703.4222    2678.1446   -7527.0892    14163.925     79.29669 
   28400    1065.7537   -114.35141   0.96431636    -113.3871    9827.9156    4.2917858    4.2917858    4.2917858    9827.9156     -9201.73   -3440.8283    42126.305   -294.93584    3260.7734    4167.0044    79.052226 
   28500    856.66395     -114.163   0.77512754   -113.38787    7141.9645    4.2838809    4.2838809    4.2838809    7141.9645    507.09725    4668.8024    16249.994   -8031.0477    8876.5742   -10622.272    78.616222 
   28600    704.20634   -114.02998    0.6371807    -113.3928   -15872.085    4.2980676    4.2980676    4.2980676   -15872.085   -9560.6068   -30547.962   -7507.6857    1307.3702    1985.8879    17718.016    79.399859 
   28700    944.07324   -114.24125    0.8542173   -113.38703    16656.345    4.2852355    4.2852355    4.2852355    16656.345    31888.746   -4855.3765    22935.665   -1883.5364    1878.3753     14229.98     78.69082 
   28800    975.58468    -114.2705   0.88272952   -113.38777   -1270.4507    4.2923669    4.2923669    4.2923669   -1270.4507   -15818.896   -2657.6808    14665.225   -7330.9455   -7746.9089   -4556.8824    79.084344 
   28900      629.927    -113.9621   0.56997119   -113.39213   -18987.555    4.2917735    4.2917735    4.2917735   -18987.555   -17600.563   -28477.287   -10884.815   -1540.2349    11048.478    6944.0875    79.051548 
   29000    621.77359   -113.95474   0.56259381   -113.39215    9690.9387    4.2857227    4.2857227    4.2857227    9690.9387    10946.503   -22561.742    40688.055    5431.1103   -10014.646    11312.391    78.717665 
   29100    1031.0782   -114.31802   0.93294124   -113.38508   -4156.6688      4.29977      4.29977      4.29977   -4156.6688   -13962.092    -7657.539    9149.6246   -5361.2453    3155.5925   -4365.0939    79.494242 
   29200    778.79856   -114.09047    0.7046733    -113.3858    5333.5352    4.2851416    4.2851416    4.2851416    5333.5352   -23394.869   -8531.4347    47926.909   -4748.9769    9194.5539    9355.2529     78.68565 
   29300    398.41674     -113.756   0.36049584    -113.3955   -17247.926    4.2899347    4.2899347    4.2899347   -17247.926    6273.5337   -23828.115   -34189.197   -2048.2639    2961.0391    10303.157    78.949981 
   29400    701.69344   -114.02554   0.63490697   -113.39064   -4223.6462    4.2949041    4.2949041    4.2949041   -4223.6462    22546.652   -19351.036   -15866.555   -9159.9466    2160.5296   -3329.9826    79.224664 
   29500    971.44832   -114.26366   0.87898686   -113.38467     12832.55    4.2872838    4.2872838    4.2872838     12832.55    7505.6909     2314.913    28677.047   -10082.295   -15658.384   -3796.3924    78.803714 
   29600    442.89656   -113.79294   0.40074212    -113.3922   -11105.872    4.2980852    4.2980852    4.2980852   -11105.872    14700.169   -38042.511   -9975.2735   -791.62474    958.92753    7008.6014    79.400831 
   29700    598.24529   -113.92833   0.54130491   -113.38703   -7435.5702    4.2917976    4.2917976    4.2917976   -7435.5702    6891.9841   -43763.643    14564.949    4760.0086   -7594.5106    1820.1421    79.052878 
   29800    880.67545   -114.18035   0.79685366   -113.38349    19612.359    4.2901633    4.2901633    4.2901633    19612.359    18205.305    -4235.937     44867.71    539.64858   -8371.7163   -4461.8902    78.962605 
   29900    1112.0784   -114.38729    1.0062319   -113.38105   -13679.298     4.301017     4.301017     4.301017   -13679.298   -8615.5632   -25981.163   -6441.1684    1741.1038    4995.1468    13067.669    79.563429 
   30000    832.78562   -114.13359   0.75352193   -113.38007   -10332.898    4.2941328    4.2941328    4.2941328   -10332.898    4992.5108   -45924.942    9933.7376    2383.1917    5562.5852    4912.4068    79.181989 
   30100    964.38564   -114.25524   0.87259639   -113.38264   -1129.4765    4.2907371    4.2907371    4.2907371   -1129.4765    -9161.213   -11759.783    17532.567   -2246.0317    5096.5321   -9154.9926    78.994294 
   30200    1143.9179   -114.41621    1.0350409   -113.38117    7260.9496    4.2935363    4.2935363    4.2935363    7260.9496   -2156.1632   -5109.9553    29048.967    1006.8142   -9142.0185     7175.707    79.148999 
   30300    1048.2588   -114.33266   0.94848663   -113.38417   -6563.3463    4.2972469    4.2972469    4.2972469   -6563.3463    11905.266    -33710.24    2114.9361     3834.297    -7323.932     1071.203    79.354382 
   30400    841.91574   -114.14848   0.76178305    -113.3867    705.67553    4.2938538    4.2938538    4.2938538    705.67553    44978.857   -20931.031   -21930.799   -4107.4522   -9241.5008   -5464.2173    79.166555 
   30500    1136.4114   -114.40942    1.0282489   -113.38118    14881.373    4.2872588    4.2872588    4.2872588    14881.373    38911.384     3283.097    2449.6373   -11083.143   -9722.1183   -2948.1068     78.80234 
   30600    1067.6575   -114.35237   0.96603897   -113.38633    -11049.99     4.301124     4.301124     4.301124    -11049.99     24638.46   -30946.034   -26842.395   -6610.7258     6676.247    8610.9028    79.569365 
   30700    945.41989   -114.24269   0.85543578   -113.38725   -9470.0066    4.2913947    4.2913947    4.2913947   -9470.0066    23798.089   -26526.059    -25682.05     1343.905   -379.43006    3030.7733    79.030619 
   30800    1322.3188   -114.58104    1.1964618   -113.38457    10275.565     4.282066     4.282066     4.282066    10275.565    13301.261   -2032.8147     19558.25     7568.824   -7112.8304   -7876.4937    78.516344 
   30900    1185.1204    -114.4573    1.0723219   -113.38498     -16707.3    4.3069728    4.3069728    4.3069728     -16707.3   -4974.4597   -26814.851   -18332.591    2656.7117    -14756.42    11458.969    79.894411 
   31000     700.1541   -114.02294   0.63351415   -113.38942    12266.598    4.2865528    4.2865528    4.2865528    12266.598    62551.643   -29616.119    3864.2685   -1647.9892    3759.6459    1187.0538    78.763414 
   31100    1054.1665    -114.3402   0.95383205   -113.38637    12696.545    4.2854967    4.2854967    4.2854967    12696.545    50745.556   -26748.202     14092.28   -5805.2339   -9912.3458   -9980.2903    78.705215 
   31200    1223.3823   -114.48658     1.106942   -113.37963   -643.57532    4.3039268    4.3039268    4.3039268   -643.57532    19434.912   -17943.438   -3422.1999    -3023.718   -3410.7485    851.93933    79.725021 
   31300    807.63548   -114.11687   0.73076555    -113.3861    5199.8263    4.2874565    4.2874565    4.2874565    5199.8263    37605.773   -20693.178   -1313.1164    510.42272    4712.4849    931.10326    78.813238 
   31400    787.57779   -114.10251   0.71261693   -113.38989   -11598.556    4.2902426    4.2902426    4.2902426   -11598.556    17260.143   -35654.959   -16400.851    3548.9666    8957.3121     -11369.4    78.966985 
   31500    1309.0159   -114.56603    1.1844251   -113.38161   -6993.7869    4.2990037    4.2990037    4.2990037   -6993.7869    6443.3539   -23961.332    -3463.383    1973.8648    1983.9951   -2046.1499    79.451746 
   31600     1065.367    -114.3463   0.96396649   -113.38233   -1023.1143    4.2923345    4.2923345    4.2923345   -1023.1143    21891.565   -27600.824    2639.9159   -1735.7066    -5850.398    7152.2661    79.082553 
   31700    415.63132   -113.76584   0.37607195   -113.38977    6965.0631    4.2913117    4.2913117    4.2913117    6965.0631    57397.389   -30446.013   -6056.1865    1309.9444   -858.38384   -8893.9801    79.026034 
   31800    857.54919   -114.15997   0.77592853   -113.38404    2633.1403    4.2976944    4.2976944    4.2976944    2633.1403    22007.387   -27533.811    13425.845     826.1966    -4582.647    -960.7738    79.379178 
   31900    1026.9747   -114.30864   0.92922826   -113.37941    9134.1203    4.2921634    4.2921634    4.2921634    9134.1203    15016.891   -22639.013    35024.483    2246.1772   -4096.9184   -1291.1711    79.073098 
   32000    691.77966   -114.01168   0.62593677   -113.38575   -6600.1635    4.2945416    4.2945416    4.2945416   -6600.1635    23970.347   -35045.358   -8725.4792   -2239.5332   -3101.0794   -12042.514    79.204607 
   32100    853.76137   -114.15547   0.77250123   -113.38297   -15100.603    4.2958534    4.2958534    4.2958534   -15100.603   -17128.103   -13844.274   -14329.433    -5559.662    11049.616   -6550.0354    79.277209 
   32200    1122.3409   -114.39541    1.0155176   -113.37989    397.27011    4.2902693    4.2902693    4.2902693    397.27011   -29044.364    5843.1303    24393.044    -2017.466    10993.279   -488.13507     78.96846 
   32300     880.2918   -114.18013   0.79650652   -113.38362   -8674.2875    4.2952817    4.2952817    4.2952817   -8674.2875   -15258.508   -18331.528    7567.1733    5157.7415    1776.3322   -2994.0435    79.245565 
   32400    632.03294    -113.9585   0.57187669   -113.38662    12685.059    4.2909367    4.2909367    4.2909367    12685.059    16803.253   -19037.647    40289.571    5012.0905   -6874.9627    3799.2907    79.005318 
   32500    875.75942   -114.17614   0.79240553   -113.38374    10343.641    4.2941607    4.2941607    4.2941607    10343.641    10929.187   -4332.8129     24434.55    1380.4296    95.735809    662.73049    79.183535 
   32600    646.34509    -113.9706   0.58482662   -113.38577    8424.9989    4.2930202    4.2930202    4.2930202    8424.9989    11928.229   -9282.7287    22629.496   -5551.4523   -2928.9279   -1983.0252    79.120458 
   32700    618.87268    -113.9483   0.55996901   -113.38833   -9250.1967    4.2909655    4.2909655    4.2909655   -9250.1967    7931.9604   -25548.181   -10134.369   -1239.3331    414.33183   -5689.4231    79.006911 
   32800     989.9203   -114.27984   0.89570069   -113.38413   -15703.688    4.2958609    4.2958609    4.2958609   -15703.688   -6661.5109   -27212.941   -13236.611   -869.44874    2141.7764    1448.1207    79.277626 
   32900    1002.3783   -114.28944   0.90697291   -113.38246   -8580.0711    4.2936407    4.2936407    4.2936407   -8580.0711   -32503.075   -10136.298     16899.16   -1426.6815    7209.1611    2143.2292    79.154772 
   33000    504.10417   -113.84574   0.45612405   -113.38961   -19026.129    4.2940101    4.2940101    4.2940101   -19026.129   -4154.7853   -36260.308   -16663.293   -1801.0286   -5310.4749   -8627.5929    79.175204 
   33100    558.21427   -113.89627     0.505084   -113.39118    9978.7427    4.2894562    4.2894562    4.2894562    9978.7427    57220.258   -16525.938   -10758.092   -217.82759   -3830.8593    2920.2818    78.923566 
   33200    978.08912    -114.2683   0.88499559    -113.3833     5419.737    4.2957989    4.2957989    4.2957989     5419.737    21470.077   -20910.892    15700.026    3884.4225   -9250.2883    6470.4179    79.274192 
   33300    762.94702    -114.0784    0.6903305   -113.38807   -14047.726     4.295229     4.295229     4.295229   -14047.726   -4673.2899   -35328.704   -2141.1845    2062.5975   -2427.6405   -5193.9146    79.242645 
   33400    620.44234    -113.9498   0.56138927   -113.38841   -536.39805    4.2871825    4.2871825    4.2871825   -536.39805     6420.709   -10010.283    1980.3802    -673.7486    -3798.996    5763.7926    78.798132 
   33500    1054.3928   -114.34076   0.95403673   -113.38672    1176.2828    4.2943786    4.2943786    4.2943786    1176.2828   -1390.1538   -7002.7653    11921.768   -2198.0298    6875.0594    343.85075     79.19559 
   33600    974.51285   -114.26739   0.88175971   -113.38563   -9871.8783    4.2991175    4.2991175    4.2991175   -9871.8783   -4596.1827   -27050.224    2030.7723   -3968.6551    5892.9306   -709.66917    79.458056 
   33700    749.51144   -114.06454    0.6781737   -113.38637    7116.1712    4.2857703    4.2857703    4.2857703    7116.1712    39812.555   -18796.626    332.58448     -3886.99   -2882.1197    3222.7447    78.720286 
   33800    954.77176   -114.25008   0.86389755   -113.38618    4095.9977    4.2913676    4.2913676    4.2913676    4095.9977    33062.968   -7651.7018   -13123.273     7069.804   -5336.1955   -5386.9222     79.02912 
   33900    1032.4799   -114.31917   0.93420954   -113.38496   -11178.332    4.2990751    4.2990751    4.2990751   -11178.332   -27764.812   -1349.8747   -4420.3088    14962.139   -6925.7284    1825.9395    79.455708 
   34000    984.90319   -114.27476   0.89116111   -113.38359   -8560.9953    4.2906924    4.2906924    4.2906924   -8560.9953    -2751.392   -13682.511   -9249.0824   -1233.9489     2962.818    1580.8084    78.991821 
   34100    1240.8909   -114.50547    1.1227842   -113.38269    224.54581    4.2883011    4.2883011    4.2883011    224.54581    21332.245   -9605.8349   -11052.772    -10231.93   -3080.2531   -3778.3145    78.859823 
   34200    1031.8216   -114.31789   0.93361383   -113.38428    7945.2238    4.2962227    4.2962227    4.2962227    7945.2238    15672.671    16315.787    -8152.787      2962.24    12960.013    4661.1355    79.297655 
   34300     813.7277   -114.12467   0.73627792   -113.38839   -2376.1391    4.2945847    4.2945847    4.2945847   -2376.1391    31389.291    -28034.31   -10483.398    10428.089    6325.1795   -3560.8094    79.206989 
   34400     1075.182   -114.35898   0.97284729   -113.38613    7982.7558    4.2882838    4.2882838    4.2882838    7982.7558    33326.788   -16676.569    7298.0493    -3192.367    6708.0312   -8131.9234    78.858874 
   34500     1476.477   -114.71991    1.3359474   -113.38396    822.98418    4.2926152    4.2926152    4.2926152    822.98418   -2529.3376   -4020.2371    9018.5272   -419.33234   -1627.9672    -2682.514    79.098066 
   34600    988.16279   -114.28478   0.89411046   -113.39067    -8025.171      4.29804      4.29804      4.29804    -8025.171   -13907.903   -32312.431    22144.821    3499.8098   -5643.0354    3598.5627    79.398328 
   34700    870.45459   -114.17498   0.78760561   -113.38738   -3215.9051    4.2948727    4.2948727    4.2948727   -3215.9051    16752.644    -26393.11    -7.248592   -257.03085    -3519.023   -14229.891     79.22293 
   34800    1231.6044   -114.49265    1.1143816   -113.37827    6493.8583    4.2917446    4.2917446    4.2917446    6493.8583    39412.116   -10045.656   -9884.8851    4923.2954   -4123.3303   -6000.3059    79.049949 
   34900    895.97506   -114.19396   0.81069707   -113.38326    -6417.082    4.2976938    4.2976938    4.2976938    -6417.082    1696.2715   -31194.594    10247.076    13362.105    10679.375    3231.7223    79.379146 
   35000    668.07663   -113.98783   0.60448978   -113.38334   -2799.5665    4.2942182    4.2942182    4.2942182   -2799.5665    7245.4232    -33615.33    17971.207   -1718.4517     9494.058   -7253.4357    79.186716 
   35100    1046.5646   -114.32374   0.94695364   -113.37679   -8915.6221    4.2953162    4.2953162    4.2953162   -8915.6221   -21705.295   -12123.665    7082.0933   -5214.5732    1344.6608   -1929.2203    79.247472 
   35200    706.15943   -114.01836   0.63894789   -113.37941   -11657.769    4.2996992    4.2996992    4.2996992   -11657.769   -42268.056   -20294.204    27588.952     14175.29   -12233.387    2721.1704    79.490314 
   35300    595.86391   -113.91985   0.53915018    -113.3807    1451.6727    4.2911815    4.2911815    4.2911815    1451.6727    18720.683   -34624.571    20258.906    9307.1649   -6779.4411   -3798.0884     79.01884 
   35400    681.45662   -113.99839   0.61659627    -113.3818    6645.8753    4.2967048    4.2967048    4.2967048    6645.8753    35990.309   -8639.1529   -7413.5306   -3406.2198   -10618.711   -7550.9399    79.324356 
   35500    667.61151   -113.98644   0.60406892   -113.38237   -9170.6714    4.2994784    4.2994784    4.2994784   -9170.6714   -21846.335   -9253.8028    3588.1236    8480.2321   -9051.0058    3567.9935    79.478072 
   35600    680.06094   -113.99672   0.61533343   -113.38139   -5998.3113    4.2900009    4.2900009    4.2900009   -5998.3113   -30430.991   -12941.348    25377.404    6529.1128   -649.12487   -7103.8702    78.953641 
   35700    1007.0182   -114.29052   0.91117123   -113.37935   -5723.4729    4.2992423    4.2992423    4.2992423   -5723.4729   -19442.529    3984.8802   -1712.7695   -10526.049     6954.323   -7776.4423    79.464977 
   35800    880.25621    -114.1748   0.79647432   -113.37832    -4008.866     4.301261     4.301261     4.301261    -4008.866   -5678.8346    2865.7843   -9213.5478    8168.3658    6906.1073    3546.2617    79.576967 
   35900    488.48852   -113.82442   0.44199468   -113.38242    13402.529    4.2874039    4.2874039    4.2874039    13402.529    23613.858    3876.2022    12717.527    9614.5219   -984.26606   -1549.5335    78.810341 
   36000    836.98929    -114.1417    0.7573255   -113.38437    4787.8874     4.295714     4.295714     4.295714    4787.8874    11519.319    3969.0567   -1124.7132   -5917.5733   -4254.2563   -9353.5072    79.269492 
   36100    1268.2558   -114.52632    1.1475445   -113.37877   -14416.915    4.3005331    4.3005331    4.3005331   -14416.915   -30094.166    1873.6496   -15030.228    383.10339   -7289.2004     70.57228    79.536573 
   36200    798.89207   -114.10661   0.72285433   -113.38376     2653.499    4.2844341    4.2844341    4.2844341     2653.499   -14803.153    11418.092    11345.557     17414.74   -4105.3893    8311.5922    78.646683 
   36300    600.14413   -113.93678   0.54302302   -113.39376    445.93162    4.2962956    4.2962956    4.2962956    445.93162    24082.224   -23878.347     1133.918   -1088.3509    3921.1627   -8297.0887    79.301696 
   36400     902.4569   -114.20109   0.81656197   -113.38452    2128.5631    4.3011012    4.3011012    4.3011012    2128.5631    35837.073   -15745.747   -13705.637   -8036.9858    11031.975    4647.5566    79.568099 
   36500    975.41152   -114.26283   0.88257285   -113.38025    12400.277    4.2835342    4.2835342    4.2835342    12400.277     35753.71   -3479.7793    4926.9002    10089.947    2534.7463    10502.104    78.597135 
   36600    887.87737   -114.19052    0.8033701   -113.38715    -21026.98    4.3023306    4.3023306    4.3023306    -21026.98   -29374.807   -38213.736     4507.603    10010.407   -3703.3082   -12119.913    79.636349 
   36700    1021.2769   -114.30429   0.92407282   -113.38022   -18097.753    4.3031675    4.3031675    4.3031675   -18097.753   -16340.505   -25732.476   -12220.278   -4088.8429   -2957.8811    2623.1957    79.682832 
   36800    1099.3185   -114.36985   0.99468648   -113.37516    19148.723    4.2819889    4.2819889    4.2819889    19148.723    64889.787   -6338.5098   -1105.1092   -762.03954   -2375.2325    14899.056    78.512104 
   36900    833.92042   -114.14086   0.75454872   -113.38631     2321.405    4.3008272    4.3008272    4.3008272     2321.405    43152.695   -28998.908   -7189.5719    6231.5159   -7693.6826   -10978.579    79.552896 
   37000    936.69923   -114.23287   0.84754514   -113.38532   -6618.8029    4.2979787    4.2979787    4.2979787   -6618.8029    18328.883   -22338.388   -15846.904   -4773.3261   -5801.9308   -4112.9966    79.394932 
   37100    1208.3319   -114.47433    1.0933241   -113.38101    3474.7801     4.284635     4.284635     4.284635    3474.7801    10051.819     5704.132   -5331.6101   -4798.1531    5661.2091    17206.986    78.657743 
   37200    1301.2847   -114.56062    1.1774298   -113.38319   -9911.6466    4.3018814    4.3018814    4.3018814   -9911.6466   -3086.8458   -18098.827   -8549.2669     8528.278    4400.4629   -4586.4384    79.611407 
   37300    1095.5539   -114.37455   0.99128016   -113.38327    3198.5649    4.2974428    4.2974428    4.2974428    3198.5649    32728.557   -15637.979    -7494.884    15152.358    3891.3325   -4344.7843    79.365235 
   37400     913.6802   -114.20963   0.82671705   -113.38291      20979.3     4.286129     4.286129     4.286129      20979.3    57488.598    11815.888   -6366.5859    807.22846    8295.0969     21008.29    78.740058 
   37500    1094.3585   -114.37227   0.99019858   -113.38207    2861.2259    4.2980153    4.2980153    4.2980153    2861.2259    35077.394   -5985.5998   -20508.117   -8800.7055   -64.961835    5538.3676     79.39696 
   37600    1218.0865   -114.48283    1.1021503   -113.38068   -2592.6259    4.2939695    4.2939695    4.2939695   -2592.6259    5419.8538   -6658.3459   -6539.3855    3593.3568   -1858.6023    -13364.75    79.172956 
   37700    920.88157   -114.21915   0.83323299   -113.38591   -1571.4545    4.2870557    4.2870557    4.2870557   -1571.4545   -2743.5765    6133.1558   -8103.9428    6622.0899   -6743.0521    14839.223    78.791141 
   37800    889.52086    -114.1943   0.80485717   -113.38944   -10795.891    4.2966017    4.2966017    4.2966017   -10795.891    15125.863   -21778.238     -25735.3   -4555.3786   -672.72458    16726.593    79.318644 
   37900    965.91433   -114.25973   0.87397958   -113.38576    6283.8305    4.2920037    4.2920037    4.2920037    6283.8305    41477.284   -11064.278   -11561.515    5244.9639   -397.40502    -16648.95    79.064267 
   38000    719.00903   -114.03895   0.65057448   -113.38838    2593.7831    4.2916629    4.2916629    4.2916629    2593.7831    56635.675   -30567.846    -18286.48     17037.67    2355.6678    6604.0255    79.045437 
   38100    813.61346   -114.12446   0.73617455   -113.38828   -20003.363    4.2940871    4.2940871    4.2940871   -20003.363   -13494.791   -30993.471   -15521.826   -3854.5754    3870.6153     17153.44    79.179462 
   38200    1012.8114    -114.3017   0.91641301   -113.38529   -3240.7694    4.2905795    4.2905795    4.2905795   -3240.7694     5955.462   -4079.7855   -11597.985   -20097.339     5404.482   -11885.141    78.985591 
   38300    749.44329   -114.06427   0.67811204   -113.38615   -5643.2029    4.2970669    4.2970669    4.2970669   -5643.2029    37879.745   -29341.246   -25468.108    13909.915   -2902.9437    5863.8223    79.344413 
   38400    635.89605   -113.96257   0.57537211   -113.38719    1244.8615    4.2869481    4.2869481    4.2869481    1244.8615    35727.417   -20581.899   -11410.934     18238.12    1135.7516    14747.295    78.785208 
   38500    845.71627   -114.15538   0.76522185   -113.39016   -7426.1902    4.2921861    4.2921861    4.2921861   -7426.1902   -18003.778     -884.666    -3390.126   -16587.441   -5756.3447   -5622.0505    79.074352 
   38600    879.41006   -114.18442    0.7957087   -113.38871   -18894.569    4.2959925    4.2959925    4.2959925   -18894.569   -22941.657   -18936.604   -14805.447   -9625.6285    -86.22751    3487.3649    79.284912 
   38700    770.00251   -114.08217   0.69671445   -113.38545    12433.619    4.2818395    4.2818395    4.2818395    12433.619     28955.53    5114.6657    3230.6623    20513.262    3308.0766    9094.9636    78.503886 
   38800    723.29542   -114.04596    0.6544529   -113.39151   -7694.2413      4.29743      4.29743      4.29743   -7694.2413   -2140.7489   -7769.2898   -13172.685   -8784.7084   -1837.8286   -1389.0873    79.364529 
   38900    770.24211   -114.08574   0.69693125   -113.38881   -1066.4281    4.2907883    4.2907883    4.2907883   -1066.4281     3631.438   -7785.4691      954.747   -16950.027     1364.806   -3775.8602    78.997121 
   39000    968.69133   -114.26336   0.87649227   -113.38687   -418.66967    4.2901973    4.2901973    4.2901973   -418.66967   -11606.907    13706.029   -3355.1304    8200.9227     1208.081    8228.5778    78.964484 
   39100    812.18109   -114.12126   0.73487852   -113.38639    2770.4508    4.2979981    4.2979981    4.2979981    2770.4508    20246.372   -7911.3111   -4023.7088    8977.3479   -7108.4031    2945.7588    79.396008 
   39200    485.69549   -113.82962   0.43946749   -113.39016    13837.634    4.2864649    4.2864649    4.2864649    13837.634     22070.86     11744.97    7697.0716   -18350.531   -6196.4248   -5006.4278    78.758568 
   39300    720.62988   -114.04374   0.65204106    -113.3917   -10641.741     4.294486     4.294486     4.294486   -10641.741   -26785.705   -1386.4014   -3753.1176   -4699.6605   -80.653533    9592.2723    79.201531 
   39400    1235.9822   -114.50232    1.1183426   -113.38398    415.21744    4.2913296    4.2913296    4.2913296    415.21744     1814.582   -9379.9417    8811.0119   -100.74438    3204.0563    1539.5602     79.02702 
   39500    620.99174   -113.95557   0.56188638   -113.39368    12493.235    4.2860624    4.2860624    4.2860624    12493.235    15832.662    21883.074   -236.03096   -8506.0994   -437.75385   -6629.4057    78.736386 
   39600    425.64573   -113.78246    0.3851332   -113.39732   -6470.9729    4.2979795    4.2979795    4.2979795   -6470.9729    18790.561   -14755.864   -23447.615   -16438.404    74.669468    2115.1619    79.394975 
   39700    1284.5014   -114.54526    1.1622438   -113.38302    -7430.411    4.2939758    4.2939758    4.2939758    -7430.411    5017.7407   -21710.742    -5598.232    6137.2836    92.805789     923.7544    79.173303 
   39800     1143.012   -114.41839    1.0342212   -113.38417    809.70559    4.2860532    4.2860532    4.2860532    809.70559    14902.499   -861.09061   -11612.291    946.51718   -10887.919   -4571.9068     78.73588 
   39900    588.30214   -113.92665   0.53230814   -113.39434   -15207.506    4.2988847    4.2988847    4.2988847   -15207.506    2556.4087   -20328.253   -27850.674   -14197.899    1980.6942   -3400.4243    79.445149 
   40000    1028.3031   -114.31851   0.93043029   -113.38808    8229.9508    4.2906624    4.2906624    4.2906624    8229.9508    36375.379   -18328.664     6643.137   -11573.859    6983.1558    6945.7104    78.990165 
   40100    1260.3867   -114.52387    1.1404244   -113.38344    7570.8463    4.2900889    4.2900889    4.2900889    7570.8463    22141.808   -3976.0928    4546.8238    10817.376    6529.4429   -2936.5705    78.958496 
   40200    884.15799   -114.19026   0.80000473   -113.39026   -17130.585    4.2978113    4.2978113    4.2978113   -17130.585   -20345.806   -18903.969   -12141.981   -15645.577   -2173.7557   -2050.6908    79.385656 
   40300    1024.7977   -114.31501   0.92725848   -113.38775    15117.102    4.2830697    4.2830697    4.2830697    15117.102    24593.441    4981.5879    15776.277   -6827.6719   -9593.9501    7486.5138     78.57157 
   40400    1062.4866   -114.35256   0.96136018    -113.3912    12807.251     4.299178     4.299178     4.299178    12807.251    44291.682   -5142.1378   -727.79176    18018.571   -8914.5549   -792.75569    79.461415 
   40500    1016.6878   -114.30437   0.91992045   -113.38445    2978.5655    4.3021322    4.3021322    4.3021322    2978.5655     25261.02   -6767.9222   -9557.4014    6433.6533   -7009.2912    1832.6322    79.625329 
   40600    1055.7611   -114.33385   0.95527486   -113.37857    7425.6611    4.2880783    4.2880783    4.2880783    7425.6611   -2051.4337    10887.868    13440.549   -16102.691    2292.5789    5751.3439    78.847538 
   40700    986.92015   -114.27478   0.89298609    -113.3818   -2262.0849     4.295702     4.295702     4.295702   -2262.0849    7168.5962   -19914.227     5959.376    5780.9927    11202.281    -1479.982    79.268827 
   40800    882.09775   -114.18095   0.79814058   -113.38281    5546.6312    4.2964911    4.2964911    4.2964911    5546.6312    47691.143   -21600.643   -9450.6067     8665.446    3347.8642   -3178.2422     79.31252 
   40900    996.59727   -114.28482   0.90174215   -113.38308   -5303.7692    4.2940951    4.2940951    4.2940951   -5303.7692    13169.012   -14374.979    -14705.34   -12637.052   -3332.6481   -1891.5312    79.179906 
   41000    869.00874   -114.17212   0.78629737   -113.38583   -15882.493    4.2916926    4.2916926    4.2916926   -15882.493   -24001.989   -23590.033   -55.457384    6956.4505   -6891.0147   -361.53741    79.047076 
   41100    798.21544   -114.11066    0.7222421   -113.38842   -3986.5926    4.2919309    4.2919309    4.2919309   -3986.5926    11367.358   -23298.554   -28.581673    26263.061   -4287.3642   -9759.6959    79.060244 
   41200     810.8159   -114.12007   0.73364327   -113.38642   -5257.3921     4.301108     4.301108     4.301108   -5257.3921    19510.484   -8160.8172   -27121.843   -12864.545    -380.3539   -1947.1397    79.568475 
   41300    736.03234   -114.05042   0.66597753   -113.38444   -8.2005656    4.2922105    4.2922105    4.2922105   -8.2005656    11565.939   -2499.7691   -9090.7719   -12641.466   -3571.3237    5011.5429    79.075697 
   41400    687.38493   -114.00871   0.62196033   -113.38675    4722.3948    4.2876438    4.2876438    4.2876438    4722.3948   -18304.814    17622.349    14849.649    21352.227    961.04021   -8351.3254    78.823568 
   41500    912.16398   -114.21149   0.82534514   -113.38614   -16226.663    4.3051479    4.3051479    4.3051479   -16226.663   -11298.585   -14783.901   -22597.503    12297.796    4709.7576    7300.8718    79.792899 
   41600     990.6059   -114.27816   0.89632103   -113.38184    6442.5068    4.2920797    4.2920797    4.2920797    6442.5068    21571.247    8752.3947   -10996.122   -5921.4251   -3912.9553    13861.524    79.068471 
   41700    616.29404   -113.94277    0.5576358   -113.38514    16670.255     4.284353     4.284353     4.284353    16670.255    32896.334   -8542.0741    25656.506    15115.937    -7181.779   -4457.8589    78.642215 
   41800    855.94142   -114.16301   0.77447379   -113.38853   -27793.312    4.3035235    4.3035235    4.3035235   -27793.312     -30573.2     -38781.1   -14025.636    19355.253   -7083.9131    1206.7484    79.702609 
   41900    1121.1294   -114.39904    1.0144214   -113.38462   -3583.3194    4.2897226    4.2897226    4.2897226   -3583.3194    3493.9208   -4267.3212   -9976.5578   -12930.948    2289.1332    7948.8628    78.938271 
   42000      782.082   -114.09532   0.70764423   -113.38768    17406.608    4.2870871    4.2870871    4.2870871    17406.608    37179.697   -1131.3192    16171.448    9030.4567   -404.11199   -4126.8068     78.79287 
   42100    560.70944   -113.90196   0.50734169   -113.39462    -10895.79    4.3042305    4.3042305    4.3042305    -10895.79     20568.09   -32407.227   -20848.235    24359.653    1637.1649   -3229.2145    79.741897 
   42200    842.59355   -114.14889   0.76239635   -113.38649     7476.676    4.2926581    4.2926581    4.2926581     7476.676    32986.198    7927.0105    -18483.18    2940.1379    3985.9849    11407.055    79.100437 
   42300    1140.4299   -114.41378     1.031885   -113.38189   -1113.9272    4.2929537    4.2929537    4.2929537   -1113.9272   -9149.8014    11944.977   -6136.9576   -722.28566   -3384.4506   -1473.5755    79.116779 
   42400    607.59798   -113.94066   0.54976742   -113.39089    2772.8654    4.2958626    4.2958626    4.2958626    2772.8654     33710.03    -7757.065   -17634.368    5344.9968   -10605.037   -5083.6476    79.277719 
   42500    611.80855   -113.94911   0.55357723   -113.39553    2726.3042    4.2921966    4.2921966    4.2921966    2726.3042     44203.23   -13182.212   -22842.106    8262.5534   -263.03544    13150.081    79.074932 
   42600    1163.9346   -114.44171    1.0531525   -113.38856    3375.7012    4.2894548    4.2894548    4.2894548    3375.7012    35819.815   -8542.8468   -17149.865   -4286.8009   -673.11926    8487.6353    78.923491 
   42700    1132.1661   -114.41608    1.0244077   -113.39167    -14358.14    4.2987843    4.2987843    4.2987843    -14358.14   -5592.3098   -8533.1634   -28948.946    12172.952   -2346.1437   -3027.1875    79.439584 
   42800     763.3381   -114.08358   0.69068435   -113.39289   -8173.1212    4.2952792    4.2952792    4.2952792   -8173.1212    30468.481   -22765.145   -32222.699    11511.936    1149.6477    10693.613    79.245426 
   42900    924.26164   -114.22551   0.83629135   -113.38922    15256.946    4.2876545    4.2876545    4.2876545    15256.946    58236.598    3516.1111    -15981.87   -6592.9714    1112.8124    8370.6037     78.82416 
   43000    1246.9643   -114.51532    1.1282795   -113.38704   -6686.7329    4.2993141    4.2993141    4.2993141   -6686.7329   -3095.8385    5746.7552   -22711.115   -12068.879   -7378.2728   -2868.5093    79.468959 
   43100     1112.366    -114.3934    1.0064921   -113.38691   -8701.8418    4.2962809    4.2962809    4.2962809   -8701.8418     9559.296    -2769.465   -32895.357     13533.83   -13288.187    7560.9248    79.300879 
   43200    1064.3201   -114.35161   0.96301917   -113.38859    395.81426    4.2875079    4.2875079    4.2875079    395.81426    37361.417   -18897.681   -17276.292    4731.1427    3797.7783    3672.7794    78.816074 
   43300     1103.231   -114.39001   0.99822663   -113.39178    5173.1894    4.2889144    4.2889144    4.2889144    5173.1894    31323.706   -14269.013   -1535.1244   -15226.938    5557.2588   -4077.1188    78.893667 
   43400    966.87254   -114.26874    0.8748466    -113.3939    -5692.243    4.3001418    4.3001418    4.3001418    -5692.243    11149.066   -13451.878   -14773.918   -14569.399     3115.034    5750.0724    79.514864 
   43500    1189.1532   -114.46534    1.0759708   -113.38937   -5951.1823    4.2916288    4.2916288    4.2916288   -5951.1823     13325.63   -17856.016   -13323.161    11157.824   -2683.1501    13916.269     79.04355 
   43600    1073.9412   -114.36234   0.97172453   -113.39062    7460.8148    4.2863052    4.2863052    4.2863052    7460.8148     20421.15   -3726.5014     5687.796    -4702.914    5525.5576    1051.5417    78.749766 
   43700    707.38655   -114.03411   0.64005822   -113.39405   -8528.8969    4.3024149    4.3024149    4.3024149   -8528.8969    4596.5358   -19235.717   -10947.509   -13831.077   -8280.3417    842.68494    79.641031 
   43800    1018.2414   -114.30842   0.92132619    -113.3871    2015.9636    4.2926153    4.2926153    4.2926153    2015.9636    32373.497    -14435.41   -11890.196     779.2501      -7930.9    14334.302    79.098073 
   43900    1149.9003   -114.42524    1.0404539   -113.38479    6253.9809    4.2872922    4.2872922    4.2872922    6253.9809    9990.8947    189.97981    8581.0681   -11501.953    2956.3309    1904.4608     78.80418 
   44000    793.63668   -114.10922   0.71809915   -113.39112   -4891.0153    4.2935863    4.2935863    4.2935863   -4891.0153    434.70691    -16376.86    1269.1068   -14346.788    15050.403   -2114.5313    79.151762 
   44100    635.08808   -113.96679   0.57464104   -113.39215    9031.5991    4.2956094    4.2956094    4.2956094    9031.5991     36280.34    5413.2665    -14598.81   -1221.7418   -1180.0607    11606.962    79.263704 
   44200    1070.4509   -114.35277    0.9685665    -113.3842    3464.1287     4.294662     4.294662     4.294662    3464.1287    20901.208    4465.7553   -14974.577      4464.04   -9130.1081    1557.7641    79.211271 
   44300    925.65195   -114.22417   0.83754934   -113.38662     6204.057    4.2835155    4.2835155    4.2835155     6204.057    6152.7321    -86.62883    12546.068   -20131.564    8110.0385   -2195.5163    78.596105 
   44400    427.84178   -113.78404   0.38712023   -113.39692    -2353.372    4.2970133    4.2970133    4.2970133    -2353.372   -385.06661    14288.093   -20963.142   -9466.7896    8969.7746    8695.4196    79.341441 
   44500    814.55896    -114.1197   0.73703006   -113.38267   -6952.2838     4.304333     4.304333     4.304333   -6952.2838    31049.919   -19405.159   -32501.611    4745.6692   -7366.6519    13149.874    79.747596 
   44600    936.73154   -114.22688   0.84757438   -113.37931      2337.29    4.2827721    4.2827721    4.2827721      2337.29   -3793.6636   -828.41279    11633.946    3360.7167    4835.5628    -907.1274    78.555195 
   44700     551.6189   -113.89124   0.49911637   -113.39212   -17008.878    4.2880565    4.2880565    4.2880565   -17008.878   -33308.099   -14010.343   -3708.1907   -17398.153    19916.329    2770.7994    78.846333 
   44800    614.27052    -113.9483   0.55580487   -113.39249   -7874.1601    4.3012011    4.3012011    4.3012011   -7874.1601    26223.957   -25989.069   -23857.368   -4467.5666   -3022.9751    15829.092    79.573643 
   44900    973.77671   -114.26707   0.88109363   -113.38598    18278.126    4.2844677    4.2844677    4.2844677    18278.126    37584.337    1383.8734    15866.168    2992.6979   -2840.7629   -6105.5065    78.648531 
   45000    633.13481   -113.96812   0.57287368   -113.39525   -3340.8518    4.2887976    4.2887976    4.2887976   -3340.8518     2493.822   -10025.737     -2490.64   -11012.806    11986.898   -1698.3978    78.887223 
   45100     605.3887   -113.94087   0.54776842    -113.3931   -17822.416    4.3030289    4.3030289    4.3030289   -17822.416   -7079.7963   -27209.321   -19178.129   -9819.9421    12955.321    9559.9209    79.675134 
   45200    1139.7931   -114.41199    1.0313087   -113.38068    21629.106    4.2846155    4.2846155    4.2846155    21629.106    38162.751    10413.033    16311.533    8759.1157   -4050.6313    3538.2794    78.656673 
   45300    889.23633   -114.18975   0.80459972   -113.38515    1779.3498     4.294522     4.294522     4.294522    1779.3498    27139.108   -4803.7946   -16997.265    4366.9581    10309.146   -1504.1631    79.203521 
   45400    697.58957   -114.01904    0.6311937   -113.38785   -16695.212    4.2991618    4.2991618    4.2991618   -16695.212   -20259.019    -20526.86   -9299.7578   -20300.078    18958.287    6628.9047    79.460516 
   45500    1293.9854   -114.54978    1.1708252   -113.37896    19304.828    4.2829378    4.2829378    4.2829378    19304.828    42162.666    6968.2265    8783.5928   -6025.2729   -8119.6786     3863.739     78.56431 
   45600    1400.5107   -114.64702    1.2672116    -113.3798   -11557.407    4.3018918    4.3018918    4.3018918   -11557.407     -2564.38   -7725.6011   -24382.239    3374.5332   -3438.8816   -8644.1583    79.611985 
   45700    795.21169   -114.10618   0.71952424   -113.38665    8736.7843    4.2887152    4.2887152    4.2887152    8736.7843    33410.398    -7648.492     448.4465   -17341.606    12380.566    11438.162    78.882671 
   45800    1062.1918   -114.35023    0.9610935   -113.38913    4474.3043    4.2869603    4.2869603    4.2869603    4474.3043    12226.896    2858.1268   -1662.1094   -12227.958    7534.4319    5900.0811     78.78588 
   45900    1287.6595   -114.54992    1.1651013   -113.38482     3508.657    4.2953748    4.2953748    4.2953748     3508.657    19129.603    13164.548    -21768.18    10321.296   -3966.2095   -7125.3402    79.250716 
   46000    1025.7936   -114.31809   0.92815965   -113.38993    7163.2882    4.2872351    4.2872351    4.2872351    7163.2882    13136.925   -2981.1374    11334.077   -10139.301    5409.3589    730.43665    78.801028 
   46100     589.3172   -113.93009   0.53322659   -113.39686   -10720.433    4.2936875    4.2936875    4.2936875   -10720.433   -6644.5302   -10639.929    -14876.84   -18823.021    8368.8617    8541.7035     79.15736 
   46200    948.05498   -114.24615   0.85782007   -113.38833    7629.0709    4.2890895    4.2890895    4.2890895    7629.0709    24674.239    8084.2667   -9871.2931   -1752.2241   -3437.0325    225.55497    78.903331 
   46300     1099.025   -114.37941    0.9944209   -113.38499   -376.20065    4.2943492    4.2943492    4.2943492   -376.20065    12317.282   -6243.2132   -7202.6709    1564.6244   -8794.1614   -7383.4896    79.193964 
   46400    576.62517   -113.90777   0.52174257   -113.38603   -11871.987    4.2985611    4.2985611    4.2985611   -11871.987   -12201.417   -18609.915   -4804.6295   -20406.961    14391.116    13844.528     79.42721 
   46500     767.9064   -114.07809   0.69481785   -113.38327    983.06143     4.285243     4.285243     4.285243    983.06143    12396.522    -3283.042   -6164.2953   -1483.3007   -2633.7454   -1517.6343    78.691236 
   46600     896.8459   -114.19342   0.81148502   -113.38193    13332.704    4.2841429    4.2841429    4.2841429    13332.704    33430.255    7673.9181   -1106.0615    3326.1401   -7089.8958   -8734.9862    78.630644 
   46700    535.02646   -113.87283   0.48410318   -113.38873   -15666.432    4.2999932    4.2999932    4.2999932   -15666.432   -8335.0006   -19667.326    -18996.97   -16906.361    5419.1107     19486.99    79.506624 
   46800    582.87945   -113.91547   0.52740158   -113.38807   -19137.249    4.2935261    4.2935261    4.2935261   -19137.249   -34106.458   -15559.092   -7746.1974   -19944.002    9957.3897    5257.6968    79.148434 
   46900    967.75141   -114.25579   0.87564181   -113.38014    14207.698    4.2752433    4.2752433    4.2752433    14207.698    13008.097    20739.149    8875.8498     5338.282    -3640.222   -7120.2954    78.141637 
   47000    688.84429   -114.01363   0.62328079   -113.39035   -16311.798    4.2995491    4.2995491    4.2995491   -16311.798    -6431.147   -25390.057   -17114.191   -2745.1183   -6129.4787    12810.398    79.481991 
   47100    543.29445   -113.88332   0.49158424   -113.39173   -28133.522    4.2978788    4.2978788    4.2978788   -28133.522   -28268.359    -38770.44   -17361.768    -27378.08    12257.975    16244.823    79.389396 
   47200    956.36082    -114.2471   0.86533537   -113.38177    30168.616    4.2710321    4.2710321    4.2710321    30168.616    25463.735    23329.375    41712.738   -1002.1079    1421.0575    -5441.463    77.910951 
   47300    1101.1533   -114.38338   0.99634661   -113.38704   -3914.7667    4.2983599    4.2983599    4.2983599   -3914.7667     11900.56   -11869.726   -11775.135    2451.2994   -4841.1431   -1572.4926    79.416061 
   47400     736.0829   -114.05479   0.66602328   -113.38877   -16456.929    4.2994965    4.2994965    4.2994965   -16456.929   -24732.114   -22162.059   -2476.6139   -15107.287   -2161.1721    14869.489    79.479074 
   47500    846.54535   -114.14855   0.76597203   -113.38258    22965.154    4.2795335    4.2795335    4.2795335    22965.154     15040.51    15763.635    38091.316   -11831.615    9962.1435    3275.7121    78.377116 
   47600    1502.9354   -114.73829    1.3598875   -113.37841   -711.85518    4.2939121    4.2939121    4.2939121   -711.85518    11642.918    4280.0622   -18058.546    7006.0224    9014.7341    1924.8369    79.169779 
   47700    1002.9609    -114.2946   0.90750006    -113.3871    3302.3927    4.2939794    4.2939794    4.2939794    3302.3927    3410.6095   -8138.2802    14634.849    -9035.651    999.83683    12133.788    79.173505 
   47800    797.49009   -114.11112    0.7215858   -113.38953   -2177.6302    4.2895603    4.2895603    4.2895603   -2177.6302   -5189.2132   -15617.379    14273.702   -22300.036     1652.831    10965.855    78.929315 
   47900    1299.7218   -114.56047    1.1760156   -113.38445     2326.963    4.2859908    4.2859908    4.2859908     2326.963    3107.7059    12599.404    -8726.221    6747.0442    7014.5308   -10359.676     78.73244 
   48000    1212.6707   -114.48338    1.0972499   -113.38613    9990.1626    4.2897315    4.2897315    4.2897315    9990.1626   -566.95328    4669.9872    25867.454   -9514.1957   -3154.3435   -1208.3702    78.938767 
   48100    838.57585   -114.14683   0.75876105   -113.38807   -20686.756    4.3010929    4.3010929    4.3010929   -20686.756   -18496.737   -43124.662   -438.87061   -25927.761    3621.1999    14634.916    79.567638 
   48200    966.09968   -114.25823   0.87414729   -113.38408    1025.6125    4.2796235    4.2796235    4.2796235    1025.6125    2101.1674    2388.2282   -1412.5582    4360.3369     21920.06    335.11215    78.382066 
   48300    989.50278   -114.28214   0.89532291   -113.38682    12213.209    4.2830296    4.2830296    4.2830296    12213.209    7920.0042    2953.8294    25765.794   -341.90237    4259.4731   -6232.4232    78.569363 
   48400    876.79808   -114.17861   0.79334533   -113.38527   -24179.382    4.3042286    4.3042286    4.3042286   -24179.382   -18004.422   -41991.379   -12542.344   -15948.632   -7909.4817    9677.7977     79.74179 
   48500    689.50512   -114.00739   0.62387872   -113.38351    6229.0561    4.2823398    4.2823398    4.2823398    6229.0561    20070.465   -6590.1949    5206.8978   -8499.3039    3570.4158    11848.591    78.531405 
   48600    737.51812   -114.05065   0.66732189   -113.38333    4664.4698     4.283273     4.283273     4.283273    4664.4698    10409.144   -2800.4941    6384.7593    12014.578    13388.407   -14730.491    78.582758 
   48700    823.15245   -114.12787   0.74480564   -113.38306   -17714.882    4.2988358    4.2988358    4.2988358   -17714.882   -5246.5381   -25644.707   -22253.402   -8152.8175    202.30492    1034.8153    79.442438 
   48800    600.11539   -113.92879   0.54299702   -113.38579    15991.618     4.284107     4.284107     4.284107    15991.618    52429.602   -9059.9754     4605.227   -15738.478     1778.671    21279.439    78.628669 
   48900    791.32384   -114.10498   0.71600644   -113.38898    -10934.79    4.2850234    4.2850234    4.2850234    -10934.79    -14822.31   -10599.061   -7382.9984    1582.1781    13941.462   -11321.318    78.679139 
   49000    768.05461   -114.08448   0.69495195   -113.38953   -12792.029    4.2951661    4.2951661    4.2951661   -12792.029    11936.783   -21010.307   -29302.562    4134.2932    5707.7033   -10098.355    79.239166 
   49100    751.36029   -114.06704   0.67984658    -113.3872   -8155.1062    4.2922843    4.2922843    4.2922843   -8155.1062    11149.367   -17409.842   -18204.844   -10639.543   -1848.3643      21509.1    79.079779 
   49200    850.76036   -114.15426   0.76978585   -113.38448    4737.6753    4.2809732    4.2809732    4.2809732    4737.6753     13177.99     -5969.46    7004.4956   -9168.8753    635.39199    1572.8099    78.456245 
   49300    1013.9501    -114.3039   0.91744338   -113.38645   -6831.3148    4.2917417    4.2917417    4.2917417   -6831.3148    3202.2634   -2800.0355   -20896.172    4878.5943    10864.312   -12127.587    79.049793 
   49400    889.63514   -114.19276   0.80496057    -113.3878   -18534.603    4.2976538    4.2976538    4.2976538   -18534.603    -3287.925   -30956.579   -21359.306    -4374.806    1944.4201    15311.337    79.376928 
   49500    977.06623   -114.27034   0.88407006   -113.38627    9725.7808    4.2769783    4.2769783    4.2769783    9725.7808    4778.1429   -10672.279    35071.478   -19763.264    3482.1995     15055.82    78.236812 
   49600    1215.1981   -114.48862    1.0995368   -113.38908    10565.791    4.2876182    4.2876182    4.2876182    10565.791    22004.327    4384.0335    5309.0122    1446.4534    3864.1384   -14134.454    78.822157 
   49700    1114.7992   -114.39347    1.0086937   -113.38478   -6640.0532    4.3019124    4.3019124    4.3019124   -6640.0532   -7190.8127   -27428.025    14698.678   -5010.5836   -2188.1665   -892.88987    79.613129 
   49800    927.29287   -114.22725   0.83903408   -113.38822    10146.015     4.277977     4.277977     4.277977    10146.015    21862.979   -23233.207    31808.275   -20047.392   -660.50416    25385.665    78.291632 
   49900    1004.1778   -114.29869    0.9086012   -113.39009    17718.387    4.2808857    4.2808857    4.2808857    17718.387    16882.387    2496.8422    33775.931    436.19393     10434.85     2619.222    78.451437 
   50000     1186.954    -114.4571    1.0739809   -113.38311    -15630.95    4.3056795    4.3056795    4.3056795    -15630.95   -22283.181   -15752.552   -8857.1173     4707.199    6890.5426   -10417.152    79.822456 
   50100       812.58   -114.12323   0.73523946   -113.38799    1210.4251     4.281658     4.281658     4.281658    1210.4251    13003.492    -22510.03    13137.813   -14425.565   -1838.9511    14564.525    78.493903 
   50200    752.63066   -114.06664   0.68099604   -113.38565    1136.2252    4.2728301    4.2728301    4.2728301    1136.2252    13234.716   -22822.386    12996.346   -10277.968    318.68322    19591.768    78.009386 
   50300    814.94293   -114.12424   0.73737749   -113.38686   -27230.665    4.3050485    4.3050485    4.3050485   -27230.665   -45827.067    -27995.19   -7869.7366    6430.1127    16298.618   -7746.1441    79.787371 
   50400    786.88271   -114.10044   0.71198801   -113.38846   -3111.6314    4.2852542    4.2852542    4.2852542   -3111.6314   -3237.8768   -10255.543    4158.5259   -6303.4853    8543.8768    4093.0137    78.691853 
   50500    614.85531   -113.94142   0.55633401   -113.38509    16290.584    4.2717308    4.2717308    4.2717308    16290.584    28777.071   -21490.484    41585.164   -13411.812   -1306.0525    20575.907    77.949192 
   50600     681.7029    -114.0029   0.61681911   -113.38608    -33812.74    4.3024553    4.3024553    4.3024553    -33812.74   -39108.769   -37087.638   -25241.813    9352.6535    14174.085    1708.9698    79.643271 
   50700    656.61295   -113.97957   0.59411719   -113.38545     3232.929    4.2839347    4.2839347    4.2839347     3232.929   -11082.305   -1838.3716    22619.464    4484.2038    -4755.282   -1358.5341    78.619183 
   50800    734.53631   -114.04906   0.66462389   -113.38443    9986.5827    4.2814321    4.2814321    4.2814321    9986.5827    35876.089   -9718.6813    3802.3406   -5269.8842   -2573.0603    24120.673    78.481482 
   50900    836.23481   -114.14133   0.75664283   -113.38469   -16405.985    4.2946522    4.2946522    4.2946522   -16405.985   -6691.4371   -39376.901   -3149.6183    8652.3193   -345.86487    13342.546    79.210728 
   51000    654.48518   -113.97796   0.59219195   -113.38577    6838.4006    4.2841912    4.2841912    4.2841912    6838.4006    1290.4921   -533.04522    19757.755    5226.2994    2885.2365    -6600.408    78.633307 
   51100    857.43168   -114.16305    0.7758222   -113.38723    -17013.11    4.2929187    4.2929187    4.2929187    -17013.11    5944.7024   -21272.293   -35711.739    1360.9846    230.98594    17202.315    79.114844 
   51200    909.65238   -114.20885   0.82307259   -113.38578    12935.582    4.2838808    4.2838808    4.2838808    12935.582    37786.789   -9669.7053    10689.663   -2306.4154   -446.36786    21718.539    78.616218 
   51300     1016.162   -114.30695   0.91944469   -113.38751    4587.1364    4.2821865    4.2821865    4.2821865    4587.1364   -3372.9588    29.186878    17105.181    3572.7398    7999.6017   -6144.8522    78.522973 
   51400    772.18385   -114.09116   0.69868817   -113.39247   -17244.626    4.2968839    4.2968839    4.2968839   -17244.626   -20198.939   -16892.356   -14642.582    5309.8023   -3092.9398    12884.225    79.334275 
   51500    961.21677   -114.25893   0.86972913    -113.3892    11370.693    4.2842305    4.2842305    4.2842305    11370.693    32897.081   -4480.9649    5695.9626   -3979.9782   -4977.2984    23543.324     78.63547 
   51600    1296.3942   -114.55787    1.1730047   -113.38487     2289.532    4.2856864    4.2856864    4.2856864     2289.532   -1246.1409    10001.789   -1887.0525    14064.585    1782.5623    -5195.661    78.715666 
   51700    935.63987   -114.23528   0.84658662   -113.38869    3950.6374    4.2896935    4.2896935    4.2896935    3950.6374    -4915.484     6141.276     10626.12     5835.214     2491.445    222.74773    78.936665 
   51800    993.32271   -114.28815   0.89877926   -113.38937    4889.9042    4.2864953    4.2864953    4.2864953    4889.9042    10038.353    10228.089   -5596.7286   -1808.5058   -3684.4863    23771.403    78.760246 
   51900     1126.229   -114.40623    1.0190357    -113.3872    4042.6647    4.2893181    4.2893181    4.2893181    4042.6647    15081.938   -758.32478    -2195.619    5744.6885   -1767.2276    158.64864    78.915944 
   52000    1128.4075   -114.40756    1.0210068   -113.38656    4365.2629     4.284254     4.284254     4.284254    4365.2629    1335.9182   -5738.0457    17497.916    6939.5692    5315.1445   -17682.488    78.636761 
   52100    1130.1208   -114.41126    1.0225571    -113.3887    -7311.193    4.2899493    4.2899493    4.2899493    -7311.193    2731.3377    2470.3444   -27135.261    1364.9409   -3411.9536    20544.482    78.950792 
   52200    1109.2746   -114.38979     1.003695   -113.38609   -4349.5509    4.2901391    4.2901391    4.2901391   -4349.5509    7531.4957   -17588.828   -2991.3202   -7048.3081   -1478.2915    23434.425    78.961268 
   52300    925.91042     -114.225   0.83778321   -113.38722   -2508.9146    4.2822036    4.2822036    4.2822036   -2508.9146     9186.579   -23930.145    7216.8221    15314.985   -3562.0356   -27181.027    78.523911 
   52400    866.18903   -114.17625   0.78374604   -113.39251   -680.90354    4.2904493    4.2904493    4.2904493   -680.90354    1287.2479    3281.6453   -6611.6039     11596.11     2357.391    -7395.263      78.9784 
   52500    1373.6297   -114.62795     1.242889   -113.38506   -2875.0645    4.2895315    4.2895315    4.2895315   -2875.0645    2528.8009    3486.3947   -14640.389   -7206.0796    981.84175    10186.444    78.927725 
   52600    736.70158   -114.05953   0.66658307   -113.39295     536.8173    4.2844111    4.2844111    4.2844111     536.8173    11354.421   -18320.862    8576.8938    10396.411    215.13791   -11172.279    78.645412 
   52700    561.72703   -113.90448   0.50826242   -113.39622   -17033.784    4.2884683    4.2884683    4.2884683   -17033.784   -6860.6796   -32727.685   -11512.988    5092.9149   -3290.9349   -24156.828    78.869049 
   52800    1097.8541   -114.38093   0.99336145   -113.38756    5776.7618    4.2897664    4.2897664    4.2897664    5776.7618     3305.667     6456.499    7568.1194   -6111.9739    -8979.603     9659.003    78.940689 
   52900    1065.9127   -114.34951   0.96446018   -113.38505   -1283.2205    4.2898716    4.2898716    4.2898716   -1283.2205    2937.8021   -11273.661    4486.1976    2239.6677    3464.7616   -3726.3745    78.946503 
   53000    449.96222   -113.80294   0.40713528    -113.3958   -13453.191    4.2843715    4.2843715    4.2843715   -13453.191   -8024.5302   -36672.648    4337.6043    11479.638    1693.5731   -28098.921    78.643231 
   53100    665.37794   -113.99796   0.60204794   -113.39592    5706.0014    4.2860169    4.2860169    4.2860169    5706.0014   -2398.6345    904.02628    18612.612    1601.2041    4681.8041    1447.7869    78.733875 
   53200    1169.1888   -114.44224    1.0579066   -113.38433    2540.1338    4.2950513    4.2950513    4.2950513    2540.1338    21313.539   -759.86344   -12933.274   -4377.0857   -4369.4516    5678.3932    79.232813 
   53300    823.31691   -114.13384   0.74495444   -113.38889    4574.9864    4.2829662    4.2829662    4.2829662    4574.9864   -305.49977   -7604.5467    21635.006    11522.547    67.624916     -9437.84    78.565875 
   53400     668.7834   -113.99633   0.60512928    -113.3912    804.44385     4.285093     4.285093     4.285093    804.44385   -2348.1421   -9731.8657    14493.339    3726.9296   -545.45536   -17955.071    78.682971 
   53500    996.19304   -114.28637    0.9013764     -113.385   -4108.7254    4.2969815    4.2969815    4.2969815   -4108.7254   -2494.6324    1518.3816   -11349.925   -11534.879   -2608.5686    14018.588    79.339683 
   53600    1139.8757    -114.4152    1.0313835   -113.38382     12004.69    4.2783209    4.2783209    4.2783209     12004.69    5514.4451    14762.328    15737.297    8427.4854    2495.4251     18300.38    78.310514 
   53700    864.05536    -114.1732   0.78181545   -113.39138    2752.4681    4.2849161    4.2849161    4.2849161    2752.4681    -12463.27    1671.8674    19048.807    15032.937   -1733.4083   -20899.249    78.673225 
   53800    896.01012   -114.19864   0.81072878   -113.38791   -17528.462    4.2971562    4.2971562    4.2971562   -17528.462   -19109.419    -23033.14   -10442.828   -6332.4782    7279.9789    3900.4087    79.349361 
   53900    913.01661   -114.21162   0.82611661   -113.38551    11915.228    4.2818178    4.2818178    4.2818178    11915.228    33370.853    -952.0244    3326.8555   -5466.6909   -1384.3858    23637.907    78.502692 
   54000    1033.5197    -114.3207   0.93515033   -113.38555    2873.8404    4.2878442    4.2878442    4.2878442    2873.8404   -6241.3165    7465.2328    7397.6049     4936.174    4787.1016   -5097.8888    78.834622 
   54100    882.30185   -114.18628   0.79832526   -113.38796   -4744.6657    4.2897762    4.2897762    4.2897762   -4744.6657   -7011.2317    1757.8159   -8980.5813    1383.1506   -2712.1635   -5386.2382    78.941235 
   54200    446.25781   -113.79716   0.40378345   -113.39337   -1560.2417    4.2876392    4.2876392    4.2876392   -1560.2417    17576.906   -18927.856   -3329.7756   -15869.264    381.49297    31748.957    78.823316 
   54300    1023.9597   -114.31255   0.92650026   -113.38605   -10962.581    4.2889729    4.2889729    4.2889729   -10962.581    3633.6444    -18886.56   -17634.827    111.37813   -379.57768    15484.578    78.896893 
   54400    1053.7736   -114.33732   0.95347654   -113.38384    14790.348    4.2829343    4.2829343    4.2829343    14790.348    7990.1129     22551.48     13829.45    9628.6978   -4515.5612   -13958.336    78.564117 
   54500    398.38716   -113.75568   0.36046907   -113.39521   -25556.409    4.2959353    4.2959353    4.2959353   -25556.409    4322.6226   -52807.079    -28184.77   -8442.2731    3044.4012     31165.18    79.281743 
   54600    437.94478   -113.79119   0.39626164   -113.39493   -6008.5196    4.2865357    4.2865357    4.2865357   -6008.5196    28662.211   -33547.636   -13140.133    -7520.051   -2417.0373    24578.785    78.762469 
   54700    1069.8462   -114.35079   0.96801931   -113.38277     22336.78    4.2810572    4.2810572    4.2810572     22336.78    21115.724    26461.996     19432.62   -10075.784    2940.8319   -15269.005    78.460864 
   54800    739.60622   -114.05685   0.66921125   -113.38764   -15001.504    4.2983795    4.2983795    4.2983795   -15001.504    11735.117   -23910.078   -32829.551    1882.3305   -779.10252     29113.99    79.417143 
   54900    482.34136   -113.82678    0.4364326   -113.39035    -10654.55    4.2850378    4.2850378    4.2850378    -10654.55    13591.009   -30629.155   -14925.503    -12743.45    5572.3309    31775.139     78.67993 
   55000    937.52943   -114.23558   0.84829633   -113.38728    9882.3523    4.2804332    4.2804332    4.2804332    9882.3523     13898.51    3171.1135    12577.433   -2258.1753    1564.1978   -12565.934    78.426563 
   55100    1064.9073   -114.35026   0.96355048   -113.38671   -18113.059     4.299621     4.299621     4.299621   -18113.059   -9741.4063   -17740.568   -26857.203    10351.347    853.70947    9895.5005    79.485977 
   55200    944.84618   -114.24311   0.85491668   -113.38819    2124.6599     4.281849     4.281849     4.281849    2124.6599    9052.5188    9490.7478   -12169.287   -10124.659    -1694.337    25857.805     78.50441 
   55300    764.87365   -114.08382   0.69207375   -113.39175    6943.1291    4.2821426    4.2821426    4.2821426    6943.1291     14158.93   -6891.1348    13561.592   -16170.152    652.24676   -5064.3799    78.520559 
   55400    939.19064   -114.23611   0.84979943   -113.38631    -14483.55    4.2994617    4.2994617    4.2994617    -14483.55   -3365.2201   -24295.915   -15789.516   -2189.9505    2018.9477   -11203.744    79.477142 
   55500    1235.1304   -114.49788    1.1175719   -113.38031    9783.7064     4.281344     4.281344     4.281344    9783.7064    14930.018    18245.552   -3824.4501    6817.2888   -4457.0821    12794.308    78.476637 
   55600    1023.3984   -114.31252   0.92599235   -113.38653   -4785.1099    4.2865096    4.2865096    4.2865096   -4785.1099   -4520.7033   -14328.117    4493.4906   -24061.709    3031.2834    3242.0224    78.761032 
   55700    778.88936   -114.09299   0.70475546   -113.38824    -21647.95    4.2962443    4.2962443    4.2962443    -21647.95   -25987.665   -32028.546   -6927.6397    1163.9289   -1535.4751   -17333.502    79.298852 
   55800    1209.2183   -114.47558    1.0941261   -113.38146    5531.0359    4.2829655    4.2829655    4.2829655    5531.0359    9952.7445      11874.9   -5234.5373    15700.917    6062.4826    4255.3881    78.565832 
   55900    1159.4068   -114.43102    1.0490557   -113.38196   -5505.9998    4.2920441    4.2920441    4.2920441   -5505.9998   -9181.1271   -8190.7234     853.8512   -22807.468   -2183.7883    5922.9549    79.066502 
   56000    562.76137   -113.90048   0.50919831   -113.39129    491.07856    4.2881565    4.2881565    4.2881565    491.07856    13004.166   -6011.6026   -5519.3279   -12276.442    1302.2289   -10516.671    78.851846 
   56100    888.41514   -114.19434   0.80385669   -113.39048   -208.55097      4.28412      4.28412      4.28412   -208.55097    6871.8275   -11013.308     3515.828    17973.069   -4097.0232   -15101.834    78.629386 
   56200    1175.6235   -114.44728    1.0637289   -113.38355   -7824.0019    4.2956652    4.2956652    4.2956652   -7824.0019   -2554.4068   -12143.497   -8774.1018   -2475.2713   -6590.9464   -255.67499    79.266791 
   56300    859.13721   -114.16464   0.77736541   -113.38727   -6696.8191    4.2870192    4.2870192    4.2870192   -6696.8191    -9029.082   -14607.295      3545.92   -18094.711    2190.3772   -1627.1782    78.789124 
   56400    638.31004   -113.96734   0.57755634   -113.38978   -1715.0665    4.2836296    4.2836296    4.2836296   -1715.0665    19316.595   -27876.243     3414.449    7818.6783    3115.7243   -18701.939    78.602389 
   56500    925.27766   -114.22381   0.83721067    -113.3866    2901.7571    4.2911541    4.2911541    4.2911541    2901.7571    28970.016   -23260.307    2995.5625    12960.012    1693.6617     2687.238    79.017327 
   56600    959.55168   -114.25401   0.86822253   -113.38579    4575.7203      4.28874      4.28874      4.28874    4575.7203    16964.541    5896.0057   -9133.3863    -19750.93   -4462.5143    12957.279     78.88404 
   56700    728.02603   -114.04695   0.65873325   -113.38822    3658.8064     4.288187     4.288187     4.288187    3658.8064    6432.0264   -12021.488    16565.881   -4781.3668     3245.888   -12386.298    78.853531 
   56800    1059.7594   -114.34358   0.95889259   -113.38469   -5254.2464    4.2896803    4.2896803    4.2896803   -5254.2464    1991.9557   -9262.7351   -8491.9599    14199.047     -441.906   -1805.2418     78.93594 
   56900    958.66173   -114.25095   0.86741728   -113.38353    8675.6283    4.2897244    4.2897244    4.2897244    8675.6283    18887.879    7105.4359     33.57015    158.06007   -2873.5619    10784.732    78.938374 
   57000    1018.5524   -114.30475   0.92160762   -113.38314   -10925.001     4.292569     4.292569     4.292569   -10925.001   -16410.372   -6808.5992   -9556.0301   -4784.9936    2852.9712   -6133.6755    79.095515 
   57100    962.55557   -114.25271    0.8709405   -113.38177    12889.829    4.2822133    4.2822133    4.2822133    12889.829    16769.983    22979.242   -1079.7366    3547.9292   -633.64848   -5434.8132    78.524447 
   57200    948.54704   -114.24455    0.8582653   -113.38628    1803.0679    4.2923408    4.2923408    4.2923408    1803.0679    18306.239   -4697.9638   -8199.0709   -1852.4245    2430.8164    15143.615      79.0829 
   57300    941.47733   -114.23679   0.85186847   -113.38493   -12181.848    4.2947684    4.2947684    4.2947684   -12181.848    -24185.21    12376.326    -24736.66   -15767.128    876.73161    6950.0935    79.217158 
   57400    1018.3673   -114.30241   0.92144018   -113.38097    11879.201    4.2765792    4.2765792    4.2765792    11879.201   -5810.3912    28263.269    13184.725    3092.9196   -1161.1764   -8937.4766    78.214911 
   57500    1074.6947   -114.35952   0.97240631   -113.38712   -15099.597    4.2919385    4.2919385    4.2919385   -15099.597    3301.3557    -22628.39   -25971.755    7559.1698   -1259.5037     25128.28    79.060667 
   57600    847.52539    -114.1541   0.76685878   -113.38724   -1275.3274    4.2915401    4.2915401    4.2915401   -1275.3274    11255.767   -4908.0252   -10173.724   -7414.9608   -5235.8833    20624.212    79.038654 
   57700    1002.8948   -114.29056   0.90744031   -113.38312    4382.3387    4.2806266    4.2806266    4.2806266    4382.3387    3614.9666    21244.951   -11712.901    715.25992   -1223.4344   -14340.065    78.437191 
   57800    836.87388   -114.14434   0.75722107   -113.38712   -7997.5915    4.2902905    4.2902905    4.2902905   -7997.5915    7440.8568   -19863.282   -11570.349    2090.6731    1980.9007    14614.667    78.969627 
   57900    928.03002   -114.22624   0.83970107   -113.38654    4887.5313    4.2850982    4.2850982    4.2850982    4887.5313    35698.499   -7499.3427   -13536.563    2229.3538   -222.47732    21214.872    78.683261 
   58000    800.20775   -114.11165   0.72404479    -113.3876    2636.2408    4.2892313    4.2892313    4.2892313    2636.2408   -1386.9182    10206.487   -910.84641   -11255.374    2062.2085   -1289.9867    78.911157 
   58100    704.62096   -114.02576   0.63755585    -113.3882   -15134.854    4.2896265    4.2896265    4.2896265   -15134.854   -19013.053   -6622.5564   -19768.953   -3912.4671    2935.4211    5357.2642    78.932968 
   58200    838.43178   -114.14355   0.75863069   -113.38492    5801.2804    4.2787809    4.2787809    4.2787809    5801.2804    26863.345   -2109.1069   -7350.3969    3688.8989   -842.14874    25254.503    78.335777 
   58300    772.25819   -114.08747   0.69875544   -113.38871    1072.9333    4.2929888    4.2929888    4.2929888    1072.9333    16607.763   -19060.898    5671.9351   -3656.5854    2699.6349   -1304.3563    79.118723 
   58400    753.05422   -114.07269   0.68137928   -113.39131   -2911.3487    4.2851723    4.2851723    4.2851723   -2911.3487   -938.25461    8882.2367   -16678.028    2570.9059   -2299.0575    -2365.554    78.687343 
   58500    581.64054   -113.91761   0.52628059   -113.39133    14652.057    4.2814746    4.2814746    4.2814746    14652.057    31951.999    492.32932    11511.842   -1188.5479    846.92456    20370.869    78.483818 
   58600    1034.7995   -114.32052   0.93630835   -113.38421    -14669.69    4.2961766    4.2961766    4.2961766    -14669.69    18202.721   -39216.964   -22994.826     5109.241   -5562.7919     1395.422    79.295105 
   58700    847.43619   -114.15259   0.76677807   -113.38581    15282.689    4.2789763    4.2789763    4.2789763    15282.689    20620.642    11737.446    13489.979   -5410.1214   -1257.3817   -11114.183    78.346506 
   58800     799.5297   -114.11649   0.72343128   -113.39306   -1589.6273    4.2849661    4.2849661    4.2849661   -1589.6273     9936.241      3113.96   -17819.083   -4356.8258    1840.8072    12814.793    78.675983 
   58900    1056.9591    -114.3441   0.95635877   -113.38774   -10508.861    4.2924852    4.2924852    4.2924852   -10508.861    12446.248   -20351.398   -23621.431    2769.3222    5796.8308    12754.671    79.090881 
   59000    908.24269   -114.20902   0.82179707   -113.38723    14195.781    4.2805612    4.2805612    4.2805612    14195.781    38950.793   -2560.7815    6197.3333   -592.53646   -4162.3136    -19363.18    78.433595 
   59100    1029.0762   -114.31993   0.93112978    -113.3888   -10847.394    4.2894983    4.2894983    4.2894983   -10847.394   -3388.5885   -3154.1169   -25999.476    662.43176    2038.7315      3053.64    78.925895 
   59200     1075.166    -114.3579   0.97283283   -113.38507    445.94546    4.2878709    4.2878709    4.2878709    445.94546    8371.9134    14012.223     -21046.3   -1109.4437     7844.999    5447.9135    78.836097 
   59300     1046.631    -114.3337   0.94701374   -113.38668   -96.669287    4.2834836    4.2834836    4.2834836   -96.669287    16854.624   -12813.966   -4330.6665    15383.711   -3255.0331   -22507.257    78.594347 
   59400    973.86381   -114.27172   0.88117244   -113.39054    -20356.24    4.2906294    4.2906294    4.2906294    -20356.24   -25288.466   -12686.775   -23093.481    -5586.217   -4179.6394   -5981.3433    78.988347 
   59500    1095.8884   -114.37919   0.99158289    -113.3876    6524.9295    4.2828648    4.2828648    4.2828648    6524.9295    -11975.61    24213.915    7336.4828   -15582.014   -4364.3008    3754.6943    78.560291 
   59600    1187.5552   -114.46117    1.0745249   -113.38665   -7362.2676    4.2886078    4.2886078    4.2886078   -7362.2676    8766.5065   -9567.2957   -21286.013    10826.199    6380.7639   -16179.165    78.876748 
   59700    766.98323   -114.08662   0.69398255   -113.39264   -8783.2297    4.2874922    4.2874922    4.2874922   -8783.2297   -12209.642   -19409.196    5269.1491    7338.9484   -2256.5324   -17461.178    78.815207 
   59800    877.41092   -114.18522   0.79389984   -113.39132    11067.487    4.2799216    4.2799216    4.2799216    11067.487   -907.61086    32318.997    1791.0745    -6965.534    1729.2845    8863.9938    78.398445 
   59900    1080.3932   -114.36485   0.97756251   -113.38728   -1893.6719    4.2933264    4.2933264    4.2933264   -1893.6719    6817.6709    -435.4718   -12063.215   -4152.8705    2252.1682    1339.3412    79.137391 
   60000    898.92591   -114.20172   0.81336705   -113.38835    1680.1523    4.2847234    4.2847234    4.2847234    1680.1523   -7308.7258   -2075.4309    14424.614    19256.281   -1174.8675   -14965.386    78.662613 
   60100    720.44031   -114.04045   0.65186953   -113.38858   -158.33708    4.2840653    4.2840653    4.2840653   -158.33708   -20960.821     9002.006    11483.804    1119.8555   -324.63335   -5249.7009    78.626373 
   60200    835.54467    -114.1418   0.75601838   -113.38578   -12765.722    4.2920161    4.2920161    4.2920161   -12765.722   -20396.634   -4111.7317     -13788.8   -14017.982    4164.1502    6759.4365    79.064953 
   60300    746.31858   -114.06222   0.67528473   -113.38694    5802.2323    4.2795152    4.2795152    4.2795152    5802.2323     19317.78   -16752.152    14841.069    19630.755    2240.2261    9628.2154    78.376115 
   60400    741.28016   -114.06087   0.67072587   -113.39015   -10941.633    4.2888533    4.2888533    4.2888533   -10941.633   -11857.903   -32276.753    11309.755    15345.527    465.40275   -10893.889    78.890295 
   60500    677.39007   -114.00036   0.61291677   -113.38745   -5943.5422    4.2907049    4.2907049    4.2907049   -5943.5422    -10010.92    3985.2676   -11804.974   -9896.8555    1135.8203    6037.0645    78.992514 
   60600    610.73609   -113.93945   0.55260685   -113.38685   -2657.4286    4.2830014    4.2830014    4.2830014   -2657.4286    6301.2757   -16424.019    2150.4571    8784.1769     565.7795    16845.559    78.567808 
   60700    709.34362   -114.02919   0.64182901   -113.38737   -12585.915     4.290524     4.290524     4.290524   -12585.915    -13188.28   -36972.084     12402.62    25398.609   -1498.9128   -2447.4112    78.982526 
   60800    960.08275   -114.25258   0.86870305   -113.38388    6693.7975    4.2856283    4.2856283    4.2856283    6693.7975     5937.337    8330.0569    5813.9987   -3347.2945    -1376.256    1249.9115    78.712465 
   60900    591.68037   -113.92512   0.53536484   -113.38975   -3848.8922    4.2880249    4.2880249    4.2880249   -3848.8922    5797.7202   -9950.2602   -7394.1367    319.02009    3472.2582    12600.357    78.844591 
   61000     378.6394   -113.73567   0.34260089   -113.39307   -10568.621    4.2890158    4.2890158    4.2890158   -10568.621   -8706.4254   -38498.482    15499.044    28287.697    655.21507    7078.9713    78.899262 
   61100    1007.8569    -114.2962   0.91193012   -113.38427    15958.669    4.2809056    4.2809056    4.2809056    15958.669    22693.059    8434.5304    16748.417    9800.1063    3095.6174   -5317.4514    78.452533 
   61200    933.66738   -114.23044   0.84480187   -113.38564   -502.76406    4.2935072    4.2935072    4.2935072   -502.76406    6103.0342   -6666.9797   -944.34664   -3585.0798    1406.0269    8654.3351     79.14739 
   61300    443.38308   -113.79587   0.40118233   -113.39468   -15128.078    4.2880438    4.2880438    4.2880438   -15128.078   -15253.568   -23389.262   -6741.4027    24059.791   -3657.6137    17410.802    78.845633 
   61400    784.10899    -114.1029   0.70947829   -113.39342    8097.7253    4.2790101    4.2790101    4.2790101    8097.7253     20329.47   -9413.3061    13377.011    15774.864    2073.1646   -5251.8608    78.348364 
   61500    1379.0151   -114.63373    1.2477619   -113.38597   -5948.3871    4.2927979    4.2927979    4.2927979   -5948.3871   -1254.1779   -5453.1803   -11137.803   -11330.787   -571.52821    3773.9314    79.108171 
   61600    821.84709   -114.13686   0.74362452   -113.39323    9627.7332    4.2831383    4.2831383    4.2831383    9627.7332    23726.777    6164.6892   -1008.2667    14896.494   -2140.6432    20382.357    78.575345 
   61700    712.47649   -114.04037    0.6446637    -113.3957   -6343.6906    4.2865952    4.2865952    4.2865952   -6343.6906   -7849.7543    -4337.693   -6843.6244    26569.107    5320.2288    8387.2923    78.765749 
   61800    1142.9339   -114.42152    1.0341506   -113.38737   -4612.4267    4.2924162    4.2924162    4.2924162   -4612.4267   -10420.633     9834.317   -13250.964   -2770.5186   -107.67144   -6638.1234    79.087068 
   61900    1203.6483   -114.47469    1.0890863   -113.38561    12316.094    4.2776396    4.2776396    4.2776396    12316.094    16235.278    16923.965    3789.0398   -1471.5328    4623.9117    2556.2308    78.273108 
   62000    909.22042   -114.21638   0.82268174    -113.3937    -9259.285    4.2893622    4.2893622    4.2893622    -9259.285   -19843.032   -15032.057    7097.2332    30133.935     3484.645    13827.115     78.91838 
   62100    1059.2337   -114.34768   0.95841691   -113.38926   -4809.5932    4.2892108    4.2892108    4.2892108   -4809.5932   -13931.852    14548.288   -15045.215     3755.263    3755.7123   -2236.4493    78.910021 
   62200    1182.1714   -114.45536    1.0696536   -113.38571    9084.6668    4.2805342    4.2805342    4.2805342    9084.6668    16759.778    17340.806   -6846.5844   -13684.419    92.418359    2673.6117    78.432113 
   62300    1055.3061   -114.34383   0.95486309   -113.38897   -1293.0021    4.2893887    4.2893887    4.2893887   -1293.0021    3155.3511   -10256.865    3222.5073    12668.776   -7751.6344    7993.8664    78.919842 
   62400    1091.7836   -114.37526   0.98786875   -113.38739    8578.5494    4.2848597    4.2848597    4.2848597    8578.5494    14514.106    7347.1854     3874.357    10421.328    8158.8501    1011.2004    78.670122 
   62500    865.52462   -114.17432   0.78314486   -113.39118    534.37431    4.2858972    4.2858972    4.2858972    534.37431    8077.5663    15451.084   -21925.527   -9384.8629    2731.2723    -6091.219     78.72728 
   62600    1054.5754   -114.34419   0.95420197   -113.38999   -7020.8286      4.28672      4.28672      4.28672   -7020.8286    -6712.612   -17236.419    2886.5454   -11127.611    841.67304    3951.8328     78.77263 
   62700    1273.6527   -114.53785    1.1524277   -113.38542    12758.435    4.2825029    4.2825029    4.2825029    12758.435     26680.91   -6184.7317    17779.126    10999.498   -2137.7897      5289.57    78.540382 
   62800    828.02904    -114.1428   0.74921808   -113.39359   -11639.574    4.2906208    4.2906208    4.2906208   -11639.574   -7614.1225    466.12898    -27770.73    282.56892    3454.5479   -12441.959    78.987869 
   62900    558.81709   -113.90257   0.50562944   -113.39694    -2143.884    4.2827168    4.2827168    4.2827168    -2143.884   -6884.4266   -720.47428    1173.2487   -20409.116    2277.0234   -5478.0357    78.552149 
   63000     1212.452   -114.48698    1.0970521   -113.38992    9586.7112     4.284961     4.284961     4.284961    9586.7112    30450.942   -2805.3776    1114.5692     -3613.84     -5031.16    1954.2405    78.675698 
   63100    1095.6798   -114.38127   0.99139408   -113.38988   -2171.0059    4.2917263    4.2917263    4.2917263   -2171.0059    1114.0103   -9321.8208    1694.7926     7276.793    13236.108    589.66749     79.04894 
   63200    449.86678   -113.80312   0.40704891   -113.39607   -1381.3912    4.2823859    4.2823859    4.2823859   -1381.3912   -2571.3718    17255.989   -18828.791   -12242.872    410.27589   -11659.701    78.533943 
   63300    778.74215   -114.09873   0.70462226   -113.39411    -1184.747    4.2862139    4.2862139    4.2862139    -1184.747    4335.8111   -6528.9815   -1361.0705   -20812.069     -7609.99   -2337.3062    78.744733 
   63400    1106.7511   -114.38746    1.0014117   -113.38605    6750.7541    4.2869028    4.2869028    4.2869028    6750.7541    29853.998   -18298.809    8697.0733    3274.1142     3367.466     6527.904    78.782711 
   63500     787.9896    -114.1042   0.71298955   -113.39121   -13718.937    4.2868036    4.2868036    4.2868036   -13718.937   -10340.742   -13351.174   -17464.895    5592.0716    3513.9491   -663.62444    78.777241 
   63600    444.21237   -113.79615   0.40193269   -113.39422   -10014.836    4.2857528    4.2857528    4.2857528   -10014.836   -27382.314    5528.2948    -8190.489   -19760.801   -10970.393    -12971.81    78.719325 
   63700    842.38225   -114.15173   0.76220516   -113.38952    273.70428    4.2813145    4.2813145    4.2813145    273.70428    13128.029   -12593.155     286.2384    4123.0873   -4552.9409    5999.0929    78.475012 
   63800    745.26641   -114.06238   0.67433271   -113.38804   -11439.708    4.2942479    4.2942479    4.2942479   -11439.708    -13264.28   -14039.637   -7015.2073    14026.684    2789.4074    7903.5125    79.188359 
   63900    737.01282   -114.05634   0.66686468   -113.38947     -12799.1    4.2841284    4.2841284    4.2841284     -12799.1    -22024.14   -4181.3404    -12191.82   -14606.465    268.07383   -15924.948    78.629846 
   64000    491.45451   -113.83608   0.44467837    -113.3914    16152.297    4.2740789    4.2740789    4.2740789    16152.297    5519.5487    20864.193     22073.15   -7590.2507   -4506.5524    1197.4384    78.077806 
   64100    669.54985   -113.99758   0.60582278   -113.39176   -20070.186    4.2979372    4.2979372    4.2979372   -20070.186   -15263.123   -37197.045   -7750.3903    18175.187    3463.2199    18161.763    79.392633 
   64200    896.35455   -114.19665   0.81104044   -113.38561   -2437.3104    4.2847556    4.2847556    4.2847556   -2437.3104    -10677.14   -14802.494    18167.703   -368.20384   -2481.7352   -1011.8289    78.664388 
   64300    607.36329   -113.93601   0.54955507   -113.38646    18135.302    4.2754573    4.2754573    4.2754573    18135.302   -3683.6192    28209.824    29879.702   -17828.034   -4000.2053   -6802.1421    78.153374 
   64400    599.75045   -113.93291   0.54266681   -113.39024   -27185.885    4.2946186    4.2946186    4.2946186   -27185.885   -33023.018   -35228.964   -13305.671    17898.646   -4415.6071    12332.979    79.208868 
   64500    774.19314    -114.0882   0.70050622    -113.3877     4582.898    4.2820884    4.2820884    4.2820884     4582.898   -1419.8867   -14667.463    29836.044    11863.056   -653.84489    8918.8716    78.517575 
   64600    1090.7387   -114.37233   0.98692326   -113.38541   -4252.6199     4.285473     4.285473     4.285473   -4252.6199    -12381.32   -4490.3576    4113.8177   -22166.338    5137.4659   -11689.353    78.703906 
   64700    622.39748   -113.95476   0.56315832    -113.3916    -4647.176    4.2877412    4.2877412    4.2877412    -4647.176   -22329.875   -272.74169    8661.0883    9813.7915   -7152.3973    168.38297    78.828944 
   64800    681.07893    -114.0093   0.61625453   -113.39304    3665.8141    4.2772077    4.2772077    4.2772077    3665.8141   -4222.1646    4345.1909    10874.416    18839.784    3206.5545    14248.667    78.249401 
   64900     1037.852   -114.32845   0.93907034   -113.38938   -12010.972    4.2954108    4.2954108    4.2954108   -12010.972   -12966.471   -16203.226   -6863.2181   -9415.7321      4266.99   -672.54921    79.252709 
   65000    1111.2503   -114.39321    1.0054826   -113.38773    9519.0189    4.2823073    4.2823073    4.2823073    9519.0189    3193.1182    12464.522    12899.417   -1937.7078   -2267.6892    1367.3634    78.529616 
   65100    699.83352   -114.02514   0.63322408   -113.39192     2540.661    4.2778355    4.2778355    4.2778355     2540.661   -5127.9317   -1865.8842    14615.799    22252.525    -2528.457    9171.2615    78.283863 
   65200    854.51203   -114.16554   0.77318045   -113.39235   -21799.035    4.2948814    4.2948814    4.2948814   -21799.035   -16199.961   -16074.807   -33122.337    1320.6153    6721.9388    11477.276    79.223411 
   65300    1367.2624   -114.62202    1.2371277   -113.38489    12598.584    4.2784241    4.2784241    4.2784241    12598.584     26296.04    6759.4869    4740.2265   -12476.609    4258.1788   -6039.2895    78.316178 
   65400    960.95429     -114.261   0.86949164   -113.39151    7259.9971    4.2834874    4.2834874    4.2834874    7259.9971     5417.559    836.48683    15525.945    27080.745   -8105.4614    2099.1922    78.594556 
   65500     811.4066   -114.12905   0.73417774   -113.39487   -17933.107    4.2904021    4.2904021    4.2904021   -17933.107     -11124.3   -14694.347   -27980.674     10487.26     8764.141    13480.072    78.975792 
   65600    1130.3394    -114.4097    1.0227548   -113.38695    17356.746     4.280033     4.280033     4.280033    17356.746    33507.083    13933.378    4629.7776   -9038.0604    12696.838    3595.3607    78.404564 
   65700    1306.2548   -114.56662    1.1819268    -113.3847   -7421.0462    4.2906022    4.2906022    4.2906022   -7421.0462     1789.262   -18207.719   -5844.6822    20404.519   -3311.1713   -8287.9561    78.986841 
   65800    887.16311   -114.19366   0.80272383   -113.39094    12057.065     4.279396     4.279396     4.279396    12057.065    15823.273    7701.7562    12646.166     18473.96   -4204.8409    319.43265    78.369562 
   65900    1083.8767   -114.37289   0.98071443   -113.39218    2892.0384    4.2815875    4.2815875    4.2815875    2892.0384    9776.5564     19816.38   -20916.821   -4382.4267    8759.8826    16809.681    78.490028 
   66000    1077.4902   -114.36273   0.97493574    -113.3878   -10934.031    4.2942784    4.2942784    4.2942784   -10934.031    -758.9839   -6166.7897   -25876.319    2874.1974    8219.0485    -5313.101    79.190045 
   66100     1064.457   -114.34902   0.96314309   -113.38588    8994.8815    4.2771406    4.2771406    4.2771406    8994.8815    2557.7076    6938.8884    17488.049    29322.766   -3702.9555   -6838.8537     78.24572 
   66200    1082.1143   -114.36606   0.97911977   -113.38694    6222.0665    4.2859716    4.2859716    4.2859716    6222.0665    3830.1031    17631.418   -2795.3219    3581.1281    7474.5927    2608.0431     78.73138 
   66300    1105.5686   -114.38602    1.0003417   -113.38568   -10096.405    4.2896705    4.2896705    4.2896705   -10096.405   -16245.166    14109.768   -28153.818   -5852.5105    9751.5411   -3410.0718    78.935395 
   66400    836.64218   -114.14546   0.75701142   -113.38845    3921.0673    4.2787419    4.2787419    4.2787419    3921.0673    5185.9736    2463.6401    4113.5882     26925.45    -1909.185   -12679.563    78.333631 
   66500    1054.8294   -114.34426   0.95443181   -113.38982   -7596.7128    4.2882069    4.2882069    4.2882069   -7596.7128   -8748.9785   -6864.8151   -7176.3447    6118.9599    3843.4825   -8570.5903    78.854629 
   66600    1151.4807   -114.42777    1.0418839   -113.38588    7168.4223    4.2837999    4.2837999    4.2837999    7168.4223    4678.7787    30351.547   -13525.059   -5595.4661    11419.774    6554.2112    78.611762 
   66700    774.08048   -114.09112   0.70040428   -113.39071   -12561.773    4.2867352    4.2867352    4.2867352   -12561.773   -14218.623   -12359.308   -11107.388    23961.906    2028.7135   -13991.885    78.773468 
   66800     705.3698   -114.02921   0.63823342   -113.39097   -16486.887     4.287135     4.287135     4.287135   -16486.887   -11416.183   -36390.967    -1653.511    19813.714   -1776.7227   -13303.871     78.79551 
   66900     1074.737   -114.35659   0.97244461   -113.38414    14096.278    4.2778525    4.2778525    4.2778525    14096.278     21131.79    13695.028    7462.0174   -3200.1653    12327.237    7495.4389    78.284795 
   67000    846.01347   -114.15507   0.76549077   -113.38958   -7829.2008    4.2909438    4.2909438    4.2909438   -7829.2008   -5801.7955   -16040.578   -1645.2286    3402.1397    2898.8259   -4393.3439    79.005707 
   67100    509.01682   -113.85258   0.46056911   -113.39201   -3418.3015    4.2849601    4.2849601    4.2849601   -3418.3015    1204.2919   -19935.691    8476.4944    28333.488   -5770.5678   -17946.852    78.675649 
   67200    932.59426   -114.23143   0.84383088   -113.38759     5409.516    4.2785262    4.2785262    4.2785262     5409.516    11066.594   -569.74395    5731.6983   -928.23802    3269.1853   -7040.3848    78.321786 
   67300    901.41262   -114.20248   0.81561708   -113.38686     227.7547     4.290297     4.290297     4.290297     227.7547    13002.186   -18505.287    6186.3655   -7085.0758    11843.163    6477.8588    78.969991 
   67400    615.58297   -113.94789   0.55699241    -113.3909   -1924.3542    4.2831252    4.2831252    4.2831252   -1924.3542   -2732.6319   -6377.3125    3336.8819    29275.274   -250.67248   -11178.429    78.574625 
   67500    633.69817   -113.96674   0.57338343   -113.39336   -4545.4052    4.2853003    4.2853003    4.2853003   -4545.4052    18915.832   -42943.532    10391.484    11604.631   -3094.8889   -15166.611     78.69439 
   67600    1152.7172   -114.42704    1.0430027   -113.38404    1319.4527    4.2850578    4.2850578    4.2850578    1319.4527    21829.941   -18557.758    686.17521   -4052.8456    4574.1371    9864.9104    78.681034 
   67700    822.56419   -114.13362   0.74427337   -113.38935    3915.3727    4.2818575    4.2818575    4.2818575    3915.3727    22155.801   -20575.589    10165.906    5413.0621    5146.7314   -1325.2922    78.504876 
   67800    503.46127   -113.85205   0.45554234   -113.39651   -21866.394    4.2897931    4.2897931    4.2897931   -21866.394   -11496.261   -52408.731   -1694.1899    25616.218    -2378.654   -22784.877    78.942168 
   67900    1152.6539   -114.43388    1.0429455   -113.39093    7184.4339    4.2782772    4.2782772    4.2782772    7184.4339    21912.602   -10379.216    10019.915   -237.96062   -11189.933   -6129.9484    78.308112 
   68000    1269.3475    -114.5378    1.1485323   -113.38927    6613.7386    4.2863732    4.2863732    4.2863732    6613.7386    24360.701   -6830.8298    2311.3451   -1047.5129    7948.7945    2154.0852    78.753512 
   68100    633.52832   -113.97241   0.57322974   -113.39918   -15464.878     4.289247     4.289247     4.289247   -15464.878   -4524.5341   -43528.464    1658.3658     22584.85   -1624.2721   -20168.294     78.91202 
   68200    849.82398   -114.16392    0.7689386   -113.39498    2731.7548    4.2776909    4.2776909    4.2776909    2731.7548    11729.357   -642.96916    -2891.123    10140.518   -2775.9246   -14205.859    78.275921 
   68300    1403.5672   -114.65744    1.2699771   -113.38747    4322.2899    4.2887534    4.2887534    4.2887534    4322.2899    4112.7095    8390.8137     463.3466    159.52602    -8587.139    7343.6202    78.884782 
   68400    1124.0269   -114.40943    1.0170432   -113.39239   -2767.0196    4.2833508    4.2833508    4.2833508   -2767.0196    10611.123   -12072.346   -6839.8365    8342.0501   -2821.7934   -15019.907    78.587043 
   68500    651.03986   -113.98644   0.58907455   -113.39737   -6145.1194    4.2814373    4.2814373    4.2814373   -6145.1194    3645.4288   -12720.538   -9360.2495     11968.19   -4725.1565   -24287.471    78.481763 
   68600    1097.4438   -114.38516   0.99299024   -113.39217   -6031.5923    4.2893157    4.2893157    4.2893157   -6031.5923   -12360.515    1845.1872   -7579.4491    -7375.981   -25995.742    5735.6995    78.915811 
   68700    1284.4026   -114.54916    1.1621544   -113.38701    14272.907    4.2785245    4.2785245    4.2785245    14272.907    25718.202     10790.28    6310.2393    7703.9053    7833.6988    6970.7887    78.321695 
   68800    738.54758   -114.06166   0.66825337    -113.3934   -8364.7948    4.2882688    4.2882688    4.2882688   -8364.7948    8732.1599   -20004.132   -13822.412    15582.537   -683.57881   -20928.335    78.858043 
   68900    928.30372   -114.23066   0.83994872   -113.39071   -14362.591    4.2866683    4.2866683    4.2866683   -14362.591   -10531.277   -10830.498   -21725.997    3006.2751   -10244.264   -16313.747    78.769779 
   69000     962.5916   -114.25799   0.87097311   -113.38702    27277.576    4.2773718    4.2773718    4.2773718    27277.576    32029.477    14810.609    34992.642   -6210.2791   -8233.0324    14530.361     78.25841 
   69100    892.07118   -114.19648   0.80716475   -113.38932   -13795.301    4.2915842    4.2915842    4.2915842   -13795.301    13922.411   -29209.326   -26098.988     8369.941   -1124.1988   -6335.6763    79.041089 
   69200    643.82008   -113.97438   0.58254194   -113.39184   -1821.1727     4.283695     4.283695     4.283695   -1821.1727    16488.982   -17060.426   -4892.0745    13307.329    55.799861   -23347.787    78.605984 
   69300    852.37615   -114.15997   0.77124786   -113.38873    13627.261    4.2781175    4.2781175    4.2781175    13627.261    25644.534    3602.8834    11634.367   -6266.7704   -18789.225    11827.547    78.299347 
   69400    826.89795   -114.13776   0.74819464   -113.38957   -13065.626     4.289731     4.289731     4.289731   -13065.626    9460.7322    -30059.13    -18598.48   -2775.9966    1356.2426    6236.2691    78.938739 
   69500    486.12814   -113.83374   0.43985896   -113.39388   -10885.819    4.2853337    4.2853337    4.2853337   -10885.819    15320.299   -35730.903   -12246.851    13739.601    5154.4525   -21863.904    78.696232 
   69600    867.81431   -114.17545   0.78521662   -113.39023    -2427.123    4.2784703    4.2784703    4.2784703    -2427.123    813.20879   -1118.9195   -6975.6582    16191.352   -757.89284   -10474.206    78.318715 
   69700    836.36855   -114.14728   0.75676384   -113.39051     5.472108    4.2872238    4.2872238    4.2872238     5.472108     181.1525   -9413.1036    9248.3674   -5778.0125   -14311.982    17358.818    78.800407 
   69800    622.95469   -113.95681   0.56366249   -113.39315   -16196.948    4.2871985    4.2871985    4.2871985   -16196.948    6509.6548   -26598.326   -28502.173    2413.4512   -657.62142   -7239.9388    78.799015 
   69900    694.42807   -114.02031   0.62833311   -113.39198   -2911.7132    4.2812565    4.2812565    4.2812565   -2911.7132   -142.61296   -6974.9338   -1617.5927    14864.488    4022.7317   -24682.205    78.471824 
   70000    951.23566   -114.24908   0.86069802   -113.38839    11367.893    4.2845292    4.2845292    4.2845292    11367.893   -1076.5167    17156.074     18024.12    1449.5269   -9735.6403    11741.797    78.651917 
   70100     883.1043   -114.19009   0.79905133   -113.39103   -3272.3102    4.2856149    4.2856149    4.2856149   -3272.3102    6341.6507   -3778.7666   -12379.815   -5380.1955   -2840.8436    963.69116    78.711726 
   70200    669.13155   -113.99945   0.60544429     -113.394    58.897318    4.2828215    4.2828215    4.2828215    58.897318    17501.554   -15043.276   -2281.5866    6440.2041     3177.328   -14175.135    78.557909 
   70300    987.64238   -114.28201   0.89363958   -113.38837    3880.9221     4.286995     4.286995     4.286995    3880.9221   -9285.6027     27785.55    -6857.181    9234.9822    6147.3103   -5579.6981    78.787792 
   70400    952.38339    -114.2506   0.86173651   -113.38886    1474.1666    4.2844581    4.2844581    4.2844581    1474.1666    -9253.891    7739.1277    5937.2631   -5599.0897   -6408.2162    14055.344    78.648003 
   70500    706.26952   -114.03181    0.6390475   -113.39276   -4601.4874    4.2805513    4.2805513    4.2805513   -4601.4874    17405.025   -8327.8453   -22881.642   -140.14344   -2870.2187   -7342.2992    78.433052 
   70600     919.9705   -114.22328   0.83240864   -113.39087   -8841.1012    4.2873548    4.2873548    4.2873548   -8841.1012   -9512.1384    5111.5764   -22122.742    2169.2431    9799.7411   -22081.401    78.807634 
   70700    953.12432   -114.24988   0.86240692   -113.38748   -5898.9085    4.2876712    4.2876712    4.2876712   -5898.9085   -34837.543    27059.286    -9918.469   -4372.1735    6039.1489    11875.099    78.825081 
   70800    725.61979   -114.04557   0.65655603   -113.38901   -3427.7294    4.2807647    4.2807647    4.2807647   -3427.7294   -8105.5985    3828.7072   -6006.2968   -7413.4804   -9158.0986   -7149.5953    78.444781 
   70900    701.31917   -114.02636   0.63456832   -113.39179   -7634.0593     4.284543     4.284543     4.284543   -7634.0593    1341.3711    733.60941   -24977.158    4992.9488    4471.9084   -18567.622    78.652678 
   71000    887.79698   -114.19149   0.80329736    -113.3882   -7035.9598    4.2886834    4.2886834    4.2886834   -7035.9598   -32534.021    29774.508   -18348.366    704.24109    23356.408   -1273.8806     78.88092 
   71100    841.42022   -114.14811    0.7613347   -113.38677   -1483.2188     4.283776     4.283776     4.283776   -1483.2188   -24097.186    12262.957    7384.5728   -13683.593   -618.74904    5232.2107    78.610446 
   71200    639.68462   -113.96801   0.57880009   -113.38921    -2603.745    4.2845186    4.2845186    4.2845186    -2603.745   -1584.2052     11920.12    -18147.15   -4114.3436     -5028.68   -12475.817    78.651332 
   71300     648.4326   -113.97726   0.58671544   -113.39054    -7872.395    4.2881436    4.2881436    4.2881436    -7872.395   -18532.782    18494.395   -23578.798    2243.8466    27504.219   -9242.7567    78.851138 
   71400    926.02635   -114.22391    0.8378881   -113.38603    536.41703    4.2856046    4.2856046    4.2856046    536.41703   -31845.454    36332.474   -2877.7691    1450.5596    14577.615    2215.3947    78.711159 
   71500    1032.0668   -114.31984   0.93383571   -113.38601   -3312.4722    4.2835885    4.2835885    4.2835885   -3312.4722   -5747.3767   -1133.9295   -3056.1103   -6640.0859   -13599.977   -7716.6246    78.600122 
   71600    612.57872   -113.94812    0.5542741   -113.39385   -287.10419    4.2839794    4.2839794    4.2839794   -287.10419    5422.8762    10492.827   -16777.016     569.6567    15395.019   -10952.466    78.621647 
   71700    830.40206   -114.14464   0.75136523   -113.39328   -257.67663    4.2885777    4.2885777    4.2885777   -257.67663    2263.1766    20018.425   -23054.631    1612.6711    27542.976   -445.00819    78.875087 
   71800    1300.1157   -114.56237     1.176372     -113.386    7052.3035    4.2850967    4.2850967    4.2850967    7052.3035    12155.063     1914.735    7087.1125   -6407.4389   -1177.4888    2806.8828    78.683178 
   71900    968.81038   -114.26772   0.87659999   -113.39112    10639.957    4.2809651    4.2809651    4.2809651    10639.957    21301.142    13643.528   -3024.7996   -6081.3449    4011.5327   -12383.808      78.4558 
   72000    803.73178   -114.12315   0.72723341   -113.39591   -11887.482    4.2911006    4.2911006    4.2911006   -11887.482    3221.1875    1232.0177   -40115.652   -1693.2773    27413.382   -3951.3076    79.014369 
   72100    1172.5812   -114.45134    1.0609761   -113.39037    3481.7054    4.2830878    4.2830878    4.2830878    3481.7054    -124.5891    11383.888   -814.18316    1166.5127   -3393.1465    3964.5585    78.572567 
   72200    1217.6541   -114.49092     1.101759   -113.38916    7778.7533    4.2798761    4.2798761    4.2798761    7778.7533    22694.682     1952.077   -1310.4994   -2732.5429   -3270.6794   -6759.7235    78.395944 
   72300    853.69213   -114.16555   0.77243858   -113.39311   -12697.715    4.2940318    4.2940318    4.2940318   -12697.715    10783.239   -20677.636   -28198.746    4013.7362    25486.779   -17573.722    79.176403 
   72400    1005.0529   -114.29682   0.90939295   -113.38743     2124.227    4.2855082    4.2855082    4.2855082     2124.227    17341.524   -1838.4431   -9130.3998     131.8618    3257.8448   -2124.9578    78.705846 
   72500    1167.5381   -114.44021     1.056413    -113.3838    7146.2469    4.2815494    4.2815494    4.2815494    7146.2469      23555.1   -5472.0184    3355.6594   -4611.5941   -20517.696     6449.571    78.487928 
   72600    922.90304   -114.22285   0.83506207   -113.38779   -7036.6959    4.2891624    4.2891624    4.2891624   -7036.6959    4038.8654   -17346.065   -7802.8877   -8773.1882    10856.103   -14450.988    78.907353 
   72700    897.84669   -114.20099   0.81239056    -113.3886    4347.2318    4.2853093    4.2853093    4.2853093    4347.2318    33439.119   -7492.1791   -12905.244    140.68358     26023.14   -10879.117    78.694887 
   72800    1051.5128   -114.33719    0.9514309   -113.38576     7939.682    4.2845718    4.2845718    4.2845718     7939.682    18923.692   -6964.9847    11860.338     5439.628   -16597.492    5875.5869    78.654263 
   72900    785.17047   -114.09938   0.71043874   -113.38894    6391.8415    4.2857291    4.2857291    4.2857291    6391.8415      25115.6   -10823.946      4883.87   -8452.1565   -7918.8358   -7589.1996    78.718015 
   73000    741.97494   -114.06117   0.67135452   -113.38982   -9624.4821    4.2878691    4.2878691    4.2878691   -9624.4821   -3925.4446   -13650.094   -11297.908   -1473.5992    22128.084   -17766.046    78.835993 
   73100    957.59663   -114.25468   0.86645355   -113.38822    1048.5503     4.283102     4.283102     4.283102    1048.5503   -2150.0588     961.1536    4334.5561    1604.1585     1192.369   -2535.3759    78.573346 
   73200    952.76181   -114.25095    0.8620789   -113.38887    5006.5892    4.2824203    4.2824203    4.2824203    5006.5892    3300.7533    1215.0137    10504.001   -1140.7825   -19260.796    567.26906    78.535836 
   73300    533.95441   -113.87867   0.48313317   -113.39554   -16997.034    4.2932962    4.2932962    4.2932962   -16997.034   -4650.8632   -17186.005   -29154.235   -12879.182    8031.5298   -14538.662    79.135721 
   73400    708.97269   -114.03263   0.64149338   -113.39114   -1370.0427    4.2836301    4.2836301    4.2836301   -1370.0427    4071.5701     1729.757   -9911.4551   -3589.2079    27993.614   -9192.9589    78.602414 
   73500    1111.0658   -114.39064    1.0053156   -113.38533    7345.7352    4.2842344    4.2842344    4.2842344    7345.7352   -2954.4675    6051.8084    18939.865    5591.2669   -11162.216    5700.9423    78.635684 
   73600    880.53784   -114.18612   0.79672914   -113.38939   -15048.711    4.2913923    4.2913923    4.2913923   -15048.711   -28554.212   -16511.276   -80.644087   -8590.0706   -2740.7016   -10784.344    79.030486 
   73700    432.34425   -113.78625   0.39119416   -113.39506    878.72838    4.2812755    4.2812755    4.2812755    878.72838    2850.1821    4470.1715   -4684.1685   -6680.1597    19523.068   -17095.097     78.47287 
   73800    919.98567   -114.22591   0.83242237   -113.39349    489.62616    4.2861704    4.2861704    4.2861704    489.62616    12531.817    813.27745   -11876.216   -260.00151    7095.7589    12279.185    78.742335 
   73900    1085.1672   -114.36889   0.98188211   -113.38701    10509.541    4.2870603    4.2870603    4.2870603    10509.541    1446.6073    9185.4932    20896.522   -1880.2161   -4392.4708    1317.3212    78.791393 
   74000    582.17755   -113.92113   0.52676648   -113.39436   -2466.9458    4.2849835    4.2849835    4.2849835   -2466.9458   -4922.2736    7016.3025   -9494.8662   -9983.4244    11697.449   -18573.264    78.676938 
   74100    460.77841   -113.81213   0.41692199   -113.39521   -11022.628    4.2903478    4.2903478    4.2903478   -11022.628   -4510.6538   -11398.297   -17158.932   -439.71025    23493.057    2405.9354    78.972792 
   74200    1077.1407   -114.36056   0.97461958   -113.38595    11651.761    4.2826592    4.2826592    4.2826592    11651.761    197.32472    13092.501    21665.458    5490.1058   -5233.4419    14350.369    78.548981 
   74300    1014.0288   -114.30592   0.91751456   -113.38841   -3105.8854     4.286389     4.286389     4.286389   -3105.8854   -14273.139   -2015.5022    6970.9847    -4598.023   -5744.3661   -10878.718    78.754384 
   74400    620.00817   -113.95597   0.56099642   -113.39497   -15869.426    4.2878231    4.2878231    4.2878231   -15869.426   -8407.3283   -15079.966   -24120.984   -6259.5632    20558.492   -17273.465    78.833457 
   74500    723.45423    -114.0483   0.65459659    -113.3937    13018.165    4.2830493    4.2830493    4.2830493    13018.165    9043.7826   -853.30901    30864.023    1514.4634    7146.9517    9841.7434    78.570449 
   74600    1063.8803    -114.3522   0.96262122   -113.38958    364.46081    4.2892463    4.2892463    4.2892463    364.46081   -4805.6871   -3785.0589    9684.1284    6622.7091   -10012.312    9377.2284    78.911984 
   74700    809.38073   -114.12348   0.73234469   -113.39113    9593.2538    4.2836933    4.2836933    4.2836933    9593.2538    2442.8813     4366.476    21970.404    -3294.741    6507.2188   -7991.2123    78.605893 
   74800    798.76552   -114.11474   0.72273983     -113.392   -4493.2618    4.2877357    4.2877357    4.2877357   -4493.2618    11275.543    -6998.791   -17756.538   -5921.2645    18210.383   -6223.7395     78.82864 
   74900    839.77426   -114.14964    0.7598454    -113.3898    1135.8033    4.2861198    4.2861198    4.2861198    1135.8033    6566.7941   -13336.474     10177.09    5418.1631   -11786.271    6774.2173    78.739547 
   75000    862.27514   -114.17005   0.78020467   -113.38985    3468.5369    4.2844749    4.2844749    4.2844749    3468.5369   -4617.9341   -7555.0398    22578.585    5149.1511    -18885.15    1831.4351     78.64893 
   75100    1019.3306   -114.30994   0.92231177   -113.38763   -11432.261    4.2907576    4.2907576    4.2907576   -11432.261   -5225.9396   -29247.243    176.40066   -3574.9905    13106.358   -15269.561    78.995428 
   75200    839.52742    -114.1496   0.75962205   -113.38997    18.127716    4.2816173    4.2816173    4.2816173    18.127716    9104.3961   -16621.479    7571.4664    8870.7056    913.26995    6599.6119    78.491666 
   75300    735.13554   -114.05975   0.66516608   -113.39459   -7575.0283    4.2843847    4.2843847    4.2843847   -7575.0283   -7313.5959   -24055.361    8643.8716    16541.006   -17161.379     9430.723    78.643962 
   75400    982.41283   -114.27977   0.88890778   -113.39087   -6482.7517    4.2915037    4.2915037    4.2915037   -6482.7517   -9464.7444   -23068.902    13085.391   -5825.1767   -5661.2059   -4230.9994    79.036642 
   75500    1061.4354    -114.3472   0.96040903   -113.38679    14832.269    4.2801798    4.2801798    4.2801798    14832.269    12138.649    4540.0698    27818.086   -1586.5828    3058.5882   -12500.861    78.412634 
   75600    521.96902   -113.86902   0.47228854   -113.39674   -655.47686    4.2867262    4.2867262    4.2867262   -655.47686   -7162.6514   -16345.233    21541.454    14479.189   -17420.617    2134.1696    78.772973 
   75700    800.64994   -114.11852   0.72444489   -113.39408   -11099.621    4.2907317    4.2907317    4.2907317   -11099.621   -21688.714   -1679.5727   -9930.5751    6227.7236   -22279.562    14998.534    78.993997 
   75800    1272.4153   -114.53818    1.1513081   -113.38687    17350.818    4.2789611    4.2789611    4.2789611    17350.818    15743.155    7650.7709    28658.529   -6713.6272    9642.5054   -9394.9295    78.345672 
   75900    960.02926    -114.2625   0.86865465   -113.39385   -1827.3776    4.2858816    4.2858816    4.2858816   -1827.3776    -8742.853   -5568.8602    8829.5803    5061.0741   -7909.2128   -5712.2848    78.726421 
   76000    523.35735   -113.87431   0.47354473   -113.40077    -12018.39    4.2879445    4.2879445    4.2879445    -12018.39   -27365.177   -2041.6451   -6648.3465    16057.473   -26788.381    8861.3535    78.840152 
   76100    1166.8999   -114.45121    1.0558355   -113.39538   -1397.5475    4.2819981    4.2819981    4.2819981   -1397.5475   -4000.3829   -1577.4408    1385.1813    2314.1829   -1890.4892    12529.009    78.512609 
   76200    1277.9083   -114.54548    1.1562783   -113.38921    5073.8922    4.2886003    4.2886003    4.2886003    5073.8922   -1636.1021    8190.3246    8667.4541   -7987.4706    5137.4404   -15882.152    78.876334 
   76300    909.38591   -114.21839   0.82283148   -113.39556   -14312.106    4.2856857    4.2856857    4.2856857   -14312.106   -25502.405    1380.4957   -18814.409     12418.69   -26691.408   -3711.2434    78.715626 
   76400    659.44767   -113.99639   0.59668211   -113.39971    606.32424    4.2812673    4.2812673    4.2812673    606.32424   -4613.8483    2803.4045    3629.4165    4361.3293    -17607.64    17812.952    78.472416 
   76500    1341.2158   -114.60642    1.2135603   -113.39286    4371.4868    4.2851689    4.2851689    4.2851689    4371.4868   -735.46099    4889.3244     8960.597   -1678.6143    13839.284    3875.6342    78.687151 
   76600    1263.5497   -114.53466    1.1432863   -113.39138    8000.8616    4.2868513    4.2868513    4.2868513    8000.8616    131.82415    13134.166    10736.595    -266.8176   -4097.7875    1859.2503     78.77987 
   76700    779.71144   -114.10177    0.7054993   -113.39627   -11725.997    4.2889608    4.2889608    4.2889608   -11725.997   -12147.856   -2413.9147    -20616.22    9769.5557   -27573.524    10207.657    78.896224 
   76800    1051.5938   -114.34524   0.95150416   -113.39374    -712.0159     4.279655     4.279655     4.279655    -712.0159   -4083.7292    8396.0678   -6448.3863    9456.2368   -1333.3919    11366.515    78.383796 
   76900    1305.0234   -114.57233    1.1808126   -113.39152    19144.723    4.2817913    4.2817913    4.2817913    19144.723    4648.9714     27339.12    25446.077   -12265.174    16783.086   -2426.0879    78.501237 
   77000    1070.8022   -114.36402   0.96888429   -113.39514   -8672.4307     4.291892     4.291892     4.291892   -8672.4307   -23327.376    4486.3403   -7176.2563    5078.3009   -15709.097    4465.7329    79.058098 
   77100    762.48351   -114.08609    0.6899111   -113.39618    1557.7303    4.2814658    4.2814658    4.2814658    1557.7303   -7345.9188    17694.114   -5675.0039    11220.623   -12102.668    20059.565    78.483332 
   77200     1222.873   -114.49792    1.1064812   -113.39144    2373.1655    4.2825269    4.2825269    4.2825269    2373.1655   -4812.7373    4571.3964    7360.8375    4939.3991    13166.201    -1765.441    78.541699 
   77300    1247.2243   -114.51896    1.1285148   -113.39044    1965.1282    4.2877832    4.2877832    4.2877832    1965.1282   -7185.3987    7971.0175    5109.7657   -9425.5979    1654.8651   -4681.0082    78.831259 
   77400     923.0892   -114.23073   0.83523051    -113.3955    198.81403    4.2822663    4.2822663    4.2822663    198.81403    -4913.953   -5841.3173    11351.712    5362.3042   -15648.935    18090.009    78.527362 
   77500    838.30144   -114.15282   0.75851276   -113.39431    1426.4855    4.2887153    4.2887153    4.2887153    1426.4855    2624.2992   -17332.651    18987.809    16103.814   -3803.9559     12987.82    78.882679 
   77600    1328.0781   -114.58828     1.201673   -113.38661   -2661.7152    4.2860689    4.2860689    4.2860689   -2661.7152    -7038.937    -7374.025    6427.8162   -6728.8665    18433.758   -6746.6631    78.736742 
   77700    998.37839   -114.29372   0.90335375   -113.39037    6844.8721    4.2800698    4.2800698    4.2800698    6844.8721     6236.735    -8614.645    22912.526   -1838.2166   -4187.4631    -3578.111     78.40659 
   77800    766.66136   -114.09062   0.69369131   -113.39692   -15108.032     4.288668     4.288668     4.288668   -15108.032    -10119.11    -33249.96   -1955.0271    16098.217   -13436.682    20743.869    78.880071 
   77900    1015.4578   -114.31067   0.91880753   -113.39186    3865.6852    4.2844491    4.2844491    4.2844491    3865.6852     8078.638   -20232.643     23751.06    8017.7809   -341.23746   -1669.7129    78.647508 
   78000     1128.131   -114.40854    1.0207566   -113.38779   -4863.6011    4.2893371    4.2893371    4.2893371   -4863.6011   -592.33591   -20303.951    6305.4832   -6567.3402    409.14499   -16953.101    78.916993 
   78100    769.81743   -114.08921   0.69654699   -113.39267   -12345.025    4.2853363    4.2853363    4.2853363   -12345.025   -13692.962   -32894.506    9552.3917    10562.413   -6891.0334    17896.719    78.696375 
   78200    763.86567   -114.08449   0.69116171   -113.39333    5537.2623    4.2788144    4.2788144    4.2788144    5537.2623    16429.711   -11035.076    11217.152    15460.532   -10239.419    12271.653    78.337618 
   78300    1208.3499   -114.48374    1.0933404    -113.3904   -8529.4341    4.2921496    4.2921496    4.2921496   -8529.4341    3432.5738   -15608.329   -13412.547    -3902.806    11918.973   -13589.633    79.072335 
   78400    1005.1462   -114.30139    0.9094774   -113.39192    6012.2718    4.2844961    4.2844961    4.2844961    6012.2718    12945.913   -4398.2246    9489.1275    7539.6033    4164.5558   -6676.7662    78.650097 
   78500    664.92393   -113.99674   0.60163714    -113.3951    4950.0414    4.2824362    4.2824362    4.2824362    4950.0414    12689.872    1450.6133    709.63876    14410.613    -16142.94    15367.643    78.536708 
   78600     869.2703   -114.17824   0.78653404   -113.39171    -8184.433     4.292706     4.292706     4.292706    -8184.433    6003.4645   -18908.191   -11648.572    4271.5647   -10711.123    172.50671    79.103085 
   78700    1243.4575    -114.5112    1.1251064   -113.38609    15770.222    4.2774032    4.2774032    4.2774032    15770.222    39690.848    10158.333   -2538.5157   -9469.6994    5595.0046   -15692.988     78.26013 
   78800    926.10008    -114.2329   0.83795481   -113.39494   -6229.2359    4.2870173    4.2870173    4.2870173   -6229.2359    5432.7945   -6809.6596   -17310.843    13265.827   -2307.9608    7930.0239    78.789023 
   78900    697.79969    -114.0269   0.63138382   -113.39552   -23469.305    4.2932024    4.2932024    4.2932024   -23469.305   -10607.438   -24184.435   -35616.042     16585.72   -20705.139    15449.618    79.130532 
   79000     1099.032   -114.38214   0.99442729   -113.38772    13179.965    4.2745243    4.2745243    4.2745243    13179.965    29082.587    13620.792   -3163.4838   -6611.0036    3416.8172   -8825.0289    78.102217 
   79100    1089.6208   -114.37538   0.98591183   -113.38947   -5421.3241    4.2907757    4.2907757    4.2907757   -5421.3241    9786.9281   -6875.9234   -19174.977   -3419.0437    3042.9746   -7707.3228    78.996424 
   79200    821.07035   -114.13667   0.74292171   -113.39375   -5728.9396    4.2854919    4.2854919    4.2854919   -5728.9396   -5280.3769    5548.8473   -17455.289    6417.1788   -11485.781    11367.703    78.704948 
   79300    710.90167   -114.03578   0.64323877   -113.39254    12452.419    4.2812459    4.2812459    4.2812459    12452.419    44457.269   -2328.9817   -4771.0318    4509.0483   -9394.3886    3776.6944     78.47124 
   79400    1043.2149   -114.33038   0.94392275   -113.38646    -9139.753     4.292758     4.292758     4.292758    -9139.753   -2753.6084   -19949.528   -4716.1231   -15077.037    1343.6286   -13556.643    79.105962 
   79500    880.36366    -114.1838   0.79657154   -113.38723    13944.157    4.2764913    4.2764913    4.2764913    13944.157     27151.86    16958.048   -2277.4384   -225.00005   -4021.3428    2012.5438     78.21009 
   79600    713.12466   -114.03932   0.64525018   -113.39407    -9554.873     4.288015     4.288015     4.288015    -9554.873   -4925.0202   -8204.5154   -15535.083    12168.833   -11723.056    18838.074    78.844045 
   79700    695.14111   -114.02049   0.62897829   -113.39151   -8701.0121     4.288913     4.288913     4.288913   -8701.0121   -17501.013   -15368.607    6766.5839    -10733.26    5050.0262    282.82256    78.893588 
   79800    775.48073   -114.08972   0.70167126   -113.38805    7919.4636      4.27886      4.27886      4.27886    7919.4636    9185.1913    5687.8048    8885.3946   -17459.037   -1195.3004   -8641.8193    78.340117 
   79900     651.0188   -113.98024   0.58905549   -113.39118   -9812.4761    4.2895457    4.2895457    4.2895457   -9812.4761   -18765.581    10318.206   -20990.053    3258.2315   -10380.888    7002.5785    78.928509 
   80000    659.00193   -113.98813    0.5962788   -113.39185    2314.3676    4.2792093    4.2792093    4.2792093    2314.3676   -7463.0863    8585.0333    5821.1558    3388.2051   -7049.3356     11092.47    78.359307 
   80100    643.45111   -113.97757   0.58220808   -113.39536   -11950.384    4.2872097    4.2872097    4.2872097   -11950.384    -26587.95    -14944.98    5681.7774    -19533.55    5001.7584   -9715.3021    78.799633 
   80200    813.96332   -114.12997   0.73649111   -113.39348   -9373.3832    4.2861057    4.2861057    4.2861057   -9373.3832   -20033.857   -6416.2678   -1670.0246   -8017.2493   -7090.2092   -9531.9439    78.738772 
   80300     902.5299   -114.20692   0.81662802   -113.39029    22219.071    4.2743949    4.2743949    4.2743949    22219.071    32683.339    38571.187   -4597.3125    4735.3075   -11572.575    6834.5589    78.095127 
   80400    764.26058   -114.08563   0.69151903   -113.39411   -19543.211    4.2955583    4.2955583    4.2955583   -19543.211   -26614.821   -20729.631   -11285.179    -19009.98    5321.0621    7730.3381    79.260875 
   80500    744.04884   -114.06668   0.67323103   -113.39345    5906.7029    4.2788543    4.2788543    4.2788543    5906.7029   -2843.1603    6807.2153    13756.054   -16734.185   -1711.1001   -7176.3911    78.339805 
   80600    1121.0725   -114.40542      1.01437   -113.39105    11101.708    4.2774227    4.2774227    4.2774227    11101.708    35810.457    9931.2795   -12436.613    11040.541   -8424.3094    -11426.38    78.261199 
   80700    986.84031   -114.28322   0.89291385    -113.3903   -15881.631    4.2944092    4.2944092    4.2944092   -15881.631   -5702.5998   -15560.487   -26381.806   -7886.2815   -6700.3463    2837.0653    79.197281 
   80800    744.67147   -114.06513   0.67379439   -113.39133    12322.609     4.272919     4.272919     4.272919    12322.609    23373.645   -7803.3122    21397.495   -27622.229    5918.4889    4938.3372    78.014255 
   80900    830.36818   -114.14601   0.75133458   -113.39467   -12210.116    4.2891353    4.2891353    4.2891353   -12210.116    5873.4437   -14105.734   -28398.057    3739.3577   -7013.9915    -11110.86    78.905855 
   81000    932.94304   -114.23542   0.84414647   -113.39127   -4536.6003    4.2864397    4.2864397    4.2864397   -4536.6003    13113.544   -3059.6268   -23663.717    8350.2511   -7016.1132   -8554.0525    78.757178 
   81100    892.15467   -114.19555    0.8072403   -113.38831    14717.503    4.2727087    4.2727087    4.2727087    14717.503    11917.208    26191.915    6043.3839   -18937.105    9655.0989    2198.4855     78.00274 
   81200    710.33977   -114.03566   0.64273035   -113.39293    -27372.75    4.2945861    4.2945861    4.2945861    -27372.75   -14248.077   -39970.468   -27899.703   -6602.8848   -1335.6941   -2724.9258     79.20707 
   81300    646.70051   -113.97973   0.58514822   -113.39459    1920.7469    4.2787106    4.2787106    4.2787106    1920.7469    17995.913    -7777.344   -4456.3282    15106.789   -9170.2331   -11694.294    78.331917 
   81400    946.64113   -114.24987   0.85654078   -113.39333    2698.7993    4.2825353    4.2825353    4.2825353    2698.7993    3901.2784    4791.2611    -596.1415   -3752.9929   -3063.6243   -3881.8631    78.542165 
   81500    987.07476   -114.28246   0.89312598   -113.38933   -4377.8934    4.2896534    4.2896534    4.2896534   -4377.8934   -5292.4744   -2574.1893   -5267.0165    -14742.04    7368.8518    4969.5112    78.934454 
   81600    530.25564   -113.87402   0.47978645   -113.39423    15931.645    4.2728617    4.2728617    4.2728617    15931.645    23803.639    -6632.143    30623.439    10043.468   -5637.9586   -7981.2132    78.011121 
   81700    571.62742   -113.91839    0.5172205   -113.40117   -22356.474    4.2933408    4.2933408    4.2933408   -22356.474    -13117.29   -46706.086   -7246.0457    14794.372   -7031.2266   -10507.222    79.138186 
   81800    1341.3576   -114.60484    1.2136885   -113.39115    6077.9205    4.2794323    4.2794323    4.2794323    6077.9205    10031.195   -6687.7989    14890.365   -2829.1212    9586.1079   -4984.2293    78.371559 
   81900    1183.8475   -114.46521    1.0711701   -113.39404    13146.584    4.2738541    4.2738541    4.2738541    13146.584    10399.225   -4122.1152    33162.644    4991.8977   -1394.1413   -2296.1568    78.065489 
   82000    425.74134    -113.7881   0.38521971   -113.40288   -36180.149    4.2975038    4.2975038    4.2975038   -36180.149   -19712.584   -63954.548   -24873.315    18868.844   -5804.2433   -14721.156    79.368615 
   82100    959.68017   -114.26517   0.86833879   -113.39683    9140.1333    4.2736478    4.2736478    4.2736478    9140.1333    17418.368    -5843.257    15845.289    2684.3055   -7245.3141    3521.8111    78.054185 
   82200    1389.4972   -114.64781    1.2572463   -113.39056    13983.956    4.2818439    4.2818439    4.2818439    13983.956    13354.093   -946.24085    29544.017   -8382.6706    2403.9411   -1960.3887    78.504128 
   82300    1021.7495   -114.32077    0.9245004   -113.39627   -12689.099    4.2898013    4.2898013    4.2898013   -12689.099    914.65327   -28533.516   -10448.435    3594.3977     614.0366   -18178.897    78.942618 
   82400    646.83782     -113.981   0.58527245   -113.39573    15603.307     4.275086     4.275086     4.275086    15603.307    38315.217   -6493.5543    14988.257     14579.14   -8914.0843   -7449.7116    78.133013 
   82500    1048.8996   -114.34148   0.94906641   -113.39241   -5514.7208    4.2889756    4.2889756    4.2889756   -5514.7208   -19211.948   -17498.127    20165.913   -16081.623    1817.5818    8388.2614    78.897044 
   82600    1021.4686   -114.31469   0.92424626   -113.39044    15534.816    4.2788719    4.2788719    4.2788719    15534.816    7574.8718    20855.328    18174.249   -15563.959   -1499.5239   -964.45914    78.340776 
   82700     980.5164   -114.28077   0.88719185   -113.39358   -2142.5616     4.280106     4.280106     4.280106   -2142.5616    12928.162   -6466.5722   -12889.275     11962.41   -4688.4134   -16542.004    78.408577 
   82800    678.50476   -114.01011   0.61392537   -113.39619   -16683.883    4.2892558    4.2892558    4.2892558   -16683.883   -20932.247   -20002.692   -9116.7096    5208.5832   -3451.6147    394.93741     78.91251 
   82900    886.76281   -114.19553   0.80236163   -113.39317    3863.2792    4.2767473    4.2767473    4.2767473    3863.2792   -4372.4932   -11507.445    27469.776    -31211.68   -1923.0438    5114.9184    78.224137 
   83000    1126.8056   -114.40999    1.0195574   -113.39043   -4779.1097    4.2876896    4.2876896    4.2876896   -4779.1097    8524.7872   -4140.9896   -18721.127   -3103.8995   -51.915058   -7015.4842    78.826095 
   83100    974.12111   -114.27441   0.88140525   -113.39301   -993.89306    4.2823134    4.2823134    4.2823134   -993.89306    11470.995    4148.9933   -18601.668    8271.2272   -10101.691   -7201.8541    78.529953 
   83200    598.66871   -113.94049   0.54168803    -113.3988    4137.6925    4.2780648    4.2780648    4.2780648    4137.6925    14546.899   -20008.884    17875.062   -25007.519    1288.1233     5406.156    78.296449 
   83300    1071.3262   -114.36445   0.96935845   -113.39509   -11073.467    4.2910441    4.2910441    4.2910441   -11073.467   -3795.4018   -29232.725   -192.27327   -18069.306   -886.73415    7692.3495    79.011247 
   83400    1470.3259   -114.71882    1.3303818   -113.38844    15931.769      4.27655      4.27655      4.27655    15931.769    39101.374    16101.697   -7407.7633    8524.5379   -10343.379   -5754.7762    78.213311 
   83500    945.19476   -114.25386   0.85523208   -113.39863   -7025.1372    4.2827137    4.2827137    4.2827137   -7025.1372    2956.7027   -24554.086      521.972   -22158.384    1317.0855   -2599.1416    78.551981 
   83600    706.31369   -114.03836   0.63908747   -113.39927   -17208.658    4.2885279    4.2885279    4.2885279   -17208.658   -18975.797   -36151.485     3501.306   -17576.116   -1952.9927    295.29435    78.872337 
   83700    1215.4787   -114.49001    1.0997907   -113.39022    14517.388    4.2765055    4.2765055    4.2765055    14517.388    30891.603    8293.9209    4366.6394     8170.469   -2287.0889    6018.4448     78.21087 
   83800    1230.8204   -114.50457    1.1136721    -113.3909   -3707.1117    4.2864139    4.2864139    4.2864139   -3707.1117    406.56352   -6577.3129   -4950.5858   -14120.882   -5631.8494   -1606.3913    78.755757 
   83900    800.22327   -114.11993   0.72405883   -113.39587    1840.3965    4.2821554    4.2821554    4.2821554    1840.3965    1718.2468   -15549.584    19352.527   -19841.411   -719.10116    3161.5988    78.521264 
   84000    794.28714   -114.11298   0.71868769   -113.39429    1780.0555    4.2822535    4.2822535    4.2822535    1780.0555    13321.772   -19892.274    11910.669    16116.807    3161.9043    8523.0172    78.526658 
   84100    947.67963   -114.24793   0.85748044   -113.39045   -3677.6425    4.2854044    4.2854044    4.2854044   -3677.6425   -10564.735    3659.5045   -4127.6968    6753.5312   -7056.9886    1957.8764    78.700129 
   84200    860.03209   -114.16759   0.77817511   -113.38941    13276.497     4.278995     4.278995     4.278995    13276.497     11378.15    11577.084    16874.257   -29440.544    291.74398    -2250.116    78.347535 
   84300    739.51318   -114.06037   0.66912706   -113.39125    -6941.708    4.2881464    4.2881464    4.2881464    -6941.708   -8384.7989   -26234.568    13794.243    788.94282    2086.9707    4467.1853    78.851294 
   84400    626.89732   -113.96013   0.56722987    -113.3929   -6144.9304    4.2802556    4.2802556    4.2802556   -6144.9304   -14710.101   -10848.806    7124.1162    20841.072   -860.02954    475.92946    78.416799 
   84500    794.18513   -114.11131   0.71859539   -113.39272   -3675.4091    4.2786799    4.2786799    4.2786799   -3675.4091   -11805.996   -4209.5151    4989.2839   -8023.0415   -7084.3319   -9497.1415     78.33023 
   84600    875.97121   -114.18251   0.79259716   -113.38991   -16862.377    4.2927715    4.2927715    4.2927715   -16862.377   -35841.456   -27580.997    12835.322   -15139.374   -4600.7663   -2011.8317    79.106709 
   84700    783.98459   -114.09964   0.70936574   -113.39028    4496.2295    4.2766166    4.2766166    4.2766166    4496.2295    -12931.67   -6133.8791    32554.238    21239.301    6440.8875    7958.7155    78.216962 
   84800    612.60377    -113.9482   0.55429677    -113.3939   -1886.6646     4.280667     4.280667     4.280667   -1886.6646        -1844   -16683.055    12867.061    4223.9313   -538.07305   -4135.8288    78.439415 
   84900    700.34755   -114.02544   0.63368918   -113.39175    -13419.82    4.2906426    4.2906426    4.2906426    -13419.82     -27079.7   -12384.253   -795.50585   -19089.061   -3276.1581   -3896.8347    78.989072 
   85000    912.99945   -114.21431   0.82610109   -113.38821     13625.06    4.2755215    4.2755215    4.2755215     13625.06    7700.3467    -6877.485    40052.319    11076.146    1354.0968    -110.3504    78.156894 
   85100    991.70141   -114.28634   0.89731228   -113.38903   -6224.1492    4.2864867    4.2864867    4.2864867   -6224.1492   -8281.7731    -25134.61    14743.936    17964.081   -2722.5175   -1765.7348    78.759771 
   85200    824.08386   -114.13591   0.74564839   -113.39027   -12698.871    4.2867736    4.2867736    4.2867736   -12698.871   -14685.805   -12738.747   -10672.061   -5851.4319   -7330.5425   -2906.0489    78.775588 
   85300    698.45004   -114.02465   0.63197227   -113.39268    3532.6438    4.2784219    4.2784219    4.2784219    3532.6438   -2234.1003    606.77133     12225.26   -2588.3037   -3691.1653   -1476.6881    78.316058 
   85400    1111.3511   -114.39698    1.0055738   -113.39141   -4171.3793    4.2875155    4.2875155    4.2875155   -4171.3793    -6435.742   -16638.078    10559.682    15060.876    6763.6999    1029.9637    78.816492 
   85500    1232.0637   -114.50334    1.1147971   -113.38855    18792.461    4.2775512    4.2775512    4.2775512    18792.461    22647.945     6851.763    26877.677   -1190.5538   -542.97358   -2053.3126    78.268255 
   85600    618.09009   -113.96023   0.55926091   -113.40097   -2442.9073    4.2868565    4.2868565    4.2868565   -2442.9073   -5296.3976    5001.2834   -7033.6078   -6856.1555     -977.538    -1965.264    78.780159 
   85700    807.07897   -114.12624   0.73026202   -113.39598   -14614.241     4.290931     4.290931     4.290931   -14614.241   -15675.812    -15344.18   -12822.731    9033.5402    4855.2856     1461.086    79.005005 
   85800    1433.6215   -114.67992    1.2971709   -113.38275    29561.549    4.2686142    4.2686142    4.2686142    29561.549     30246.02     18067.66    40370.968    312.55748   -3286.1721    6300.6412    77.778707 
   85900    1182.1738    -114.4633    1.0696557   -113.39364   -8450.7984    4.2891705    4.2891705    4.2891705   -8450.7984   -14878.037    -4437.902   -6036.4565   -11175.485   -1752.5282   -3320.5788    78.907799 
   86000    811.09297   -114.13091   0.73389397   -113.39701    -10191.42    4.2868853    4.2868853    4.2868853    -10191.42    -23056.52   -7182.6748   -335.06586    220.41927    4010.8997   -3369.0434    78.781745 
   86100    1007.3667   -114.30079   0.91148653    -113.3893    19332.789     4.273078     4.273078     4.273078    19332.789    25488.883    327.52182    32181.963    9684.9539    582.71086    4698.5267     78.02297 
   86200    1120.9969   -114.40163    1.0143016   -113.38733   -8703.8294    4.2910001    4.2910001    4.2910001   -8703.8294    5521.5663   -30704.594   -928.46078   -7787.8212   -1614.0819    8450.9409    79.008818 
   86300    948.25695   -114.24788   0.85800281   -113.38988    4805.8592    4.2792414    4.2792414    4.2792414    4805.8592    -17226.55    4683.2806    26960.847   -11871.112    3292.7491    -651.6359    78.361071 
   86400      851.881   -114.16248   0.77079983   -113.39168    -5560.923    4.2801017    4.2801017    4.2801017    -5560.923   -14677.025    3587.0193   -5592.7634    2126.7052     5403.239    4807.7034    78.408341 
   86500    826.51568   -114.13964   0.74784875   -113.39179   -13982.343    4.2867646    4.2867646    4.2867646   -13982.343   -3074.1624   -21214.054   -17658.812   -2897.8749   -2979.0518    14055.264    78.775088 
   86600    842.19178   -114.15318   0.76203282   -113.39114    4387.0669    4.2782139    4.2782139    4.2782139    4387.0669   -13146.229   -7451.4261    33758.856   -7783.3721   -3091.7785   -3039.8298    78.304639 
   86700    886.37368    -114.1927   0.80200953   -113.39069   -11086.482    4.2871728    4.2871728    4.2871728   -11086.482   -44121.714   -6281.0026    17143.271    10090.925    8058.8061   -426.18885    78.797598 
   86800    898.22912   -114.20237   0.81273658   -113.38964    57.415504    4.2789985    4.2789985    4.2789985    57.415504   -14704.262   -9007.7015    23884.211    4396.2176    1714.8769    8126.8633    78.347727 
   86900    751.51255   -114.07334   0.67998435   -113.39335   -475.00624    4.2820805    4.2820805    4.2820805   -475.00624   -6765.9823   -19985.272    25326.236   -14970.538   -1184.8452    3119.7186    78.517143 
   87000    672.02713   -114.00254   0.60806427   -113.39448   -13301.552    4.2884178    4.2884178    4.2884178   -13301.552   -37304.694   -11671.999    9072.0372     4494.291    3372.9377   -5541.0267    78.866262 
   87100    865.70383   -114.17396   0.78330702   -113.39065    17415.476    4.2722874    4.2722874    4.2722874    17415.476    -8271.839      18594.4    41923.868    14733.363    5531.3931   -792.08483     77.97967 
   87200    1014.9994   -114.30979   0.91839275    -113.3914   -3117.7691     4.288879     4.288879     4.288879   -3117.7691   -10485.103   -5468.7744    6600.5698   -10578.293   -3473.1749   -205.18034     78.89171 
   87300    691.42322   -114.02007   0.62561426   -113.39446   -11525.784    4.2870765    4.2870765    4.2870765   -11525.784   -13196.651   -31719.469    10338.768    -6868.944   -3369.3326   -4477.2737    78.792283 
   87400    634.66355   -113.96705   0.57425691    -113.3928     10620.58    4.2719853    4.2719853    4.2719853     10620.58    4857.0374    -5386.268    32390.972    26609.021    7416.3304    612.93884    77.963128 
   87500    1241.1423   -114.51229    1.1230116   -113.38928    -8062.724    4.2896226    4.2896226    4.2896226    -8062.724   -14595.517   -11843.529    2250.8741    8261.4673    4827.9014    1895.2386    78.932752 
   87600    1129.4186   -114.41225    1.0219216   -113.39033    11604.722    4.2811051    4.2811051    4.2811051    11604.722    22205.887   -2745.6026    15353.881   -15370.983    1169.2245   -301.56783    78.463501 
   87700    391.91067   -113.75502   0.35460901   -113.40041   -2336.5766    4.2789464    4.2789464    4.2789464   -2336.5766    3912.8986   -16931.144    6008.5158    14362.923    973.30138   -3138.0404    78.344867 
   87800     730.9229   -114.05857    0.6613544   -113.39722   -19833.105    4.2893173    4.2893173    4.2893173   -19833.105    -13351.05   -33577.035    -12571.23    22741.558    3844.1532   -4190.2287    78.915902 
   87900    1301.4735   -114.56388    1.1776005   -113.38628    18712.315    4.2762956    4.2762956    4.2762956    18712.315    29994.375    8267.5889     17874.98    -6320.692     -1720.77    2347.4278    78.199351 
   88000     809.2656   -114.12933   0.73224052   -113.39709   -7174.6279    4.2843255    4.2843255    4.2843255   -7174.6279   -6955.4227   -21625.009    7056.5477    9924.0125    1008.2968   -2615.2823    78.640701 
   88100    293.51923   -113.66614   0.26558237   -113.40056   -15325.387    4.2859822    4.2859822    4.2859822   -15325.387   -10820.151   -36046.895    890.88476     23693.56    9347.2754   -1935.4639    78.731963 
   88200    755.53009    -114.0767    0.6836195   -113.39308    9709.0302    4.2792913    4.2792913    4.2792913    9709.0302    32068.083   -2595.4186   -345.57378   -2743.4481   -598.61412      5384.35     78.36381 
   88300    941.19677   -114.23971   0.85161461    -113.3881    652.99514    4.2864327    4.2864327    4.2864327    652.99514    10348.164    9140.7866   -17529.966   -1435.9882   -2504.8814     4765.111    78.756795 
   88400    552.74943   -113.89328    0.5001393   -113.39314     1235.475    4.2800132    4.2800132    4.2800132     1235.475   -6690.2126    3261.0924    7135.5454    21401.743    3713.5866   -1355.7037    78.403476 
   88500    588.30538   -113.92704   0.53231107   -113.39473   -14513.643    4.2832931    4.2832931    4.2832931   -14513.643    70.216856   -28332.665   -15278.481    7079.0254    3356.8695   -1584.5136    78.583864 
   88600    894.98486   -114.19921   0.80980111   -113.38941   -15884.929    4.2885533    4.2885533    4.2885533   -15884.929    9379.4329    -23100.95   -33933.269   -6731.2427   -6048.7949    9751.3917    78.873739 
   88700    1078.5248   -114.36182   0.97587194   -113.38595    3201.8753    4.2770481    4.2770481    4.2770481    3201.8753   -5404.4401    3651.9426    11358.123    14695.622   -3616.4757   -430.72022    78.240641 
   88800    861.64831   -114.17081   0.77963749   -113.39117   -6063.3832    4.2834619    4.2834619    4.2834619   -6063.3832   -18458.223   -1328.0909    1596.1639    13920.194    14123.975    4857.7511    78.593156 
   88900    780.60715   -114.10111   0.70630975    -113.3948   -6576.7442    4.2860911    4.2860911    4.2860911   -6576.7442    14519.118    -15387.75     -18861.6   -7134.6653    2246.4794    9955.8446    78.737966 
   89000    1061.7625    -114.3523   0.96070502    -113.3916    12229.277    4.2790245    4.2790245    4.2790245    12229.277    17836.504    7421.8173    11429.508    -7333.671   -2413.9294   -996.22196    78.349155 
   89100    1312.3972   -114.57539    1.1874846   -113.38791     168.9014    4.2859709    4.2859709    4.2859709     168.9014   -16356.993    2538.6905    14325.006    5904.2289    8583.5571   -548.59886     78.73134 
   89200    1047.7143   -114.34019   0.94799391    -113.3922     1733.947    4.2811815    4.2811815    4.2811815     1733.947    17675.363   -19930.294    7456.7718    2114.8357    3496.4188    5599.1801    78.467699 
   89300     912.9937   -114.22009   0.82609588   -113.39399     236.8628    4.2808353    4.2808353    4.2808353     236.8628    17160.372   -27762.272    11312.488   -6668.5387   -120.92811   -2411.7012    78.448663 
   89400    1111.1236   -114.39629     1.005368   -113.39093   -4668.4767    4.2853718    4.2853718    4.2853718   -4668.4767   -17168.279   -8900.7189    12063.568   -971.64237    4028.6636   -6334.8569    78.698329 
   89500    1114.7381   -114.39646    1.0086385   -113.38782    8770.3848    4.2799896    4.2799896    4.2799896    8770.3848   -11304.517    20055.999    17559.673    3900.3258    10447.556    6988.8455    78.402181 
   89600    744.78085   -114.06653   0.67389336   -113.39263   -7924.8601      4.28436      4.28436      4.28436   -7924.8601   -375.43915   -20928.347   -2470.7947   -5326.9136   -1612.6157     2062.665      78.6426 
   89700    571.58922   -113.91084   0.51718594   -113.39365   -5190.5893    4.2839226    4.2839226    4.2839226   -5190.5893    8077.8442     -24486.8    837.18825   -13693.953    2961.5358   -8282.1156    78.618516 
   89800    893.22162   -114.19697   0.80820569   -113.38877    748.47828    4.2812161    4.2812161    4.2812161    748.47828   -10392.461    9935.1126    2702.7828   -1986.9556    21980.176   -1139.0616      78.4696 
   89900    858.33436   -114.16595   0.77663896   -113.38931    479.01489    4.2820978    4.2820978    4.2820978    479.01489    9250.4738   -5545.3711   -2268.0581    362.46425   -280.54741    1964.6392    78.518095 
   90000     540.5889   -113.88253    0.4891362    -113.3934    -3974.006    4.2834354    4.2834354    4.2834354    -3974.006    27555.069   -39389.161    -87.92666   -10747.434   -3071.4863   -6375.6977    78.591695 
   90100     678.3324   -114.00454   0.61376941   -113.39077   -10778.451    4.2873279    4.2873279    4.2873279   -10778.451    4848.6108   -25711.363   -11472.601   -2248.3374    8763.0452    -6104.705    78.806147 
   90200    1040.9255   -114.32703   0.94185127   -113.38518      4470.34    4.2800283    4.2800283    4.2800283      4470.34   -8818.9747    10534.506    11695.488    8324.3457    9775.4497    4820.5819    78.404308 
   90300    896.84949   -114.20024   0.81148826   -113.38875     421.2501    4.2810021    4.2810021    4.2810021     421.2501    13527.967   -12458.132    193.91603    -3961.997   -4648.7215   -8063.2464    78.457835 
   90400    686.75293   -114.01513   0.62138848   -113.39374   -9952.4655    4.2872445    4.2872445    4.2872445   -9952.4655    27569.668   -42543.433   -14883.632   -18381.327    1696.5734   -8698.5912    78.801551 
   90500    946.26114   -114.24584   0.85619696   -113.38964    6049.2858    4.2809783    4.2809783    4.2809783    6049.2858    13446.901   -10122.872    14823.828    2421.7978    19190.844    2371.8757    78.456526 
   90600    1072.4775   -114.35767   0.97040014   -113.38727     4414.051    4.2832034    4.2832034    4.2832034     4414.051    21385.552   -14471.301    6327.9015    10947.117   -2446.4316     -3042.24    78.578928 
   90700    943.77933   -114.24338   0.85395138   -113.38943   -10456.006    4.2861606    4.2861606    4.2861606   -10456.006     25675.26   -45318.781   -11724.497   -11342.571   -5666.2779   -11018.365    78.741795 
   90800    987.59323   -114.28336   0.89359511   -113.38977   -2256.1072    4.2772507    4.2772507    4.2772507   -2256.1072    869.36699   -23778.401    16140.713   -4188.9399    1972.3852   -1452.7385     78.25176 
   90900    1121.5238   -114.40512    1.0147783   -113.39035    913.71761    4.2816799    4.2816799    4.2816799    913.71761   -3619.3456   -10173.099    16533.598    19796.353    10987.981    2293.1713    78.495105 
   91000      1015.66   -114.30906   0.91899055   -113.39007   -2847.2863    4.2879309    4.2879309    4.2879309   -2847.2863    15491.259   -17911.339    -6121.779   -930.97827    1491.4213   -14125.856    78.839402 
   91100    949.11998   -114.24796   0.85878371   -113.38918    10257.053    4.2781311    4.2781311    4.2781311    10257.053    34044.491   -19293.595    16020.263   -16030.754    -865.7924   -2772.5622    78.300091 
   91200    912.53409   -114.21651   0.82568002   -113.39083    1330.1511    4.2819178    4.2819178    4.2819178    1330.1511    10589.336   -18821.652     12222.77    20863.591    7862.3076    5912.8472    78.508194 
   91300    1016.3928    -114.3098    0.9196536   -113.39015   -3973.2653    4.2837974    4.2837974    4.2837974   -3973.2653   -8310.7195   -9331.3063    5722.2298    24053.337   -431.50893   -5541.9117    78.611626 
   91400    1183.1275    -114.4567    1.0705186   -113.38618    4067.3154    4.2814063    4.2814063    4.2814063    4067.3154    9969.3336   -7104.7253    9337.3378   -16353.979   -3118.0104   -6703.7463    78.480063 
   91500    873.60636   -114.17918   0.79045739   -113.38872   -6642.8855    4.2868023    4.2868023    4.2868023   -6642.8855   -1057.0977   -17604.244   -1267.3144    3975.3301    767.64966    4611.3587    78.777169 
   91600    754.89917    -114.0735   0.68304863   -113.39045    3616.2275    4.2790533    4.2790533    4.2790533    3616.2275    2307.4761   -3210.1312    11751.338    34369.031    7130.9638    3595.8095    78.350737 
   91700    1148.6982   -114.42623    1.0393662   -113.38687    8357.6641    4.2812253    4.2812253    4.2812253    8357.6641    21359.494    7512.6182   -3799.1205   -2340.9285    4772.2295   -7577.6663    78.470105 
   91800    1073.4488   -114.35861   0.97127907   -113.38733   -7590.3888    4.2887738    4.2887738    4.2887738   -7590.3888    2621.4349    -14588.93   -10803.671   -3482.4166    167.68489    1160.7181    78.885906 
   91900    653.80176   -113.98414   0.59157358   -113.39257   -10210.356    4.2804122    4.2804122    4.2804122   -10210.356   -23434.011   -22405.885    15208.829    36729.734    5070.4986    5971.2298    78.425407 
   92000    953.95767   -114.25375   0.86316095   -113.39059    2875.4269    4.2816288    4.2816288    4.2816288    2875.4269    6180.0466   -2894.4748    5340.7089     11384.17    6901.7181   -2651.2738    78.492296 
   92100    1165.1138   -114.43864    1.0542194   -113.38442    6511.2047    4.2861791    4.2861791    4.2861791    6511.2047    33844.746    -5392.252     -8918.88   -10791.108   -3251.0557   -2353.0423    78.742818 
   92200    555.12946   -113.89542    0.5022928   -113.39313    295.96394    4.2816502    4.2816502    4.2816502    295.96394    10550.572   -29397.575    19734.895    29346.432   -4889.7039    2253.6239    78.493475 
   92300    692.35585   -114.01921   0.62645812   -113.39276   -13316.349    4.2841124    4.2841124    4.2841124   -13316.349    -28718.14   -31667.115     20436.21    21273.836    5927.7532     1776.353    78.628966 
   92400    1185.3922   -114.45679    1.0725677   -113.38423    4414.0716    4.2805354    4.2805354    4.2805354    4414.0716    19251.017    -10609.17    4600.3675    -9674.803    2975.2576    -238.8107    78.432179 
   92500    720.57038   -114.04303   0.65198722   -113.39104    977.54548    4.2845891    4.2845891    4.2845891    977.54548    29083.224   -37986.661    11836.073    25861.853   -1857.1194    1738.9269    78.655217 
   92600    491.44351   -113.83887   0.44466842    -113.3942   -4029.9036    4.2839638    4.2839638    4.2839638   -4029.9036    9413.5724   -46630.226    25126.943    21169.396    2520.1683    5569.4618    78.620785 
   92700    986.49496   -114.27866   0.89260137   -113.38606    1355.0135    4.2812417    4.2812417    4.2812417    1355.0135    16070.756   -24855.901    12850.185   -20921.441    10468.381   -2188.0873     78.47101 
   92800    975.74689   -114.26841   0.88287629   -113.38553   -8219.8713    4.2860873    4.2860873    4.2860873   -8219.8713    7270.4324    -36098.65    4168.6036    10549.476   -6174.2367    2208.2394    78.737755 
   92900    585.58112   -113.92098    0.5298461   -113.39113    3938.3934    4.2799283    4.2799283    4.2799283    3938.3934    24470.009   -35078.353    22423.523    30387.735    -13259.81    6754.2527    78.398812 
   93000    739.93298   -114.05872   0.66950691   -113.38921    725.72084      4.28455      4.28455      4.28455    725.72084    27166.247    -35238.05    10248.966   -15089.495    5192.8733    3365.6394    78.653066 
   93100    1007.8777   -114.29733   0.91194893   -113.38539   -10677.049    4.2855245    4.2855245    4.2855245   -10677.049    9014.5885    -35151.25   -5894.4851   -17076.252   -4229.7293    -3311.312    78.706745 
   93200    926.01948   -114.22635   0.83788189   -113.38846    3235.3846    4.2726862    4.2726862    4.2726862    3235.3846    14100.711   -13611.478    9216.9206    25656.904   -9990.7705   -190.86164    78.001506 
   93300    729.41951   -114.05295    0.6599941   -113.39295   -6037.6434    4.2870918    4.2870918    4.2870918   -6037.6434    5724.1648   -26309.975    2472.8802   -2167.7053     2739.728    7810.5627     78.79313 
   93400    936.73661   -114.23483   0.84757897   -113.38725   -7031.6756     4.288775     4.288775     4.288775   -7031.6756    16810.171   -30687.989   -7217.2092   -28819.243    3359.7168   -6156.2093    78.885975 
   93500     1038.747   -114.32287   0.93988009   -113.38299     8858.717    4.2727837    4.2727837    4.2727837     8858.717    20830.441    8792.5478   -3046.8374    9002.2314   -14051.863   -3141.4211    78.006848 
   93600    875.99282   -114.18258   0.79261672   -113.38996   -4181.8607    4.2807557    4.2807557    4.2807557   -4181.8607   -3741.7158   -4943.4473    -3860.419    5706.5825   -12796.479    8681.4128    78.444291 
   93700     889.0589   -114.19428   0.80443917   -113.38984   -7731.0464    4.2881504    4.2881504    4.2881504   -7731.0464    -5422.827   -20338.105    2567.7928   -21656.205     4768.815    4151.8652    78.851514 
   93800    1002.0677   -114.29307   0.90669187   -113.38638    3852.4516    4.2825309    4.2825309    4.2825309    3852.4516    10435.673    5636.0843   -4514.4027   -6067.4065   -3912.1691     -7450.97     78.54192 
   93900    913.43936   -114.21316   0.82649913   -113.38666    10204.299    4.2769275    4.2769275    4.2769275    10204.299    19623.191    14519.132   -3529.4274    12772.674   -11925.952   -2461.2561    78.234023 
   94000    845.86564   -114.15587   0.76535701   -113.39052   -4822.2412    4.2828554    4.2828554    4.2828554   -4822.2412   -17529.471   -15043.954    18106.701   -13899.537    986.09994    6473.2783    78.559777 
   94100    924.44001   -114.22452   0.83645275   -113.38807   -11720.853    4.2877519    4.2877519    4.2877519   -11720.853   -24973.119   -15351.939     5162.499   -19672.626     2676.826    -14322.33    78.829532 
   94200    1065.8306   -114.34945   0.96438593   -113.38506    2239.7392    4.2796851    4.2796851    4.2796851    2239.7392    11793.216    6558.6561   -11632.655     5983.855   -13271.836   -9867.9006    78.385447 
   94300     901.8312   -114.20368   0.81599582   -113.38768    11774.797    4.2772261    4.2772261    4.2772261    11774.797     20138.58    1912.8353    13272.976   -1567.7093   -11172.655    7960.7219    78.250412 
   94400    756.47014    -114.0755   0.68447008   -113.39103   -5807.7401    4.2867485    4.2867485    4.2867485   -5807.7401    6492.5022   -33896.736    9981.0136    -19259.77    3648.1099   -6181.4903    78.774201 
   94500    946.71111   -114.24353   0.85660411   -113.38693   -12255.728     4.287919     4.287919     4.287919   -12255.728    8192.4107    -27682.88   -17276.715     475.2158     5162.904    -17771.32    78.838747 
   94600    1174.5863    -114.4457    1.0627903   -113.38291    9103.6152    4.2750881    4.2750881    4.2750881    9103.6152    12013.559    6460.5341    8836.7528    4271.9221   -5545.5467    -63.19816    78.133129 
   94700    879.03341   -114.18468    0.7953679   -113.38931    1985.5662    4.2801115    4.2801115    4.2801115    1985.5662    15810.655   -30006.141    20152.184   -21375.546    -3116.158    3374.5738    78.408879 
   94800    659.53795   -113.98935    0.5967638   -113.39259   -9706.0368    4.2902638    4.2902638    4.2902638   -9706.0368    27611.716    -51172.38   -5557.4468   -9360.0317     5148.923   -18405.233    78.968154 
   94900    1002.7921   -114.29335   0.90734733     -113.386    10146.561    4.2771162    4.2771162    4.2771162    10146.561    36962.808   -9314.5136    2791.3874     4134.911    1657.2971   -6816.4642    78.244379 
   95000    933.97633   -114.23346   0.84508141   -113.38838    3434.6339    4.2777834    4.2777834    4.2777834    3434.6339    8381.9056   -16585.973    18507.969       -16228   -6404.2106    5685.3373    78.281001 
   95100    673.23963   -114.00025   0.60916136   -113.39108   -17465.377    4.2882827    4.2882827    4.2882827   -17465.377   -10221.934   -51852.888     9678.691   -22201.003    1382.0476   -12849.338     78.85881 
   95200    841.43305   -114.14807   0.76134631   -113.38672    5952.7498    4.2789063    4.2789063    4.2789063    5952.7498    33512.693   -18099.877    2445.4329    8116.3782    13738.157   -7709.9465    78.342664 
   95300    760.77667   -114.07505   0.68836672   -113.38668   -3206.7072    4.2847088    4.2847088    4.2847088   -3206.7072    29579.459   -24934.767   -14264.813   -4656.3274    6464.0841    8815.3942    78.661807 
   95400    614.53295   -113.94578   0.55604233   -113.38974   -6050.1463    4.2824169    4.2824169    4.2824169   -6050.1463    10062.207   -32228.836    4016.1903   -27999.421   -7445.4508    -1679.301    78.535647 
   95500    926.27247    -114.2252    0.8381108   -113.38708    -1991.713      4.27954      4.27954      4.27954    -1991.713     10414.93   -13017.798   -3372.2712   -5693.0863    6926.6603   -8012.7955    78.377474 
   95600    890.89441   -114.19358   0.80609998   -113.38748   -14041.663    4.2879069    4.2879069    4.2879069   -14041.663    4884.1937   -12607.188   -34401.995    5128.3232     16906.36    6983.8025    78.838082 
   95700    646.95891   -113.97592   0.58538202   -113.39053    4592.4215    4.2768093    4.2768093    4.2768093    4592.4215    29477.199   -11552.802   -4147.1322   -26004.525   -3674.9938    10299.611    78.227538 
   95800    750.78157   -114.07107   0.67932295   -113.39175    6632.5962    4.2811399    4.2811399    4.2811399    6632.5962    21293.309   -700.86822   -694.65188   -17655.569   -2529.4477   -6434.5969    78.465414 
   95900    992.79288   -114.28554   0.89829986   -113.38724   -7186.1477    4.2858756    4.2858756    4.2858756   -7186.1477    4807.8249    5115.8468   -31482.115    11621.774    21134.296   -3687.3657    78.726089 
   96000    748.41669   -114.06697   0.67718315   -113.38979    2292.7053    4.2751196    4.2751196    4.2751196    2292.7053    1536.3613     8964.763   -3623.0084   -13136.793    12640.863    12366.848    78.134856 
   96100    706.17504   -114.03226   0.63896201    -113.3933   -8388.5736    4.2849391    4.2849391    4.2849391   -8388.5736   -3315.1473   -19625.172   -2225.4014   -32112.109   -10319.574   -503.75613    78.674496 
   96200    902.33644   -114.20525   0.81645297    -113.3888    5747.7254    4.2822301    4.2822301    4.2822301    5747.7254    22078.554    10029.719   -14865.096   -1671.9703    6267.5771   -2579.3619    78.525374 
   96300    816.46242    -114.1284   0.73875236   -113.38964    4358.8514    4.2792475    4.2792475    4.2792475    4358.8514     17194.99    15516.958   -19635.394    4858.9926    19508.434    5392.9119    78.361405 
   96400    736.21357   -114.05663   0.66614151   -113.39049   -18066.866    4.2871606    4.2871606    4.2871606   -18066.866   -15816.946   -24498.514   -13885.139   -32989.482   -1463.1257    9747.1663    78.796922 
   96500     967.8854   -114.26422   0.87576305   -113.38845     3132.121     4.276827     4.276827     4.276827     3132.121    3404.7355    6230.5794   -238.95181   -15121.391   -4762.7555   -2896.2626    78.228508 
   96600    1006.4624   -114.29874   0.91066831   -113.38807    1910.7254    4.2814039    4.2814039    4.2814039    1910.7254    14103.089    20457.602   -28828.515    7390.2841    21846.628   -5424.4838    78.479928 
   96700    646.32939   -113.97637   0.58481242   -113.39155   -5158.3703    4.2863694    4.2863694    4.2863694   -5158.3703    16335.484   -12546.363   -19264.232    -25340.22    11893.857    9756.2086    78.753306 
   96800    872.74629   -114.18019   0.78967918   -113.39051    4073.2478    4.2759327    4.2759327    4.2759327    4073.2478   -411.93617    683.11671    11948.563   -28831.387   -11308.824    753.15524    78.179442 
   96900    1148.9979   -114.42835    1.0396374   -113.38871   -3187.1468    4.2822215    4.2822215    4.2822215   -3187.1468     -6174.83    17497.721   -20884.331    8084.5249     9048.569   -4853.1868    78.524898 
   97000     859.2016   -114.16919   0.77742366   -113.39177   -2637.0873    4.2845457    4.2845457    4.2845457   -2637.0873    1973.5946    9866.0352   -19750.892   -4853.3217    20563.501   -586.30047    78.652825 
   97100    726.37912   -114.05037   0.65724309   -113.39312    6702.9576    4.2797425    4.2797425    4.2797425    6702.9576    12290.285    -5087.182     12905.77   -36201.964    1081.6297    3639.2697    78.388604 
   97200    1156.1184   -114.43194    1.0460802   -113.38586   -2451.8308    4.2854475    4.2854475    4.2854475   -2451.8308    6970.1117   -7672.6176   -6652.9866   -5584.3268     196.2277   -2872.2773      78.7025 
   97300    1106.2163   -114.38778    1.0009278   -113.38686   -1931.5146    4.2812508    4.2812508    4.2812508   -1931.5146   -7277.1072    14307.266   -12824.702    2713.8543    15973.758   -4066.0991    78.471509 
   97400    780.39131   -114.09876   0.70611445   -113.39265    254.39503    4.2787264    4.2787264    4.2787264    254.39503   -6256.4388   -8682.5223    15702.146    -37748.53     8565.956    2107.1312    78.332784 
   97500    1022.3807   -114.31668   0.92507154   -113.39161    1564.8069    4.2860241    4.2860241    4.2860241    1564.8069    16569.905   -21019.461    9143.9763   -16250.236   -7537.3074   -1384.3951    78.734275 
   97600    1257.1586   -114.52403    1.1375035   -113.38652    15553.209    4.2778794    4.2778794    4.2778794    15553.209    29372.656    20786.018   -3499.0464    14837.727    6620.7081    -417.5336    78.286272 
   97700    912.14129   -114.21918   0.82532461   -113.39385   -11588.414    4.2821572    4.2821572    4.2821572   -11588.414   -24556.306   -14029.266    3820.3309   -29148.533    16266.067    4587.5928    78.521363 
   97800    935.41678   -114.24034   0.84638476   -113.39395   -10614.361    4.2841107    4.2841107    4.2841107   -10614.361   -14394.898   -32707.643    15259.459   -37151.481   -32.820753   -519.02277    78.628876 
   97900    1349.8247   -114.60738    1.2213498   -113.38603    15843.074    4.2777978    4.2777978    4.2777978    15843.074    46112.737    -1034.221    2450.7045    14748.691    1776.7736   -7204.0987     78.28179 
   98000    1037.0302   -114.32953   0.93832668   -113.39121   -6652.0059    4.2867687    4.2867687    4.2867687   -6652.0059    7204.6848   -21240.964   -5919.7389   -10397.899    10115.232   -3411.4928    78.775313 
   98100    869.61615   -114.18079   0.78684697   -113.39394    -11857.91    4.2810443    4.2810443    4.2810443    -11857.91   -22595.262   -28010.154    15031.686    -46457.98    4737.5045    4321.2184    78.460154 
   98200    1334.5403   -114.59584    1.2075201   -113.38832    8922.3183    4.2775554    4.2775554    4.2775554    8922.3183    22814.131   -4825.4124    8778.2361    7361.5203   -2304.4912    600.36638    78.268485 
   98300    1148.8061   -114.42875    1.0394639   -113.38929   -1675.5145     4.288301     4.288301     4.288301   -1675.5145    25168.911   -22809.712   -7385.7417    9200.7484    -282.2188    -2041.609    78.859819 
   98400    774.97139   -114.09641    0.7012104    -113.3952   -177.83911    4.2777098    4.2777098    4.2777098   -177.83911    1297.1782   -16088.017    14257.321   -46981.228     9144.501   -906.99294    78.276959 
   98500    1162.3771   -114.44338    1.0517433   -113.39164    1540.9018    4.2794244    4.2794244    4.2794244    1540.9018   -3256.8528    1735.3841     6144.174   -11248.349    2945.8412    -3726.668    78.371123 
   98600    1370.0478   -114.62577    1.2396481   -113.38613   -2672.0683    4.2877156    4.2877156    4.2877156   -2672.0683    4342.7173   -5711.6363   -6647.2861    23136.327   -1168.3737    878.82058    78.827528 
   98700    663.73649   -113.99569   0.60056273   -113.39512    6920.4211    4.2782049    4.2782049    4.2782049    6920.4211    4954.3604    1623.8237    14183.079   -29750.937    8021.4024    358.48809    78.304143 
   98800    785.65416   -114.10506   0.71087639   -113.39418    1994.9182    4.2817153    4.2817153    4.2817153    1994.9182    7657.2788   -3221.5348    1549.0105   -35716.329    6657.6019   -652.37628    78.497056 
   98900    1345.3491    -114.6016    1.2173001    -113.3843    2542.8639    4.2850294    4.2850294    4.2850294    2542.8639    5804.3287    16754.003    -14929.74    14201.558   -510.60887    3214.8672    78.679469 
   99000    843.73969   -114.15647    0.7634334   -113.39304    582.58337    4.2788177    4.2788177    4.2788177    582.58337   -19302.607    9711.3354    11339.022   -14858.496   -1614.6941    544.32152    78.337794 
   99100    447.39595   -113.80254   0.40481326   -113.39773   -10403.719    4.2834456    4.2834456    4.2834456   -10403.719   -18205.972   -16905.406    3900.2215    -40448.01    8862.2773    1448.5358    78.592258 
   99200    1061.4459   -114.34868   0.96041857   -113.38827     5921.327    4.2811396    4.2811396    4.2811396     5921.327    14501.673    22402.616   -19140.308    6058.7047    4667.2953   -3033.5162    78.465398 
   99300    931.87955    -114.2328    0.8431842   -113.38962   -3739.8216    4.2830679    4.2830679    4.2830679   -3739.8216   -3179.4167    1459.4194   -9499.4677   -10513.162   -6066.4355    174.88665    78.571472 
   99400    430.85355     -113.787   0.38984535   -113.39716   -17723.351    4.2812393    4.2812393    4.2812393   -17723.351   -42712.419   -20925.312    10467.677   -45460.518    5874.3896    3584.3102    78.470877 
   99500    757.20273   -114.07734   0.68513294   -113.39221    3154.5417    4.2756288    4.2756288    4.2756288    3154.5417   -13067.611    29590.991   -7059.7548   -1952.3313    10777.374   -1487.9889    78.162778 
   99600    862.81099   -114.16873   0.78068952   -113.38804   -9869.1259    4.2906713    4.2906713    4.2906713   -9869.1259   -12343.506    16939.179   -34203.051    5077.0499   -5770.8624     2926.994    78.990661 
   99700       520.98   -113.86358   0.47139365   -113.39218   -6773.3475    4.2807593    4.2807593    4.2807593   -6773.3475   -14426.677   -6982.1589    1088.7932   -35737.222   -6040.4088   -352.36643    78.444488 
   99800    609.26141   -113.94054   0.55127253   -113.38927    7623.6932     4.272648     4.272648     4.272648    7623.6932   -3495.0893     15736.66    10629.509   -13626.042    10421.729      1646.06    77.999416 
   99900    819.19988   -114.12853   0.74122927    -113.3873   -18416.239    4.2905539    4.2905539    4.2905539   -18416.239   -33605.388    14294.653   -35937.982    13887.283   -253.81917   -475.39623    78.984175 
  100000    699.20799   -114.02138   0.63265808   -113.38872   -2211.9385    4.2793418    4.2793418    4.2793418   -2211.9385   -13621.363    13773.218    -6787.671   -22641.861    -13093.09    552.75464    78.366586 
Loop time of 22.6076 on 1 procs for 100000 steps with 8 atoms

Pair  time (%) = 7.39882 (32.7272)
Kspce time (%) = 5.37051 (23.7554)
Neigh time (%) = 0 (0)
Comm  time (%) = 1.07909 (4.77314)
Outpt time (%) = 0.0248477 (0.109909)
Other time (%) = 8.73429 (38.6344)

Nlocal:    8 ave 8 max 8 min
Histogram: 1 0 0 0 0 0 0 0 0 0
Nghost:    2189 ave 2189 max 2189 min
Histogram: 1 0 0 0 0 0 0 0 0 0
Neighs:    2344 ave 2344 max 2344 min
Histogram: 1 0 0 0 0 0 0 0 0 0

Total # of neighbors = 2344
Ave neighs/atom = 293
Neighbor list builds = 0
Dangerous builds = 0
unfix 20
unfix 21
print "seeds:2937064"
seeds:2937064
