LAMMPS (16 Mar 2018)
# ---- initialize simulations
clear
units metal
dimension 3
boundary p p p
atom_style charge
atom_modify map array
# ---- create atoms
read_data /home/manuelesp/repos/pypospack/dev/MgO_iterative_conditioner/MgO_condition_by_a0/rank_15/MgO_NaCl.lmps_min_all/lammps.structure
  triclinic box = (0 0 0) to (4.2565 4.2565 4.2565) with tilt (0 0 0)
  1 by 1 by 1 MPI processor grid
  reading atoms ...
  8 atoms
# ---- define interatomic potential
include potential.mod
mass 1 24.305
mass 2 15.999

group Mg type 1
4 atoms in group Mg
group O type 2
4 atoms in group O

set group Mg charge 2.1646714455578775
  4 settings made for charge
set group O charge -2.1646714455578775
  4 settings made for charge

variable R_cut equal 10.0

pair_style buck/coul/long ${R_cut}
pair_style buck/coul/long 10
pair_coeff 1 1 0.0 0.5 0.0 ${R_cut}
pair_coeff 1 1 0.0 0.5 0.0 10
pair_coeff 1 2 1287.2247882855984 0.32953219803541306 0.0 ${R_cut}
pair_coeff 1 2 1287.2247882855984 0.32953219803541306 0.0 10
pair_coeff 2 2 7497.011162090245 0.39506089950108003 49.057725294064184 ${R_cut}
pair_coeff 2 2 7497.011162090245 0.39506089950108003 49.057725294064184 10

kspace_style pppm 1.0e-5

neighbor 1.0 bin
neigh_modify every 1 delay 0 check yes
# ---- define settings
compute eng all pe/atom
compute eatoms all reduce sum c_eng
# ---- run minimization
reset_timestep 0
fix 1 all box/relax aniso 0.0 vmax 0.001
thermo 10
thermo_style custom step pe xhi xlo yhi ylo zhi xy xz yz press pxx pyy pzz pxy pxz pyz c_eatoms
min_style cg
minimize 1e-25 1e-25 5000 10000
PPPM initialization ...
  using 12-bit tables for long-range coulomb (../kspace.cpp:321)
  G vector (1/distance) = 0.360132
  grid = 9 9 9
  stencil order = 5
  estimated absolute RMS force accuracy = 4.13189e-05
  estimated relative force accuracy = 2.86944e-06
  using double precision FFTs
  3d grid and FFT values/proc = 4096 729
Neighbor list info ...
  update every 1 steps, delay 0 steps, check yes
  max neighbors/atom: 2000, page size: 100000
  master list distance cutoff = 11
  ghost atom cutoff = 11
  binsize = 5.5, bins = 1 1 1
  1 neighbor lists, perpetual/occasional/extra = 1 0 0
  (1) pair buck/coul/long, perpetual
      attributes: half, newton on
      pair build: half/bin/newton/tri
      stencil: half/bin/3d/newton/tri
      bin: standard
Per MPI rank memory allocation (min/avg/max) = 4.994 | 4.994 | 4.994 Mbytes
Step PotEng Xhi Xlo Yhi Ylo Zhi Xy Xz Yz Press Pxx Pyy Pzz Pxy Pxz Pyz c_eatoms 
       0   -83.448318       4.2565            0       4.2565            0       4.2565            0            0            0    5474931.7    5474931.7    5474931.7    5474931.7 3.4706803e-11 2.9384276e-09 3.8727168e-09   -83.448318 
      10   -91.007966    4.2777825   -0.0212825    4.2777825   -0.0212825    4.2777825            0            0            0    4905909.1    4905909.1    4905909.1    4905909.1 -3.9807407e-10 -9.5501572e-10 -1.4885743e-09   -91.007966 
      20     -97.9163     4.299065    -0.042565     4.299065    -0.042565     4.299065            0            0            0    4392049.7    4392049.7    4392049.7    4392049.7 4.3056398e-10 1.6690575e-09   2.8453e-10     -97.9163 
      30   -104.22011    4.3203475   -0.0638475    4.3203475   -0.0638475    4.3203475            0            0            0    3928091.3    3928091.3    3928091.3    3928091.3 -1.6778576e-10 -1.8370001e-09 -2.3281706e-09   -104.22011 
      40   -109.96569      4.34163     -0.08513      4.34163     -0.08513      4.34163            0            0            0    3509032.3    3509032.3    3509032.3    3509032.3 2.1434202e-10 8.3253796e-10 3.7842836e-10   -109.96569 
      50   -115.19463    4.3629125   -0.1064125    4.3629125   -0.1064125    4.3629125            0            0            0    3130605.3    3130605.3    3130605.3    3130605.3 -4.3848885e-10 6.820542e-10 7.297148e-10   -115.19463 
      60   -119.94404     4.384195    -0.127695     4.384195    -0.127695     4.384195            0            0            0    2788925.9    2788925.9    2788925.9    2788925.9 9.8692597e-10 1.8277595e-10 4.2814722e-10   -119.94404 
      70   -124.25408    4.4054775   -0.1489775    4.4054775   -0.1489775    4.4054775            0            0            0      2480361      2480361      2480361      2480361 -1.2051104e-09 -8.6660036e-10 -1.2188093e-09   -124.25408 
      80   -128.15581      4.42676     -0.17026      4.42676     -0.17026      4.42676            0            0            0      2201799      2201799      2201799      2201799 1.0668777e-09 -3.5894228e-10 7.1985771e-10   -128.15581 
      90   -131.68066    4.4480425   -0.1915425    4.4480425   -0.1915425    4.4480425            0            0            0    1950288.3    1950288.3    1950288.3    1950288.3 4.1447571e-10 1.5121698e-09 1.5224579e-09   -131.68066 
     100   -134.85688     4.469325    -0.212825     4.469325    -0.212825     4.469325            0            0            0    1723275.5    1723275.5    1723275.5    1723275.5 1.1193481e-09 1.4501911e-09 2.0128199e-09   -134.85688 
     110   -137.70794    4.4906075   -0.2341075    4.4906075   -0.2341075    4.4906075            0            0            0    1518476.6    1518476.6    1518476.6    1518476.6 -5.8017285e-10 -9.4913615e-10 -1.5179653e-09   -137.70794 
     120   -140.26476      4.51189     -0.25539      4.51189     -0.25539      4.51189            0            0            0    1333659.8    1333659.8    1333659.8    1333659.8 -5.7172382e-10 -9.5457522e-10 -8.2719884e-10   -140.26476 
     130   -142.54673    4.5331725   -0.2766725    4.5331725   -0.2766725    4.5331725            0            0            0    1166970.7    1166970.7    1166970.7    1166970.7 3.1922989e-10 9.3174814e-10 1.4328035e-09   -142.54673 
     140   -144.57444     4.554455    -0.297955     4.554455    -0.297955     4.554455            0            0            0    1016743.1    1016743.1    1016743.1    1016743.1 -9.066397e-12 -5.0272653e-10 3.2358019e-10   -144.57444 
     150   -146.36847    4.5757375   -0.3192375    4.5757375   -0.3192375    4.5757375            0            0            0    881285.18    881285.18    881285.18    881285.18 -7.1643096e-10 6.8301429e-10 7.1331259e-10   -146.36847 
     160   -147.94624      4.59702     -0.34052      4.59702     -0.34052      4.59702            0            0            0    759263.33    759263.33    759263.33    759263.33 -3.4391292e-11 -5.5378326e-10 -1.3265456e-10   -147.94624 
     170   -149.32442    4.6183025   -0.3618025    4.6183025   -0.3618025    4.6183025            0            0            0    649402.94    649402.94    649402.94    649402.94 -4.9563173e-11 -2.6406697e-10 -3.3449794e-10   -149.32442 
     180   -150.51804     4.639585    -0.383085     4.639585    -0.383085     4.639585            0            0            0    550556.82    550556.82    550556.82    550556.82 6.0266459e-11 -1.8276875e-10 -3.0253535e-10   -150.51804 
     190   -151.54244    4.6608675   -0.4043675    4.6608675   -0.4043675    4.6608675            0            0            0     461665.4     461665.4     461665.4     461665.4 -2.3195318e-10 3.4930237e-10 2.5414126e-10   -151.54244 
     200   -152.41036      4.68215     -0.42565      4.68215     -0.42565      4.68215            0            0            0    381793.55    381793.55    381793.55    381793.55 4.0923044e-11 -4.37948e-11 -8.00619e-11   -152.41036 
     210   -153.13418    4.7034325   -0.4469325    4.7034325   -0.4469325    4.7034325            0            0            0    310084.93    310084.93    310084.93    310084.93 5.4738743e-11 5.9130134e-10 8.2514054e-10   -153.13418 
     220    -153.7252     4.724715    -0.468215     4.724715    -0.468215     4.724715            0            0            0    245766.37    245766.37    245766.37    245766.37 -4.0614586e-10 4.4074373e-10 5.6402946e-10    -153.7252 
     230   -154.19397    4.7459975   -0.4894975    4.7459975   -0.4894975    4.7459975            0            0            0    188137.56    188137.56    188137.56    188137.56 1.9330762e-10 -4.0341556e-11 -1.9724614e-10   -154.19397 
     240   -154.55034      4.76728     -0.51078      4.76728     -0.51078      4.76728            0            0            0    136562.48    136562.48    136562.48    136562.48 1.1955155e-10 -3.9910781e-10 -4.3762355e-10   -154.55034 
     250   -154.80331    4.7885625   -0.5320625    4.7885625   -0.5320625    4.7885625            0            0            0    90465.791    90465.791    90465.791    90465.791 3.3302411e-10 2.2970081e-10 3.5994931e-10   -154.80331 
     260   -154.95707     4.809845    -0.553345     4.809845    -0.553345     4.809845            0            0            0    49382.337    49382.337    49382.337    49382.337 -2.4036774e-10 1.3490217e-10 5.7713199e-10   -154.95707 
     270    -155.0279    4.8311275   -0.5746275    4.8311275   -0.5746275    4.8311275            0            0            0    12731.181    12731.181    12731.181    12731.181 -1.82437e-10 1.2359854e-10 1.2775794e-10    -155.0279 
     279   -155.03346    4.8391476  -0.58264755    4.8391476  -0.58264755    4.8391476            0            0            0   -5.8066256   -5.8066256   -5.8066256   -5.8066256 -8.3015063e-10 -3.7118379e-10 -6.6198151e-10   -155.03346 
Loop time of 0.199815 on 1 procs for 279 steps with 8 atoms

99.7% CPU use with 1 MPI tasks x no OpenMP threads

Minimization stats:
  Stopping criterion = linesearch alpha is zero
  Energy initial, next-to-last, final = 
        -83.4483177246     -155.033455419     -155.033455419
  Force two-norm initial, final = 456.443 0.000868408
  Force max component initial, final = 263.528 0.000453474
  Final line search alpha, max atom move = 0.015625 7.08553e-06
  Iterations, force evaluations = 279 304

MPI task timing breakdown:
Section |  min time  |  avg time  |  max time  |%varavg| %total
---------------------------------------------------------------
Pair    | 0.031973   | 0.031973   | 0.031973   |   0.0 | 16.00
Kspace  | 0.052282   | 0.052282   | 0.052282   |   0.0 | 26.17
Neigh   | 0.00029612 | 0.00029612 | 0.00029612 |   0.0 |  0.15
Comm    | 0.0025678  | 0.0025678  | 0.0025678  |   0.0 |  1.29
Output  | 0.00043321 | 0.00043321 | 0.00043321 |   0.0 |  0.22
Modify  | 0          | 0          | 0          |   0.0 |  0.00
Other   |            | 0.1123     |            |       | 56.18

Nlocal:    8 ave 8 max 8 min
Histogram: 1 0 0 0 0 0 0 0 0 0
Nghost:    1323 ave 1323 max 1323 min
Histogram: 1 0 0 0 0 0 0 0 0 0
Neighs:    1024 ave 1024 max 1024 min
Histogram: 1 0 0 0 0 0 0 0 0 0

Total # of neighbors = 1024
Ave neighs/atom = 128
Neighbor list builds = 4
Dangerous builds = 0
# ---- define output variables ----
variable natoms equal "count(all)"
variable tot_energy equal "c_eatoms"
variable a11 equal "xhi-xlo"
variable a22 equal "yhi-ylo"
variable a33 equal "zhi-zlo"
variable tilt_xy equal "xy"
variable tilt_xz equal "xz"
variable tilt_yz equal "yz"
variable tot_press equal "press"
variable press_xx equal "pxx"
variable press_yy equal "pyy"
variable press_zz equal "pzz"
variable press_xy equal "pxy"
variable press_xz equal "pxz"
variable press_yz equal "pyz"

# ---- output ----
print "pypospack:output_section:begin"
pypospack:output_section:begin
print "tot_energy = ${tot_energy}"
tot_energy = -155.03345541944
print "num_atoms = ${natoms}"
num_atoms = 8
print "a11 = ${a11}"
a11 = 5.42179510221265
print "a22 = ${a22}"
a22 = 5.42179510221265
print "a33 = ${a33}"
a33 = 5.42179510221265
print "a12 = ${tilt_xy}"
a12 = 0
print "a13 = ${tilt_xz}"
a13 = 0
print "a23 = ${tilt_yz}"
a23 = 0
print "tot_press = ${tot_press}"
tot_press = -5.80662559449521
print "pxx = ${press_xx}"
pxx = -5.8066255944848
print "pyy = ${press_yy}"
pyy = -5.80662559480846
print "pzz = ${press_zz}"
pzz = -5.80662559419239
print "pxy = ${press_xy}"
pxy = -8.30150631196067e-10
print "pxz = ${press_xz}"
pxz = -3.7118379363285e-10
print "pyz = ${press_yz}"
pyz = -6.61981509986158e-10
print "pypospack:output_section:done"
pypospack:output_section:done
print "pypospack:lammps_sim:done"
pypospack:lammps_sim:done
Total wall time: 0:00:00
