LAMMPS (10 Feb 2015)
# ---- initialize simulations
clear
units metal
dimension 3
boundary p p p
atom_style charge
atom_modify map array
# ---- create atoms
read_data /Users/eugeneragasa/pyflamestk_git/pypospack/tests/tests_integration/workflow/WorkflowLammpsThermalExpansion/param_1256/MgO_NaCl_unit.npt.T1100/lammps.structure
  triclinic box = (0 0 0) to (4.2565 4.2565 4.2565) with tilt (0 0 0)
  1 by 1 by 1 MPI processor grid
  reading atoms ...
  8 atoms
# ---- define interatomic potential
include potential.mod
mass 1 24.305
mass 2 15.999

group Mg type 1
4 atoms in group Mg
group O type 2
4 atoms in group O

set group Mg charge 1.66039996869
  4 settings made for charge
set group O charge -1.66039996869
  4 settings made for charge

variable R_cut equal 10.0

pair_style buck/coul/long ${R_cut}
pair_style buck/coul/long 10
pair_coeff 1 1 0.0 0.5 0.0 ${R_cut}
pair_coeff 1 1 0.0 0.5 0.0 10
pair_coeff 1 2 1528.2261267 0.282600919639 0.0 ${R_cut}
pair_coeff 1 2 1528.2261267 0.282600919639 0.0 10
pair_coeff 2 2 6677.06285722 0.138925130231 8.13419383626 ${R_cut}
pair_coeff 2 2 6677.06285722 0.138925130231 8.13419383626 10

kspace_style pppm 1.0e-5

neighbor 1.0 bin
neigh_modify every 1 delay 0 check yes
# ---- define settings
compute eng all pe/atom
compute eatoms all reduce sum c_eng
# ---- run minimization
reset_timestep 0
fix 1 all box/relax iso 0.0 vmax 0.001
thermo 10
thermo_style custom step pe lx ly lz xy xz yz press pxx pyy pzz pxy pxz pyz c_eatoms
min_style cg
minimize 1e-25 1e-25 5000 10000
PPPM initialization ...
  G vector (1/distance) = 0.352851
  grid = 8 8 8
  stencil order = 5
  estimated absolute RMS force accuracy = 3.9608e-05
  estimated relative force accuracy = 2.75062e-06
  using double precision FFTs
  3d grid and FFT values/proc = 3375 512
Neighbor list info ...
  1 neighbor list requests
  update every 1 steps, delay 0 steps, check yes
  master list distance cutoff = 11
Memory usage per processor = 4.06549 Mbytes
Step PotEng Lx Ly Lz Xy Xz Yz Press Pxx Pyy Pzz Pxy Pxz Pyz eatoms 
       0   -110.92329       4.2565       4.2565       4.2565            0            0            0    120138.29    120138.29    120138.29    120138.29 1.5343687e-10 -1.0407196e-10 -1.3145771e-10   -110.92329 
      10   -111.05478     4.299065     4.299065     4.299065            0            0            0    61836.089    61836.089    61836.089    61836.089 1.0666232e-10 -5.0344756e-11 -1.3613158e-10   -111.05478 
      20   -111.10767      4.34163      4.34163      4.34163            0            0            0    10591.608    10591.608    10591.608    10591.608 -1.2465538e-10 -9.1160209e-12 2.8254225e-10   -111.10767 
      25   -111.10952     4.351169     4.351169     4.351169            0            0            0   -6.6622077   -6.6622077   -6.6622077   -6.6622077 -1.5540302e-10 -3.5403029e-11 3.0098099e-10   -111.10952 
Loop time of 0.0138969 on 1 procs for 25 steps with 8 atoms

Minimization stats:
  Stopping criterion = linesearch alpha is zero
  Energy initial, next-to-last, final = 
        -110.923293971     -111.109518965     -111.109518965
  Force two-norm initial, final = 17.348 0.0010058
  Force max component initial, final = 17.348 0.0010053
  Final line search alpha, max atom move = 0.00777135 7.8125e-06
  Iterations, force evaluations = 25 41

Pair  time (%) = 0.00377679 (27.1771)
Kspce time (%) = 0.00217438 (15.6464)
Neigh time (%) = 0 (0)
Comm  time (%) = 0.000417233 (3.00233)
Outpt time (%) = 2.28882e-05 (0.164699)
Other time (%) = 0.00750566 (54.0094)

Nlocal:    8 ave 8 max 8 min
Histogram: 1 0 0 0 0 0 0 0 0 0
Nghost:    2189 ave 2189 max 2189 min
Histogram: 1 0 0 0 0 0 0 0 0 0
Neighs:    2344 ave 2344 max 2344 min
Histogram: 1 0 0 0 0 0 0 0 0 0

Total # of neighbors = 2344
Ave neighs/atom = 293
Neighbor list builds = 0
Dangerous builds = 0
unfix 1
# ---- define output variables ----
variable natoms equal "count(all)"
variable tot_energy equal "c_eatoms"
variable length_x equal "lx"
variable length_y equal "ly"
variable length_z equal "lz"
variable tilt_xy equal "xy"
variable tilt_xz equal "xz"
variable tilt_yz equal "yz"
variable tot_press equal "press"
variable press_xx equal "pxx"
variable press_yy equal "pyy"
variable press_zz equal "pzz"
variable press_xy equal "pxy"
variable press_xz equal "pxz"
variable press_yz equal "pyz"

# ---- output ----
print "pypospack:output_section:begin"
pypospack:output_section:begin
print "tot_energy = ${tot_energy}"
tot_energy = -111.109518965105
print "num_atoms = ${natoms}"
num_atoms = 8
print "xx = ${length_x}"
xx = 4.35116899821938
print "yy = ${length_y}"
yy = 4.35116899821938
print "zz = ${length_z}"
zz = 4.35116899821938
print "xy = ${tilt_xy}"
xy = 0
print "xz = ${tilt_xz}"
xz = 0
print "yz = ${tilt_yz}"
yz = 0
print "tot_press = ${tot_press}"
tot_press = -6.66220766530753
print "pxx = ${press_xx}"
pxx = -6.66220766529406
print "pyy = ${press_yy}"
pyy = -6.66220766581444
print "pzz = ${press_zz}"
pzz = -6.6622076648141
print "pxy = ${press_xy}"
pxy = -1.55403020158447e-10
print "pxz = ${press_xz}"
pxz = -3.54030294322521e-11
print "pyz = ${press_yz}"
pyz = 3.00980987063428e-10
print "pypospack:output_section:done"
pypospack:output_section:done
print "pypospack:lammps_sim:done"
pypospack:lammps_sim:done
#------------------------------------------------------------------------------
# RUN THERMOSTAT
# running using an NPT Nose-Hoover style thermostat
#------------------------------------------------------------------------------
variable tempdamp equal 0.1
variable pressdamp equal 1.0
# set initial velocities
velocity all create 1100 8430983 mom yes dist gaussian loop all
# fix for Nose-Hoover style thermostat
fix 20 all npt temp 1100 1100 0.1 aniso 0.0 0.0 1.0 drag 1.0 couple xyz
variable boxx equal lx
variable boxy equal ly
variable boxz equal lz
variable boxp equal press
variable boxt equal temp
# calculate averages every 10000 steps
reset_timestep 0
fix 21 all ave/time 10 10 100 v_boxx v_boxy v_boxz v_boxp v_boxt file lattice.out
thermo_style custom step temp pe ke etotal press lx ly lz press pxx pyy pzz pxy pxz pyz vol
thermo_modify flush yes
thermo 100
run 100000
PPPM initialization ...
  G vector (1/distance) = 0.351894
  grid = 8 8 8
  stencil order = 5
  estimated absolute RMS force accuracy = 4.14019e-05
  estimated relative force accuracy = 2.8752e-06
  using double precision FFTs
  3d grid and FFT values/proc = 3375 512
Memory usage per processor = 3.06549 Mbytes
Step Temp PotEng KinEng TotEng Press Lx Ly Lz Press Pxx Pyy Pzz Pxy Pxz Pyz Volume 
       0         1100   -111.10953   0.99530312   -110.11423    12896.113     4.351169     4.351169     4.351169    12896.113    5358.9113    13318.313    20011.114   -638.40646    7033.9893   -4074.9346    82.379254 
     100    325.46035    -110.2823   0.29448336   -109.98781    4691.7353    4.3789134    4.3789134    4.3789134    4691.7353    -20580.17    20090.693    14564.683    912.83031   -9426.4728    13588.635    83.965148 
     200    793.26114   -110.42038   0.71775935   -109.70262    -20738.92    4.3982309    4.3982309    4.3982309    -20738.92   -40377.619   -23425.728    1586.5869   -498.63394    -816.5231    10715.802     85.08129 
     300    1033.6872   -110.41076   0.93530193   -109.47546    8918.0761    4.3891987    4.3891987    4.3891987    8918.0761   -29238.491     25571.68    30421.039   -1068.9902    492.26619   -2477.6123    84.558202 
     400    656.18895   -109.88782   0.59373355   -109.29409    26247.471    4.3831734    4.3831734    4.3831734    26247.471   -10884.786   -10445.982    100073.18   -1600.1318   -5189.2129    19146.094    84.210443 
     500    1317.8505   -110.37539    1.1924188   -109.18297    -24360.08     4.407769     4.407769     4.407769    -24360.08   -39439.036   -16130.078   -17511.126    3877.5971    5961.0629    11975.516     85.63602 
     600    1285.8411   -110.28189    1.1634561   -109.11843   -468.64944    4.4043449    4.4043449    4.4043449   -468.64944   -45923.395    9963.8719    34553.575    313.74326   -3657.9808   -6956.0058    85.436599 
     700    908.87811   -109.93994   0.82237201   -109.11757   -13462.105    4.4008177    4.4008177    4.4008177   -13462.105   -28360.373   -33841.992    21816.048   -371.12886    5505.6438    30066.305    85.231501 
     800    798.28053   -109.83815     0.722301   -109.11585    34482.502    4.3985576    4.3985576    4.3985576    34482.502   -21648.431    21027.324    104068.61    2728.5661    -2321.117    -319.5427    85.100254 
     900    1405.5267   -110.38388    1.2717501   -109.11213   -23851.093    4.4087451    4.4087451    4.4087451   -23851.093   -36422.668   -9414.1264   -25716.485    2608.8332    10801.521    3213.8208    85.692928 
    1000    936.82695   -109.95447   0.84766071   -109.10681   -14658.422     4.404633     4.404633     4.404633   -14658.422   -29384.164   -34044.041    19452.939   -309.86611   -5135.1335    23556.753    85.453367 
    1100    1227.3229   -110.21101    1.1105075    -109.1005    9163.7732    4.3942811    4.3942811    4.3942811    9163.7732    -46529.13    15458.915    58561.535   -4491.8607    1381.2913    382.92503    84.852277 
    1200    1327.1584   -110.31219    1.2008408   -109.11135   -27150.704    4.4093608    4.4093608    4.4093608   -27150.704   -37508.212   -29062.202   -14881.699    2432.4163    4017.1595    3405.2891    85.728831 
    1300    710.05605   -109.75595   0.64247364   -109.11348    15181.785    4.4045843    4.4045843    4.4045843    15181.785   -13653.914   -33277.916    92477.186   -2621.7621   -7706.4376    17329.982    85.450532 
    1400    1385.1789   -110.35875     1.253339   -109.10541     10801.55     4.390123     4.390123     4.390123     10801.55   -13186.134    17817.932    27772.853   -3827.4054    442.09818   -9146.3423    84.611629 
    1500    1087.0033   -110.10558   0.98354343   -109.12204   -28874.164     4.408078     4.408078     4.408078   -28874.164   -30479.442   -39859.163   -16283.887    1025.3842   -1645.7697    26874.907    85.654031 
    1600    839.88561   -109.86986   0.75994615   -109.10991   -4086.8488    4.4098764    4.4098764    4.4098764   -4086.8488   -42495.415   -24235.067    54469.935   -3455.6164   -550.04642     17416.07    85.758912 
    1700    1167.9152   -110.15891    1.0567542   -109.10215    18661.583    4.3909461    4.3909461    4.3909461    18661.583   -33562.064    5322.6622    84224.152   -4276.1227    2321.6777   -351.31044    84.659228 
    1800    971.42196   -110.01009   0.87896301   -109.13113   -10286.078    4.4035514    4.4035514    4.4035514   -10286.078   -9359.0805   -17706.852   -3792.3005   -4143.6847    857.87075    25632.632    85.390432 
    1900    1271.9738   -110.27716    1.1509086   -109.12625   -22964.133    4.4064802    4.4064802    4.4064802   -22964.133   -42480.529   -15443.111   -10968.758     68.63141    7097.6192   -1895.7042    85.560926 
    2000    1088.7781   -110.09913   0.98514933   -109.11398     20206.06    4.3867208    4.3867208    4.3867208     20206.06   -24991.852    22499.584    63110.446    -874.6671    3705.6003    13626.881    84.415067 
    2100    719.93389   -109.78157   0.65141132   -109.13015   -12519.003    4.4081748    4.4081748    4.4081748   -12519.003    -26902.15   -45860.134    35205.274   -6119.0417   -2280.6726    28636.706    85.659677 
    2200    1423.2001    -110.3979    1.2877414   -109.11015   -9393.2455    4.4075158    4.4075158    4.4075158   -9393.2455   -39582.397    14653.307   -3250.6473    2403.4302   -3154.6583   -7718.0476    85.621263 
    2300    1223.0477   -110.22518    1.1066392   -109.11855   -11227.943     4.399812     4.399812     4.399812   -11227.943   -24168.279    3036.5545   -12552.103    5321.4371     7497.354    13346.661    85.173082 
    2400    989.20565   -110.02362   0.89505406   -109.12856   -6468.9093    4.3952437    4.3952437    4.3952437   -6468.9093   -33107.533   -22593.904     36294.71   -9810.4793    4062.6341    17554.041    84.908055 
    2500    777.05458    -109.8336   0.70309531    -109.1305    23027.552    4.4019532    4.4019532    4.4019532    23027.552   -29793.943    32435.879    66440.718   -1174.2652    -5675.395   -3325.1889    85.297489 
    2600    1356.5268   -110.34755     1.227414   -109.12014   -20648.853    4.4133277    4.4133277    4.4133277   -20648.853   -42021.106   -40363.369    20437.917   -5110.1269   -6874.5823    22494.313    85.960422 
    2700    1243.6279   -110.24078    1.1252607   -109.11552   -2501.6712    4.3991105    4.3991105    4.3991105   -2501.6712   -12329.312   -5319.7262    10144.024   -1996.1999    7503.5195    3611.5521    85.132348 
    2800    1221.3891   -110.22019    1.1051385   -109.11505    4022.1516    4.3982703    4.3982703    4.3982703    4022.1516   -14395.934   -4564.3176    31026.706   -908.76685    5553.7497   -1613.1875    85.083578 
    2900    920.76893    -109.9428   0.83313108   -109.10967   -3062.2215    4.4091534    4.4091534    4.4091534   -3062.2215   -43169.995   -6666.6893     40650.02   -6620.1281   -8939.6507    16813.969    85.716738 
    3000    1341.9806   -110.32109    1.2142522   -109.10684   -15882.459    4.4054752    4.4054752    4.4054752   -15882.459   -34073.176   -15634.542    2060.3406    1778.7693    9868.6693   -13981.973    85.502396 
    3100    1353.9129   -110.33041    1.2250489   -109.10536    6067.2325    4.4037893    4.4037893    4.4037893    6067.2325    2953.9183    5474.0013    9773.7779    1743.2007   -1880.1526    16498.252    85.404275 
    3200      721.351   -109.76083   0.65269354   -109.10813    8231.8294    4.4036468    4.4036468    4.4036468    8231.8294   -17292.735   -113.93408    42102.158    1723.7081    8659.8097    904.39357    85.395982 
    3300    1243.0419   -110.23405    1.1247304   -109.10932   -7285.3292    4.3974802    4.3974802    4.3974802   -7285.3292   -40030.603    -9222.765     27397.38   -4120.4572    4817.8733    2827.7299    85.037734 
    3400    1268.4993   -110.26654    1.1477648   -109.11878   -15620.704    4.4098504    4.4098504    4.4098504   -15620.704   -31817.841   -1480.9598   -13563.311    7226.8284   -3210.7633   -6023.5161    85.757394 
    3500    896.30999   -109.92862   0.81100011   -109.11762   -51.268852    4.4035876    4.4035876    4.4035876   -51.268852   -34156.536    -28528.07    62530.799    6301.6642   -11679.795    3037.2809    85.392537 
    3600    1236.7373   -110.23066    1.1190259   -109.11163    131.32718    4.3918914    4.3918914    4.3918914    131.32718   -272.63925   -10180.549    10847.169    -1949.319    12107.064   -14882.599    84.713921 
    3700    1043.9801    -110.0609   0.94461516   -109.11628   -11249.433    4.4055448    4.4055448    4.4055448   -11249.433   -19292.019   -2538.0244   -11918.254    11111.905   -884.44441    9238.9945    85.506448 
    3800    760.38422   -109.80042   0.68801162    -109.1124    3700.9551    4.4107376    4.4107376    4.4107376    3700.9551   -22951.604    -50461.85    84516.319    5375.1291   -6589.0919    9590.9563    85.809163 
    3900     1164.894   -110.15887    1.0540206   -109.10485    21073.318    4.3987208    4.3987208    4.3987208    21073.318    130.46715    41775.382    21314.106    593.76396      5077.94   -1093.3876    85.109724 
    4000    1359.0858   -110.34027    1.2297294   -109.11055   -2428.8117    4.4000208    4.4000208    4.4000208   -2428.8117    8990.7026   -20053.998    3776.8605   -6210.7714     4333.503    4423.1601    85.185207 
    4100    958.79912   -109.98121   0.86754159   -109.11367    8433.9908    4.4094434    4.4094434    4.4094434    8433.9908   -19883.291    13571.744    31613.519    3606.1576   -7846.8668   -2968.6748     85.73365 
    4200    1022.0538   -110.02894   0.92477574   -109.10417   -3310.9975    4.4114997    4.4114997    4.4114997   -3310.9975   -8532.6371   -29516.335     28115.98    22.294132   -2925.4635   -11990.288    85.853647 
    4300    1142.3605   -110.13083    1.0336318    -109.0972   -12895.859    4.4056497    4.4056497    4.4056497   -12895.859   -14368.552   -16269.848   -8049.1782   -348.83542   -9197.5371    12106.155    85.512558 
    4400    1200.0167   -110.17707    1.0858003   -109.09127    21842.329    4.3946006    4.3946006    4.3946006    21842.329    16776.311   -23701.965    72452.642     1079.629    -1460.465    2897.9022    84.870789 
    4500    917.51665   -109.93567   0.83018834   -109.10548   -2079.4714    4.4076877    4.4076877    4.4076877   -2079.4714    3448.1923   -2822.1164   -6864.4901   -79.370326    15424.628   -8289.0824    85.631283 
    4600     1247.797   -110.23438    1.1290329   -109.10535   -31662.333    4.4137185    4.4137185    4.4137185   -31662.333   -32572.611    -40256.29   -22158.098   -3174.8483   -10853.286    18958.851    85.983257 
    4700     918.3141   -109.92999    0.8309099   -109.09908    14243.984    4.4005181    4.4005181    4.4005181    14243.984   -3776.0146    6919.1741    39588.792   -1697.1746    9808.0431   -23322.978    85.214096 
    4800     953.2596    -109.9625   0.86252932   -109.09997     1054.123    4.3965403    4.3965403    4.3965403     1054.123    17811.991   -5579.5854    -9070.037    5076.3135    142.34043    11076.435    84.983217 
    4900    1506.4708   -110.46403    1.3630865   -109.10094   -11155.943    4.4027448    4.4027448    4.4027448   -11155.943   -11305.918   -18094.275   -4067.6376    3337.5267   -13262.485     8208.744    85.343515 
    5000    891.93775   -109.91309   0.80704402   -109.10605   -14135.226    4.4185961    4.4185961    4.4185961   -14135.226   -19008.435    -8916.415   -14480.827   -2165.3635    1547.5147      -8075.7    86.268631 
    5100    999.64056   -110.00852   0.90449579   -109.10402    598.05629    4.3907888    4.3907888    4.3907888    598.05629   -2016.3217   -17716.648    21527.138    3783.5615    -6755.795    15466.916    84.650131 
    5200     1264.337   -110.25618    1.1439987   -109.11218    16068.203    4.3878868    4.3878868    4.3878868    16068.203    -1561.172    48930.825    834.95536    1955.0257    1635.4107      -1940.6      84.4824 
    5300    1166.0308    -110.1704    1.0550492   -109.11535   -5629.8011    4.4158435    4.4158435    4.4158435   -5629.8011   -30678.659   -8481.8662    22271.122   -8685.8234    -1725.327   -7034.3945    86.107508 
    5400    1122.4541   -110.11899    1.0156201   -109.10337   -3361.2989    4.4055035    4.4055035    4.4055035   -3361.2989    7733.4828    300.43328   -18117.813    4544.8034    -13560.64    20228.046    85.504043 
    5500    921.13799   -109.92976   0.83346501   -109.09629    21730.781    4.3879878    4.3879878    4.3879878    21730.781   -2855.3202    52956.323     15091.34    1109.2024      16104.3   -13032.818    84.488233 
    5600    1006.8397   -110.02144   0.91100974   -109.11043   -1405.6372     4.402872     4.402872     4.402872   -1405.6372    -1708.099    -4231.457    1722.6446    6838.9606   -6147.9457    11101.718    85.350914 
    5700    1106.3549   -110.10775    1.0010532    -109.1067   -21539.532    4.4106182    4.4106182    4.4106182   -21539.532   -17783.528   -24752.913   -22082.156    2874.6386   -840.89648    24027.544    85.802194 
    5800    1286.7393   -110.26032    1.1642687   -109.09605    30910.952    4.3864594    4.3864594    4.3864594    30910.952    12266.748    62448.833    18017.276   -6471.4742    14008.945   -17886.948    84.399983 
    5900    1122.0663   -110.12579    1.0152692   -109.11052   -11349.999    4.3993679    4.3993679    4.3993679   -11349.999   -13548.068   -29229.324    8727.3929    4562.7128   -6826.3621    19533.156    85.147295 
    6000    718.58126   -109.75958   0.65018742   -109.10939   -19726.263    4.4101386    4.4101386    4.4101386   -19726.263   -34744.634   -1080.3852   -23353.771   -2465.7494    2416.0746    8610.0451    85.774209 
    6100    1476.1915   -110.42839    1.3356891   -109.09271    2180.8952     4.390301     4.390301     4.390301    2180.8952   -11836.178    16210.371    2168.4931     5332.861    -1517.044   -12721.323    84.621922 
    6200    664.71388   -109.70921   0.60144709   -109.10776    10161.323    4.3981029    4.3981029    4.3981029    10161.323    19612.644    2873.5541    7997.7704   -10899.201   -3558.5159    24243.774    85.073864 
    6300    1480.3978   -110.43971    1.3394951   -109.10022   -17630.566    4.4094482    4.4094482    4.4094482   -17630.566   -24454.489   -9044.3512   -19392.857    7276.3885   -8677.2762   -4213.2474    85.733931 
    6400    1054.6782   -110.04844   0.95429499   -109.09415    18117.351    4.4011849    4.4011849    4.4011849    18117.351    27281.169    1926.8655    25144.017   -7396.4272   -5714.1681    10044.051    85.252836 
    6500    823.25235   -109.84693   0.74489603   -109.10203   -20954.257    4.3961235    4.3961235    4.3961235   -20954.257   -21486.994   -6185.1274    -35190.65    407.90822   -226.08585    15909.582     84.95905 
    6600    1210.7184   -110.19576    1.0954834   -109.10027   -8163.4287    4.4000189    4.4000189    4.4000189   -8163.4287    -22918.76    -4629.471    3057.9444   -1952.6183    11289.354   -1205.5382    85.185096 
    6700    1089.9204   -110.08906   0.98618284   -109.10288    407.60001    4.4063233    4.4063233    4.4063233    407.60001    19502.237   -26909.515    8630.0782   -6290.7679    2212.4062     13039.42    85.551784 
    6800    1237.6555   -110.22017    1.1198567   -109.10031   -8782.8938    4.4016828    4.4016828    4.4016828   -8782.8938   -25246.112    14024.402   -15126.972   -6278.6812    3979.3391    5217.3932    85.281777 
    6900    1091.6642    -110.0831   0.98776074   -109.09534    21285.044    4.3996899    4.3996899    4.3996899    21285.044    49298.255   -23368.384     37925.26    4880.7021    6063.5382    5595.9806    85.165994 
    7000    1221.4046    -110.2011    1.1051526   -109.09595   -22800.594    4.4050741    4.4050741    4.4050741   -22800.594   -35264.591   -4088.4491   -29048.741    744.43877   -13692.699    5717.5418    85.479044 
    7100    888.51697   -109.89725   0.80394882    -109.0933    2876.1603    4.4044623    4.4044623    4.4044623    2876.1603    14520.955   -5449.4384   -443.03624   -5191.0991    6121.6581    3455.3331    85.443431 
    7200    1416.2564   -110.37233    1.2814586   -109.09087   -13540.574    4.4042326    4.4042326    4.4042326   -13540.574    8485.6779   -21455.065   -27652.335    996.64815   -14251.581   -5000.6953    85.430069 
    7300    1068.0693   -110.06008   0.96641159   -109.09367    26042.411    4.3896824    4.3896824    4.3896824    26042.411     37720.48   -11730.891    52137.644    10509.918   -7784.5107    3941.7577    84.586158 
    7400     925.7313   -109.95389   0.83762113   -109.11627    4156.9791    4.4064296    4.4064296    4.4064296    4156.9791     20762.79   -10225.291    1933.4376    5316.5059    4716.8774    -3004.767    85.557978 
    7500    1218.2188   -110.20469      1.10227   -109.10242   -18310.789    4.4138556    4.4138556    4.4138556   -18310.789    -7448.575   -25686.757   -21797.033    2826.9817    2608.1909   -3010.5891     85.99127 
    7600    858.51733   -109.87535   0.77680452   -109.09854   -1125.4883    4.4022833    4.4022833    4.4022833   -1125.4883   -8144.7114    23181.467    -18413.22    14390.099    741.45877    6156.7037    85.316682 
    7700    1176.3701   -110.15843    1.0644044   -109.09402   -4923.0149    4.3979051    4.3979051    4.3979051   -4923.0149    1494.1207    24981.852   -41245.017    -7805.118    3299.1009   -23245.058    85.062384 
    7800    1030.5963    -110.0277   0.93250522    -109.0952    9264.2778    4.4120926    4.4120926    4.4120926    9264.2778    3512.7377    4338.3459     19941.75   -4110.7142    8930.9895    6464.1453    85.888272 
    7900    1093.4526   -110.07966    0.9893789   -109.09028    -6491.174    4.4129601    4.4129601    4.4129601    -6491.174   -22297.399    10977.527   -8153.6502    -11196.06     818.6908   -4651.3132    85.938941 
    8000    1126.7706   -110.10254    1.0195257   -109.08301   -4702.6459     4.400755     4.400755     4.400755   -4702.6459   -4952.5311   -22658.989    13503.583    1252.2204    9405.6431    -16858.52    85.227859 
    8100    1330.3825   -110.28781     1.203758   -109.08405    2403.0478    4.4039297    4.4039297    4.4039297    2403.0478    15005.063    6050.8149   -13846.735   -3565.9524   -6279.2441    6557.7051    85.412441 
    8200    1218.9248   -110.19399    1.1029088   -109.09108   -18245.668    4.4108852    4.4108852    4.4108852   -18245.668   -31925.066   -4130.3733   -18681.566   -7101.7347    5742.6989   -12516.185    85.817779 
    8300    852.27252   -109.87041   0.77115409   -109.09926   -607.12969    4.4049596    4.4049596    4.4049596   -607.12969   -18479.429   -7019.7798     23677.82    6373.7192    726.78073   -4452.9968    85.472376 
    8400    1099.8639    -110.0941   0.99517993   -109.09892    17908.697    4.4010157    4.4010157    4.4010157    17908.697   -9543.1878    43666.324    19602.954    5529.0701   -4052.7154     18658.28    85.243004 
    8500    839.17904   -109.86326   0.75930683   -109.10396   -2772.3863    4.4084232    4.4084232    4.4084232   -2772.3863   -25581.195    17969.576   -705.53936    1967.1868    8205.4927   -3528.3031    85.674156 
    8600    1110.6074   -110.10061    1.0049009   -109.09571    9956.0435    4.4074739    4.4074739    4.4074739    9956.0435   -6716.9602    16923.017    19662.073   -2938.1142    5775.4273   -13083.869     85.61882 
    8700    1644.8341   -110.57846    1.4882805   -109.09018    -38850.48    4.4136215    4.4136215    4.4136215    -38850.48   -50867.405   -40800.727   -24883.309   -4602.1934   -3003.4561    2185.2827    85.977587 
    8800    847.23477   -109.85605   0.76659582   -109.08946    4688.1684    4.4025355    4.4025355    4.4025355    4688.1684   -29580.971     2403.168    41242.308   -1367.1168    5654.7865   -8444.4835    85.331346 
    8900    1166.5459   -110.14216    1.0555152   -109.08665    6573.7885    4.4004716    4.4004716    4.4004716    6573.7885   -7197.2656    39590.417   -12671.785    4423.8969    3101.4737    6079.5056    85.211391 
    9000    903.90497   -109.91118   0.81787221   -109.09331   -1228.7547    4.4158062    4.4158062    4.4158062   -1228.7547    -17977.75    64773.723   -50482.237   -3825.5575   -954.12198     1920.013    86.105324 
    9100    1145.4666   -110.12284    1.0364422    -109.0864    19484.928    4.4010749    4.4010749    4.4010749    19484.928   -19523.097    26532.215    51445.667    1634.4306   -9062.1562   -12845.632    85.246443 
    9200    1485.8768   -110.43488    1.3444526   -109.09043    -13494.88    4.4022076    4.4022076    4.4022076    -13494.88   -32842.534    5073.2601   -12715.367   -2336.9877      17987.1   -5627.7573    85.312283 
    9300    1010.7445   -110.00854   0.91454284     -109.094   -5112.5188    4.4178681    4.4178681    4.4178681   -5112.5188   -19747.754   -13923.537    18333.734   -7683.4361   -794.90572    1953.8501       86.226 
    9400    773.25919   -109.79581   0.69966117   -109.09614   -9756.5883    4.4101584    4.4101584    4.4101584   -9756.5883   -30997.507    44701.989   -42974.247   -6155.5983     9732.888   -8758.3456    85.775364 
    9500     1187.075   -110.16458    1.0740904   -109.09049    12680.487     4.391651     4.391651     4.391651    12680.487   -24633.122    68167.177   -5492.5947   -14372.164    8211.6705   -6934.0703     84.70001 
    9600    1269.6862   -110.25363    1.1488388   -109.10479    3028.8434    4.4019738    4.4019738    4.4019738    3028.8434    -20946.85    10218.183    19815.197   -11401.617   -5198.9553    480.47959    85.298691 
    9700    1114.3048   -110.11511    1.0082464   -109.10687   -45556.428    4.4192939    4.4192939    4.4192939   -45556.428   -63595.962   -13239.875   -59833.447    8633.3222    21588.468    447.14206    86.309511 
    9800    1081.2497   -110.07133   0.97833744   -109.09299    10099.622    4.3888316    4.3888316    4.3888316    10099.622    -22044.29    18159.035    34184.122   -3218.9498   -5499.6202     2165.417    84.536987 
    9900    798.39665   -109.82844   0.72240607   -109.10604    21162.462    4.3871203    4.3871203    4.3871203    21162.462   -15899.598    94558.937   -15171.954   -889.13897    12605.651   -7866.0741    84.438135 
   10000    1485.9202   -110.44006    1.3444918   -109.09557   -31140.812    4.4276922    4.4276922    4.4276922   -31140.812   -55629.765   -12145.864   -25646.807    7792.2971   -4076.6842    -7919.673    86.802508 
   10100    900.15893    -109.9025   0.81448272   -109.08802    14879.739    4.4072751    4.4072751    4.4072751    14879.739   -24586.365    63565.404    5660.1775     1220.424    1268.5823    -270.2526    85.607239 
   10200    1010.4539   -110.00059   0.91427993   -109.08631    8055.7996    4.3882569    4.3882569    4.3882569    8055.7996   -2893.0807    70412.818   -43352.339    16980.679    8652.6916   -5718.4923    84.503777 
   10300    978.78867   -109.98689   0.88562855   -109.10126   -257.29382    4.4051124    4.4051124    4.4051124   -257.29382   -19136.458    25709.445   -7344.8681    5116.2725   -12122.279     2038.494     85.48127 
   10400    1232.6953   -110.21539    1.1153686   -109.10002   -15996.227    4.4153996    4.4153996    4.4153996   -15996.227   -31218.917   -2374.3927   -14395.373    2340.1656    12090.091    5117.0859    86.081541 
   10500    1168.9346   -110.15053    1.0576766   -109.09286    8924.4526    4.4044458    4.4044458    4.4044458    8924.4526   -24572.045    75656.149   -24310.745    132.87977   -11707.257   -10749.396    85.442475 
   10600     1006.828   -109.99991   0.91099918   -109.08891    15188.846    4.3906509    4.3906509    4.3906509    15188.846    -17475.84     46389.18    16653.199   -2498.9884    4181.4641    4967.2995    84.642156 
   10700    1312.8964   -110.28357    1.1879363   -109.09564   -13889.508    4.4086541    4.4086541    4.4086541   -13889.508   -25109.106    1007.9878   -17567.404   -11323.144    2943.6847     9577.922     85.68762 
   10800    1217.6796   -110.19324    1.1017821   -109.09146   -30362.012    4.4187053    4.4187053    4.4187053   -30362.012   -33083.802   -20466.266   -37535.968   -1769.5146   -13620.069   -6299.2115    86.275027 
   10900    1133.0552   -110.10669    1.0252122   -109.08147    24232.386    4.3932564    4.3932564    4.3932564    24232.386   -16946.939    69871.957     19772.14    -14581.35    8096.9954    2699.1592    84.792929 
   11000    849.98829   -109.86672   0.76908727   -109.09763    1991.5569    4.4040081    4.4040081    4.4040081    1991.5569   -27020.763    61912.029   -28916.594    4147.3511    1356.3242   -4053.6932    85.417002 
   11100    1294.8425   -110.26443    1.1716007   -109.09283   -38767.036    4.4150378    4.4150378    4.4150378   -38767.036   -49866.797   -2563.3256   -63870.985   -1002.9162     926.2574    380.08761    86.060382 
   11200    1303.3024   -110.27252    1.1792554   -109.09327     18284.36    4.3975993    4.3975993    4.3975993     18284.36   -10469.726    62517.143    2805.6634    13434.916   -7679.5563    5835.6569    85.044641 
   11300    733.76804   -109.77412   0.66392874   -109.11019    2184.6924    4.4087743    4.4087743    4.4087743    2184.6924   -38800.672    60944.173   -15589.424   -550.86935    3568.4675   -2621.4295    85.694628 
   11400    1232.8596   -110.21149    1.1155173   -109.09597   -1610.7658    4.4040016    4.4040016    4.4040016   -1610.7658   -24197.117    44927.415   -25562.595    6694.9738    8485.6148    7074.1965    85.416623 
   11500    1058.1884   -110.06449   0.95747113   -109.10701     -13326.1     4.398971     4.398971     4.398971     -13326.1   -32502.444    30639.066    -38114.92   -8972.7831   -9427.5717    893.73123    85.124251 
   11600    960.42434   -109.98096   0.86901213   -109.11195    -7860.048    4.4149094    4.4149094    4.4149094    -7860.048   -46122.814    53071.621   -30528.951   -13152.299    30.511305     915.0811    86.052878 
   11700    972.27903   -109.98395    0.8797385   -109.10421    15939.721    4.4082015    4.4082015    4.4082015    15939.721   -18517.403    69340.463   -3003.8966     1117.939    7347.1112    -5038.273    85.661231 
   11800    1076.0069   -110.07768    0.9735937   -109.10409    5185.2269      4.39572      4.39572      4.39572    5185.2269   -15327.976    44757.443   -13873.786    311.66419   -12641.553   -681.01932     84.93566 
   11900    1382.6618   -110.35176    1.2510614    -109.1007   -26981.246    4.4094174    4.4094174    4.4094174   -26981.246   -29298.086   -10728.818   -40916.832     12415.09   -21.062605   -41.864461    85.732135 
   12000     585.8698   -109.63171   0.53010731    -109.1016     11715.84    4.4128249    4.4128249    4.4128249     11715.84   -17628.804    73082.247   -20305.923    4107.3674    183.60891    14198.064    85.931045 
   12100    1303.3947   -110.27058    1.1793389   -109.09124    7327.4529    4.3987833    4.3987833    4.3987833    7327.4529   -18820.416    23885.882    16916.893    5921.4523   -830.40012    4093.5024    85.113354 
   12200    1263.2788   -110.24074    1.1430412   -109.09769   -7083.7781    4.4006091    4.4006091    4.4006091   -7083.7781   -18871.249    24594.515   -26974.601   -5371.2288    -2680.472   -12162.426    85.219382 
   12300    891.69042    -109.9145   0.80682023   -109.10768    1726.7963    4.4132622    4.4132622    4.4132622    1726.7963   -28028.956    53778.806   -20569.462    3327.8598     -2638.33    2067.2944    85.956595 
   12400     1014.854   -110.01932   0.91826121   -109.10106    11387.805    4.4056894    4.4056894    4.4056894    11387.805   -4952.4938    39197.949   -82.040042    -6057.434    11872.564    1300.2745    85.514868 
   12500    1035.4981   -110.03615   0.93694043   -109.09921    2051.2335    4.4003745    4.4003745    4.4003745    2051.2335   -25132.876    38164.048    -6877.471   -2419.6428   -6170.7737    9314.3902    85.205755 
   12600    1450.0299   -110.40782    1.3120175    -109.0958   -7517.9308    4.4106742    4.4106742    4.4106742   -7517.9308   -29965.398    5367.5353    2044.0708    3282.7794   -2257.0356    1145.3136    85.805461 
   12700    566.83563   -109.62042   0.51288479   -109.10754    13327.634    4.4079281    4.4079281    4.4079281    13327.634   -38616.913    83934.311   -5334.4958   -5304.3222    7374.0031    -15427.14    85.645293 
   12800    1069.9857   -110.07555   0.96814558   -109.10741     7126.658    4.3918113    4.3918113    4.3918113     7126.658   -23529.818    64990.814   -20081.022    767.29248   -9049.2705    4569.2237    84.709286 
   12900    1610.0537   -110.57135    1.4568104   -109.11454    -12167.04     4.401163     4.401163     4.401163    -12167.04   -13602.101   -3921.7486    -18977.27   -1346.6917   -197.95691    1410.6541    85.251567 
   13000    625.78847   -109.68823   0.56622656     -109.122    4167.0619    4.4175595    4.4175595    4.4175595    4167.0619   -51659.596    68631.991   -4471.2086   -6075.1104    1798.5816    6937.3208    86.207933 
   13100    1306.9671   -110.28368    1.1825713   -109.10111    -5283.624       4.3995       4.3995       4.3995    -5283.624   -19945.486    31598.089   -27503.475    7160.5196   -2391.1291    8580.1306    85.154962 
   13200    1021.7918   -110.02733   0.92453868   -109.10279   -2528.6436    4.3928865    4.3928865    4.3928865   -2528.6436   -17857.522     32078.92   -21807.328   -9224.8736      5077.52    -3075.165    84.771515 
   13300    854.39721    -109.8881   0.77307655   -109.11502    5654.4235     4.408159     4.408159     4.408159    5654.4235   -47319.003    72184.375   -7902.1019    -12334.63   -2616.3678   -1945.7635    85.658752 
   13400    1395.5219   -110.37415    1.2626976   -109.11146     -7639.32    4.4138003    4.4138003    4.4138003     -7639.32   -37660.677    36020.579   -21277.863   -7657.9367   -244.42037    -198.8157    85.988041 
   13500    1190.7121   -110.18386    1.0773814   -109.10648    -6061.104    4.3990569    4.3990569    4.3990569    -6061.104   -14250.252     32332.87   -36265.931   -2476.3399   -5237.4199    6660.5168    85.129235 
   13600    745.81374   -109.78886   0.67482794   -109.11403    5244.9577    4.4011687    4.4011687    4.4011687    5244.9577    -36162.14    77212.567   -25315.554    414.36573   -901.16381   -1160.9551    85.251893 
   13700    1168.1691   -110.16933     1.056984   -109.11235   -11480.478    4.4151684    4.4151684    4.4151684   -11480.478   -33674.722    26082.364   -26849.076    14457.641   -3223.5442    5384.2192    86.068021 
   13800    993.65562   -110.00323   0.89908049   -109.10415   -12277.046    4.4132449    4.4132449    4.4132449   -12277.046   -32334.551    1003.7336   -5500.3213   -1069.6387   -6613.2096    -3076.541    85.955583 
   13900    1488.0816   -110.43778    1.3464475   -109.09133   -5648.7922    4.3955224    4.3955224    4.3955224   -5648.7922   -30574.443    34743.593   -21115.527   -9356.3251    2329.8516   -10825.318    84.924207 
   14000    1190.9138   -110.18272    1.0775638   -109.10515    6006.5916    4.4013544    4.4013544    4.4013544    6006.5916   -10637.451     55522.62   -26865.394   -5819.1968   -4420.0777    4634.2723    85.262687 
   14100    752.39623   -109.78989   0.68078392   -109.10911    22.288673    4.4164179    4.4164179    4.4164179    22.288673   -29517.665    5019.6218    24564.909   -14703.757    -6402.753    2095.2778    86.141116 
   14200    1578.8211   -110.51768    1.4285505   -109.08913   -19842.682    4.4122921    4.4122921    4.4122921   -19842.682    -21767.59   -21333.915   -16426.543    1731.1455    569.95017    2075.7851    85.899921 
   14300    1093.4518    -110.0794    0.9893782   -109.09002    21678.404    4.3966218    4.3966218    4.3966218    21678.404    -11667.59    65321.833    11380.969    -11839.34    8137.4515   -7280.8408    84.987948 
   14400    1029.9371    -110.0304   0.93190875    -109.0985     4956.937    4.4031831    4.4031831    4.4031831     4956.937   -26350.923     10727.27    30494.464   -11229.005   -5484.9295    702.93146    85.369005 
   14500    1115.1783   -110.09736    1.0090368   -109.08832    2140.6819    4.4159359    4.4159359    4.4159359    2140.6819   -22072.388    41544.768   -13050.334    9330.3439   -6859.0938    10760.002    86.112916 
   14600    1105.9009    -110.0835    1.0006424   -109.08285   -1100.4111      4.40619      4.40619      4.40619   -1100.4111   -26680.339   -32404.118    55783.224    -9525.155    7239.7211    5150.1505    85.544024 
   14700    1078.6477   -110.06761    0.9759831   -109.09163    740.94759    4.3990703    4.3990703    4.3990703    740.94759   -16517.878     9351.737    9388.9842    4349.9194   -9769.7144   -13386.987    85.130013 
   14800    1532.3845   -110.48169    1.3865337   -109.09516   -11051.978    4.4037993    4.4037993    4.4037993   -11051.978   -27364.254   -21056.449    15264.769    751.30721   -10860.545   -64.355321    85.404854 
   14900    1075.3882   -110.07385    0.9730338   -109.10082   -26187.219    4.4187928    4.4187928    4.4187928   -26187.219   -44746.633   -3301.7249   -30513.299   -8709.2236    2148.7011    8304.1775    86.280154 
   15000    504.77804   -109.55447   0.45673378   -109.09773    18215.039    4.4000971    4.4000971    4.4000971    18215.039   -23049.914    18669.445    59025.586    3222.5601   -11257.731   -25396.343    85.189642 
   15100    1431.5251   -110.38478     1.295274   -109.08951   -3186.1896    4.3850991    4.3850991    4.3850991   -3186.1896   -21698.409      21285.7   -9145.8603   -5621.7278    7919.0855    7153.1392    84.321481 
   15200     745.4588   -109.78626   0.67450679   -109.11175     2006.181    4.4066747    4.4066747    4.4066747     2006.181   -33200.362    19676.539    19542.366   -416.68687   -2740.0829    15192.238    85.572258 
   15300    1114.1319    -110.1092      1.00809   -109.10111    -18778.22     4.409636     4.409636     4.409636    -18778.22   -43886.144    14429.167   -26877.684    429.10924   -16391.661   -127.73046    85.744884 
   15400    1226.7167   -110.20039     1.109959   -109.09043    6592.2676     4.392061     4.392061     4.392061    6592.2676   -21164.586    7887.1968    33054.192   -15810.221    6529.8436    -8410.447    84.723736 
   15500    859.69973   -109.87949   0.77787438   -109.10161   -6003.7263    4.3956066    4.3956066    4.3956066   -6003.7263   -21774.687    14559.894   -10796.385    5404.8131   -16427.882    13736.718    84.929089 
   15600    1301.3867    -110.2796     1.177522   -109.10208   -18360.446    4.4131092    4.4131092    4.4131092   -18360.446   -42545.515   -14320.994    1785.1698    -3265.048   -1196.2359   -12037.112    85.947651 
   15700    949.03913    -109.9525   0.85871055   -109.09379    4214.2876     4.405395     4.405395     4.405395    4214.2876   -24967.588    40299.667   -2689.2155   -8492.8222    1548.8517    -7801.482    85.497726 
   15800    1120.2406   -110.10374    1.0136172   -109.09013    1519.8161    4.3915518    4.3915518    4.3915518    1519.8161    3431.5908    19521.151   -18393.294    9745.8915   -11910.046    9602.5798    84.694268 
   15900    1340.7544   -110.30712    1.2131427   -109.09398    7604.9519    4.4044921    4.4044921    4.4044921    7604.9519   -21811.662    2489.9741    42136.544    -5094.459    8345.6961   -2515.3155    85.445167 
   16000    921.02757   -109.93249    0.8333651   -109.09912   -12826.975      4.40437      4.40437      4.40437   -12826.975   -1360.3187    6152.4657   -43273.072    3983.6475   -14141.994    16349.428    85.438064 
   16100    1056.0826   -110.05467   0.95556575   -109.09911    631.81592    4.3963302    4.3963302    4.3963302    631.81592   -2507.7594   -10121.948    14525.155    563.83846    4210.0499    3830.7014    84.971038 
   16200    1324.2062   -110.29208    1.1981696   -109.09391   -4948.9864    4.4043329    4.4043329    4.4043329   -4948.9864   -21173.266      5411.58    914.72686    2545.1313   -6969.7288    1666.7982      85.4359 
   16300    877.13095   -109.88848   0.79364651   -109.09484   -5932.2109    4.4041021    4.4041021    4.4041021   -5932.2109   -25745.343    50917.064   -42968.354    4262.9428   -9257.4894    3767.3602     85.42247 
   16400    915.90839   -109.92599   0.82873316   -109.09726    26241.769    4.4031034    4.4031034    4.4031034    26241.769   -16743.787    33972.316    61496.777    8535.8027    3353.3508   -12417.343    85.364375 
   16500     997.0404   -110.00846   0.90214311   -109.10632   -14733.258    4.4073384    4.4073384    4.4073384   -14733.258   -32796.462    26597.287   -38000.599   -1140.1806   -452.00814   -12661.041    85.610927 
   16600    999.83135   -110.00416   0.90466841   -109.09949    810.24036    4.3880589    4.3880589    4.3880589    810.24036   -23358.369   -21301.692    47090.782    15067.842   -5063.9245    11587.232    84.492344 
   16700    1377.2649   -110.35123    1.2461782   -109.10505   -13761.079    4.4041552    4.4041552    4.4041552   -13761.079   -22197.567    -5900.861   -13184.809    -3855.883    4716.1598   -5436.9171    85.425561 
   16800    934.20595   -109.94324   0.84528918   -109.09796   -3717.3974    4.4139435    4.4139435    4.4139435   -3717.3974    -51706.95    59854.746   -19299.988    1092.5222   -2201.3335   -3916.5699    85.996408 
   16900    1074.6734   -110.05528   0.97238711    -109.0829    17229.276    4.3891167    4.3891167    4.3891167    17229.276   -12588.131     33467.42     30808.54    240.35445    2468.2634    2481.6311    84.553462 
   17000    1189.9056   -110.17347    1.0766516   -109.09682   -6586.2048    4.3992042    4.3992042    4.3992042   -6586.2048   -17440.847    25008.552    -27326.32   -14814.572   -4211.8428    1420.8052    85.137787 
   17100    1112.5418   -110.09392    1.0066512   -109.08727   -17691.901    4.4182345    4.4182345    4.4182345   -17691.901   -42460.236   -47813.301    37197.833   -3834.4165   -1389.7347   -4694.1991    86.247453 
   17200    1223.0186   -110.18292    1.1066129   -109.07631   -10775.216    4.4081327    4.4081327    4.4081327   -10775.216    1098.0298   -21125.429   -12298.249    8013.8847     3997.431    16627.887    85.657222 
   17300    1245.2896   -110.20377    1.1267642   -109.07701    7995.3895    4.3966153    4.3966153    4.3966153    7995.3895   -6668.4706    31816.711   -1162.0721   -12087.347   -11900.981    13911.973     84.98757 
   17400    1308.8344   -110.26892    1.1842609   -109.08466    881.66029    4.3995254    4.3995254    4.3995254    881.66029   -31758.846    50543.241   -16139.414    9870.6064    -1464.583   -2091.4489    85.156439 
   17500    1007.4874    -110.0076   0.91159575   -109.09601   -7608.4926    4.4068461    4.4068461    4.4068461   -7608.4926    17051.913   -15483.949   -24393.442    4813.0433   -5147.9181   -10882.069    85.582239 
   17600    1046.6687   -110.03227   0.94704782   -109.08522    4693.3411    4.4096495    4.4096495    4.4096495    4693.3411   -7879.7886    18231.352    3728.4603     7518.779   -2538.6647   -16467.674    85.745674 
   17700    1240.7575   -110.19987    1.1226634   -109.07721   -11562.025    4.4083167    4.4083167    4.4083167   -11562.025   -39033.263   -28607.731     32954.92    4981.4548    5325.9491   -12725.169    85.667948 
   17800    905.35031   -109.90056   0.81917999   -109.08138    20079.047    4.3957075    4.3957075    4.3957075    20079.047    16360.685   -6696.5085    50572.965   -5726.7828    -948.1757   -4583.8705    84.934937 
   17900    1197.4112   -110.17189    1.0834428   -109.08845     1016.844    4.4111805    4.4111805    4.4111805     1016.844    7610.9158   -2716.9241   -1843.4597    5576.5871    11337.396    14422.673    85.835013 
   18000    1041.1221   -110.02624   0.94202919   -109.08421   -36248.884    4.4139161    4.4139161    4.4139161   -36248.884   -34877.128   -55591.415   -18278.108   -1333.0604    15561.545    7769.5094    85.994808 
   18100    1176.9829   -110.14125    1.0649589   -109.07629    18139.258    4.3842434    4.3842434    4.3842434    18139.258    27884.494    24437.191    2096.0877   -17730.332   -6537.9224    7226.2613    84.272132 
   18200     1144.623   -110.14001     1.035679   -109.10433    12475.987    4.4067799    4.4067799    4.4067799    12475.987    15378.835   -13587.673      35636.8   -5680.1881   -8421.8032   -14944.317    85.578383 
   18300    940.71141   -109.94429   0.85117545   -109.09311   -4459.0623    4.4182267    4.4182267    4.4182267   -4459.0623    7316.3435   -13269.288   -7424.2428   -8398.4141   -9715.8191   -15861.415    86.246999 
   18400    946.07689   -109.92631   0.85603026   -109.07028    25856.484    4.4060699    4.4060699    4.4060699    25856.484    8650.3076    21464.027    47455.118   -11055.931   -7040.5327   -3805.0827    85.537024 
   18500    1041.1468   -110.01893   0.94205152   -109.07688    3724.3864    4.4035827    4.4035827    4.4035827    3724.3864    25114.598   -352.72118   -13588.718   -7735.7791   -6082.1627   -14204.759    85.392254 
   18600    1050.8561   -110.03506   0.95083667   -109.08423    5664.8969    4.4114214    4.4114214    4.4114214    5664.8969   -18321.215    13638.669    21677.236   -14784.081   -3105.5655    5508.8899     85.84908 
   18700    1455.7737   -110.39278    1.3172146   -109.07557   -11347.136    4.4136208    4.4136208    4.4136208   -11347.136    22359.213   -10150.745   -46249.874   -5636.9444    5722.4948    5447.1395    85.977546 
   18800    961.38843   -109.94726   0.86988446   -109.07737   -10297.189    4.4037049    4.4037049    4.4037049   -10297.189   -2559.6149   -26340.475   -1991.4781    1963.4117   -1776.6581   -457.75524    85.399364 
   18900    1244.8416   -110.20353    1.1263588   -109.07717    7237.0324    4.4000511    4.4000511    4.4000511    7237.0324    27983.898   -4922.2653   -1350.5358    1651.8346    11218.689    8794.9111    85.186966 
   19000     1302.633   -110.26333    1.1786497   -109.08468    -19266.42    4.4119144    4.4119144    4.4119144    -19266.42    25741.022   -37841.744   -45698.537    10437.522    4661.2968   -8894.6841    85.877861 
   19100    1199.2094   -110.17258    1.0850699   -109.08751   -6917.5667    4.4061605    4.4061605    4.4061605   -6917.5667   -7009.5902    -2424.104   -11319.006   -2797.6878   -1529.7066    13208.689    85.542301 
   19200    1176.3077   -110.15751    1.0643479   -109.09316    6345.7154    4.3955575    4.3955575    4.3955575    6345.7154    39105.307   -8847.5428   -11220.618   -167.45098    1013.6687   -12385.948    84.926242 
   19300    1027.1128   -110.03195   0.92935324    -109.1026   -8105.7241     4.400207     4.400207     4.400207   -8105.7241     10365.48    5445.3581    -40128.01   -117.99596    5902.2365   -9989.5486    85.196024 
   19400    915.13689   -109.93114   0.82803509   -109.10311    4924.4095    4.4090545    4.4090545    4.4090545    4924.4095    7212.8883    18420.242   -10859.902   -11507.778   -8330.6454    11886.959    85.710966 
   19500    1035.3931   -110.03401   0.93684546   -109.09717   -13947.404    4.4113808    4.4113808    4.4113808   -13947.404    3941.0253    -14891.75   -30891.488    10828.677    5086.0146   -13078.787    85.846705 
   19600    1260.3156   -110.23161      1.14036   -109.09125    6132.2221    4.3851688    4.3851688    4.3851688    6132.2221     14236.34    37479.804   -33319.479    212.83197    1650.5709    1062.1847    84.325505 
   19700    1165.3972   -110.16652    1.0544759   -109.11205   -4274.9336    4.4031455    4.4031455    4.4031455   -4274.9336    8589.3943   -20664.955   -749.24035   -1246.8148    11483.104   -9952.3521    85.366823 
   19800    1056.3153    -110.0524   0.95577631   -109.09662   -39768.573    4.4176029    4.4176029    4.4176029   -39768.573   -11870.603    -54013.29   -53421.826   -8244.6227   -3001.2468     -14930.3    86.210473 
   19900    1030.6468    -110.0067   0.93255092   -109.07415    13508.451    4.3917298    4.3917298    4.3917298    13508.451    50909.879    180.17176   -10564.699    7519.6209    5979.2347     11706.86     84.70457 
   20000    1248.3153   -110.21477    1.1295019   -109.08527   -12380.677    4.4045749    4.4045749    4.4045749   -12380.677   -1586.9096   -7285.1241   -28269.997      3861.74    4904.8173   -9542.6258    85.449986 
   20100    881.24501   -109.88598   0.79736901   -109.08862    -16755.69     4.415221     4.415221     4.415221    -16755.69   -556.70422   -14062.623   -35647.742    1814.2826    1306.4342    5439.3304    86.071095 
   20200    1256.5479   -110.21506    1.1369509   -109.07811    5757.3581     4.395868     4.395868     4.395868    5757.3581    17923.537    9857.0028   -10508.465   -11847.267    12253.666     3656.871    84.944238 
   20300     909.7301   -109.91656   0.82314292   -109.09342   -1506.6969    4.3950211    4.3950211    4.3950211   -1506.6969    7251.7791    259.98494   -12031.855    1475.7034   -2282.1614   -29533.201    84.895154 
   20400    981.45738   -109.98844   0.88804326    -109.1004    9297.1944    4.4029053    4.4029053    4.4029053    9297.1944    73310.347   -11353.001   -34065.763   -367.54191    850.49754    12295.187    85.352849 
   20500    1299.2203   -110.26455    1.1755618   -109.08899   -14514.252    4.4192532    4.4192532    4.4192532   -14514.252   -20520.699   -16584.678   -6437.3777   -10720.137   -4162.1903   -16377.951    86.307127 
   20600    938.25934   -109.93175   0.84895677   -109.08279    6626.8264    4.3967182    4.3967182    4.3967182    6626.8264    29148.717   -1801.4833   -7466.7546    9646.5316    558.02547   -18287.522    84.993537 
   20700    1190.3689   -110.15986    1.0770708   -109.08279   -2864.9838    4.3836583    4.3836583    4.3836583   -2864.9838    12836.804   -26657.797    5226.0418   -1818.0122    279.71669    18903.846    84.238393 
   20800    969.96189   -109.98161    0.8776419   -109.10397    707.37242     4.410075     4.410075     4.410075    707.37242    8229.9937   -14064.486    7956.6091    7239.3651    1337.9273   -19362.842    85.770498 
   20900    1286.4256    -110.2523    1.1639849   -109.08831   -30236.087    4.4205795    4.4205795    4.4205795   -30236.087   -28484.106   -25308.743   -36915.413   -6892.9745    7943.8625    6611.7664    86.384859 
   21000    1187.8374   -110.15255    1.0747802   -109.07777    20357.736    4.3875936    4.3875936    4.3875936    20357.736    15377.045    23615.779    22080.383   -7427.4133    1791.8912    10629.882    84.465468 
   21100    1125.4531   -110.11068    1.0183336   -109.09235    11242.595    4.3863907    4.3863907    4.3863907    11242.595    23541.932    5096.4372     5089.417    7330.3986    -2422.593   -20486.377    84.396012 
   21200    844.45127   -109.86907   0.76407725   -109.10499   -13816.593    4.4187583    4.4187583    4.4187583   -13816.593    20132.431   -27809.993   -33772.217   -4223.8994    11676.735    12238.638    86.278136 
   21300    1297.4289   -110.26021    1.1739409   -109.08627   -4614.3636     4.410341     4.410341     4.410341   -4614.3636   -21794.886    9001.0729   -1049.2783   -4769.3956    9353.9349   -8654.9991    85.786017 
   21400    1355.3677   -110.30297    1.2263652   -109.07661    1914.0472    4.3850619    4.3850619    4.3850619    1914.0472    20337.366   -5749.4073    -8845.817    5616.0285   -5797.7258   -836.62722    84.319337 
   21500    664.10753   -109.69756   0.60089845   -109.09666    19054.456    4.3957163    4.3957163    4.3957163    19054.456    14596.666    14387.876    28178.826   -2514.8881    12719.163    15236.059    84.935444 
   21600    1433.2933   -110.39268    1.2968739    -109.0958   -30393.501    4.4171497    4.4171497    4.4171497   -30393.501   -31752.708   -23193.988   -36233.809    4483.5357   -11163.679   -9360.2045     86.18394 
   21700    731.83192   -109.76417    0.6621769   -109.10199    18374.416    4.3972339    4.3972339    4.3972339    18374.416    38375.129    31722.622   -14974.504   -3845.5787    6837.3364    13765.124    85.023443 
   21800    1420.9265   -110.38142    1.2856842   -109.09574    3552.1258    4.3813314    4.3813314    4.3813314    3552.1258    4293.5851     5153.542    1209.2503   -1183.7079   -3366.8516    9631.3479    84.104323 
   21900    1216.6721   -110.20586    1.1008705   -109.10499     5437.337     4.407895     4.407895     4.407895     5437.337    38246.646   -5217.0251    -16717.61   -1737.0204   -1984.0829   -12088.759    85.643368 
   22000    867.96105   -109.87801   0.78534939   -109.09266   -25065.513    4.4141137    4.4141137    4.4141137   -25065.513    8606.1957   -58820.962   -24981.772   -5044.0402    12390.319    21385.457    86.006356 
   22100    1006.7196   -109.99071   0.91090102   -109.07981    10939.622    4.3889872    4.3889872    4.3889872    10939.622    37001.275   -8633.8938    4451.4852    9248.7116   -6050.9006    -4470.518    84.545973 
   22200    1413.6375   -110.36852     1.279089   -109.08943    7065.6055    4.3919384    4.3919384    4.3919384    7065.6055    7354.2494     33983.83   -20141.264   -11732.291     6678.765   -5008.1829    84.716641 
   22300    937.36379   -109.95281   0.84814646   -109.10467   -1974.0166    4.4065016    4.4065016    4.4065016   -1974.0166    21897.368    2140.9077   -29960.325   -5334.5499    9278.5405    8928.4847    85.562168 
   22400    1042.5045   -110.03295   0.94327994   -109.08967    7122.7229    4.4105812    4.4105812    4.4105812    7122.7229    813.04103    12431.623    8123.5043   -13994.875   -2934.4652   -4730.7406    85.800036 
   22500    1052.1745    -110.0346   0.95202961   -109.08257   -3137.8938    4.3964896    4.3964896    4.3964896   -3137.8938    43073.739   -19355.712   -33131.708   -2519.4046    12912.096    17933.687    84.980277 
   22600    1100.6008   -110.08059   0.99584672   -109.08474   -1029.2043    4.3931356    4.3931356    4.3931356   -1029.2043    9085.2188   -16885.859    4713.0271    -1952.285    15138.455    3314.5963    84.785938 
   22700      1345.01   -110.30041    1.2169934   -109.08341   -15090.286    4.4138261    4.4138261    4.4138261   -15090.286    6928.4663   -30571.092   -21628.233    5213.9483   -6074.9432     7500.736    85.989547 
   22800    1190.4535   -110.16452    1.0771473   -109.08738    -27885.88    4.3993924    4.3993924    4.3993924    -27885.88   -6934.9691   -35204.578   -41518.092    3571.2882     22904.62    25303.345    85.148717 
   22900    946.95864    -109.9414   0.85682808   -109.08457    27499.577    4.3799777    4.3799777    4.3799777    27499.577    56065.704   -15806.587    42239.615    1912.2952   -8135.1121   -310.80806    84.026391 
   23000    1038.1405     -110.039   0.93933133   -109.09967   -12228.448    4.4072072    4.4072072    4.4072072   -12228.448    10797.495   -21672.705   -25810.133   -248.63544    989.49947    10982.258    85.603282 
   23100    904.49004   -109.91174    0.8184016   -109.09334   -3185.3596    4.4036464    4.4036464    4.4036464   -3185.3596     20841.32   -10411.919   -19985.479    -290.1176    4355.8432    10527.532    85.395956 
   23200    1456.4768   -110.39729    1.3178508   -109.07944    10982.356    4.3858743    4.3858743    4.3858743    10982.356   -10871.571     23670.36    20148.279    4468.3431   -7551.6237   -3135.0059    84.366209 
   23300     887.1673   -109.89748   0.80272762   -109.09475   -6088.7458    4.4041341    4.4041341    4.4041341   -6088.7458    25445.919   -16655.052   -27057.104   -1445.2938    8389.1543    18125.188    85.424333 
   23400    1101.4376   -110.08202   0.99660389   -109.08542   -22766.581    4.4061308    4.4061308    4.4061308   -22766.581   -17157.866    -38987.12   -12154.758    11406.833     666.9076     3298.678    85.540571 
   23500     936.2804   -109.93194   0.84716618   -109.08478    14346.082    4.3919861    4.3919861    4.3919861    14346.082     51124.12   -28555.359    20469.486   -676.41819    -8871.977    6465.9883      84.7194 
   23600    1109.5651   -110.09551    1.0039578   -109.09156    8988.2592    4.3924129    4.3924129    4.3924129    8988.2592    19622.074   -2975.4847    10318.189    10516.787   -11242.644    11091.472    84.744103 
   23700     1137.728   -110.12391    1.0294402   -109.09447   -2047.8226    4.4091432    4.4091432    4.4091432   -2047.8226    29113.249   -35080.895   -175.82142   -10157.517   -267.08129   -18273.678     85.71614 
   23800    1075.5204   -110.05418   0.97315349   -109.08103   -21868.266    4.4161882    4.4161882    4.4161882   -21868.266     2180.062   -64311.815   -3473.0461      85.3719     643.9418    7499.5171    86.127672 
   23900    956.47915    -109.9368   0.86544243   -109.07136    6529.1983    4.3889246    4.3889246    4.3889246    6529.1983    16580.625    21709.769   -18702.799   -5720.2403    1012.3134     3648.384    84.542358 
   24000    1449.0948   -110.39053    1.3111714   -109.07936   -6052.8631    4.3876398    4.3876398    4.3876398   -6052.8631   -3287.6063   -20070.174    5199.1907    -10870.01    11344.561   -16513.009    84.468132 
   24100    1175.2761   -110.14772    1.0634145   -109.08431    -16929.89    4.4167113    4.4167113    4.4167113    -16929.89    2767.0554   -19321.958   -34234.768   -1363.4882   -4601.7729    15963.936    86.158284 
   24200    1153.3814   -110.12544    1.0436037   -109.08184   -11282.239    4.3941012    4.3941012    4.3941012   -11282.239    674.98633    -21046.23   -13475.473   -4605.6611   -4404.7114   -5150.3458    84.841859 
   24300    892.66025   -109.89163   0.80769776   -109.08393    16457.749    4.3860835    4.3860835    4.3860835    16457.749    79321.042   -36072.844    6125.0494    5452.9128   -8764.4231    4951.5069    84.378282 
   24400    1198.6412   -110.17709    1.0845557   -109.09254   -17133.209    4.4036325    4.4036325    4.4036325   -17133.209    2493.1272   -29319.022   -24573.733   -2219.7043    -3583.614    16858.209    85.395152 
   24500    927.97455   -109.93323   0.83965087   -109.09358    14094.771      4.39517      4.39517      4.39517    14094.771    19868.585    1834.7889    20580.941    2114.9927    -5495.154   -7071.7937    84.903782 
   24600     1186.172   -110.16624    1.0732734   -109.09297   -3625.5899    4.4017364    4.4017364    4.4017364   -3625.5899    24783.596    -32041.54   -3618.8255    694.09448    12884.402    13237.005     85.28489 
   24700    951.10105    -109.9612   0.86057622   -109.10063    15037.904    4.3859501    4.3859501    4.3859501    15037.904    32651.307    16344.621   -3882.2163    11937.919   -11480.733   -6786.4268    84.370585 
   24800    1183.5913   -110.18348    1.0709383   -109.11254    5868.5761    4.3961928    4.3961928    4.3961928    5868.5761    11783.948   -5167.5885    10989.369   -175.29346    6563.6053   -1324.6996    84.963067 
   24900    1295.9013    -110.2691    1.1725587   -109.09654   -20794.846    4.4105867    4.4105867    4.4105867   -20794.846    11264.157   -31107.546   -42541.148   -534.20972   -14531.676     8474.071    85.800355 
   25000    920.83528   -109.92525   0.83319111   -109.09206    13271.248    4.3750213    4.3750213    4.3750213    13271.248   -7028.4779    48522.498   -1680.2755   -3225.4926   -9402.0005   -12454.841    83.741458 
   25100    1350.7197   -110.32234    1.2221596   -109.10018    1378.9632    4.3900245    4.3900245    4.3900245    1378.9632    23075.902   -19842.821     903.8079   -4350.0159   -573.80621    5732.8984    84.605934 
   25200    903.03937   -109.91904     0.817089   -109.10195   -20008.199    4.4020782    4.4020782    4.4020782   -20008.199   -13379.362   -18503.277   -28141.957    -6031.972   -16873.685    357.88513    85.304758 
   25300    1044.9353    -110.0424   0.94547942   -109.09692    5048.1647    4.3816873    4.3816873    4.3816873    5048.1647    29035.605   -7805.8692   -6085.2421    7175.5592    3744.7279   -10253.556    84.124816 
   25400    1304.3866   -110.27533    1.1802364    -109.0951    12276.959    4.3912207    4.3912207    4.3912207    12276.959    20387.702    15002.369     1440.805    4415.2965    -15461.43   -2075.3346    84.675114 
   25500     876.5882   -109.89528   0.79315543   -109.10213    1932.8538    4.3960915    4.3960915    4.3960915    1932.8538    36555.111   -9517.1794    -21239.37    13399.802   -12803.156    99.411919    84.957196 
   25600     1068.989   -110.06632   0.96724367   -109.09908   -3255.2689    4.4051183    4.4051183    4.4051183   -3255.2689   -4275.5032   -11583.997    6093.6939   -1216.6345    1598.3991   -4928.2443    85.481615 
   25700    1085.1485   -110.07092   0.98186514   -109.08905    15784.507    4.3932471    4.3932471    4.3932471    15784.507    40257.796   -1291.1453    8386.8703    8427.8794   -9221.6553    259.22288    84.792392 
   25800    980.85584   -109.98253   0.88749897   -109.09503   -7730.0299    4.3823094    4.3823094    4.3823094   -7730.0299   -6255.1437    777.41818   -17712.364    5180.3877   -18910.429   -4730.7764    84.160658 
   25900    1308.7378   -110.28072    1.1841734   -109.09654    2205.5354     4.397361     4.397361     4.397361    2205.5354    11080.289   -2120.4328   -2343.2499   -6103.8175    17570.822    -37.52729     85.03082 
   26000    1304.5656   -110.27326    1.1803983   -109.09287   -26362.265    4.3992619    4.3992619    4.3992619   -26362.265   -25851.369   -28089.294   -25146.132    3395.7943   -14687.521   -3576.8456    85.141141 
   26100    657.27927   -109.69418    0.5947201   -109.09946    1296.6859    4.3867627    4.3867627    4.3867627    1296.6859    14157.819    -27786.67    17518.909   -2965.6917    -15592.94   -16283.972     84.41749 
   26200    1281.7737     -110.257    1.1597757   -109.09723    12726.164    4.3853964    4.3853964    4.3853964    12726.164    30538.428   -26826.684    34466.747   -3563.9324   -3848.1836    470.92062    84.338633 
   26300    793.08647   -109.82506   0.71760131   -109.10746   -9992.2488    4.4108315    4.4108315    4.4108315   -9992.2488   -13373.224   -20570.263    3966.7402    1426.4345   -12711.837   -7127.0008    85.814646 
   26400    1311.2419   -110.27412    1.1864392   -109.08768   -10939.617     4.400119     4.400119     4.400119   -10939.617    1739.9365    -2837.882   -31720.904    -11747.87   -12382.702   -4255.4145    85.190912 
   26500    1048.3848    -110.0294   0.94860062    -109.0808    36404.543    4.3748596    4.3748596    4.3748596    36404.543    26489.603    14702.354    68021.672   -4393.6172    12610.448    8180.7127    83.732172 
   26600    819.57509   -109.84586   0.74156876   -109.10429   -24986.242    4.3992106    4.3992106    4.3992106   -24986.242   -46616.406   -12107.262   -16235.059    458.49055   -26369.698    986.09836    85.138161 
   26700     1203.754   -110.18682    1.0891819   -109.09764   -3806.3512    4.3966698    4.3966698    4.3966698   -3806.3512   -26454.106   -20751.859    35786.911   -5394.6219    4676.3719   -2289.8447    84.990727 
   26800     1047.636   -110.05219   0.94792303   -109.10427   -22418.519    4.3928676    4.3928676    4.3928676   -22418.519   -16245.704   -19871.142   -31138.712    4332.7519   -14223.119    13178.511    84.770419 
   26900    1163.9229   -110.15846    1.0531419   -109.10531   -3971.8883    4.3775419    4.3775419    4.3775419   -3971.8883   -26996.513    19507.392   -4426.5439    260.66346   -31190.814   -8679.4818     83.88628 
   27000    1310.0882   -110.29341    1.1853953   -109.10801    9817.5138    4.3908307    4.3908307    4.3908307    9817.5138     18559.44   -13601.458    24494.559    14220.249    8909.2992    20505.131    84.652556 
   27100    641.89366   -109.68198   0.58079887   -109.10118   -29198.352    4.4123709    4.4123709    4.4123709   -29198.352    -35062.86   -29100.872   -23431.325    3287.0258   -22141.376    2394.2299    85.904521 
   27200    1216.8989   -110.18439    1.1010757   -109.08331    10337.262    4.3722414    4.3722414    4.3722414    10337.262    2417.0982    19436.066    9158.6212    2776.2377   -19028.884   -3171.6217    83.581929 
   27300    1102.5652   -110.09234   0.99762417   -109.09472    10878.477    4.3805777    4.3805777    4.3805777    10878.477    27208.818    917.54616    4509.0662    9768.4532    5371.7894    21432.674    84.060926 
   27400    946.52483   -109.95211   0.85643556   -109.09567    -31594.75    4.4070533    4.4070533    4.4070533    -31594.75   -60226.939    1810.7824   -36368.093    6596.5752   -30072.479   -9005.1567    85.594313 
   27500    1299.9397   -110.26264    1.1762128   -109.08643    6267.1267    4.3873926    4.3873926    4.3873926    6267.1267     6544.068   -27824.121    40081.433    5065.4098    40.645656    2349.5455     84.45386 
   27600    1013.3178   -110.01011   0.91687124   -109.09324   -4147.4146    4.3822029    4.3822029    4.3822029   -4147.4146   -23979.132   -2788.4773    14325.365   -887.28616   -10923.044    3670.4052    84.154519 
   27700    870.34035   -109.88954   0.78750224   -109.10204    1571.0033    4.3852199    4.3852199    4.3852199    1571.0033   -8727.9782   -7318.7569    20759.745    9322.3766   -31101.748   -90.770669    84.328451 
   27800    1411.3091   -110.37349    1.2769821    -109.0965   -1170.5351    4.3998799    4.3998799    4.3998799   -1170.5351   -16042.245    -17437.69     29968.33    -4519.411    1571.3737    7215.3604    85.177025 
   27900    961.85149   -109.97101   0.87030344   -109.10071   -12866.297    4.3931506    4.3931506    4.3931506   -12866.297   -25424.751   -7538.8647   -5635.2765    2626.9912    -27782.65    1592.9747    84.786808 
   28000    1177.6422   -110.15729    1.0655554   -109.09173    16280.001    4.3766331    4.3766331    4.3766331    16280.001    -10441.79    22238.539    37043.253    12053.895   -10532.135    2552.5048    83.834047 
   28100    1180.1392   -110.16392    1.0678148    -109.0961   -2947.1661    4.3999722    4.3999722    4.3999722   -2947.1661   -2513.8431   -39653.575     33325.92   -7044.1018    5369.4495    3681.4196    85.182387 
   28200    896.10183   -109.91506   0.81081176   -109.10424   -34870.077    4.3943369    4.3943369    4.3943369   -34870.077   -56318.953   -21267.572   -27023.704    4638.6135   -36883.273    6721.1676    84.855513 
   28300    1180.6321    -110.1591    1.0682607   -109.09084    33283.212    4.3711842    4.3711842    4.3711842    33283.212    44742.605    7000.5392    48106.491    4377.1159    4226.2066   -583.98084    83.521313 
   28400    1237.2936   -110.22459    1.1195293   -109.10506    -14848.17    4.3963937    4.3963937    4.3963937    -14848.17   -24470.722   -21248.977    1175.1894    -4340.862   -17425.343    3063.5307    84.974715 
   28500    890.43228   -109.90686   0.80568184   -109.10118   -22517.474    4.4023127    4.4023127    4.4023127   -22517.474   -3727.6114   -26207.818   -37616.992    8652.9714   -34279.336    3696.6106     85.31839 
   28600    1396.1811   -110.35111     1.263294   -109.08781    18611.381    4.3786633    4.3786633    4.3786633    18611.381    1160.3227   -19962.873    74636.693    532.25867    2144.0188    3687.7885    83.950764 
   28700    943.53401   -109.95792    0.8537294   -109.10419   -603.04728    4.3847597    4.3847597    4.3847597   -603.04728   -8963.2874    25110.413   -17956.268    1515.3602   -23375.829    2176.0162    84.301909 
   28800    917.38167   -109.93364   0.83006622   -109.10357   -8069.1413    4.4033491    4.4033491    4.4033491   -8069.1413   -23730.876   -16928.261    16451.714    10252.646    -19972.45   -4758.5062    85.378663 
   28900    1464.4759   -110.41461    1.3250885   -109.08952    3398.4757    4.3934091    4.3934091    4.3934091    3398.4757    10385.751     5954.614   -6144.9378   -5927.3396    10123.999   -3483.4805    84.801773 
   29000    806.50536   -109.82642     0.729743   -109.09667    3816.0865    4.3787265    4.3787265    4.3787265    3816.0865   -19389.591    13530.248    17307.602    3357.1817   -31871.794      4985.02    83.954398 
   29100    1246.3232   -110.22923    1.1276994   -109.10154    8936.6712    4.3890035    4.3890035    4.3890035    8936.6712    9769.4151   -15294.165    32334.764    4716.7521   -1736.5909   -1455.7106    84.546916 
   29200     1283.511   -110.25852    1.1613478   -109.09718    -13991.09    4.4039157    4.4039157    4.4039157    -13991.09   -29387.215     -14812.5    2226.4436    968.35418   -877.90831   -2517.2115    85.411627 
   29300    768.46811   -109.78983   0.69532609    -109.0945    4696.2391    4.3862135    4.3862135    4.3862135    4696.2391   -12828.716     30100.61   -3183.1769    7468.4695   -29533.483    6182.4697    84.385789 
   29400    1288.8978    -110.2551    1.1662218   -109.08888    16802.956    4.3861479    4.3861479    4.3861479    16802.956    -73.42216    -12379.91    62862.201    2437.9334    8392.9134   -9099.8084    84.382003 
   29500    1182.8138   -110.16469    1.0702347   -109.09445   -8970.7245    4.3998075    4.3998075    4.3998075   -8970.7245   -35627.348    22665.266   -13950.092   -2776.9341   -17915.601    -7297.258    85.172817 
   29600    999.87978   -110.00179   0.90471224   -109.09708    13440.903    4.3899402    4.3899402    4.3899402    13440.903   -22023.499   -17934.849    80281.057    10881.199   -9189.5444    14153.168    84.601061 
   29700    1340.3645    -110.3133      1.21279   -109.10051   -8744.7584    4.3851154    4.3851154    4.3851154   -8744.7584    12586.661   -17204.566    -21616.37   -5162.6684     3924.894    -7530.057    84.322425 
   29800    676.03347   -109.72435   0.61168929   -109.11266    25039.223    4.3890586    4.3890586    4.3890586    25039.223   -5996.0514    15619.523    65494.198    1458.9156   -21654.564   -5986.7562      84.5501 
   29900    1221.2486    -110.2084    1.1050114   -109.10339   -33726.276    4.4070191    4.4070191    4.4070191   -33726.276   -36367.288   -44800.536   -20011.004    11030.506   -3360.4701    4260.6616    85.592321 
   30000    1116.8125   -110.10564    1.0105154   -109.09512    29611.589    4.3740833    4.3740833    4.3740833    29611.589    10258.252     8209.386     70367.13   -8230.1975   -1170.0009   -18182.102    83.687608 
   30100    1298.5874   -110.28155    1.1749892   -109.10656    4146.0486    4.3796626    4.3796626    4.3796626    4146.0486   -8399.6993     1035.906    19801.939     8796.832   -21401.647   -2639.5204    84.008257 
   30200    1109.1984   -110.10493     1.003626    -109.1013   -19577.432    4.4052518    4.4052518    4.4052518   -19577.432   -39993.858   -40713.962    21975.526    5336.8997    5274.7237   -1614.3439    85.489389 
   30300    806.03037   -109.82573   0.72931322   -109.09641   -1179.5576    4.3911213    4.3911213    4.3911213   -1179.5576    21098.439    2487.7172   -27124.829   -6831.4995    -4166.752   -5831.6803    84.669367 
   30400    1009.5759     -110.007   0.91348546   -109.09351   -4066.7826    4.3826884    4.3826884    4.3826884   -4066.7826    -32413.77    -6355.148     26568.57    13188.142   -22673.335    2261.0793    84.182494 
   30500    1380.1227   -110.34257     1.248764   -109.09381    4731.9629      4.38446      4.38446      4.38446    4731.9629    10205.774   -18382.714    22372.829   -3840.6098    3663.7717   -4669.5965    84.284621 
   30600    969.34222    -109.9884   0.87708121   -109.11132   -176.01257    4.3968695    4.3968695    4.3968695   -176.01257   -42105.066   -21898.845    63475.874    3515.9527   -14625.332   -7695.6924    85.002311 
   30700    1155.7757   -110.15398    1.0457701   -109.10821   -6112.6144    4.3958766    4.3958766    4.3958766   -6112.6144   -14663.394   -31227.268    27552.819    17287.428   -9300.7596    3393.9049    84.944738 
   30800    1264.7562   -110.24594     1.144378   -109.10156    11025.874    4.3816375    4.3816375    4.3816375    11025.874    11170.907   -7505.3897    29412.104   -7595.5452    13009.276   -4734.5364    84.121951 
   30900    692.08978   -109.73745   0.62621737   -109.11124    10236.282    4.3842835    4.3842835    4.3842835    10236.282   -15616.821   -3346.2184    49671.885    17077.344   -12645.545   -2689.7239    84.274444 
   31000    1255.4531   -110.23962    1.1359603   -109.10365    3533.9057    4.4017397    4.4017397    4.4017397    3533.9057   -12496.423   -23826.873    46925.014    3248.2873    689.07575    6999.7831    85.285083 
   31100    1573.5962   -110.52223    1.4238229   -109.09841     522.0068    4.3886583    4.3886583    4.3886583     522.0068   -14560.172   -25767.338    41893.531    6021.4387    9450.2037    4139.0593     84.52697 
   31200    837.52442   -109.86494   0.75780969   -109.10713    8308.7716    4.3788072    4.3788072    4.3788072    8308.7716    -21026.91   -2435.3822    48388.607    18547.648   -4507.5484   -7141.8088    83.959044 
   31300    1113.7665   -110.12082    1.0077593   -109.11306   -3548.6124     4.400711     4.400711     4.400711   -3548.6124   -21957.514   -33425.041    44736.718   -2954.3672   -6865.7203   -2277.0233      85.2253 
   31400    1159.3913   -110.16019    1.0490416   -109.11115   -11589.196     4.403838     4.403838     4.403838   -11589.196   -18197.018   -23226.991    6656.4208    13458.823   -471.55949   -1759.2302    85.407104 
   31500    678.04092   -109.72768   0.61350567   -109.11417   -4507.0211    4.3808936    4.3808936    4.3808936   -4507.0211   -30336.413   -5489.3787    22304.729   -382.67687   -18471.588    11756.793    84.079111 
   31600     1243.684   -110.23198    1.1253114   -109.10666    23195.113    4.3766529    4.3766529    4.3766529    23195.113    46726.539   -6643.7004      29502.5    1816.0047   -18265.514   -916.88902    83.835181 
   31700     1387.828   -110.35983     1.255736    -109.1041   -17354.755      4.40656      4.40656      4.40656   -17354.755   -28897.507   -46982.668    23815.908    10744.712    7850.2802    -1751.225    85.565576 
   31800    731.42878   -109.76246   0.66181213   -109.10065    908.45916    4.3965027    4.3965027    4.3965027    908.45916    29241.149    -17162.17   -9353.6018   -4020.4346   -20241.372    9530.9554     84.98104 
   31900    1272.0309   -110.24557    1.1509603   -109.09461    2006.1157    4.3838096    4.3838096    4.3838096    2006.1157   -11717.532    344.31938     17391.56   -2463.0371   -3027.8895    6174.9872    84.247117 
   32000    1221.1494   -110.20994    1.1049217   -109.10502    5344.5997    4.3847197    4.3847197    4.3847197    5344.5997   -3733.9634   -4142.1626    23909.925    4395.3813   -583.44112   -8972.4486    84.299599 
   32100    596.48794   -109.66055   0.53971482   -109.12083   -14062.641    4.4020916    4.4020916    4.4020916   -14062.641    -46341.52    -7260.928    11414.524   -15652.075   -16484.828   -3995.8136    85.305537 
   32200    1498.4246   -110.45609    1.3558061   -109.10029    12667.133    4.3894632    4.3894632    4.3894632    12667.133    19342.843   -18569.348    37227.903    -9363.041    7765.0159   -2737.2043    84.573485 
   32300    1257.7817    -110.2377    1.1380673   -109.09963    9606.9853    4.3784411    4.3784411    4.3784411    9606.9853    829.66881    12487.589    15503.698   -3819.9804   -17864.749   -2959.5553    83.937982 
   32400    729.00629   -109.76754   0.65962021   -109.10792   -35792.428    4.4015704    4.4015704    4.4015704   -35792.428    -37674.11   -27322.555   -42380.618   -18659.353   -21276.845    6949.3213    85.275241 
   32500    1485.5652   -110.43768    1.3441706   -109.09351    253.41925    4.3855518    4.3855518    4.3855518    253.41925   -11385.723   -5390.7863    17536.767   -1665.0797    2572.4163    1874.7135    84.347602 
   32600    935.39559    -109.9521   0.84636559   -109.10573    12068.038    4.3812416    4.3812416    4.3812416    12068.038   -2456.3311    10712.637    27947.807   -8533.5568   -9248.5915    162.55729     84.09915 
   32700    914.60109   -109.93933   0.82755029   -109.11178   -8135.6652     4.399944     4.399944     4.399944   -8135.6652    1724.9116   -25474.424   -657.48345    681.81349   -8355.8988    4282.9007    85.180745 
   32800    1428.3026   -110.38308    1.2923582   -109.09072    6357.3212    4.3999195    4.3999195    4.3999195    6357.3212    17011.365   -24677.524    26738.123    11867.967    14220.906   -1056.1382    85.179327 
   32900     664.5507   -109.69582   0.60129943   -109.09452   -12111.036    4.3941062    4.3941062    4.3941062   -12111.036   -27820.306    14737.315   -23250.117   -12586.838   -19807.892   -5560.7386    84.842144 
   33000    837.45724   -109.84774   0.75774891   -109.08999    7864.1522    4.3802459    4.3802459    4.3802459    7864.1522    34047.103   -7902.6195   -2552.0274    4721.3567   -2883.0092    15130.984    84.041824 
   33100    1501.5234   -110.45804    1.3586099   -109.09943   -2857.7386    4.3951058    4.3951058    4.3951058   -2857.7386   -13032.968    12919.316   -8459.5641    3152.0064   -2276.6542    1205.2911    84.900064 
   33200    1100.0371    -110.0999   0.99533664   -109.10456   -15864.619    4.4019432    4.4019432    4.4019432   -15864.619   -15142.531   -17916.497   -14534.828   -10751.835   -19982.434    9061.9146    85.296911 
   33300    1142.0344   -110.12435    1.0333367   -109.09101    13167.112    4.3801801    4.3801801    4.3801801    13167.112     38664.88   -17731.185    18567.642   -1329.7926    4286.0397    21787.978    84.038036 
   33400    1277.0211   -110.24767    1.1554755    -109.0922   -2596.5751    4.3946598    4.3946598    4.3946598   -2596.5751    -16729.66   -40.235942     8980.171   -3701.8803   -11010.752   -3698.2865    84.874218 
   33500    786.59245   -109.80905   0.71172538   -109.09732   -11428.817    4.3948309    4.3948309    4.3948309   -11428.817   -6727.4627   -14070.882   -13488.107   -8604.9256   -6924.6106     10760.82    84.884133 
   33600     844.5432   -109.86469   0.76416044   -109.10053      16013.4    4.3846187    4.3846187    4.3846187      16013.4    40053.154    532.07434    7454.9708    8149.4749    7583.0301    5539.7452    84.293773 
   33700    1646.2101   -110.59279    1.4895255   -109.10326    3815.5326    4.3881065    4.3881065    4.3881065    3815.5326    21494.586   -6879.6661    -3168.322    8339.5748   -11180.829    -15418.55    84.495091 
   33800    1083.8408    -110.0983   0.98068195   -109.11761    10191.478    4.3934154    4.3934154    4.3934154    10191.478    14060.365    16641.152   -127.08303    -10348.58    600.12201    8309.4937    84.802139 
   33900    765.98181   -109.80825   0.69307644   -109.11517   -31055.388    4.4048928    4.4048928    4.4048928   -31055.388   -39444.266   -11140.999     -42580.9    13770.158    13648.444    2162.0326    85.468492 
   34000    1318.1799   -110.28763    1.1927169   -109.09491    13730.201    4.3712616    4.3712616    4.3712616    13730.201     21414.92    10860.085    8915.5978   -5114.0541   -4662.7138   -6410.1314     83.52575 
   34100    884.33414   -109.91339   0.80016411   -109.11322   -3964.1906    4.3897292    4.3897292    4.3897292   -3964.1906    7565.1025   -2277.1945    -17180.48    5944.7915    2158.1596    17260.514    84.588861 
   34200    1000.3901   -110.00482   0.90517403   -109.09965   -39059.874     4.409528     4.409528     4.409528   -39059.874   -36383.954   -45451.108    -35344.56    8064.4688    5482.2179   -853.01239    85.738585 
   34300    1348.4563   -110.31027    1.2201116   -109.09016    25153.371    4.3850521    4.3850521    4.3850521    25153.371    83735.681   -1198.5833   -7076.9851    2964.6706   -2808.0348    2361.7114    84.318774 
   34400    1326.9557   -110.30387    1.2006574   -109.10321    -3324.871    4.3823473    4.3823473    4.3823473    -3324.871   -10851.966    17272.544   -16395.191    4616.0234     9752.211     10127.55    84.162841 
   34500    556.10443   -109.62532   0.50317497   -109.12214    7124.5997    4.3891049    4.3891049    4.3891049    7124.5997    70920.901   -10532.015   -39015.087    8409.4237    9671.3221   -13774.892    84.552781 
   34600    1117.1358    -110.1219     1.010808   -109.11109   -16520.071    4.4027414    4.4027414    4.4027414   -16520.071   -24716.431    16969.446   -41813.227   -5183.8615   -1201.5793   -7467.5985    85.343319 
   34700    1391.8293   -110.35962    1.2593564   -109.10027    23428.637    4.3736477    4.3736477    4.3736477    23428.637    46636.484    13893.277    9756.1494    854.55123    6036.7944    2655.5933    83.662604 
   34800    1061.5868   -110.07864   0.96054601   -109.11809   -12078.251    4.3868028    4.3868028    4.3868028   -12078.251   -15634.798    -2000.955   -18599.001    5095.4294   -1659.5724     -31357.9    84.419804 
   34900    1311.6028   -110.29667    1.1867657   -109.10991   -23002.418    4.3980037    4.3980037    4.3980037   -23002.418   -22900.612   -16955.816   -29150.828   -4648.6178   -7908.0823   -5265.0227    85.068107 
   35000    1262.2776   -110.24586    1.1421353   -109.10373    17282.485    4.3764401    4.3764401    4.3764401    17282.485    9936.6229    27033.055    14877.776   -832.65085    4293.1485    1194.4412    83.822954 
   35100    539.34674   -109.60524   0.48801226   -109.11723   -20140.721    4.3931988    4.3931988    4.3931988   -20140.721   -37214.841   -7065.3464   -16141.976     12240.38   -3309.3116   -16638.063    84.789595 
   35200    1152.7991   -110.14866    1.0430769   -109.10559   -9394.1767    4.3896982    4.3896982    4.3896982   -9394.1767   -24774.902     5760.924   -9168.5519   -8340.6902    -15236.89    8556.1837    84.587069 
   35300     1417.255   -110.38021    1.2823621   -109.09785     8464.179    4.3893363    4.3893363    4.3893363     8464.179   -3852.8126    26497.192    2748.1581    2477.9241    8037.4501   -11331.995    84.566151 
   35400    679.32975   -109.72476   0.61467183   -109.11009    -13708.55    4.3960081    4.3960081    4.3960081    -13708.55   -25181.895    15022.098   -30965.854    13729.953   -8002.0432   -8620.5064    84.952359 
   35500    1372.0974   -110.35051    1.2415026   -109.10901   -10864.859    4.3744116    4.3744116    4.3744116   -10864.859   -21587.689     7259.024   -18265.912   -17360.459   -22407.777   -1113.8909    83.706453 
   35600    1080.1022   -110.10142   0.97729916   -109.12412     5832.954    4.3911229    4.3911229    4.3911229     5832.954   -3733.4028     32241.31   -11009.045    6009.5788    7485.2819   -1200.4004     84.66946 
   35700    805.55458   -109.84421   0.72888272   -109.11533   -28999.139    4.4048692    4.4048692    4.4048692   -28999.139   -34021.403   -14435.677   -38540.336    2326.1772   -17522.969   -9272.1007    85.467115 
   35800    1216.1108    -110.1973    1.1003626   -109.09694    7094.8133    4.3777205    4.3777205    4.3777205    7094.8133    12996.167    14102.341   -5814.0672   -28978.234   -15724.584   -4535.7334    83.896545 
   35900    1160.1197   -110.16157    1.0497007   -109.11187    12865.296    4.3872138    4.3872138    4.3872138    12865.296      22177.3    26624.792   -10206.204    11607.687    5495.5971   -2873.7522    84.443531 
   36000    1056.0276   -110.06839   0.95551598   -109.11288   -33214.614    4.3994676    4.3994676    4.3994676   -33214.614    -35001.19   -24123.058   -40519.592   -7052.9344   -14513.467   -6654.9568     85.15308 
   36100    742.95422   -109.77759   0.67224059   -109.10534    21358.063    4.3859799    4.3859799    4.3859799    21358.063    24711.496    41610.137   -2247.4439   -26317.377    100.92782    4755.7301    84.372305 
   36200    1649.4523   -110.58876    1.4924591    -109.0963   -8635.6643     4.391269     4.391269     4.391269   -8635.6643   -1700.8735    6987.5062   -31193.626    22684.526    5252.7949    615.31964    84.677909 
   36300    704.41612   -109.73911   0.63737051   -109.10174    15347.187    4.3905453    4.3905453    4.3905453    15347.187    15202.501    43171.899   -12332.841   -28189.876   -12758.137   -3410.5904    84.636052 
   36400    1003.3629   -110.01342   0.90786381   -109.10555    2545.1228     4.391571     4.391571     4.391571    2545.1228    15621.156    1196.2817   -9182.0692   -3350.3257    8379.4209    3788.2792    84.695383 
   36500    1563.0793   -110.51733     1.414307   -109.10302   -4079.2225     4.389864     4.389864     4.389864   -4079.2225    11082.678   -2383.2658   -20937.079   -2692.1041     934.6537    188.63817    84.596655 
   36600     1019.434   -110.04694   0.92240528   -109.12454   -13994.399    4.3876974    4.3876974    4.3876974   -13994.399   -20619.255     663.7773   -22027.718   -22836.016   -13409.061   -8420.0947    84.471458 
   36700    934.86295    -109.9749   0.84588365   -109.12901    18586.397    4.3907184    4.3907184    4.3907184    18586.397    -11052.74     79547.28    -12735.35   -3393.0083    8866.3206    9035.3637    84.646063 
   36800    1098.0376   -110.11385   0.99352749   -109.12032     4792.573    4.3973087    4.3973087    4.3973087     4792.573   -5270.9141    14453.792    5194.8408      25.7301   -3523.7022   -5636.3359    85.027786 
   36900    1068.5038   -110.09245   0.96680468   -109.12565   -21996.692    4.3943307    4.3943307    4.3943307   -21996.692   -46712.858     -11928.6   -7348.6187   -31293.745   -3476.7276    9461.1464     84.85515 
   37000     1402.062   -110.38344    1.2686151   -109.11482   -286.03392     4.391459     4.391459     4.391459   -286.03392   -11371.458    34058.169   -23544.813    8352.0796    8885.3961   -5931.8681    84.688903 
   37100    906.84803    -109.9414   0.82053515   -109.12087     946.9575    4.3944313    4.3944313    4.3944313     946.9575    -23551.81    18759.894     7632.788   -14349.425   -9650.8945    1220.0738    84.860981 
   37200      664.707     -109.728   0.60144086   -109.12656    9988.3902    4.3981165    4.3981165    4.3981165    9988.3902   -43449.543    82648.029   -9233.3156   -20569.974    1390.0326   -9082.1907    85.074655 
   37300    1157.4674   -110.17491    1.0473008    -109.1276    17331.849    4.3897267    4.3897267    4.3897267    17331.849   -6672.1028    81072.361   -22404.712    15367.999    4651.1815    14071.433     84.58872 
   37400    1084.6906   -110.11586   0.98145086   -109.13441   -15052.806    4.3871852    4.3871852    4.3871852   -15052.806   -25356.176   -4724.4196   -15077.823   -35846.942   -4712.4989    -4623.331    84.441879 
   37500    1446.4612    -110.4394    1.3087885   -109.13062   -28406.689    4.4031486    4.4031486    4.4031486   -28406.689   -44788.572   -11959.712   -28471.782   -14953.133    94.108997    731.80848    85.367002 
   37600    1366.3638   -110.37154    1.2363147   -109.13523   -15322.043    4.3953429    4.3953429    4.3953429   -15322.043   -13912.374   -350.50994   -31703.245    19603.211   -3525.6685    5700.5207    84.913801 
   37700    986.91996   -110.02355   0.89298592   -109.13056    29936.097      4.37024      4.37024      4.37024    29936.097   -8664.0326    90957.805    7514.5186   -26279.976   -2824.7622   -1389.7003    83.467205 
   37800    876.74285    -109.9409   0.79329535    -109.1476   -7852.7852    4.3977496    4.3977496    4.3977496   -7852.7852    -31192.57    35260.166   -27625.951   -2372.4393   -268.02119    11511.948    85.053364 
   37900    678.36571   -109.75254   0.61379955   -109.13874    15236.384    4.4004945    4.4004945    4.4004945    15236.384    -10519.27    86628.264   -30399.843    5675.6799   -4263.0861    2843.5861    85.212724 
   38000    1029.9775   -110.06405   0.93194531    -109.1321    13328.152    4.3846318    4.3846318    4.3846318    13328.152   -14492.443    58387.385   -3910.4846   -22233.742   -1738.0186    2331.2559    84.294528 
   38100    1315.8486   -110.32691    1.1906074    -109.1363   -4231.8154    4.3895811    4.3895811    4.3895811   -4231.8154   -17888.576    27133.885   -21940.755    4714.1854   -3407.8678    9594.8704      84.5803 
   38200    1250.9248   -110.27711     1.131863   -109.14525   -8096.5182    4.4014496    4.4014496    4.4014496   -8096.5182   -4429.3412   -46.132204   -19814.081    -308.4432   -1898.8831    3667.2478     85.26822 
   38300    1312.7417   -110.32962    1.1877963   -109.14182   -20317.411    4.3922653    4.3922653    4.3922653   -20317.411   -18569.834   -19134.319   -23248.079   -21759.386     319.9283   -846.29559    84.735556 
   38400    1176.0182   -110.20051     1.064086   -109.13643   -5179.8724    4.3853034    4.3853034    4.3853034   -5179.8724   -2825.8512   -4459.6502   -8254.1158    14788.986    -2128.999      19630.9     84.33327 
   38500     1003.728   -110.04075   0.90819421   -109.13255    28953.938     4.385921     4.385921     4.385921    28953.938    6248.2569    80829.675   -216.11674   -14842.994   -2243.7026    290.32407    84.368907 
   38600    633.54814   -109.71706   0.57324767   -109.14382   -14867.479    4.4000378    4.4000378    4.4000378   -14867.479   -10743.586    3809.7308   -37668.581   -8477.7591   -678.08452    15396.649    85.186195 
   38700    1094.4843   -110.12357   0.99031237   -109.13325    16367.325    4.3864842    4.3864842    4.3864842    16367.325   -228.29198    67872.986   -18542.719    3438.2569    1148.3894     8564.151    84.401409 
   38800    1241.9948   -110.25939     1.123783    -109.1356    12909.891    4.3871061    4.3871061    4.3871061    12909.891    1925.2826    51144.115   -14339.725   -8226.4892   -5824.9759   -5252.3717    84.437315 
   38900     1109.523   -110.14598    1.0039197   -109.14206   -35160.145    4.3970613    4.3970613    4.3970613   -35160.145   -1928.9416   -42739.198   -60812.294    245.23376    1441.4132    42451.072    85.013435 
   39000    1549.3711    -110.5289    1.4019035   -109.12699   -13470.506    4.3899704    4.3899704    4.3899704   -13470.506   -13017.951   -4883.8906   -22509.676   -6604.6013    2244.6572   -9113.9355    84.602808 
   39100    1210.5399   -110.22519    1.0953219   -109.12986   -3014.5897    4.3868006    4.3868006    4.3868006   -3014.5897   -22582.011    31005.202   -17466.961   -3146.1517    666.75745    11632.006    84.419674 
   39200    587.48749   -109.66602   0.53157103   -109.13444    19453.374    4.3864512    4.3864512    4.3864512    19453.374    3451.0692    85446.267   -30537.214    -3021.768     4932.181    26187.427    84.399504 
   39300    1211.5168   -110.21965    1.0962058   -109.12345   -8728.1546    4.3987665    4.3987665    4.3987665   -8728.1546   -11327.979    5175.1233   -20031.608    6635.6884    726.18248   -20930.877    85.112376 
   39400    1321.1408    -110.3135     1.195396    -109.1181   -15315.634    4.3833867    4.3833867    4.3833867   -15315.634   -5341.9545   -23622.059   -16982.888   -11489.977    3913.0603     25487.61    84.222737 
   39500    947.66178    -109.9758   0.85746429   -109.11833    16710.352    4.3746871    4.3746871    4.3746871    16710.352    24792.698    24934.789    403.56837    4934.5508    10984.212    18184.048    83.722268 
   39600    1023.6366   -110.04241   0.92620786    -109.1162    4581.9976    4.3977475    4.3977475    4.3977475    4581.9976    -19157.83    37104.572   -4200.7491    1087.0694   -217.76477   -12306.391    85.053243 
   39700    1099.6534   -110.10408   0.99498952   -109.10909   -28776.429    4.3943048    4.3943048    4.3943048   -28776.429   -28395.313   -22885.331   -35048.642    854.94897    7898.8895    28143.675     84.85365 
   39800    1146.7519   -110.13559    1.0376052   -109.09799    31425.991    4.3651591    4.3651591    4.3651591    31425.991    39710.306    48920.796    5646.8696   -17399.194    6303.9842   -5600.9165    83.176423 
   39900    1025.2551   -110.03866   0.92767235   -109.11098    9593.5033    4.3792521    4.3792521    4.3792521    9593.5033    8264.8158    22784.375   -2268.6806    22372.811    698.47829    266.96484    83.984636 
   40000    1005.1583     -110.016   0.90948834   -109.10651   -19931.911    4.4000147    4.4000147    4.4000147   -19931.911   -18419.045   -16483.518   -24893.169    987.70655     8733.713    20027.562    85.184855 
   40100    1215.1251   -110.18819    1.0994707   -109.08872   -10413.722    4.3951696    4.3951696    4.3951696   -10413.722   -15999.775   -10472.403   -4768.9875    776.33905    853.63022   -15200.549     84.90376 
   40200    1025.4338   -110.01983   0.92783401     -109.092    5314.3945    4.3668501    4.3668501    4.3668501    5314.3945    1042.0379    11060.226    3840.9192    36481.877   -1525.8936    12379.164    83.273125 
   40300    1105.4911   -110.10916    1.0002716   -109.10889    6639.4453    4.3768619    4.3768619    4.3768619    6639.4453     15215.27    9013.8387   -4310.7723   -13021.324    7554.6223    11964.795    83.847194 
   40400    1294.7297   -110.27328    1.1714987   -109.10178   -19120.518    4.3994212    4.3994212    4.3994212   -19120.518   -25413.774   -19755.741   -12192.039    8504.6552   -9797.4263   -6630.0365     85.15039 
   40500    820.97957   -109.84515   0.74283957   -109.10231    -9811.322    4.3857838    4.3857838    4.3857838    -9811.322   -11477.995   -7491.5614   -10464.409    21087.735    7530.1864     12567.53    84.360987 
   40600    1097.2763   -110.08591   0.99283868   -109.09307    9312.4806    4.3701977    4.3701977    4.3701977    9312.4806   -4872.5362    25450.111     7359.867   -14287.432    295.05614     15608.85    83.464783 
   40700    1175.9498   -110.16722    1.0640241    -109.1032    152.71244    4.3850403    4.3850403    4.3850403    152.71244    1602.7475   -3006.4175    1861.8073    19350.577    -4634.552   -6499.2994    84.318092 
   40800    1057.0219   -110.05604   0.95641564   -109.09963    -15962.69    4.3989288    4.3989288    4.3989288    -15962.69    -8332.441   -5583.7868   -33971.842    9964.9037    6794.2514    15241.278      85.1218 
   40900    1308.8076    -110.2733    1.1842366   -109.08907     3093.087    4.3788699    4.3788699    4.3788699     3093.087    18562.188    -8676.523   -606.40374   -2696.0092   -963.80372   -379.78989    83.962647 
   41000    857.51839   -109.87173   0.77590066   -109.09583    3203.7138    4.3754677    4.3754677    4.3754677    3203.7138   -9388.6667    11682.487    7317.3216    25974.777    7174.9517    603.72569    83.767093 
   41100    1057.5682   -110.05769   0.95690994   -109.10078   -16223.311    4.3885114    4.3885114    4.3885114   -16223.311   -25455.841     4132.894   -27346.987   -760.44694    5482.6409    11741.274    84.518484 
   41200     1232.667    -110.2148     1.115343   -109.09946    3327.2928     4.384304     4.384304     4.384304    3327.2928    -32753.44    39595.586    3139.7326    4534.8696    6235.8437   -5929.4854    84.275627 
   41300    1008.4255   -110.01748   0.91244457   -109.10504    3959.0519    4.3875077    4.3875077    4.3875077    3959.0519    15510.968    3750.2259   -7384.0385    18298.159    6576.4963    3115.2601    84.460503 
   41400    1360.4816   -110.32745    1.2309923   -109.09646   -4148.6146    4.3827559    4.3827559    4.3827559   -4148.6146   -16562.683    28954.895   -24838.055   -10434.418    16181.414    3190.0198    84.186383 
   41500    783.39086   -109.81054   0.70882852   -109.10171    14317.359    4.3786183    4.3786183    4.3786183    14317.359    24767.073    3121.8153    15063.188    17828.995   -3050.3485    1434.9527    83.948174 
   41600    1049.1437   -110.05414   0.94928724   -109.10485   -14563.531    4.3951372    4.3951372    4.3951372   -14563.531   -47051.222    21744.207   -18383.579    12830.007     3558.809   -3955.5633    84.901882 
   41700    1294.0751    -110.2705    1.1709063   -109.09959    1603.8333    4.3854129    4.3854129    4.3854129    1603.8333   -16366.436    39584.111   -18406.175   -198.49856    8652.0953    657.97836    84.339585 
   41800    939.89028   -109.95569   0.85043248   -109.10526    10656.436    4.3667816    4.3667816    4.3667816    10656.436    12317.492   -403.26887    20055.083    31554.163    1323.8949    2118.7697    83.269203 
   41900    1337.3912   -110.32501    1.2100997   -109.11491   -12578.568    4.3900555    4.3900555    4.3900555   -12578.568   -21816.218    10851.543    -26771.03   -9410.7586    5887.5371   -9869.6409    84.607728 
   42000    1025.6574   -110.03308    0.9280364   -109.10504    315.42227    4.3933318    4.3933318    4.3933318    315.42227    8651.9886     2684.525   -10390.247    4111.6206    5014.2205    2125.5158      84.7973 
   42100    801.21051   -109.83183   0.72495211   -109.10688   -8409.2533    4.3749834    4.3749834    4.3749834   -8409.2533   -52903.438    13085.391    14590.287    18448.539    -3619.461   -6339.6756    83.739281 
   42200    1407.6888   -110.37878    1.2737064   -109.10507    4620.3391    4.3748211    4.3748211    4.3748211    4620.3391    -7598.956    23057.221   -1597.2476   -15620.037    16340.569    2089.0337    83.729963 
   42300    1154.6144   -110.15168    1.0447194   -109.10696   -11182.177    4.3916852    4.3916852    4.3916852   -11182.177   -31046.358     12999.61   -15499.785    25074.499   -5268.8465     8557.348    84.701989 
   42400    870.68493   -109.88889   0.78781402   -109.10107    -25740.23     4.392196     4.392196     4.392196    -25740.23   -33857.507   -38221.703   -5141.4806    7001.2157   -4201.3991   -4893.1201    84.731549 
   42500    1258.3867   -110.23025    1.1386147   -109.09164    20032.877    4.3709669    4.3709669    4.3709669    20032.877    18215.957    45137.579    -3254.903   -12575.354    8350.9888    9609.2451    83.508862 
   42600    1018.5174   -110.02721   0.92157591   -109.10563    737.86791    4.3820549    4.3820549    4.3820549    737.86791   -28952.828     17813.79    13352.641    19520.363   -11164.404    4188.9294    84.145995 
   42700    1000.9282   -110.01037   0.90566091   -109.10471    -9300.929    4.3935511    4.3935511    4.3935511    -9300.929   -31709.806   -2185.3075    5992.3264   -18039.193    2619.3398   -7248.0391    84.809999 
   42800    1416.0811   -110.37461    1.2812999   -109.09331   -664.87644    4.3835908    4.3835908    4.3835908   -664.87644   -15553.979    37603.162   -24043.811   -1176.2919   -9101.5215    7466.9589    84.234502 
   42900    903.95743   -109.91716   0.81791968   -109.09924   -3872.4635     4.375404     4.375404     4.375404   -3872.4635   -17271.744   -16737.255    22391.609    1585.6876   -7283.4213   -3411.4216    83.763434 
   43000     1008.404   -110.01625   0.91242511   -109.10383   -6544.3757    4.3790253    4.3790253    4.3790253   -6544.3757   -45256.678    17872.669    7750.8817   -18467.111    4682.2491   -195.10335    83.971588 
   43100    1247.1482   -110.22897    1.1284459   -109.10052   -1729.9794    4.3939187    4.3939187    4.3939187   -1729.9794     9691.484    15620.713   -30502.135    3120.3204   -12773.449    3336.0163    84.831284 
   43200    1135.8281   -110.13267    1.0277211   -109.10495   -5763.8676    4.3814129    4.3814129    4.3814129   -5763.8676   -33058.772    5850.3385    9916.8304    -10691.16   -8960.0265   -7011.1419    84.109014 
   43300    955.12003   -109.96217   0.86421268   -109.09795    26949.281    4.3644715    4.3644715    4.3644715    26949.281    35246.784    22769.409    22831.649     -10563.4   -393.44814    1881.6204    83.137123 
   43400    1326.9342   -110.30072    1.2006379   -109.10009   -23457.915    4.3891836    4.3891836    4.3891836   -23457.915   -27465.859   -1958.6813   -40949.205    8965.8015   -16225.602    3115.5515    84.557327 
   43500    696.62828   -109.73137   0.63032391   -109.10104   -3598.4646    4.3883653    4.3883653    4.3883653   -3598.4646   -35009.611   -7875.6942    32089.911   -21062.664    3672.3336   -4036.6389     84.51004 
   43600    1271.7533   -110.24676    1.1507091   -109.09605   -10085.284    4.3751727    4.3751727    4.3751727   -10085.284     -37111.4     11068.77   -4213.2205   -591.98565   -12115.411    283.11665    83.750153 
   43700    1118.3262   -110.11528     1.011885    -109.1034    15047.651    4.3781045    4.3781045    4.3781045    15047.651    16489.161    37300.678   -8646.8857   -5646.3764   -18516.744    6559.3662    83.918629 
   43800    1299.6571   -110.27873     1.175957   -109.10277   -6066.7581    4.3846667    4.3846667    4.3846667   -6066.7581   -29959.358    1996.1792    9762.9048   -27791.283    7906.7972   -6832.8147    84.296542 
   43900    680.89036   -109.72183    0.6160839   -109.10575   -12482.187    4.3898951    4.3898951    4.3898951   -12482.187   -8088.9807    17318.153   -46675.734    2182.7447   -31746.001    10910.823    84.598453 
   44000    1169.9838   -110.15681     1.058626   -109.09818    619.18305    4.3747693    4.3747693    4.3747693    619.18305   -24906.701    29329.741   -2565.4909   -10167.018   -1727.6862    6837.3877     83.72699 
   44100    1172.2952   -110.16918    1.0607174   -109.10847     -1947.62    4.3778621    4.3778621    4.3778621     -1947.62   -31552.857    -8691.737    34401.734   -7660.8962   -4332.2781   -660.33126     83.90469 
   44200    779.74704   -109.82015   0.70553151   -109.11462   -24727.656    4.3962386    4.3962386    4.3962386   -24727.656   -19052.407   -10123.055   -45007.506     9741.307   -20587.275    14103.877    84.965725 
   44300    1651.7649    -110.5899    1.4945516   -109.09534    7868.4966    4.3755199    4.3755199    4.3755199    7868.4966    2488.1464    156.32368     20961.02    1796.5441    8544.9298   -1385.3445    83.770089 
   44400    984.35894   -109.99318   0.89066866   -109.10252    2444.6509     4.375312     4.375312     4.375312    2444.6509    52.624754    7071.7586    209.56938      2147.86   -25930.414    765.51008    83.758154 
   44500    712.14701   -109.74739   0.64436558   -109.10302   -24745.066    4.3921648    4.3921648    4.3921648   -24745.066   -27235.759   -6539.0441   -40460.395    11544.092   -517.95728     2908.074     84.72974 
   44600    1446.5284   -110.39866    1.3088493   -109.08981   -778.11263     4.381908     4.381908     4.381908   -778.11263   -25342.791    5906.2003    17102.252   -723.85096    3307.7371   -1885.3565    84.137534 
   44700    880.31793   -109.89962   0.79653016   -109.10309    747.16528    4.3773348    4.3773348    4.3773348    747.16528   -16823.363    35358.957   -16294.099   -420.57239   -23322.319   -203.30914    83.874376 
   44800    1125.0601   -110.12344     1.017978   -109.10547   -746.66692    4.3837909    4.3837909    4.3837909   -746.66692   -12671.122    22964.019   -12532.898    5482.2327    22204.888    8783.1532    84.246038 
   44900    1285.3209   -110.25711    1.1629854   -109.09412    7876.5984    4.3900056    4.3900056    4.3900056    7876.5984   -31630.364    45300.667    9959.4922   -3581.7616    -10071.45    1840.7375    84.604842 
   45000    975.57641   -109.97844   0.88272204   -109.09572   -948.32555    4.3834519    4.3834519    4.3834519   -948.32555   -14097.984    12431.492    -1178.485    5383.2945   -11246.582    9689.2453    84.226497 
   45100    814.01059   -109.83333   0.73653389    -109.0968    15442.382    4.3782796    4.3782796    4.3782796    15442.382    -2679.296    17904.461    31101.982    3951.3643    15341.648    4883.6403    83.928698 
   45200    1505.5901   -110.45431    1.3622895   -109.09202    -6294.953    4.3872623    4.3872623    4.3872623    -6294.953   -10764.022    -2633.124   -5487.7132   -5071.3932   -14493.271    1257.7898    84.446336 
   45300    1130.8713   -110.12117    1.0232361   -109.09793    7896.6524    4.3842664    4.3842664    4.3842664    7896.6524    5803.4176    10840.676    7045.8634    3287.7638    676.59536    8302.3739    84.273458 
   45400     914.3823   -109.93035   0.82735232     -109.103    4370.5649    4.3831002    4.3831002    4.3831002    4370.5649   -29967.855    31605.808    11473.742   -4695.6676    7902.7585    5183.5813    84.206224 
   45500    1379.5578   -110.34429    1.2482529   -109.09603   -382.28939    4.3848015    4.3848015    4.3848015   -382.28939   -22586.338    12111.626    9327.8438   -5929.9243   -11051.876   -7835.9803    84.304314 
   45600    720.45786   -109.75546   0.65188541   -109.10357    19572.683    4.3742307    4.3742307    4.3742307    19572.683   -8699.5773    45219.817    22197.809    8846.6708    10497.917    8266.0731    83.696065 
   45700    1113.9883   -110.11588    1.0079601   -109.10792   -16234.231    4.3903402    4.3903402    4.3903402   -16234.231   -16759.767   -38161.064    6218.1393   -6088.0912      917.737    2834.1946    84.624188 
   45800    1575.9987     -110.518    1.4259967     -109.092    3728.2618    4.3871803    4.3871803    4.3871803    3728.2618   -388.06639    23273.823   -11700.971   -5147.5112   -4639.3824   -9013.4039      84.4416 
   45900    763.41658   -109.79026   0.69075537    -109.0995      6045.23    4.3675386    4.3675386    4.3675386      6045.23   -6947.3084     12375.99    12707.008    9150.4458    14652.162    12452.471    83.312517 
   46000    999.52794   -110.01007   0.90439389   -109.10567   -15767.009     4.384473     4.384473     4.384473   -15767.009   -43317.403   -7577.1158    3593.4921   -8814.3274   -3170.6783    159.07824    84.285368 
   46100    1169.3729   -110.15223    1.0580732   -109.09416   -21284.324    4.3958663    4.3958663    4.3958663   -21284.324   -31335.666     1098.658   -33615.965     1787.213    361.03276   -6943.4578    84.944139 
   46200    993.41398   -109.99382   0.89886185   -109.09496   -14017.153    4.3801897    4.3801897    4.3801897   -14017.153   -18211.054   -19413.863   -4426.5416   -6786.8821    11278.878    6920.7496    84.038592 
   46300    1153.1206   -110.13425    1.0433677   -109.09088    7712.2751    4.3702855    4.3702855    4.3702855    7712.2751   -11226.198    22912.516    11450.508   -11822.895   -4347.7646   -4666.3891    83.469812 
   46400    1084.7405   -110.08038   0.98149601   -109.09888   -19488.094    4.3881841    4.3881841    4.3881841   -19488.094   -17064.418     3981.663   -45381.526    4738.8687     6121.384   -4373.9665    84.499573 
   46500    943.19726   -109.94776    0.8534247   -109.09434   -20483.009    4.3928347    4.3928347    4.3928347   -20483.009   -42936.921   -22462.943    3950.8361   -7654.9831    3188.8687    5150.3438    84.768516 
   46600    940.58616   -109.94379   0.85106212   -109.09273    2888.8767    4.3672466    4.3672466    4.3672466    2888.8767   -8315.1216    18543.083   -1561.3317   -596.76242   -5589.0364   -8751.9464    83.295806 
   46700    1444.0927   -110.40588    1.3066454   -109.09924    -4648.791     4.376644     4.376644     4.376644    -4648.791   -3157.7179    8893.0378   -19681.693    727.39301    15230.396   -2138.4315    83.834669 
   46800     851.6488   -109.87067   0.77058973   -109.10009   -25910.945    4.3971476    4.3971476    4.3971476   -25910.945   -46700.059   -38417.235    7384.4593   -8222.0395    -5516.776    193.99773    85.018441 
   46900    935.37978   -109.93822   0.84635128   -109.09186    6964.9023    4.3714394    4.3714394    4.3714394    6964.9023    9213.9572    15310.843   -3630.0938    2984.6275   -2096.9587   -12486.248    83.535943 
   47000    1436.3131   -110.39025    1.2996063   -109.09065    609.65451    4.3793079    4.3793079    4.3793079    609.65451   -140.92362    7001.1584   -5031.2712     3319.587    2376.1266   -9.4986755    83.987846 
   47100    546.59453   -109.60064   0.49457021   -109.10607   -23684.361    4.3899131    4.3899131    4.3899131   -23684.361   -36976.846   -40448.146    6371.9108    2960.3538   -5236.1945   -1584.8837    84.599497 
   47200    1462.4087    -110.4137    1.3232182   -109.09048    13841.382    4.3711262    4.3711262    4.3711262    13841.382    299.89457    23683.551    17540.702    644.16782   -10870.585   -10474.765    83.517993 
   47300    1179.0604   -110.16364    1.0668387    -109.0968   -15698.847    4.3911333    4.3911333    4.3911333   -15698.847   -3723.1998    -26885.94     -16487.4    49.448513    -2034.711    2450.2227    84.670058 
   47400    631.55896   -109.67581   0.57144782   -109.10436   -9438.5917    4.3780399    4.3780399    4.3780399   -9438.5917   -36536.978   -15232.374    23453.576   -116.96339   -10116.525   -4115.0383    83.914914 
   47500    1521.8654   -110.46949    1.3770158   -109.09248    10365.967    4.3742374    4.3742374    4.3742374    10365.967    18087.205    18073.979   -5063.2836   -418.05961   -5247.8968   -4636.9082     83.69645 
   47600     679.1197   -109.71631   0.61448178   -109.10183   -30291.023    4.3996427    4.3996427    4.3996427   -30291.023   -34705.979   -55528.431   -638.66011   -1055.9697    10568.535    8604.9512     85.16325 
   47700     1358.936   -110.32007    1.2295939   -109.09048    4043.0031    4.3718245    4.3718245    4.3718245    4043.0031   -10026.014    -3653.292    25808.315    926.03557   -10130.091   -5405.1244    83.558026 
   47800    1329.6478   -110.29419    1.2030932   -109.09109    7729.0779    4.3766171    4.3766171    4.3766171    7729.0779     29795.88    17128.185   -23736.831    -7157.688    12599.225    9197.2247    83.833126 
   47900    619.30933   -109.66283   0.56036409   -109.10246    -32762.69    4.3927542    4.3927542    4.3927542    -32762.69   -58825.431   -41747.019    2284.3785   -3428.2559   -1994.1124    2473.6242    84.763856 
   48000     1285.523   -110.25268    1.1631682   -109.08951     8420.162    4.3835838    4.3835838    4.3835838     8420.162    15990.907    5715.9723     3553.607    4984.0359   -6937.8206   -5004.8353    84.234102 
   48100    1106.1087   -110.09842    1.0008304   -109.09759   -25791.038    4.3862362    4.3862362    4.3862362   -25791.038   -27638.772   -23120.444   -26613.897    -6400.167    15369.991    8633.1133    84.387095 
   48200    1073.2897   -110.06996   0.97113504   -109.09882    7850.7861    4.3676272    4.3676272    4.3676272    7850.7861     6724.528   -20442.291    37270.122    2313.3927   -1837.4236   -2247.8122    83.317589 
   48300    1292.0916   -110.26991    1.1691117    -109.1008    611.96066    4.3882112    4.3882112    4.3882112    611.96066   -8147.3854    25732.267       -15749   -564.85173    8052.7433   -5403.2491    84.501141 
   48400     725.3109   -109.75831   0.65627654   -109.10203   -35068.474     4.391606     4.391606     4.391606   -35068.474   -53977.229   -36073.046   -15155.147   -19002.295    13553.492    4890.8505    84.697407 
   48500    940.37889   -109.93429   0.85087458   -109.08342    31509.047    4.3611832    4.3611832    4.3611832    31509.047    14364.943    40123.476    40038.722    177.91916   -3915.0033     3557.399    82.949351 
   48600    1159.3602   -110.14286    1.0490135   -109.09384   -23347.627    4.3893927    4.3893927    4.3893927   -23347.627    -15906.88   -19575.243   -34560.757    2188.5396    10029.836   -9738.0445     84.56941 
   48700    1164.1275   -110.14326     1.053327   -109.08993   -14160.814    4.3858721    4.3858721    4.3858721   -14160.814   -31709.092   -23794.271    13020.922   -15780.126   -470.73421    592.13218    84.366085 
   48800    1312.8956   -110.27349    1.1879355   -109.08555    7478.6648    4.3733531    4.3733531    4.3733531    7478.6648    3534.3952    16454.016    2447.5836    4618.9564   -3280.3334   -1537.0566    83.645704 
   48900    796.07324    -109.8197    0.7203038    -109.0994   -22571.023    4.3792111    4.3792111    4.3792111   -22571.023   -24426.545   -24503.685    -18782.84   -5211.0958    6226.7327   -27759.434    83.982277 
   49000    1117.1533   -110.10703    1.0108238    -109.0962    2612.6159    4.3707885    4.3707885    4.3707885    2612.6159   -13519.179   -7896.3291    29253.356    -12985.92    262.47631    9405.5285    83.498633 
   49100    937.17699   -109.94647   0.84797743   -109.09849   -18045.408    4.3949595    4.3949595    4.3949595   -18045.408   -1449.8219   -26004.644   -26681.759   -461.40546   -5188.2461   -17893.465    84.891584 
   49200    1105.4501   -110.10002    1.0002344   -109.09979   -14608.829    4.3765342    4.3765342    4.3765342   -14608.829   -11187.322   -21246.882   -11392.283   -16872.552    3119.1466   -16401.305    83.828361 
   49300    1442.0433      -110.39    1.3047911   -109.08521    28705.025    4.3575986    4.3575986    4.3575986    28705.025    10697.019    24129.172    51288.884   -4299.5355    5001.8673    2809.9318    82.744982 
   49400    810.05828   -109.83033   0.73295775   -109.09737   -27788.037    4.3939671    4.3939671    4.3939671   -27788.037   -25508.769   -21471.533   -36383.808    1387.3978   -16068.583   -12032.223    84.834089 
   49500     954.1178   -109.95605   0.86330583   -109.09274   -13408.077    4.3774574    4.3774574    4.3774574   -13408.077   -20606.615   -31934.205    12316.589   -27065.546   -6978.9421   -85.666439    83.881425 
   49600     1197.147   -110.17108    1.0832038   -109.08788    16741.995    4.3676002    4.3676002    4.3676002    16741.995    33119.117   -8967.5245    26074.392    3822.8228    4982.3095   -4076.8099    83.316042 
   49700    951.45509   -109.96023   0.86089656   -109.09933   -25148.497    4.3858048    4.3858048    4.3858048   -25148.497   -10938.276   -30201.905   -34305.311   -6954.5219   -16914.596   -11663.043    84.362201 
   49800    1313.7984   -110.28311    1.1887524   -109.09436     10476.15    4.3786032    4.3786032    4.3786032     10476.15    10511.555   -19071.006    39987.902   -28542.847    5120.4469   -1542.4342    83.947307 
   49900    1245.0076   -110.21875     1.126509   -109.09224   -15965.675    4.3857233    4.3857233    4.3857233   -15965.675   -5529.7739    -27828.33   -14538.922    5675.6266     4124.627   -2921.7853    84.357496 
   50000    458.91532   -109.51613   0.41523623   -109.10089   -9094.5965    4.3763323    4.3763323    4.3763323   -9094.5965   -10332.187   -37889.813     20938.21   -20364.722   -19003.622   -9678.9026     83.81676 
   50100    1481.4318   -110.43469    1.3404306   -109.09426    11613.396    4.3702853    4.3702853    4.3702853    11613.396    16693.453   -9695.7472    27842.482   -12989.663    9412.7443    11764.013    83.469801 
   50200    1135.5999   -110.13083    1.0275147   -109.10331   -22503.047    4.3901004    4.3901004    4.3901004   -22503.047   -10921.798   -30131.936   -26455.407    5012.9894   -16481.421   -8694.4704    84.610322 
   50300    1012.1923   -110.01923   0.91585289   -109.10338   -7772.7798    4.3785996    4.3785996    4.3785996   -7772.7798    -11223.52   -11193.153   -901.66625   -21606.102   -8595.0361   -4692.2011    83.947102 
   50400    1336.1899   -110.29969    1.2090127   -109.09068    4041.1287    4.3752022    4.3752022    4.3752022    4041.1287    262.37963   -1071.4698    12932.476    7790.5271    5115.5782    745.11054    83.751844 
   50500    712.27913   -109.74626   0.64448513   -109.10178   -12410.267    4.3800444    4.3800444    4.3800444   -12410.267   -15258.435   -29148.306    7175.9384   -8380.9399    -20304.68   -11850.112    84.030227 
   50600    1035.8642   -110.03583   0.93727172   -109.09856    1955.6316    4.3813157    4.3813157    4.3813157    1955.6316   -13204.492   -10193.225    29264.611   -15576.762   -4490.3609   -9378.5591    84.103419 
   50700     1221.552   -110.19625    1.1052859   -109.09097   -6618.8145    4.3909281    4.3909281    4.3909281   -6618.8145    3928.4054   -7876.1106   -15908.738     11645.02   -4421.9141   -2351.5248    84.658187 
   50800    792.44098   -109.81117   0.71701725   -109.09415   -6683.0733    4.3784328    4.3784328    4.3784328   -6683.0733    5.0692013   -11207.265   -8847.0237   -32992.503   -27590.707   -16206.969    83.937505 
   50900    1114.6029   -110.09874    1.0085161   -109.09022    16427.065    4.3712537    4.3712537    4.3712537    16427.065    27548.054    21070.796    662.34466   -1620.9967    6975.4902   -3988.0916    83.525296 
   51000    1043.1235    -110.0413   0.94384002   -109.09746   -12847.611    4.3915977    4.3915977    4.3915977   -12847.611   -12774.776   -10244.145   -15523.911    2301.1319   -8552.4835   -11527.138    84.696926 
   51100    875.77742   -109.87871   0.79242182   -109.08629   -15940.458    4.3980946    4.3980946    4.3980946   -15940.458   -14732.979   -12484.668   -20603.728   -19177.088   -10131.312   -13510.094    85.073381 
   51200    1337.4026   -110.28666      1.21011   -109.07655    7940.7064    4.3689218    4.3689218    4.3689218    7940.7064   -7721.5629    38430.503   -6886.8214    18454.799    20241.748    378.00332    83.391697 
   51300    843.02856   -109.85452   0.76278996   -109.09173    1506.3061    4.3698507    4.3698507    4.3698507    1506.3061    29643.954    4360.4074   -29485.444   -2912.2516   -12518.506   -15702.975    83.444902 
   51400    1237.8436   -110.21417    1.1200269   -109.09414    -19693.34    4.3905603    4.3905603    4.3905603    -19693.34   -13721.763   -12927.645   -32430.611   -4168.6133    5393.2279    3820.1812    84.636918 
   51500    1307.4852    -110.2703    1.1830401   -109.08726   -4445.4249    4.3882967    4.3882967    4.3882967   -4445.4249    6566.7019   -10491.995   -9410.9813    3689.1028    16823.296    1442.1075     84.50608 
   51600    935.87894   -109.93671   0.84680293   -109.08991    -13574.67    4.3765321    4.3765321    4.3765321    -13574.67    5370.1198   -26985.103   -19109.026   -13078.297   -28447.239    -24041.11    83.828239 
   51700     1262.531   -110.23278    1.1423646   -109.09041    2774.9697    4.3678499    4.3678499    4.3678499    2774.9697    5152.4475    10382.567   -7210.1054   -6258.0797    14268.646    13206.152    83.330335 
   51800    1021.4381   -110.02288   0.92421862   -109.09866   -8949.2329    4.3893745    4.3893745    4.3893745   -8949.2329    17817.758   -2857.7489   -41807.707   -1503.9954   -1924.9474   -12527.462    84.568363 
   51900    1031.5853   -110.03558   0.93340005   -109.10218    -20668.04    4.3828429    4.3828429    4.3828429    -20668.04   -22435.454    3795.6349   -43364.302   -3864.7522    -28427.55    -16123.52    84.191399 
   52000    1331.8674   -110.29465    1.2051016   -109.08954    33504.735    4.3640855    4.3640855    4.3640855    33504.735    45839.636    36519.395    18155.176   -4747.8591    22669.644    12431.454    83.115064 
   52100    1010.0453   -110.01321   0.91391026    -109.0993   -13911.643    4.3888479    4.3888479    4.3888479   -13911.643   -9290.6773    2735.1298   -35179.381    5444.2324   -19295.945   -20357.945    84.537925 
   52200    774.18794   -109.79439   0.70050152   -109.09389   -4418.5984    4.3829658    4.3829658    4.3829658   -4418.5984   -2214.0026    22427.869   -33469.661   -9725.6445   -1970.7884   -5262.0021    84.198481 
   52300    1193.2537   -110.16594     1.079681   -109.08626    10156.778    4.3737138    4.3737138    4.3737138    10156.778    19943.638    21345.757   -10819.062   -3887.2652    7453.6064    5154.3697      83.6664 
   52400    1099.2292    -110.0907   0.99460568   -109.09609   -17570.395    4.3805917    4.3805917    4.3805917   -17570.395   -14990.862   -1261.0935    -36459.23   -1741.5389   -28039.493    -18473.28    84.061733 
   52500    1306.4797    -110.2775    1.1821303   -109.09537     8872.023    4.3772265    4.3772265    4.3772265     8872.023    38844.647   -10949.824   -1278.7543   -10032.788    14650.159    9830.3165    83.868147 
   52600    1202.5305   -110.18316    1.0880749   -109.09509   -13828.555    4.3854188    4.3854188    4.3854188   -13828.555   -1896.1723    -936.0487   -38653.443    7667.9921   -24939.068    -4794.058    84.339928 
   52700    755.57157   -109.78142   0.68365703   -109.09776    807.38774     4.373987     4.373987     4.373987    807.38774    28080.477    23897.753   -49556.067    2834.9328   -16005.919   -8446.5763    83.682077 
   52800    1141.8666   -110.12949    1.0331849    -109.0963    247.29349    4.3762483    4.3762483    4.3762483    247.29349    19177.617    33.919619   -18469.656   -5514.1202    9459.4487    12979.441    83.811932 
   52900    1158.1197   -110.14397     1.047891   -109.09607   -18362.021     4.389728     4.389728     4.389728   -18362.021   -26546.367      3207.87   -31747.567    1442.4031   -35147.528   -16100.273    84.588793 
   53000    1284.3699   -110.25362    1.1621249   -109.09149    19732.753    4.3719413    4.3719413    4.3719413    19732.753    60351.359    543.80903   -1696.9083   -5055.5781    2904.7972    7091.3967    83.564722 
   53100    1127.0609   -110.11366    1.0197884   -109.09388    1340.6365    4.3741167    4.3741167    4.3741167    1340.6365   -4853.0914    5055.7213    3819.2796   -15801.366   -6146.6329    4791.1148    83.689524 
   53200    666.49728   -109.70269   0.60306074   -109.09963   -7996.7174     4.383184     4.383184     4.383184   -7996.7174    26801.186   -5936.7721   -44854.566    2062.8156   -30276.933    -9360.558    84.211057 
   53300    1252.8634   -110.22687    1.1336171   -109.09326   -943.48778    4.3795444    4.3795444    4.3795444   -943.48778    12490.606   -1596.5722   -13724.497    -9341.041    12808.305    8509.2509    84.001454 
   53400    1221.2909   -110.20093    1.1050497   -109.09588   -5186.0411    4.3802231    4.3802231    4.3802231   -5186.0411   -15116.498    8231.3977   -8673.0227   -4155.3246   -16684.156    1469.1632    84.040515 
   53500     1129.629   -110.11667    1.0221121   -109.09456   -5991.4113     4.378652     4.378652     4.378652   -5991.4113    15492.661   -16576.429   -16890.466    4186.6207   -17774.697   -2576.2926    83.950117 
   53600    1142.3271   -110.12722    1.0336016   -109.09362   -684.69914       4.3754       4.3754       4.3754   -684.69914    9562.7203    71.241236   -11688.059   -5767.7901    4753.9826    14712.529    83.763203 
   53700     729.0347    -109.7616   0.65964592   -109.10196   -8246.5582    4.3772961    4.3772961    4.3772961   -8246.5582    6706.9863    5035.2683   -36481.929   -1983.3665   -37273.325   -6694.8964    83.872151 
   53800    1224.7994    -110.2095    1.1082243   -109.10128   -11128.686    4.3815913    4.3815913    4.3815913   -11128.686    3222.4242    -26234.81   -10373.671   -285.32566   -5938.7631    1709.5087    84.119288 
   53900     1434.584    -110.3947    1.2980418   -109.09666    157.15821    4.3782024    4.3782024    4.3782024    157.15821    1127.2965   -4500.7408    3844.9189    3210.4426   -12011.196    10529.773     83.92426 
   54000    833.43606   -109.85656   0.75411046   -109.10245   -1328.4594    4.3731728    4.3731728    4.3731728   -1328.4594     10529.16    10488.157   -25002.696     98.27451   -25547.606   -16535.673    83.635359 
   54100    1038.7646   -110.03745   0.93989603   -109.09755   -17520.924    4.3845781    4.3845781    4.3845781   -17520.924    19626.699   -30947.426   -41242.044    9902.9971     13437.34    8729.1363    84.291434 
   54200    952.31336   -109.95508   0.86167314   -109.09341   -660.35048    4.3797545    4.3797545    4.3797545   -660.35048    13481.155     21252.39   -36714.596   -913.76061   -28830.566    484.99517    84.013543 
   54300     1218.272   -110.19869    1.1023181   -109.09637    -9064.151    4.3765851    4.3765851    4.3765851    -9064.151   -13486.742    5728.1366   -19433.847    3610.9382   -9435.0007   -9758.6318    83.831288 
   54400     1290.667   -110.26032    1.1678226   -109.09249   -3235.0174     4.386181     4.386181     4.386181   -3235.0174    31291.078   -23900.986   -17095.143    1984.1876    3809.6324    13447.244     84.38391 
   54500    901.50879   -109.91018   0.81570409   -109.09448   -1651.7422    4.3744432    4.3744432    4.3744432   -1651.7422    -5642.715     42448.36   -41760.871   -11274.972   -40954.512   -2051.5044    83.708268 
   54600    896.89845   -109.90737   0.81153257   -109.09583   -7071.5672    4.3816959    4.3816959    4.3816959   -7071.5672    25143.619   -17338.102   -29020.219     5890.936    10045.366   -3443.1819    84.125314 
   54700     1166.384   -110.14687    1.0553688   -109.09151   -10087.079    4.3832956    4.3832956    4.3832956   -10087.079   -12325.852    5074.0686   -23009.455   -86.754742   -17434.014    10785.493    84.217488 
   54800    1192.8945   -110.17416     1.079356    -109.0948    2562.0472    4.3721971    4.3721971    4.3721971    2562.0472   -14400.426    34834.109   -12747.541    3735.4398   -39681.331   -2897.0243    83.579387 
   54900    1223.8955   -110.20189    1.1074064   -109.09448    3768.4295    4.3838661    4.3838661    4.3838661    3768.4295    45942.672   -26507.654   -8129.7295    9600.5055    8813.8122   -6468.1679    84.250376 
   55000    763.30753   -109.78836   0.69065669   -109.09771   -7717.5489    4.3808531    4.3808531    4.3808531   -7717.5489    3942.3394    14278.283   -41373.269     3067.595   -38314.335    1606.0679    84.076779 
   55100    973.81429   -109.97615   0.88112763   -109.09503    11794.066    4.3757905    4.3757905    4.3757905    11794.066    34867.087    15743.845   -15228.734    -2186.606   -4911.9487   -8783.2567    83.785634 
   55200    1465.9528   -110.41994    1.3264249   -109.09351   -13478.648    4.3869613    4.3869613    4.3869613   -13478.648   -23451.405    -4922.359   -12062.179    1332.9428   -2189.1642     2131.065    84.428956 
   55300    971.78935   -109.97897   0.87929543   -109.09967    3505.4281     4.374627     4.374627     4.374627    3505.4281    6770.0225    20004.353   -16258.091   -8761.6365   -36993.876   -3186.3598    83.718817 
   55400    1352.3648   -110.31578    1.2236481   -109.09213    17307.797    4.3707982    4.3707982    4.3707982    17307.797    31736.698    22815.257   -2628.5626    -3892.572    6116.9195   -17001.209    83.499189 
   55500    852.29608   -109.86894   0.77117541   -109.09776   -6790.0331    4.3879536    4.3879536    4.3879536   -6790.0331    21025.867     12044.54   -53440.506   -2398.2175   -36088.906    6335.0218    84.486261 
   55600    983.14372   -109.98501    0.8895691   -109.09545   -1380.8769    4.3803517    4.3803517    4.3803517   -1380.8769   -480.34579    571.41931   -4233.7041    1614.0577   -24254.883   -10670.886    84.047917 
   55700    1252.7173   -110.22358     1.133485    -109.0901    23778.173    4.3687159    4.3687159    4.3687159    23778.173     21812.69    11700.944    37820.885   -2554.1541   -2497.2039   -13679.527    83.379909 
   55800    1028.3629   -110.02807   0.93048438   -109.09759    1855.9656    4.3803917    4.3803917    4.3803917    1855.9656   -15587.175    19694.968    1460.1042    33.114402   -32229.254    5496.4936    84.050219 
   55900     1354.202   -110.31336    1.2253105   -109.08805   -13410.283    4.3860776    4.3860776    4.3860776   -13410.283   -4800.7178   -25694.919   -9735.2133   -650.62663    13978.336   -19981.752    84.377944 
   56000    943.79823   -109.94364   0.85396847   -109.08967   -4727.2074    4.3744733    4.3744733    4.3744733   -4727.2074    10150.237    12198.856   -36530.715   -126.61097    -24671.06    -4667.954    83.709997 
   56100     979.1042   -109.98268   0.88591406   -109.09677   -1466.4725    4.3765312    4.3765312    4.3765312   -1466.4725   -13197.148    11525.199   -2727.4686   -901.80522   -31319.512   -2227.8553     83.82819 
   56200    1324.8726   -110.29373    1.1987726   -109.09496     2136.184     4.380567     4.380567     4.380567     2136.184    5002.3806    -37153.49    38559.662   -3818.8646     13244.69   -25048.434    84.060308 
   56300    876.81963   -109.89351   0.79336483   -109.10014    12636.412    4.3747079    4.3747079    4.3747079    12636.412   -11156.673    25123.581    23942.327    1248.4214   -43066.818    4554.2072    83.723463 
   56400    1318.9468   -110.28406    1.1934107   -109.09065   -9211.2954    4.3854204    4.3854204    4.3854204   -9211.2954   -4860.6057    5687.6797    -28460.96   -4211.4679   -7266.8745   -14211.481    84.340017 
   56500    956.37055    -109.9598   0.86534417   -109.09446   -8670.6329    4.3740893    4.3740893    4.3740893   -8670.6329    13783.336   -3744.8652   -36050.369   -2110.9414   -4452.9503   -25525.458    83.687949 
   56600    973.65774   -109.97756   0.88098598   -109.09658    4432.4949     4.370319     4.370319     4.370319    4432.4949    4410.7375    20689.657    -11802.91    -3872.386   -33448.244    11001.783     83.47173 
   56700    1483.1657   -110.42829    1.3419995   -109.08629   -11505.183    4.3912996    4.3912996    4.3912996   -11505.183    -6458.801   -23056.139   -5000.6081    2901.3634    7026.8262   -14016.673    84.679682 
   56800     812.3503   -109.82801   0.73503162   -109.09298    2755.6922    4.3760965    4.3760965    4.3760965    2755.6922    7115.2999    3660.9227   -2509.1461    843.02588   -32066.114    -13226.48    83.803212 
   56900    1119.8327   -110.10013    1.0132482   -109.08688    9759.4585    4.3686955    4.3686955    4.3686955    9759.4585    11275.238    15613.693     2389.445   -3787.7401   -13338.971    10726.239    83.378737 
   57000    1132.3271   -110.11478    1.0245534   -109.09023   -11981.148    4.3802125    4.3802125    4.3802125   -11981.148    11603.021   -22719.088   -24827.376    8160.4205   -4842.4586   -13013.521    84.039905 
   57100    856.22577   -109.87406   0.77473107   -109.09933   -2852.4184    4.3816595    4.3816595    4.3816595   -2852.4184    13726.714    8643.0801   -30927.049   -6426.9747   -38291.903   -8418.1613    84.123217 
   57200    1641.7677   -110.57661    1.4855059   -109.09111    539.22298    4.3778697    4.3778697    4.3778697    539.22298    1807.1339   -13856.635     13667.17     1582.679    12988.535    15782.681    83.905124 
   57300    844.48342   -109.86373   0.76410634   -109.09963    11053.208    4.3684882    4.3684882    4.3684882    11053.208    19960.571   -5374.6064     18573.66    4641.3865   -11316.091   -8722.6794    83.366873 
   57400     796.6615    -109.8258   0.72083606   -109.10496   -3842.0387    4.3799994    4.3799994    4.3799994   -3842.0387    -4201.653    9038.3799   -16362.843   -3196.6065   -26083.917    6754.8926    84.027638 
   57500    1315.5954   -110.28374    1.1903784   -109.09336   -10194.656     4.384721     4.384721     4.384721   -10194.656    4097.1262   -23216.167   -11464.926    4917.9714    11388.766     5483.923    84.299671 
   57600    979.49452   -109.98687   0.88626723   -109.10061   -11136.937    4.3724022    4.3724022    4.3724022   -11136.937   -5651.0488   -7910.8598   -19848.904    5088.2129   -38269.409   -14724.502    83.591152 
   57700    1467.4656   -110.42537    1.3277937   -109.09758    4836.2227    4.3728878    4.3728878    4.3728878    4836.2227   -10487.868    10845.198    14151.338   -2357.8103   -17124.117     11259.95    83.619009 
   57800    1113.4873   -110.10599    1.0075067   -109.09848   -2765.6301    4.3819882    4.3819882    4.3819882   -2765.6301    4239.6263   -13863.099    1326.5821    4801.4938    4108.1159   -6732.2466    84.142149 
   57900    558.76912   -109.60835   0.50558604   -109.10277   -15616.741    4.3824237    4.3824237    4.3824237   -15616.741   -9522.2729   -5061.2129   -32266.737    629.93274    -36768.65   -11406.946    84.167243 
   58000    1433.1602   -110.38783    1.2967535   -109.09107    10429.552    4.3726024    4.3726024    4.3726024    10429.552    16382.404    9223.2117    5683.0402   -4778.7189    10140.199    12200.478    83.602634 
   58100    1223.6161   -110.20748    1.1071535   -109.10033    -1629.107    4.3730667    4.3730667    4.3730667    -1629.107    920.97745   -6.0180808   -5802.2805    9686.3229   -20617.889   -13619.743    83.629268 
   58200    1118.8383   -110.11338    1.0123484   -109.10103   -12156.194    4.3869234    4.3869234    4.3869234   -12156.194   -19671.359   -5789.1224   -11008.101    159.70744   -20481.811   -10046.194    84.426766 
   58300    1137.8744   -110.11816    1.0295727   -109.08859   -110.22577    4.3806995    4.3806995    4.3806995   -110.22577   -2826.9892    19514.339   -17018.027    6984.3624    15558.915     16013.83    84.067938 
   58400    551.50872   -109.59379   0.49901668   -109.09478    2508.3233    4.3637262    4.3637262    4.3637262    2508.3233   -2225.7948    23435.878   -13685.114   -862.50522   -39603.655   -16003.756    83.094541 
   58500    1374.9733   -110.34313    1.2441047   -109.09902   -2287.2366    4.3797405    4.3797405    4.3797405   -2287.2366   -6204.5979   -3854.0378     3196.926    7403.3089     14223.69   -2388.8641    84.012738 
   58600    1428.5762   -110.38858    1.2926058   -109.09597   -4743.2496    4.3831611    4.3831611    4.3831611   -4743.2496   -18544.201    12648.715   -8334.2631   -1814.0011   -2249.7979    6588.0147    84.209736 
   58700    911.75458   -109.92411   0.82497471   -109.09914    834.83758    4.3687481    4.3687481    4.3687481    834.83758   -2426.4177    15540.772   -10609.842    2329.8369   -41121.043   -12444.573    83.381749 
   58800     1087.689   -110.08015   0.98416387   -109.09598    7916.8566    4.3787801    4.3787801    4.3787801    7916.8566   -157.96351    14770.196     9138.337    3507.1377    19901.092   -30.982022    83.957485 
   58900    738.29235   -109.76997   0.66802243   -109.10194   -4615.5219    4.3819543    4.3819543    4.3819543   -4615.5219   -18149.696    25480.357   -21177.226   -3080.7455   -29601.112    497.87856    84.140198 
   59000    1146.6809   -110.13454     1.037541     -109.097    5310.9093    4.3736035    4.3736035    4.3736035    5310.9093    5686.8384    5166.4248    5079.4646     2629.384   -18521.317   -7452.0711    83.660071 
   59100    1647.2913   -110.58186    1.4905038   -109.09136   -3148.2044    4.3781518    4.3781518    4.3781518   -3148.2044   -13361.747    6298.5968   -2381.4632   -1095.0537    5294.9909    3278.2442    83.921346 
   59200    898.98479    -109.9165   0.81342033   -109.10308   -4058.6547     4.373585     4.373585     4.373585   -4058.6547   -15820.473    27382.576   -23738.066   -3110.3064   -31473.224   -7022.1007    83.659007 
   59300    1075.7937    -110.0753   0.97340074    -109.1019    5957.0163    4.3753208    4.3753208    4.3753208    5957.0163    13067.505    1593.9704    3209.5737     4210.739    6025.4518   -15273.668    83.758654 
   59400    1036.9453   -110.03543   0.93824991   -109.09718   -13818.512    4.3883805    4.3883805    4.3883805   -13818.512   -16727.943    9741.8954   -34469.488   -1455.8549   -12386.374    12012.046    84.510919 
   59500    1003.2986   -110.00404   0.90780564   -109.09623    6117.8765    4.3713224    4.3713224    4.3713224    6117.8765   -8974.4824    33879.423   -6551.3111    1494.1639   -25235.695   -10238.474    83.529237 
   59600    1336.2231   -110.30406    1.2090427   -109.09501    9386.4549     4.373595     4.373595     4.373595    9386.4549    18703.759   -12922.218    22377.823    19503.673    6338.8609   -4346.8395    83.659584 
   59700    1038.9812   -110.04032   0.94009206   -109.10022    1518.6441    4.3812941    4.3812941    4.3812941    1518.6441    1799.5367    37762.187   -35005.792    952.33392   -28021.637     6405.333    84.102173 
   59800    1029.6758   -110.03023   0.93167233   -109.09856    7972.6762    4.3762833    4.3762833    4.3762833    7972.6762     33205.63    3787.0441   -13074.646    13709.731    -7176.057   -8202.4718    83.813944 
   59900    1097.8509   -110.09182   0.99335858   -109.09846   -5394.2098    4.3798097    4.3798097    4.3798097   -5394.2098    13828.942    1835.8211   -31847.392    13397.592    3915.5549   -8929.8274     84.01672 
   60000    1312.8953   -110.28047    1.1879353   -109.09253   -69.263878    4.3762302    4.3762302    4.3762302   -69.263878   -6504.8935    29273.603   -22976.501   -10011.051   -25901.367    5454.0617    83.810893 
   60100    1148.0838   -110.13342    1.0388104   -109.09461   -3832.6718    4.3807587    4.3807587    4.3807587   -3832.6718   -3864.8254   -16087.854    8454.6639    11286.627    9515.3789   -10550.791    84.071347 
   60200    1088.9903   -110.07713   0.98534126   -109.09179   -11870.917    4.3865296    4.3865296    4.3865296   -11870.917   -12366.553    10169.519   -33415.717    1651.8226   -15667.319    1220.4851     84.40403 
   60300     1304.974   -110.26618    1.1807679   -109.08541    11922.778     4.370983     4.370983     4.370983    11922.778    34934.127    21632.385   -20798.177   -5012.1068   -9584.2736   -6778.3409     83.50978 
   60400    791.67906    -109.8173   0.71632785   -109.10097    5074.8608    4.3755429    4.3755429    4.3755429    5074.8608    30584.861   -10975.655   -4384.6234    8491.1809    3714.1347   -8972.7052    83.771414 
   60500    1210.0071   -110.18769    1.0948399   -109.09285    149.54126      4.38627      4.38627      4.38627    149.54126   -8077.6949    19959.269    -11432.95    1140.7272   -21592.621     1036.082    84.389049 
   60600    1034.2354   -110.03066   0.93579789   -109.09486   -3741.0697    4.3776413    4.3776413    4.3776413   -3741.0697   -7761.1333   -350.29941   -3111.7765    9997.7145    3893.3839   -8837.5034    83.891995 
   60700    809.47454   -109.83664   0.73242958   -109.10421    4175.4908    4.3687069    4.3687069    4.3687069    4175.4908   -1471.1437    15898.492   -1900.8761    21555.725    6160.2253   -5127.8965    83.379394 
   60800    1710.5915   -110.64624    1.5477791   -109.09846    6871.1245    4.3769986    4.3769986    4.3769986    6871.1245    9966.0558    24342.529   -13695.211   -5408.4486   -14039.734    6920.3925    83.855052 
   60900    687.87546   -109.73246   0.62240418   -109.11006   -20496.608    4.3856259    4.3856259    4.3856259   -20496.608   -20515.425   -14523.596   -26450.802    7890.1753    17560.345   -4740.7672    84.351877 
   61000    1081.1788   -110.07956    0.9782733   -109.10129    2893.8292    4.3732523    4.3732523    4.3732523    2893.8292   -7725.9985     14694.98    1712.5062    7441.0725    4424.8795   -2148.0529     83.63992 
   61100    1394.7852   -110.35811     1.262031   -109.09608     16915.81    4.3683959    4.3683959    4.3683959     16915.81   -8966.2874    49508.579    10205.139   -6409.1911   -4286.8008    12696.644    83.361586 
   61200    590.68729   -109.65192   0.53446628   -109.11746   -5169.4068     4.380065     4.380065     4.380065   -5169.4068   -5012.0056   -7605.4738   -2890.7409    15714.723    11857.212   -11062.216    84.031414 
   61300    1479.2466    -110.4343    1.3384534   -109.09585    1038.1746     4.391397     4.391397     4.391397    1038.1746    9280.7548    5029.4882   -11195.719    3049.7329     1595.362   -2783.0434    84.685314 
   61400    1141.0014   -110.13668     1.032402   -109.10428    3026.7201    4.3650789    4.3650789    4.3650789    3026.7201    10460.319    -1157.558   -222.60081    6114.3243    5191.5628    3847.9711    83.171837 
   61500    694.66982   -109.73677   0.62855185   -109.10821    15627.084    4.3628406    4.3628406    4.3628406    15627.084   -838.64986    31989.463    15730.439    16542.375    11497.425   -15096.387     83.04396 
   61600    1411.0937   -110.36696    1.2767872   -109.09017   -5870.8611    4.3910931    4.3910931    4.3910931   -5870.8611   -14327.445    5517.9434   -8803.0818   -3652.7645   -10991.388    1828.3336    84.667732 
   61700    1047.1452   -110.04445   0.94747894   -109.09697   -2895.1476      4.37497      4.37497      4.37497   -2895.1476    2562.4303   -1829.9143   -9417.9588      11368.6    8307.5977   -1719.1899    83.738511 
   61800     1089.874   -110.07778   0.98614093   -109.09164    21102.548    4.3670532    4.3670532    4.3670532    21102.548    31038.684    17835.186    14433.774    8325.7148    1215.4326   -14016.853    83.284744 
   61900    1199.4487   -110.17714    1.0852864   -109.09186   -6112.7777    4.3770691    4.3770691    4.3770691   -6112.7777   -8056.5726    193.13245   -10474.893   -14554.078   -29079.987    7480.1534    83.859102 
   62000    888.89361   -109.90109   0.80428962    -109.0968   -5279.5525    4.3783699    4.3783699    4.3783699   -5279.5525   -6522.2847   -2306.9263   -7009.4466    12190.497    7766.1359   -7737.9935    83.933889 
   62100    1187.8074   -110.16499    1.0747531   -109.09024    3555.5103    4.3802398    4.3802398    4.3802398    3555.5103   -20845.453    25291.546    6220.4379    -2765.282   -17624.611   -4123.8325    84.041473 
   62200    1094.0923   -110.08415   0.98995768   -109.09419    7404.7746    4.3678812    4.3678812    4.3678812    7404.7746    24974.539    1288.7708   -4048.9864   -10496.858   -19114.257    299.73677    83.332122 
   62300    1294.9814   -110.26764    1.1717264   -109.09591    7979.8621    4.3739764    4.3739764    4.3739764    7979.8621    15423.907    10772.339   -2256.6595    11613.595    2119.3724   -4807.5324    83.681471 
   62400    1121.0065   -110.10792    1.0143102   -109.09361   -3988.6673    4.3840212    4.3840212    4.3840212   -3988.6673   -10395.394    4389.7853   -5960.3929   -504.81141   -29461.651    -1294.019    84.259316 
   62500    887.66249   -109.89629   0.80317567   -109.09312    208.14908    4.3730823    4.3730823    4.3730823    208.14908    6486.8833    3182.5528   -9044.9888    4570.0782     5200.205    2013.1293    83.630162 
   62600    1201.4021   -110.17694    1.0870538   -109.08988    7188.3618    4.3711945    4.3711945    4.3711945    7188.3618   -10348.077    23837.316    8075.8462    17901.666   -8744.4031   -1920.2112    83.521908 
   62700    972.14106   -109.97762   0.87961366   -109.09801    13793.311    4.3752181    4.3752181    4.3752181    13793.311    33949.662     7781.109   -350.83671    2021.5172    -23785.63     3474.097    83.752759 
   62800    1259.9289   -110.23703    1.1400101   -109.09702   -5209.5455     4.384742     4.384742     4.384742   -5209.5455    8390.2729   -7710.3835   -16308.526    2932.8725    12029.508    3784.1487    84.300887 
   62900    1290.0797   -110.25774    1.1672912   -109.09045    9176.7688    4.3744767    4.3744767    4.3744767    9176.7688    5946.1355    22860.015   -1275.8436    4150.3004   -12036.132   -6661.7788    83.710188 
   63000    811.14403   -109.82796   0.73394017   -109.09402    12317.346    4.3636821    4.3636821    4.3636821    12317.346    10290.421    6062.1777     20599.44   -12936.664   -15533.312    7629.0811    83.092019 
   63100    1107.0443   -110.09676    1.0016769   -109.09509   -8782.1731    4.3834883    4.3834883    4.3834883   -8782.1731    -27990.78    137.13181     1507.129   -3276.0019    8391.9788   -2047.4955    84.228595 
   63200    1099.0804   -110.08821   0.99447104   -109.09374   -8016.4295    4.3854751    4.3854751    4.3854751   -8016.4295   -21429.928   -4533.7266    1914.3656   -4842.2966   -10172.229   -3658.9426    84.343176 
   63300     1086.069   -110.08155   0.98269808   -109.09885   -21.950697      4.36887      4.36887      4.36887   -21.950697    21681.446   -25334.345    3587.0467   -14404.884   -11215.807    5420.6927    83.388733 
   63400    1504.6213   -110.45273    1.3614129   -109.09131    20154.333     4.363936     4.363936     4.363936    20154.333    16531.375     18628.37    25303.254   -6461.2145   -1177.5399   -7760.6835    83.106522 
   63500    672.00994   -109.71274   0.60804871   -109.10469   -19184.227     4.386402     4.386402     4.386402   -19184.227   -28952.017   -14258.049   -14342.617     5117.042   -7284.6902    1262.3938    84.396665 
   63600    1169.2075   -110.15336    1.0579236   -109.09543   -16279.011    4.3770636    4.3770636    4.3770636   -16279.011    -33020.87   -25128.806    9312.6431   -14360.979   -2386.3849    5866.3287    83.858785 
   63700    1062.7116    -110.0547   0.96156376   -109.09313    8206.2915    4.3636329    4.3636329    4.3636329    8206.2915   -19005.203    24150.417     19473.66    4011.8912    6093.8609    -6388.966    83.089206 
   63800    909.79785   -109.92864   0.82320421   -109.10543   -27900.263    4.3807069    4.3807069    4.3807069   -27900.263   -16863.247   -30550.864   -36286.677   -2303.6979   -8421.6618    3604.0729    84.068363 
   63900    1729.4173   -110.65437    1.5648131   -109.08955    9164.5883    4.3695022    4.3695022    4.3695022    9164.5883    4423.7185   -7493.4764    30563.523    1675.5026    7137.8336    5003.5558    83.424939 
   64000     614.9741   -109.66317   0.55644149   -109.10673   -21120.361    4.3799725    4.3799725    4.3799725   -21120.361   -23603.305   -6624.3411   -33133.438    9496.9927    -1024.584    -6901.805    84.026088 
   64100    994.93202   -109.99891    0.9002354   -109.09867   -12382.058    4.3762728    4.3762728    4.3762728   -12382.058   -38653.063     -7907.93    9414.8181   -764.32297   -10080.916    6418.1181    83.813345 
   64200    1282.5301   -110.25296    1.1604602    -109.0925    9825.0125    4.3635155    4.3635155    4.3635155    9825.0125   -9279.3741    22944.503    15809.908    1896.8769    14914.844    204.23584    83.082501 
   64300    671.96582   -109.71848   0.60800879   -109.11047   -30212.698     4.384527     4.384527     4.384527   -30212.698   -43063.001   -2026.9354   -45548.157    12184.983   -5348.9575   -5213.6494    84.288486 
   64400    1822.5808   -110.73911    1.6491094   -109.09001    8007.7125    4.3731675    4.3731675    4.3731675    8007.7125     7626.106   -450.80187    16847.833    2879.3933   -6030.0138     10253.11    83.635055 
   64500    744.95994    -109.7775   0.67405541   -109.10344    2072.7479    4.3725687    4.3725687    4.3725687    2072.7479   -10814.264    21941.522   -4909.0148   -1378.8273    23544.772   -9663.2145      83.6007 
   64600    827.64119   -109.84994   0.74886714   -109.10107   -16463.167    4.3797439    4.3797439    4.3797439   -16463.167   -45677.774     12482.59   -16194.318   -349.79222   -14821.534    2987.8489    84.012936 
   64700    1432.9379   -110.38592    1.2965523   -109.08937   -3830.1531    4.3759602    4.3759602    4.3759602   -3830.1531   -18029.995   -9856.8989    16396.435   -2042.0312    2392.6388   -107.50261    83.795382 
   64800    677.52371   -109.71774   0.61303769   -109.10471    -10795.59     4.375706     4.375706     4.375706    -10795.59   -20370.266    13002.209   -25018.714    2075.0613    16439.736   -11080.616    83.780782 
   64900    1676.9254   -110.60842    1.5173173    -109.0911    5137.4637     4.372043     4.372043     4.372043    5137.4637   -1893.5128    16979.241    326.66283   -3936.9634   -19158.114    8448.5592    83.570552 
   65000    937.93511   -109.94874    0.8486634   -109.10008   -13444.039    4.3822601    4.3822601    4.3822601   -13444.039   -11634.256   -34511.475    5813.6141   -8329.6162    13220.322   -11055.222    84.157813 
   65100    861.03337   -109.87803   0.77908109   -109.09895   -10710.396    4.3701991    4.3701991    4.3701991   -10710.396   -34255.854    25469.041   -23344.376    489.98485     19370.81   -3854.5535    83.464859 
   65200    1273.6277   -110.24354    1.1524051   -109.09114   -1193.7708     4.375494     4.375494     4.375494   -1193.7708   -11024.879   -9889.9597    17333.526    424.60149   -7381.7534    5778.6374    83.768602 
   65300    737.71359    -109.7674   0.66749876   -109.09991   -29852.554     4.384092     4.384092     4.384092   -29852.554   -11966.003   -41905.924   -35685.736   -6961.3681    22822.718   -14236.213    84.263402 
   65400    1544.7107    -110.4851    1.3976867   -109.08741    4205.5805    4.3623637    4.3623637    4.3623637    4205.5805    6205.3638    19851.385   -13440.007   -9.0816544    19042.035      3205.73    83.016731 
   65500    1105.1018   -110.09748    0.9999193   -109.09756   -14673.554    4.3801239    4.3801239    4.3801239   -14673.554    6560.9714   -45698.764   -4882.8689   -81.517781   -7029.7905    -1644.709    84.034805 
   65600     685.4471      -109.72   0.62020694   -109.09979   -23143.906    4.3803555    4.3803555    4.3803555   -23143.906     -27452.4    -2831.411   -39147.906     2264.145    27837.434   -7298.6389    84.048134 
   65700    1400.8804   -110.35182     1.267546   -109.08427    11747.678    4.3648228    4.3648228    4.3648228    11747.678    16339.188    15398.645    3505.2021   -2580.1924     4654.103    1228.9459    83.157197 
   65800    769.35917    -109.7928   0.69613234   -109.09667   -23787.134    4.3843873    4.3843873    4.3843873   -23787.134    5792.0267   -43102.188    -34051.24   -2581.5816     826.2582   -4229.4807    84.280428 
   65900    1359.9267   -110.32249    1.2304903     -109.092   -12838.543    4.3723939    4.3723939    4.3723939   -12838.543   -9438.2971    11009.579   -40086.911   -3121.2458    27514.863   -2626.1545    83.590678 
   66000    1171.3023   -110.15664    1.0598189   -109.09682     -3630.38    4.3731173    4.3731173    4.3731173     -3630.38    33713.487   -30702.585   -13902.042    10704.147   -4527.4394    2566.5631    83.632175 
   66100    866.99109   -109.88697   0.78447176    -109.1025   -25841.718    4.3823713    4.3823713    4.3823713   -25841.718   -10522.296   -24474.342   -42528.517   -4976.1937    20050.783   -3002.1295    84.164221 
   66200    1288.7814   -110.25576    1.1661165   -109.08964    3683.9375    4.3726597    4.3726597    4.3726597    3683.9375   -2118.4231    25775.685   -12605.449    5512.5893    27403.387    -1665.325    83.605923 
   66300    746.43661   -109.77379   0.67539153    -109.0984   -22227.903    4.3787485    4.3787485    4.3787485   -22227.903   -4120.2211   -43115.036    -19448.45    507.41508   -12350.804     8814.729    83.955664 
   66400    1243.7597   -110.21897    1.1253799   -109.09359   -10299.724    4.3750101    4.3750101    4.3750101   -10299.724     2218.709   -6314.5994   -26803.283    1728.2184     24780.93   -6984.0286    83.740812 
   66500    1240.3677   -110.21601    1.1223107    -109.0937    7995.3846    4.3728156    4.3728156    4.3728156    7995.3846    14974.861    13505.802   -4494.5086   -6767.8689    4197.2668    8056.9306    83.614867 
   66600    779.61034   -109.81162   0.70540782   -109.10621   -27908.803    4.3843264    4.3843264    4.3843264   -27908.803   -338.19859   -39362.395   -44025.814   -3359.8394   -13734.097    1667.8597    84.276917 
   66700    1470.8632   -110.42083     1.330868   -109.08996    6688.1882    4.3749227    4.3749227    4.3749227    6688.1882    3897.9861    27895.937   -11729.359    2145.9099    17052.073   -5653.3262    83.735794 
   66800    740.22649   -109.77209   0.66977249   -109.10232   -11867.901    4.3689036    4.3689036    4.3689036   -11867.901   -8139.0875   -17422.144   -10042.471   -1632.8958   -13064.088    9640.0411    83.390654 
   66900    923.70461   -109.94518   0.83578734   -109.10939   -11577.232    4.3813359    4.3813359    4.3813359   -11577.232    31030.044   -23045.997   -42715.743   -1024.9078    -6010.648    -6643.458    84.104581 
   67000    1791.4355   -110.71294    1.6209285   -109.09201    4471.4139    4.3817539    4.3817539    4.3817539    4471.4139    7684.1089    6554.2931   -824.16027    8964.2506     3855.329    1483.6103    84.128657 
   67100    622.09702   -109.66924   0.56288646   -109.10636   -15146.094     4.374667     4.374667     4.374667   -15146.094    3790.3084   -24686.664   -24541.927    4654.6038   -12374.525    5457.8412    83.721114 
   67200    1133.5275   -110.12427    1.0256395   -109.09863     21663.46    4.3709411    4.3709411    4.3709411     21663.46    33466.078     26751.63    4772.6713    1934.6085    1379.1237   -1656.2382    83.507384 
   67300    1223.0718   -110.20861    1.1066611   -109.10195   -19899.012    4.3841474    4.3841474    4.3841474   -19899.012   -31798.741   -14210.721   -13687.576   -2378.7239    2957.2114    5659.2078    84.266593 
   67400    690.14737   -109.73214   0.62445985   -109.10768   -12354.195      4.38118      4.38118      4.38118   -12354.195    39274.742    -37427.72   -38909.606    6669.5562   -7811.4877     3173.942    84.095601 
   67500    1718.1112   -110.64186    1.5545831   -109.08727    19260.316    4.3624584    4.3624584    4.3624584    19260.316    36084.642    20844.257    852.05001     -7799.86    11730.403   -6319.3592    83.022134 
   67600    897.77178   -109.91505   0.81232277   -109.10273   -7199.0138    4.3798786    4.3798786    4.3798786   -7199.0138   -687.47253   -20805.697   -103.87191   -7280.5955   -1749.7313    3659.9382    84.020684 
   67700    1044.8305   -110.03838   0.94538458     -109.093   -8776.7844    4.3862978    4.3862978    4.3862978   -8776.7844    27904.479   -27515.446   -26719.386    10796.902   -4758.7823   -10249.802    84.390653 
   67800       1088.7   -110.07287   0.98507868    -109.0878    13803.669    4.3704611    4.3704611    4.3704611    13803.669   -14360.884    28548.701    27223.191    -12102.04    20976.516    111.34652    83.479873 
   67900    977.58017   -109.98007   0.88453508   -109.09554   -11541.562    4.3770313    4.3770313    4.3770313   -11541.562    24134.792   -33639.364   -25120.113    -1552.284   -13253.823   -738.95585     83.85693 
   68000    1449.7405   -110.39999    1.3117557   -109.08823    4435.4497    4.3775192    4.3775192    4.3775192    4435.4497    26956.795    1444.8273   -15095.273    4690.4106    12045.356   -5905.4042    83.884972 
   68100    1035.9162   -110.03279   0.93731877   -109.09547   -12960.781     4.381508     4.381508     4.381508   -12960.781   -26591.121    -14678.78    2387.5593   -3173.3458    21121.399    2611.0793    84.114493 
   68200    1009.4085   -110.00945   0.91333404   -109.09611   -12764.611    4.3787617    4.3787617    4.3787617   -12764.611    2652.1176   -29250.916   -11695.034   -3637.8427   -7889.3942   -611.21806    83.956423 
   68300    1137.4053   -110.12224    1.0291482   -109.09309    15423.466     4.364369     4.364369     4.364369    15423.466    7528.9044    18767.686    19973.809   -195.31598    23134.533     1539.075    83.131264 
   68400    790.60794    -109.8212   0.71535868   -109.10585   -12354.576    4.3827314    4.3827314    4.3827314   -12354.576   -5956.5717   -22114.047   -8993.1098   -3056.6196    9199.5529    -1652.094    84.184968 
   68500    1500.2032   -110.45054    1.3574154   -109.09313   -9456.2002    4.3820666    4.3820666    4.3820666   -9456.2002    16453.319   -29195.149    -15626.77   -5246.2837    3015.7961    2735.4934    84.146668 
   68600    1022.4323    -110.0207   0.92511826   -109.09559    9624.0249    4.3686338    4.3686338    4.3686338    9624.0249    60.618619      21000.3    7811.1563   -3113.2023    9375.9311    1784.6034    83.375205 
   68700    1034.7579   -110.03745   0.93627066   -109.10118   -20525.765    4.3746769    4.3746769    4.3746769   -20525.765   -29408.251    -29134.29   -3034.7543   -7184.8669    4807.4307     -1288.09    83.721681 
   68800     1150.116   -110.13582    1.0406491   -109.09517    5154.2535    4.3820394    4.3820394    4.3820394    5154.2535     17614.18    7885.9872   -10037.407    4929.8205   -2823.5782   -2777.3499    84.145103 
   68900    892.74942   -109.90474   0.80777843   -109.09696   -19790.667    4.3880108    4.3880108    4.3880108   -19790.667   -11499.189   -27078.903   -20793.908   -7315.4048     5566.866    4495.7846    84.489564 
   69000    1309.7994   -110.27702    1.1851341   -109.09189    10962.344    4.3659842    4.3659842    4.3659842    10962.344    29192.871   -5029.0789    8723.2385   -2659.8821    -4131.085   -3011.0668    83.223598 
   69100    1174.1222   -110.15816    1.0623704   -109.09579     23006.07    4.3653182    4.3653182    4.3653182     23006.07    31987.955    26009.896    11020.361    612.63428   -19254.548    101.26529    83.185515 
   69200     966.8457   -109.97217    0.8748223   -109.09735   -29579.688    4.3945459    4.3945459    4.3945459   -29579.688   -58034.591   -35671.972    4967.4997   -11173.396     10405.56   -887.03924     84.86762 
   69300    1136.5467    -110.1168    1.0283714   -109.08843    6696.7684    4.3749864    4.3749864    4.3749864    6696.7684    12937.356    7903.9655    -751.0163   -5952.4003   -17207.826    -7363.617    83.739456 
   69400    955.80067   -109.95308   0.86482853   -109.08825    10197.564     4.364301     4.364301     4.364301    10197.564    8934.1531    4380.4649    17278.074    5281.6006   -10088.102    6007.6495    83.127379 
   69500    1267.5035   -110.23848    1.1468638   -109.09162   -12592.968    4.3841978    4.3841978    4.3841978   -12592.968    4017.7253   -38940.132   -2856.4981   -11454.622    14542.646   -8724.8774    84.269499 
   69600    1134.7562    -110.1191    1.0267513   -109.09234    8323.2982    4.3792984    4.3792984    4.3792984    8323.2982    30377.649    3050.1915   -8457.9453    3220.9877   -26312.515   -3138.1671    83.987299 
   69700    1037.5366   -110.03613   0.93878488   -109.09734   -9367.5488    4.3748837    4.3748837    4.3748837   -9367.5488   -38733.855   -1933.7845    12564.993    10086.347   -4015.7745    2809.7198    83.733558 
   69800    1199.3586   -110.17813    1.0852049   -109.09292    6798.0261    4.3762021    4.3762021    4.3762021    6798.0261    13753.993   -9333.1917    15973.277   -7072.0903   -299.73791   -11233.797    83.809283 
   69900    920.56207   -109.93207   0.83294391   -109.09913   -473.67156    4.3786595    4.3786595    4.3786595   -473.67156   -4742.2692    16185.786   -12864.531    2870.2019   -33363.924    6655.0231    83.950548 
   70000    1119.1844   -110.11162    1.0126616   -109.09896    6939.4458     4.378031     4.378031     4.378031    6939.4458    30591.268   -30767.084    20994.153   -485.98646    13059.228   -3760.2999    83.914401 
   70100    1369.0495   -110.33428    1.2387448   -109.09554    5022.6575    4.3740493    4.3740493    4.3740493    5022.6575    11736.635   -1514.0513    4845.3891   -1652.0365   -19920.463   -3455.5367    83.685653 
   70200     794.7877   -109.82561   0.71914061   -109.10647   -2957.0145    4.3774438    4.3774438    4.3774438   -2957.0145   -24592.161    3829.5649    11891.553   -599.20298   -26049.081    711.59594    83.880643 
   70300    1464.9566   -110.42211    1.3255235   -109.09658   -9411.4466    4.3836849    4.3836849    4.3836849   -9411.4466    -7571.252   -23853.947    3190.8592    3255.9328    11234.684   -8059.5263    84.239931 
   70400    783.79387   -109.81106   0.70919317   -109.10187    4767.9567    4.3751123    4.3751123    4.3751123    4767.9567   -8398.9283    17647.495    5055.3031   -182.10984   -43951.721    1689.7722    83.746685 
   70500    1190.2075   -110.17385    1.0769247   -109.09693    7332.0181    4.3717747    4.3717747    4.3717747    7332.0181    12102.724    -12551.82    22445.151    1092.5758   -1503.7129    -3075.757    83.555167 
   70600    1336.4008   -110.30259    1.2092036   -109.09339   -3463.8864    4.3815281    4.3815281    4.3815281   -3463.8864   -13624.806   -4180.8003    7413.9469    4581.2714   -12498.463   -1310.8148    84.115651 
   70700    758.31427   -109.78557   0.68613869   -109.09943    5900.4661    4.3726173    4.3726173    4.3726173    5900.4661    -27660.48    26784.228     18577.65   -5562.5803   -46641.264      13.8839    83.603489 
   70800    1331.2354   -110.29933    1.2045298    -109.0948   -6433.4231    4.3811821    4.3811821    4.3811821   -6433.4231   -262.87095   -10713.524   -8323.8738    307.91846    21268.331     1316.969    84.095723 
   70900    797.48173   -109.82254   0.72157823   -109.10096    3350.9407    4.3748414    4.3748414    4.3748414    3350.9407   -6159.2072    21685.076   -5473.0469    6267.4082   -41016.059    5216.6484    83.731129 
   71000    1261.2294   -110.23955    1.1411868   -109.09836    5989.7426    4.3747086    4.3747086    4.3747086    5989.7426    15210.744   -5972.3669    8730.8507   -6830.6955   -16333.531   -8535.8918    83.723504 
   71100    1320.4638   -110.28704    1.1947834   -109.09226   -11505.372    4.3831277    4.3831277    4.3831277   -11505.372   -10379.712   -18707.176   -5429.2281    10000.186    10425.177    2466.8694    84.207812 
   71200    678.60582   -109.71402    0.6140168       -109.1    12043.376    4.3656666    4.3656666    4.3656666    12043.376    7676.6255    22276.656    6176.8468   -3518.6561   -62808.606    1573.3792    83.205434 
   71300    1568.4947    -110.5159    1.4192069   -109.09669    1590.0836    4.3822137    4.3822137    4.3822137    1590.0836     21399.08   -453.48484   -16175.345   -6968.4869    16314.441   -5238.6032    84.155144 
   71400    699.22233   -109.73969   0.63267106   -109.10701    9381.6422    4.3787837    4.3787837    4.3787837    9381.6422     47841.13    17816.739   -37512.942    5415.4192   -38455.848    3298.9096    83.957689 
   71500    1266.3949   -110.24894    1.1458607   -109.10308    500.12205    4.3773572    4.3773572    4.3773572    500.12205   -6566.8081    13862.477   -5795.3027   -3671.1969   -18714.839   -8633.2424    83.875663 
   71600    1368.1253   -110.32997    1.2379085   -109.09207    14936.076    4.3786423    4.3786423    4.3786423    14936.076    36974.115    2474.9004     5359.213   -1360.8016    8564.4475    2426.1169    83.949558 
   71700    743.03867   -109.77476     0.672317   -109.10245   -4200.1994    4.3725717    4.3725717    4.3725717   -4200.1994   -22579.769    10885.574   -906.40371    2980.1017   -59056.395    444.89085    83.600877 
   71800    1304.7438   -110.27198    1.1805596   -109.09142   -6695.3956    4.3875294    4.3875294    4.3875294   -6695.3956   -759.02166   -16150.813   -3176.3523   -3089.1724     17467.39   -170.43229    84.461756 
   71900    1030.3543   -110.02674   0.93228623   -109.09445   -10000.702    4.3755609    4.3755609    4.3755609   -10000.702   -13869.117    12045.517   -28178.505   -478.81473   -43906.424    7402.6125    83.772446 
   72000    1075.7991   -110.06999   0.97340561   -109.09658    3734.7546    4.3725777    4.3725777    4.3725777    3734.7546    -11030.33    8278.4634    13956.131   -1705.3951   -25554.071   -192.03612     83.60122 
   72100    1368.1314   -110.32914    1.2379141   -109.09123   -8483.9381    4.3817914    4.3817914    4.3817914   -8483.9381   -1688.2167   -35668.048     11904.45    7018.2964     16718.77    6372.6806    84.130814 
   72200    654.85831   -109.69278   0.59252956   -109.10025   -7823.8258     4.377742     4.377742     4.377742   -7823.8258   -32028.666    6595.3219    1961.8666   -4415.0608   -44156.355    1911.8822    83.897782 
   72300    1310.0331    -110.2767    1.1853455   -109.09136    4960.6366    4.3814697    4.3814697    4.3814697    4960.6366    12720.097    4819.3021   -2657.4896    3684.1712    7523.7884    794.65414    84.112288 
   72400     1270.323    -110.2456     1.149415   -109.09619   -5988.9098    4.3747766    4.3747766    4.3747766   -5988.9098   -11448.618   -3782.3224   -2735.7893    3455.6127   -11675.495    2628.7882    83.727407 
   72500     967.6888   -109.97787   0.87558517   -109.10229     11372.35     4.376012     4.376012     4.376012     11372.35    11559.075     23417.28   -859.30484   -11684.704   -37778.447    2705.6635    83.798361 
   72600    1443.0621   -110.39778    1.3057129   -109.09207    -1088.631    4.3807335    4.3807335    4.3807335    -1088.631    4620.4563   -15802.284    7915.9348    8289.4151    15176.338    6480.3054    84.069894 
   72700    531.14535   -109.58249   0.48059148   -109.10189    2495.5784    4.3749973    4.3749973    4.3749973    2495.5784    8231.0725   -14053.076    13308.739   -1734.6806   -33651.262   -4394.7787     83.74008 
   72800    1381.4356     -110.344     1.249952   -109.09405    1830.1072    4.3784149    4.3784149    4.3784149    1830.1072    19605.632   -9258.9383   -4856.3726    -4889.055   -15017.594    4505.2877    83.936478 
   72900     1191.084   -110.17569    1.0777178   -109.09798    10936.481    4.3764145    4.3764145    4.3764145    10936.481    25026.609    1462.0902     6320.745    9088.1211    12398.603    5597.6136    83.821484 
   73000    1045.6454   -110.04738   0.94612191   -109.10126      6576.06    4.3769074    4.3769074    4.3769074      6576.06    11613.175    10527.905   -2412.8991   -5185.7339   -33472.262   -2646.9855     83.84981 
   73100    1475.4113   -110.42556    1.3349831   -109.09058    2732.3682    4.3822467    4.3822467    4.3822467    2732.3682    26283.293   -23170.715    5084.5266    6514.5243     16798.53    6711.6951    84.157042 
   73200     506.7209    -109.5611   0.45849172   -109.10261    6684.2941    4.3763317    4.3763317    4.3763317    6684.2941    6997.1451    14501.833   -1446.0957    2294.0779   -5975.3124   -2510.3087    83.816729 
   73300    1295.4987   -110.26803    1.1721945   -109.09584    7951.2957    4.3755493    4.3755493    4.3755493    7951.2957    1721.1267     1463.161    20669.599     -1788.84   -24443.249    7920.3135    83.771781 
   73400    1195.6795   -110.17872    1.0818759   -109.09684    12427.882    4.3782399    4.3782399    4.3782399    12427.882    21178.799   -3829.0928     19933.94     5477.147    16006.389     1368.493    83.926411 
   73500    1017.5993   -110.02448   0.92074526   -109.10374    1896.7455    4.3787662    4.3787662    4.3787662    1896.7455   -14992.303    9512.5302    11170.009   -6807.1291   -15609.767   -1690.5069    83.956682 
   73600    1395.9956    -110.3534    1.2631261   -109.09028     7010.367     4.384689     4.384689     4.384689     7010.367     14909.54   -21132.204    27253.765     1279.847   -2603.4204    10986.044    84.297829 
   73700    742.86974   -109.76942   0.67216415   -109.09726   -20716.267    4.3801021    4.3801021    4.3801021   -20716.267   -29404.675   -32530.018   -214.10858    6416.7548    14227.541    1096.6709    84.033549 
   73800    1104.3886    -110.0932   0.99927398   -109.09392    13252.111    4.3723166    4.3723166    4.3723166    13252.111    3665.9599    13357.643    22732.731   -7704.8259   -9378.7871    3084.6614    83.586242 
   73900    1258.3346   -110.23026    1.1385676   -109.09169    768.64218    4.3844471    4.3844471    4.3844471    768.64218   -1191.2411   -5184.7804    8681.9481    9435.3856    3823.5128    536.33487    84.283877 
   74000    936.12873   -109.94445   0.84702895   -109.09742    3353.0477    4.3798534    4.3798534    4.3798534    3353.0477   -30034.738   -371.44555    40465.327   -123.16883    9529.9355   -4949.2664    84.019237 
   74100    1360.0321   -110.31974    1.2305856   -109.08916    26092.972    4.3723496    4.3723496    4.3723496    26092.972    22182.911    36343.842    19752.161   -5189.3473   -6228.3136   -5138.9071    83.588136 
   74200    763.94559   -109.79108   0.69123403   -109.09984   -2449.1303    4.3783878    4.3783878    4.3783878   -2449.1303   -12862.716   -35956.232    41471.557    2908.8657    3788.7221   -10936.199    83.934921 
   74300    926.19468   -109.93553   0.83804041   -109.09749   -11779.849    4.3852718    4.3852718    4.3852718   -11779.849   -10705.065   -16305.435   -8329.0473   -3311.2716      14591.4    3432.4205    84.331449 
   74400    1523.1956   -110.46649    1.3782194   -109.08827   -14768.093    4.3800865    4.3800865    4.3800865   -14768.093    -7805.295   -24653.653   -11845.332    2148.9113   -4801.1746   -10245.801    84.032651 
   74500    920.70729   -109.93231    0.8330753   -109.09924    2212.9002    4.3721536    4.3721536    4.3721536    2212.9002   -19073.248    6006.5327    19705.416   -209.58412    13124.121   -1878.5781    83.576897 
   74600    1544.8031   -110.49172    1.3977703   -109.09395   -5174.9816    4.3764402    4.3764402    4.3764402   -5174.9816   -8733.2012    3494.8709   -10286.614    6161.2886    21964.404     -3474.84    83.822962 
   74700     824.8387   -109.84446   0.74633139   -109.09813   -617.43434    4.3868214    4.3868214    4.3868214   -617.43434   -8132.8789   -9845.8545     16126.43    9514.1155   -9844.2388   -6039.9555    84.420876 
   74800    760.97881   -109.78474   0.68854962    -109.0962   -3960.7054    4.3764878    4.3764878    4.3764878   -3960.7054   -19288.672   -308.40607    7714.9624   -2078.6403    19053.864   -817.80081    83.825693 
   74900     1209.688   -110.18423    1.0945511   -109.08968     10195.59    4.3736484    4.3736484    4.3736484     10195.59    27252.603    3242.9002    91.266174    2306.6659     9549.737   -1295.5083    83.662646 
   75000    1125.7412   -110.11756    1.0185943   -109.09897   -5948.6832     4.378826     4.378826     4.378826   -5948.6832   -22855.128   -17795.969    22805.047    3940.1563   -10300.722   -2026.6755    83.960123 
   75100    1215.1489   -110.19458    1.0994922   -109.09509    1324.5758     4.379746     4.379746     4.379746    1324.5758   -3743.2834    6699.1201    1017.8906   -8579.1333    20555.983   -3188.2824    84.013052 
   75200    1082.7052   -110.07328   0.97965442   -109.09362   -13056.808    4.3839942    4.3839942    4.3839942   -13056.808    5245.6736   -45157.084    740.98575     7724.899   -4598.8692    8817.6162    84.257759 
   75300    838.08568   -109.85137   0.75831754   -109.09305    2190.5423    4.3738268    4.3738268    4.3738268    2190.5423    493.14778   -9130.7562    15209.235    5825.6451    1522.1446   -3303.5984    83.672885 
   75400    1426.6577   -110.37972    1.2908699   -109.08885    5555.7328    4.3782117    4.3782117    4.3782117    5555.7328    31704.169    10669.499   -25706.469   -6460.9999     14288.47    11669.707    83.924794 
   75500    1057.7416   -110.05226   0.95706683    -109.0952   -21918.854    4.3903536    4.3903536    4.3903536   -21918.854   -15565.872   -24119.999   -26070.692   -292.90243   -12562.701    7751.1849    84.624962 
   75600    1318.7352   -110.28098    1.1932194   -109.08776     7765.162    4.3742176    4.3742176    4.3742176     7765.162    5898.4772    13960.312    3436.6966   -3516.1221   -2420.6125   -1524.1979    83.695315 
   75700    1304.2213   -110.26785    1.1800869   -109.08776   -1513.4367    4.3765209    4.3765209    4.3765209   -1513.4367    23238.197   -13054.786   -14723.722    3001.2406   -2076.3336    15320.309    83.827598 
   75800    765.55316   -109.79124   0.69268859   -109.09855   -20620.854    4.3847723    4.3847723    4.3847723   -20620.854   -24017.713   -17887.017   -19957.833    5924.4838   -23094.822   -4449.8962    84.302635 
   75900    1334.0202   -110.29833    1.2070495   -109.09128    11981.061    4.3797781    4.3797781    4.3797781    11981.061    46805.555    7589.7116   -18452.083    8618.4333    4707.9875    5329.0534    84.014903 
   76000    1018.2118   -110.02111   0.92129946   -109.09981   -3838.4607    4.3767274    4.3767274    4.3767274   -3838.4607    13928.315    1052.7599   -26496.457    755.89436   -908.88538    8831.5137    83.839465 
   76100    997.65611   -110.00273   0.90270022   -109.10003     11923.38    4.3693816    4.3693816    4.3693816     11923.38    3476.8749    12079.094     20214.17    2271.7227   -14986.996   -1692.9097     83.41803 
   76200    1164.3287   -110.15204    1.0535091   -109.09853    3405.0615    4.3840742    4.3840742    4.3840742    3405.0615    16377.162    2176.6847   -8338.6624   -760.83146    11336.174    13853.613    84.262373 
   76300    935.53364   -109.94519    0.8464905    -109.0987   -21554.305    4.3876932    4.3876932    4.3876932   -21554.305   -13177.949   -31982.148   -19502.819   -2516.1679   -1044.2211    7584.3343    84.471217 
   76400    1269.1674   -110.23647    1.1483694    -109.0881    14277.006    4.3689025    4.3689025    4.3689025    14277.006    16617.083    15892.824    10321.111    8323.1892   -11738.427    -738.7852    83.390594 
   76500    972.56268   -109.97781   0.87999515   -109.09782   -11828.152    4.3811661    4.3811661    4.3811661   -11828.152    8451.1823   -5654.0066   -38281.633    4564.5268    10566.507    21113.128    84.094805 
   76600    1189.6821   -110.16951    1.0764493   -109.09306   -16886.032    4.3822653    4.3822653    4.3822653   -16886.032   -10704.629    -23342.28   -16611.188    15076.129    -6728.347   -10812.432    84.158114 
   76700    1249.6989    -110.2193    1.1307538   -109.08855    9835.8888    4.3764142    4.3764142    4.3764142    9835.8888    15155.828    14716.075   -364.23687    5175.1463    4233.7862    3305.3778    83.821466 
   76800    729.40601    -109.7579   0.65998188   -109.09792   -15673.875    4.3855105    4.3855105    4.3855105   -15673.875    24155.959   -21001.768   -50175.815    2548.0308    11442.318    16113.266    84.345221 
   76900    1306.9908    -110.2733    1.1825927   -109.09071    3635.8893    4.3769128    4.3769128    4.3769128    3635.8893    12072.016    2887.8895   -4052.2373    11132.812    5609.5746   -19904.298    83.850121 
   77000    1104.5026   -110.09481   0.99937718   -109.09543     12042.87    4.3744707    4.3744707    4.3744707     12042.87     23291.07    6252.7627    6584.7757   -7110.8932     12072.47    33342.865    83.709845 
   77100    909.68779   -109.92236   0.82310463   -109.09925   -52.386502    4.3817344    4.3817344    4.3817344   -52.386502    7430.7964   -5473.0264   -2114.9295   -804.02941    14366.292    7360.2235    84.127532 
   77200     1186.585   -110.16375     1.073647    -109.0901    6510.9631    4.3844626    4.3844626    4.3844626    6510.9631   -4341.2835   -14878.602    38752.775    5027.6437   -1789.9789    1618.9993    84.284769 
   77300    857.80023   -109.86991   0.77615567   -109.09375   -351.29622    4.3787499    4.3787499    4.3787499   -351.29622    21667.639    8877.7491   -31599.277   -2718.8419     7320.316    31448.287    83.955746 
   77400    1177.0548    -110.1546    1.0650239   -109.08958    3478.5337    4.3723692    4.3723692    4.3723692    3478.5337   -1658.3907    20822.258   -8728.2665     1454.138    12513.686   -8281.1308    83.589258 
   77500    1194.1914   -110.17618    1.0805295   -109.09565    8797.0504    4.3799214    4.3799214    4.3799214    8797.0504    2849.1787    24423.089   -881.11638    3810.7542   -12156.464    11499.674    84.023146 
   77600    1129.0028   -110.12075    1.0215454   -109.09921    -4929.724    4.3812663    4.3812663    4.3812663    -4929.724   -5380.5858   -6408.1523   -3000.4337    1939.2066    6246.2955    14537.924    84.100572 
   77700    1107.1791   -110.09868    1.0017989   -109.09689     7992.756    4.3748885    4.3748885    4.3748885     7992.756    -13902.98    1640.1806    36241.067    4417.8888    5622.0204   -15784.164    83.733831 
   77800    1102.0949    -110.0974    0.9971986    -109.1002   -5602.1898    4.3757032    4.3757032    4.3757032   -5602.1898    4794.7909   -11411.852   -10189.509    9946.7614   -9990.1603    27770.233    83.780619 
   77900    1031.8195   -110.03278   0.93361196   -109.09917     2108.497    4.3851845    4.3851845    4.3851845     2108.497   -6258.7928    34952.656   -22368.373   -683.20409     19043.87    7293.9446    84.326409 
   78000    1336.7695   -110.30572    1.2095371   -109.09618   -8543.1874    4.3814689    4.3814689    4.3814689   -8543.1874   -24037.142    7437.9226   -9030.3425     13928.97    1778.4426    -10563.87    84.112242 
   78100    1039.4985   -110.03616   0.94056008    -109.0956    28503.488    4.3638999    4.3638999    4.3638999    28503.488    16259.275    29973.633    39277.557    1803.3669   -7515.0812    34082.593    83.104459 
   78200    1180.4785    -110.1678    1.0681218   -109.09968   -2079.5822    4.3841623    4.3841623    4.3841623   -2079.5822   -25338.768    7805.6249    11294.396   -4581.1898    19339.205   -12893.023    84.267456 
   78300    1060.4147   -110.05479   0.95948553    -109.0953   -13909.096    4.3853588    4.3853588    4.3853588   -13909.096   -26975.198   -15707.274    955.18288    15083.989   -12233.423    8441.0011    84.336466 
   78400    1117.6279   -110.10402    1.0112532   -109.09277     9276.461    4.3668983    4.3668983    4.3668983     9276.461    11060.565    21661.377   -4892.5598   -4921.8108   -1341.2703    19804.151    83.275881 
   78500     1237.521   -110.21868     1.119735   -109.09894   -1292.0002    4.3803675    4.3803675    4.3803675   -1292.0002   -27506.259    29784.301   -6154.0425    4419.3478    21375.428   -11548.722    84.048826 
   78600    1179.4909   -110.16907    1.0672281   -109.10184   -5047.0352    4.3814175    4.3814175    4.3814175   -5047.0352   -12084.307   -9691.4985    6634.6995    10730.194   -15464.635    14219.383     84.10928 
   78700    889.69315   -109.90815   0.80501306   -109.10314    15334.891    4.3796782    4.3796782    4.3796782    15334.891    1694.4251    41041.688    3268.5599    -2599.747    9942.1981    5908.3144    84.009154 
   78800    1300.4413   -110.27058    1.1766667   -109.09391    3827.5633    4.3785567    4.3785567    4.3785567    3827.5633    3306.3963   -2320.8499    10497.144    7581.4796     12008.52   -1020.6472    83.944632 
   78900    852.36039   -109.87275    0.7712336   -109.10152    5060.0208    4.3719027    4.3719027    4.3719027    5060.0208    8978.0859    18203.143   -12001.167    8166.4741   -17323.166    21554.887    83.562507 
   79000    1216.9245   -110.20392    1.1010988   -109.10282   -8384.8326    4.3837738    4.3837738    4.3837738   -8384.8326    -8397.328    22065.615   -38822.785   -2458.0858    7744.2566    11662.682    84.245051 
   79100    1310.4934   -110.28282    1.1857619   -109.09706   -7999.2368    4.3854948    4.3854948    4.3854948   -7999.2368   -7427.8062   -16863.947     294.0429    11980.733    239.33201   -112.89932    84.344309 
   79200    852.29526   -109.86433   0.77117466   -109.09316    1865.6651      4.38564      4.38564      4.38564    1865.6651    15247.725    8406.8493   -18057.579    1158.2691    -18626.51    20787.209    84.352693 
   79300    1472.6275   -110.41329    1.3324643   -109.08082    -8188.926    4.3860368    4.3860368    4.3860368    -8188.926    -14403.12    3997.5421     -14161.2   -7987.8566    8091.0338   -2022.4869    84.375587 
   79400    1004.9363   -109.99847   0.90928748   -109.08918    6317.3291    4.3724999    4.3724999    4.3724999    6317.3291    7155.7362    7313.5312    4482.7198    16468.893   -9712.7612    2391.4121    83.596754 
   79500    1160.5159   -110.15093    1.0500591   -109.10087   -8442.0101    4.3904965    4.3904965    4.3904965   -8442.0101   -15284.803    17076.837   -27118.064   -13523.474   -11247.286    11278.303     84.63323 
   79600    1459.8825    -110.4066    1.3209323   -109.08567   -10101.485    4.3937105    4.3937105    4.3937105   -10101.485    -15076.63    -28940.41    13712.587    6822.5792     7061.802    -13034.28    84.819226 
   79700     638.3373   -109.66437     0.577581   -109.08679    14236.765    4.3701882    4.3701882    4.3701882    14236.765    25277.365    19728.962   -2296.0309    16259.297   -14145.947    8650.5304    83.464237 
   79800    1191.3018   -110.16861    1.0779149    -109.0907    730.39998    4.3811078    4.3811078    4.3811078    730.39998     23540.96   -2900.3852   -18449.375   -1249.8844   -5030.3003    7311.7017    84.091444 
   79900    1107.3278   -110.09603    1.0019335    -109.0941    7594.5678    4.3805908    4.3805908    4.3805908    7594.5678    31128.604    4231.7609   -12576.662     27612.39    10304.226   -5106.3686    84.061681 
   80000    990.86368   -109.99949   0.89655428   -109.10294   -15751.661    4.3821478    4.3821478    4.3821478   -15751.661   -5615.0363    8783.0411   -50422.987    15373.774   -19813.442    16270.357    84.151344 
   80100    1271.8135   -110.24564    1.1507636   -109.09488      2881.51    4.3767523    4.3767523    4.3767523      2881.51    25176.547   -1485.4447   -15046.572    169.72946   -11161.373      318.903    83.840894 
   80200    1123.9762   -110.11611    1.0169973   -109.09911   -9040.6685    4.3716898    4.3716898    4.3716898   -9040.6685    689.60781   -25168.773   -2642.8398    15598.899    6641.5601    4195.1127    83.550298 
   80300    869.04374   -109.89066   0.78632904   -109.10433   -22923.558    4.3885239    4.3885239    4.3885239   -22923.558    7589.9903   -22873.146   -53487.519    2056.7133   -21424.595    16528.608    84.519204 
   80400     1334.609    -110.3027    1.2075823   -109.09512    12684.898    4.3701253    4.3701253    4.3701253    12684.898    10491.685    12208.522    15354.487   -7216.0874    9493.6569   -6165.3766    83.460634 
   80500    887.49704   -109.90778   0.80302597   -109.10476    1689.2576    4.3766288    4.3766288    4.3766288    1689.2576    31747.649   -21880.987   -4798.8894    14832.154     5870.854    12164.872    83.833798 
   80600    1322.1916   -110.28768    1.1963468   -109.09133   -14556.931    4.3928241    4.3928241    4.3928241   -14556.931   -2372.5693   -30118.109   -11180.115   -3149.1119   -3705.8739    8370.1605    84.767901 
   80700    836.25613   -109.85396   0.75666212   -109.09729    2285.9617    4.3761142    4.3761142    4.3761142    2285.9617    28182.891   -21869.652    544.64651    11383.683    12145.228    -6550.036    83.804229 
   80800    899.28374   -109.91514   0.81369082   -109.10144    -697.0875    4.3713414    4.3713414    4.3713414    -697.0875    35368.975   -24772.018    -12688.22    9353.7551    -9693.051    16923.119    83.530327 
   80900    1623.1052   -110.56325    1.4686197   -109.09463    19841.749    4.3753196    4.3753196    4.3753196    19841.749    45830.717    12865.096    829.43483    4203.5112   -5349.5271   -4945.5976    83.758586 
   81000     811.0751   -109.84952    0.7338778   -109.11565   -19231.774    4.3843891    4.3843891    4.3843891   -19231.774    2297.0441   -31221.257   -28771.108    3221.6018    12176.753    9352.9195     84.28053 
   81100     1004.712   -110.02059    0.9090845    -109.1115    796.45838    4.3779272    4.3779272    4.3779272    796.45838    46681.081   -36073.272   -8218.4339    6398.0562    5040.8422    16366.433     83.90843 
   81200    1401.3322   -110.36989    1.2679548   -109.10193    7556.3411    4.3682315    4.3682315    4.3682315    7556.3411    32360.154   -17185.589    7494.4583   -6451.1817    8883.5034   -12749.371    83.352178 
   81300    591.09276   -109.65208   0.53483315   -109.11725   -15701.348    4.3836431    4.3836431    4.3836431   -15701.348    35333.463   -35814.852   -46622.656    13049.677    11903.215    26549.643    84.237521 
   81400    1503.8547   -110.46054    1.3607194   -109.09982   -4561.3162    4.3832577    4.3832577    4.3832577   -4561.3162    13342.416   -5019.8682   -22006.496    5261.7728    1955.9841    2338.4389    84.215304 
   81500    1207.2582   -110.19113    1.0923526   -109.09878    10597.494    4.3697124    4.3697124    4.3697124    10597.494    53307.997   -24745.129     3229.615    7262.1612   -3807.0058   -6259.5412    83.436977 
   81600    740.50951   -109.78198   0.67002856   -109.11195   -21854.349    4.3803657    4.3803657    4.3803657   -21854.349    6334.5297   -49042.076   -22855.501    12909.764    12771.836    27820.217    84.048723 
   81700    1195.7254   -110.18551    1.0819175   -109.10359    9527.0098    4.3765916    4.3765916    4.3765916    9527.0098    39918.082   -12661.035    1323.9827    2058.2466   -11119.177   -16556.767    83.831657 
   81800     1303.832   -110.28526    1.1797346   -109.10553   -3443.8201    4.3778729    4.3778729    4.3778729   -3443.8201    36212.288   -26729.616   -19814.133    1829.2901    1266.1667    9000.4461    83.905307 
   81900    1154.9471   -110.15239    1.0450204   -109.10737   -12445.906    4.3792706    4.3792706    4.3792706   -12445.906    3251.2555   -24550.671   -16038.303    18318.987    4867.5307    15259.696      83.9857 
   82000    1010.1643    -110.0172   0.91401789   -109.10318    17988.228    4.3749235    4.3749235    4.3749235    17988.228    77264.541   -12746.623   -10553.235   -1109.6794   -17609.372   -15589.423    83.735839 
   82100    987.21712   -109.99989    0.8932548   -109.10664   -24894.476    4.3819936    4.3819936    4.3819936   -24894.476    20429.894   -65788.644   -29324.679    9359.3994     4740.565    22995.741    84.142461 
   82200    922.84992   -109.94023     0.835014   -109.10522    20066.095    4.3696922    4.3696922    4.3696922    20066.095    62658.132   -5173.7071    2713.8615     13962.68   -4047.3495    3357.4954    83.435823 
   82300    1458.1898   -110.42763    1.3194008   -109.10823   -9111.0686    4.3796756    4.3796756    4.3796756   -9111.0686    317.35536   -216.12765   -27434.434   -2448.3407   -5263.1187    2290.2983    84.009002 
   82400    962.09742   -109.98297   0.87052597   -109.11245   -14177.604    4.3822428    4.3822428    4.3822428   -14177.604    14758.017   -27405.501   -29885.329    11908.082   -4673.8236    31177.181    84.156821 
   82500     1180.098   -110.17063    1.0677775   -109.10286    23514.442    4.3715139    4.3715139    4.3715139    23514.442    24471.559    16447.029    29624.738    5818.9508   -801.29834   -10683.351    83.540216 
   82600    1033.0578   -110.04006   0.93473242   -109.10532   -21022.769    4.3855703    4.3855703    4.3855703   -21022.769    7064.6871   -31330.752   -38802.242    1742.0755   -7322.1287    17242.498     84.34867 
   82700    808.32854   -109.84087   0.73139265   -109.10948   -569.42354    4.3716853    4.3716853    4.3716853   -569.42354    1740.3711   -6858.3518    3409.7102    19526.395    775.26314    24276.301     83.55004 
   82800    1527.7558   -110.48607    1.3823456   -109.10372    13296.122     4.373352     4.373352     4.373352    13296.122    24484.876    12108.791    3294.7002    6907.0102   -6637.3462   -16089.117    83.645638 
   82900    1067.1737   -110.07441   0.96560116    -109.1088    -15474.06    4.3876211    4.3876211    4.3876211    -15474.06     5526.318   -16818.631   -35129.866   -368.45578   -6705.5079    22788.244    84.467057 
   83000    810.38782   -109.84064   0.73325593   -109.10739     10608.63    4.3721715    4.3721715    4.3721715     10608.63    29647.934   -19483.616    21661.572    27239.807   -3091.3355    9750.7129    83.577923 
   83100    1387.1679   -110.35778    1.2551387   -109.10265    2478.5569    4.3794184    4.3794184    4.3794184    2478.5569    28983.508    -8670.621   -12877.216   -15194.029   -3657.7859   -13187.032    83.994203 
   83200    1100.8163   -110.10436    0.9960417   -109.10832   -13416.365    4.3814756    4.3814756    4.3814756   -13416.365    269.84643   -12006.965   -28511.977    10770.557    -17412.02    20931.276    84.112627 
   83300    1012.5091   -110.02509   0.91613952   -109.10895    7119.9026    4.3719916    4.3719916    4.3719916    7119.9026    20676.268   -12518.422    13201.861    22224.175    7292.7833   -2508.0015    83.567605 
   83400    1241.2043   -110.22579    1.1230677   -109.10272   -18789.875    4.3851836    4.3851836    4.3851836   -18789.875    7501.6296   -26685.321   -37185.932   -13509.261   -9337.1524   -6890.3436    84.326356 
   83500    867.11329   -109.88954   0.78458232   -109.10496   -1955.8717    4.3736668    4.3736668    4.3736668   -1955.8717    27318.919   -33811.231    624.69663    25588.837   -10368.959    13649.139    83.663701 
   83600    1240.2679   -110.22914    1.1222205   -109.10692   -1703.5584    4.3740537    4.3740537    4.3740537   -1703.5584    18968.355   -24730.385     651.3544    13096.572    7423.4604   -9623.7783     83.68591 
   83700    1318.3299   -110.29477    1.1928526   -109.10191   -7147.8755    4.3880192    4.3880192    4.3880192   -7147.8755    19760.912   -9003.0977   -32201.441   -10638.516   -6024.6295   -6436.2887    84.490046 
   83800    965.49284   -109.97949   0.87359821   -109.10589   -9456.0644    4.3763395    4.3763395    4.3763395   -9456.0644   -14779.266   -22869.429    9280.5024    29637.854   -19056.377     7162.993    83.817175 
   83900    1015.3601   -110.02211   0.91871915   -109.10339    15782.901    4.3715101    4.3715101    4.3715101    15782.901     46252.19   -2335.3182    3431.8321    2321.2023     4225.332   -14155.757    83.539996 
   84000    1172.0303   -110.16335    1.0604776   -109.10287   -11652.346    4.3843624    4.3843624    4.3843624   -11652.346    7751.4509    -33442.05   -9266.4392    -2214.202   -4069.7571   -4485.6545     84.27899 
   84100     748.5822   -109.78637    0.6773329   -109.10903    5.8505228    4.3824441    4.3824441    4.3824441    5.8505228    17724.606   -25099.908    7392.8532    36332.948   -13513.214     2605.337    84.168419 
   84200     1733.492   -110.66446       1.5685   -109.09596   -205.13118     4.379101     4.379101     4.379101   -205.13118    19837.673   -5188.7555   -15264.311   -13657.257    6259.1093   -14656.656    83.975944 
   84300    746.35487   -109.78228   0.67531757   -109.10696   -17599.501    4.3825681    4.3825681    4.3825681   -17599.501   -29356.117   -35134.874    11692.489    28653.668   -3713.4718     2241.704    84.175559 
   84400    857.97309   -109.88434   0.77631208   -109.10803   -12577.149    4.3707393    4.3707393    4.3707393   -12577.149    2353.1298    -36382.41   -3702.1681    26893.123   -12053.692    6267.3253    83.495816 
   84500    1379.2904   -110.35082    1.2480109   -109.10281    951.55248    4.3824829    4.3824829    4.3824829    951.55248    28505.245   -20412.003   -5238.5841   -5396.0693    2628.6614   -10170.935    84.170651 
   84600    936.33675   -109.95627   0.84721716   -109.10906   -14972.834    4.3845223    4.3845223    4.3845223   -14972.834   -24066.402   -25117.827    4265.7273     35670.06   -3387.1564    2327.8359    84.288213 
   84700    1306.2549   -110.28004    1.1819269   -109.09811    3115.0871    4.3698545    4.3698545    4.3698545    3115.0871    25231.544    841.58325   -16727.866   -203.42442   -13753.599    12358.183    83.445116 
   84800    987.99598    -109.9939   0.89395953   -109.09994   -5846.2948    4.3831742    4.3831742    4.3831742   -5846.2948   -19037.196    -9796.084    11294.395    12796.943    8462.2473   -7956.4342    84.210488 
   84900    880.11358   -109.90025   0.79634526    -109.1039   -23529.015    4.3834114    4.3834114    4.3834114   -23529.015   -8586.1404   -52829.481    -9171.424    20827.501   -8593.5142    5735.1523    84.224163 
   85000    1317.4429    -110.2893      1.19205   -109.09725    9222.5604    4.3737407    4.3737407    4.3737407    9222.5604    40647.071   -9192.5299   -3786.8597   -4450.5184    175.84828    8316.9041    83.667941 
   85100    1206.6904   -110.19507    1.0918388   -109.10323    6455.5037    4.3735843    4.3735843    4.3735843    6455.5037    24191.695   -15449.896    10624.712    24672.474    9495.5493   -6601.8139    83.658966 
   85200    1098.3074   -110.09938   0.99377165   -109.10561   -11568.023    4.3827649    4.3827649    4.3827649   -11568.023    4316.1068   -26382.913   -12637.263    8190.4346    -6305.228    5667.8991    84.186901 
   85300    1030.7298   -110.03611   0.93262602   -109.10349    14782.722    4.3795249    4.3795249    4.3795249    14782.722    49703.594   -20763.859    15408.432   -5031.0587    -1805.883    2835.8285     84.00033 
   85400     888.4367   -109.91515    0.8038762   -109.11127   -6181.8742    4.3806032    4.3806032    4.3806032   -6181.8742   -16599.873   -13610.877    11665.127    35398.854     5938.103   -2358.3489    84.062391 
   85500    1326.2372   -110.30765    1.2000073   -109.10764   -1345.0822    4.3736004    4.3736004    4.3736004   -1345.0822    23311.658   -23190.209   -4156.6951   -12876.511   -3249.9755    8138.6773    83.659893 
   85600    1147.4658   -110.14908    1.0382511   -109.11083     24237.11    4.3795374    4.3795374    4.3795374     24237.11      39920.9   -609.32068     33399.75     18109.15    -2300.064     5517.665    84.001049 
   85700    1105.3141   -110.10539    1.0001114   -109.10528   -28988.627    4.3897188    4.3897188    4.3897188   -28988.627    -41196.81   -36751.532   -9017.5399     18496.28    18443.924    2673.4171    84.588264 
   85800    736.49558   -109.76687   0.66639668   -109.10047    12092.846    4.3675075    4.3675075    4.3675075    12092.846    31213.019   -28292.513     33358.03   -17711.008   -3618.6695    19161.014    83.310737 
   85900    1263.6126   -110.24585    1.1433433   -109.10251   -8004.4081    4.3779837    4.3779837    4.3779837   -8004.4081   -7266.6118   -32309.135    15562.523    19701.931    8226.8917   -840.87198    83.911684 
   86000    1074.3966   -110.07413   0.97213658     -109.102    4168.4876    4.3855694    4.3855694    4.3855694    4168.4876    36211.881   -17598.163   -6108.2555   -2247.3549    3686.6416    11288.855    84.348618 
   86100    1210.9473   -110.19606    1.0956905   -109.10036    8033.7104    4.3772394    4.3772394    4.3772394    8033.7104    34101.523   -18551.045    8550.6534   -24741.293    1091.8942    19457.761    83.868889 
   86200     1366.803     -110.333    1.2367121   -109.09629    9781.9986    4.3798905    4.3798905    4.3798905    9781.9986    24988.193   -6073.0709    10430.874    28248.466   -7181.9654   -12675.356    84.021369 
   86300    807.56187   -109.83362   0.73069895   -109.10292   -9431.7912    4.3770706    4.3770706    4.3770706   -9431.7912    6012.6204   -29914.799   -4393.1951   -16584.759   -1090.0874     25092.44    83.859188 
   86400    961.14784   -109.97575   0.86966676   -109.10608    1413.8495    4.3789929    4.3789929    4.3789929    1413.8495    10551.667   -38687.298     32377.18   -1198.6406   -2794.3088   -37.034951    83.969726 
   86500    1501.3871   -110.45682    1.3584866   -109.09833   -901.42781    4.3856991    4.3856991    4.3856991   -901.42781    27477.975    -26055.82   -4126.4389    11813.671   -6973.8746   -4727.1326    84.356102 
   86600    862.95494   -109.88919   0.78081976   -109.10837    8893.0133    4.3713515    4.3713515    4.3713515    8893.0133    25526.527   -27836.908    28989.421    -17739.23    12687.176    22545.942    83.530907 
   86700    1238.3053   -110.22454    1.1204447    -109.1041    4007.1662    4.3818421    4.3818421    4.3818421    4007.1662    52243.935   -30764.625   -9457.8109    727.63989    3368.0616   -15867.482    84.133732 
   86800    1303.8557   -110.27611     1.179756   -109.09635    2158.6997     4.380399     4.380399     4.380399    2158.6997    17888.807   -38788.864    27376.156   -4475.5599    7944.0128    8038.1995    84.050638 
   86900    573.40607   -109.62741   0.51882986   -109.10858   -1070.9994    4.3762071    4.3762071    4.3762071   -1070.9994    14982.637   -21964.417    3768.7819   -22360.055    3251.9351    14622.356    83.809566 
   87000    1473.0941   -110.43357    1.3328865   -109.10068   -11.630947    4.3812737    4.3812737    4.3812737   -11.630947   -3817.0909   -13771.295    17553.493    2227.1503    10633.179   -20019.332    84.101002 
   87100    976.65882   -109.98797   0.88370143   -109.10427    20090.332    4.3734752    4.3734752    4.3734752    20090.332      40189.3    5979.5574     14102.14   -6977.4559   -6772.0193     20774.02     83.65271 
   87200    929.56753   -109.94641   0.84109224   -109.10532   -15943.498    4.3868449    4.3868449    4.3868449   -15943.498   -10941.005   -29857.122   -7032.3654   -15333.355    6228.2731   -682.01706    84.422235 
   87300    1490.2778   -110.43873    1.3484347   -109.09029    2901.5956    4.3804996    4.3804996    4.3804996    2901.5956     27103.66   -21166.473    2767.6005    14354.755   -7795.4653   -18151.348    84.056428 
   87400    790.33308   -109.81475   0.71510998   -109.09964    3565.0829    4.3706178    4.3706178    4.3706178    3565.0829    4143.2764   -23244.037    29796.009   -14534.719   -5526.9022    25511.413    83.488855 
   87500    1419.6741   -110.38615     1.284551    -109.1016   -7558.3646    4.3823989    4.3823989    4.3823989   -7558.3646   -9921.5559   -9043.1905   -3710.3475    284.51673     2538.149   -11700.467    84.165813 
   87600    1052.0146   -110.05069   0.95188489   -109.09881    7659.1082    4.3843212    4.3843212    4.3843212    7659.1082   -4840.0439    2315.2869    25502.082    14100.019   -6951.3852    5694.9428    84.276618 
   87700    809.52313   -109.83234   0.73247354   -109.09987   -19774.434    4.3877345    4.3877345    4.3877345   -19774.434   -809.63453   -29882.406   -28631.262     -22424.5    3688.9536    19512.376    84.473606 
   87800    1487.7793   -110.43411     1.346174   -109.08793    16891.073    4.3728508    4.3728508    4.3728508    16891.073    5674.0285    25502.852     19496.34    10398.212   -2064.8637    1801.4294    83.616885 
   87900    915.22801   -109.93347   0.82811754   -109.10536    18928.059    4.3689744    4.3689744    4.3689744    18928.059    19187.987    6964.0581    30632.132    2852.2754   -4077.3547    15728.622    83.394711 
   88000     996.2539   -110.01386   0.90143146   -109.11243   -17670.961    4.3949108    4.3949108    4.3949108   -17670.961   -25154.581   -17605.119   -10253.182    -20074.98    1119.0319     25277.86    84.888761 
   88100     1398.195   -110.35961    1.2651162   -109.09449    7583.9898     4.383363     4.383363     4.383363    7583.9898    6906.7776    5199.7939    10645.398    7476.2422    825.42185   -12000.107    84.221372 
   88200    670.99143   -109.70873   0.60712715    -109.1016   -1086.4209      4.37031      4.37031      4.37031   -1086.4209   -8668.6956   -21417.437     26826.87   -12805.731    -9037.134    23419.827    83.471216 
   88300    1163.9549    -110.1551    1.0531709   -109.10193   -2516.0846    4.3745905    4.3745905    4.3745905   -2516.0846    17035.946   -13834.655   -10749.544    -14840.15    4945.8293     12925.64    83.716723 
   88400    1299.8999   -110.27606    1.1761768   -109.09989   -2697.6307    4.3907492    4.3907492    4.3907492   -2697.6307   -3933.5741    6877.4539   -11036.772    1339.4635   -4434.1614   -22107.658     84.64784 
   88500    1092.9114   -110.08603   0.98888923   -109.09714   -25448.292     4.389444     4.389444     4.389444   -25448.292   -27928.241   -35857.688   -12558.947   -19336.006   -8508.5412    28515.667    84.572375 
   88600    1127.7051   -110.10922    1.0203712   -109.08885    19525.438    4.3624934    4.3624934    4.3624934    19525.438    25923.456    29972.536    2680.3225    5494.2099   -137.31649   -18457.871    83.024132 
   88700    875.26922   -109.89461   0.79196199   -109.10265    6400.8215    4.3764012    4.3764012    4.3764012    6400.8215    2082.5143   -11027.968    28147.919     -8914.98   -8182.6051   -11974.551    83.820722 
   88800     1018.316   -110.02026   0.92139371   -109.09887   -25091.062    4.3945835    4.3945835    4.3945835   -25091.062   -20399.392   -39743.679   -15130.116   -11594.386   -1269.0128    20720.577    84.869798 
   88900      1270.44   -110.24351    1.1495208   -109.09399   -905.02908    4.3730755    4.3730755    4.3730755   -905.02908    8996.7468   -117.15811   -11594.676    11153.251   -736.72284   -31545.572    83.629776 
   89000    1233.1213   -110.21249    1.1157541   -109.09674    1593.3453    4.3704218    4.3704218    4.3704218    1593.3453   -6278.5046    17172.303    -6113.763   -12701.676   -8641.3687    1009.8187    83.477622 
   89100    1126.3169   -110.11938    1.0191152   -109.10027   -3120.6781      4.38536      4.38536      4.38536   -3120.6781    -12417.01   -1921.8496    4976.8252   -119.94678    1702.6612    7994.1594    84.336537 
   89200    919.69263   -109.93174   0.83215722   -109.09958   -11347.482    4.3849059    4.3849059    4.3849059   -11347.482    2456.1711    1486.0318   -37984.649   -868.74944    4479.1437   -25107.912    84.310341 
   89300     954.1977   -109.96109   0.86337813   -109.09771    4837.7801    4.3727811    4.3727811    4.3727811    4837.7801   -7397.2613    3844.6468    18065.955   -6715.3913   -13142.392     7795.745    83.612885 
   89400    1263.0254   -110.24374     1.142812   -109.10093   -2388.6814     4.374978     4.374978     4.374978   -2388.6814    12275.148   -7396.6304   -12044.562   -2060.5538    6503.3066   -11718.489    83.738972 
   89500    1197.9418   -110.18853    1.0839229    -109.1046   -13066.952    4.3866665    4.3866665    4.3866665   -13066.952   -10342.333    -14676.23   -14182.294   -673.47733   -1295.3031   -28426.118    84.411933 
   89600    1130.8358   -110.12358     1.023204   -109.10037   -5204.5988    4.3804103    4.3804103    4.3804103   -5204.5988   -26419.727    12998.966   -2193.0348   -13756.391   -12504.102    5857.6689    84.051289 
   89700    879.91415   -109.89713   0.79616481   -109.10097   -6868.2065    4.3795355    4.3795355    4.3795355   -6868.2065    16012.548   -20889.145   -15728.023   -1380.6531    3637.5413   -31420.021    84.000939 
   89800    1172.8765   -110.15867    1.0612433   -109.09742   -1357.0325    4.3770645    4.3770645    4.3770645   -1357.0325   -875.24477    22165.052   -25360.905   -586.48681    -23309.57   -4821.6485    83.858836 
   89900    934.80375   -109.94879   0.84583008   -109.10296   -6921.5547    4.3846463    4.3846463    4.3846463   -6921.5547   -13241.738   -8731.1557    1208.2293   -12533.996   -4544.3349   -6357.4961    84.295364 
   90000    1261.8114   -110.24131    1.1417135    -109.0996   -17063.946    4.3832938    4.3832938    4.3832938   -17063.946    3741.7982   -21620.781   -33312.856     11060.76   -2537.1917   -32357.253    84.217385 
   90100    1313.9432   -110.28228    1.1888834    -109.0934      16303.5    4.3709761    4.3709761    4.3709761      16303.5   -5628.3911    37754.806    16784.086   -28.099298   -19556.061    9284.5558    83.509386 
   90200    807.82007   -109.83864   0.73093257   -109.10771   -25978.629    4.3859315    4.3859315    4.3859315   -25978.629   -11160.688   -42397.001   -24378.198   -2360.0967    5209.5026   -16366.263    84.369509 
   90300    884.44837   -109.90491   0.80026747   -109.10464    6801.7546    4.3848391    4.3848391    4.3848391    6801.7546    15541.546    20453.259   -15589.542    6126.5589    4365.6984   -21086.293    84.306484 
   90400    1569.0819   -110.51595    1.4197383   -109.09621    3177.1709    4.3753685    4.3753685    4.3753685    3177.1709    1408.5714    9659.8729   -1536.9317   -8822.8777   -3273.8487     12090.47    83.761398 
   90500    588.09353   -109.64219   0.53211939   -109.11007    782.45414    4.3830281    4.3830281    4.3830281    782.45414   -1429.3082   -5153.0516    8929.7222   -5187.6842    1848.0445   -26913.147    84.202068 
   90600    1437.6709   -110.39539    1.3008348   -109.09456    -886.2601    4.3839447    4.3839447    4.3839447    -886.2601    844.28223    7361.5229   -10864.585   -3418.2373    18087.067   -3807.0583    84.254904 
   90700    1038.1596   -110.03696   0.93934865   -109.09761    5550.8431    4.3816524    4.3816524    4.3816524    5550.8431   -5671.3959    -2725.921    25049.846   -5616.8781   -7309.8245    1306.7152     84.12281 
   90800    925.73208   -109.94312   0.83762184   -109.10549   -16070.123    4.3763075    4.3763075    4.3763075   -16070.123    -2907.947   -21460.122   -23842.301   -13.494344    5377.7429   -28803.576    83.815334 
   90900    1379.8312   -110.34856    1.2485003   -109.10006    23479.073    4.3772917    4.3772917    4.3772917    23479.073     7178.822    42828.579    20429.817    3371.2596    15452.741    7594.8483    83.871895 
   91000    1242.8603   -110.22532    1.1245661   -109.10075   -34714.224    4.3923477    4.3923477    4.3923477   -34714.224   -33888.088   -40281.547   -29973.038     -1058.48   -6144.3556   -11535.705    84.740327 
   91100    476.39997   -109.53577    0.4310567   -109.10471    6863.7003    4.3751488    4.3751488    4.3751488    6863.7003   -19407.173    25972.008    14026.266     1625.521    18208.323   -15837.942    83.748777 
   91200    1582.6913   -110.53176    1.4320523   -109.09971    8399.0533    4.3725645    4.3725645    4.3725645    8399.0533    18625.086    11985.055   -5412.9804    3841.1706    8800.7745    3742.8411    83.600462 
   91300    1151.5559   -110.14965     1.041952    -109.1077    -48.86253    4.3858708    4.3858708    4.3858708    -48.86253    19722.462   -26400.919    6531.8688    -4724.385   -193.66764   -16317.243     84.36601 
   91400    843.35799   -109.87175   0.76308803   -109.10866   -2074.9261    4.3818466    4.3818466    4.3818466   -2074.9261     1760.036    21748.726    -29733.54    4813.4837    20438.136    -9199.752    84.133996 
   91500    1239.4842   -110.21806    1.1215113   -109.09655    7916.7889    4.3812204    4.3812204    4.3812204    7916.7889    5603.1001    12497.101    5650.1653   -3912.6978   -1925.5614    640.21375     84.09793 
   91600    1013.4561   -110.02331   0.91699636   -109.10631   -9402.7566    4.3769873    4.3769873    4.3769873   -9402.7566    9506.4092   -20267.003   -17447.676   -3577.5822    7206.8802   -24576.279    83.854399 
   91700    989.53689   -110.00953   0.89535377   -109.11418    3399.2583    4.3746168    4.3746168    4.3746168    3399.2583    4759.7336    30514.921    -25076.88    -627.5209     22902.13    176.34139    83.718233 
   91800    1543.7457    -110.4976    1.3968136   -109.10078   -11706.606    4.3916691    4.3916691    4.3916691   -11706.606   -5280.2302   -19859.636   -9979.9529   -6330.4016   -13480.674   -1286.5409    84.701055 
   91900    880.27312   -109.89697   0.79648962   -109.10048    -331.5339    4.3783002    4.3783002    4.3783002    -331.5339    13801.436   -872.42298   -13923.615    3230.9022    13497.804   -18021.867    83.929884 
   92000    652.19958   -109.69494   0.59012388   -109.10482    16258.463    4.3742952    4.3742952    4.3742952    16258.463    10734.856     29857.32    8183.2124   -5651.7107    9727.7288    6762.2926    83.699769 
   92100    1455.8418   -110.41515    1.3172762   -109.09788   -2784.1168    4.3842478    4.3842478    4.3842478   -2784.1168     19041.18    -12738.48   -14655.051    2556.9981   -19967.744   -386.79652    84.272381 
   92200    999.31208   -110.01022   0.90419857   -109.10602     11249.05    4.3809697    4.3809697    4.3809697     11249.05    16945.661   -5843.0711    22644.559     5671.844    29443.247   -8999.0807    84.083495 
   92300    1294.5845   -110.27334    1.1713672   -109.10197   -17380.007    4.3845896    4.3845896    4.3845896   -17380.007   -25393.503    466.57776   -27213.098   -1367.1276    3822.8554    8251.7687    84.292094 
   92400    970.54767   -109.97785   0.87817193   -109.09968    17308.502    4.3700684    4.3700684    4.3700684    17308.502    12558.182    3620.1687    35747.153    5265.8721   -10603.544   -333.75145    83.457371 
   92500     691.5946   -109.74476   0.62576933   -109.11899   -20717.543    4.3809434    4.3809434    4.3809434   -20717.543    -28037.26   -5202.2078   -28913.163    4686.0911    49292.798   -11926.253    84.081982 
   92600     1437.724   -110.40773    1.3008829   -109.10685   -3692.9366    4.3837849    4.3837849    4.3837849   -3692.9366    5207.8167   -5810.7097   -10475.917    -5128.386   -12493.009    89.345207    84.245696 
   92700    1200.3202   -110.19279    1.0860749   -109.10671   -11234.123    4.3803229    4.3803229    4.3803229   -11234.123    9742.5271   -19490.601   -23954.295   -2079.9441    5717.0104   -2856.4663    84.046257 
   92800    818.45081   -109.85186   0.74055149   -109.11131   -11955.364     4.375979     4.375979     4.375979   -11955.364   -1209.4601   -3974.8829    -30681.75   -454.91257    48631.772   -10139.455    83.796466 
   92900    1371.7119   -110.34542    1.2411538   -109.10427    13324.551    4.3762448    4.3762448    4.3762448    13324.551   -1081.7158   -445.18957    41500.558   -5067.2283   -29085.355     3357.664    83.811734 
   93000    714.33007    -109.7648   0.64634086   -109.11846   -2073.9813    4.3862995    4.3862995    4.3862995   -2073.9813   -18988.876   -5962.2793    18729.211    828.40494    27969.019   -7774.1557    84.390752 
   93100    1070.2035   -110.08151   0.96834262   -109.11317   -14100.819    4.3908768    4.3908768    4.3908768   -14100.819   -8638.8092   -20838.008    -12825.64   -7175.5234    22188.625   -2379.9484    84.655221 
   93200    1574.3926   -110.52062    1.4245435   -109.09608    28297.133    4.3702635    4.3702635    4.3702635    28297.133    33411.968    1914.1926    49565.238   -6585.2983   -9379.6417   -558.81948    83.468548 
   93300    890.17411   -109.91678   0.80544824   -109.11133   -3300.4961    4.3728288    4.3728288    4.3728288   -3300.4961   -8968.9161    6237.6925   -7170.2647    281.68509    44294.543   -3409.5644    83.615623 
   93400    825.01185   -109.85435   0.74648806   -109.10786   -11018.396    4.3926563    4.3926563    4.3926563   -11018.396    4540.8257   -33002.273   -4593.7413    3229.1952    6522.3695     1445.702    84.758189 
   93500    1339.4858   -110.30991    1.2119949   -109.09792   -8559.0295    4.3824925    4.3824925    4.3824925   -8559.0295   -37735.681    -5660.325    17718.918    -2039.899    384.75298    3870.2845    84.171203 
   93600    967.23645   -109.98111   0.87517587   -109.10594   -3956.8284    4.3711034    4.3711034    4.3711034   -3956.8284    732.64354    13616.326   -26219.454    4446.1161    30687.544   -3755.8137    83.516682 
   93700    1305.7931   -110.28624     1.181509   -109.10473    11307.192    4.3758123    4.3758123    4.3758123    11307.192    34195.899   -13302.293     13027.97    9390.6109   -7894.8768   -4507.4764    83.786887 
   93800    1037.0145   -110.04945   0.93831248   -109.11113   -23841.012    4.3923439    4.3923439    4.3923439   -23841.012   -42944.726   -43.423199   -28534.888    -2126.119    5522.8652    1231.2783    84.740105 
   93900    633.18236   -109.67908   0.57291671   -109.10617    5909.1461    4.3838568    4.3838568    4.3838568    5909.1461    16476.435    4696.3122   -3445.3093    6460.4542    23944.053   -5821.3746    84.249837 
   94000    1569.4298   -110.50987    1.4200531   -109.08981    19170.396    4.3701718    4.3701718    4.3701718    19170.396    40559.427    1467.3187    15484.443   -2337.0203   -8985.6469    68.214849    83.463297 
   94100    904.86881   -109.92683   0.81874432   -109.10808    1509.7769    4.3803281    4.3803281    4.3803281    1509.7769    12849.511    14122.996   -22443.176    919.99884    24757.648   -4222.4688    84.046559 
   94200    1123.3341   -110.11928    1.0164163   -109.10287       -15655    4.3902609    4.3902609    4.3902609       -15655    2909.1121   -22876.228   -26997.883    4497.2967    11917.334   -8281.5143    84.619605 
   94300    1126.5157   -110.11641    1.0192951   -109.09712    9391.3124    4.3753273    4.3753273    4.3753273    9391.3124    19908.969   -7065.3977    15330.366   -8571.9928   -159.47936     6280.782    83.759033 
   94400    854.35114   -109.88255   0.77303487   -109.10952   -13788.786    4.3740102    4.3740102    4.3740102   -13788.786   -32130.755    16235.023   -25470.626     5926.638    34723.293   -2310.2431    83.683414 
   94500     942.8313    -109.9654   0.85309358   -109.11231    1864.2273    4.3837855    4.3837855    4.3837855    1864.2273    15871.371   -23262.119    12983.429    1111.7822   -7270.8839    2983.1318    84.245725 
   94600    1364.7001    -110.3448    1.2348093   -109.10999   -5279.3395     4.389662     4.389662     4.389662   -5279.3395    27250.904   -25591.665   -17497.257   -8476.3422    15325.903    10348.984    84.584979 
   94700    1093.6608   -110.10029   0.98956726   -109.11072    7025.4962     4.375356     4.375356     4.375356    7025.4962   -727.34011      11871.6    9932.2284    5546.3414    19482.448   -1788.5829    83.760681 
   94800    856.70882   -109.88241   0.77516815   -109.10724    17557.009    4.3605344    4.3605344    4.3605344    17557.009    43297.484   -11899.451    21272.996   -6261.3989   -15647.066    3213.3976    82.912337 
   94900    908.16896   -109.94199   0.82173036   -109.12026   -22140.082    4.3912209    4.3912209    4.3912209   -22140.082    -26622.65    -29053.73   -10743.866   -3052.4195    21529.397    3623.1269    84.675129 
   95000    1482.5276   -110.44332    1.3414222    -109.1019    12540.993    4.3838942    4.3838942    4.3838942    12540.993    50245.014   -2197.4175   -10424.617    1398.9432    11229.432    493.67418    84.251993 
   95100    928.08604   -109.94667   0.83975175   -109.10692   -5798.6108    4.3770496    4.3770496    4.3770496   -5798.6108    3481.0066   -28550.554    7673.7153   -10187.936   -10006.299    921.06806    83.857983 
   95200    1039.8087   -110.04885   0.94084074   -109.10801   -2487.9589    4.3749144    4.3749144    4.3749144   -2487.9589    17729.251   -21664.192   -3528.9364    626.31528    11401.436    7327.9573     83.73532 
   95300    1278.0657    -110.2608    1.1564207   -109.10438    21603.038    4.3782963    4.3782963    4.3782963    21603.038    21840.578   -1805.3872    44773.922   -299.15486   -10288.876    1086.0537    83.929655 
   95400    804.29643   -109.84322   0.72774431   -109.11547   -29004.552     4.393192     4.393192     4.393192   -29004.552   -46943.876   -52213.102    12143.323   -5998.0683   -2693.6233    2669.3495      84.7892 
   95500    1074.0446    -110.0801   0.97181815   -109.10828     20330.54    4.3670285    4.3670285    4.3670285     20330.54    47125.306   -21326.751    35193.065    4640.8759   -8813.1485    4027.6041    83.283331 
   95600     1421.168   -110.39314    1.2859027   -109.10724    7184.4932    4.3699731    4.3699731    4.3699731    7184.4932    16738.349    -10556.59    15371.721   -310.53464   -3457.5749   -4885.2364     83.45191 
   95700     969.2489   -109.98607   0.87699678   -109.10907   -36865.758    4.3932292    4.3932292    4.3932292   -36865.758   -51105.923   -60789.358    1298.0082   -2622.9593   -2198.6388    7168.3028     84.79136 
   95800    993.13491   -110.00199   0.89860933   -109.10338    8459.2551    4.3753025    4.3753025    4.3753025    8459.2551    20901.821   -43615.065    48091.009    1570.3847   -7304.5496    894.08945    83.757605 
   95900    1319.9296   -110.29711       1.1943   -109.10281    1981.7754    4.3738156    4.3738156    4.3738156    1981.7754    12716.493   -29693.534    22922.367   -3915.7514    13404.529   -12744.211    83.672241 
   96000    942.30403   -109.96247   0.85261649   -109.10985    6040.6022    4.3827181    4.3827181    4.3827181    6040.6022   -29819.692    -31945.61    79887.109    242.47009   -10657.136   -2994.1025    84.184204 
   96100    1118.6515   -110.12115    1.0121794   -109.10897   -10801.929    4.3847466    4.3847466    4.3847466   -10801.929    26567.879   -30211.793   -28761.875    592.98265    13505.586   -9272.6509    84.301152 
   96200    1011.0962   -110.02362    0.9148611   -109.10876   -8354.3513    4.3731218    4.3731218    4.3731218   -8354.3513   -5050.0784   -14269.053    -5743.923   -3153.9201   -13871.356   -4693.9924    83.632433 
   96300    977.08679   -109.99561   0.88408866   -109.11152     11979.53    4.3722126    4.3722126    4.3722126     11979.53   -20831.806   -20062.823    76833.218     9907.175   -1837.3861     4528.107    83.580281 
   96400    1393.6169    -110.3674    1.2609739   -109.10642   -19777.589    4.3930894    4.3930894    4.3930894   -19777.589    4016.5128   -47526.267   -15823.013   -584.82291   -4338.2985   -5886.0368    84.783261 
   96500    647.28066    -109.7001   0.58567314   -109.11443      5817.11    4.3797243    4.3797243    4.3797243      5817.11    -14634.19   -34805.781    66891.301    1611.3538   -16737.045    6424.1161    84.011808 
   96600     1224.211    -110.2153    1.1076919   -109.10761    10079.324    4.3644394    4.3644394    4.3644394    10079.324   -1940.5702     10869.58    21308.961    5946.3429   -7749.5272   -3749.7258    83.135287 
   96700    1438.7741   -110.41388    1.3018331   -109.11205    7906.0847    4.3796024    4.3796024    4.3796024    7906.0847    22976.106   -19025.651      19767.8   -112.42557     8658.645   -4766.1274     84.00479 
   96800    520.99812   -109.58736   0.47141005   -109.11595   -35123.169    4.3958022    4.3958022    4.3958022   -35123.169   -58025.253   -57647.508    10303.253    6504.3123   -8016.0633    548.08016    84.940426 
   96900    1331.6172   -110.30883    1.2048752   -109.10395    10697.928    4.3691953    4.3691953    4.3691953    10697.928    11014.657    -1544.173    22623.302    -2958.395    4559.5349    848.66028    83.407359 
   97000    1565.6121    -110.5178    1.4165987    -109.1012    14837.323    4.3655277    4.3655277    4.3655277    14837.323    17794.743   -7989.4912    34706.719    6053.9563    4053.2574   -3638.1995    83.197493 
   97100    705.34873   -109.75415   0.63821435   -109.11593   -17891.392    4.3863961    4.3863961    4.3863961   -17891.392    -25624.51   -36322.745    8273.0793    12349.334   -12505.989    2845.2101    84.396324 
   97200    1099.1788   -110.09961   0.99456007   -109.10505   -3234.0774    4.3878021    4.3878021    4.3878021   -3234.0774    28174.518   -25321.482   -12555.269   -3099.6998    1785.2093      6891.56    84.477506 
   97300    1060.3766    -110.0599   0.95945101   -109.10045    13883.977    4.3701221    4.3701221    4.3701221    13883.977    16587.342   -6155.0108    31219.601    4184.1809    -3706.507   -1799.1063     83.46045 
   97400    864.09712   -109.88841   0.78185324   -109.10656    7926.4826    4.3703404    4.3703404    4.3703404    7926.4826    18488.601   -11015.671    16306.518    8873.8919    -7331.274    6853.0672    83.472954 
   97500    1222.9704     -110.209    1.1065693   -109.10243   -7592.2745    4.3959095    4.3959095    4.3959095   -7592.2745    32887.524   -33646.113   -22018.234   -1974.1757    4365.8586   -2383.6454    84.946647 
   97600    1471.9333   -110.43358    1.3318362   -109.10175   -7250.1853    4.3778782    4.3778782    4.3778782   -7250.1853   -13916.355   -6217.6577   -1616.5432      3602.52    5236.6887    -282.5069    83.905617 
   97700    870.14725   -109.88707   0.78732752   -109.09975    23494.832    4.3606961    4.3606961    4.3606961    23494.832    51636.123   -5926.4259    24774.797   -6939.5254   -7586.6218    1053.0668    82.921561 
   97800    1163.2743   -110.15786     1.052555   -109.10531   -14222.995    4.3854049    4.3854049    4.3854049   -14222.995    11505.836   -32783.853   -21390.968   -3859.1558    9047.5594   -13751.335    84.339128 
   97900    757.51562   -109.78883   0.68541605   -109.10341    5757.5235    4.3886951    4.3886951    4.3886951    5757.5235    21183.238   -18041.827     14131.16    1060.4616   -15297.627    592.47663    84.529097 
   98000    1292.3159   -110.27062    1.1693145   -109.10131   -2400.2593     4.375496     4.375496     4.375496   -2400.2593    -6514.115   -16177.092    15490.429   -7224.4064   -19543.077   -4347.7753    83.768721 
   98100    1243.4307   -110.22663    1.1250823   -109.10155    23607.313    4.3651889    4.3651889    4.3651889    23607.313     31502.12    5304.7317    34015.088    5073.4495    14074.347    -15282.28    83.178127 
   98200    883.97146   -109.91387   0.79983596   -109.11403   -15501.189    4.3873208    4.3873208    4.3873208   -15501.189   -22203.513   -10112.082   -14187.971    6338.9223   -19939.731    5255.7732    84.449711 
   98300    1400.1627   -110.36665    1.2668966   -109.09975   -21462.914    4.3883144    4.3883144    4.3883144   -21462.914   -38263.313    -27628.02    1502.5918   -1692.9073   -4955.4558    -9836.564    84.507102 
   98400    877.52989   -109.89375   0.79400749   -109.09974    32902.197    4.3593311    4.3593311    4.3593311    32902.197    56408.117    16919.329    25379.144    4369.7984    3952.4046   -2669.8292    82.843715 
   98500    786.42841   -109.83397   0.71157695    -109.1224   -26858.137    4.3777098    4.3777098    4.3777098   -26858.137    -58064.22   -7756.1829   -14754.007    2895.1298   -13375.178    2135.3282    83.895931 
   98600    1624.7782   -110.57429    1.4701335   -109.10416    8577.8128    4.3855072    4.3855072    4.3855072    8577.8128    22211.197   -15549.739     19071.98    4447.0685    4479.7627   -4488.8065    84.345028 
   98700    1001.6225   -110.01865   0.90628909   -109.11236    -6264.658    4.3766621    4.3766621    4.3766621    -6264.658   -11895.108    3520.9557   -10419.822    5279.9515   -13356.551    5328.0805    83.835711 
   98800     618.9471   -109.67552   0.56003634   -109.11548   -15438.715    4.3741269    4.3741269    4.3741269   -15438.715   -30277.645   -4091.8348   -11946.666   -2698.0727   -6232.8099   -1072.3949    83.690109 
   98900    1550.6386   -110.50397    1.4030504   -109.10092    13836.083     4.374992     4.374992     4.374992    13836.083    32084.177   -23693.333    33117.406    3594.4174   -2618.8963    1078.7004    83.739776 
   99000    974.66374   -109.99535   0.88189623   -109.11345   -18590.993    4.3848254    4.3848254    4.3848254   -18590.993   -40408.847   -8138.1033   -7226.0279   -1198.4505     -9912.26    971.13076    84.305697 
   99100    974.01093   -109.99237   0.88130556   -109.11107    10229.897     4.367821     4.367821     4.367821    10229.897    29087.395    1951.2326   -348.93525   -239.44029   -4004.8196    7929.9352    83.328679 
   99200    1363.3739   -110.34399    1.2336094   -109.11038   -7279.8395    4.3769936    4.3769936    4.3769936   -7279.8395    -34.14399   -33223.314     11417.94   -3526.8333    2043.1647   -4245.0256    83.854761 
   99300    867.74731   -109.89768     0.785156   -109.11252   -11324.181    4.3836761    4.3836761    4.3836761   -11324.181    -38932.74   -10913.524    15873.719   -9050.9637    -12601.58   -2425.6612    84.239423 
   99400      1254.27   -110.23605    1.1348899   -109.10116     14329.36    4.3648356    4.3648356    4.3648356     14329.36    17985.993    -4416.754     29418.84    6046.6181    7907.1561    5924.7867    83.157929 
   99500    908.98263   -109.93272   0.82246658   -109.11025   -15053.064    4.3803213    4.3803213    4.3803213   -15053.064    5316.8107    -53764.04    3288.0369   -10711.174    78.202053   -5650.4911    84.046164 
   99600    950.23592   -109.97076   0.85979343   -109.11097   -2530.3988    4.3743132    4.3743132    4.3743132   -2530.3988   -23409.268   -14763.693    30581.765   -610.21707   -16740.135    1098.3149    83.700804 
   99700    1564.6408    -110.5186    1.4157199   -109.10288    12170.714    4.3739981    4.3739981    4.3739981    12170.714    43782.879   -2605.7501   -4664.9863    9193.8929    11832.219    -3065.771    83.682718 
   99800    883.80505   -109.91266   0.79968538   -109.11297   -26381.322    4.3846146    4.3846146    4.3846146   -26381.322   -29766.966   -51681.673    2304.6721   -12789.928   -7782.3236   -5081.6552    84.293537 
   99900    671.78628   -109.72016   0.60784634   -109.11231    9615.3304    4.3654766    4.3654766    4.3654766    9615.3304   -13161.453    760.40278    41247.042    11727.847   -6433.6138    2705.3821    83.194571 
  100000     1639.624   -110.58698    1.4835662   -109.10341    13504.878    4.3779816    4.3779816    4.3779816    13504.878    49761.313    -11541.25    2294.5702    367.94457    1954.5698   -6637.3676    83.911562 
Loop time of 21.9003 on 1 procs for 100000 steps with 8 atoms

Pair  time (%) = 6.79683 (31.0354)
Kspce time (%) = 5.32606 (24.3196)
Neigh time (%) = 0 (0)
Comm  time (%) = 1.06682 (4.87126)
Outpt time (%) = 0.0216711 (0.0989534)
Other time (%) = 8.68887 (39.6748)

Nlocal:    8 ave 8 max 8 min
Histogram: 1 0 0 0 0 0 0 0 0 0
Nghost:    2189 ave 2189 max 2189 min
Histogram: 1 0 0 0 0 0 0 0 0 0
Neighs:    2056 ave 2056 max 2056 min
Histogram: 1 0 0 0 0 0 0 0 0 0

Total # of neighbors = 2056
Ave neighs/atom = 257
Neighbor list builds = 0
Dangerous builds = 0
unfix 20
unfix 21
print "seeds:8430983"
seeds:8430983
