LAMMPS (10 Feb 2015)
# ---- initialize simulations
clear
units metal
dimension 3
boundary p p p
atom_style charge
atom_modify map array
# ---- create atoms
read_data /Users/eugeneragasa/pyflamestk_git/pypospack/tests/tests_integration/workflow/WorkflowLammpsThermalExpansion/param_3867/MgO_NaCl_unit.npt.T1400/lammps.structure
  triclinic box = (0 0 0) to (4.2565 4.2565 4.2565) with tilt (0 0 0)
  1 by 1 by 1 MPI processor grid
  reading atoms ...
  8 atoms
# ---- define interatomic potential
include potential.mod
mass 1 24.305
mass 2 15.999

group Mg type 1
4 atoms in group Mg
group O type 2
4 atoms in group O

set group Mg charge 1.73479148785
  4 settings made for charge
set group O charge -1.73479148785
  4 settings made for charge

variable R_cut equal 10.0

pair_style buck/coul/long ${R_cut}
pair_style buck/coul/long 10
pair_coeff 1 1 0.0 0.5 0.0 ${R_cut}
pair_coeff 1 1 0.0 0.5 0.0 10
pair_coeff 1 2 1225.32983502 0.291530354982 0.0 ${R_cut}
pair_coeff 1 2 1225.32983502 0.291530354982 0.0 10
pair_coeff 2 2 16858.6500597 0.120403294253 7.45918898041 ${R_cut}
pair_coeff 2 2 16858.6500597 0.120403294253 7.45918898041 10

kspace_style pppm 1.0e-5

neighbor 1.0 bin
neigh_modify every 1 delay 0 check yes
# ---- define settings
compute eng all pe/atom
compute eatoms all reduce sum c_eng
# ---- run minimization
reset_timestep 0
fix 1 all box/relax iso 0.0 vmax 0.001
thermo 10
thermo_style custom step pe lx ly lz xy xz yz press pxx pyy pzz pxy pxz pyz c_eatoms
min_style cg
minimize 1e-25 1e-25 5000 10000
PPPM initialization ...
  G vector (1/distance) = 0.3534
  grid = 8 8 8
  stencil order = 5
  estimated absolute RMS force accuracy = 4.23269e-05
  estimated relative force accuracy = 2.93944e-06
  using double precision FFTs
  3d grid and FFT values/proc = 3375 512
Neighbor list info ...
  1 neighbor list requests
  update every 1 steps, delay 0 steps, check yes
  master list distance cutoff = 11
Memory usage per processor = 4.06549 Mbytes
Step PotEng Lx Ly Lz Xy Xz Yz Press Pxx Pyy Pzz Pxy Pxz Pyz eatoms 
       0   -122.62677       4.2565       4.2565       4.2565            0            0            0    18600.794    18600.794    18600.794    18600.794 4.9707872e-11 4.7042733e-11 1.8950886e-10   -122.62677 
       5   -122.63132    4.2712858    4.2712858    4.2712858            0            0            0   -6.7076035   -6.7076035   -6.7076035   -6.7076035 9.5134085e-11 4.9732958e-12 8.6603347e-11   -122.63132 
Loop time of 0.0075829 on 1 procs for 5 steps with 8 atoms

Minimization stats:
  Stopping criterion = linesearch alpha is zero
  Energy initial, next-to-last, final = 
        -122.626768711     -122.631316441     -122.631316441
  Force two-norm initial, final = 2.68597 0.0019334
  Force max component initial, final = 2.68596 0.000975322
  Final line search alpha, max atom move = 0.00390625 3.80985e-06
  Iterations, force evaluations = 5 22

Pair  time (%) = 0.00208569 (27.5051)
Kspce time (%) = 0.00120711 (15.9189)
Neigh time (%) = 0 (0)
Comm  time (%) = 0.000230551 (3.0404)
Outpt time (%) = 0 (0)
Other time (%) = 0.00405955 (53.5356)

Nlocal:    8 ave 8 max 8 min
Histogram: 1 0 0 0 0 0 0 0 0 0
Nghost:    2189 ave 2189 max 2189 min
Histogram: 1 0 0 0 0 0 0 0 0 0
Neighs:    2344 ave 2344 max 2344 min
Histogram: 1 0 0 0 0 0 0 0 0 0

Total # of neighbors = 2344
Ave neighs/atom = 293
Neighbor list builds = 0
Dangerous builds = 0
unfix 1
# ---- define output variables ----
variable natoms equal "count(all)"
variable tot_energy equal "c_eatoms"
variable length_x equal "lx"
variable length_y equal "ly"
variable length_z equal "lz"
variable tilt_xy equal "xy"
variable tilt_xz equal "xz"
variable tilt_yz equal "yz"
variable tot_press equal "press"
variable press_xx equal "pxx"
variable press_yy equal "pyy"
variable press_zz equal "pzz"
variable press_xy equal "pxy"
variable press_xz equal "pxz"
variable press_yz equal "pyz"

# ---- output ----
print "pypospack:output_section:begin"
pypospack:output_section:begin
print "tot_energy = ${tot_energy}"
tot_energy = -122.631316441343
print "num_atoms = ${natoms}"
num_atoms = 8
print "xx = ${length_x}"
xx = 4.27128583299446
print "yy = ${length_y}"
yy = 4.27128583299446
print "zz = ${length_z}"
zz = 4.27128583299446
print "xy = ${tilt_xy}"
xy = 0
print "xz = ${tilt_xz}"
xz = 0
print "yz = ${tilt_yz}"
yz = 0
print "tot_press = ${tot_press}"
tot_press = -6.70760353710228
print "pxx = ${press_xx}"
pxx = -6.70760353705429
print "pyy = ${press_yy}"
pyy = -6.70760353725253
print "pzz = ${press_zz}"
pzz = -6.70760353700002
print "pxy = ${press_xy}"
pxy = 9.51340852761742e-11
print "pxz = ${press_xz}"
pxz = 4.97329584958765e-12
print "pyz = ${press_yz}"
pyz = 8.66033470907354e-11
print "pypospack:output_section:done"
pypospack:output_section:done
print "pypospack:lammps_sim:done"
pypospack:lammps_sim:done
#------------------------------------------------------------------------------
# RUN THERMOSTAT
# running using an NPT Nose-Hoover style thermostat
#------------------------------------------------------------------------------
variable tempdamp equal 0.1
variable pressdamp equal 1.0
# set initial velocities
velocity all create 1400 8212838 mom yes dist gaussian loop all
# fix for Nose-Hoover style thermostat
fix 20 all npt temp 1400 1400 0.1 aniso 0.0 0.0 1.0 drag 1.0 couple xyz
variable boxx equal lx
variable boxy equal ly
variable boxz equal lz
variable boxp equal press
variable boxt equal temp
# calculate averages every 10000 steps
reset_timestep 0
fix 21 all ave/time 10 10 100 v_boxx v_boxy v_boxz v_boxp v_boxt file lattice.out
thermo_style custom step temp pe ke etotal press lx ly lz press pxx pyy pzz pxy pxz pyz vol
thermo_modify flush yes
thermo 100
run 100000
PPPM initialization ...
  G vector (1/distance) = 0.353246
  grid = 8 8 8
  stencil order = 5
  estimated absolute RMS force accuracy = 4.26311e-05
  estimated relative force accuracy = 2.96057e-06
  using double precision FFTs
  3d grid and FFT values/proc = 3375 512
Memory usage per processor = 3.06549 Mbytes
Step Temp PotEng KinEng TotEng Press Lx Ly Lz Press Pxx Pyy Pzz Pxy Pxz Pyz Volume 
       0         1400   -122.63132    1.2667494   -121.36457    17356.065    4.2712858    4.2712858    4.2712858    17356.065    3934.6764    40324.008    7809.5105   -3182.7986    1936.4083    8855.8534    77.924838 
     100    688.27147   -121.84408   0.62276249   -121.22132    15176.985    4.3140477    4.3140477    4.3140477    15176.985   -39602.731    103819.41   -18685.728   -646.53962    685.22772   -10366.429    80.288775 
     200    842.84365   -121.63149   0.76262264   -120.86887   -23374.092    4.3620746    4.3620746    4.3620746   -23374.092    -75275.11    41711.525   -36558.691   -1518.4303   -2462.3883   -3707.9059    83.000223 
     300    1670.3457   -122.06691    1.5113639   -120.55554   -33777.831    4.3503851    4.3503851    4.3503851   -33777.831   -68013.347    12196.772   -45516.917    366.74053    572.75188   -15752.955    82.334739 
     400    1678.4073   -121.84859    1.5186582   -120.32994    10210.645    4.3271652    4.3271652    4.3271652    10210.645   -55909.224    112787.91   -26246.753    2630.1508   -1997.1567   -4408.4714    81.023393 
     500       985.31   -121.11817   0.89152919   -120.22664    19757.941    4.3537855    4.3537855    4.3537855    19757.941   -73364.341    102188.68    30449.482    16492.446   -3643.0044    13562.002    82.527954 
     600    1443.5712   -121.42497    1.3061735   -120.11879    -25126.29    4.3778229    4.3778229    4.3778229    -25126.29   -88667.594    62739.453   -49450.728    3960.7439    555.29945    3665.7548    83.902438 
     700    1427.5283   -121.37052    1.2916576   -120.07886   -1719.2959    4.3540508    4.3540508    4.3540508   -1719.2959    -48165.09     31732.34    11274.862   -1406.4427    3151.7085   -6396.9987    82.543042 
     800    1232.1153   -121.19467    1.1148439   -120.07983     35688.85    4.3353109    4.3353109    4.3353109     35688.85   -32287.594    81696.472    57657.671    19369.116    2760.4641    6791.8256    81.481825 
     900    984.14443   -121.00797   0.89047456    -120.1175    27737.411    4.3561483    4.3561483    4.3561483    27737.411   -62944.403    201458.93   -55302.292    3757.9885   -8786.9544    4262.9638    82.662392 
    1000    1706.0178   -121.67213    1.5436408   -120.12849   -22589.574    4.3613069    4.3613069    4.3613069   -22589.574   -73684.941    36995.934   -31079.714    12897.171    -5913.718    3755.1355    82.956409 
    1100    1584.9337   -121.55609    1.4340813   -120.12201   -908.25855    4.3453516    4.3453516    4.3453516   -908.25855   -72430.365    104523.09   -34817.502   -2357.4435   -7516.7533   -6828.5711    82.049281 
    1200    1535.4717   -121.52099    1.3893271   -120.13166   -219.71455    4.3476385    4.3476385    4.3476385   -219.71455   -65336.806    42515.594    22162.069     955.8887   -8434.3448   -8004.5769    82.178891 
    1300    885.22439   -120.94358   0.80096963   -120.14261    16073.719      4.36821      4.36821      4.36821    16073.719   -81585.838    116293.07    13513.924    11457.766     3178.572    4815.6319    83.350943 
    1400    1825.3772   -121.74025    1.6516396   -120.08861   -34844.889    4.3669145    4.3669145    4.3669145   -34844.889   -66397.607   -8329.7872   -29807.272   -9189.0098    13225.535    4964.7182    83.276805 
    1500    1257.3404   -121.19481    1.1376681   -120.05715    23555.006    4.3441808    4.3441808    4.3441808    23555.006   -69908.774    107989.35    32584.442   -10634.492    7005.0199    11571.616    81.982974 
    1600    1132.8459   -121.12495    1.0250228   -120.09993    7028.2259    4.3509865    4.3509865    4.3509865    7028.2259   -78651.143    43042.152    56693.669   -747.67936    1715.3207   -10200.371    82.368889 
    1700    1957.7995    -121.8641    1.7714582   -120.09264   -61842.383     4.364819     4.364819     4.364819   -61842.383   -87193.654   -46727.853   -51605.641    2218.5751   -4855.4144   -22704.647    83.156984 
    1800    1471.6841    -121.4109    1.3316107   -120.07929   -3262.9403    4.3578245    4.3578245    4.3578245   -3262.9403    -89064.94    94444.272   -15168.152   -5090.9212   -2332.4121    -6797.536    82.757849 
    1900    1335.8698   -121.28034    1.2087231   -120.07161      15471.3    4.3523864    4.3523864    4.3523864      15471.3   -52380.127    73654.143    25139.883    517.81457   -4536.2909    18328.968    82.448422 
    2000    1719.9172   -121.62024    1.5562172   -120.06402     7629.711    4.3417499    4.3417499    4.3417499     7629.711   -47318.195    45333.419    24873.909    3365.6733   -9564.4972     26908.51    81.845427 
    2100    1486.1323   -121.43137    1.3446837   -120.08669    3421.1177    4.3507919    4.3507919    4.3507919    3421.1177    -83154.59    46612.105    46805.838   -5973.5934   -8625.2922   -18709.498    82.357838 
    2200     1062.678   -121.04744   0.96153343   -120.08591   -7621.6542    4.3648519    4.3648519    4.3648519   -7621.6542   -66847.654    85319.879   -41337.187    142.42451   -8433.6944   -7964.1821    83.158865 
    2300    1747.0995    -121.6434    1.5808124   -120.06259   -1440.7546    4.3401858    4.3401858    4.3401858   -1440.7546   -58246.315    17425.314    36498.738   -2507.8951   -4719.5617    -7136.973    81.757005 
    2400         1487   -121.42816    1.3454688   -120.08269    16144.407    4.3298917    4.3298917    4.3298917    16144.407   -53253.698    26598.504    75088.415   -5901.0609   -1948.7587    3117.2313    81.176645 
    2500     1221.936   -121.24646    1.1056334   -120.14082   -6357.3966    4.3585122    4.3585122    4.3585122   -6357.3966   -93076.996   -7628.6103    81633.417   -1741.5857    4724.2283    16105.518    82.797037 
    2600    1136.3005   -121.16167    1.0281485   -120.13352   -13934.942    4.3709963    4.3709963    4.3709963   -13934.942   -86807.169    18260.209    26742.134   -2313.9817    -7067.367   -16068.034    83.510547 
    2700    1463.1191   -121.42141     1.323861   -120.09755   -26.503354    4.3444759    4.3444759    4.3444759   -26.503354   -61731.803    30273.044    31379.249   -6419.6422   -7068.5522   -2623.2505    81.999685 
    2800    1569.1599   -121.51307    1.4198088   -120.09326   -6082.5538    4.3431097    4.3431097    4.3431097   -6082.5538   -68204.777     11757.54    38199.576    6383.0125    3122.1315   -6587.7754     81.92235 
    2900     1346.733   -121.29953    1.2185523   -120.08098    13364.708    4.3542777    4.3542777    4.3542777    13364.708   -64098.615    76514.897    27677.843    6627.2677   -2597.0453   -12627.587    82.555947 
    3000    1346.6695   -121.30934    1.2184949   -120.09085    4842.9247    4.3521965    4.3521965    4.3521965    4842.9247   -78530.791    31745.618    61313.947   -4032.6777   -5139.7806    31212.813     82.43763 
    3100    1519.4398   -121.48387    1.3748211   -120.10905   -12097.094    4.3473355    4.3473355    4.3473355   -12097.094   -68841.835    30911.604    1638.9489    5897.5283    3149.3302   -11723.816    82.161709 
    3200    1248.5719   -121.24226    1.1297341   -120.11253    10340.145     4.349458     4.349458     4.349458    10340.145   -59295.343    26488.669     63827.11    4057.1609     5163.834    4745.1493    82.282112 
    3300    1120.6284   -121.11834    1.0139681   -120.10437    15781.013    4.3462029    4.3462029    4.3462029    15781.013   -64818.499    119352.62   -7191.0833   -27.760036    4138.3875   -15199.849     82.09751 
    3400    1500.2013   -121.47129    1.3574137   -120.11388    9483.9875    4.3454846    4.3454846    4.3454846    9483.9875   -65350.051    60906.905    32895.108    269.86331    1611.2872     2340.676    82.056815 
    3500    919.57803   -120.94953   0.83205353   -120.11748   -2904.3935    4.3600912    4.3600912    4.3600912   -2904.3935   -65452.506    14217.681    42521.644    2986.8919    5832.7655   -34742.322    82.887057 
    3600     1983.435   -121.88791    1.7946537   -120.09326   -33813.378     4.353089     4.353089     4.353089   -33813.378   -70672.087   -41107.137    10339.088    -1646.107   -3441.3734    12743.294    82.488356 
    3700     959.7461   -120.96863   0.86839844   -120.10023    17802.799    4.3591095    4.3591095    4.3591095    17802.799   -64149.122    10361.737    107195.78   -13319.604   -4386.5838   -23737.782     82.83108 
    3800     1525.674   -121.46409    1.3804619   -120.08363   -36678.771    4.3623901    4.3623901    4.3623901   -36678.771   -75906.369   -18369.659   -15760.284    6851.7905    7239.3529    1860.9081    83.018236 
    3900    1322.0096   -121.26915    1.1961821   -120.07297    18151.041    4.3430742    4.3430742    4.3430742    18151.041   -44418.955   -28258.494    127130.57    9643.5438   -7240.6027   -11071.199     81.92034 
    4000    1522.5063   -121.48736    1.3775957   -120.10976    3306.2815    4.3474111    4.3474111    4.3474111    3306.2815   -63015.636    2515.8198     70418.66   -6662.4459   -8.9400259    5391.6012    82.165999 
    4100    1601.3388   -121.57585     1.448925   -120.12692   -1531.6375     4.346218     4.346218     4.346218   -1531.6375   -66581.499    34618.573    27368.014   -1115.2884    3759.4258   -4495.6828    82.098369 
    4200    1366.6988    -121.3701    1.2366178   -120.13348    6286.8391    4.3450096    4.3450096    4.3450096    6286.8391    -50688.33   -22822.638    92371.486   -1871.0726    -5243.363   -4746.5376    82.029909 
    4300    1596.6836   -121.55773    1.4447128   -120.11302   -20561.986    4.3541928    4.3541928    4.3541928   -20561.986   -70778.044    19888.485     -10796.4   -3959.1121   -3377.6855    361.64882     82.55112 
    4400     1271.188   -121.24221    1.1501976   -120.09202     13376.44    4.3532106    4.3532106    4.3532106     13376.44   -50210.382   -25175.915    115515.62    105.78953    3846.0544    6283.5751    82.495268 
    4500    1986.8238   -121.89049    1.7977199   -120.09277   -34504.984    4.3564356    4.3564356    4.3564356   -34504.984   -77425.467    16334.525   -42424.009    2284.0881    6088.3803   -45.790563    82.678748 
    4600    701.12527   -120.73328   0.63439288   -120.09888    19742.688    4.3643988    4.3643988    4.3643988    19742.688   -64765.575    84289.536    39704.103   -12443.802    6475.7884    17201.469    83.132968 
    4700    1419.9669    -121.3526    1.2848159   -120.06778   -15643.031    4.3554872    4.3554872    4.3554872   -15643.031   -74447.406    13996.313    13521.999   -14951.464   -319.54205   -3167.0414    82.624762 
    4800    1526.5179   -121.45082    1.3812254   -120.06959    6447.0273    4.3406541    4.3406541    4.3406541    6447.0273    -64552.04    112796.61   -28903.492    3751.8345   -4157.5586    -8778.121     81.78347 
    4900    1087.7914   -121.09927   0.98425654   -120.11502    38251.152      4.34791      4.34791      4.34791    38251.152   -49034.644    130786.35    33001.753   -4442.3862   -3260.1877    11227.644     82.19429 
    5000    1096.2631   -121.11283   0.99192187   -120.12091   -13095.152    4.3645461    4.3645461    4.3645461   -13095.152   -90142.068    46607.537    4249.0746   -1308.1973    3144.7246    13871.062    83.141387 
    5100    1581.7077   -121.54314    1.4311624   -120.11197    -31818.39    4.3523832    4.3523832    4.3523832    -31818.39   -69054.485   -4347.5666   -22053.118    8165.5543    342.65071    10288.573    82.448235 
    5200    1687.6078   -121.62922     1.526983   -120.10224    12137.377    4.3222865    4.3222865    4.3222865    12137.377   -35225.349    90543.156   -18905.675    -1509.924    662.37565   -12751.871    80.749651 
    5300    1390.6829   -121.38463    1.2583191   -120.12631    17943.784    4.3293405    4.3293405    4.3293405    17943.784    -22912.95    74649.361    2094.9406    5975.3267    -2563.418    2852.9842     81.14565 
    5400    1765.0143   -121.73744     1.597022   -120.14041   -11542.317     4.354729     4.354729     4.354729   -11542.317   -73151.535    49332.859   -10808.274   -4412.0541    2840.1368   -7158.1782    82.581621 
    5500    1219.7235   -121.24503    1.1036315    -120.1414    -26809.85     4.364605     4.364605     4.364605    -26809.85   -85372.896    50484.368   -45541.023     11116.56   -1443.2157    7140.4137    83.144751 
    5600    1059.4211   -121.07569   0.95858648   -120.11711    25896.505    4.3239125    4.3239125    4.3239125    25896.505   -47356.092    164306.43   -39260.826   -2630.8896   -8352.1823    10338.963    80.840817 
    5700    1066.5039   -121.08651   0.96499511   -120.12152    18608.441    4.3078699    4.3078699    4.3078699    18608.441   -8084.6884    98845.714   -34935.704   -869.09991    63.834897    35547.057    79.944343 
    5800    1098.2172   -121.16577   0.99369003   -120.17208    6706.4262    4.3397596    4.3397596    4.3397596    6706.4262   -61288.327    134736.99   -53329.388    -6962.465   -6721.0002     -2856.45    81.732918 
    5900    1144.5896   -121.18196    1.0356487   -120.14631    -11948.16     4.370443     4.370443     4.370443    -11948.16   -77367.952    109025.15   -67501.677   -2641.6165   -5152.7798    -11660.42    83.478835 
    6000    1852.0047   -121.77057    1.6757328   -120.09484   -39616.324    4.3453169    4.3453169    4.3453169   -39616.324    -50671.45   -1752.8346   -66424.687    1392.9339    1664.8463    27405.873    82.047314 
    6100    1361.4523   -121.31502    1.2318707   -120.08315   -3860.4859    4.3161181    4.3161181    4.3161181   -3860.4859   -8268.9034    48956.417   -52268.972   -4418.4253   -2441.3227    24158.835    80.404425 
    6200    1673.3593   -121.64042    1.5140907   -120.12633   -3041.1488    4.3263275    4.3263275    4.3263275   -3041.1488   -47327.097    70028.033   -31824.383   -929.03849   -3372.4454   -18332.686    80.976348 
    6300     1920.086   -121.88218    1.7373341   -120.14485   -54109.391    4.3665052    4.3665052    4.3665052   -54109.391   -82436.122   -3399.2807   -76492.771     3954.318    161.67441   -7751.6974    83.253395 
    6400    1231.1612   -121.22579    1.1139805    -120.1118   -33640.288    4.3631783    4.3631783    4.3631783   -33640.288   -79587.198    42419.886   -63753.553   -424.49052    4649.1874    22654.082    83.063244 
    6500    1338.3393   -121.27887    1.2109575   -120.06791     10319.66     4.323257     4.323257     4.323257     10319.66   -29320.635    66892.547   -6612.9312   -2664.1297   -5080.8488    20414.077    80.804057 
    6600    1462.6278   -121.41282    1.3234164    -120.0894    22163.076     4.328175     4.328175     4.328175    22163.076   -32812.238    121403.63   -22102.161    3158.7783   -1602.0524   -21917.992    81.080129 
    6700     951.6493   -120.97116   0.86107229   -120.11009    9099.7646    4.3592316    4.3592316    4.3592316    9099.7646   -70029.909    151414.51   -54085.304   -9576.0207      1993.59   -23816.544    82.838041 
    6800    920.23521   -120.94887   0.83264816   -120.11622   -13890.255    4.3591579    4.3591579    4.3591579   -13890.255   -69509.401    89334.232   -61495.597   -1664.0967   -1264.4523    29788.962    82.833839 
    6900    1813.0417   -121.74263    1.6404782   -120.10215   -3566.0333    4.3306045    4.3306045    4.3306045   -3566.0333   -40699.031    33317.997   -3317.0662    695.52147     6147.556   -11740.159    81.216745 
    7000     1299.542   -121.32149    1.1758529   -120.14564    14195.615    4.3357381    4.3357381    4.3357381    14195.615   -45388.026    104120.36   -16145.486   -1305.8768    5842.2756    1425.6967    81.505912 
    7100    1250.3831   -121.30106    1.1313729   -120.16968   -11873.898    4.3590788    4.3590788    4.3590788   -11873.898   -61452.088    108737.65   -82907.258   -71.558216    2691.8422    5057.1125    82.829334 
    7200    1767.7892   -121.74828    1.5995328   -120.14875   -29329.021    4.3418054    4.3418054    4.3418054   -29329.021   -42705.184    28978.435   -74260.313    1394.6839   -2413.7119    3730.5479    81.848566 
    7300    1992.1021   -121.92503    1.8024958   -120.12254   -5792.3602    4.3140684    4.3140684    4.3140684   -5792.3602   -24683.546    34547.882   -27241.417   -5030.3345    1226.2492     17163.08    80.289929 
    7400    1891.0223   -121.85969    1.7110368   -120.14865    -38396.46    4.3344391    4.3344391    4.3344391    -38396.46   -58784.871    4475.9011   -60880.409    7944.3235    6431.1679   -1618.2745    81.432676 
    7500    913.73125    -120.9612   0.82676324   -120.13444   -1643.8332    4.3636965    4.3636965    4.3636965   -1643.8332   -53376.395    109218.35    -60773.45   -752.01247   -2032.3584   -19864.065    83.092839 
    7600    1019.6769   -121.02655   0.92262506   -120.10393   -185.38702    4.3501879    4.3501879    4.3501879   -185.38702   -52130.249    122830.96   -71256.876    13900.398   -3708.0616    18533.921    82.323542 
    7700    1495.9943   -121.45468    1.3536071   -120.10108    25605.079    4.3137891    4.3137891    4.3137891    25605.079    -35449.44    124459.68   -12194.998   -1525.5156    2875.1004    21015.266    80.274335 
    7800    1204.2291   -121.23245    1.0896118   -120.14284    33759.866    4.3226365    4.3226365    4.3226365    33759.866   -40122.118    163139.15   -21737.433    14665.273    5379.0277   -22098.237    80.769268 
    7900    1342.7032   -121.35534    1.2149061   -120.14043   -55695.636    4.3651492    4.3651492    4.3651492   -55695.636   -67120.524   -26381.503    -73584.88   -6092.9206   -8918.7449   -27481.973    83.175855 
    8000    985.47786   -120.98588   0.89168108    -120.0942    4317.0435    4.3487149    4.3487149    4.3487149    4317.0435   -76784.295    106683.48   -16948.059   -15296.836   -4342.7071    3789.4364    82.239943 
    8100    1446.3149   -121.37181    1.3086561   -120.06315    38240.815    4.3059756    4.3059756    4.3059756    38240.815   -16896.496    135958.51   -4339.5639    17836.807    5928.5872   -5205.0872    79.838926 
    8200    1120.4637   -121.13136    1.0138191   -120.11754    26462.941    4.3167753    4.3167753    4.3167753    26462.941    10260.426    114463.34   -45334.948   -2563.8686   -6364.6915   -21678.204    80.441158 
    8300     936.1976   -120.98571   0.84709126   -120.13862   -41994.145    4.3544378    4.3544378    4.3544378   -41994.145   -64257.759    16843.777   -78568.451    2568.2251   -8744.7372   -34132.333    82.565053 
    8400    1332.4257   -121.31347    1.2056067   -120.10786   -32282.072     4.343506     4.343506     4.343506   -32282.072   -88498.225    17611.844   -25959.836    13541.635    5627.0188     9424.182    81.944776 
    8500    1048.0716   -121.03814    0.9483172   -120.08982    14425.803    4.3134093    4.3134093    4.3134093    14425.803   -18041.776    51818.892    9500.2923   -984.89895   -9284.7547    13788.937    80.253137 
    8600      1630.67   -121.58109    1.4754645   -120.10562   -503.48143    4.3193288    4.3193288    4.3193288   -503.48143   -868.58117    26772.549   -27414.412   -1833.1185   -2599.2658    1364.4233    80.583995 
    8700    1472.7889   -121.44203    1.3326103   -120.10942   -18917.397      4.35883      4.35883      4.35883   -18917.397    -49668.35    14995.001   -22078.843    4001.5062    403.71139   -7279.4942    82.815151 
    8800    1097.0542   -121.05844   0.99263766    -120.0658   -49124.554    4.3690821    4.3690821    4.3690821   -49124.554   -86857.149   -39222.201   -21294.311    11546.433   -422.36886    7413.9563    83.400876 
    8900    1502.8994   -121.40778     1.359855   -120.04792   -19371.904    4.3144816    4.3144816    4.3144816   -19371.904   -48301.956   -15855.509    6041.7539    10960.712    5398.0757    10527.745       80.313 
    9000    1767.7951   -121.64403    1.5995382   -120.04449    39998.849    4.2892033    4.2892033    4.2892033    39998.849    49082.175    37019.813    33894.557   -6259.6847   -2804.9022   -10079.354    78.909612 
    9100    1560.8741   -121.54511    1.4123117    -120.1328   -31447.249    4.3501312    4.3501312    4.3501312   -31447.249   -39121.581   -22486.148   -32734.017   -152.66073   -3172.8182   -14095.709    82.320325 
    9200    728.60718   -120.74284   0.65925909   -120.08358   -7154.1332    4.3633134    4.3633134    4.3633134   -7154.1332   -37974.323     38509.85   -21997.927   -6563.1873    3872.8565    8604.5997    83.070962 
    9300    1788.4305   -121.65822    1.6182095   -120.04001    2528.2395     4.317419     4.317419     4.317419    2528.2395   -21015.558    3751.6634    24848.614    11029.762    -6401.525    13326.943    80.477153 
    9400    1926.2459   -121.78871    1.7429077   -120.04581    30468.386    4.3108892    4.3108892    4.3108892    30468.386    25374.729    69630.275   -3599.8461   -6422.3282   -730.72625   -12997.418    80.112555 
    9500    1284.2788   -121.24314    1.1620424    -120.0811    8646.6561    4.3421844    4.3421844    4.3421844    8646.6561   -17885.327    50826.619   -7001.3245   -2091.4917   -639.60311    14009.003    81.869998 
    9600    1381.8401   -121.31723    1.2503179   -120.06691   -27659.452    4.3527752    4.3527752    4.3527752   -27659.452   -35984.006   -50165.757    3171.4072   -704.56458   -4442.8035    14227.512    82.470518 
    9700    1658.1727   -121.55626    1.5003495   -120.05591   -4134.0915    4.3367285    4.3367285    4.3367285   -4134.0915   -28517.123    25655.464   -9540.6152    11025.752    3113.9258    8095.6175    81.561784 
    9800    1308.8279   -121.25208    1.1842549   -120.06783    60333.604    4.3189637    4.3189637    4.3189637    60333.604    36242.401    105764.44     38993.97     -15876.2   -5175.7909   -23688.435     80.56356 
    9900    1520.9879   -121.47847    1.3762218   -120.10225   -16179.978    4.3398171    4.3398171    4.3398171   -16179.978   -41442.121   -18709.528    11611.716    768.18437   -6709.8885   -4978.9224    81.736168 
   10000    996.64226   -120.97815   0.90178286   -120.07637   -5648.2678    4.3475401    4.3475401    4.3475401   -5648.2678   -28192.469    6579.0826    4668.5831   -11320.358    1803.5678    13690.812    82.173312 
   10100    1639.8714   -121.52827    1.4837901   -120.04448    21148.206    4.3252713    4.3252713    4.3252713    21148.206    26254.403    36304.332    885.88378   -3149.6349   -15124.343   -14872.263    80.917056 
   10200    1867.3267   -121.74572    1.6895964   -120.05612    7063.4236    4.3252276    4.3252276    4.3252276    7063.4236    34936.786   -6569.6949   -7176.8208   -1434.0265   -5034.8683    -5844.012    80.914599 
   10300    1283.4641   -121.23249    1.1613053   -120.07119   -6498.9495    4.3464922    4.3464922    4.3464922   -6498.9495   -46143.356    7537.6305    19108.877    -14943.04    3045.7947    10066.473    82.113905 
   10400    1383.2094   -121.30351     1.251557   -120.05195   -27206.339    4.3452797    4.3452797    4.3452797   -27206.339    1444.9365   -64796.951   -18267.002   -6329.8605    3889.1467    1967.7232    82.045205 
   10500    1228.3224   -121.14131     1.111412    -120.0299    36823.514    4.3136212    4.3136212    4.3136212    36823.514    71275.416      19146.3    20048.825   -1015.5625    4065.8532   -16368.353    80.264965 
   10600    1894.7656   -121.77248    1.7144237   -120.05806   -6964.1932    4.3227769    4.3227769    4.3227769   -6964.1932   -18459.019    2600.7653   -5034.3264   -2986.3188   -3464.2693   -15254.539    80.777141 
   10700    1037.6897   -121.00288   0.93892348   -120.06395   -9181.9738    4.3515333    4.3515333    4.3515333   -9181.9738   -7681.5005   -11489.279   -8375.1415   -21835.068   -12621.794    10172.453    82.399949 
   10800    1491.6427   -121.39816    1.3496697   -120.04849   -476.76091    4.3241219    4.3241219    4.3241219   -476.76091   -11778.319    13387.969    -3039.933    4053.3562    4302.6747    4286.6198    80.852563 
   10900    1243.0157   -121.19028    1.1247067   -120.06557    14299.611    4.3150782    4.3150782    4.3150782    14299.611    79192.497    3750.8548   -40044.518   -2141.6816   -1736.9311   -14072.085    80.346322 
   11000    1552.8398   -121.48421    1.4050421   -120.07917   -14289.341    4.3349772    4.3349772    4.3349772   -14289.341   -16490.635   -16279.992   -10097.397   -13466.871   -5830.8016   -30291.117    81.463012 
   11100      1691.26   -121.59377    1.5302876   -120.06348    77.390021    4.3361248    4.3361248    4.3361248    77.390021   -16736.216    40562.718   -23594.332    2199.7437    13446.496    5484.2545    81.527725 
   11200    1074.3666   -121.03622   0.97210944   -120.06411   -38568.292    4.3460934    4.3460934    4.3460934   -38568.292    -8120.324   -39583.545   -68001.007   -16749.248     2107.103   -18048.868    82.091308 
   11300    1132.2769   -121.08349     1.024508   -120.05898   -4944.1822     4.327037     4.327037     4.327037   -4944.1822    26490.151   -38957.994   -2364.7029    52.690886    3443.5685   -9782.7268     81.01619 
   11400    1424.1105   -121.35641    1.2885651   -120.06784    34895.671    4.3202658    4.3202658    4.3202658    34895.671   -14173.771    101369.01    17491.777    20263.165   -3499.0471     16314.32    80.636452 
   11500    1600.7346   -121.52622    1.4483783   -120.07785   -34885.855    4.3433701    4.3433701    4.3433701   -34885.855   -30128.938    -36026.14   -38502.487   -6314.7878   -5037.1397   -19481.939    81.937088 
   11600    857.41331   -120.85419   0.77580558   -120.07839     36377.83    4.3189617    4.3189617    4.3189617     36377.83    87567.003    51353.512   -29787.024    -17036.35    3180.7368    -25067.91    80.563453 
   11700    1700.9857   -121.62356    1.5390876   -120.08447   -1369.8297    4.3093988    4.3093988    4.3093988   -1369.8297    16485.459   -929.59443   -19665.353    -2861.298    4820.9595   -14263.834    80.029492 
   11800    1212.3433   -121.19756    1.0969537    -120.1006   -23814.635    4.3431593    4.3431593    4.3431593   -23814.635    2140.7799   -58731.094    -14853.59    9641.7054    5538.4317    20251.547    81.925155 
   11900    1283.2229   -121.21954    1.1610871   -120.05845   -23035.294    4.3457026    4.3457026    4.3457026   -23035.294    5193.9114   -30503.817   -43795.977    12491.024   -7631.8661    2979.1879    82.069162 
   12000    1364.1748   -121.27826     1.234334   -120.04392    8400.0757    4.3193641    4.3193641    4.3193641    8400.0757    14027.761    46031.797   -34859.331   -14247.701   -3287.8586   -47062.315    80.585971 
   12100    1658.8377   -121.56178    1.5009512   -120.06083    10494.147    4.3124047    4.3124047    4.3124047    10494.147    21317.516     26483.48   -16318.555     1437.063    2223.7438   -8224.1565    80.197077 
   12200    1436.6467   -121.40103    1.2999081   -120.10112   -9046.1417    4.3453176    4.3453176    4.3453176   -9046.1417   -48108.618    58007.336   -37037.143    10350.858   -17963.831    17337.891    82.047356 
   12300    1676.2296   -121.58425    1.5166878   -120.06756   -75049.968    4.3663668    4.3663668    4.3663668   -75049.968   -69544.651    -63866.89   -91738.363    5817.8694    4369.7179   -2229.2421    83.245475 
   12400    1563.1207   -121.47646    1.4143445   -120.06212    35528.483    4.3056227    4.3056227    4.3056227    35528.483    23511.358    111834.29   -28760.195   -3684.9929    13579.163    -14903.21    79.819299 
   12500    1615.7761    -121.5377    1.4619881   -120.07572    48061.138     4.292078     4.292078     4.292078    48061.138    2063.3025    142874.65   -754.53564    950.22789   -2858.7501   -3352.1828    79.068376 
   12600    1406.4383   -121.39312    1.2725749   -120.12055   -31758.203    4.3507394    4.3507394    4.3507394   -31758.203   -53548.324   -7517.8378   -34208.449    25191.394    4483.5083    13536.094    82.354855 
   12700    971.45541   -120.96522   0.87899327   -120.08623   -4885.7256    4.3629739    4.3629739    4.3629739   -4885.7256   -63042.173    82735.778   -34350.782    8530.0762     4713.973   -5973.9427    83.051571 
   12800    2193.4889   -122.05682    1.9847149    -120.0721    2854.3468    4.3077819    4.3077819    4.3077819    2854.3468   -27069.821    36847.877   -1215.0155   -5995.6902   -3142.0066   -5480.7546    79.939444 
   12900    2096.8866   -121.95261     1.897307   -120.05531    48288.874    4.2744107    4.2744107    4.2744107    48288.874    33721.336    86924.331    24220.955    774.63461   -3001.6262    3514.3875    78.095992 
   13000    1077.2799   -121.10426   0.97474547   -120.12951   -8914.2712    4.3315848    4.3315848    4.3315848   -8914.2712   -53620.528    52599.585    -25721.87    9492.0628    2137.5446    25444.791     81.27191 
   13100     1157.699   -121.12782    1.0475104   -120.08031   -54912.325    4.3569447    4.3569447    4.3569447   -54912.325     -98519.4   -37493.825   -28723.749   -9064.2893    1056.4502    3438.9864    82.707739 
   13200    1684.0507   -121.57968    1.5237645   -120.05591    6530.9153    4.3145125    4.3145125    4.3145125    6530.9153   -36096.469    45848.956     9840.259   -13267.378    6517.1523   -684.46409    80.314728 
   13300    1840.3124    -121.7215    1.6651533   -120.05635    27381.583    4.2969142    4.2969142    4.2969142    27381.583   -7504.0792    64506.373    25142.457   -1309.9448    -4877.916   -13325.589    79.335956 
   13400    1094.3159   -121.08432   0.99016003   -120.09416    23692.035    4.3134128    4.3134128    4.3134128    23692.035   -35691.638    79769.289    26998.455    2326.5516   -5807.6339    26584.094    80.253333 
   13500    1028.2756   -121.03657   0.93040541   -120.10617    -11242.59    4.3467469    4.3467469    4.3467469    -11242.59   -82763.793   -26417.513    75453.536   -9975.3906   -2538.9516    12675.268    82.128345 
   13600     1803.387   -121.69263    1.6317425   -120.06089   -25166.855    4.3435797    4.3435797    4.3435797   -25166.855   -83174.176   -6444.2172    14117.827   -1220.3659     607.9857    5263.9203    81.948947 
   13700    1445.9453   -121.34437    1.3083217   -120.03605    34798.486    4.2988365    4.2988365    4.2988365    34798.486    606.25052    44332.609    59456.598    4675.3438   -41.796336    26234.372    79.442478 
   13800    988.64818   -120.96631   0.89454965   -120.07176   -13333.647    4.3100035    4.3100035    4.3100035   -13333.647   -28029.029   -37263.927    25292.015   -24138.568    2025.4415    10933.236    80.063188 
   13900      1184.39   -121.13437     1.071661   -120.06271   -17059.248     4.345294     4.345294     4.345294   -17059.248   -87026.963    27458.152    8391.0676   -22135.969    8341.9713   -685.35351    82.046016 
   14000    1990.8792   -121.85015    1.8013893   -120.04876   -32910.084    4.3361287    4.3361287    4.3361287   -32910.084    -63899.24   -18220.525   -16610.487    2873.6847    3707.5537   -5072.1526    81.527947 
   14100    997.60689   -120.96267   0.90265568   -120.06002    16231.917     4.293201     4.293201     4.293201    16231.917   -14937.335    47607.154    16025.931   -5402.8562    1935.5564    36085.833    79.130455 
   14200    523.60656   -120.58126   0.47377022   -120.10749    47855.677    4.3040581    4.3040581    4.3040581    47855.677   -9877.2183     40666.72    112777.53   -20787.522    4914.7973    20416.581    79.732315 
   14300    1680.8262   -121.59068    1.5208469   -120.06983   -28604.329    4.3514222    4.3514222    4.3514222   -28604.329   -63895.575   -29123.848    7206.4376   -3438.6231   -3750.4007   -3572.9595    82.393637 
   14400    1653.7935   -121.55127    1.4963871   -120.05488    18310.063    4.3171111    4.3171111    4.3171111    18310.063   -39688.464    9526.4733     85092.18   -401.25991   -1113.0834    1190.4441    80.459936 
   14500    999.37314    -120.9552   0.90425382   -120.05095   -6868.2876    4.2964338    4.2964338    4.2964338   -6868.2876   -21901.643   -13148.334    14445.115   -25164.248    6045.3281    25416.805    79.309346 
   14600    1289.3677   -121.24337     1.166647   -120.07672   -28130.699    4.3225926    4.3225926    4.3225926   -28130.699   -41415.042   -35971.064   -7005.9917   -9265.0209   -2659.6046    16020.422    80.766807 
   14700    1905.7786    -121.7921    1.7243885   -120.06771   -104.23026    4.3331715    4.3331715    4.3331715   -104.23026   -54094.714   -22240.862    76022.885    6000.5788   -5558.8083   -8810.6955    81.361251 
   14800    1281.7368   -121.24153    1.1597424   -120.08178    21268.611    4.3270131    4.3270131    4.3270131    21268.611   -34012.926     24795.17    73023.588   -17171.062    5539.5502    7747.6174    81.014848 
   14900     963.2003   -120.94839   0.87152387   -120.07687    24272.331     4.320315     4.320315     4.320315    24272.331   -27100.647    66071.601    33846.039   -17723.519    1926.1046    44708.648    80.639203 
   15000    1422.0112   -121.35639    1.2866656   -120.06972   -2310.4886    4.3367643    4.3367643    4.3367643   -2310.4886   -47620.816    38812.575    1876.7751    13366.995    8385.0406    28871.308    81.563803 
   15100    1638.0594   -121.53697    1.4821506   -120.05481    -9900.418    4.3320398    4.3320398    4.3320398    -9900.418   -62818.969    23251.445    9866.2699   -14023.327    8669.8383    9995.7551    81.297521 
   15200    1573.0488   -121.47479    1.4233276   -120.05147   -11789.381    4.3077602    4.3077602    4.3077602   -11789.381   -30103.692    -17585.75    12321.299   -28276.874    5939.6095   -12342.991    79.938233 
   15300    1161.6718   -121.12674    1.0511051   -120.07563    3199.8582     4.319001     4.319001     4.319001    3199.8582   -7622.5265   -7008.9783    24231.079    4034.5433   -3703.1502    23255.393    80.565649 
   15400    1715.6978   -121.61364    1.5523995   -120.06124   -23121.095    4.3420383    4.3420383    4.3420383   -23121.095   -31809.816   -4963.0684     -32590.4    10694.278   -8074.2749   -2291.2019    81.861738 
   15500    1856.7548   -121.72074    1.6800307   -120.04071   -19906.881    4.3226284    4.3226284    4.3226284   -19906.881   -39305.846   -5154.3167   -15260.481   -25220.531   -3800.1793   -26988.066    80.768812 
   15600     1036.592    -120.9746   0.93793018   -120.03667    15403.275    4.3120273    4.3120273    4.3120273    15403.275   -9731.1909    27126.453    28814.564   -30.314412   -9364.9181    20954.944    80.176024 
   15700    1571.5139   -121.47983    1.4219388   -120.05789   -20329.018    4.3316392    4.3316392    4.3316392   -20329.018   -34762.637   -32337.941    6113.5249    26689.999   -1608.5217    586.48624    81.274969 
   15800    2093.1303   -121.94714    1.8939083   -120.05323   -8995.0023    4.3183355    4.3183355    4.3183355   -8995.0023   -18845.449   -7504.9731   -634.58449   -11239.863   -3095.2598    4652.8907    80.528413 
   15900    1312.9313   -121.24809    1.1879678   -120.06012    29372.169    4.3013313    4.3013313    4.3013313    29372.169    25842.952    58227.671    4045.8855   -30094.643   -9981.2437    2067.1661    79.580872 
   16000    1357.1494   -121.30699    1.2279773   -120.07901   -27362.791    4.3254016    4.3254016    4.3254016   -27362.791   -47062.522   -60494.163    25468.312    21007.576    8433.0342   -7441.7172    80.924367 
   16100    1647.6304   -121.55035    1.4908106   -120.05954    437.01424    4.3340074    4.3340074    4.3340074    437.01424   -36279.386    13467.788     24122.64    24311.292    1393.2036     9036.889    81.408347 
   16200    1651.5419   -121.54297    1.4943498   -120.04862    24641.905    4.3130215    4.3130215    4.3130215    24641.905    1278.6282    26364.114    46282.972   -16598.457   -7991.8153   -8875.8698    80.231491 
   16300    1125.7051     -121.085    1.0185616   -120.06644    2423.7808     4.310352     4.310352     4.310352    2423.7808    -27693.08   -1170.9694    36135.392   -16037.657    7351.2053   -10202.731    80.082609 
   16400     1174.862   -121.13025    1.0630399   -120.06721   -13155.723    4.3296793    4.3296793    4.3296793   -13155.723    -50596.16   -6950.4236    18079.415    26801.193   -4425.3879   -12887.646    81.164701 
   16500    1698.0101   -121.58603    1.5363952   -120.04964    12107.416    4.3229718    4.3229718    4.3229718    12107.416   -3878.0967    22708.099    17492.247    6417.2801   -1578.1654   -5384.3769    80.788063 
   16600    1346.0087   -121.27277    1.2178969   -120.05488    -4551.561    4.3201988    4.3201988    4.3201988    -4551.561    -3122.184    2000.4382   -12532.937   -12581.022    7504.8223     249.6981    80.632701 
   16700    848.62755    -120.8303   0.76785604   -120.06244    -9967.103     4.318657     4.318657     4.318657    -9967.103   -57447.401   -3760.8071    31306.899    7029.9367    522.31277   -6198.7575    80.546399 
   16800    1721.6002   -121.61109      1.55774   -120.05335   -2695.9244    4.3129507    4.3129507    4.3129507   -2695.9244   -24659.098    12403.499    4167.8255    13061.474   -156.77992    11857.846    80.227542 
   16900    1236.1506   -121.17887    1.1184951   -120.06037    7331.2721    4.3312656    4.3312656    4.3312656    7331.2721   -17711.886     14629.14    25076.562    -14608.58    15622.273   -22056.189    81.253943 
   17000    1295.5585   -121.22334    1.1722485   -120.05109   -17853.323    4.3320885    4.3320885    4.3320885   -17853.323   -46748.578    44.948492   -6856.3406   -12111.375    5014.0413    1555.9391    81.300264 
   17100    1253.2018   -121.18508    1.1339233   -120.05116     20589.22    4.3196876    4.3196876    4.3196876     20589.22   -20089.948    18876.944    62980.664    19559.941    5264.0986    -19639.94     80.60408 
   17200    1395.6876   -121.31729    1.2628474   -120.05444     15824.17    4.3193366    4.3193366    4.3193366     15824.17   -513.05106    36473.296    11512.266    1809.0155    22514.515     10073.42    80.584431 
   17300    1453.6098   -121.36801    1.3152567   -120.05275    12145.812    4.3136104    4.3136104    4.3136104    12145.812   -17634.074    30734.365    23337.146   -5167.9815     7754.377    11322.631    80.264362 
   17400     841.9588    -120.8335   0.76182202   -120.07168    28168.251    4.3333462    4.3333462    4.3333462    28168.251   -21521.099    51284.854    54740.997   -2118.4839    -7690.068    -11824.37    81.371094 
   17500    1776.6162   -121.65072    1.6075197    -120.0432   -31623.978    4.3453076    4.3453076    4.3453076   -31623.978   -27945.692     -25042.1   -41884.141    2630.9096   -2349.6485    23523.481    82.046787 
   17600    1344.2671   -121.25506    1.2163211   -120.03874    38707.961    4.3045916    4.3045916    4.3045916    38707.961   -14179.521    97014.266    33289.137   -1310.7631    2526.8729   -753.51614    79.761966 
   17700    1209.8621   -121.15032    1.0947087   -120.05561    17475.916    4.2974508    4.2974508    4.2974508    17475.916   -20312.183     9526.943    63212.987   -34233.728    5323.3798   -5276.3239    79.365682 
   17800    1415.0885   -121.35597    1.2804018   -120.07557   -44288.816    4.3302827    4.3302827    4.3302827   -44288.816   -45760.197       -72529   -14577.251   -6302.4164    1555.7818   -4937.6713    81.198641 
   17900    1606.9541   -121.50893    1.4540059   -120.05493   -15747.006    4.3304144    4.3304144    4.3304144   -15747.006   -41407.079   -6214.3808     380.4403    23580.206   -5225.1593   -9478.5688    81.206047 
   18000    1370.0827   -121.29282    1.2396796   -120.05314   -20894.969    4.3283786    4.3283786    4.3283786   -20894.969   -67616.197     24350.64    -19419.35   -32981.093   -8499.0625    15882.461     81.09157 
   18100    1441.8247   -121.36735    1.3045933   -120.06276   -32128.042    4.3183335    4.3183335    4.3183335   -32128.042   -51247.894   -43950.008   -1186.2262    -51309.57   -2655.9845   -14514.757    80.528304 
   18200    1713.2151   -121.61252     1.550153   -120.06237    40112.049    4.2981761    4.2981761    4.2981761    40112.049    23503.253     101424.7   -4591.8051    6640.6616    3141.4371    11261.114     79.40587 
   18300    1864.0626   -121.78089     1.686643   -120.09425   -21201.892    4.3269684    4.3269684    4.3269684   -21201.892   -19351.184   -13960.347   -30294.147    4313.1472   -590.92121   -5942.7229    81.012341 
   18400    1258.7356   -121.22609    1.1389304   -120.08716   -38709.367    4.3279909    4.3279909    4.3279909   -38709.367    -35884.95    -33514.17   -46728.982   -24091.697    4326.2905    16159.368    81.069783 
   18500    1115.3184   -121.07939    1.0091636   -120.07022    36915.674    4.3018577    4.3018577    4.3018577    36915.674    92755.327    16536.242    1455.4541   -14198.754    16287.303    22186.804    79.610091 
   18600    2135.1262   -122.01039     1.931907   -120.07848   -16048.881    4.3222844    4.3222844    4.3222844   -16048.881   -7388.4611    4147.9157   -44906.096    10506.205   -5747.9914   -12798.785    80.749535 
   18700     1505.297    -121.4283    1.3620244   -120.06628    17276.166     4.327058     4.327058     4.327058    17276.166    84691.635     3913.076   -36776.214    -10004.36   -8132.2267    9702.3015    81.017374 
   18800    1249.8832    -121.1962    1.1309206   -120.06528   -3333.5269    4.3212091    4.3212091    4.3212091   -3333.5269   -20295.896    46887.185   -36591.869   -13750.937    14410.318    31661.085    80.689281 
   18900    1081.6043   -121.04853   0.97865832   -120.06987   -32996.591    4.3274086    4.3274086    4.3274086   -32996.591   -70281.677     4245.645   -32953.742   -28355.224    6325.8014    4328.4578    81.037068 
   19000    1573.5147   -121.47801    1.4237492   -120.05426    9137.2213    4.3100815    4.3100815    4.3100815    9137.2213   -36102.961    73928.908   -10414.283    11816.958   -2566.0633    4723.5635    80.067532 
   19100    1621.8302   -121.54381     1.467466   -120.07634    -9836.368    4.3226241    4.3226241    4.3226241    -9836.368    23900.143       -33302   -20107.246    2304.0919    5012.7932    12309.086    80.768573 
   19200      1188.06   -121.15928    1.0749817    -120.0843   -35542.512    4.3261031    4.3261031    4.3261031   -35542.512   -50924.774   -53046.265   -2656.4958   -24500.816   -3609.1684    8563.7121    80.963745 
   19300    1184.7771   -121.13668    1.0720112   -120.06467    34775.298    4.2914481    4.2914481    4.2914481    34775.298    15854.289      59566.2    28905.406   -12136.576    6988.9501   -2787.6609    79.033568 
   19400    1117.7717   -121.11864    1.0113833   -120.10725    29075.042    4.3216811    4.3216811    4.3216811    29075.042    28355.202    84610.054   -25740.131    3211.0682    7141.3719   -28536.224    80.715727 
   19500    1843.9786   -121.73139    1.6684706   -120.06292   -25555.451    4.3471384    4.3471384    4.3471384   -25555.451   -34686.293   -5776.2408    -36203.82    36071.468   -6123.5142   -12178.401    82.150536 
   19600    1434.0234   -121.34841    1.2975345   -120.05088    39504.955    4.3111657    4.3111657    4.3111657    39504.955    20739.543    69897.273    27878.051     -7813.36    13775.505    8570.8686    80.127972 
   19700    1232.8477   -121.16973    1.1155065   -120.05422    21920.686    4.2993207    4.2993207    4.2993207    21920.686    38484.283    22329.274    4948.5021   -29000.815    28420.089   -25144.986    79.469326 
   19800    1234.7949   -121.18958    1.1172684   -120.07231    4630.7905    4.3231951    4.3231951    4.3231951    4630.7905   -22349.188    67799.142   -31557.583   -5346.1772    4626.1624   -2640.9071    80.800583 
   19900    1929.3792   -121.80542    1.7457429   -120.05967   -35298.801    4.3404842    4.3404842    4.3404842   -35298.801   -42308.136   -19473.016   -44115.251    22454.636   -2543.6432    10338.891    81.773866 
   20000    1288.1626   -121.21824    1.1655566   -120.05268   -3728.9977    4.3222451    4.3222451    4.3222451   -3728.9977   -29476.222   -9237.2657    27526.495   -4691.2539    14491.372    3109.5774    80.747331 
   20100    1277.4343   -121.20166    1.1558494   -120.04581    14362.378    4.3043943    4.3043943    4.3043943    14362.378    5150.5244    4916.5206    33020.089   -36459.015    12778.249   -18869.683       79.751 
   20200    1672.6681   -121.57225    1.5134652   -120.05878   -22228.559    4.3251186    4.3251186    4.3251186   -22228.559   -12929.142   -10877.576   -42878.959    14417.305    -4552.875   -30192.217    80.908482 
   20300    1512.7467   -121.41957     1.368765    -120.0508   -28403.602    4.3366337    4.3366337    4.3366337   -28403.602   -63215.388   -29892.971    7897.5531    16958.429   -9796.3457   -8360.4664     81.55643 
   20400    1410.2855   -121.31873     1.276056   -120.04267   -9557.4625    4.3204767    4.3204767    4.3204767   -9557.4625   -41055.146   -36238.621    48621.379   -24639.791    10367.339    12456.793    80.648262 
   20500    1434.8441   -121.34994    1.2982771   -120.05166   -8702.6949    4.3210632    4.3210632    4.3210632   -8702.6949   -29450.883    30480.385   -27137.586   -16930.221    13518.006   -12161.627    80.681108 
   20600    2084.1323    -121.9326    1.8857667   -120.04683   -6946.4282     4.327378     4.327378     4.327378   -6946.4282   -21018.133    1565.8092   -1386.9614    2286.8556   -6412.8089   -10988.919     81.03535 
   20700    1588.4888   -121.48596    1.4372981   -120.04866    5989.6877    4.3311485    4.3311485    4.3311485    5989.6877   -21535.021    20074.816    19429.267    4664.7516    9120.4955   -5910.0311    81.247356 
   20800    1150.2798   -121.08842    1.0407973   -120.04762   -23777.663    4.3338644    4.3338644    4.3338644   -23777.663   -34769.398   -6406.9129   -30156.679   -12186.696    8804.5226   -13849.887    81.400291 
   20900    1750.8829   -121.62303    1.5842356    -120.0388    195.01814    4.3105584    4.3105584    4.3105584    195.01814   -14919.807    13357.642    2147.2198     -391.907   -3069.6812   -18671.137    80.094113 
   21000    1760.3102   -121.63932    1.5927657   -120.04655    50291.612    4.3082601    4.3082601    4.3082601    50291.612    46424.323    76749.257    27701.257    10059.407    5353.2324   -5425.3588    79.966067 
   21100    1499.1471   -121.42088    1.3564598   -120.06442   -2774.6855    4.3419052    4.3419052    4.3419052   -2774.6855   -29158.893    9402.1437    11432.693   -2024.6408    26201.215    11695.998    81.854205 
   21200    1583.7538   -121.45872    1.4330137    -120.0257   -17629.153     4.347541     4.347541     4.347541   -17629.153    -40454.96    29328.408   -41760.906    -8088.976    15182.128    10078.149    82.173361 
   21300    1639.4145   -121.49605    1.4833767   -120.01267    39881.925    4.3041995    4.3041995    4.3041995    39881.925    54636.144    37603.268    27406.363   -7166.5335   -8771.0771   -13848.018    79.740177 
   21400    1501.8379   -121.38996    1.3588945   -120.03106    24744.302    4.2893309    4.2893309    4.2893309    24744.302      31713.8    17880.541    24638.564   -9441.6584    8045.9225   -12308.357     78.91665 
   21500    971.15955   -120.95778   0.87872557   -120.07906   -24697.118    4.3330631    4.3330631    4.3330631   -24697.118   -25657.185    3281.0651   -51715.235    2993.3528    33870.032    13486.478    81.355151 
   21600    1556.9664   -121.45681    1.4087759   -120.04803   -19449.129     4.339114     4.339114     4.339114   -19449.129   -5724.5817   -21903.674    -30719.13   -4187.2884   -1485.5262    16971.558    81.696447 
   21700    1662.9632   -121.53285    1.5046841   -120.02817     35727.27     4.302604     4.302604     4.302604     35727.27    27243.976    56374.155    23563.681   -2220.8586    5738.1089   -311.07959    79.651531 
   21800    1084.7116    -121.0431   0.98146985   -120.06163    17513.272    4.3106625    4.3106625    4.3106625    17513.272    16886.301    45256.239   -9602.7249   -7511.2853    45254.521     12409.41    80.099917 
   21900    1008.8231   -120.97657   0.91280436   -120.06376   -6536.6335    4.3474741    4.3474741    4.3474741   -6536.6335     -46078.3    45703.419   -19235.019   -3898.5656    4063.8659    9554.7334    82.169571 
   22000    1627.3493    -121.5047    1.4724598   -120.03224   -13657.888    4.3399258    4.3399258    4.3399258   -13657.888    -9059.582    1499.9279    -33414.01   -1459.6138   -8792.5444    10120.662    81.742312 
   22100     1511.755   -121.39122    1.3678677   -120.02335    18300.018    4.3027583    4.3027583    4.3027583    18300.018    9885.9679    52597.432   -7583.3459   -5697.1759    39884.622    -8876.515      79.6601 
   22200    1421.2882   -121.33735    1.2860114   -120.05134    11645.129     4.302796     4.302796     4.302796    11645.129   -16808.689    45872.301    5871.7757    523.53827    30825.216    970.64657    79.662198 
   22300    1100.5341   -121.06859   0.99578639   -120.07281   -32720.091    4.3283427    4.3283427    4.3283427   -32720.091   -36906.816   -26059.151   -35194.306   -14421.524   -25932.659    12009.719    81.089557 
   22400    1082.8145    -121.0447   0.97975334   -120.06494   -16372.218    4.3281359    4.3281359    4.3281359   -16372.218   -11018.974    5896.0018    -43993.68    10291.284   -7015.9719    2982.5937    81.077934 
   22500    1811.7749   -121.68868     1.639332   -120.04935    2681.2708    4.3129982    4.3129982    4.3129982    2681.2708    25171.828    9848.4361   -26976.451    8871.0173    30413.667    2011.4679    80.230193 
   22600    1424.5357   -121.34897    1.2889498   -120.06002    7749.3507    4.3066635    4.3066635    4.3066635    7749.3507    10007.851    10753.189    2487.0121   -1888.4259   -2986.9505   -2135.7172    79.877195 
   22700    702.82538   -120.70994   0.63593117   -120.07401   -5195.9477    4.3208042    4.3208042    4.3208042   -5195.9477    62901.376   -6773.3968   -71715.822    1275.3221   -22000.936    4589.5048    80.666603 
   22800    1237.4103   -121.18266    1.1196349   -120.06303   -2999.3622    4.3321726    4.3321726    4.3321726   -2999.3622    22580.862    12329.462   -43908.411    -3427.783    -19374.21   -63.932568    81.304998 
   22900    2178.4369   -122.01603    1.9710955   -120.04493     -2630.19    4.3163996    4.3163996    4.3163996     -2630.19    3245.5688   -965.86552   -10170.273    1018.6156   -3093.6993   -5012.7048    80.420161 
   23000    852.40826   -120.83189   0.77127691   -120.06061    36755.389    4.3038716    4.3038716    4.3038716    36755.389    97037.551    2326.7394    10901.877    4008.2212    -6124.785    22082.221    79.721948 
   23100    1250.5482   -121.19667    1.1315223   -120.06514   -20385.336    4.3166534    4.3166534    4.3166534   -20385.336   -18121.706   -37329.871   -5704.4294    10575.561    -28067.11    20303.572    80.434345 
   23200    1910.9633   -121.78479    1.7290798   -120.05571   -1265.2651    4.3205395    4.3205395    4.3205395   -1265.2651    4956.1313    11423.106   -20175.033   -8878.0601    4220.3732   -10441.166    80.651778 
   23300    1466.0354   -121.38854    1.3264996   -120.06205   -4224.8235    4.3191685    4.3191685    4.3191685   -4224.8235    711.79637   -22168.299    8782.0324   -1021.3948    23481.862     20537.07    80.575025 
   23400    1181.8542   -121.13544    1.0693665   -120.06607   -24503.976    4.3194775    4.3194775    4.3194775   -24503.976    2498.8611   -57855.413   -18155.377    14905.442    2749.6832    26705.273     80.59232 
   23500    2008.9754   -121.87205    1.8177632   -120.05429   -925.48654    4.3094272    4.3094272    4.3094272   -925.48654    937.97734   -23864.743    20150.306   -5527.5474   -24020.765   -13666.758    80.031076 
   23600      1672.23   -121.57761    1.5130688   -120.06454    5746.7112     4.316359     4.316359     4.316359    5746.7112     -650.551   -3274.9299    21165.614    6347.7378     9157.778    4005.7403    80.417891 
   23700    911.69676   -120.89492   0.82492239      -120.07   -43890.684    4.3335855    4.3335855    4.3335855   -43890.684   -40790.325   -33239.214   -57642.513   -1799.3644    39446.269    16034.666    81.384577 
   23800    1237.6086   -121.17596    1.1198142   -120.05614    6586.5819    4.3182945    4.3182945    4.3182945    6586.5819   -2469.5848   -33245.991    55475.322   -89.389114    6240.1914    953.08947    80.526122 
   23900    2259.3823   -122.08997    2.0443366   -120.04563    4068.3396    4.3085034    4.3085034    4.3085034    4068.3396    5836.4782     683.7362    5684.8042     1984.572     -3182.21   -3888.0232    79.979617 
   24000    1272.8501   -121.22444    1.1517015   -120.07273   -8666.6381    4.3138683    4.3138683    4.3138683   -8666.6381   -8185.3697   -6590.5847    -11223.96   -10305.953    2724.9518    16431.379    80.278757 
   24100    790.93402   -120.79119   0.71565372   -120.07553    4807.7898    4.3259734    4.3259734    4.3259734    4807.7898   -26116.084   -5418.2546    45957.708    5330.1442    21519.347    19905.209    80.956463 
   24200     1614.379   -121.52074     1.460724   -120.06002   -28644.333    4.3301135    4.3301135    4.3301135   -28644.333    -40224.12    4257.9461   -49966.826   -5355.1567   -29345.103    2498.8061    81.189121 
   24300     1443.875   -121.35918    1.3064484   -120.05274    11290.194    4.3003125    4.3003125    4.3003125    11290.194   -11467.169    45269.463    68.286467   -6310.7658   -35264.074   -6039.9157    79.524336 
   24400    1363.8652   -121.30036    1.2340539   -120.06631    20654.906    4.2987645    4.2987645    4.2987645    20654.906    41988.761    1661.0027    18314.954     10123.14    2460.4544    11449.599    79.438489 
   24500    1221.2624   -121.17659    1.1050239   -120.07157    -17068.79    4.3357192    4.3357192    4.3357192    -17068.79    9700.5584   -44967.373   -15939.556     8889.494    13420.872    13034.885    81.504849 
   24600    1284.5444   -121.21901    1.1622828   -120.05673   -11476.222    4.3244156    4.3244156    4.3244156   -11476.222    1453.9398    4886.5406   -40769.146    13322.617    -28508.37    3551.5394    80.869037 
   24700    1225.6474   -121.15418    1.1089916   -120.04518    33658.832    4.2959107    4.2959107    4.2959107    33658.832    35209.581    39921.133    25845.782   -6431.2911   -37287.687   -732.57304    79.280382 
   24800    1678.3318    -121.5826    1.5185899   -120.06401    4.6343978    4.3134329    4.3134329    4.3134329    4.6343978     10619.74   -20002.597    9396.7595    15336.049    12976.904    13674.783    80.254451 
   24900    1263.7023   -121.20302    1.1434244    -120.0596   -17034.628    4.3315444    4.3315444    4.3315444   -17034.628   -21740.942   -41352.291    11989.347    29031.723    -3793.034    17501.831    81.269637 
   25000     1107.587   -121.06401     1.002168   -120.06184   -14563.909    4.3191018    4.3191018    4.3191018   -14563.909    -34326.86    29173.358   -38538.226   -4657.2336   -52110.333   -3845.6834    80.571293 
   25100    1798.2765   -121.68438    1.6271184   -120.05726     27.25294    4.3039904    4.3039904    4.3039904     27.25294    13443.416    18412.894   -31774.552    4110.8116   -27111.774   -4766.0946    79.728555 
   25200    1804.8557   -121.69855    1.6330714   -120.06548    16773.185    4.3097374    4.3097374    4.3097374    16773.185    50378.437   -10046.464    9987.5831    10689.935    4179.8668    1276.5529    80.048356 
   25300    974.05424   -120.95938   0.88134475   -120.07803   -12356.364    4.3298114    4.3298114    4.3298114   -12356.364    23449.262   -6803.5206   -53714.834    10549.784   -22099.087    12808.482    81.172128 
   25400    1154.7908   -121.10416     1.044879   -120.05928   -28623.932    4.3304069    4.3304069    4.3304069   -28623.932   -21866.361    13360.913   -77366.348    4293.8493   -32853.557    2543.0506    81.205627 
   25500    2031.7761   -121.87239    1.8383937   -120.03399    6748.0761    4.3114213    4.3114213    4.3114213    6748.0761    40796.394    8455.7188   -29007.885   -10220.407    21222.996     5405.809    80.142225 
   25600    1662.3067    -121.5526      1.50409   -120.04851    -22711.65    4.3197778    4.3197778    4.3197778    -22711.65   -9841.7092   -38949.323   -19343.918    10099.387   -6469.5917     31985.17    80.609126 
   25700    1277.5472   -121.21592    1.1559515   -120.05997   -17517.348    4.3215996    4.3215996    4.3215996   -17517.348   -28350.301    20992.582   -45194.324    2989.7058   -33781.767   -2010.8502    80.711156 
   25800    1746.9905   -121.64257    1.5807137   -120.06186   -9456.4038    4.3194808    4.3194808    4.3194808   -9456.4038   -9836.2423    18430.668   -36963.638    6200.3776    11305.593   -1537.8553    80.592504 
   25900    1837.8626   -121.72326    1.6629367   -120.06032   -23882.957    4.3336334    4.3336334    4.3336334   -23882.957   -27017.544    -2971.847   -41659.481   -7172.6377    23453.396   -5852.0767    81.387273 
   26000    1497.4314    -121.4077    1.3549074   -120.05279   -693.32089    4.3223455    4.3223455    4.3223455   -693.32089   -14908.932    40144.359    -27315.39   -3035.6694   -17964.349    15340.484    80.752956 
   26100    1574.7024   -121.48432    1.4248238    -120.0595    7505.1432    4.3187388    4.3187388    4.3187388    7505.1432    452.83889    37612.304   -15549.714    9956.6467   -31288.147    8329.4269    80.550979 
   26200    2065.0939   -121.92445    1.8685404   -120.05591   -4601.1854    4.3266306    4.3266306    4.3266306   -4601.1854     554.5043     8279.641   -22637.701     10628.57    14808.579    11877.228    80.993368 
   26300    1693.7736   -121.58628     1.532562   -120.05372    25668.709     4.312698     4.312698     4.312698    25668.709   -1487.4126    46205.955    32287.584   -10750.685    1083.5139   -9086.6249     80.21344 
   26400     1194.434   -121.16412     1.080749   -120.08337   -23658.794    4.3266632    4.3266632    4.3266632   -23658.794   -26208.208    6805.1386   -51573.314   -1554.3128   -39828.163    7311.7525    80.995199 
   26500    1333.9361   -121.27038    1.2069734   -120.06341   -28369.528    4.3367927    4.3367927    4.3367927   -28369.528   -14896.049   -31575.236     -38637.3    7739.2677   -17899.596    2850.8777    81.565404 
   26600    1964.9302   -121.81303    1.7779101   -120.03512    30870.419    4.3088051    4.3088051    4.3088051    30870.419    41003.105    25478.464    26129.689     185.9018    10004.436   -3973.3213    79.996422 
   26700    1231.8673   -121.17139    1.1146194   -120.05677   -17223.271    4.3292215    4.3292215    4.3292215   -17223.271   -26791.719   -5514.5468   -19363.547    4762.4207   -56874.665   -1429.4134    81.138957 
   26800    1109.6015   -121.04404    1.0039907   -120.04004   -39322.933    4.3394151    4.3394151    4.3394151   -39322.933   -44833.566   -33340.421   -39794.812   -228.68084   -42376.724   -14006.629     81.71346 
   26900    1613.3609   -121.47511    1.4598029   -120.01531    36841.878    4.3009839    4.3009839    4.3009839    36841.878     46732.74   -11287.086    75079.978    10090.664    15181.701   -1577.4048     79.56159 
   27000    1524.4898   -121.43236    1.3793904   -120.05297     -10365.6    4.3161419    4.3161419    4.3161419     -10365.6   -53159.337   -1669.2582    23731.794    4301.7227   -14373.033   -878.44871    80.405759 
   27100    757.03582   -120.74261   0.68498192   -120.05762   -40565.461    4.3421606    4.3421606    4.3421606   -40565.461   -73066.043   -1053.4418   -47576.899   -14608.783    -21429.27   -17240.653    81.868654 
   27200    1443.9439   -121.34505    1.3065108   -120.03854    4810.6692    4.3149934    4.3149934    4.3149934    4810.6692    49441.953    -34007.04   -1002.9053    3031.5735   -2626.8789   -21122.766    80.341586 
   27300    1822.3446   -121.68958    1.6488957   -120.04068    7458.2076    4.3115419    4.3115419    4.3115419    7458.2076    39983.014   -20141.218    2532.8266    2854.2329    4960.6543   -7777.0971    80.148949 
   27400    1375.9064    -121.3009    1.2449491   -120.05595    -20692.15    4.3354186    4.3354186    4.3354186    -20692.15    5631.7904    -20848.26   -46859.979   -12684.207   -3452.7459   -7294.5487    81.487896 
   27500    1187.2764   -121.11023    1.0742726   -120.03595   -6933.4611    4.3410937    4.3410937    4.3410937   -6933.4611    38811.136   -39984.398   -19627.121   -3273.2823   -2303.9671   -11648.329    81.808321 
   27600    1471.7138   -121.35314    1.3316375    -120.0215    14718.144    4.3223378    4.3223378    4.3223378    14718.144    17216.194    14644.575    12293.663    2248.1853    5816.1182   -6639.6164    80.752523 
   27700    1355.0325   -121.25711    1.2260619   -120.03105   -16580.091    4.3072757    4.3072757    4.3072757   -16580.091   -31090.346   -5788.4999   -12861.426    6599.0374   -30890.733    1243.5002    79.911264 
   27800    1037.1902   -120.99015   0.93847149   -120.05168    20542.462    4.3037377    4.3037377    4.3037377    20542.462    5831.5413    24008.872    31786.972    13097.524   -27338.655    -2989.831    79.714511 
   27900    1615.3714    -121.5329     1.461622   -120.07128    109.81325    4.3274524    4.3274524    4.3274524    109.81325    36226.701     2638.285   -38535.547   -17077.887    24695.331   -15097.901    81.039525 
   28000    1262.4527   -121.19348    1.1422937   -120.05119    -24785.72    4.3422657    4.3422657    4.3422657    -24785.72   -40984.457   -10781.254   -22591.449    22717.008   -3180.7309    6360.3454    81.874598 
   28100    1201.3118   -121.13697    1.0869722      -120.05    6213.1858    4.3027576    4.3027576    4.3027576    6213.1858   -17116.678     30466.55    5289.6854    22557.584   -44640.116   -9857.9708    79.660061 
   28200    1499.3687   -121.39213    1.3566603   -120.03547     59390.96    4.2831336    4.2831336    4.2831336     59390.96    76422.877    50656.792    51093.211   -6731.4829   -5334.1656    -634.6005    78.575083 
   28300    1854.4162   -121.74107    1.6779147   -120.06316   -3786.0032    4.3228432    4.3228432    4.3228432   -3786.0032    -8824.117    11730.821   -14264.713    4292.4777     27848.93    14328.348    80.780857 
   28400    905.87455   -120.87773   0.81965433   -120.05808   -7966.6923    4.3343042    4.3343042    4.3343042   -7966.6923    -20554.58    19033.194   -22378.692    1072.6824   -23464.393   -5189.7909    81.425073 
   28500    1158.2391   -121.09614    1.0479991   -120.04814    14264.399    4.3119724    4.3119724    4.3119724    14264.399    11466.254    45444.833   -14117.891    14847.404   -41794.823    4127.8461    80.172959 
   28600    2123.1725   -121.96866    1.9210911   -120.04756    10808.694    4.3104295    4.3104295    4.3104295    10808.694   -3989.4128    18777.117    17638.379   -10349.467    8584.2393   -7186.4364     80.08693 
   28700    1618.7148   -121.52224    1.4646472   -120.05759    28323.703    4.3087015    4.3087015    4.3087015    28323.703    18735.743    46229.969    20005.395    5172.5566    -6503.298    6527.9986    79.990647 
   28800    873.14036   -120.86981   0.79003575   -120.07978   -5163.3687    4.3179021    4.3179021    4.3179021   -5163.3687   -35121.717    40341.406   -20709.796    10420.535   -52841.543    6823.2305    80.504169 
   28900    1235.5098   -121.18678    1.1179152   -120.06886   -33746.426    4.3326444    4.3326444    4.3326444   -33746.426   -70930.238    4453.2222   -34762.262     15423.31   -14851.639   -4400.7303    81.331566 
   29000    1816.8051   -121.68993    1.6438834   -120.04605    8334.6342    4.3103344    4.3103344    4.3103344    8334.6342   0.42997758    24993.754     9.718921    5059.2555     24678.54   -17711.085    80.081628 
   29100    1275.3136   -121.20477    1.1539305   -120.05084    948.77849     4.307411     4.307411     4.307411    948.77849    6535.8988     22994.48   -26684.043   -5972.4464   -38342.041     8079.343    79.918797 
   29200    993.50011   -120.95867   0.89893978   -120.05973   -30884.582    4.3331158    4.3331158    4.3331158   -30884.582   -74588.425      1950.58     -20015.9    14201.405   -27505.665    17138.027    81.358118 
   29300    1891.6814     -121.752    1.7116331   -120.04037   -11534.032    4.3218127    4.3218127    4.3218127   -11534.032   -9861.8242   -16079.733    -8660.538    13375.251    21957.129   -3312.8846    80.723098 
   29400     1520.786   -121.41946    1.3760392   -120.04342    19927.481    4.3075003    4.3075003    4.3075003    19927.481   -29250.287    70436.062    18596.668   -6595.9984   -19176.255    8380.9271    79.923768 
   29500     926.3906    -120.9026   0.83821769   -120.06438   -47.588792    4.3222197    4.3222197    4.3222197   -47.588792       -51593    43581.916    7868.3182   -1856.5966   -31378.162    16429.982    80.745905 
   29600    1805.7874   -121.67347    1.6339144   -120.03956   -24502.329    4.3295401    4.3295401    4.3295401   -24502.329    -45123.92   -11686.065   -16697.003    15899.955    3135.3607    5777.2122    81.156871 
   29700    1676.7696   -121.54421    1.5171764   -120.02703   -5350.5439     4.329967     4.329967     4.329967   -5350.5439   -25420.748   -24004.063    33373.179    537.95987   -917.15772   -14735.118    81.180879 
   29800    972.58244   -120.91154   0.88001303   -120.03152   -15732.259    4.3350424    4.3350424    4.3350424   -15732.259   -34060.148       610.08   -13746.708   -3839.2268   -58902.364    272.69329    81.466688 
   29900    1689.8034   -121.55604    1.5289696   -120.02707   -14081.535    4.3199623    4.3199623    4.3199623   -14081.535    4375.8566   -31131.169   -15489.292    -1371.107   -6971.8602   -4773.0767    80.619458 
   30000    1435.4683   -121.33396    1.2988419   -120.03511    28620.905    4.3045645    4.3045645    4.3045645    28620.905    30016.238   -70.745227    55917.222    12240.446    1922.2781   -7636.1359     79.76046 
   30100    1211.6934   -121.15461    1.0963656   -120.05824   -14576.956    4.3178695    4.3178695    4.3178695   -14576.956   -17672.953     27937.79   -53995.705     2919.136   -53309.642    6804.5803    80.502345 
   30200    1242.9349    -121.1774    1.1246336   -120.05276   -4215.4435    4.3211004    4.3211004    4.3211004   -4215.4435    752.33254    13181.847    -26580.51   -17469.164   -30073.003   -6617.2915    80.683194 
   30300    1772.8323   -121.65375    1.6040959   -120.04966   -11747.522    4.3120484    4.3120484    4.3120484   -11747.522   -5389.5082   -32337.945    2484.8889    21622.093    21819.808    3812.2809    80.177197 
   30400    1032.8801   -121.00606   0.93457162   -120.07149   -25712.129    4.3167829    4.3167829    4.3167829   -25712.129   -36503.532   -18712.847   -21920.009    32693.867   -23082.484    6624.8221    80.441588 
   30500    1090.0441   -121.05771   0.98629479   -120.07141   -16689.785    4.3094799    4.3094799    4.3094799   -16689.785   -4175.8983     12261.67   -58155.126    8145.5055   -48809.471   -4685.9587    80.034009 
   30600    1435.9839   -121.36811    1.2993084    -120.0688    9351.2603    4.3204115    4.3204115    4.3204115    9351.2603    56839.574    1559.6256   -30345.419    3829.8689   -1226.3611   -4644.3617    80.644611 
   30700    1204.5915   -121.14543    1.0899397   -120.05549   -27751.913    4.3477846    4.3477846    4.3477846   -27751.913    16913.182    -58482.25   -41686.672    16337.855    18390.825   -10103.649    82.187178 
   30800    980.01937   -120.93792   0.88674212   -120.05118    -11739.26    4.3215086    4.3215086    4.3215086    -11739.26   -149.82389    834.59565   -35902.552    10484.749   -21424.685    8411.8161    80.706061 
   30900    1301.4247   -121.20806    1.1775564    -120.0305    25311.622    4.2909801    4.2909801    4.2909801    25311.622    25089.474    45667.605    5177.7861    5660.0802   -37829.406   -13476.142    79.007717 
   31000    1450.7458   -121.37884    1.3126653   -120.06617    12612.698    4.3180292    4.3180292    4.3180292    12612.698   -5616.8876     16162.98    27292.003   -14012.551    11879.285   -29578.771    80.511278 
   31100    1514.0346   -121.42256    1.3699303   -120.05263   -3623.4701     4.340136     4.340136     4.340136   -3623.4701   -32186.604    14471.891    6844.3022      14625.6    10390.495    2755.3229    81.754188 
   31200    1239.3359   -121.16057    1.1213771   -120.03919    501.31269    4.3304656    4.3304656    4.3304656    501.31269   -56621.922    74357.214   -16231.354    22399.799   -28050.943   -10043.071    81.208926 
   31300    1137.3076   -121.07027    1.0290598   -120.04121    5530.1874     4.310802     4.310802     4.310802    5530.1874   -43067.322    37971.953    21685.931    -30882.71   -12727.812   -10386.633    80.107693 
   31400     1592.202   -121.49438    1.4406578   -120.05372    19249.089    4.3065228    4.3065228    4.3065228    19249.089   -24361.478   -2867.2286    84975.974   -19387.227    14855.485   -11549.642    79.869368 
   31500    1685.1572   -121.59144    1.5247656   -120.06667   -9454.2512    4.3274446    4.3274446    4.3274446   -9454.2512   -50532.342   -14710.782     36880.37    18807.318    -11329.17   -3245.2235    81.039088 
   31600    1076.5082   -121.03749   0.97404722   -120.06344   -3538.7218    4.3296348    4.3296348    4.3296348   -3538.7218   -65126.183    27689.315    26820.703   -21923.927   -23605.969    -5580.113    81.162196 
   31700    1383.8728   -121.30167    1.2521572   -120.04951   -20001.962    4.3239237    4.3239237    4.3239237   -20001.962   -50543.556   -27529.997    18067.668   -43331.992    5008.2734   -19224.803    80.841447 
   31800    1882.4312   -121.74533    1.7032633   -120.04207   -5790.7048    4.3200652    4.3200652    4.3200652   -5790.7048    -15595.17    5111.4542   -6888.3987    10193.833    14865.528   -21972.954    80.625216 
   31900    1436.8971   -121.34924    1.3001347   -120.04911   -3017.0855    4.3198795    4.3198795    4.3198795   -3017.0855   -28594.195    29571.231   -10028.293    -7421.699   -10742.226   -713.32222    80.614819 
   32000    1372.6633   -121.28885    1.2420146   -120.04683   -22676.584     4.328824     4.328824     4.328824   -22676.584   -46960.834   -3890.9562   -17177.961   -40803.433   -18287.708    4178.5954    81.116611 
   32100    1744.1558   -121.61046    1.5781488   -120.03231   -5466.5292    4.3389697    4.3389697    4.3389697   -5466.5292   -5758.1622   -8538.5983   -2102.8272    12406.594    7116.2025   -6157.0272    81.688299 
   32200     1258.989   -121.16876    1.1391597    -120.0296   -24006.203    4.3280831    4.3280831    4.3280831   -24006.203   -14641.645   -18329.755   -39047.208   -33299.272    132.90275   -8611.2902    81.074966 
   32300    1079.9376   -121.01316   0.97715023   -120.03601   -2870.4033    4.3043059    4.3043059    4.3043059   -2870.4033   -54272.186    21655.968    24005.008   -53396.774   -29517.309    8471.6789    79.746087 
   32400    1587.5791   -121.49321     1.436475   -120.05673    7598.3848    4.3157445    4.3157445    4.3157445    7598.3848   -19652.215    4052.6696      38394.7    -8190.776   -14717.639    11746.865    80.383548 
   32500    1576.4617    -121.4843    1.4264157   -120.05788   -16861.279     4.335837     4.335837     4.335837   -16861.279   -17538.213   -44658.716    11613.092   -3694.6053   -4056.6877   -8999.5871    81.511492 
   32600    1213.7964   -121.15964    1.0982685   -120.06137   -6511.7784    4.3163553    4.3163553    4.3163553   -6511.7784   -23744.005   -61252.927    65461.597   -36642.976    8318.6665   -3071.3508    80.417684 
   32700    1083.0252   -121.03317     0.979944   -120.05323    37252.693    4.3033041    4.3033041    4.3033041    37252.693    22771.471    13585.782    75400.826   -16953.328   -20087.257    7873.3403    79.690418 
   32800    1426.2934   -121.34504    1.2905403    -120.0545   -5985.7217    4.3254335    4.3254335    4.3254335   -5985.7217   -20023.038     2743.465   -677.59176     13929.57   -20304.427    3049.5772    80.926159 
   32900    1478.4412   -121.39201    1.3377247   -120.05429   -34848.848    4.3199374    4.3199374    4.3199374   -34848.848    -32725.75       -58223   -13597.792   -6050.8216    3635.0105   -24670.802    80.618061 
   33000    1254.7946   -121.18906    1.1353645   -120.05369     18322.21    4.2910218    4.2910218    4.2910218     18322.21    37842.161    -9551.518    26675.987   -35990.681    13841.212   -12038.721    79.010018 
   33100    1312.4707   -121.26417    1.1875511   -120.07662      7615.91    4.3036753    4.3036753    4.3036753      7615.91   -33317.932    68356.236   -12190.573   -6985.0733   -29896.595    3536.5957    79.711045 
   33200    1474.3426   -121.39942    1.3340161    -120.0654   -29483.453     4.328458     4.328458     4.328458   -29483.453    -70105.28    27297.969   -45643.046    21562.455   -19472.955     2935.059    81.096037 
   33300    1649.7321   -121.54758    1.4927123   -120.05487    -14304.72    4.3173642    4.3173642    4.3173642    -14304.72    -13668.79   -14188.658    -15056.71   -6496.9026    5177.2635   -14710.185    80.474089 
   33400    1643.0138   -121.54111    1.4866334   -120.05448   -501.23549    4.3022425    4.3022425    4.3022425   -501.23549    -5578.982    17744.698   -13669.422   -15144.033   -12001.375   -12572.356    79.631459 
   33500    1445.0219   -121.37116    1.3074862   -120.06368    117.38559    4.2963908    4.2963908    4.2963908    117.38559   -8303.8973    43334.198   -34678.144    -12608.62   -35147.874   -4518.3323    79.306963 
   33600    1134.7849   -121.10963    1.0267772   -120.08286   -3429.4795    4.3132051    4.3132051    4.3132051   -3429.4795    25215.092   -9082.4572   -26421.073      22932.7   -15515.749    11659.445    80.241738 
   33700    1937.3518   -121.81118    1.7529566   -120.05822   -26701.815    4.3389902    4.3389902    4.3389902   -26701.815    -19145.09   -24119.514   -36840.841    15469.332    13221.075   -15178.485    81.689458 
   33800    1709.4741   -121.58998    1.5467681   -120.04321   -25435.548    4.3243361    4.3243361    4.3243361   -25435.548   -20067.994    7278.1615   -63516.811   -25047.308   -38381.685   -2324.2903    80.864575 
   33900    917.51148   -120.87061   0.83018367   -120.04043    8802.6317    4.2894614    4.2894614    4.2894614    8802.6317    -322.0966    14568.342     12161.65    19932.378    -42410.08    21829.878    78.923855 
   34000    1378.6881   -121.31276    1.2474659   -120.06529   -6961.5953    4.2917125    4.2917125    4.2917125   -6961.5953   -27912.537   -6878.9829    13906.734    25637.642    13630.416   -3470.8365    79.048175 
   34100    1396.7869   -121.33967    1.2638421   -120.07583    8499.6393    4.3146223    4.3146223    4.3146223    8499.6393   -22440.175    9893.2691    38045.824     7125.719    18004.648   -4631.4765    80.320861 
   34200    1467.6314   -121.39562    1.3279438   -120.06768   -15683.869    4.3270668    4.3270668    4.3270668   -15683.869   -32746.375   -25008.293    10703.062    1192.3327   -31101.743    4084.5485    81.017865 
   34300    1373.6723   -121.31137    1.2429276   -120.06844   -15825.373    4.3049455    4.3049455    4.3049455   -15825.373   -20747.993   -32290.867    5562.7419    13828.595   -40594.167    2748.8335    79.781641 
   34400    970.68116   -120.93854   0.87829271   -120.06024    36847.344    4.2858811    4.2858811    4.2858811    36847.344    47950.442    3886.3482    58705.241    21110.249    20742.613    12500.559    78.726392 
   34500    1424.9291   -121.36924    1.2893058   -120.07993   -12661.638     4.316406     4.316406     4.316406   -12661.638   -14785.966     -4488.64   -18710.309   -4332.2467    42111.831   -2511.3919    80.420518 
   34600    1690.5259   -121.59022    1.5296234    -120.0606   -10379.393    4.3234895    4.3234895    4.3234895   -10379.393   -5170.0874   -2176.7338   -23791.359    -14253.32    4409.5937    655.89211    80.817095 
   34700    1818.8156   -121.70106    1.6457026   -120.05536    13452.703    4.2929341    4.2929341    4.2929341    13452.703    18378.792   -8489.9991    30469.316    35082.437   -15235.674    14839.562    79.115701 
   34800    1156.3641   -121.12239    1.0463025   -120.07608   -2099.1786    4.2966054    4.2966054    4.2966054   -2099.1786    6017.9139   -705.73751   -11609.712    41387.737    16323.969    11293.152    79.318852 
   34900    1274.8764   -121.23296     1.153535   -120.07943   -17416.163     4.316615     4.316615     4.316615   -17416.163   -11103.403    1698.7836   -42843.869    -16058.86    40203.653    6414.0786    80.432199 
   35000     1939.119   -121.81538    1.7545557   -120.06082   -14343.104    4.3223392    4.3223392    4.3223392   -14343.104   -5246.3295   -28841.511   -8941.4714     -33499.3    6962.5592     4747.079    80.752602 
   35100    1866.4077   -121.74137    1.6887649    -120.0526   -22186.975    4.3162427    4.3162427    4.3162427   -22186.975   0.48160832   -43899.936   -22661.471    15368.413   -4324.9706    8107.5396    80.411388 
   35200    1154.7228   -121.10414    1.0448175   -120.05932   -5699.0759    4.2963167    4.2963167    4.2963167   -5699.0759    888.68085    13757.676   -31743.585    16223.286    53277.894    16831.625    79.302862 
   35300    1405.9472   -121.34093    1.2721306    -120.0688   -8391.4986    4.2983412    4.2983412    4.2983412   -8391.4986   -36578.274    31883.117   -20479.338   -12307.375    33597.226   -11810.806    79.415023 
   35400    1779.5888   -121.67177    1.6102094   -120.06156   -30252.367    4.3293091    4.3293091    4.3293091   -30252.367   -19002.346   -45416.221   -26338.535   -10773.103   -28948.486   -4939.6557    81.143884 
   35500    1136.2022   -121.08366    1.0280596    -120.0556   -33896.372    4.3259643    4.3259643    4.3259643   -33896.372   -57775.092   -16513.403   -27400.621    8350.8157     11595.67    11798.332    80.955953 
   35600    775.06262   -120.75347   0.70129295   -120.05218   -2789.8165    4.2895151    4.2895151    4.2895151   -2789.8165    -64372.29    64548.565   -8545.7247    11663.409    71652.497    4921.2619    78.926822 
   35700    1560.0161   -121.47987    1.4115353   -120.06833    20459.034    4.2916163    4.2916163    4.2916163    20459.034    12167.233    26665.777    22544.094   -1860.3764    16130.024     3243.885    79.042861 
   35800    2102.2329   -121.96782    1.9021445   -120.06567    2285.6029    4.3149519    4.3149519    4.3149519    2285.6029   -11816.666   -15565.624    34239.099   -2319.2959   -9368.3175   -1527.6336     80.33927 
   35900    782.37706   -120.78625   0.70791121   -120.07834    7372.0168    4.3171328    4.3171328    4.3171328    7372.0168   -47369.929    65097.103    4388.8769    11292.857    54912.899    -7737.554    80.461149 
   36000    1087.8459   -121.04435   0.98430581   -120.06004    -13120.47    4.3162582    4.3162582    4.3162582    -13120.47   -37900.936    14567.791   -16028.266    11556.893    30038.688    5082.1349    80.412257 
   36100     1913.203   -121.77203    1.7311063   -120.04092    7549.7052     4.310307     4.310307     4.310307    7549.7052   -19104.001     -23404.8    65157.916   -1166.0871   -24328.864    15970.348    80.080104 
   36200    1418.2711   -121.33673    1.2832815   -120.05345    14832.903    4.3023024    4.3023024    4.3023024    14832.903   -7294.4135    33337.867    18455.256   -7438.0628    39024.724   -3205.0255     79.63478 
   36300    1308.4739   -121.25026    1.1839346   -120.06633    1250.5611    4.3096326    4.3096326    4.3096326    1250.5611   -29035.361    39849.583   -7062.5384    604.40418    60108.778   -1521.6805    80.042517 
   36400    1563.3369   -121.47214    1.4145401    -120.0576   -13712.241    4.3210546    4.3210546    4.3210546   -13712.241   -31433.599   -39131.541    29428.418    28768.428   -5280.1378    8004.0791    80.680627 
   36500    1363.9299   -121.28897    1.2341124   -120.05486   -3879.4179    4.3060608    4.3060608    4.3060608   -3879.4179    2733.3895   -20552.877    6181.2342    -14087.48     5842.301    3507.9436    79.843666 
   36600    1292.8413   -121.22348      1.16979   -120.05369     5404.575    4.2965606    4.2965606    4.2965606     5404.575   -7114.1515    28811.495   -5483.6189   -18867.354    49560.226    2181.6133    79.316371 
   36700     1493.237   -121.40503    1.3511122   -120.05392   -1925.8161    4.3173516    4.3173516    4.3173516   -1925.8161   -23932.818    14073.722    4081.6476    18957.341    13095.587    4180.2695    80.473384 
   36800     1341.955    -121.2673    1.2142291   -120.05307   -10655.661    4.3201275    4.3201275    4.3201275   -10655.661    16044.808   -55758.946    7747.1555    11148.489   -12598.748    13291.307    80.628709 
   36900    996.81909    -120.9595   0.90194286   -120.05756     15879.71    4.2974554    4.2974554    4.2974554     15879.71    6607.6792    51499.041   -10467.589   -6319.2035    21014.421    13838.399    79.365935 
   37000    1382.8183   -121.31416    1.2512031   -120.06296    20050.982    4.2939632    4.2939632    4.2939632    20050.982     10955.16    34154.873    15042.914   -24348.826    39994.292     3559.898    79.172609 
   37100    1443.4572   -121.37515    1.3060704   -120.06908     11084.87    4.3102281    4.3102281    4.3102281     11084.87    15861.135    12941.792    4451.6838    21710.511   -258.03238   -19070.829    80.075702 
   37200    1097.6124   -121.05717   0.99314275   -120.06403   -18752.214    4.3248393    4.3248393    4.3248393   -18752.214    -36945.92   -26749.681    7438.9592    18065.807   -4747.2105   -1095.7146    80.892809 
   37300    1210.9921   -121.14495    1.0957311   -120.04922   -9496.6423     4.313777     4.313777     4.313777   -9496.6423   -17358.952   -17900.266    6769.2915   -8543.7149     28379.22    27870.338    80.273661 
   37400    1797.3537   -121.66346    1.6262834   -120.03718    18832.974    4.2936019    4.2936019    4.2936019    18832.974    319.90414    36410.686    19768.333    6397.8887    14497.543   -17646.977    79.152627 
   37500    983.32708   -120.95234   0.88973501   -120.06261   -33464.834    4.3094799    4.3094799    4.3094799   -33464.834   -37785.288   -33276.095   -29333.118    24222.342   -22903.649   -22710.494    80.034012 
   37600    841.86958    -120.8306   0.76174129   -120.06886   -26410.434    4.3140743    4.3140743    4.3140743   -26410.434    -25793.34   -28109.753   -25328.209    24327.696   -7390.6783    15400.938     80.29026 
   37700    1875.3757   -121.75878    1.6968794    -120.0619    9599.7202    4.3044861    4.3044861    4.3044861    9599.7202   -21485.121    15872.998    34411.284   -8965.5248    10479.154    21271.821    79.756102 
   37800     1486.535   -121.41526    1.3450481   -120.07021    6136.0842    4.3063706    4.3063706    4.3063706    6136.0842   -46289.575    23705.959    40991.868    723.57619   -4944.2059   -4642.5019      79.8609 
   37900    777.13259   -120.78806    0.7031659   -120.08489   -58.810447    4.2960883    4.2960883    4.2960883   -58.810447   -42403.408   -24150.321    66377.297    23890.758   -13975.197   -13398.049    79.290215 
   38000    1186.4495   -121.15757    1.0735244   -120.08404     6553.732     4.302241     4.302241     4.302241     6553.732    7482.6948    17985.294   -5806.7929    16684.728   -10624.451   -1854.9438    79.631374 
   38100    1904.0749   -121.78503     1.722847   -120.06218   -22516.604    4.3188853    4.3188853    4.3188853   -22516.604   -48000.769    4962.8179    -24511.86   -7519.2722    16721.696    8260.1864    80.559175 
   38200    1175.9116   -121.12587    1.0639896   -120.06188   -31452.956    4.3114449    4.3114449    4.3114449   -31452.956   -71820.829   -18144.193   -4393.8464    1194.8698    20941.795   -4647.6148    80.143542 
   38300    1182.2762    -121.1302    1.0697484   -120.06045    -13939.63    4.2936849    4.2936849    4.2936849    -13939.63   -26267.663   -28540.121    12988.895    30649.379   -9646.9707   -36539.693    79.157215 
   38400    1631.6932   -121.54523    1.4763903   -120.06884    16563.259    4.2994174    4.2994174    4.2994174    16563.259    16641.944    52571.851   -19524.018    1261.4323   -751.63983   -19400.914    79.474686 
   38500    1900.2833   -121.78351    1.7194162   -120.06409   -8941.8486    4.3146868    4.3146868    4.3146868   -8941.8486    -46101.99    36570.735   -17294.291   -16571.787    20107.406    4523.7856    80.324461 
   38600    1103.1111   -121.06184   0.99811811   -120.06373   -8800.1641    4.3154331    4.3154331    4.3154331   -8800.1641   -50341.237    7169.0122    16771.733    7886.7991   -170.87478   -6957.2605    80.366153 
   38700    1274.2787   -121.20664    1.1529941   -120.05365   -2027.6092    4.3107406    4.3107406    4.3107406   -2027.6092   -4896.8866   -5536.5805    4350.6394    14398.609   -2499.4587   -20470.757    80.104269 
   38800    1795.6555   -121.67354    1.6247468   -120.04879   -3573.2521    4.2966406    4.2966406    4.2966406   -3573.2521   -19423.329    39756.135   -31052.562    7219.7793    30483.635    1505.7661      79.3208 
   38900    1449.4038   -121.37519     1.311451   -120.06374   -1465.2617    4.2933102    4.2933102    4.2933102   -1465.2617    3842.2711    18500.913   -26738.969   -10437.588     24418.34    31953.645    79.136493 
   39000    1428.1428   -121.36399    1.2922136   -120.07178   -20029.322    4.3126829    4.3126829    4.3126829   -20029.322    3851.2699   -43960.216   -19979.021    19154.424    5213.5544    3623.0284    80.212599 
   39100    1517.0019   -121.43406    1.3726152   -120.06145     -181.416    4.3140784    4.3140784    4.3140784     -181.416   -28483.641    30500.009   -2560.6166    19815.631   -7875.6844   -4292.0394    80.290489 
   39200    1509.1966   -121.41996    1.3655528   -120.05441    11843.275    4.2957247    4.2957247    4.2957247    11843.275    -10349.49    72156.646   -26277.333   -5381.8914    9519.7926    12912.443    79.270086 
   39300    1171.9265   -121.12538    1.0603837   -120.06499    362.14156    4.3028145    4.3028145    4.3028145    362.14156    8192.1945    44410.039   -51515.809    7045.7948    11891.625    28797.866    79.663223 
   39400    1344.4433   -121.27139    1.2164805   -120.05491   -3109.4044    4.3159035    4.3159035    4.3159035   -3109.4044    -26105.76    26560.982   -9783.4362    23077.745   -12788.971    12142.759    80.392436 
   39500    1143.1263   -121.09079    1.0343247   -120.05646    93.165441    4.3065414    4.3065414    4.3065414    93.165441   -30383.107    17403.949    13258.654    21985.352    5236.6594   -11166.546    79.870406 
   39600    1376.4109   -121.30328    1.2454055   -120.05787    8539.9596    4.2965543    4.2965543    4.2965543    8539.9596   -7940.8642    39267.068   -5706.3251   -25613.956    17664.526   -1626.2568    79.316019 
   39700    1777.3355     -121.666    1.6081705   -120.05783   -10226.012    4.3045646    4.3045646    4.3045646   -10226.012   -32525.374    15715.209    -13867.87    21512.501    3463.7396    16786.833    79.760469 
   39800     779.7274   -120.77423   0.70551374   -120.06871    21452.131    4.3050146    4.3050146    4.3050146    21452.131   -34367.961    55637.751    43086.604    42560.604    302.92436   -2546.6856    79.785482 
   39900    1082.7385   -121.04546   0.97968454   -120.06578   -1117.3623    4.3134183    4.3134183    4.3134183   -1117.3623   -36367.089    18608.695    14406.307   -5268.7049    8649.0042   -4914.9719     80.25364 
   40000    1537.2111   -121.44161    1.3909009   -120.05071   -8122.1259    4.3162485    4.3162485    4.3162485   -8122.1259   -42302.673    39631.445    -21695.15   -10487.013    17780.884    4763.5742    80.411712 
   40100    1652.7039   -121.54929    1.4954012   -120.05389    1392.7696    4.2914847    4.2914847    4.2914847    1392.7696   -21949.174    4902.7791    21224.704    40413.527    4530.5531    11173.602    79.035592 
   40200    1319.8472   -121.26058    1.1942255   -120.06636    20365.397    4.2861375    4.2861375    4.2861375    20365.397   -5644.0952   -6342.6845    73082.971     46184.91   -7926.9723    3328.2414    78.740525 
   40300    1698.4629    -121.6088     1.536805   -120.07199    6339.1995    4.3090562    4.3090562    4.3090562    6339.1995   -15305.418    17402.849    16920.167   -21546.989    3645.8792   -24427.901    80.010404 
   40400    1551.8772   -121.46627    1.4041711    -120.0621    3583.5147    4.3241757    4.3241757    4.3241757    3583.5147    1428.5111    12703.434   -3381.4013    2137.5985    6392.7414   -17859.937    80.855582 
   40500    1241.5176   -121.17596    1.1233512   -120.05261    6888.0544    4.3133144    4.3133144    4.3133144    6888.0544   -11547.383   -18413.599    50625.145    43534.594   -5117.1582    12070.716    80.247841 
   40600    1598.3593   -121.48576    1.4462291   -120.03953    28580.192    4.2905807    4.2905807    4.2905807    28580.192    10732.896    14058.124    60949.555   -12405.354    377.63836    7056.1874    78.985657 
   40700     1479.156   -121.39575    1.3383714   -120.05738    26836.567    4.3015016    4.3015016    4.3015016    26836.567    2466.6235    51968.752    26074.325   -27263.365    13463.935   -15444.743    79.590324 
   40800    1260.0125    -121.2014    1.1400858   -120.06131   -17776.847    4.3200209    4.3200209    4.3200209   -17776.847   -35239.011   -55514.429      37422.9    38245.259    16179.534   -9626.2607    80.622738 
   40900    1348.8697   -121.27405    1.2204857   -120.05357    11441.466    4.3074491    4.3074491    4.3074491    11441.466   -3353.3988   -5030.8035    42708.599    32266.842    4815.1874    2863.2801    79.920919 
   41000    1745.0428   -121.62588    1.5789514   -120.04692    7562.5127    4.3084048    4.3084048    4.3084048    7562.5127   -4584.4139    756.66345    26515.288   -26680.886   -11620.119    7070.8873    79.974125 
   41100    877.59009   -120.85281   0.79406195   -120.05875    334.90493    4.3145944    4.3145944    4.3145944    334.90493   -37887.305   -18782.244    57674.264   -5145.9974    10316.986    440.12212    80.319299 
   41200    1108.5415   -121.05794    1.0030316   -120.05491    8384.8544    4.3036291    4.3036291    4.3036291    8384.8544    151.32472   -26475.507    51478.746     39171.69    21596.085   -13778.998    79.708479 
   41300    1621.3537    -121.5171    1.4670349   -120.05007    22128.744    4.3086353    4.3086353    4.3086353    22128.744    16280.233    4626.5966    45479.401     857.7558    7823.6412   -2706.6116    79.986962 
   41400    1668.4329   -121.56611    1.5096331   -120.05648   -5982.0859    4.3090619    4.3090619    4.3090619   -5982.0859   -24804.189   -35394.915    42252.846   -27407.864   -14266.453    12632.634    80.010725 
   41500    859.72002   -120.84031   0.77789274   -120.06242    16250.264    4.2985748    4.2985748    4.2985748    16250.264   -7073.6486    17794.468    38029.972    24557.186    9745.4433    538.55691    79.427971 
   41600    1412.0425   -121.34184    1.2776457    -120.0642   -4011.0125    4.3019276    4.3019276    4.3019276   -4011.0125   -10123.969   -19672.152    17763.084    25980.186    29430.023   -5124.1292     79.61397 
   41700    1660.4044   -121.56187    1.5023688    -120.0595   -4717.1988    4.3073221    4.3073221    4.3073221   -4717.1988   -5244.2256   -87.324469   -8820.0464   -16646.493   -18346.838   -14029.763    79.913851 
   41800     1084.712    -121.0469   0.98147019   -120.06543   -25232.848    4.3071469    4.3071469    4.3071469   -25232.848   -40258.886   -22175.793   -13263.866    12721.515   -19534.937   -5316.2256    79.904096 
   41900    1176.3628   -121.12948    1.0643978   -120.06508   -17874.317    4.3056894    4.3056894    4.3056894   -17874.317   -44665.303   -10129.444    1171.7965    38399.605    25424.212    13949.177    79.823009 
   42000    2028.8446   -121.88404    1.8357412    -120.0483   -8540.7426    4.3053692    4.3053692    4.3053692   -8540.7426   -16444.724   -19209.356    10031.852    1175.1197    2861.3384   -10860.673    79.805204 
   42100    1421.6752    -121.3425    1.2863616   -120.05613   -12816.725     4.309191     4.309191     4.309191   -12816.725   -16711.894    -463.4597    -21274.82   -9238.6549   -29969.967    26.201692    80.017913 
   42200    757.73931   -120.75235   0.68561845   -120.06673   -23393.828    4.3124845    4.3124845    4.3124845   -23393.828   -40381.259   -23129.953   -6670.2707    22403.503   -12155.734    5522.2697    80.201529 
   42300    1363.1933   -121.30336    1.2334459   -120.06991    956.75682    4.3010764    4.3010764    4.3010764    956.75682    -9596.316   -49449.363     61915.95    27819.043    11921.839   -4370.0674    79.566725 
   42400    1943.7467   -121.81833    1.7587428   -120.05959    23468.906    4.2889895    4.2889895    4.2889895    23468.906    56311.572   -13036.818    27131.965   -1800.8227   -618.59507    18282.786    78.897811 
   42500    1210.8372   -121.17671     1.095591   -120.08112   -13477.396    4.3091529    4.3091529    4.3091529   -13477.396   -32286.396   -6703.0164   -1442.7759   -2181.5319   -29031.087   -2522.9076    80.015791 
   42600    762.68728   -120.76185   0.69009548   -120.07175   -23475.044    4.3201437    4.3201437    4.3201437   -23475.044    -60173.11   -51960.711     41708.69    30156.205   -20864.025   -5683.7566    80.629614 
   42700    2029.1883   -121.88299    1.8360522   -120.04693   -581.71027    4.2965815    4.2965815    4.2965815   -581.71027    11429.435    -45215.99    32041.425    13478.399    5014.6759    21689.065    79.317526 
   42800     1453.054   -121.36782    1.3147538   -120.05307     2718.141    4.2922847    4.2922847    4.2922847     2718.141    15871.484   -4870.2419   -2846.8195   -20251.577   -11502.504    3750.6868    79.079798 
   42900    820.88845   -120.81717   0.74275712   -120.07442     -19935.3    4.3003081    4.3003081    4.3003081     -19935.3   -51005.977   -14688.629    5888.7045    16519.763   -12554.269   -3911.7626     79.52409 
   43000    1255.2242   -121.21366    1.1357532   -120.07791    13544.638    4.3165807    4.3165807    4.3165807    13544.638     4212.303   -29203.868    65625.478     25338.28   -2496.3591    1174.0542     80.43028 
   43100    2180.3885   -122.03044    1.9728613   -120.05758   -7369.7783    4.3146251    4.3146251    4.3146251   -7369.7783   -3955.1514   -39429.633     21275.45   -12505.802    -1489.091   -17766.017    80.321015 
   43200    1340.8934   -121.27478    1.2132685   -120.06151    36476.305    4.2730461    4.2730461    4.2730461    36476.305    10777.753    25452.194    73198.967   -14796.063   -5849.9921   -618.55161     78.02122 
   43300    1156.2096   -121.13093    1.0461628   -120.08477    7032.9195     4.287955     4.287955     4.287955    7032.9195   -20417.245    20366.417    21149.586    15783.353   -6844.2547    5211.1444    78.840734 
   43400    1904.9946    -121.7806    1.7236791   -120.05692   -27616.221    4.3216103    4.3216103    4.3216103   -27616.221    -36383.71   -26540.113   -19924.841    11422.729   -2771.9063   -17962.315    80.711756 
   43500    1716.8434   -121.60707     1.553436   -120.05363    10118.075     4.302528     4.302528     4.302528    10118.075    23832.338   -10940.492    17462.379   -22890.796    7842.9745   -8604.2796     79.64731 
   43600    734.18839   -120.73068   0.66430908   -120.06637    -1780.791    4.2956843    4.2956843    4.2956843    -1780.791   -30001.227    22099.778    2559.0754   -19519.802   -9865.7599   -3896.0659     79.26785 
   43700    1453.1985   -121.38306    1.3148845   -120.06818   -21852.246     4.301424     4.301424     4.301424   -21852.246   -50406.361   -2825.7665    -12324.61    8344.3327   -22796.812    4942.2938    79.586013 
   43800    1830.1106   -121.71157    1.6559225   -120.05564    36858.347    4.2945799    4.2945799    4.2945799    36858.347    18473.813    39786.235    52314.994   -2449.9842   -1328.2178    10920.909    79.206724 
   43900    1149.7698   -121.11345    1.0403359   -120.07311    -10412.88    4.3147706    4.3147706    4.3147706    -10412.88   -28416.317   -29196.078    26373.755   -28735.609    7426.0996    -3738.533    80.329141 
   44000    1047.9084   -121.01388   0.94816955   -120.06571   -31283.494    4.3148894    4.3148894    4.3148894   -31283.494   -68459.188   -33390.607    7999.3131    -16188.59    -24568.29   -6184.1637    80.335779 
   44100    1541.2826   -121.43949    1.3945848    -120.0449     45731.36    4.2770933    4.2770933    4.2770933     45731.36    28112.351    45167.256    63914.473    9124.1157   -15575.595    7256.9268    78.243122 
   44200    1449.1034   -121.38307    1.3111792   -120.07189   -1795.3584    4.2900053    4.2900053    4.2900053   -1795.3584    22606.494   -45774.569        17782   -17479.428    10476.858    27699.122    78.953883 
   44300    681.49928   -120.68615   0.61663487   -120.06951    -33978.77    4.3210833    4.3210833    4.3210833    -33978.77   -33792.566   -86881.614    18737.871   -46598.733   -3273.2649    16078.473    80.682232 
   44400    1589.8483   -121.48483    1.4385282    -120.0463    8871.1182    4.3039438    4.3039438    4.3039438    8871.1182    2203.9484    2959.8843    21449.522   -1072.5467   -11676.284   -4571.8506    79.725964 
   44500    2074.1671   -121.91684    1.8767499   -120.04009   -5034.7316    4.2974458    4.2974458    4.2974458   -5034.7316    28656.872   -30235.825   -13525.243    8749.7284   -14271.151   -6219.6107    79.365405 
   44600    907.77903   -120.88327   0.82137755   -120.06189    -23954.89    4.3029162    4.3029162    4.3029162    -23954.89    7846.0378   -81267.817    1557.1091   -62866.287    3321.0605    22952.094    79.668871 
   44700    1351.9992   -121.28757    1.2233172   -120.06425    2202.6855    4.2972505    4.2972505    4.2972505    2202.6855    16194.828   -36840.738    27253.966   -31822.948    8075.1964      11955.6    79.354585 
   44800    2156.7164   -122.00332    1.9514423   -120.05187   -1176.9715    4.3091491    4.3091491    4.3091491   -1176.9715    31521.929   -2034.7396   -33018.104     14632.15   -1332.9458   -26377.156    80.015581 
   44900     1402.945   -121.33727    1.2694141   -120.06785   -15753.873    4.3001149    4.3001149    4.3001149   -15753.873    23263.833    -53961.44   -16564.011   -29969.453    6340.4233   -9847.0525    79.513374 
   45000    764.57816   -120.76327   0.69180639   -120.07146    19394.172    4.2892511    4.2892511    4.2892511    19394.172    3524.8139    19423.927    35233.774   -51255.668    11963.045     10810.16    78.912248 
   45100    1889.3933   -121.76564    1.7095627   -120.05607   -13700.716    4.3177911    4.3177911    4.3177911   -13700.716   -19214.597    11537.235   -33424.787   -1943.5881    5916.6913   -896.36568    80.497962 
   45200    1724.6592   -121.61035    1.5605079   -120.04984   -3540.5445     4.307633     4.307633     4.307633   -3540.5445    12813.115   -1362.7048   -22072.044    15554.906    1253.6758    -12425.94    79.931152 
   45300    662.09739   -120.64841   0.59907963   -120.04933    13553.549    4.2882236    4.2882236    4.2882236    13553.549     8337.946   -518.76919    32841.469   -52573.325   -10881.316   -6990.5955    78.855552 
   45400    1368.0268   -121.29671    1.2378194    -120.0589   -20408.492    4.3075009    4.3075009    4.3075009   -20408.492   -12787.234   -50703.975    2265.7325   -37892.705    6035.9898    17918.127    79.923802 
   45500    2076.6397   -121.92552    1.8789873   -120.04654    4662.5151    4.3036794    4.3036794    4.3036794    4662.5151    21029.074    3149.9322   -10191.461    31839.899    1909.1428    7030.5339    79.711269 
   45600    899.49842   -120.88523   0.81388507   -120.07134   -13711.196    4.2982033    4.2982033    4.2982033   -13711.196    10791.897   -60145.859    8220.3731   -25917.095   -11398.885   -18898.843    79.407378 
   45700    468.45196   -120.51164   0.42386518   -120.08778   -29643.615    4.2994837    4.2994837    4.2994837   -29643.615   -39290.077   -75244.991    25604.222   -59034.017   -1669.8589   -6138.2316    79.478362 
   45800    1985.7336   -121.86376    1.7967335   -120.06703    9814.1587    4.2934731    4.2934731    4.2934731    9814.1587    19073.112   -4488.0138    14857.378    115.79835   -564.35499   -4642.0338      79.1455 
   45900    1562.9995    -121.4862    1.4142348   -120.07196   -9019.0119    4.3149717    4.3149717    4.3149717   -9019.0119    24055.305   -26881.674   -24230.666   -1350.6704    13832.697    2752.3016    80.340377 
   46000    771.13355   -120.77668   0.69773784   -120.07894   -39032.631    4.3072418    4.3072418    4.3072418   -39032.631   -34727.592   -83845.502     1475.202   -53736.516    7012.4775   -1032.7597    79.909377 
   46100    1287.6029   -121.22176    1.1650502   -120.05671    41348.925     4.276017     4.276017     4.276017    41348.925    34938.885    34127.331    54980.559   -16201.582   -10210.992   -21191.628    78.184067 
   46200    1988.1152   -121.86555    1.7988884   -120.06666    9141.6395    4.3037409    4.3037409    4.3037409    9141.6395    46468.325    4431.7321   -23475.138    20472.805    11233.612     7398.274    79.714689 
   46300    1075.6947   -121.03278    0.9733112   -120.05947    -14540.17    4.3197155    4.3197155    4.3197155    -14540.17   -8341.3931    -5855.395   -29423.721   -36659.831    19112.927    22595.326    80.605641 
   46400    1216.7788   -121.14679    1.1009671   -120.04582    30026.815    4.2971215    4.2971215    4.2971215    30026.815    55145.389     14476.28    20458.777   -35238.916   -3960.6012   -758.47319    79.347434 
   46500    2181.7875   -122.01315    1.9741272   -120.03902    17910.149    4.2955522    4.2955522    4.2955522    17910.149    52443.918    4154.8891   -2868.3595    16564.489    7702.3685   -11822.419    79.260535 
   46600    1546.3992   -121.45392    1.3992145    -120.0547    4396.2243    4.3035505    4.3035505    4.3035505    4396.2243    19559.424    34097.084   -40467.836   -12996.307    23666.506    8877.2616    79.704109 
   46700    818.90247   -120.80957   0.74096016   -120.06861   -6291.4819    4.3072476    4.3072476    4.3072476   -6291.4819    47752.647   -30240.775   -36386.318   -41197.084    22708.188     25914.24    79.909703 
   46800    1752.6628   -121.64835    1.5858461    -120.0625   -10126.563    4.3042559    4.3042559    4.3042559   -10126.563    5408.3768   -39013.343    3225.2788   -13143.971   -6911.3103   -3100.7602     79.74331 
   46900    2168.3251   -122.01518    1.9619461   -120.05324    10931.711    4.2942616    4.2942616    4.2942616    10931.711    21327.922    12953.019    -1485.808    21962.529   -6245.9646   -13675.635    79.189117 
   47000     763.3944   -120.76218    0.6907353   -120.07145   -12571.591    4.3032335    4.3032335    4.3032335   -12571.591   -11804.876     10225.43   -36135.326   -20954.004    47767.604    27234.762    79.686495 
   47100    831.36588   -120.82745   0.75223732   -120.07521   -20035.689    4.3089438    4.3089438    4.3089438   -20035.689   -30516.239   -28261.749   -1329.0794   -37883.825     16846.65    31995.724    80.004146 
   47200    2092.4094    -121.9442     1.893256   -120.05094    8572.3238    4.3053812    4.3053812    4.3053812    8572.3238    15653.889   -20245.067    30308.149   -2086.4377   -16121.059   -463.59558    79.805869 
   47300    1505.7888   -121.42035    1.3624693   -120.05788   -8465.7809    4.3155552    4.3155552    4.3155552   -8465.7809   -23071.452    5998.5632   -8324.4543     5716.002    20596.962   -2940.9225    80.372974 
   47400    817.23277    -120.7918   0.73944938   -120.05235   -39896.589    4.3215463    4.3215463    4.3215463   -39896.589   -45079.179   -49710.399    -24900.19   -38093.112    29433.207    32571.623     80.70817 
   47500    1680.9314   -121.56902     1.520942   -120.04808    13023.076    4.2969584    4.2969584    4.2969584    13023.076    34786.097   -14030.665    18313.795   -28966.504   -9708.0584    8540.8861    79.338401 
   47600    2313.8682   -122.13742    2.0936365   -120.04378    27034.117     4.282916     4.282916     4.282916    27034.117     27992.66    26888.303    26221.388     22316.17   -2213.1101   -17038.342     78.56311 
   47700    990.95546   -120.97231   0.89663732   -120.07568    11531.879    4.3024413    4.3024413    4.3024413    11531.879    46613.162    3600.0604   -15617.586   -19244.421    47692.829    18974.528    79.642495 
   47800    820.75666   -120.81698   0.74263787   -120.07435   -12066.308    4.3288966    4.3288966    4.3288966   -12066.308   -2948.7503   -18131.998   -15118.177   -33334.977    11927.643    13569.122     81.12069 
   47900    2062.1124   -121.89885    1.8658427   -120.03301   -13450.646    4.3190259    4.3190259    4.3190259   -13450.646   -17454.034   -12702.136   -10195.767    2253.2339   -7656.6877    86.603771     80.56704 
   48000     1511.638   -121.40496    1.3677618   -120.03719    53494.993     4.271721     4.271721     4.271721    53494.993    26944.474    70159.441    63381.062    9841.0982    35766.506   -4354.4116    77.948658 
   48100    705.26541    -120.7087   0.63813896   -120.07056   -3720.6329    4.2810001    4.2810001    4.2810001   -3720.6329   -18000.754    5375.3369    1463.5188   -36472.518    41358.741     26014.79    78.457725 
   48200    1115.3954   -121.08484    1.0092332   -120.07561   -27873.512    4.3193081    4.3193081    4.3193081   -27873.512   -40549.929   -52087.018    9016.4113   -37395.278   -7680.5433    16587.097    80.582835 
   48300     2135.152   -121.97493    1.9319304     -120.043   -16245.439    4.3201944    4.3201944    4.3201944   -16245.439   -20598.666   -12539.468   -15598.182    17954.579   -7277.5801   -19304.782    80.632452 
   48400    1144.5715   -121.08328    1.0356324   -120.04765   -5508.1091    4.3002134    4.3002134    4.3002134   -5508.1091   -39177.448     13584.94    9068.1812     -11167.1    59419.849    7590.1246    79.518836 
   48500    847.57251   -120.82359   0.76690142   -120.05669   -1854.0444    4.2871514    4.2871514    4.2871514   -1854.0444   -22939.352   -21171.237    38548.456   -57340.472    26818.338    12644.797    78.796414 
   48600    1899.1396   -121.77217    1.7183814   -120.05379   -1305.5083    4.3039376    4.3039376    4.3039376   -1305.5083     7239.051    -14649.56    3493.9842   -17035.143   -10209.327    13200.946    79.725616 
   48700    1642.9929    -121.5337    1.4866145   -120.04708   -23163.128    4.3226444    4.3226444    4.3226444   -23163.128   -47562.184   -10203.693   -11723.509     15480.36    29330.746    1926.1503     80.76971 
   48800    719.54983   -120.70266   0.65106381   -120.05159   -19923.659    4.3064644    4.3064644    4.3064644   -19923.659   -49758.991   -8529.5188   -1482.4655   -38596.187    40729.048    892.00096    79.866121 
   48900    1280.2316   -121.20462    1.1583805   -120.04624    3769.5359    4.2882309    4.2882309    4.2882309    3769.5359    14149.553   -36978.586    34137.641   -46516.072   -110.74671     11273.25    78.855955 
   49000    1921.0324   -121.78853    1.7381905   -120.05034     3497.913    4.2938521    4.2938521    4.2938521     3497.913    9907.0509   -3255.3846    3842.0728    15506.688   -13839.162   -3939.4002    79.166462 
   49100    1182.2203    -121.1372    1.0696977    -120.0675   -21121.016    4.3100858    4.3100858    4.3100858   -21121.016   -39148.586    6487.5567   -30702.019   -4660.5516    39342.545   -7304.1702    80.067771 
   49200    842.84192   -120.83112   0.76262108    -120.0685   -33422.398    4.3110822    4.3110822    4.3110822   -33422.398   -58386.538   -53233.521    11352.864   -63850.424    32700.508    2465.6988    80.123313 
   49300    1754.0385   -121.63977    1.5870909   -120.05268   -1195.4056    4.2962205    4.2962205    4.2962205   -1195.4056   -9086.5798   -40804.104    46304.466   -21771.459   -9633.1436    14820.307    79.297537 
   49400    1817.6846   -121.69854    1.6446792   -120.05386    8673.2579    4.2919007    4.2919007    4.2919007    8673.2579    -8184.287     19710.27    14493.791    33197.093   -1996.3345    3081.8785    79.058577 
   49500    872.70324   -120.85959   0.78964024   -120.06995   -4406.1533    4.3055065    4.3055065    4.3055065   -4406.1533   -65193.314    -7839.722    59814.576   -25871.843    29036.367    369.29859    79.812839 
   49600     1644.383   -121.53917    1.4878723   -120.05129   -17206.416    4.3170991    4.3170991    4.3170991   -17206.416   -32216.035   -43107.145    23703.931   -32463.098    18543.461   -3057.6217    80.459263 
   49700    2066.8884   -121.91262    1.8701641   -120.04245   -188.62125    4.3039163    4.3039163    4.3039163   -188.62125   -8729.0483    -17922.92    26086.104    26808.226   -16157.308   -12958.991    79.724437 
   49800    1171.9067   -121.11571    1.0603658   -120.05534    2608.3961    4.2870348    4.2870348    4.2870348    2608.3961    -33373.91    32024.298    9174.7998    14246.002    18764.422   -4337.5563    78.789986 
   49900     1329.978   -121.27159    1.2033921    -120.0682    982.68826    4.2954159    4.2954159    4.2954159    982.68826   -33156.168    27738.789    8365.4432   -30548.592    32549.682   -1909.8934     79.25299 
   50000    2044.7442   -121.90102    1.8501275    -120.0509   -10797.967    4.3161969    4.3161969    4.3161969   -10797.967    -30634.31   -6313.6232    4554.0333    2320.5948   -1291.8478   -955.40814    80.408833 
   50100    1113.0418   -121.06661    1.0071036    -120.0595    2993.5475    4.3086217    4.3086217    4.3086217    2993.5475   -46753.359    43947.388    11786.613    37597.029   -8223.3932    7495.8687    79.986203 
   50200    830.90343   -120.80997   0.75181889   -120.05815    19167.158    4.2947252    4.2947252    4.2947252    19167.158   -21092.541    36728.163    41865.853    17484.165    32877.228    2266.9183    79.214766 
   50300     1849.105   -121.71873    1.6731091   -120.04562    3694.4702    4.3049355    4.3049355    4.3049355    3694.4702   -25193.631    31283.424    4993.6175   -9569.4485    13427.252    3178.2268    79.781088 
   50400    1347.7572   -121.26988     1.219479    -120.0504    9228.0479    4.3081763    4.3081763    4.3081763    9228.0479   -3971.4851    3727.8402    27927.789    15928.227   -14772.719    14443.055    79.961402 
   50500    812.98712   -120.78977   0.73560783   -120.05416   -16927.421    4.3135829    4.3135829    4.3135829   -16927.421   -16675.861   -33201.465   -904.93705    29950.866    22027.871   -2243.5585    80.262823 
   50600    1475.7928   -121.38085    1.3353283   -120.04552   -9184.0634    4.3072816    4.3072816    4.3072816   -9184.0634   -25486.302    5956.5365   -8022.4244   -338.56922    31804.672   -503.49385    79.911596 
   50700    1727.1588   -121.60491    1.5627696   -120.04214    20297.955    4.2881073    4.2881073    4.2881073    20297.955    51773.423   -12195.513    21315.955    -25565.39   -11529.382    14053.241    78.849133 
   50800    936.04714   -120.91358   0.84695513   -120.06663   -12229.452    4.3014079    4.3014079    4.3014079   -12229.452   -10859.292   -24979.652   -849.41077    10671.084    195.04592    7498.4603    79.585122 
   50900    1744.0113   -121.63203    1.5780181   -120.05401   -24846.557    4.3146622    4.3146622    4.3146622   -24846.557   -44345.247   -10309.354    -19885.07    12406.354     19786.11   -1671.8719    80.323091 
   51000    1915.4498    -121.7769    1.7331392   -120.04376    18472.222    4.2976742    4.2976742    4.2976742    18472.222    34449.043    24278.175   -3310.5525   -3627.7379    9893.8628   -3974.0196    79.378058 
   51100    700.59718   -120.69693   0.63391505   -120.06302    2988.1167    4.2958324    4.2958324    4.2958324    2988.1167    41381.365   -1278.6156   -31138.399   -25788.865   -6322.0944    7965.3683    79.276045 
   51200    1340.6851   -121.28082    1.2130801   -120.06774   -22998.451    4.3076198    4.3076198    4.3076198   -22998.451    1887.5061   -30158.971   -40723.887   -18072.838   -18463.656    10558.227    79.930421 
   51300    2217.8397    -122.0556     2.006748   -120.04886    24856.842    4.2954056    4.2954056    4.2954056    24856.842    33563.588    53211.161   -12204.222    17264.491    2940.5685    1622.8595    79.252423 
   51400    1168.2497   -121.12746    1.0570569    -120.0704   -8486.7148    4.3049257    4.3049257    4.3049257   -8486.7148    27691.976    -18523.76   -34628.361    -983.5383    17909.888   -14373.099     79.78054 
   51500    810.93953   -120.80462   0.73375513   -120.07087   -30291.655    4.3134871    4.3134871    4.3134871   -30291.655    17978.329   -58331.417   -50521.877   -19766.378     10.37344    695.79526    80.257477 
   51600      1952.17   -121.81303    1.7663644   -120.04666    25058.112    4.2909023    4.2909023    4.2909023    25058.112    18066.891    42994.432    14113.013   -14196.952   -4305.4939   -4087.0059    79.003418 
   51700    1342.3576   -121.27739    1.2145933   -120.06279    9367.9563    4.3044595    4.3044595    4.3044595    9367.9563    6127.1442    30658.024   -8681.2989    23573.265    17314.539    -16733.34    79.754626 
   51800    782.83252   -120.76285   0.70832331   -120.05452   -35400.163    4.3247547    4.3247547    4.3247547   -35400.163   -14009.834     -42667.3   -49523.356   -10217.242    1798.6624   -18935.769    80.888064 
   51900    1670.5059   -121.53794    1.5115088   -120.02643    3222.3494    4.3123726    4.3123726    4.3123726    3222.3494    2544.5254    3923.2063    3199.3165   -29414.702   -6479.6034    9504.4119    80.195287 
   52000      1690.75   -121.55929    1.5298261   -120.02946   -10220.201    4.3028913    4.3028913    4.3028913   -10220.201   -33803.872   -13323.871    16467.139    41474.165    4866.3439   -4375.0443    79.667487 
   52100    1011.4685   -120.96904   0.91519796   -120.05384   -10837.051    4.2895697    4.2895697    4.2895697   -10837.051    -21223.93   -37090.411    25803.188    33408.778    11220.145   -30005.355    78.929835 
   52200    1222.8243   -121.18063    1.1064372    -120.0742    6486.7409     4.294431     4.294431     4.294431    6486.7409   -12142.855   -15510.434    47113.512   -26163.854    15290.433   -9770.6834    79.198488 
   52300    1641.6664   -121.55239    1.4854142   -120.06697   -6076.2857    4.3157474    4.3157474    4.3157474   -6076.2857   -25049.029   -23143.302    29963.474   -339.91528   -13163.102    8374.8835     80.38371 
   52400    1060.5122   -121.02286   0.95957374   -120.06329    2423.3482    4.3060952    4.3060952    4.3060952    2423.3482   -44831.116   -33933.377    86034.538    46639.624   -12886.182   -1600.5386    79.845579 
   52500    1067.9948   -121.02444   0.96634415   -120.05809    4877.8497    4.2956635    4.2956635    4.2956635    4877.8497   -14783.583    9655.3591    19761.773    -2281.428    13234.978   -9514.5305    79.266697 
   52600    1428.7741   -121.34305    1.2927848   -120.05027    10509.664    4.3011813    4.3011813    4.3011813    10509.664   -9551.5318    4549.7295    36530.793   -23033.791    22842.622   -14531.845    79.572542 
   52700    1260.1479   -121.19244    1.1402083   -120.05223   -7845.4549    4.3018516    4.3018516    4.3018516   -7845.4549   -30538.317   -21367.945    28369.897    54390.604   -7875.6592    2123.5495    79.609751 
   52800    1073.7617   -121.02963   0.97156216   -120.05807   -5839.2122    4.3043397    4.3043397    4.3043397   -5839.2122   -24185.408    8386.0526   -1718.2811     31487.77    -19202.23    5095.6349    79.747968 
   52900    1610.9728   -121.50423     1.457642   -120.04659   -1381.5816    4.3028223    4.3028223    4.3028223   -1381.5816   -14212.241    16199.318   -6131.8218   -29133.652    11431.398   -17134.904    79.663658 
   53000    955.92197   -120.92062   0.86493829   -120.05568   -2627.5585    4.3012845    4.3012845    4.3012845   -2627.5585   -44789.336   -29900.108    66806.769    56490.714    6831.2151   -5735.7759    79.578271 
   53100    1243.3289   -121.18769    1.1249901    -120.0627    4468.8288    4.3039315    4.3039315    4.3039315    4468.8288   -54489.327    -5645.029    73540.842    52599.237   -7823.4426   -6862.9341    79.725278 
   53200    2309.3103   -122.13331    2.0895125    -120.0438    21375.467    4.3000441    4.3000441    4.3000441    21375.467   -7833.6522    28149.004     43811.05   -22225.679   -8122.3358   -7586.4203    79.509449 
   53300    890.00886   -120.87629   0.80529872     -120.071    3093.1586    4.3062123    4.3062123    4.3062123    3093.1586   -48788.165   -24579.804    82647.445     60514.21    14687.927   -6909.7013    79.852093 
   53400    989.62322   -120.95157   0.89543188   -120.05614   -25061.882    4.3179155    4.3179155    4.3179155   -25061.882   -48585.699   -57329.613    30729.666    54012.424    8236.3036   -5890.4028    80.504921 
   53500    2429.6631   -122.21857    2.1984102   -120.02016    5949.0078     4.303915     4.303915     4.303915    5949.0078   -7181.2478    10038.236    14990.035   -28176.406   -13290.921    9005.0515    79.724362 
   53600    1396.6846   -121.30062    1.2637496   -120.03687   -8706.9007     4.300546     4.300546     4.300546   -8706.9007   -9162.7196   -41547.973    24589.991    47183.519   -1768.7156   -11363.934    79.537293 
   53700     797.4376   -120.78058    0.7215383   -120.05904   -24791.506    4.3029516    4.3029516    4.3029516   -24791.506   -39218.337   -68974.901    33818.721    76569.959    5808.6928   -7839.2464    79.670839 
   53800    2096.2356   -121.94496     1.896718   -120.04824    7097.6749    4.2915722    4.2915722    4.2915722    7097.6749     12690.12    12825.578   -4222.6734   -9005.0321    22736.514   -16540.347    79.040424 
   53900    1877.3192   -121.75967    1.6986379   -120.06103   -4516.7867    4.3051478    4.3051478    4.3051478   -4516.7867   -12051.033   -15299.422    13800.095    6522.4713   -8012.4111    6884.4888    79.792889 
   54000    1082.0803   -121.04527   0.97908897   -120.06618    -42231.99     4.312875     4.312875     4.312875    -42231.99   -79012.078   -64416.444    16732.551    73529.021   -19296.485    6353.0965    80.223317 
   54100    1462.0975   -121.37473    1.3229365   -120.05179    24319.406    4.2830577    4.2830577    4.2830577    24319.406    7303.4254    32035.557    33619.237    13309.775     7379.959   -19832.835    78.570911 
   54200    2030.4224   -121.89175    1.8371688   -120.05458    4240.2455    4.2971595    4.2971595    4.2971595    4240.2455    12431.187    6314.1347    -6024.585   -5831.1928    7087.3113   -1052.6021    79.349542 
   54300    1048.3284   -120.99953   0.94854958   -120.05098   -40612.854    4.3208742    4.3208742    4.3208742   -40612.854   -84360.735   -42171.883    4694.0549    68428.396   -2402.4133    6368.7417    80.670522 
   54400    1126.4457   -121.07433    1.0192317    -120.0551    6264.9523    4.2899787    4.2899787    4.2899787    6264.9523    -23492.71    26258.559    16029.009    32455.385   -22935.203     13061.57    78.952414 
   54500    1944.8053   -121.80851    1.7597007   -120.04881    16569.455    4.2856704    4.2856704    4.2856704    16569.455    10786.238    29729.351    9192.7758   -31060.878   -7885.9693   -1638.6247    78.714785 
   54600    1505.7345   -121.41821    1.3624202   -120.05579   -25413.725    4.3061459    4.3061459    4.3061459   -25413.725   -65468.189   -24816.164    14043.179    46008.415    8115.4519   -7464.9091    79.848403 
   54700    957.42108   -120.92691   0.86629471   -120.06062   -2991.4538    4.3009299    4.3009299    4.3009299   -2991.4538   -47448.642    5616.8797    32857.401    69330.087   -9422.1408    8704.2673    79.558591 
   54800    1348.1939   -121.27882    1.2198742   -120.05894   -5949.5574    4.3069972    4.3069972    4.3069972   -5949.5574    8950.8123   -3157.5313   -23641.953   -23038.537   -20806.548    7435.1305    79.895769 
   54900    1254.5397   -121.19186    1.1351339   -120.05673     -24846.8    4.3037675    4.3037675    4.3037675     -24846.8   -56015.421   -27103.637    8578.6574   -4342.3679   -19084.206    18653.418    79.716169 
   55000     1082.511   -121.03011   0.97947871   -120.05063    16962.948    4.2827695    4.2827695    4.2827695    16962.948   -15280.159   -20275.762    86444.765    62172.949    12760.439    4274.6792    78.555049 
   55100     1463.573   -121.38594    1.3242716   -120.06167    -5167.112    4.3075961    4.3075961    4.3075961    -5167.112   -2728.3056   -7226.4945   -5546.5359    14817.753    -21486.55    -4335.773    79.929098 
   55200    1474.4012   -121.38342    1.3340692   -120.04935    -26781.03    4.3184498    4.3184498    4.3184498    -26781.03   -45613.956   -5267.3248    -29461.81    -18332.89   -38987.908    147.93256     80.53481 
   55300    1125.2235    -121.0681    1.0181259   -120.04997    27329.291    4.2851444    4.2851444    4.2851444    27329.291   -6559.8851    25536.895    63010.863    37416.885    -1816.585    14469.418    78.685802 
   55400    1510.0179   -121.41903    1.3662959   -120.05274    23192.887      4.28889      4.28889      4.28889    23192.887   -6151.5985    18036.118    57694.142    45902.003    5180.8798    14327.824    78.892319 
   55500    1545.5546   -121.44969    1.3984503   -120.05124    4091.8977    4.3110366    4.3110366    4.3110366    4091.8977   -21648.534    58031.986   -24107.759   -10860.011   -6361.7359   -12338.654    80.120773 
   55600    1121.0137   -121.06969    1.0143168   -120.05537    2258.7419     4.309263     4.309263     4.309263    2258.7419    6549.3727    6455.9847   -6229.1316     8907.734   -15820.569   -15649.735    80.021929 
   55700    1411.0958   -121.32907    1.2767892   -120.05228    16753.037    4.2969406    4.2969406    4.2969406    16753.037    13675.554   -10337.047    46920.603     40855.98   -347.13614   -2281.0555    79.337413 
   55800     1796.959   -121.67277    1.6259263   -120.04684    14356.696    4.2918675    4.2918675    4.2918675    14356.696    1138.4337    14244.908    27686.748    9528.6534    2283.1348    14379.729    79.056743 
   55900    1279.4642   -121.21702    1.1576861   -120.05933   -6468.9531     4.299429     4.299429     4.299429   -6468.9531     10207.49   -11402.321   -18212.028   -9990.9507   -15216.385    -774.0621    79.475333 
   56000    1296.5509   -121.23158    1.1731465   -120.05844   -399.79854     4.306148     4.306148     4.306148   -399.79854    16851.187   -36890.276    18839.693    16784.063   -10922.741    -17352.73    79.848518 
   56100    1731.3806   -121.61312    1.5665896   -120.04653   -12373.059    4.3071554    4.3071554    4.3071554   -12373.059   -11224.943   -52567.171    26672.938    35079.232    3841.5788    11226.062    79.904573 
   56200    1131.8505   -121.07666    1.0241221   -120.05254   -15753.786    4.2983787    4.2983787    4.2983787   -15753.786   -12933.909   -17133.246   -17194.202     12196.92    7399.2844    17773.474    79.417101 
   56300    1157.5839   -121.10692    1.0474062   -120.05951   -1802.1363    4.2899614    4.2899614    4.2899614   -1802.1363   -5304.2756    15746.651   -15848.784   -12839.324   -2175.7221     3587.722    78.951458 
   56400    1912.8161    -121.7865    1.7307562   -120.05574    850.83382    4.3024252    4.3024252    4.3024252    850.83382    -28039.26    368.26146      30223.5   -1397.9233   -15307.998   -8379.0304    79.641602 
   56500    1367.1097    -121.2887    1.2369896   -120.05171   -24802.062    4.3146544    4.3146544    4.3146544   -24802.062   -40081.246   -28477.379   -5847.5606    8311.3943     19298.72    8612.6177    80.322656 
   56600    952.88186   -120.91488   0.86218753   -120.05269   -18741.627    4.3014852    4.3014852    4.3014852   -18741.627   -34392.574    30266.373   -52098.678    7107.0891    27052.142    22255.196    79.589411 
   56700    1599.0585   -121.49396    1.4468617    -120.0471    -8403.991    4.2918678    4.2918678    4.2918678    -8403.991   -52253.799    23629.504    3412.3223   -21532.475   -13893.849   -10556.797    79.056757 
   56800    1463.1777   -121.37623    1.3239139   -120.05232   -3317.9268    4.2936585    4.2936585    4.2936585   -3317.9268   -22829.482   -11800.284    24675.986   -38338.082   -1019.7115   -11891.185    79.155754 
   56900     1137.878   -121.09601    1.0295759   -120.06643   -7740.1667    4.2977766    4.2977766    4.2977766   -7740.1667   -6698.0956    28415.277   -44937.682      6959.02    27479.562   -4991.0489    79.383731 
   57000    1192.0125   -121.14528     1.078558   -120.06672    -26003.74     4.306398     4.306398     4.306398    -26003.74   -54610.682    22774.957   -46175.496   -2699.7778    34059.236    10321.503    79.862423 
   57100    1561.9043   -121.47313    1.4132438   -120.05989   -7870.8552    4.3000579    4.3000579    4.3000579   -7870.8552   -52830.299   -22221.244    51438.978   -39777.173   -4052.6858    8023.6726     79.51021 
   57200    1680.8747   -121.57669    1.5208908    -120.0558    1664.8048    4.2899741    4.2899741    4.2899741    1664.8048   -5490.5032    -6614.298    17099.216   -10077.696   -2174.2811   -15936.661    78.952158 
   57300    1126.7757   -121.08578    1.0195303   -120.06624   -10946.714    4.2980711    4.2980711    4.2980711   -10946.714   -6000.9534    6887.3575   -33726.547    6078.9555    40342.115   -9269.8569    79.400053 
   57400    1496.0037    -121.4163    1.3536156   -120.06268   -6989.8568    4.3056623    4.3056623    4.3056623   -6989.8568    -27405.21    7867.7224   -1432.0826   -14092.295    18672.364    4020.0786    79.821499 
   57500    1886.0598   -121.76063    1.7065465   -120.05408    -31.04241    4.2975638    4.2975638    4.2975638    -31.04241    -14158.43   -9298.8697    23364.173   -40826.577   -21492.646    9116.9757    79.371943 
   57600    1159.0083    -121.1136     1.048695    -120.0649    21649.028    4.2881155    4.2881155    4.2881155    21649.028     26314.52    50447.832   -11815.269   -9974.4227   -16962.791   -15228.489    78.849589 
   57700    1575.1759   -121.49113    1.4252522   -120.06588    7228.8381     4.297989     4.297989     4.297989    7228.8381    18101.706    41330.779   -37745.971    6526.0188    15835.771   -12216.863    79.395504 
   57800    1796.9348   -121.68254    1.6259044   -120.05664    19590.678    4.3016261    4.3016261    4.3016261    19590.678    39091.108   -464.05303     20144.98   -793.45788    13722.763    8042.7113    79.597235 
   57900    919.89549   -120.89893   0.83234077   -120.06659    1901.8132    4.3012643    4.3012643    4.3012643    1901.8132   -24653.102    14130.709    16227.833   -5352.8884   -27780.242    1691.2005    79.577154 
   58000    1036.2127   -121.00472   0.93758707   -120.06714   -19685.461    4.2990834    4.2990834    4.2990834   -19685.461   -17270.019    -509.1874   -41277.177   -8428.5473    -36713.81   -21030.728    79.456168 
   58100    1851.2409   -121.73185    1.6750416   -120.05681    9038.8814    4.2867187    4.2867187    4.2867187    9038.8814    25231.491   -2151.0129    4036.1664     7849.246    12817.077   -19189.251    78.772558 
   58200    1280.6821   -121.22863    1.1587881   -120.06985   -2038.8704    4.2970611    4.2970611    4.2970611   -2038.8704   -45665.524    4779.5615    34769.351    14908.655   -1895.5206    8783.2759     79.34409 
   58300    1119.0221   -121.07764    1.0125147   -120.06512   -35773.073     4.310016     4.310016     4.310016   -35773.073   -68062.635   -10257.388   -28999.195   -12277.563   -49730.066    1537.7121    80.063882 
   58400    1409.1402   -121.33099    1.2750197   -120.05597    -4976.402    4.2968421    4.2968421    4.2968421    -4976.402    8347.1187   -11278.897   -11997.428   -8890.9294   -13309.566   -19336.488    79.331957 
   58500     1309.075   -121.24359    1.1844786   -120.05912   -7198.1351    4.2898471    4.2898471    4.2898471   -7198.1351   -8120.3767   -12681.477   -792.55144    20743.757    34708.859   -18316.012    78.945149 
   58600    1148.5461   -121.10837    1.0392287   -120.06914    -6307.277    4.2892659    4.2892659    4.2892659    -6307.277   -39982.644    20835.327    225.48615    19401.377    18237.823   -1239.4007    78.913065 
   58700    1751.1255   -121.65225    1.5844552   -120.06779    13395.169    4.2969889    4.2969889    4.2969889    13395.169    3462.9072    11847.594    24875.007   -1703.4332   -22502.862    9863.0267    79.340089 
   58800    1477.7941   -121.40359    1.3371391   -120.06645    1888.7727    4.3095674    4.3095674    4.3095674    1888.7727    19522.948    -1446.276   -12410.354   -766.02938   -1614.3975   -15464.006    80.038884 
   58900    659.00181   -120.66507   0.59627869   -120.06879    10230.123    4.3018778    4.3018778    4.3018778    10230.123    -7087.412    31660.775    6117.0047    18505.169    41327.316   -20132.439    79.611209 
   59000    1641.6405   -121.53186    1.4853908   -120.04647    22378.887    4.3062056    4.3062056    4.3062056    22378.887    36104.536    913.00876    30119.117    2925.2388     7621.957    7406.8802     79.85172 
   59100    1999.2802   -121.84028    1.8089908   -120.03129   -7833.9796    4.3123657    4.3123657    4.3123657   -7833.9796    21143.565   -23398.505   -21246.999   -7431.5782   -10124.019   -18957.419    80.194901 
   59200    882.18763   -120.84998    0.7982219   -120.05176    11089.046    4.2905027    4.2905027    4.2905027    11089.046    40902.873   -18766.748    11131.012    10243.274    34333.667   -32872.255    78.981345 
   59300    1060.2563   -121.02299   0.95934217   -120.06364    4537.0783    4.2892553    4.2892553    4.2892553    4537.0783     17380.15   -7629.6024    3860.6873    18994.242     42048.22    3747.2603     78.91248 
   59400    1809.2622   -121.69808    1.6370585   -120.06102   -4196.4582    4.2982623    4.2982623    4.2982623   -4196.4582    -17382.72   -2623.6433    7416.9887    9777.8487   -10402.352    7910.6429    79.410648 
   59500    1459.7287   -121.38837    1.3207932   -120.06758    12848.421    4.2933384    4.2933384    4.2933384    12848.421    19246.634    5683.3018    13615.328   -9454.1217   -26315.722   -24551.758    79.138056 
   59600    850.60743   -120.84715   0.76964748   -120.07751    -14923.09    4.3024042    4.3024042    4.3024042    -14923.09   -13449.923    913.89573   -32233.242    8179.1071    37747.983   -31769.123    79.640434 
   59700    1349.2272   -121.28598    1.2208091   -120.06517   -15917.461    4.3050391    4.3050391    4.3050391   -15917.461   -43824.177    16926.492   -20854.698    19579.172    38032.627     7041.522    79.786847 
   59800    2018.6149   -121.86943    1.8264852   -120.04295   -6299.1225    4.2986423    4.2986423    4.2986423   -6299.1225   -13015.461   -2584.5063   -3297.4007   -2055.7296   -12101.074   -1074.3173    79.431711 
   59900    952.62364   -120.91604   0.86195389   -120.05409   -12310.246    4.3018992    4.3018992    4.3018992   -12310.246    -10077.12   -3040.2591   -23813.358   -8291.6688    11562.327   -44341.175    79.612395 
   60000    1042.0011    -121.0008   0.94282453   -120.05797   -15942.553    4.3004437    4.3004437    4.3004437   -15942.553   -33398.569    29220.067   -43649.156     1008.028    37174.768   -21719.673    79.531612 
   60100    1955.9783   -121.81827    1.7698103   -120.04846   -14.023765     4.297044     4.297044     4.297044   -14.023765   -19537.185    19822.263   -327.14893    7014.7417    7077.9692    23435.815    79.343142 
   60200    1322.7868   -121.26016    1.1968853   -120.06328   -8656.4158    4.2969496    4.2969496    4.2969496   -8656.4158     10217.92   -11326.115   -24861.053    1190.0172   -7004.7673    -5788.627    79.337913 
   60300    669.86237   -120.68392   0.60610555   -120.07782   -2585.7661    4.2951806    4.2951806    4.2951806   -2585.7661    13216.222    19514.655   -40488.175   -6830.1327     21991.89   -36552.238    79.239965 
   60400    1782.4406   -121.68422    1.6127897   -120.07143   -3776.7231    4.2995537    4.2995537    4.2995537   -3776.7231   -23005.215    31897.072   -20222.027    3477.3149     21415.12   -13054.618    79.482246 
   60500     2070.856   -121.93753     1.873754   -120.06378    6506.6267     4.296616     4.296616     4.296616    6506.6267   -13885.756    25536.121    7869.5151    4455.8873   -1346.7699     15264.09    79.319436 
   60600    1153.6524   -121.12177     1.043849   -120.07792    8072.2429    4.2867196    4.2867196    4.2867196    8072.2429     25554.18     10846.51   -12183.961   -2330.7039   -5852.0742   -13815.382    78.772611 
   60700    917.32449   -120.91846   0.83001448   -120.08845    2781.4862    4.2956789    4.2956789    4.2956789    2781.4862    14959.306    1534.7642   -8149.6112     1183.196    16122.458   -27191.097    79.267549 
   60800    1874.4336   -121.76385    1.6960269   -120.06783    1502.9318    4.3070025    4.3070025    4.3070025    1502.9318   -35170.287    24022.831    15656.251   -141.37353    8034.1664    4198.7444     79.89606 
   60900    1616.1828    -121.5277    1.4623562   -120.06535    3651.3497     4.298046     4.298046     4.298046    3651.3497   -32823.375    19581.962    24195.463    10002.766   -20094.584   -3183.5117    79.398659 
   61000    668.22397    -120.6818   0.60462309   -120.07717   -8332.0402    4.2869886    4.2869886    4.2869886   -8332.0402    11645.185    98.215656   -36739.521    12044.363   -8712.4618   -36610.343    78.787439 
   61100    1314.7009   -121.27229     1.189569   -120.08272   -6152.0545    4.2897028    4.2897028    4.2897028   -6152.0545    21949.204    780.94402   -41186.311   -9336.2622    11098.383   -11515.607    78.937181 
   61200    1946.6606   -121.83365    1.7613794   -120.07227    780.58095    4.3045154    4.3045154    4.3045154    780.58095   -21607.267    8697.5944    15251.416     -4765.27   -2943.6256    18487.307    79.757734 
   61300    1344.0431   -121.29715    1.2161185   -120.08103   -9225.5001    4.2966503    4.2966503    4.2966503   -9225.5001   -29166.034    33497.983   -32008.449    7329.4262   -31914.885   -18347.522    79.321335 
   61400    707.15639   -120.72229   0.63984996   -120.08244    8627.4914    4.2827494    4.2827494    4.2827494    8627.4914    22094.202    16910.234   -13121.962     2211.357   -15438.525   -49718.434    78.553946 
   61500     1462.969   -121.40276    1.3237251   -120.07903    2240.2863    4.2951241    4.2951241    4.2951241    2240.2863    5575.1848   -9175.7547    10321.429   -1276.6878    17008.066   -20098.792    79.236838 
   61600    1796.8802   -121.69241    1.6258549   -120.06655    977.03823    4.3007871    4.3007871    4.3007871    977.03823   -34697.453    16132.855    21495.712   -15446.141    -9579.885    16937.158    79.550671 
   61700      815.763   -120.81468   0.73811951   -120.07656   -3755.1208     4.299244     4.299244     4.299244   -3755.1208   -23426.957    32274.767   -20113.172   -12450.351   -33829.916   -20004.998    79.465072 
   61800    1093.2856   -121.05982   0.98922783   -120.07059   -21656.335    4.3006049    4.3006049    4.3006049   -21656.335   -2214.3657   -2016.8876   -60737.753    8970.3744   -179.29067    -55956.06     79.54056 
   61900    1907.4605   -121.78462    1.7259104   -120.05871    21516.308    4.2855017    4.2855017    4.2855017    21516.308    4037.3288    19456.806    41054.788   -4430.7935     20763.13   -100.38041    78.705487 
   62000     1551.448   -121.47134    1.4037827   -120.06755    12655.738    4.2883864    4.2883864    4.2883864    12655.738   -17948.312    26633.111    29282.416   -23049.753   -26428.278     14167.05    78.864529 
   62100    874.43961    -120.8712   0.79121134   -120.07998   -24134.991    4.3063453    4.3063453    4.3063453   -24134.991   -19919.489   -16269.238   -36216.246   -6461.6064   -37262.713   -29449.491    79.859494 
   62200    1597.1175   -121.51223    1.4451055   -120.06713   -3097.5703    4.3012842    4.3012842    4.3012842   -3097.5703    13728.857    -14382.15    -8639.418    3747.2147    816.93094    -27749.49    79.578258 
   62300    2090.2476   -121.94579    1.8912999   -120.05449    23977.371    4.2902041    4.2902041    4.2902041    23977.371    14081.409    24441.521    33409.182    2410.1594    11501.782    7265.3248     78.96486 
   62400    1334.3187   -121.28067    1.2073196   -120.07335    154.53604    4.2914111    4.2914111    4.2914111    154.53604   -22125.884    17167.737    5421.7547   -14448.263   -21881.217   -478.14152    79.031526 
   62500    1074.7974   -121.04934   0.97249932   -120.07684   -1110.1042    4.2962721    4.2962721    4.2962721   -1110.1042    10385.282    11262.385    -24977.98   -14326.713   -39678.627   -33151.533    79.300392 
   62600    1644.8406   -121.55424    1.4882863   -120.06595    2072.1613    4.3014674    4.3014674    4.3014674    2072.1613    38177.471    -14508.63   -17452.357     11510.41    5954.4053   -19406.724    79.588426 
   62700    1552.0717   -121.46814    1.4043471   -120.06379   -7450.1022     4.298606     4.298606     4.298606   -7450.1022   -18908.934   -26901.492     23460.12    14189.737    21166.297    10222.238    79.429698 
   62800    1489.2194   -121.41175     1.347477   -120.06427    7312.9157    4.2897555    4.2897555    4.2897555    7312.9157    5912.2699   -4137.5474    20164.025   -5574.7289   -15016.837   -4157.4353     78.94009 
   62900    1768.8093   -121.66464    1.6004558   -120.06418    1880.5508      4.29032      4.29032      4.29032    1880.5508    44635.369   -19468.655   -19525.062   -6088.0039   -9308.3268   -25793.415     78.97126 
   63000    1060.4155   -121.03627    0.9594862   -120.07678   -6161.7794    4.2967359    4.2967359    4.2967359   -6161.7794    4082.0388   -24744.263    2176.8866    21913.301    18845.139   -20349.565    79.326077 
   63100    983.27566   -120.96073   0.88968848   -120.07104   -21567.643    4.3044578    4.3044578    4.3044578   -21567.643   -53655.072   -25814.463    14766.605    27122.035    30895.066    1125.3108     79.75453 
   63200    1653.4049   -121.55179    1.4960355   -120.05576   -8736.3371     4.302445     4.302445     4.302445   -8736.3371   -6076.9043   -25523.224    5391.1167    -19941.88   -3344.8999   -431.52125    79.642702 
   63300    1397.0973   -121.32036     1.264123   -120.05623   -4095.3013     4.290625     4.290625     4.290625   -4095.3013    22296.136   -22387.799   -12194.242    -10303.95   -11453.983   -35487.786      78.9881 
   63400    766.56445   -120.76541   0.69360362    -120.0718   -10874.869    4.2847509    4.2847509    4.2847509   -10874.869   -44254.847   -8556.6908    20186.931    47964.791    21979.997   -16725.985    78.664127 
   63500    1163.1492   -121.13872    1.0524418   -120.08628   -8418.5063    4.2947488    4.2947488    4.2947488   -8418.5063   -62644.299     4776.791    32611.989    38066.821    20631.958    13134.014    79.216074 
   63600    1868.1311   -121.75842    1.6903243   -120.06809   -175.94222    4.3051018    4.3051018    4.3051018   -175.94222   -9155.1444   -3688.9145    12316.232   -10132.577    5323.7638     -11481.3    79.790334 
   63700    1443.3002   -121.37784    1.3059284   -120.07192   -4508.1152    4.2997621    4.2997621    4.2997621   -4508.1152   -14590.491   -14120.679    15186.824    5163.2723   -5722.9037    -19533.12    79.493804 
   63800    723.50402   -120.73003   0.65464165   -120.07539   -7188.9322    4.2963677    4.2963677    4.2963677   -7188.9322   -40533.035   -11085.245    30051.483    54514.285      22911.9   -5895.8407    79.305688 
   63900    1619.2368   -121.52499    1.4651195   -120.05987    1772.5881    4.2976567    4.2976567    4.2976567    1772.5881   -32618.385    13212.269     24723.88    10324.677    22207.773    13879.475    79.377089 
   64000    1685.9908   -121.57835    1.5255199   -120.05283    5979.0654    4.3027351    4.3027351    4.3027351    5979.0654    11384.653   -3297.1726    9849.7155   -42119.947   -4198.9831   -8607.5826     79.65881 
   64100    1108.3254    -121.0627    1.0028361   -120.05987   -11927.988     4.305704     4.305704     4.305704   -11927.988    9465.1404   -27739.192   -17509.913    17382.163    4836.7274   -31119.971    79.823823 
   64200    1568.9826   -121.47637    1.4196485   -120.05672   -4339.1769    4.2955394    4.2955394    4.2955394   -4339.1769    1047.5395    3500.3172   -17565.387    39503.786    13149.265    664.39974    79.259824 
   64300    1691.1556   -121.58995    1.5301931   -120.05976     6598.295    4.2857816    4.2857816    4.2857816     6598.295    -8460.926    32402.589   -4146.7779    -21637.13    14527.642    10986.867    78.720908 
   64400    1123.1048   -121.09409    1.0162088   -120.07788   -1706.4888    4.2945929    4.2945929    4.2945929   -1706.4888     6799.065    877.32153   -12795.853   -49030.729    2884.4237   -19333.499    79.207443 
   64500    1405.4812   -121.34771    1.2717089     -120.076    -10329.28    4.3063416    4.3063416    4.3063416    -10329.28    4222.1657   -9929.6902   -25280.317    -1738.634     -3377.78    -32755.33    79.859288 
   64600    1943.5776    -121.8177    1.7585898   -120.05911    18960.818    4.2968474    4.2968474    4.2968474    18960.818    11506.021    39509.719    5866.7135    22515.099    5538.5609    2726.3827    79.332255 
   64700    1206.9392   -121.15325     1.092064   -120.06119   -1176.5042    4.2992058    4.2992058    4.2992058   -1176.5042    -22121.03   -7701.4495    26292.967   -41592.779    6701.9327    6982.3127    79.462954 
   64800    851.01693   -120.83129     0.770018   -120.06128   -27669.117    4.3064214    4.3064214    4.3064214   -27669.117   -23459.988   -60589.969    1042.6073   -38991.024   -3721.7586   -31167.729    79.863726 
   64900    1621.2001   -121.52167    1.4668959   -120.05477    18905.924    4.2884919    4.2884919    4.2884919    18905.924    37880.529    16926.188    1911.0545    21671.106   -1359.6861   -23973.206    78.870355 
   65000    1715.0614   -121.61209    1.5518236   -120.06027    11343.401     4.288059     4.288059     4.288059    11343.401    12775.201    8839.4896    12415.511   -4589.5493   -5401.9846    7424.3255    78.846468 
   65100    1205.7742   -121.16541    1.0910098    -120.0744   -14653.739    4.2991024    4.2991024    4.2991024   -14653.739   -33437.216   -29237.211    18713.211    -43794.08    3806.0263   -5431.1652    79.457222 
   65200    894.02841   -120.88435    0.8089357   -120.07542    7598.1691    4.2949134    4.2949134    4.2949134    7598.1691     19746.42   -750.09709    3798.1846   -24435.658    6027.3945   -45912.332    79.225178 
   65300    1276.1122   -121.22477    1.1546531   -120.07011   -3267.7774    4.2969758    4.2969758    4.2969758   -3267.7774     31854.12   -23958.658   -17698.795    13424.742    -6228.966   -32331.858    79.339365 
   65400    1654.0666   -121.56219    1.4966343   -120.06555   -6454.3525    4.2958665    4.2958665    4.2958665   -6454.3525   -14421.963   -22756.041    17814.947    30615.578    1183.4012    22852.136    79.277934 
   65500    1178.1478   -121.13824    1.0660129   -120.07223   -2590.6368    4.2905695    4.2905695    4.2905695   -2590.6368    5395.2446   -23269.656    10102.501   -12284.308   -1494.0849   -16940.103    78.985036 
   65600    920.73226   -120.91378   0.83309789   -120.08068   -6631.3077    4.2940521    4.2940521    4.2940521   -6631.3077    31605.167    -39466.95    -12032.14   -31966.865     907.1691   -68296.553    79.177526 
   65700    1894.2249   -121.78712    1.7139345   -120.07318     745.3447    4.2952672    4.2952672    4.2952672     745.3447    4347.8905   -18431.349    16319.493    8301.3113    8564.1707    -12115.17    79.244759 
   65800    2282.1953   -122.13243    2.0649783   -120.06745    9954.8361    4.2969873    4.2969873    4.2969873    9954.8361   -7244.0779    13280.906    23827.681    17344.023   -8424.9318    6057.8896    79.340004 
   65900    1273.0342    -121.2403    1.1518681   -120.08844   -4288.7011    4.2931944    4.2931944    4.2931944   -4288.7011    19865.237   -42941.456    10210.116   -6909.5137   -3444.7232   -64983.684    79.130091 
   66000     956.5701   -120.95755   0.86552473   -120.09203   -939.24164    4.2851918    4.2851918    4.2851918   -939.24164    19677.058   -40435.539    17940.756   -33965.725    2945.8007   -43302.417    78.688413 
   66100    1688.7558   -121.61555    1.5280218   -120.08753    3057.5912    4.2920319    4.2920319    4.2920319    3057.5912    -2859.118    65.105733    11966.786   -20403.866    3000.9329    40058.756     79.06583 
   66200    1980.1048   -121.86696    1.7916404   -120.07532    8885.3706    4.2963077    4.2963077    4.2963077    8885.3706    26899.107    8823.2838   -9066.2791    9167.5437     9586.297    13241.357    79.302366 
   66300     1389.289    -121.3332    1.2570579   -120.07614    12271.831    4.2966201    4.2966201    4.2966201    12271.831    35251.165    14169.421   -12605.093    3265.5698   -2834.9803   -56750.311    79.319667 
   66400    1229.1151   -121.18751    1.1121291   -120.07538    -5619.618    4.2950065    4.2950065    4.2950065    -5619.618   -2747.2605   -28100.083    13988.489   -37773.913    -6406.479   -23283.583    79.230333 
   66500    1424.7485   -121.36117    1.2891423   -120.07203    17783.987    4.2824539    4.2824539    4.2824539    17783.987    12927.617    8450.2083    31974.135   -33327.674     2426.235    24454.202    78.537681 
   66600    1719.2242   -121.63094    1.5555902   -120.07535   -3016.7065    4.2896657    4.2896657    4.2896657   -3016.7065    18338.857   -17229.986   -10158.991    24070.668    6717.2781    2064.2178    78.935133 
   66700    1079.6098   -121.05861    0.9768536   -120.08176   -18394.124     4.298875     4.298875     4.298875   -18394.124    3920.4092   -43725.988   -15376.792   -3997.1066     2330.235   -27296.186    79.444612 
   66800    740.28453   -120.75351     0.669825   -120.08368   -146.09042    4.2936965    4.2936965    4.2936965   -146.09042   -24677.569   -4242.0031      28481.3   -67256.639   -12865.896   -25235.241     79.15786 
   66900    1702.6857   -121.61626    1.5406258   -120.07564   -5523.8869    4.2979412    4.2979412    4.2979412   -5523.8869   -29896.649    5854.4365    7470.5521   -24248.341    5755.6825    15444.874    79.392853 
   67000    1989.0424   -121.86149    1.7997273   -120.06177    21756.001    4.2899631    4.2899631    4.2899631    21756.001   -3348.8337    56501.802    12115.036    17282.943    13468.761   -448.25671     78.95155 
   67100     835.2543   -120.83674   0.75575564   -120.08098   -5488.7594    4.2976181    4.2976181    4.2976181   -5488.7594   -7823.9949   -28498.953    19856.669   -51149.846   -329.93622   -30108.883    79.374952 
   67200    847.61945   -120.83557   0.76694389   -120.06862   -32089.913    4.3131825    4.3131825    4.3131825   -32089.913   -31472.536   -74628.579    9831.3749   -49314.878   -9528.5876   -20359.056    80.240478 
   67300    2078.6124   -121.93048    1.8807721   -120.04971    25714.233    4.2853263    4.2853263    4.2853263    25714.233    25439.557    32448.142    19255.001    21255.006   -1544.5121    9986.4043    78.695825 
   67400     1568.593   -121.48409    1.4192959   -120.06479    6949.1621    4.2811156    4.2811156    4.2811156    6949.1621    2349.0416   -2574.6853     21073.13   -18524.461    6638.5161    4980.8587    78.464078 
   67500    412.96762    -120.4607   0.37366178   -120.08704   -38607.403     4.300396     4.300396     4.300396   -38607.403   -53185.025   -59767.363   -2869.8205    -78696.58   -692.73007   -26741.708    79.528968 
   67600    999.46288   -120.98923   0.90433502    -120.0849    4291.4618    4.2903228    4.2903228    4.2903228    4291.4618    10514.536    13410.398   -11050.549   -16759.654    5929.2075   -28438.048    78.971413 
   67700    1999.7841   -121.87936    1.8094467   -120.06992    5487.7914    4.2935346    4.2935346    4.2935346    5487.7914    5637.7769    8238.7442    2586.8531    22194.221    1239.3166    1233.0962    79.148902 
   67800    1391.2837   -121.32906    1.2588627   -120.07019   -14809.138    4.3031505    4.3031505    4.3031505   -14809.138   -39690.596   -26678.872    21942.053   -39964.062    -1765.045    15778.133    79.681886 
   67900    1116.8412    -121.0764    1.0105414   -120.06586    1600.8621    4.2914545    4.2914545    4.2914545    1600.8621    3957.5827   -12728.591    13573.595   -50037.104   -3960.6161   -28013.059    79.033925 
   68000    1643.8663   -121.54671    1.4874048    -120.0593    2655.2925    4.2911852    4.2911852    4.2911852    2655.2925     14338.65    10521.853   -16894.625    16930.021   -3768.1203   -31430.886    79.019043 
   68100    1565.4744   -121.47895    1.4164741   -120.06247   -9011.6863    4.2948883    4.2948883    4.2948883   -9011.6863   -27851.404   -3183.1841    3999.5287    15711.718    3293.0565    6694.3346     79.22379 
   68200    980.33344   -120.95852    0.8870263    -120.0715    1258.5216    4.2942747    4.2942747    4.2942747    1258.5216   -33576.601    1620.7343    35731.432   -43793.761   -31.040223    2560.2142    79.189838 
   68300    1564.3927   -121.48164    1.4154954   -120.06615   -8405.1032     4.302264     4.302264     4.302264   -8405.1032   -26829.808    17528.091   -15913.592   -21718.981   -2641.9583    -6969.809    79.632648 
   68400    2222.0876   -122.06501    2.0105916   -120.05442    8319.8237    4.2910179    4.2910179    4.2910179    8319.8237   -2355.4409    55008.108   -27693.196    14519.401   -1834.4086   -3924.1112    79.009805 
   68500    1304.7886   -121.24926    1.1806001   -120.06866     10518.46      4.28652      4.28652      4.28652     10518.46   -15903.108    19443.044    28015.442   -8451.1136   -1336.6719   -6222.2853    78.761608 
   68600    994.55289   -120.97489   0.89989236     -120.075    -27474.76    4.3009734    4.3009734    4.3009734    -27474.76    -67853.29    -54444.13    39873.139   -27471.488    -792.4043     13266.43    79.561006 
   68700    1836.2289   -121.72318    1.6614585   -120.06172    3323.6838    4.2893798    4.2893798    4.2893798    3323.6838   -8961.2932    20105.163   -1172.8181    722.76716   -6596.0833    8764.3119    78.919352 
   68800    1638.2608   -121.54557    1.4823328   -120.06324    5685.1889    4.2907219    4.2907219    4.2907219    5685.1889    16907.102    24954.421   -24805.957    4267.5258   -2761.3998   -19809.897    78.993451 
   68900     1003.059    -120.9795   0.90758891   -120.07191   -22980.944    4.2997742    4.2997742    4.2997742   -22980.944   -52022.863   -33377.887    16457.918   -43584.033   -361.78749   -7675.8227    79.494476 
   69000    1090.4982   -121.05714   0.98670564   -120.07044    15596.394     4.282325     4.282325     4.282325    15596.394   -25036.852    23126.272    48699.764    -24575.96    1426.1444    3246.5301    78.530592 
   69100    1596.9716   -121.51168    1.4449734   -120.06671    4724.7258    4.2910556    4.2910556    4.2910556    4724.7258    8970.3236     28741.63   -23537.776    21580.883   -5122.2258    460.98755    79.011884 
   69200    1218.3555   -121.16637    1.1023937   -120.06397   -26921.756    4.3053248    4.3053248    4.3053248   -26921.756   -32091.181    2630.3115     -51304.4   -18590.589   -2166.3829    2582.9805     79.80273 
   69300    894.12677   -120.87438   0.80902469   -120.06536    5238.2406    4.2886911    4.2886911    4.2886911    5238.2406   -10489.672    3263.8649    22940.529   -69770.779     -670.534   -8482.8814    78.881345 
   69400    1630.3127   -121.53297    1.4751412   -120.05783     4145.811    4.2911433    4.2911433    4.2911433     4145.811    22163.151   -10306.085    580.36691   -8975.6616    1152.4085    7573.8683    79.016728 
   69500    1651.3738   -121.54965    1.4941977   -120.05545   -16284.611    4.3028163    4.3028163    4.3028163   -16284.611    3649.2938   -12878.276   -39624.851    22342.669   -7219.9949    19039.343    79.663322 
   69600    619.17956   -120.62588   0.56024668   -120.06563    1394.2086    4.2954132    4.2954132    4.2954132    1394.2086    9466.6211   -28718.204    23434.209   -59035.746   -11526.803    3650.4563    79.252839 
   69700    1341.8291   -121.27884    1.2141151   -120.06472    2249.6408    4.2986174    4.2986174    4.2986174    2249.6408   -2737.6053   -15114.122     24600.65   -47942.059   -880.32636   -5331.7477    79.430334 
   69800    2381.0248   -122.20954    2.1544013   -120.05514    7033.9056    4.2933802    4.2933802    4.2933802    7033.9056    12638.619    6846.6804    1616.4169    28566.494    4208.0655    3610.5242    79.140362 
   69900    1367.7451   -121.31086    1.2375645   -120.07329    28215.896    4.2801511    4.2801511    4.2801511    28215.896    4770.2229    42919.069    36958.396   -27212.825   -3514.0061    17199.133    78.411054 
   70000    996.52485   -120.99069   0.90167662   -120.08901   -14850.536    4.2960004    4.2960004    4.2960004   -14850.536   -37376.941   -29964.025    22789.359   -78371.385   -7583.7213     10545.85    79.285349 
   70100    1877.9475   -121.76992    1.6992064   -120.07072   -4728.6636    4.2979464    4.2979464    4.2979464   -4728.6636   -12642.858     8803.085   -10346.217   -1801.6414   -9167.9849   -5053.9222    79.393143 
   70200    2088.0583   -121.95487     1.889319   -120.06555    7334.1781    4.2861343    4.2861343    4.2861343    7334.1781    1396.6486    12937.356      7668.53    27328.111    3101.6531   -7872.8221    78.740345 
   70300    1017.1288   -121.00224   0.92031956   -120.08192   -6040.3913    4.2876065    4.2876065    4.2876065   -6040.3913   -33933.064   -27089.098    42900.988   -55859.543    2907.3271    5196.2343    78.821511 
   70400    1112.8419   -121.08898    1.0069227   -120.08206    6536.0866     4.291968     4.291968     4.291968    6536.0866   -35015.512    45270.145    9353.6266    -47682.76   -15033.565    14255.499    79.062294 
   70500    1899.1739   -121.78514    1.7184124   -120.06673    7878.9961    4.2975833    4.2975833    4.2975833    7878.9961    10467.592    55451.771   -42282.376    13549.144   -19994.131   -8335.8252    79.373022 
   70600    1564.7968   -121.48335     1.415861   -120.06749    6183.6052    4.2911387    4.2911387    4.2911387    6183.6052    12463.771    16026.054   -9939.0093   -24042.286   -955.96092   -25043.916    79.016478 
   70700    1287.2632   -121.23628    1.1647428   -120.07153   -242.36076    4.2866005    4.2866005    4.2866005   -242.36076   -26555.861   -4772.4064    30601.185   -59346.281    5307.2383   -2719.5745    78.766044 
   70800    1396.3739   -121.33662    1.2634685   -120.07315   -7458.8794    4.2933834    4.2933834    4.2933834   -7458.8794   -36897.954    11707.764    2813.5515   -6910.8969   -22473.014    7592.8995    79.140541 
   70900    1499.7407   -121.42669    1.3569969   -120.06969    3737.8261    4.2939933    4.2939933    4.2939933    3737.8261    -6132.153    28191.282   -10845.651    23137.281   -20812.819   -12315.561    79.174271 
   71000     1159.799   -121.11816    1.0494105   -120.06875    7260.9749    4.2960183    4.2960183    4.2960183    7260.9749   -5159.0805    17361.686    9580.3193   -29334.449    10410.108   -23971.345    79.286338 
   71100    1083.4475   -121.04902   0.98032604   -120.06869   -10499.112    4.2976072    4.2976072    4.2976072   -10499.112    -32747.75   -7982.1735    9232.5858   -43218.224    -4395.386    279.17289    79.374347 
   71200    1122.4589   -121.08663    1.0156244   -120.07101    3422.3253     4.283372     4.283372     4.283372    3422.3253   -41006.765    34198.282    17075.459    3403.7744   -38601.269    13641.129    78.588206 
   71300    1267.5621   -121.22207    1.1469168   -120.07515    10346.073     4.283644     4.283644     4.283644    10346.073   -29442.852    38033.244    22447.826     22942.48   -13010.068   -2053.1646    78.603182 
   71400    1327.2482    -121.2763     1.200922   -120.07537    -15214.69    4.3012694    4.3012694    4.3012694    -15214.69   -27543.211   -19023.167    922.30943    -16099.81    24548.471   -25737.613    79.577432 
   71500    1157.6095   -121.12108    1.0474294   -120.07365   -4006.0928    4.2969416    4.2969416    4.2969416   -4006.0928   -29537.563    -13186.46    30705.744   -26034.661   -13326.222    -1069.762     79.33747 
   71600    1319.2119   -121.26231    1.1936507   -120.06866   -2340.4612    4.2880419    4.2880419    4.2880419   -2340.4612   -29738.441    17467.807    5249.2501    -9441.505   -47535.199     22212.23    78.845526 
   71700    1643.3773    -121.5548    1.4869623   -120.06784   -5703.5416    4.2895037    4.2895037    4.2895037   -5703.5416   -20795.843    27227.631   -23542.412    6536.2668    17324.974    483.54428     78.92619 
   71800    1666.3846   -121.57818    1.5077798    -120.0704   -3677.9385      4.28956      4.28956      4.28956   -3677.9385   -12477.963    6702.5899   -5258.4425   -6241.1198    47695.139   -13149.134      78.9293 
   71900    1455.5631   -121.39143     1.317024    -120.0744   -14365.496    4.2938383    4.2938383    4.2938383   -14365.496   -18100.588   -12917.033   -12078.867   -20079.244   -30772.479   -2866.5256    79.165699 
   72000     1139.242   -121.10886    1.0308101   -120.07805   -17383.434    4.2925373    4.2925373    4.2925373   -17383.434   -15448.916   -1825.7774   -34875.607   -4497.1817   -40930.033    16047.338    79.093764 
   72100    1336.0203   -121.28459    1.2088592   -120.07573    1821.3975    4.2871651    4.2871651    4.2871651    1821.3975    2317.0381    18424.916   -15277.761    6124.1094    33995.171    10103.911    78.797171 
   72200    1916.8071    -121.8047    1.7343673   -120.07033     6086.735     4.288108     4.288108     4.288108     6086.735    9286.5052    570.01147    8403.6884   -8517.6863    37493.951   -4162.2008    78.849175 
   72300     1228.726   -121.19433    1.1117771   -120.08255    2870.9557    4.2882803    4.2882803    4.2882803    2870.9557    5474.7755   -13346.153    16484.244   -22856.112   -27546.074   -6125.1045    78.858676 
   72400    765.60268   -120.78404    0.6927334   -120.09131   -7910.0624      4.29308      4.29308      4.29308   -7910.0624   -19070.583   -17305.935    12646.331   -6342.2766    -42267.84    7132.4445    79.123766 
   72500    1730.5958   -121.64439    1.5658795   -120.07851   -2347.8429    4.2934752    4.2934752    4.2934752   -2347.8429    5390.9878   -18512.493    6077.9766    23780.052    635.53897    12794.408    79.145617 
   72600    2067.8225   -121.93809    1.8710092   -120.06708    8557.1168    4.2901695    4.2901695    4.2901695    8557.1168    25709.237    -9053.015    9015.1283   -4999.8634    14137.681   -16962.006    78.962949 
   72700    871.04053   -120.86669   0.78813578   -120.07855   -4385.3483    4.2979638    4.2979638    4.2979638   -4385.3483   -27199.795    3627.1382    10416.612   -24691.069   -29633.339   -20514.148    79.394105 
   72800    1139.9503   -121.09688     1.031451   -120.06543   -2617.3413    4.3018102    4.3018102    4.3018102   -2617.3413   -22159.127   -1397.8172     15704.92   -297.99177   -35587.906    9864.6759    79.607454 
   72900    1893.3301   -121.76063    1.7131249   -120.04751   -3648.4785    4.2971349    4.2971349    4.2971349   -3648.4785   -13128.647   -5801.5857    7984.7975    14315.981     14784.18   -2604.1496    79.348177 
   73000    1054.9112   -121.01704   0.95450579   -120.06254   -5254.3927    4.2864467    4.2864467    4.2864467   -5254.3927   -24237.703    12656.309   -4181.7848   -3527.7513    25949.457   -21123.257    78.757567 
   73100    673.86405   -120.68832   0.60972635   -120.07859   -8167.1574    4.2842214    4.2842214    4.2842214   -8167.1574   -29734.545    21120.915   -15887.843   -32304.822   -25141.222   -21303.551    78.634969 
   73200    1412.2319   -121.35918    1.2778171   -120.08137   -9290.9151    4.2933647    4.2933647    4.2933647   -9290.9151    -25529.71    5022.1968   -7365.2319   -24451.135   -35432.326    8563.1605    79.139508 
   73300    1760.9839   -121.66826    1.5933753   -120.07488   -7737.8582    4.2955545    4.2955545    4.2955545   -7737.8582   -3179.5482   -6928.7119   -13105.315    4994.5533     12256.11     28795.36    79.260664 
   73400    1428.5473   -121.37092    1.2925796   -120.07834    3109.8785    4.2879803    4.2879803    4.2879803    3109.8785     14822.33    12787.009   -18279.703   -1734.8946    15692.359    -10257.86    78.842127 
   73500    1427.3412   -121.36998    1.2914883   -120.07849    7770.9325    4.2880134    4.2880134    4.2880134    7770.9325   -8247.7808    33302.031   -1741.4527    -19781.13   -16791.138   -31629.582    78.843957 
   73600    1741.1871   -121.64463    1.5754627   -120.06916    3188.8466    4.2984187    4.2984187    4.2984187    3188.8466   -13258.885    4128.6662    18696.759   -7209.0848   -11055.554    15313.759    79.419315 
   73700    1455.0062    -121.3821    1.3165201   -120.06558   -2567.9201    4.2984193    4.2984193    4.2984193   -2567.9201      18608.1   -10811.536   -15500.324    10702.182    4231.9238    48773.196     79.41935 
   73800     1314.115   -121.25698    1.1890388   -120.06794    11673.979     4.287604     4.287604     4.287604    11673.979    37938.133    20849.387   -23765.584    4362.4382    1197.0977   -16482.741    78.821375 
   73900    1655.9577   -121.56447    1.4983453   -120.06612    13834.864    4.2838884    4.2838884    4.2838884    13834.864    1761.1012    25964.096    13779.394   -13418.354   -3347.1624   -52997.121    78.616636 
   74000    1556.9368   -121.48037    1.4087492   -120.07162   -196.55263    4.2893539    4.2893539    4.2893539   -196.55263   -15268.703    18521.022   -3841.9764    2692.3203   -4786.4597    33427.008    78.917923 
   74100    1005.5446   -120.98955    0.9098379   -120.07971   -7590.4901    4.2932784    4.2932784    4.2932784   -7590.4901    20315.875   -10466.204   -32621.142    12568.371    4936.4243    62294.929    79.134737 
   74200    955.99244   -120.94269   0.86500205   -120.07769   -1807.1692    4.2939182    4.2939182    4.2939182   -1807.1692    42524.597   -17330.763   -30615.341   -1475.0666    5942.7402    -35656.27    79.170118 
   74300    1617.5743      -121.53    1.4636152   -120.06638   -4883.4183    4.2941566    4.2941566    4.2941566   -4883.4183    5474.5805    4548.7075   -24673.543   -8873.0652    582.12353   -51338.266    79.183308 
   74400    1602.5491   -121.51761    1.4500201   -120.06759    6961.4872    4.2861623    4.2861623    4.2861623    6961.4872    16612.003    18345.627   -14073.168   -16983.888   -1452.1544    37544.594    78.741888 
   74500    1278.4869   -121.23343    1.1568018   -120.07663    8659.4885    4.2848884    4.2848884    4.2848884    8659.4885    68512.817   -14337.382   -28196.969     879.3494   -8899.7959     36738.02    78.671699 
   74600    1311.4014   -121.26325    1.1865835   -120.07666   -5972.0994     4.297546     4.297546     4.297546   -5972.0994    54828.299   -27336.089   -45408.508    21493.103   -3673.4145   -35699.815    79.370955 
   74700    1572.0668   -121.49059    1.4224391   -120.06815   -6051.9502    4.2970033    4.2970033    4.2970033   -6051.9502    6688.7025   -13145.427   -11699.126   -25519.666    2625.1173    -30094.53    79.340891 
   74800    1181.4956   -121.14006     1.069042   -120.07101    12156.023    4.2860709    4.2860709    4.2860709    12156.023    31363.939   -12838.168    17942.298   -45662.977      2635.83    23344.644    78.736852 
   74900    1512.2526   -121.43801    1.3683179   -120.06969    7795.8666    4.2887533    4.2887533    4.2887533    7795.8666     27934.48    769.72081   -5316.6011    12985.753   -384.50956    18979.179    78.884775 
   75000    1596.2199   -121.51017    1.4442933   -120.06588   -2747.9425     4.296561     4.296561     4.296561   -2747.9425    3473.3128   -7341.6389   -4375.5014    17929.513   -4461.2993   -12978.634    79.316392 
   75100    862.45999   -120.85792   0.78037192   -120.07755   -12632.883    4.2947358    4.2947358    4.2947358   -12632.883    -36104.18   -36227.937    34433.468   -61474.392    8106.4932   -12542.537    79.215352 
   75200    1231.0743   -121.19101    1.1139019   -120.07711   -1295.0556    4.2895251    4.2895251    4.2895251   -1295.0556   -26930.084    -6568.023     29612.94   -53016.787     10892.79   -258.85492    78.927371 
   75300    2307.5194   -122.15098     2.087892   -120.06309    10222.138    4.2896623    4.2896623    4.2896623    10222.138   -7392.5428    27814.758    10244.199    20771.628   -4105.0479    12882.562    78.934944 
   75400    1350.6185   -121.30092     1.222068   -120.07885   -9895.1497    4.2988985    4.2988985    4.2988985   -9895.1497   -52362.346   -13874.994    36551.891   -39440.194   -6963.4381    4759.6641    79.445917 
   75500    734.26306   -120.73898   0.66437665    -120.0746   -20698.879    4.3022291    4.3022291    4.3022291   -20698.879   -65208.713   -25598.689    28710.764   -64417.896    2138.4778       -14482    79.630715 
   75600    1658.3755   -121.56007     1.500533   -120.05954    2420.9429    4.2915665    4.2915665    4.2915665    2420.9429   -501.85523    16578.019   -8813.3351    18216.539    10554.657   -17531.931    79.040108 
   75700    1708.9763   -121.60653    1.5463177   -120.06021    9948.7197    4.2844618    4.2844618    4.2844618    9948.7197   -6564.8068    24708.253    11702.712   -1925.5828    -2499.245   -2138.2595    78.648209 
   75800    1495.7329   -121.42296    1.3533706   -120.06959    -394.3432    4.2892038    4.2892038    4.2892038    -394.3432   -31935.951    3170.4457    27582.476   -65809.387   -11558.345    10398.122    78.909635 
   75900     1548.634   -121.46886    1.4012366   -120.06762   -5135.3764    4.2964827    4.2964827    4.2964827   -5135.3764   -6995.4159   -5534.1511   -2876.5621    -11661.05   -1889.6997   -13335.802    79.312057 
   76000    1053.4617   -121.02473   0.95319425   -120.07153   -15246.777    4.3000587    4.3000587    4.3000587   -15246.777    17597.855   -20499.625   -42838.559     36390.62    6713.8997   -20503.651    79.510258 
   76100    1379.4283   -121.31885    1.2481357   -120.07071   -6932.3356    4.2941507    4.2941507    4.2941507   -6932.3356    5070.3888   -4186.3498   -21681.046   -2425.1797   -798.47984    22133.642    79.182982 
   76200     2297.922   -122.13471    2.0792081   -120.05551    20056.596    4.2826018    4.2826018    4.2826018    20056.596    13012.442    27130.858    20026.488    -17531.71   -5440.3351    12726.862    78.545822 
   76300    1332.6799   -121.28134    1.2058368    -120.0755    6894.5895    4.2885907    4.2885907    4.2885907    6894.5895    9541.5938     12885.57   -1743.3952    8324.2034    705.78266   -46210.224    78.875804 
   76400    500.65278   -120.53647   0.45300116   -120.08347   -21891.198    4.3060324    4.3060324    4.3060324   -21891.198   -1034.7051    -27520.37   -37118.518    18080.078    6310.1484   -16055.359    79.842088 
   76500    1636.5912   -121.53517    1.4808221   -120.05434   -9021.7258    4.3022167    4.3022167    4.3022167   -9021.7258   -3181.9826   -20699.458   -3183.7361    4915.5238    8111.4132    29544.909    79.630025 
   76600    1505.0583   -121.41079    1.3618084   -120.04898    9459.7567    4.2868808    4.2868808    4.2868808    9459.7567    11473.327   -7043.6302    23949.573    -29914.32   -16169.795   -8882.4096    78.781497 
   76700    785.64892   -120.77654   0.71087165   -120.06566   -7817.3833    4.2875061    4.2875061    4.2875061   -7817.3833    12792.551    -30419.46   -5825.2405    589.99574   -4952.8335   -33890.893    78.815977 
   76800    1311.9119   -121.25183    1.1870455   -120.06478    2523.8523    4.2940399    4.2940399    4.2940399    2523.8523    9959.5305   -7698.7499    5310.7765    32257.967    16408.653   -14101.722    79.176853 
   76900    1889.5646    -121.7682    1.7097178   -120.05848   -6550.6778    4.2981571    4.2981571    4.2981571   -6550.6778   -12204.992   -29622.181    22175.139   -24789.976   -7056.4252    13808.869    79.404819 
   77000    1177.8987   -121.13268    1.0657875   -120.06689   -15852.342    4.2956222    4.2956222    4.2956222   -15852.342   -5751.3552   -51123.384    9317.7116   -46389.992   -8429.1131   -7008.4373    79.264412 
   77100    1134.6344   -121.09423    1.0266411   -120.06759   -5234.6612    4.2855826    4.2855826    4.2855826   -5234.6612    4465.8083   -15586.326   -4583.4661    4617.3635    285.14185   -49557.137    78.709945 
   77200    1684.4945   -121.58961     1.524166   -120.06545    13291.317    4.2849624    4.2849624    4.2849624    13291.317    13888.202    13666.403    12319.345    25973.422    11035.308   -12597.429    78.675781 
   77300    1582.3473   -121.49732    1.4317411   -120.06558   -3144.7748     4.296569     4.296569     4.296569   -3144.7748   -14472.982   -9255.8892    14294.546   -34147.902     4894.028    28612.555    79.316837 
   77400    1063.6728    -121.0304   0.96243353   -120.06797    -8548.583    4.3019564    4.3019564    4.3019564    -8548.583   -14125.256    7293.9541   -18814.447   -27644.533   -11744.079   -19516.749     79.61557 
   77500    1636.2567   -121.54311    1.4805194   -120.06259    8169.5875    4.2913897    4.2913897    4.2913897    8169.5875    24998.782    19335.372   -19825.392    16341.597    2445.7392   -49348.134    79.030345 
   77600    2060.1608   -121.91795    1.8640768   -120.05387    31389.852    4.2765739    4.2765739    4.2765739    31389.852    25382.389    46953.999    21833.168   -9339.6842   -1806.1765    3175.4772    78.214621 
   77700     1266.681   -121.22404    1.1461195   -120.07792   -4954.4258    4.2900287    4.2900287    4.2900287   -4954.4258    9924.0541   -25520.836    733.50466   -30500.218    719.92405    37348.694    78.955174 
   77800    1175.4329    -121.1379    1.0635564   -120.07435   -26441.941    4.3023636    4.3023636    4.3023636   -26441.941    14611.099   -59108.922       -34828   -22894.176    5204.6188   -1728.2089    79.638179 
   77900    2180.5204   -122.02929    1.9729807    -120.0563    13649.526     4.286141     4.286141     4.286141    13649.526    43831.499    5338.4261   -8221.3477    9183.6369   -11988.471   -24941.028    78.740717 
   78000    1382.2203   -121.31961     1.250662   -120.06895   -6241.0499    4.2872028    4.2872028    4.2872028   -6241.0499    1251.5617   -42350.536    22375.825    3749.8973    3108.5265    14639.908    78.799249 
   78100    361.31206   -120.41162   0.32692274    -120.0847   -27533.317    4.2913921    4.2913921    4.2913921   -27533.317   -2229.3413   -96056.143    15685.534   -34210.923    5158.2549    40581.695    79.030476 
   78200    1434.9123   -121.37604    1.2983388    -120.0777    8278.3089    4.2908035    4.2908035    4.2908035    8278.3089    57178.406   -43139.529     10796.05   -9795.5724   -7013.3361    10124.726    78.997961 
   78300     2112.384   -121.96776    1.9113294   -120.05643    -11559.08    4.3008601    4.3008601    4.3008601    -11559.08    26430.595   -43167.121   -17940.716    6375.1475    9976.2732   -16143.456    79.554719 
   78400    685.67277    -120.6954   0.62041114   -120.07499    815.00077    4.2886078    4.2886078    4.2886078    815.00077    52807.436   -70641.155    20278.721   -20151.159   -5373.6339    3777.6674    78.876748 
   78500    878.62377   -120.86325   0.79499725   -120.06825    3540.7952    4.2834399    4.2834399    4.2834399    3540.7952    32784.106   -50533.076    28371.356   -30096.829    759.67388     32445.44    78.591943 
   78600    1648.0465   -121.54897    1.4911871   -120.05778    -8738.237    4.2950714    4.2950714    4.2950714    -8738.237    18384.971   -38705.593   -5894.0893    9871.8462    6980.5204   -16971.483    79.233924 
   78700         1227    -121.1758    1.1102154   -120.06558    4895.5464    4.2879782    4.2879782    4.2879782    4895.5464    55930.614   -24994.312   -16249.663   -267.71815   -12002.056   -59803.936    78.842011 
   78800    1112.6811   -121.07634    1.0067773   -120.06956    8230.3825    4.2905728    4.2905728    4.2905728    8230.3825    26302.275   -18168.496    16557.369   -29697.238    5015.6678    5010.9295    78.985218 
   78900    1642.3545   -121.54451    1.4860368   -120.05848   -14048.013    4.3001449    4.3001449    4.3001449   -14048.013    -4864.479    -40623.04    3343.4792   -22059.331   -60.073267    25565.715    79.515039 
   79000     1402.778   -121.33177     1.269263   -120.06251    12350.958     4.282962     4.282962     4.282962    12350.958     49301.58   -15293.988     3045.281    6024.2504   -3069.4545   -62770.649    78.565644 
   79100     1514.159   -121.43632    1.3700429   -120.06628    13468.044    4.2826304    4.2826304    4.2826304    13468.044    37405.653   -10921.144    13919.624    1883.2064    8813.2155   -54248.822    78.547397 
   79200    2043.2336   -121.90709    1.8487607   -120.05833   -4100.0317    4.2970875    4.2970875    4.2970875   -4100.0317   -28654.786   -11283.067    27637.758   -34660.371   -10265.081    21299.855    79.345556 
   79300    1422.6813   -121.35404    1.2872719   -120.06677    12220.465    4.2898183    4.2898183    4.2898183    12220.465    14808.564   -9705.5422    31558.373   -22164.181   -3813.7324   -19771.589    78.943557 
   79400    1009.3938   -120.98571   0.91332074   -120.07239     2408.676    4.2903286    4.2903286    4.2903286     2408.676    40184.151   -37123.147    4165.0234    12805.585    3178.4258   -69204.104    78.971734 
   79500    1855.9037   -121.74353    1.6792607   -120.06427   -2070.9718    4.2910595    4.2910595    4.2910595   -2070.9718   -7087.8317   -12427.296    13302.212    9944.4373   -6074.7714    6599.9888    79.012101 
   79600    1871.4015   -121.75269    1.6932834    -120.0594    21618.633    4.2828392    4.2828392    4.2828392    21618.633   -1034.0849    31307.196    34582.787    2189.9086     8254.322    4424.3671    78.558886 
   79700    987.62509   -120.96978   0.89362394   -120.07616   -17852.973    4.2954476    4.2954476    4.2954476   -17852.973    27175.865   -50883.543    -29851.24   -13279.421   -166.47856    -89043.53    79.254743 
   79800    1446.2137   -121.37827    1.3085646    -120.0697   -14637.637    4.2952245    4.2952245    4.2952245   -14637.637    9114.4739   -30268.615   -22758.771   -10044.936   -4016.6935   -36340.124    79.242399 
   79900    2094.6889   -121.94874    1.8953186   -120.05342    13917.177    4.2828763    4.2828763    4.2828763    13917.177    -4460.067    21388.689    24822.909    15229.269    5934.0503    29350.287    78.560924 
   80000    831.29611    -120.8304   0.75217419   -120.07822   -17929.472     4.288673     4.288673     4.288673   -17929.472    36991.364    -49504.04    -41275.74    10934.216   -1462.9627   -69608.155    78.880343 
   80100    610.00903   -120.63335   0.55194899    -120.0814   -11471.716    4.2924542    4.2924542    4.2924542   -11471.716     31484.67   -31325.264   -34574.554   -5844.3834     971.7123   -61539.615    79.089166 
   80200    1714.1181   -121.60949    1.5509701   -120.05852   -5988.1173    4.3000125    4.3000125    4.3000125   -5988.1173   -25605.526   -4649.6538    12290.828   -25032.756   -5368.6598    25004.305    79.507693 
   80300    1200.9841   -121.14551    1.0866756   -120.05883    -17544.98    4.2972255    4.2972255    4.2972255    -17544.98    16302.352   -54666.707   -14270.583   -18093.756   -4662.8552   -31354.001      79.3532 
   80400    917.09184   -120.88721   0.82980397    -120.0574   -848.51415    4.2820402    4.2820402    4.2820402   -848.51415    59967.753   -40719.154   -21794.142     7852.588    11431.177   -72841.804    78.514925 
   80500    1502.2011   -121.41424    1.3592231   -120.05501    1257.1364    4.2897728    4.2897728    4.2897728    1257.1364   -6140.5861   -21973.174     31885.17    160.09973    609.30184   -141.24335    78.941044 
   80600    1283.0297   -121.21995    1.1609122   -120.05904   -1345.8643    4.2993007    4.2993007    4.2993007   -1345.8643   -19110.547   -23006.077    38079.031   -15497.881    2475.2195    14605.443    79.468214 
   80700    1025.9144   -120.99323    0.9282689   -120.06496   -1768.3406    4.2918872    4.2918872    4.2918872   -1768.3406    27233.122   -32198.754   -339.38958   -16044.602     1159.593   -56420.267    79.057833 
   80800    1409.6695   -121.33708    1.2754986   -120.06159    1404.3934    4.2880908    4.2880908    4.2880908    1404.3934    22185.647   -22985.467    5012.9993    9324.6592      6169.19   -31736.328    78.848225 
   80900    1675.8292   -121.57582    1.5163255   -120.05949    5012.6774    4.2887707    4.2887707    4.2887707    5012.6774   -25014.922    752.60539    39300.349    34852.732    15677.495    17551.354    78.885735 
   81000    1316.8935   -121.25816    1.1915529   -120.06661    3792.5801    4.2932795    4.2932795    4.2932795    3792.5801   -9086.6304   -9889.4433    30353.814    5073.2907    131.36642   -25932.248    79.134794 
   81100    1563.9025   -121.47743    1.4150518   -120.06238   -607.04946     4.297669     4.297669     4.297669   -607.04946    27561.238   -15987.012   -13395.375   -22145.367   -2096.6971   -53614.707     79.37777 
   81200    1818.6729   -121.70018    1.6455735   -120.05461    14616.515    4.2915737    4.2915737    4.2915737    14616.515    5962.5861    26489.073    11397.885    26321.627    3356.2209    -5779.637    79.040506 
   81300    1658.7207   -121.56011    1.5008454   -120.05926    2549.4962    4.2931217    4.2931217    4.2931217    2549.4962   -29077.938    14657.658    22068.769    47440.909    1426.1992    8193.8336    79.126073 
   81400    1451.5024   -121.37799    1.3133498   -120.06464   -8868.0021    4.2928822    4.2928822    4.2928822   -8868.0021     10280.46   -17574.527    -19309.94    3657.2438    10081.139   -49791.481    79.112828 
   81500    1776.0225   -121.66961    1.6069825   -120.06263    15109.794    4.2845994    4.2845994    4.2845994    15109.794    39538.651    22489.606   -16698.873    -15248.48   -3452.9153   -36520.331    78.655784 
   81600    1769.9229   -121.66662    1.6014635   -120.06516   -1717.7593    4.2957855    4.2957855    4.2957855   -1717.7593   -11710.389   -7217.7928    13774.903    35137.761   -4236.2248     23367.24     79.27345 
   81700    1173.3211   -121.12723    1.0616455   -120.06558   -18087.195    4.3003045    4.3003045    4.3003045   -18087.195   -21605.226   -23239.318   -9417.0411    40340.693    7875.2471   -16892.783    79.523894 
   81800    1190.1139    -121.1392    1.0768401   -120.06236    4136.5665     4.287682     4.287682     4.287682    4136.5665    40541.572   -2219.4468   -25912.426   -7648.1603    6398.2393   -58891.072    78.825677 
   81900    1766.1294   -121.65224     1.598031   -120.05421    8249.5572    4.2892164    4.2892164    4.2892164    8249.5572    30905.423   -6738.1344    581.38285   -2689.7089    4136.0066    2055.7147    78.910334 
   82000    1242.6088   -121.18479    1.1243386   -120.06045   -6822.0279    4.2963138    4.2963138    4.2963138   -6822.0279   -9962.5147    -20518.86    10015.291    35880.066   -3576.9741    25185.291    79.302701 
   82100    575.50007   -120.59137   0.52072456   -120.07064   -22631.008    4.2971631    4.2971631    4.2971631   -22631.008   -2541.0309   -62736.662   -2615.3318     35806.01    4013.5622    -43926.98    79.349739 
   82200    1440.6721    -121.3656    1.3035503   -120.06205     -4946.58    4.2919207    4.2919207    4.2919207     -4946.58    16425.517   -23181.612   -8083.6454   -13954.923    5607.9626    -44332.69    79.059685 
   82300     1632.236    -121.5333    1.4768815   -120.05642    2197.7148    4.2877596    4.2877596    4.2877596    2197.7148   -10072.084   -13903.628    30568.856   -13871.684   -1098.3867    18833.668    78.829957 
   82400    903.40694   -120.88907   0.81742158   -120.07165   -18928.038    4.2916772    4.2916772    4.2916772   -18928.038   -28278.551   -55538.259    27032.697    34634.751    38.145309    5368.9218    79.046229 
   82500    1340.2725   -121.28173    1.2127067   -120.06903   -11558.301    4.2947092    4.2947092    4.2947092   -11558.301   -9406.3353   -24195.314   -1073.2519    31902.997    2081.6445   -30134.862    79.213881 
   82600    2076.3645   -121.93534    1.8787383    -120.0566    8722.7024    4.2939334    4.2939334    4.2939334    8722.7024   -12393.814    26816.512    11745.409   -26412.131    470.88276   -8638.0268    79.170959 
   82700    1154.7947   -121.11753    1.0448825   -120.07264   -15162.867    4.2935364    4.2935364    4.2935364   -15162.867   -57032.759   -26386.658    37930.815   -15062.486    4020.3733    9177.9479    79.149005 
   82800     889.8324    -120.8847   0.80513906   -120.07956   -18851.375    4.2877933    4.2877933    4.2877933   -18851.375   -55767.682    -39946.17    39159.727    47430.165   -3374.4381    13529.413    78.831813 
   82900     2161.851   -122.02247    1.9560882   -120.06638    12158.005    4.2873401    4.2873401    4.2873401    12158.005   -16379.709    41713.923      11139.8    21614.873   -3387.3785    1213.8824    78.806822 
   83000    1939.7828   -121.81848    1.7551562   -120.06332   -7526.3931    4.3022802    4.3022802    4.3022802   -7526.3931   -32198.513    14673.539    -5054.206   -24708.484    3092.3478   -12706.791    79.633549 
   83100    776.49912   -120.77621   0.70259272   -120.07362   -16065.627    4.2965259    4.2965259    4.2965259   -16065.627   -67545.155    -2395.377    21743.653    18162.029    5672.9915    11603.002    79.314446 
   83200    1354.8744   -121.28992    1.2259188     -120.064    3908.2928    4.2835871    4.2835871    4.2835871    3908.2928   -39517.519    25194.126    26048.271    33661.107   -967.30195    14483.134    78.600045 
   83300    1977.6891   -121.84705    1.7894546    -120.0576    7613.7864    4.2870518    4.2870518    4.2870518    7613.7864    1774.6346    32489.646   -11422.921   -5128.5768   -5478.4651   -39579.271    78.790926 
   83400      1417.94   -121.34887    1.2829819   -120.06589   -3927.4981    4.2956686    4.2956686    4.2956686   -3927.4981   -2460.3661    3364.7794   -12686.908   -4323.5159     858.1427    -39361.26    79.266977 
   83500    1530.2798   -121.44552    1.3846293   -120.06089   -10037.462    4.2999148    4.2999148    4.2999148   -10037.462   -49353.627    765.58035     18475.66    17061.579   -867.64977    15260.885    79.502275 
   83600    1492.8314    -121.4097    1.3507452   -120.05896   -577.79336    4.2889656    4.2889656    4.2889656   -577.79336   -20063.752    872.14556    17458.227    10882.652   -993.04338   -6387.4867    78.896492 
   83700     1196.769   -121.14925    1.0828617   -120.06639    6839.1396    4.2810768    4.2810768    4.2810768    6839.1396    40351.755    5349.6749   -25184.011   -4689.2202   -3414.1295   -71082.816     78.46194 
   83800    1825.0828   -121.71396    1.6513733   -120.06258    1175.8477    4.2925018    4.2925018    4.2925018    1175.8477    12650.297    6912.3817   -16035.135    2914.0959   -6083.6757   -24158.326      79.0918 
   83900    1892.9911   -121.77151    1.7128182   -120.05869   -2622.2802    4.2989794    4.2989794    4.2989794   -2622.2802   -28829.286   -3688.5126    24650.958    20634.533    408.17008    21133.841    79.450399 
   84000    766.42498   -120.76498   0.69347743    -120.0715   -7359.3142    4.2929424    4.2929424    4.2929424   -7359.3142    1477.7232    -41316.12    17760.455    6160.4731     1152.373   -58134.802    79.116155 
   84100    1154.9235   -121.11266    1.0449991   -120.06766   -6659.5385    4.2884999    4.2884999    4.2884999   -6659.5385    19547.957   -19128.522   -20398.051   -10379.811   -2476.5026   -54963.795    78.870792 
   84200    1764.9339   -121.65884    1.5969493   -120.06189    12544.046      4.28408      4.28408      4.28408    12544.046    16893.484    8894.7943    11843.859   -3151.5552   -1863.7729    49486.476    78.627181 
   84300    1058.6548   -121.03045    0.9578931   -120.07256    1557.7224    4.2883635    4.2883635    4.2883635    1557.7224    27766.328   -31323.429    8230.2684    2956.6834   -1109.4099    7072.7275    78.863271 
   84400    778.16291   -120.77917   0.70409815   -120.07507   -31749.169    4.3021631    4.3021631    4.3021631   -31749.169    12721.077   -75649.568   -32319.014    5436.8401    3445.5598   -83518.831    79.627049 
   84500    1465.7878   -121.38983    1.3262756   -120.06355   -8420.1816    4.2902882    4.2902882    4.2902882   -8420.1816    5026.2641   -31064.442    777.63347    3340.9291     4790.738    -15339.44      78.9695 
   84600    1730.8329   -121.62333     1.566094   -120.05724    14291.657    4.2749646    4.2749646    4.2749646    14291.657    36305.404   -14489.459    21059.025   -2283.0701    1001.3116    52612.742    78.126354 
   84700    736.36392   -120.74597   0.66627755   -120.07969   -20152.054    4.2905885    4.2905885    4.2905885   -20152.054    67539.256   -88536.908   -39458.511    2627.8988   -1347.0057   -44711.274    78.986087 
   84800    1075.1742   -121.04694   0.97284024    -120.0741   -20777.497    4.3012639    4.3012639    4.3012639   -20777.497    28088.084    -75827.83   -14592.745    9317.9587   -2831.7959   -61633.135     79.57713 
   84900     2276.286   -122.11279    2.0596314   -120.05316    4846.8407    4.2951288    4.2951288    4.2951288    4846.8407    -21650.13   -7712.5891    43903.241    5937.0507    3456.8178    18917.327    79.237098 
   85000    1552.0401   -121.47041    1.4043185   -120.06609    238.93095    4.2843485    4.2843485    4.2843485    238.93095     24837.24   -35938.023    11817.576    -3365.684    2272.2182   -38617.764    78.641968 
   85100    710.70526   -120.72101   0.64306106   -120.07795   -1635.4998    4.2828126    4.2828126    4.2828126   -1635.4998    68851.256   -66101.868   -7655.8877   -2023.7047   -4174.1564    -69452.29     78.55742 
   85200    1646.4812   -121.56112    1.4897708   -120.07135   -5773.7426    4.2968011    4.2968011    4.2968011   -5773.7426    10940.246   -28474.368    212.89472    5862.5201     3424.969    27472.734    79.329689 
   85300    2068.6548   -121.92935    1.8717623   -120.05759   -6362.2176    4.2987398    4.2987398    4.2987398   -6362.2176   -21070.212   -12841.477    14825.036   -3916.4545    1747.0258    12468.362    79.437119 
   85400    1379.8475   -121.31466     1.248515   -120.06615   -2977.4911    4.2847425    4.2847425    4.2847425   -2977.4911    18040.703   -35063.677    8090.5007   -8900.6042   -1448.1733   -84842.205    78.663664 
   85500    1102.7291   -121.06909    0.9977725   -120.07131   -4150.1482    4.2815022    4.2815022    4.2815022   -4150.1482    50440.464   -41777.814   -21113.095   -4418.1489    3895.1173   -15556.848    78.485333 
   85600    1646.6857   -121.55851    1.4899558   -120.06855   -5521.7129     4.291346     4.291346     4.291346   -5521.7129    27400.143   -32898.091   -11067.191   -1277.2216    1314.5353     74915.11    79.027929 
   85700    1717.6592   -121.61627    1.5541741    -120.0621    -12742.28    4.2986313    4.2986313    4.2986313    -12742.28    6908.6619   -36287.016   -8848.4847    1714.5431   -1161.8735   -12143.243    79.431105 
   85800    1314.6646   -121.25747    1.1895362   -120.06793   -14463.814    4.2885673    4.2885673    4.2885673   -14463.814    15854.519   -48796.556   -10449.405   -6838.8721    182.92975   -65818.032    78.874512 
   85900    984.21031   -120.96006   0.89053417   -120.06953    5787.1099    4.2780917    4.2780917    4.2780917    5787.1099    42838.399   -37957.293    12480.223   -10758.055    369.34669    30604.471    78.297927 
   86000    1403.0392   -121.33684    1.2694994   -120.06734   -7683.6546    4.2918065    4.2918065    4.2918065   -7683.6546    9180.8912   -33100.922    869.06684    6338.3433   -2517.2339    56801.199    79.053375 
   86100    1213.9366   -121.16097    1.0983954   -120.06258   -21868.324    4.3007059    4.3007059    4.3007059   -21868.324   -31779.092   -27142.061   -6683.8177    16070.067   -13081.018   -27103.648    79.546164 
   86200    784.68064   -120.77918   0.70999553   -120.06919   -5343.6536    4.2877113    4.2877113    4.2877113   -5343.6536   -7047.8698   -24074.777    15091.686    3521.6769   -7885.7489    -33388.96    78.827292 
   86300      1354.52   -121.29026    1.2255981   -120.06466    7444.8819    4.2819729    4.2819729    4.2819729    7444.8819    18334.168   -8977.8529     12978.33   -19616.158    5100.2556    20328.029    78.511224 
   86400    1782.7308    -121.6762    1.6130523   -120.06315    5359.4766    4.2880863    4.2880863    4.2880863    5359.4766   -6490.7027    14714.832    7854.3004    6743.1834   -1205.3063    22616.312    78.847975 
   86500    792.80488   -120.80028   0.71734651   -120.08293   -10487.381    4.2945731    4.2945731    4.2945731   -10487.381   -26322.187   -16741.653    11601.695    34534.608    -12994.87   -24424.906    79.206351 
   86600    859.54426   -120.85936   0.77773371   -120.08162   -8474.6905    4.2949564    4.2949564    4.2949564   -8474.6905   -9058.8108   -35670.491    19305.231    1753.0593   -11164.976   -35460.659    79.227557 
   86700    2240.9467   -122.08659    2.0276556   -120.05894     8411.453    4.2907576    4.2907576    4.2907576     8411.453    9531.2128    8501.1227    7202.0234   -19363.393    611.20495     4933.336    78.995424 
   86800    1703.8606   -121.60863    1.5416889   -120.06694    6403.4022    4.2903299    4.2903299    4.2903299    6403.4022   -6994.6862    4438.8419    21766.051    10023.455    12050.117    10358.656    78.971805 
   86900    841.27287   -120.83768   0.76120137   -120.07647   -3858.5958    4.2931238    4.2931238    4.2931238   -3858.5958    -7363.674    -14684.54    10472.427    40662.892    1113.0439   -34989.387    79.126187 
   87000    1788.8864   -121.68161     1.618622   -120.06299    1275.4034    4.2989866    4.2989866    4.2989866    1275.4034    9710.0516    6216.0345   -12099.876    16912.423   -18134.186   -26459.906    79.450799 
   87100    2260.4367   -122.09637    2.0452907   -120.05108    1918.8058    4.2967186    4.2967186    4.2967186    1918.8058    1829.7023    6685.6444   -2758.9292   -14905.844    13620.844    17716.979     79.32512 
   87200    1369.6459   -121.30705    1.2392844   -120.06776   -438.73353    4.2832353    4.2832353    4.2832353   -438.73353   -3360.7553    6596.0396    -4551.485     21952.77    24683.681    8300.6081    78.580684 
   87300    1145.9824   -121.11468     1.036909   -120.07777   -2603.2703    4.2813733    4.2813733    4.2813733   -2603.2703   -174.43474   -4680.7999   -2954.5762    38123.945    1633.1958   -28230.782    78.478249 
   87400    1798.4831   -121.69742    1.6273053   -120.07012   -10114.495    4.2950537    4.2950537    4.2950537   -10114.495   -3694.8797   -27509.539    860.93444   -12859.075   -5282.2652   -10628.807    79.232942 
   87500    1443.5934   -121.37027    1.3061936   -120.06408   -8893.8739    4.3001656    4.3001656    4.3001656   -8893.8739    -12162.88   -9416.9079   -5101.8333   -34480.077    7137.0345    25001.216    79.516188 
   87600     973.0737   -120.94227   0.88045753   -120.06182   -9594.2994     4.297478     4.297478     4.297478   -9594.2994   -13114.558   -3897.3145   -11771.026    32027.364    15317.337   -4011.7832    79.367187 
   87700    1391.0324   -121.31056    1.2586353   -120.05193   -4300.4648    4.2918336    4.2918336    4.2918336   -4300.4648   -197.56613   -23724.466    11020.637     36975.43    2741.4325    -19956.34    79.054867 
   87800    1389.8938   -121.31274    1.2576051   -120.05513     7615.424    4.2838159    4.2838159    4.2838159     7615.424    7955.9153    -28844.37    43734.727   -47868.851   -9834.0169    7478.8306    78.612642 
   87900    1006.7533   -120.98044   0.91093157   -120.06951    7624.1798    4.2895748    4.2895748    4.2895748    7624.1798   -6084.0827    5821.1037    23135.518   -40156.256    6020.3693    10568.484    78.930117 
   88000    1422.8489   -121.35264    1.2874236   -120.06522   -3268.9633    4.2975448    4.2975448    4.2975448   -3268.9633   -8299.0891   -7259.8025    5752.0017    33764.381    27361.637    2890.1207     79.37089 
   88100    1457.3491   -121.38107    1.3186401   -120.06243    10608.363    4.2886035    4.2886035    4.2886035    10608.363    137.71686   -15176.928      46864.3   -1615.8208    1751.5401     344.6906    78.876513 
   88200    1244.5938    -121.1919    1.1261347   -120.06577    6907.5359    4.2891405    4.2891405    4.2891405    6907.5359   -18394.021   -6260.5271    45377.155   -58744.815     -17589.3   -4641.7581    78.906141 
   88300    1641.1068   -121.54648    1.4849079   -120.06157   -10033.391    4.2953197    4.2953197    4.2953197   -10033.391   -23698.811    5658.5963   -12059.958   -11832.026    24012.889    6403.5139    79.247668 
   88400    1676.6706   -121.58017    1.5170867   -120.06308    15505.938     4.283732     4.283732     4.283732    15505.938    14021.266     35660.61    -3164.063    19081.491    38686.147    3397.4207    78.608023 
   88500    1348.9252   -121.29092    1.2205358   -120.07039    2580.6691    4.2880238    4.2880238    4.2880238    2580.6691   -2201.5865   -9745.8314    19689.425   -51079.784   -449.65445    4477.1839    78.844531 
   88600    1568.9276   -121.48485    1.4195986   -120.06525   -11799.241    4.2977965    4.2977965    4.2977965   -11799.241   -3220.2935   -40401.048    8223.6177   -47131.897   -11061.921   -1312.2424    79.384833 
   88700    1571.2678    -121.4822    1.4217161   -120.06048    8616.3999    4.2898538    4.2898538    4.2898538    8616.3999    39002.302    15175.291   -28328.393    15554.124    37609.926   -6751.3153    78.945518 
   88800     1197.406   -121.14721    1.0834381   -120.06377   -3922.0781    4.2897623    4.2897623    4.2897623   -3922.0781    8616.6813    2583.0638   -22965.979   -13616.808    43915.929    7216.1334    78.940465 
   88900    1256.0755   -121.20237    1.1365235   -120.06584   -6808.0931    4.2901052    4.2901052    4.2901052   -6808.0931    9911.3439   -50960.997    20625.374   -52791.874   -11573.462    3369.2194    78.959399 
   89000    1372.1148    -121.3057    1.2415183   -120.06418    2657.5306    4.2870752    4.2870752    4.2870752    2657.5306    17653.453   -35153.294    25472.433   -10482.887    4071.8715    2057.7714    78.792216 
   89100    1273.6216    -121.2206    1.1523996    -120.0682   -8106.7626    4.2921838    4.2921838    4.2921838   -8106.7626   -11258.087    9803.2331   -22865.434    28905.229    50827.856   -1520.0932    79.074221 
   89200    1155.4845   -121.11513    1.0455067   -120.06963   -5823.6572    4.2924915    4.2924915    4.2924915   -5823.6572   -10369.822    6461.4049   -13562.555   -16950.003    10253.331    -5903.822    79.091231 
   89300    1118.0248   -121.08324    1.0116123   -120.07163   -1734.3111    4.2889645    4.2889645    4.2889645   -1734.3111    4302.5541   -16300.518    6795.0302   -44733.558   -21811.631    7023.2759    78.896431 
   89400    1519.8796   -121.44499     1.375219   -120.06977    1860.0904     4.289904     4.289904     4.289904    1860.0904    5053.8761    3362.5003   -2836.1051    10509.754    10922.163    11892.202    78.948291 
   89500    2057.0802   -121.92399    1.8612894    -120.0627     6283.668    4.2910487    4.2910487    4.2910487     6283.668   -6561.9451    38993.717   -13580.767    19642.838    19924.171    499.93563    79.011504 
   89600    1475.9406   -121.40944    1.3354621   -120.07398    -5721.194    4.2926142    4.2926142    4.2926142    -5721.194   -19017.475    7558.2389   -5704.3458   -44192.933   -4424.9066   -6071.6382    79.098011 
   89700    932.05354     -120.927   0.84334163   -120.08365   -15694.605    4.2893001    4.2893001    4.2893001   -15694.605    -10811.35   -17076.501   -19195.963   -42691.014   -16147.777    10687.643    78.914953 
   89800    1789.9286   -121.69903     1.619565   -120.07947    5447.4768    4.2836212    4.2836212    4.2836212    5447.4768    26372.588    17839.908   -27870.066    12900.181    -8791.524    23466.924    78.601923 
   89900    2270.5692   -122.12296    2.0544587    -120.0685    1762.8942    4.2932851    4.2932851    4.2932851    1762.8942   -1080.4767     12095.97   -5726.8109   -4657.3932    8769.4355    3482.8048    79.135107 
   90000    1207.2372    -121.1665    1.0923336   -120.07416   -17446.675     4.299382     4.299382     4.299382   -17446.675   -32756.878   -34892.199    15309.053   -56361.483   -42.082445    -4399.218    79.472724 
   90100    1042.3737   -121.01338    0.9431616   -120.07022   -3710.2714    4.2878442    4.2878442    4.2878442   -3710.2714    15944.453    -28089.59    1014.3225   -17450.187   -15677.931    17892.562     78.83462 
   90200     1697.232   -121.59479    1.5356912    -120.0591     3217.556    4.2852405    4.2852405    4.2852405     3217.556    39553.087   -5803.6863   -24096.733    15010.291   -1704.3579    20908.661    78.691095 
   90300    1205.6401   -121.16088    1.0908885   -120.06999   -8436.2994    4.2887375    4.2887375    4.2887375   -8436.2994   -13028.559   -31206.729    18926.389   -35592.372    15516.184   -3489.7716    78.883906 
   90400    653.32151   -120.67309   0.59113903   -120.08195   -13121.854    4.2908613    4.2908613    4.2908613   -13121.854   -11122.674   -69482.562    41239.675    -45382.79    14777.658   -3096.3916    79.001155 
   90500    1511.6344   -121.43864    1.3677586   -120.07088   -9808.9607    4.2961713    4.2961713    4.2961713   -9808.9607    33758.377   -55029.111   -8156.1476     11062.38   -4234.3284    5517.1325    79.294811 
   90600    1905.2251   -121.78453    1.7238877   -120.06064   -4282.1714     4.290035     4.290035     4.290035   -4282.1714    18101.879   -26848.296   -4100.0967    2487.8012   -14811.601    3305.3742    78.955519 
   90700    895.24562   -120.88279   0.81003705   -120.07276    1820.8923    4.2826202    4.2826202    4.2826202    1820.8923   -20441.827   -28370.598    54275.101   -69735.028    12735.604   -265.58413    78.546836 
   90800    1125.8396   -121.09339    1.0186833    -120.0747   -8835.0056    4.2906449    4.2906449    4.2906449   -8835.0056   -13117.012   -30123.637    16735.632   -33576.815    18615.689   -6884.0722    78.989201 
   90900    1793.7564   -121.68371    1.6230285   -120.06068   -1815.2594    4.2942685    4.2942685    4.2942685   -1815.2594    21734.655    10734.806   -37915.239    23516.755   -6465.8745   -27.081731    79.189499 
   91000    1053.2302   -121.02489   0.95298479    -120.0719    66.811602    4.2874541    4.2874541    4.2874541    66.811602   -15666.849    19425.416    -3558.132   -32914.933   -35693.705   -320.92383    78.813107 
   91100    811.56784   -120.81457   0.73432363   -120.08024   -4749.7588    4.2880669    4.2880669    4.2880669   -4749.7588   -29629.999   -12593.382    27974.105   -65264.604   -12695.482    -402.1134    78.846905 
   91200    1918.2056   -121.79949    1.7356327   -120.06386    3993.3018    4.2909308    4.2909308    4.2909308    3993.3018    15753.936    11257.517   -15031.547   -546.44959    23506.325   -1521.7509     79.00499 
   91300    1810.1724   -121.70369     1.637882   -120.06581    4654.1244    4.2909236    4.2909236    4.2909236    4654.1244    19541.412    21603.567   -27182.606    6437.8083   -6487.4556   -16369.058    79.004593 
   91400    661.82798   -120.68027   0.59883587   -120.08144   -15649.605    4.2969354    4.2969354    4.2969354   -15649.605    -30044.91   -25383.198    8479.2923   -57507.475   -38546.124   -1071.4759    79.337129 
   91500    1478.0726   -121.40985    1.3373912   -120.07246   -8965.5978    4.2930776    4.2930776    4.2930776   -8965.5978   -26308.541   -23440.405    22852.153   -44046.899   -14313.457    13320.448     79.12363 
   91600    2563.7561   -122.37628    2.3197404   -120.05654    18474.431    4.2850242    4.2850242    4.2850242    18474.431    33261.243    13651.041    8511.0092    22658.852    15586.882    750.41482    78.679184 
   91700     1591.023   -121.51512     1.439591   -120.07553   -323.82594     4.290416     4.290416     4.290416   -323.82594   -5432.4173   -22541.626    27002.566   -27832.105   -8182.6098   -15140.357    78.976562 
   91800    865.80717   -120.86717   0.78340052   -120.08377   -1296.1511    4.2935578    4.2935578    4.2935578   -1296.1511   -34531.614    1487.3324    29155.828   -64117.663   -32715.662   -8189.8206    79.150187 
   91900     1818.055   -121.71703    1.6450144   -120.07202    8815.2041    4.2955262    4.2955262    4.2955262    8815.2041    5457.7902    18167.713    2820.1089    -4010.423    -9332.608    16438.906    79.259099 
   92000    2209.6988   -122.05894    1.9993819   -120.05956     14267.15    4.2886382    4.2886382    4.2886382     14267.15    17731.826    12464.936    12604.689    11319.434    14758.694    4885.6387    78.878422 
   92100    844.32648   -120.84163   0.76396434   -120.07767    11659.231    4.2850454    4.2850454    4.2850454    11659.231   -9110.7012    15949.399    28138.995    -55106.51   -9534.2461   -16564.385     78.68035 
   92200     905.5966   -120.89612   0.81940283   -120.07671   -23321.897     4.301024     4.301024     4.301024   -23321.897   -47826.289   -17596.017   -4543.3867   -45556.815    -34369.99   -10626.505    79.563817 
   92300    2155.3411   -122.00252    1.9501979   -120.05232      498.673    4.2947749    4.2947749    4.2947749      498.673    7907.2985    7662.1896   -14073.469    19412.579   -6427.0339    5493.3212    79.217514 
   92400    1591.8961   -121.49951     1.440381   -120.05913     7743.315    4.2867232    4.2867232    4.2867232     7743.315    4129.4177   -8642.6239    27743.151   -27924.238    13170.443   -1430.9554    78.772807 
   92500    486.47454   -120.51651   0.44017239   -120.07633   -29491.705    4.2965984    4.2965984    4.2965984   -29491.705   -44172.575   -48553.851    4251.3094   -73821.879   -16292.621   -16641.326    79.318462 
   92600    1173.4697   -121.13419    1.0617801   -120.07241   -4361.7181    4.2899267    4.2899267    4.2899267   -4361.7181    7722.2987   -6151.5539   -14655.899   -1619.4264    -25752.67   -5602.8239    78.949543 
   92700    1829.8964   -121.71294    1.6557287   -120.05721     5034.222    4.2916149    4.2916149    4.2916149     5034.222    14294.497   -15941.088    16749.258    3330.5096    839.00709    11552.964    79.042788 
   92800    969.41725   -120.94321    0.8771491   -120.06606   -12341.772    4.2997443    4.2997443    4.2997443   -12341.772   -19940.362   -61077.092    43992.139   -64197.542    5180.8227    5470.9224    79.492817 
   92900    988.14944   -120.95635   0.89409838   -120.06225    210.97685    4.2867385    4.2867385    4.2867385    210.97685   -6978.2947   -29937.607    37548.833   -29844.554   -23443.927    -14937.33    78.773652 
   93000    1468.6302   -121.38593    1.3288475   -120.05708    4370.2281    4.2852068    4.2852068    4.2852068    4370.2281    18769.062   -10957.182     5298.804    22598.442   -31450.137   -11051.897    78.689242 
   93100    1138.3732   -121.09715     1.030024   -120.06713   -23699.829    4.2963265    4.2963265    4.2963265   -23699.829   -25316.909   -61216.523    15433.945   -45241.172   -3632.6742    13242.667    79.303407 
   93200    1292.1258   -121.23889    1.1691426   -120.06974    -2949.409    4.2869192    4.2869192    4.2869192    -2949.409   -19119.225   -31296.251    41567.249   -62436.091    9320.7736     16492.95    78.783615 
   93300    1854.8885   -121.74149    1.6783421   -120.06315    8381.0094    4.2840849    4.2840849    4.2840849    8381.0094     10280.35    10823.401    4039.2773    15569.272   -9237.5446   -5356.2429    78.627452 
   93400     1350.341   -121.29384    1.2218169   -120.07202    -17163.71    4.2961642    4.2961642    4.2961642    -17163.71   -16819.861   -1140.5986   -33530.669    3342.6525   -26469.293   -10973.668     79.29442 
   93500    1244.6769   -121.19845    1.1262099   -120.07224   -4837.3819    4.2895836    4.2895836    4.2895836   -4837.3819   -6059.1221   -5780.6306   -2672.3931    -58449.99    -13825.74    261.49526      78.9306 
   93600    1940.6828   -121.81546    1.7559706   -120.05949    15244.646    4.2869013    4.2869013    4.2869013    15244.646    29722.785    12683.694    3327.4588   -15745.374    17507.944    6054.3951    78.782625 
   93700    1166.1911   -121.12346    1.0551942   -120.06827    -19508.34    4.2969205    4.2969205    4.2969205    -19508.34   -12445.062    11903.026   -57982.983    27275.864   -1788.4742   -10874.086    79.336303 
   93800    720.61205    -120.7269   0.65202492   -120.07487   -6681.5478    4.2900112    4.2900112    4.2900112   -6681.5478   -6528.0388    34862.017   -48378.622    8882.5837   -28561.884   -12796.492    78.954205 
   93900     1925.746   -121.80358    1.7424555   -120.06112    4093.1866    4.2928689    4.2928689    4.2928689    4093.1866    23932.516    4963.4064   -16616.363   -10243.134   -9069.0648    3.1044848    79.112094 
   94000    1732.1796   -121.63056    1.5673125   -120.06324   -4881.4747    4.2948967    4.2948967    4.2948967   -4881.4747    30175.612   -24648.949   -20171.087   -562.59685    18136.096    18623.633    79.224257 
   94100    814.90997    -120.8133   0.73734767   -120.07595    6100.4072    4.2834188    4.2834188    4.2834188    6100.4072    8973.6279    22125.015   -12797.421     23453.57   -10348.949     2472.409    78.590785 
   94200    1329.0127   -121.27673    1.2025186   -120.07421   -3246.1487    4.2903036    4.2903036    4.2903036   -3246.1487   -20633.392     27416.29   -16521.343    10862.145    -28573.49   -12311.726    78.970353 
   94300    1914.2976   -121.79661    1.7320967   -120.06451   -4820.0617    4.2928604    4.2928604    4.2928604   -4820.0617    23531.666     -26374.9   -11616.951   -18271.985   -3108.4564     25754.19    79.111626 
   94400    1411.8565   -121.34823    1.2774775   -120.07075    11066.368    4.2847879    4.2847879    4.2847879    11066.368    30222.971   -14911.813    17887.948   -13044.744    3071.2381    32621.409    78.666168 
   94500    1534.0433   -121.45905    1.3880346   -120.07102   -4353.0384    4.2933966    4.2933966    4.2933966   -4353.0384   -27556.297    26124.191   -11627.009      12942.3   -17209.206   -2619.6605    79.141274 
   94600    1819.9161   -121.71056    1.6466983   -120.06387    1381.4111    4.2912558    4.2912558    4.2912558    1381.4111    382.25388    22531.445   -18769.466    12284.585   -25778.219   -6522.4581    79.022943 
   94700    1103.1599   -121.07044   0.99816227   -120.07228    10492.567    4.2795622    4.2795622    4.2795622    10492.567    40900.482   -13276.875     3854.096   -30572.413    795.47853    33086.521    78.378697 
   94800    799.18679   -120.80609     0.723121   -120.08297   -14398.154    4.2907356    4.2907356    4.2907356   -14398.154   -3982.6698   -24160.987   -15050.803   -43807.981    4335.9186    29981.193    78.994211 
   94900    1574.8955    -121.4953    1.4249986    -120.0703   -7375.8445     4.293493     4.293493     4.293493   -7375.8445   -9108.9988    11637.833   -24656.368    1015.6595     -19147.5   -6353.6661    79.146601 
   95000    1565.1991   -121.48178    1.4162251   -120.06555    10641.439     4.284395     4.284395     4.284395    10641.439    29222.357    22970.234   -20268.273    13725.586   -14764.987   -217.49601    78.644527 
   95100    946.59635   -120.93223   0.85650027   -120.07573   -12850.488    4.2933218    4.2933218    4.2933218   -12850.488     22034.54   -39003.789   -21582.214   -24575.381   -1544.4181    28804.578    79.137134 
   95200    1486.9024    -121.4129    1.3453806   -120.06752   -3591.1376    4.2912568    4.2912568    4.2912568   -3591.1376    23499.096   -30708.556   -3563.9527   -30730.025    11403.251    22659.513    79.022999 
   95300    1539.3693    -121.4574    1.3928537   -120.06455    17006.061    4.2813705    4.2813705    4.2813705    17006.061    26534.626    20830.527    3653.0291    4321.1222   -304.89762       -11650    78.478093 
   95400       877.34   -120.87297   0.79383567   -120.07914    -19006.72    4.2923282    4.2923282    4.2923282    -19006.72    -12753.54   -21543.531   -22723.088    28604.516    -16956.32     5803.536    79.082202 
   95500    1630.5305    -121.5452    1.4753382   -120.06986    -4514.017    4.2933243    4.2933243    4.2933243    -4514.017     27115.49   -40788.581    131.03953    15906.586   -3439.2023    18565.329    79.137272 
   95600    2316.8992   -122.15368    2.0963791    -120.0573    7408.1319    4.2905102    4.2905102    4.2905102    7408.1319    25476.096   -3725.7291    474.02934   -10968.605    7816.3262   -3886.6087    78.981763 
   95700    1168.5945   -121.13304    1.0573689   -120.07567   -14711.803    4.2940179    4.2940179    4.2940179   -14711.803   -22001.982     12795.95   -34929.376     4119.898   -1890.9293   -6706.3136    79.175632 
   95800    1228.4125   -121.18466    1.1114935   -120.07316     8034.245    4.2855992    4.2855992    4.2855992     8034.245    22376.797    17962.543   -16236.605    23880.441   -10453.303    1470.2754     78.71086 
   95900    2005.1533   -121.87443    1.8143048   -120.06013    12372.303    4.2922523    4.2922523    4.2922523    12372.303    33482.568   -10397.646    14031.986   -15630.568    3259.0824    6443.6748     79.07801 
   96000    1271.3895   -121.21456    1.1503799   -120.06418   -14387.775     4.298654     4.298654     4.298654   -14387.775   -20418.087   -21211.048   -1534.1884   -53452.405    726.26262    3886.2233     79.43236 
   96100    1114.3975   -121.07073    1.0083303    -120.0624    2978.8773     4.284646     4.284646     4.284646    2978.8773    22332.836    28396.638   -41792.842    81.062397   -7254.2088   -6010.0636    78.658348 
   96200    1526.1773   -121.43745    1.3809173   -120.05653   -2178.1103     4.289006     4.289006     4.289006   -2178.1103    18109.285    17874.175    -42517.79    8023.3968    1024.3106   -1563.1962    78.898722 
   96300    1165.2625   -121.11613     1.054354   -120.06178   -21954.916    4.2954031    4.2954031    4.2954031   -21954.916   -23810.001   -46232.192    4177.4447   -65730.093   -581.45285    2499.1875    79.252281 
   96400    1145.1123   -121.09797    1.0361217   -120.06185    1107.8513    4.2847715    4.2847715    4.2847715    1107.8513    18358.467   -28253.629    13218.716   -41548.656   -1958.5224   -3321.4874    78.665265 
   96500    1369.6577   -121.30288    1.2392951   -120.06359   -3240.8986    4.2898806    4.2898806    4.2898806   -3240.8986    6624.1415    16100.862   -32447.699    24099.925   -735.86121   -4799.7915    78.946998 
   96600    1293.3324   -121.23755    1.1702344   -120.06732   -13697.859    4.2915396    4.2915396    4.2915396   -13697.859   -26178.615   -5958.5285   -8956.4332   -10839.237    1614.4692    -4938.212    79.038623 
   96700    1643.2708   -121.54981    1.4868659   -120.06295    13941.301    4.2823283    4.2823283    4.2823283    13941.301    10902.505   -13966.023    44887.421   -40953.004    1150.6021    5087.3301    78.530772 
   96800    1583.5093   -121.49936    1.4327925   -120.06656   -1347.0876    4.2921246    4.2921246    4.2921246   -1347.0876    13132.206   -14771.335   -2402.1347   -9927.8227    1763.8029    15725.412    79.070951 
   96900    1095.3958   -121.06587   0.99113712   -120.07473   -11993.414    4.2927046    4.2927046    4.2927046   -11993.414   -14502.732    9529.9401    -31007.45    17145.102    5800.2409      4743.45    79.103009 
   97000    1461.7313   -121.39185    1.3226052   -120.06925    17253.432     4.283503     4.283503     4.283503    17253.432    9347.7491    31723.757    10688.789    25209.136   -7417.1204   -3582.2963    78.595415 
   97100    1915.0265   -121.79471    1.7327563   -120.06196    10498.364    4.2900805    4.2900805    4.2900805    10498.364    37262.119   -9198.0035    3430.9764      368.435    673.73777    8783.8535    78.958033 
   97200     1344.793   -121.28552     1.216797   -120.06872   -4365.8082    4.2921469    4.2921469    4.2921469   -4365.8082    45434.399   -18044.742   -40487.082   -9926.1963    3938.9801    18797.983    79.072185 
   97300    1197.0336   -121.15134    1.0831012   -120.06824    529.95398    4.2887521    4.2887521    4.2887521    529.95398    2898.7442    20219.448    -21528.33    17236.288    3387.4185   -282.77329    78.884712 
   97400    1769.5914   -121.65997    1.6011635    -120.0588    2672.6494    4.2892331    4.2892331    4.2892331    2672.6494   -1208.4735    4068.6896    5157.7322     16381.02    5319.1219   -2592.2737    78.911256 
   97500    1011.4042   -120.98758   0.91513982   -120.07244   -2491.3765    4.2867478    4.2867478    4.2867478   -2491.3765    49560.144   -50214.391   -6819.8825   -12713.071   -2514.3812    29789.009    78.774164 
   97600    436.44377   -120.47857    0.3949035   -120.08366   -8195.6056    4.2895554    4.2895554    4.2895554   -8195.6056    45003.784   -50486.231    -19104.37   -24296.374     3180.561    16043.641    78.929043 
   97700    1589.8475   -121.50636    1.4385275   -120.06783    -916.2513     4.293881     4.293881     4.293881    -916.2513    10997.355   -12964.873   -781.23535   -3726.6778   -711.54916    -19052.26    79.168064 
   97800    1730.7587   -121.62807    1.5660268   -120.06205    5585.1262    4.2891517    4.2891517    4.2891517    5585.1262     17260.66   -29613.993    29108.711    16610.656   -6454.1535    20512.046    78.906763 
   97900    874.58792   -120.86631   0.79134553   -120.07496   -11695.254    4.2874849    4.2874849    4.2874849   -11695.254    44122.392   -62869.998   -16338.156    -743.7226    1288.0585    41620.077    78.814804 
   98000    1194.4187   -121.15276    1.0807352   -120.07202   -6064.8113    4.2863835    4.2863835    4.2863835   -6064.8113    40592.713   -42898.403   -15888.745   -21824.352    3850.1214   -10752.489    78.754082 
   98100     1793.228    -121.6884    1.6225504   -120.06585    2640.7556    4.2877728    4.2877728    4.2877728    2640.7556    835.90255   -30289.942    37376.307    18225.052    5092.6921   -22694.358    78.830682 
   98200    1430.3047   -121.36675    1.2941697   -120.07258   -8514.6077    4.2932609    4.2932609    4.2932609   -8514.6077   -11787.393   -44059.218    30302.788    49520.208   -966.63977     32567.67    79.133769 
   98300    1531.9076   -121.45678    1.3861022   -120.07068   -3398.1079    4.2897808    4.2897808    4.2897808   -3398.1079     26067.02   -30964.348   -5296.9956   -564.36085   -5770.4225    30987.903    78.941488 
   98400    1829.8398    -121.7208    1.6556775   -120.06513    4660.4304    4.2833894    4.2833894    4.2833894    4660.4304    28502.006   -24762.729    10242.014   -15037.164     248.6048   -24371.774    78.589166 
   98500    1322.6193   -121.27038    1.1967337   -120.07365     599.6073    4.2877128    4.2877128    4.2877128     599.6073   -23083.277   -29488.916    54371.015    56214.828   -819.67861   -24626.345    78.827375 
   98600    1431.6025   -121.36777     1.295344   -120.07243    -4864.287    4.2954091    4.2954091    4.2954091    -4864.287   -9529.0593   -28036.236    22972.434    45526.965    1474.4383    16435.384    79.252616 
   98700    1949.1881   -121.82265    1.7636664   -120.05899    1003.8721    4.2923123    4.2923123    4.2923123    1003.8721    39216.806   -13513.647   -22691.543   -19841.923     4599.421    14885.973    79.081325 
   98800     1065.329   -121.03665   0.96393209   -120.07272    2392.3789    4.2830668    4.2830668    4.2830668    2392.3789    25770.089   -30466.428    11873.476    31098.555   -4574.7467   -19976.427    78.571409 
   98900    624.09124   -120.64799   0.56469087    -120.0833   -3675.2418    4.2842577    4.2842577    4.2842577   -3675.2418    8591.2791   -50226.045     30609.04    65459.688    3296.1053   -26326.667    78.636968 
   99000    1553.5953   -121.47936    1.4057256   -120.07363   -1207.8582    4.2919711    4.2919711    4.2919711   -1207.8582     14068.29   -29920.253    12228.387   -11601.395   -1632.7493    6922.9116     79.06247 
   99100     1805.888   -121.69978    1.6340054   -120.06577    8474.4097      4.29122      4.29122      4.29122    8474.4097    10079.293   -9934.9167    25278.853   -32544.918   -1786.8421    984.58002    79.020965 
   99200    1091.6412   -121.06202   0.98773993   -120.07428    1988.6637    4.2889542    4.2889542    4.2889542    1988.6637    2260.0197   -25990.237    29696.208    56787.546    6776.9957   -26236.756    78.895864 
   99300    1027.6156   -121.00579   0.92980816   -120.07598   -6700.1649    4.2897669    4.2897669    4.2897669   -6700.1649   -256.30207   -37967.769    18123.577    46467.739    1052.5348   -25838.202    78.940718 
   99400    1812.9877   -121.70529    1.6404294   -120.06486    11009.971    4.2847988    4.2847988    4.2847988    11009.971    1810.5771    4898.0069     26321.33   -36962.347   -2873.6129     5655.769    78.666769 
   99500     1640.121   -121.55195    1.4840159   -120.06793    16863.728      4.28683      4.28683      4.28683    16863.728   -8815.2702    23973.826    35432.627   -8377.6168     76.30239    5956.8787    78.778695 
   99600    535.66566   -120.56832   0.48468154   -120.08364   -16552.202    4.2968574    4.2968574    4.2968574   -16552.202   -15366.102   -42293.841    8003.3372    62509.416    654.78145    -25902.99    79.332806 
   99700    895.54144   -120.88945   0.81030472   -120.07914   -6720.1459    4.2905773    4.2905773    4.2905773   -6720.1459    22306.312   -15206.125   -27260.626    24306.341    1642.9832   -21500.851    78.985467 
   99800     2009.029   -121.87931    1.8178117   -120.06149    14016.439    4.2844442    4.2844442    4.2844442    14016.439    27601.811    31246.621   -16799.117   -20212.725   -1071.2577    16272.014    78.647239 
   99900    1604.9685   -121.52299    1.4522092   -120.07078   -2341.4099    4.2899793    4.2899793    4.2899793   -2341.4099   -19899.235    -8369.869    21244.874    42144.767   -3268.1014    4932.8937    78.952444 
  100000     1077.392   -121.05266   0.97484692   -120.07781   -11802.588    4.2916585    4.2916585    4.2916585   -11802.588   -1768.7204   -31524.544   -2114.5013    57305.586    -3047.306   -36842.605    79.045195 
Loop time of 22.6151 on 1 procs for 100000 steps with 8 atoms

Pair  time (%) = 7.22607 (31.9523)
Kspce time (%) = 5.37529 (23.7685)
Neigh time (%) = 0.0917292 (0.405609)
Comm  time (%) = 1.11934 (4.9495)
Outpt time (%) = 0.027509 (0.12164)
Other time (%) = 8.77521 (38.8024)

Nlocal:    8 ave 8 max 8 min
Histogram: 1 0 0 0 0 0 0 0 0 0
Nghost:    2189 ave 2189 max 2189 min
Histogram: 1 0 0 0 0 0 0 0 0 0
Neighs:    2269 ave 2269 max 2269 min
Histogram: 1 0 0 0 0 0 0 0 0 0

Total # of neighbors = 2269
Ave neighs/atom = 283.625
Neighbor list builds = 1002
Dangerous builds = 0
unfix 20
unfix 21
print "seeds:8212838"
seeds:8212838
