LAMMPS (10 Feb 2015)
# ---- initialize simulations
clear
units metal
dimension 3
boundary p p p
atom_style charge
atom_modify map array
# ---- create atoms
read_data /Users/eugeneragasa/pyflamestk_git/pypospack/tests/tests_integration/workflow/WorkflowLammpsThermalExpansion/param_5861/MgO_NaCl_unit.npt.T800/lammps.structure
  triclinic box = (0 0 0) to (4.2565 4.2565 4.2565) with tilt (0 0 0)
  1 by 1 by 1 MPI processor grid
  reading atoms ...
  8 atoms
# ---- define interatomic potential
include potential.mod
mass 1 24.305
mass 2 15.999

group Mg type 1
4 atoms in group Mg
group O type 2
4 atoms in group O

set group Mg charge 1.63577302612
  4 settings made for charge
set group O charge -1.63577302612
  4 settings made for charge

variable R_cut equal 10.0

pair_style buck/coul/long ${R_cut}
pair_style buck/coul/long 10
pair_coeff 1 1 0.0 0.5 0.0 ${R_cut}
pair_coeff 1 1 0.0 0.5 0.0 10
pair_coeff 1 2 1558.72850733 0.278190610155 0.0 ${R_cut}
pair_coeff 1 2 1558.72850733 0.278190610155 0.0 10
pair_coeff 2 2 26609.5495557 0.148782776904 9.00084075824 ${R_cut}
pair_coeff 2 2 26609.5495557 0.148782776904 9.00084075824 10

kspace_style pppm 1.0e-5

neighbor 1.0 bin
neigh_modify every 1 delay 0 check yes
# ---- define settings
compute eng all pe/atom
compute eatoms all reduce sum c_eng
# ---- run minimization
reset_timestep 0
fix 1 all box/relax iso 0.0 vmax 0.001
thermo 10
thermo_style custom step pe lx ly lz xy xz yz press pxx pyy pzz pxy pxz pyz c_eatoms
min_style cg
minimize 1e-25 1e-25 5000 10000
PPPM initialization ...
  G vector (1/distance) = 0.352653
  grid = 8 8 8
  stencil order = 5
  estimated absolute RMS force accuracy = 3.87471e-05
  estimated relative force accuracy = 2.69083e-06
  using double precision FFTs
  3d grid and FFT values/proc = 3375 512
Neighbor list info ...
  1 neighbor list requests
  update every 1 steps, delay 0 steps, check yes
  master list distance cutoff = 11
Memory usage per processor = 4.06549 Mbytes
Step PotEng Lx Ly Lz Xy Xz Yz Press Pxx Pyy Pzz Pxy Pxz Pyz eatoms 
       0   -109.00108       4.2565       4.2565       4.2565            0            0            0    61252.417    61252.417    61252.417    61252.417 -3.6848803e-11 -3.3369169e-11 3.6549969e-10   -109.00108 
      10    -109.0509     4.299065     4.299065     4.299065            0            0            0    8703.9294    8703.9294    8703.9294    8703.9294 1.5032756e-10 -1.0327816e-11 -1.1009458e-10    -109.0509 
      15   -109.05203    4.3066964    4.3066964    4.3066964            0            0            0 0.0034250328 0.0034250327  0.003425033 0.0034250328 -1.8553982e-10 4.3823803e-11 -1.4551403e-10   -109.05203 
Loop time of 0.0083909 on 1 procs for 15 steps with 8 atoms

Minimization stats:
  Stopping criterion = linesearch alpha is zero
  Energy initial, next-to-last, final = 
        -109.001077098     -109.052033723     -109.052033723
  Force two-norm initial, final = 8.84488 3.43431e-05
  Force max component initial, final = 8.84488 7.26821e-06
  Final line search alpha, max atom move = 0.5 3.63411e-06
  Iterations, force evaluations = 15 22

Pair  time (%) = 0.00234079 (27.8968)
Kspce time (%) = 0.00144076 (17.1705)
Neigh time (%) = 0 (0)
Comm  time (%) = 0.000263929 (3.14542)
Outpt time (%) = 1.28746e-05 (0.153435)
Other time (%) = 0.00433254 (51.6338)

Nlocal:    8 ave 8 max 8 min
Histogram: 1 0 0 0 0 0 0 0 0 0
Nghost:    2189 ave 2189 max 2189 min
Histogram: 1 0 0 0 0 0 0 0 0 0
Neighs:    2344 ave 2344 max 2344 min
Histogram: 1 0 0 0 0 0 0 0 0 0

Total # of neighbors = 2344
Ave neighs/atom = 293
Neighbor list builds = 0
Dangerous builds = 0
unfix 1
# ---- define output variables ----
variable natoms equal "count(all)"
variable tot_energy equal "c_eatoms"
variable length_x equal "lx"
variable length_y equal "ly"
variable length_z equal "lz"
variable tilt_xy equal "xy"
variable tilt_xz equal "xz"
variable tilt_yz equal "yz"
variable tot_press equal "press"
variable press_xx equal "pxx"
variable press_yy equal "pyy"
variable press_zz equal "pzz"
variable press_xy equal "pxy"
variable press_xz equal "pxz"
variable press_yz equal "pyz"

# ---- output ----
print "pypospack:output_section:begin"
pypospack:output_section:begin
print "tot_energy = ${tot_energy}"
tot_energy = -109.052033723467
print "num_atoms = ${natoms}"
num_atoms = 8
print "xx = ${length_x}"
xx = 4.30669636930156
print "yy = ${length_y}"
yy = 4.30669636930156
print "zz = ${length_z}"
zz = 4.30669636930156
print "xy = ${tilt_xy}"
xy = 0
print "xz = ${tilt_xz}"
xz = 0
print "yz = ${tilt_yz}"
yz = 0
print "tot_press = ${tot_press}"
tot_press = 0.00342503281246904
print "pxx = ${press_xx}"
pxx = 0.00342503266517326
print "pyy = ${press_yy}"
pyy = 0.00342503296687446
print "pzz = ${press_zz}"
pzz = 0.00342503280535941
print "pxy = ${press_xy}"
pxy = -1.85539817051957e-10
print "pxz = ${press_xz}"
pxz = 4.38238030577261e-11
print "pyz = ${press_yz}"
pyz = -1.45514027090344e-10
print "pypospack:output_section:done"
pypospack:output_section:done
print "pypospack:lammps_sim:done"
pypospack:lammps_sim:done
#------------------------------------------------------------------------------
# RUN THERMOSTAT
# running using an NPT Nose-Hoover style thermostat
#------------------------------------------------------------------------------
variable tempdamp equal 0.1
variable pressdamp equal 1.0
# set initial velocities
velocity all create 800 2252713 mom yes dist gaussian loop all
# fix for Nose-Hoover style thermostat
fix 20 all npt temp 800 800 0.1 aniso 0.0 0.0 1.0 drag 1.0 couple xyz
variable boxx equal lx
variable boxy equal ly
variable boxz equal lz
variable boxp equal press
variable boxt equal temp
# calculate averages every 10000 steps
reset_timestep 0
fix 21 all ave/time 10 10 100 v_boxx v_boxy v_boxz v_boxp v_boxt file lattice.out
thermo_style custom step temp pe ke etotal press lx ly lz press pxx pyy pzz pxy pxz pyz vol
thermo_modify flush yes
thermo 100
run 100000
PPPM initialization ...
  G vector (1/distance) = 0.352152
  grid = 8 8 8
  stencil order = 5
  estimated absolute RMS force accuracy = 3.96483e-05
  estimated relative force accuracy = 2.75342e-06
  using double precision FFTs
  3d grid and FFT values/proc = 3375 512
Memory usage per processor = 3.06549 Mbytes
Step Temp PotEng KinEng TotEng Press Lx Ly Lz Press Pxx Pyy Pzz Pxy Pxz Pyz Volume 
       0          800   -109.05204   0.72385681   -108.32819     9677.735    4.3066964    4.3066964    4.3066964     9677.735    11973.289    5145.6944    11914.222    4622.9339    1258.7081   -2273.4639    79.879026 
     100    173.56971    -108.3916   0.15704952   -108.23455    10237.261    4.3407918    4.3407918    4.3407918    10237.261    34444.167   -10546.744    6814.3578   -835.79403      1821.39    3785.6628    81.791256 
     200    705.88647   -108.67258   0.63870092   -108.03388   -27012.434    4.3581021    4.3581021    4.3581021   -27012.434   -17688.797   -25865.909   -37482.595    -3102.158   -1987.9111   -410.50958     82.77367 
     300     464.4025   -108.28439   0.42020114   -107.86419    45798.593    4.3241239    4.3241239    4.3241239    45798.593    53807.371    29762.519    53825.889   -8895.4615    1127.3687   -1800.7737    80.852676 
     400     637.2666   -108.32008   0.57661221   -107.74346   -16605.008    4.3536479    4.3536479    4.3536479   -16605.008   -12444.051   -11162.007   -26208.964    6054.1161   -1894.3746    9146.8829     82.52013 
     500    876.97534   -108.43013   0.79350572   -107.63663    -17013.71    4.3668057    4.3668057    4.3668057    -17013.71    -17988.46   -33337.661    284.99256    6511.3598     1783.983    3020.8362    83.270581 
     600    933.37429   -108.42724   0.84453668    -107.5827    5372.2846    4.3447925    4.3447925    4.3447925    5372.2846    18807.707   -5627.0478    2936.1944   -367.78097   -1011.9829   -5660.4645    82.017614 
     700    815.97244   -108.31977   0.73830901   -107.58146   -26568.053    4.3615763    4.3615763    4.3615763   -26568.053    6480.6668    -53146.68   -33038.145    2307.8239    930.56694    14666.454    82.971784 
     800    866.39718   -108.36397   0.78393437   -107.58004    1652.5642    4.3582278    4.3582278    4.3582278    1652.5642   -10503.177   -18263.774    33724.644   -9946.7806    3484.9876    -10936.67    82.780829 
     900    756.76664   -108.27948   0.68473836   -107.59474    4470.5593    4.3507126    4.3507126    4.3507126    4470.5593   -12216.518    4331.2128    21296.983   -506.14627   -2046.8603    10693.578    82.353334 
    1000    880.35581   -108.39583   0.79656444   -107.59927   -12147.533    4.3554049    4.3554049    4.3554049   -12147.533    -16401.75   -15622.666   -4418.1834    4364.2486    2850.9363   -762.52833    82.620079 
    1100    648.84926   -108.18042   0.58709245   -107.59333    12547.543    4.3564695    4.3564695    4.3564695    12547.543    6325.3775    17392.993    13924.257    10349.001   -225.93001   -4818.5303    82.680677 
    1200      553.046   -108.09598   0.50040765   -107.59558   -5945.3952    4.3601483    4.3601483    4.3601483   -5945.3952    30302.284   -34426.415   -13712.054    8611.8421   -3313.1551    7749.1283    82.890312 
    1300    970.36583   -108.46589   0.87800739   -107.58788    1071.9443    4.3474824    4.3474824    4.3474824    1071.9443    11006.613   -13296.944    5506.1637    6021.0139   -6888.0159    9415.0593    82.170041 
    1400    818.41672   -108.33617   0.74052064   -107.59565    135.32575    4.3624551    4.3624551    4.3624551    135.32575     2372.127   -19260.156    17294.006   -6372.6467    84.789931    -1229.282    83.021946 
    1500     854.4554   -108.36444    0.7731292   -107.59131   -17592.677    4.3621586    4.3621586    4.3621586   -17592.677    21898.527   -44096.188    -30580.37   -6982.9069    1283.9012    11488.271    83.005017 
    1600     677.3796   -108.20085    0.6129073   -107.58795    18114.646    4.3404845    4.3404845    4.3404845    18114.646    25200.822   -2633.5168    31776.634    -4404.826    5971.6115   -8178.6847    81.773882 
    1700    955.29045   -108.46422   0.86436687   -107.59986   -10198.561    4.3576152    4.3576152    4.3576152   -10198.561    415.45285   -24024.297   -6986.8387    5884.6706     6073.838    4515.0507    82.745929 
    1800    650.68387   -108.18562   0.58875244   -107.59687     7967.378    4.3618656    4.3618656    4.3618656     7967.378     40338.35   -23804.976    7368.7608   -1543.4691   -5365.0488    2008.8038    82.988296 
    1900     909.6226   -108.41194   0.82304564   -107.58889    892.11151     4.350562     4.350562     4.350562    892.11151   -16375.659   -2343.4192    21395.413    9718.2305   -4180.4984   -6960.8702    82.344781 
    2000      822.288   -108.33497   0.74402347   -107.59094    1728.1607    4.3525153    4.3525153    4.3525153    1728.1607    50400.607   -16068.248   -29147.877     -6971.64   -9507.7473    2428.8228    82.455746 
    2100     515.0967   -108.05677   0.46607032    -107.5907   -3385.2612    4.3616441    4.3616441    4.3616441   -3385.2612   -17150.402    5760.4665    1234.1516   -171.91015      3836.34    6047.9929    82.975653 
    2200    867.13027   -108.36777   0.78459769   -107.58318    6248.5081    4.3463169    4.3463169    4.3463169    6248.5081    24379.502   -2622.2361   -3011.7418   -2933.9319   -6579.4753   -1191.6672     82.10397 
    2300    842.32332   -108.34977   0.76215184   -107.58761   -8521.9571    4.3595665    4.3595665    4.3595665   -8521.9571   -3677.0485   -24465.043    2576.2202    167.42703    9534.4997    7884.0544    82.857134 
    2400    744.77891   -108.25783   0.67389161   -107.58394   -2776.5986    4.3578157    4.3578157    4.3578157   -2776.5986   -13274.685   -12551.418    17496.307    11549.756    4364.9876    123.60358    82.757351 
    2500    1061.5385   -108.54493   0.96050237   -107.58443    2257.6228    4.3412102    4.3412102    4.3412102    2257.6228    5621.7852    1381.7735   -230.69032     -1808.31    4073.8215   -6009.2702     81.81491 
    2600    616.99086   -108.15917   0.55826629    -107.6009   -47.512742    4.3609454    4.3609454    4.3609454   -47.512742   -3701.1752    982.11061    2576.5263   -4242.3485   -4435.6207    2715.2231    82.935782 
    2700    733.28498   -108.25298   0.66349166   -107.58949   -15965.542    4.3657708    4.3657708    4.3657708   -15965.542   -7267.0127   -3403.8555   -37225.758   -10085.923    3159.9052   -3334.4253    83.211392 
    2800    744.94359   -108.24844   0.67404062    -107.5744    21140.511    4.3420803    4.3420803    4.3420803    21140.511    29553.655    23542.025    10325.853   -11898.946    3379.4355    1422.4463    81.864109 
    2900    826.90741   -108.33159   0.74820321   -107.58339   -11749.635    4.3609652    4.3609652    4.3609652   -11749.635    12901.509   -28061.025    -20089.39    4705.1888    1422.6413   -565.29984    82.936911 
    3000     816.9928   -108.31688   0.73923225   -107.57764   -15681.948    4.3675806    4.3675806    4.3675806   -15681.948   -14580.037   -23718.677   -8747.1305    5204.1162    6315.9581   -2330.7642    83.314923 
    3100    1000.3716   -108.47787   0.90515721   -107.57271    16843.437    4.3364647    4.3364647    4.3364647    16843.437    28797.902   -11066.247    32798.656    4380.0055   -6278.6109    3518.9703      81.5469 
    3200    547.51071   -108.09201   0.49539919   -107.59661    3839.5934    4.3581912    4.3581912    4.3581912    3839.5934    42773.363   -28082.654   -3171.9288    3511.4883   -853.61002   -10194.443    82.778743 
    3300    875.02924   -108.37353   0.79174485   -107.58179   -14954.352    4.3684193    4.3684193    4.3684193   -14954.352    7013.7184   -27774.917   -24101.856   -7967.8738   -2592.3179    4786.6785    83.362926 
    3400    890.74525   -108.38129   0.80596502   -107.57532    15616.307    4.3332236    4.3332236    4.3332236    15616.307    25602.878     10034.61    11211.433    2171.4758     1279.035   -627.54389     81.36419 
    3500    842.11551   -108.36115   0.76196381   -107.59919   -16501.813    4.3597731    4.3597731    4.3597731   -16501.813   -4958.6812   -18213.781   -26332.976    6376.8013    3289.1609    7312.5949    82.868915 
    3600    687.43028   -108.21107   0.62200136   -107.58907   -2367.4418    4.3668419    4.3668419    4.3668419   -2367.4418     35598.85   -39359.064   -3342.1115    7989.2427   -9668.2084    5939.9145    83.272654 
    3700    798.49889   -108.30062   0.72249858   -107.57813    14794.336    4.3329199    4.3329199    4.3329199    14794.336    21630.083    11928.157    10824.768   -2824.8242    5584.9211   -9733.6925    81.347082 
    3800    889.67026   -108.39905   0.80499235   -107.59406   -14608.864    4.3586608    4.3586608    4.3586608   -14608.864   -13933.131   -38359.839    8466.3778    2173.3499   -2269.6101    2059.9406    82.805507 
    3900    805.28048   -108.31094    0.7286347    -107.5823   -12475.007    4.3656898    4.3656898    4.3656898   -12475.007    1400.0144    359.69701   -39184.732    205.01406    4493.8298    -5646.226    83.206761 
    4000    765.61979   -108.27138   0.69274888   -107.57863    8918.9854    4.3415487    4.3415487    4.3415487    8918.9854    40115.295   -18058.099    4699.7594     2219.662   -14.683107   -7409.4614    81.834047 
    4100    847.25312   -108.36306   0.76661243   -107.59645    2896.6342    4.3550618    4.3550618    4.3550618    2896.6342    26041.491    15226.276   -32577.865    4882.1254    2034.5672    2104.7436    82.600556 
    4200    677.90232   -108.21155   0.61338026   -107.59817   -9745.0093    4.3654171    4.3654171    4.3654171   -9745.0093   -491.01316   -7734.2106   -21009.804    4352.3424   -10560.839    4370.5492    83.191173 
    4300    1056.5867   -108.54507   0.95602186   -107.58904   -6638.6169     4.339551     4.339551     4.339551   -6638.6169   -21563.038    4526.2712    -2879.084    1774.9342    6058.9333   -4167.3661    81.721135 
    4400    620.01612    -108.1638   0.56100361    -107.6028    18157.935    4.3534824    4.3534824    4.3534824    18157.935    42679.082   -4282.1998    16076.924   -3200.8017     4745.758   -1422.3979     82.51072 
    4500    941.74702   -108.44197    0.8521125   -107.58985   -29201.203    4.3712619    4.3712619    4.3712619   -29201.203   -15405.432   -40326.205   -31871.971     12053.25    3227.2074   -6224.0066    83.525771 
    4600    339.59502   -107.88356   0.30727271   -107.57628    39935.183    4.3386336    4.3386336    4.3386336    39935.183    59585.246    42955.325    17264.979    12553.885    4448.7697    2149.9861    81.669318 
    4700    1108.3751   -108.58699    1.0028811   -107.58411   -17436.112    4.3513243    4.3513243    4.3513243   -17436.112   -17777.065   -13632.232    -20899.04   -8187.3581   -6616.8417   -6025.3392    82.388075 
    4800    665.17166   -108.18093   0.60186129   -107.57907   -16681.626    4.3746077    4.3746077    4.3746077   -16681.626    2586.0088   -15288.803   -37342.085    4506.1588    6912.1625    1663.3682     83.71771 
    4900    881.74333   -108.36937    0.7978199   -107.57155   -3288.7027    4.3464981    4.3464981    4.3464981   -3288.7027    24611.239   -7068.8037   -27408.544   -4911.0566   -9526.9694    4730.1091    82.114239 
    5000    874.71185   -108.36958   0.79145767   -107.57813    13588.971     4.336178     4.336178     4.336178    13588.971    58014.264   -5362.1195   -11885.232    725.39393    2724.4398   -3538.3271    81.530725 
    5100    851.60985   -108.36464   0.77055449   -107.59408   -20189.799    4.3723599    4.3723599    4.3723599   -20189.799   -19351.776   -8090.7854   -33126.835    9741.5612    8176.5909    2697.8544    83.588725 
    5200    920.97381   -108.42585   0.83331646   -107.59253   -23338.569     4.356461     4.356461     4.356461   -23338.569   -7416.2983    -19633.31   -42966.097   -8453.7127   -3350.6293    4979.9709    82.680196 
    5300    631.35805   -108.15187   0.57126603    -107.5806    36663.038    4.3277208    4.3277208    4.3277208    36663.038    47534.203    51024.681    11430.229    328.05295    4809.8145   -9852.1504    81.054606 
    5400    945.88277   -108.44865   0.85585461   -107.59279   -29321.865    4.3684703    4.3684703    4.3684703   -29321.865   -8923.2832   -44092.301   -34950.011    1307.6571   -3390.5764    8686.3228    83.365848 
    5500    696.72345   -108.21456   0.63041002   -107.58415   -10585.152    4.3571274    4.3571274    4.3571274   -10585.152    515.39518   -8919.3786   -23351.473   -3884.8111   -9150.1734   -1355.8096    82.718144 
    5600    841.21906   -108.34203   0.76115268   -107.58088    25780.031    4.3268831    4.3268831    4.3268831    25780.031    34465.757    31278.169    11596.167   -2239.0873    12254.354    94.100456    81.007548 
    5700    758.33829   -108.29244   0.68616042   -107.60628   -19328.916    4.3651093    4.3651093    4.3651093   -19328.916   -2939.8214   -18664.562   -36382.366   -6492.9684    5774.8464    8589.6782    83.173575 
    5800     488.6852   -108.03254   0.44217264   -107.59037   -1502.4197     4.364423     4.364423     4.364423   -1502.4197    16269.739    12599.892   -33376.891   -16282.348    6434.6627   -2169.7636    83.134348 
    5900    1032.4624   -108.50565   0.93419366   -107.57146    17897.758    4.3262536    4.3262536    4.3262536    17897.758    26009.187    21135.628    6548.4603    7215.4199    5484.8266    3255.5964    80.972198 
    6000    852.41763   -108.36864   0.77128538   -107.59735   -19666.503    4.3586976    4.3586976    4.3586976   -19666.503    5632.2944   -24941.468   -39690.335   -4392.6315   -6393.0938   -1027.9617    82.807602 
    6100    771.35072   -108.29119   0.69793434   -107.59326   -13786.058    4.3588226    4.3588226    4.3588226   -13786.058   -9696.3156    8724.8061   -40386.665   -9860.5735   -5488.5581   -8250.4568     82.81473 
    6200      549.815   -108.08384   0.49748417   -107.58636    43704.692    4.3274219    4.3274219    4.3274219    43704.692    107358.84    33276.306   -9521.0695   -4443.5211    5166.3984    7038.8345    81.037811 
    6300    893.72365   -108.41393   0.80865994   -107.60527   -21507.156    4.3640776    4.3640776    4.3640776   -21507.156    8722.4287   -22561.074   -50682.823   -1820.4969    4565.8583   -3572.6178    83.114613 
    6400    1086.8893   -108.56943   0.98344029   -107.58599   -12743.513    4.3606592    4.3606592    4.3606592   -12743.513     4603.582   -12898.972   -29935.148   -2314.2318     9676.265    5875.2741    82.919457 
    6500    806.70407   -108.30868   0.72992279   -107.57876    6834.3953    4.3423326    4.3423326    4.3423326    6834.3953    49528.772    5676.3977   -34701.984    3558.1667    9726.2691    1807.0583    81.878381 
    6600    859.28226   -108.36429   0.77749665   -107.58679   -1445.3011    4.3575571    4.3575571    4.3575571   -1445.3011     24464.18    7881.4005   -36681.484   -16641.883   -6815.7612   -2272.6953    82.742619 
    6700     729.2874   -108.24461   0.65987456   -107.58474   -15818.338    4.3645356    4.3645356    4.3645356   -15818.338   -14536.342    14117.929   -47036.599    4331.3129    3861.7091    2112.8202    83.140783 
    6800    1024.6882   -108.50471    0.9271594   -107.57755    3432.3326    4.3408949    4.3408949    4.3408949    3432.3326     -3012.23    32824.064   -19514.836    5027.6439   -1905.8057   -8869.3601    81.797084 
    6900    1046.5762   -108.53959   0.94696417   -107.59263   -14534.981    4.3545652    4.3545652    4.3545652   -14534.981   -9972.3659    941.56449   -34574.142   -988.44337   -9599.3283    4902.7745    82.572303 
    7000    693.37383   -108.22068   0.62737921    -107.5933   -14552.236    4.3589584    4.3589584    4.3589584   -14552.236   -10560.972    11309.555    -44405.29   -8035.8397     5195.111    11177.568    82.822469 
    7100    751.00635   -108.26411   0.67952633   -107.58459    22092.064    4.3464177    4.3464177    4.3464177    22092.064    40722.073    36342.974   -10788.854    18662.798   -1113.8067     -1318.41    82.109684 
    7200    762.53003   -108.27941   0.68995319   -107.58946   -6197.9127    4.3599036    4.3599036    4.3599036   -6197.9127    4731.6494    22294.624   -45620.012    3214.8326    7226.1052    220.69201     82.87636 
    7300    591.49474   -108.12041   0.53519687   -107.58521     6553.157     4.356867     4.356867     4.356867     6553.157    26749.661    24535.222   -31625.413    10515.605    5407.9491   -3228.5941    82.703315 
    7400     1263.802   -108.72399    1.1435146   -107.58047   -13699.184    4.3523439    4.3523439    4.3523439   -13699.184   -2297.0231   -24521.466   -14279.062   -14400.652    9029.4042    -4522.445    82.446003 
    7500    730.41661   -108.25071   0.66089629   -107.58982    951.97259    4.3512777    4.3512777    4.3512777    951.97259    48204.344   -10977.707    -34370.72   -3690.3881    4746.8735    1889.8436    82.385429 
    7600    801.25172   -108.31613   0.72498939   -107.59115   -6015.8826    4.3626936    4.3626936    4.3626936   -6015.8826    6468.8206    13570.233   -38086.701    7296.9999   -171.12469    1657.8071    83.035561 
    7700    738.60721   -108.25387   0.66830732   -107.58556     15645.96    4.3499968    4.3499968    4.3499968     15645.96    57664.541    14561.535   -25288.195    12946.228    3159.5721    101.97323    82.312696 
    7800     419.1622   -107.97367   0.37926677    -107.5944    11294.626    4.3445858    4.3445858    4.3445858    11294.626   -516.20887    57458.366   -23058.279    4265.2886    -376.8796    7659.4479    82.005905 
    7900    1134.1245   -108.61932    1.0261797   -107.59314   -17528.308    4.3546905    4.3546905    4.3546905   -17528.308   -12667.724   -4158.7976   -35758.403    2569.3635   -4963.4053   -1588.4287    82.579431 
    8000    757.74825   -108.28218   0.68562654   -107.59655   -1461.3598    4.3488196    4.3488196    4.3488196   -1461.3598   -6793.0037    33532.864   -31123.939    2785.2578    5371.2067    7099.8144    82.245883 
    8100    824.43933   -108.34499   0.74597003   -107.59902   -8313.0948    4.3491416    4.3491416    4.3491416   -8313.0948    14651.855   -8225.2185    -31365.92    2313.3553   -2018.8673    3474.6715    82.264154 
    8200    722.84572   -108.24992     0.654046   -107.59588    7262.7961    4.3545108    4.3545108    4.3545108    7262.7961   -7568.2723    47190.516   -17833.856    16613.971    6096.7097    2067.3983    82.569206 
    8300    775.80116   -108.29374   0.70196119   -107.59178   -15259.353    4.3529042    4.3529042    4.3529042   -15259.353    32104.695   -34061.197   -43821.555   -10747.892     5286.958    5834.6314    82.477848 
    8400    789.55669   -108.30632   0.71440749   -107.59191    6610.3554     4.346361     4.346361     4.346361    6610.3554   -5038.4387    34085.851   -9216.3458    14127.449    1364.5548    952.63792    82.106472 
    8500    727.88303   -108.25714   0.65860386   -107.59854   -546.90382    4.3490574    4.3490574    4.3490574   -546.90382    40655.256   -12641.002   -29654.966    5073.4841   -616.78191    5876.0158    82.259375 
    8600    786.61123   -108.31028   0.71174237   -107.59854    6428.8184    4.3508533    4.3508533    4.3508533    6428.8184    39462.315    3915.5101    -24091.37    6182.4161    808.64938    2747.0821    82.361325 
    8700    969.79528   -108.46913   0.87749115   -107.59164   -12978.342    4.3570576    4.3570576    4.3570576   -12978.342    6645.8929   -10678.178    -34902.74    1019.7296    3794.2447    359.11953    82.714169 
    8800    670.22757   -108.20181   0.60643599   -107.59537    4737.3443    4.3421184    4.3421184    4.3421184    4737.3443    64323.867   -25521.853   -24589.981   -192.48955    6933.7818    9037.5352    81.866265 
    8900    833.69614    -108.3623   0.75434579   -107.60795    8546.4291    4.3488131    4.3488131    4.3488131    8546.4291     9960.906    41528.144   -25849.763      1768.85    2182.0428   -1663.0235    82.245515 
    9000    886.19825   -108.40976    0.8018508    -107.6079   -1226.7968    4.3509013    4.3509013    4.3509013   -1226.7968     28337.77   -6849.8152   -25168.345    2147.4398   -10595.813    11195.816    82.364052 
    9100    799.94606   -108.32443     0.723808   -107.60063   -2730.6584    4.3528912    4.3528912    4.3528912   -2730.6584   -6067.3942    26666.382   -28790.963   -8058.6151    939.64715    5166.6276    82.477112 
    9200    824.54121   -108.33524   0.74606222   -107.58918    3129.3631    4.3535657    4.3535657    4.3535657    3129.3631    44381.762   -1640.2135   -33353.459   -1431.8326   -3966.0497   -8775.0652    82.515456 
    9300     781.6415   -108.29712   0.70724566   -107.58987   -6583.8323    4.3433592    4.3433592    4.3433592   -6583.8323     13825.96   -9623.3208   -23954.136     262.5195    3236.9633    10643.063    81.936467 
    9400     741.3031   -108.26324   0.67074662   -107.59249   -8472.2427    4.3533765    4.3533765    4.3533765   -8472.2427     316.7662      3755.39   -29488.884   -462.68842    13882.994   -1128.9054    82.504697 
    9500    979.96226   -108.47353   0.88669044   -107.58684    -7157.206    4.3503015    4.3503015    4.3503015    -7157.206    35268.307   -26853.318   -29886.606    5670.4216   -5929.5287   -9996.8405    82.329992 
    9600     521.2731   -108.06455   0.47165886   -107.59289    8848.3585    4.3484005    4.3484005    4.3484005    8848.3585    22488.698    26172.631   -22116.254   -8008.5737    7965.4974    5248.2232    82.222106 
    9700    1013.1668   -108.50706   0.91673464   -107.59033   -16862.394    4.3544771    4.3544771    4.3544771   -16862.394   -16511.918   -17954.457   -16120.806   -3105.1464    6692.0134   -2748.3458    82.567288 
    9800    652.89162   -108.18043   0.59075006   -107.58968   -3512.7854    4.3532116    4.3532116    4.3532116   -3512.7854    36015.025   -7632.5013    -38920.88    2947.9932    1420.5904    12114.552    82.495321 
    9900    852.45247   -108.35726   0.77131691   -107.58594   -1505.1426    4.3438867    4.3438867    4.3438867   -1505.1426     -18257.2    8805.6529     4936.119   -1174.4806    15138.222    3390.4105    81.966323 
   10000    827.48573   -108.33605   0.74872648   -107.58732   -2582.9593    4.3548527    4.3548527    4.3548527   -2582.9593    34200.701   -11751.513   -30198.066    -4676.928   -10083.748    4790.0593    82.588658 
   10100    713.61546   -108.23435   0.64569426   -107.58866   -9267.3914     4.355206     4.355206     4.355206   -9267.3914     5640.522    11942.037   -45384.734   -2217.9338    4774.4086     12058.71    82.608759 
   10200    769.47127   -108.28724   0.69623378   -107.59101    11713.601    4.3415851    4.3415851    4.3415851    11713.601    29682.439    5334.4255    123.93786    10450.923   -3964.7022   -3490.6423    81.836103 
   10300    966.33688   -108.47292   0.87436192   -107.59856   -21765.866    4.3546035    4.3546035    4.3546035   -21765.866   -8785.1278   -20188.258   -36324.213    914.90343    6992.3666    7947.7193    82.574481 
   10400    705.87446   -108.23309   0.63869004    -107.5944    3284.1728    4.3531175    4.3531175    4.3531175    3284.1728    37503.879    6111.6433   -33763.004    8059.9708   -1102.8314   -2642.7046    82.489975 
   10500    693.31457   -108.21548   0.62732559   -107.58816    4588.0997    4.3479504    4.3479504    4.3479504    4588.0997    11887.811    1338.8858    537.60213    1024.5751    416.98985    1238.0936    82.196581 
   10600    927.02725   -108.42437   0.83879373   -107.58557   -14351.345    4.3507416    4.3507416    4.3507416   -14351.345   -4885.5969   -3831.7774    -34336.66   -7734.2979   -572.26686    4355.2083    82.354983 
   10700    802.45445   -108.31212   0.72607765   -107.58604     -8425.93    4.3540951    4.3540951    4.3540951     -8425.93   -2844.5967   -10527.243    -11905.95    2662.4515    2251.2382   -4290.0519     82.54556 
   10800     735.3291   -108.25276   0.66534123   -107.58742     1772.501    4.3456353    4.3456353    4.3456353     1772.501     10198.71   -11548.174    6666.9668     2560.064    19842.427    5701.0094    82.065349 
   10900    867.90257   -108.37652   0.78529648   -107.59122   -1478.1973    4.3535229    4.3535229    4.3535229   -1478.1973    15373.503    822.28838   -20630.384   -5576.5383    1315.0711    2193.9037    82.513025 
   11000    680.98918   -108.20173   0.61617332   -107.58556   -5815.2394    4.3597715    4.3597715    4.3597715   -5815.2394     16800.21   -5930.4893   -28315.439    836.94869    20081.204   -1660.3807    82.868827 
   11100     643.4554   -108.16187   0.58221197   -107.57966    14623.296    4.3394034    4.3394034    4.3394034    14623.296    9331.4847    47275.953   -12737.551    -5993.811    2930.3176    8721.1646    81.712795 
   11200    1005.3466    -108.5011   0.90965873   -107.59144   -21257.265    4.3574088    4.3574088    4.3574088   -21257.265   -14935.777   -14852.389   -33983.629    11331.628    3656.8004   -39.538042     82.73417 
   11300    688.61015   -108.21398   0.62306894   -107.59091   -4107.1033    4.3552888    4.3552888    4.3552888   -4107.1033   -15517.988    15482.618    -12285.94    5485.1007    10271.269   -4304.8708    82.613471 
   11400    853.61137   -108.35683   0.77236551   -107.58447    6394.3213    4.3374537    4.3374537    4.3374537    6394.3213      15633.4    18118.645   -14569.081   -718.78556   -7391.2907    5956.6081    81.602707 
   11500    698.84218   -108.22348   0.63232709   -107.59116   -8634.3819    4.3612134    4.3612134    4.3612134   -8634.3819   -16805.616    10765.916   -19863.446    4321.3436    9494.0788    3605.9964    82.951071 
   11600    652.58555   -108.17269   0.59047312   -107.58222     4181.014    4.3533301    4.3533301    4.3533301     4181.014   -8032.4933    29346.424   -8770.8881    -510.6673    6607.0723   -6609.7961     82.50206 
   11700    830.10843   -108.33132   0.75109955   -107.58022    1463.4364    4.3421731    4.3421731    4.3421731    1463.4364    3650.8156    1406.6964   -667.20279    7644.9195    876.34373     4450.909     81.86936 
   11800      799.609    -108.3077   0.72350302    -107.5842   -10590.322    4.3581536    4.3581536    4.3581536   -10590.322   -13742.556   -8972.1631   -9056.2451   -3481.1584      15200.6   -5984.3912      82.7766 
   11900    926.23147   -108.41971    0.8380737   -107.58164   -5786.2529    4.3480395    4.3480395    4.3480395   -5786.2529   -11169.816    15426.115   -21615.058   -180.93056   -1387.6367    3087.9614    82.201631 
   12000    475.36906   -108.02438   0.43012392   -107.59426    10274.163    4.3459158    4.3459158    4.3459158    10274.163    -12288.54    43231.385   -120.35616   -3469.3091    8712.4712    1707.8968    82.081245 
   12100    1056.4748   -108.55037   0.95592064   -107.59445    -13020.79    4.3539501    4.3539501    4.3539501    -13020.79   -28946.422    400.61929   -10516.569     4849.241    7353.0939   -2829.9995    82.537315 
   12200    629.92972   -108.16146   0.56997365   -107.59149   -6294.2859    4.3613954    4.3613954    4.3613954   -6294.2859   -23733.645   -6274.6703    11125.457   -2286.0868    1385.3944    1155.8098    82.961458 
   12300    712.90355   -108.23139   0.64505012   -107.58634    -2796.636    4.3427654    4.3427654    4.3427654    -2796.636    4816.5966   -23523.747    10317.242   -1343.1272    20816.701    3223.0613    81.902869 
   12400    969.39391   -108.46868   0.87712798   -107.59155    5982.7301    4.3456623    4.3456623    4.3456623    5982.7301   -2142.1824    12981.035    7109.3376    2425.7069   -2795.7088    4632.0214    82.066881 
   12500    515.71103   -108.05607   0.46662618   -107.58944   -21931.084    4.3693441    4.3693441    4.3693441   -21931.084    6783.1823   -31599.698   -40976.738   -12184.997    17434.446    10949.229    83.415879 
   12600    825.32837   -108.32073   0.74677445   -107.57396    15555.706    4.3292316    4.3292316    4.3292316    15555.706     17270.65    42821.769   -13425.301   -5108.8928    3889.2709    635.36994    81.139524 
   12700    831.74165   -108.34212   0.75257732   -107.58954    6915.8016    4.3521436    4.3521436    4.3521436    6915.8016    18692.717    3946.3193   -1891.6314   -4612.0524   -5419.1893     2332.247    82.434624 
   12800    724.94203   -108.24334   0.65594278    -107.5874   -37013.101    4.3642337    4.3642337    4.3642337   -37013.101   -46613.243   -11343.618   -53082.441    4368.7213    15453.799   -4485.2654    83.123532 
   12900    693.04353   -108.20414   0.62708035   -107.57705    33217.431    4.3233794    4.3233794    4.3233794    33217.431    51385.431    37071.969    11194.893    2675.5642    13761.214     3156.356    80.810917 
   13000     1145.118   -108.62695    1.0361268   -107.59083   -17919.387    4.3542132    4.3542132    4.3542132   -17919.387   -10733.355   -15871.636    -27153.17    500.83593    4925.8925   -2691.5006    82.552277 
   13100    410.41364   -107.96606   0.37135088   -107.59471    14535.361    4.3527846    4.3527846    4.3527846    14535.361    30926.406    19977.735   -7298.0577   -9200.0841    14781.736    4045.3941    82.471053 
   13200    1050.3909   -108.53528   0.95041577   -107.58486    2735.3511    4.3431913    4.3431913    4.3431913    2735.3511   -15456.363    28925.058   -5262.6421    1393.1868   -2989.6433   -6698.0587    81.926966 
   13300    705.49422   -108.22844     0.638346   -107.59009    15302.038    4.3438107    4.3438107    4.3438107    15302.038     32074.09    7082.5148    6749.5079     4843.186    370.49914    1806.2945    81.962022 
   13400    858.71239   -108.37184   0.77698102   -107.59486   -17222.337    4.3528181    4.3528181    4.3528181   -17222.337    -14475.25   -19446.808   -17744.953    4533.9268    11847.343   -2199.8434    82.472955 
   13500    938.86375   -108.43564   0.84950365   -107.58614   -6697.1749    4.3542417    4.3542417    4.3542417   -6697.1749    5702.9757   -20584.076   -5210.4241   -5910.9108     -6885.12    4796.6701    82.553899 
   13600     880.9067   -108.38045    0.7970629   -107.58338     13541.92    4.3329402    4.3329402    4.3329402     13541.92    6602.9301    29263.358    4759.4708   -4005.1027    12931.078     5020.334    81.348227 
   13700    631.40515   -108.16762   0.57130865   -107.59631   -11280.942    4.3594038    4.3594038    4.3594038   -11280.942   -17645.377    5257.9402   -21455.389   -5915.0887    5674.9417    589.61275    82.847863 
   13800    807.62987   -108.31558   0.73076048   -107.58482   -5234.4274    4.3505898    4.3505898    4.3505898   -5234.4274   -9634.2803     20598.52   -26667.522    8657.4116   -2334.8291    700.35795    82.346363 
   13900     466.3234   -108.00887   0.42193921   -107.58693    32491.225    4.3269771    4.3269771    4.3269771    32491.225    50915.556    32375.503    14182.616    9048.1408    17538.039   -3799.3904    81.012828 
   14000    991.80272   -108.49334   0.89740394   -107.59594   -23406.195    4.3631691    4.3631691    4.3631691   -23406.195   -11455.177   -33355.949   -25407.458   -47.475534   -1987.9318   -2967.3801    83.062717 
   14100    1040.6551    -108.5288   0.94160663   -107.58719   -19738.364    4.3526643    4.3526643    4.3526643   -19738.364   -13172.972   -17393.782    -28648.34   -4349.1874    5033.6403   -1914.7443    82.464212 
   14200    626.21662    -108.1434   0.56661395   -107.57678    27308.013    4.3218746    4.3218746    4.3218746    27308.013     29459.45    31399.262    21065.327    4349.8503    19630.015   -2752.7772    80.726568 
   14300    771.09529   -108.28873   0.69770323   -107.59102   -5988.3875    4.3573744    4.3573744    4.3573744   -5988.3875     21962.22    -4668.355   -35259.028    2565.5608   -13337.473    3734.6181    82.732212 
   14400    677.80295   -108.20363   0.61329035   -107.59034   -1794.1193    4.3525633    4.3525633    4.3525633   -1794.1193   -8760.3181    24709.338   -21331.378    9124.0202    13581.173    2704.1241    82.458473 
   14500    788.89539   -108.29462   0.71380912   -107.58081    28258.074    4.3312072    4.3312072    4.3312072    28258.074    44202.031    29912.989    10659.202   -649.10293    2540.3962    8.3993992    81.250657 
   14600    1126.6342   -108.60179    1.0194023   -107.58238   -33490.012    4.3596585    4.3596585    4.3596585   -33490.012   -40137.797   -31388.486   -28943.753   -10421.203     593.2949    3084.0796     82.86238 
   14700     595.0946   -108.12197    0.5384541   -107.58351    11289.907    4.3456658    4.3456658    4.3456658    11289.907    25051.686    21787.717    -12969.68   -3035.4643    20211.969   -2826.8113    82.067078 
   14800    967.47801   -108.45748   0.87539443   -107.58208    16277.691    4.3359395    4.3359395    4.3359395    16277.691    26956.808    26820.887   -4944.6213    5711.8909   -7952.0828    5749.2512    81.517271 
   14900    797.93261   -108.31695   0.72198619   -107.59496    771.92952    4.3485128    4.3485128    4.3485128    771.92952    16634.935     10012.28   -24331.426    2992.1579    7566.0221   -1079.7393    82.228481 
   15000    658.18077   -108.19226   0.59553579   -107.59672    4366.0285    4.3535915    4.3535915    4.3535915    4366.0285   -12216.503    35018.189   -9703.6002   -2070.5959    6656.6947    3135.9995    82.516926 
   15100    1180.7191   -108.65624    1.0683395    -107.5879   -5640.6694    4.3424176    4.3424176    4.3424176   -5640.6694    13863.402   -14526.869   -16258.541   -1599.9325   -9285.3609   -2853.2304    81.883189 
   15200    543.65565   -108.08391   0.49191106   -107.59199    17807.644    4.3411039    4.3411039    4.3411039    17807.644    10384.684    61090.359    -18052.11    495.86226    15423.653    815.77753    81.808895 
   15300    801.73014   -108.31803   0.72542228   -107.59261   -8591.5452    4.3567694    4.3567694    4.3567694   -8591.5452   -7967.7989    3718.0526   -21524.889    13757.137   -4317.8022   -2262.8563    82.697756 
   15400    858.56107   -108.36821    0.7768441   -107.59137    13937.906    4.3362838    4.3362838    4.3362838    13937.906    35343.411    21671.551   -15201.244     4174.226    1467.3141     1337.555    81.536691 
   15500    828.03958   -108.34835   0.74922762   -107.59912   -10280.722    4.3401778    4.3401778    4.3401778   -10280.722   -21310.953     14952.99   -24484.202   -8038.4859    16386.725    3179.8656    81.756554 
   15600    684.89746   -108.21549   0.61970961   -107.59578   -10774.089    4.3536116    4.3536116    4.3536116   -10774.089    1340.4752   -10507.723   -23155.019   -10250.171   -11222.712    12283.267    82.518069 
   15700    989.37106   -108.48404   0.89520372   -107.58883    103.68885    4.3411846    4.3411846    4.3411846    103.68885   -10441.483    41733.865   -30981.315    4815.7709    15897.697   -112.79947    81.813458 
   15800    796.06588   -108.31323   0.72029713   -107.59293    6301.1776    4.3409862    4.3409862    4.3409862    6301.1776    43979.152   -5205.4322   -19870.186    10105.974   -2816.1884     1419.689    81.802243 
   15900    670.85638   -108.20482   0.60700495   -107.59782    -8087.577    4.3571476    4.3571476    4.3571476    -8087.577    2732.6867    13008.699   -40004.117    -6166.458    4699.1845    1619.3271    82.719291 
   16000    877.83162   -108.38971    0.7942805   -107.59543   -14537.402    4.3425673    4.3425673    4.3425673   -14537.402   -12607.937    10796.611   -41800.882   -3644.5446    24415.862   -756.66492    81.891659 
   16100     661.3346   -108.19093   0.59838944   -107.59254    21010.597    4.3272428    4.3272428    4.3272428    21010.597    4256.8498    76115.508   -17340.567   -1271.2979   -6016.3501    5192.3036    81.027755 
   16200    848.15459    -108.3613    0.7674281   -107.59387   -38555.975    4.3651554    4.3651554    4.3651554   -38555.975   -29688.124   -31189.221    -54790.58   -243.68237    14459.243    10417.414    83.176209 
   16300     858.0494   -108.36386   0.77638113   -107.58748    15470.865    4.3338341    4.3338341    4.3338341    15470.865    -7551.524    62002.476    -8038.358    6438.0705    10783.627   -2029.6207    81.398584 
   16400    635.09297   -108.16841   0.57464546   -107.59376    21394.978    4.3305441    4.3305441    4.3305441    21394.978    49113.427    34199.748    -19128.24   -12266.662   -9211.1015    4539.0121    81.213347 
   16500    569.56978   -108.11425   0.51535871   -107.59889   -27569.131    4.3638564    4.3638564    4.3638564   -27569.131   -27125.169    -6641.881   -48940.343   -12062.252     12387.33   -1211.2919    83.101978 
   16600    976.33985   -108.47193   0.88341281   -107.58852    13225.612    4.3326299    4.3326299    4.3326299    13225.612    15253.802    30717.704   -6294.6714    9103.9458   -3237.6693   -5414.2607    81.330747 
   16700    824.31102   -108.34333   0.74585394   -107.59748   -11342.466    4.3372788    4.3372788    4.3372788   -11342.466   -7666.7026    -493.1077   -25867.587   -3231.7856     7359.729    12617.948    81.592835 
   16800    601.24707   -108.14409   0.54402098   -107.60007   -2631.1225    4.3517894    4.3517894    4.3517894   -2631.1225   -5942.0145    35401.495   -37352.848    907.88534    13552.571   -3796.5224    82.414497 
   16900    1102.8289   -108.58721   0.99786275   -107.58935   -4451.8326    4.3466862    4.3466862    4.3466862   -4451.8326    27462.587   -8151.8644    -32666.22   -7885.7396    -634.8808    3411.4939    82.124904 
   17000    351.93598   -107.91556   0.31843908   -107.59712    3066.6053    4.3419673    4.3419673    4.3419673    3066.6053    7789.7941    43393.893   -41983.871    3047.4159     9062.508   -5718.1559    81.857721 
   17100    1112.0976   -108.60116    1.0062493   -107.59491   -12394.001    4.3417168    4.3417168    4.3417168   -12394.001   -3910.7002   -19248.385   -14022.919    2608.1525    2088.1711   -2460.4521    81.843551 
   17200    820.48004   -108.33806   0.74238758   -107.59568    1165.7941    4.3545465    4.3545465    4.3545465    1165.7941   -3163.3404    37450.052   -30789.329   -826.46943   -2855.9329    4775.3193    82.571238 
   17300    668.27779   -108.19988   0.60467179    -107.5952    293.86342    4.3414509    4.3414509    4.3414509    293.86342    23510.961    1551.1169   -24180.488   -12985.753    12922.367    4978.2318     81.82852 
   17400    778.38251   -108.29704   0.70429685   -107.59274    22572.743    4.3372832    4.3372832    4.3372832    22572.743    38430.081     31648.83   -2360.6825   -4463.3479    2565.4192    5503.6544    81.593084 
   17500    848.75548   -108.36067   0.76797179    -107.5927   -13669.448    4.3545096    4.3545096    4.3545096   -13669.448   -5788.7705    468.34788   -35687.923    9375.1515    9427.3841    336.99021     82.56914 
   17600    793.03927   -108.30667    0.7175586   -107.58911   -11984.464    4.3457403    4.3457403    4.3457403   -11984.464   -6226.0059   -10183.117   -19544.269   -4372.1675    11526.063    2578.1118    82.071297 
   17700    699.56445   -108.22129   0.63298061   -107.58831    19513.585     4.340576     4.340576     4.340576    19513.585      37271.9     36226.98   -14958.126   -1859.0138   -9758.6081   -4950.3573    81.779056 
   17800    871.32638   -108.37983   0.78839442   -107.59144   -18888.358    4.3545028    4.3545028    4.3545028   -18888.358    3784.2295   -19772.785    -40676.52   -2982.9672    3117.1516    1395.8689    82.568754 
   17900    757.26462   -108.27703   0.68518894   -107.59184   -6471.9376    4.3414564    4.3414564    4.3414564   -6471.9376   -2506.9903    2980.6693   -19889.492    1352.7595    1898.5547   -4157.5918    81.828828 
   18000    853.35735   -108.36706   0.77213566   -107.59492    6334.7605    4.3354409    4.3354409    4.3354409    6334.7605    18519.329    4486.2394   -4001.2868    1522.3869     1953.426    1251.9691    81.489153 
   18100    625.65585   -108.16844   0.56610656   -107.60233   -5523.0257      4.35587      4.35587      4.35587   -5523.0257    32942.963   -3609.2397   -45902.801   -8469.7035    3261.8224    3218.5257    82.646549 
   18200    815.83743   -108.33493   0.73818685   -107.59674   -4869.5531    4.3447741    4.3447741    4.3447741   -4869.5531    9258.9575   -2305.7075   -21561.909   -13770.952   -948.35844   -1692.2976    82.016569 
   18300    703.14468   -108.23167   0.63622008   -107.59545     8286.249    4.3411791    4.3411791    4.3411791     8286.249    12278.445    40476.768   -27896.465    3074.7889   -6928.4921     3077.232    81.813148 
   18400    1136.5442   -108.62075    1.0283691   -107.59239   -19920.539    4.3470578    4.3470578    4.3470578   -19920.539   -320.76274   -23269.974    -36170.88    3108.8868    592.11036    1882.2863    82.145968 
   18500    489.03136   -108.04085   0.44248585   -107.59836    10910.446    4.3428512    4.3428512    4.3428512    10910.446    37526.051    19673.692   -24468.404   -8902.2773   -4386.3455   -5695.2397     81.90772 
   18600    833.58807   -108.34868   0.75424801   -107.59443   -10995.779    4.3505943    4.3505943    4.3505943   -10995.779   -11887.775    15541.537   -36641.099   -2476.6376   -2235.2827    3319.6353    82.346618 
   18700    726.52532   -108.24939   0.65737538   -107.59201    5360.7018    4.3416899    4.3416899    4.3416899    5360.7018    4587.5672    32487.437   -20992.899   -3254.6816    2402.1185   -4915.5944    81.842033 
   18800    878.22722   -108.38917   0.79463844   -107.59454   -7537.2421    4.3417175    4.3417175    4.3417175   -7537.2421   -7640.7137    13425.672   -28396.685   -6423.5386   -6577.3756   -3439.4046    81.843591 
   18900     908.5841   -108.41517   0.82210598   -107.59306   -2948.9301    4.3543481    4.3543481    4.3543481   -2948.9301    -19492.79    45639.601   -34993.602    5165.2628   -567.54543    404.10119    82.559954 
   19000    1025.3581   -108.52427   0.92776558   -107.59651   -4575.6754    4.3363873    4.3363873    4.3363873   -4575.6754   -4742.1232    2103.3561   -11088.259   -15782.097   -2870.7424    -5111.479    81.542529 
   19100    696.71905   -108.24292   0.63040604   -107.61252   -672.20001    4.3466255    4.3466255    4.3466255   -672.20001    3704.2101    24219.858   -29940.668    1450.2512    -6140.633   -2560.5639    82.121459 
   19200    795.14147   -108.32218   0.71946071   -107.60272    4158.9575    4.3523078    4.3523078    4.3523078    4158.9575    1866.6681    32947.382   -22337.178    15960.847    2660.9145    2046.0762    82.443953 
   19300    742.17923   -108.26557   0.67153936   -107.59403    17831.116    4.3312735    4.3312735    4.3312735    17831.116    29759.904    29916.266   -6182.8223   -15092.555   -6041.5023   -4837.6854    81.254386 
   19400    719.63641   -108.25228   0.65114215   -107.60113   -7664.7618    4.3554241    4.3554241    4.3554241   -7664.7618    -32267.17    40643.439   -31370.555   -6279.0118   -824.09723    988.91912    82.621169 
   19500    1153.8096   -108.63877    1.0439912   -107.59478   -3470.5744     4.340475     4.340475     4.340475   -3470.5744   -7099.0075    9781.9614   -13094.677     9792.043    2105.7226   -2311.8284    81.773348 
   19600    522.50262   -108.07827   0.47277135    -107.6055    5959.5241    4.3427058    4.3427058    4.3427058    5959.5241   -28444.962     51971.27   -5647.7357   -9952.1475   -2156.9001    1190.5983    81.899497 
   19700    905.87236   -108.41936   0.81965235   -107.59971   -14274.788    4.3543237    4.3543237    4.3543237   -14274.788   -31884.848    17343.351   -28282.866   -1120.0146     520.2141   -1388.6446    82.558567 
   19800    916.41894   -108.42427   0.82919512   -107.59508    17242.011    4.3302771    4.3302771    4.3302771    17242.011     21934.21    28596.846    1194.9766   -9552.5547   -947.16914     3438.448    81.198325 
   19900    621.45543   -108.16899   0.56230594   -107.60668   -7882.3382    4.3535875    4.3535875    4.3535875   -7882.3382   -8876.5958   -2816.8611   -11953.558   -11760.687   -2062.9247   -9243.0524    82.516699 
   20000    738.30387   -108.26096   0.66803286   -107.59293    8034.5046    4.3479701    4.3479701    4.3479701    8034.5046   -6185.4188    56026.645   -25737.713    6157.1695    6579.3551   -113.37592    82.197699 
   20100    846.08495     -108.354   0.76555544   -107.58845    9314.2144    4.3306461    4.3306461    4.3306461    9314.2144    3228.0533    19860.605    4853.9854   -948.05439   -3283.1922   -7106.7789    81.219083 
   20200    912.05589   -108.42395   0.82524733    -107.5987   -27732.695    4.3580856    4.3580856    4.3580856   -27732.695   -44371.575   -25376.599   -13449.913   -21675.736    -1217.241    4484.6711    82.772729 
   20300    902.98351   -108.41613   0.81703846   -107.59909    8053.5113    4.3431521    4.3431521    4.3431521    8053.5113   -16515.627    57905.153   -17228.992    6906.3315    5949.5068    6973.1615    81.924747 
   20400     445.4237    -108.0065   0.40302873   -107.60347    37797.849    4.3267203    4.3267203    4.3267203    37797.849    15140.944    83480.212     14772.39   -6370.4552    -8193.252    1380.1058    80.998405 
   20500    890.11216   -108.41105   0.80539219   -107.60565   -29552.782    4.3617304    4.3617304    4.3617304   -29552.782   -22605.481   -43573.148   -22479.716   -9302.3989    -371.8601   -3369.7812    82.980578 
   20600    763.20011   -108.28216    0.6905595    -107.5916     15375.88    4.3441751    4.3441751    4.3441751     15375.88     9209.643     40727.78   -3809.7824    9860.9249   -963.47635   -1467.7701    81.982655 
   20700      520.648   -108.06696   0.47109325   -107.59587     22572.76    4.3280707    4.3280707    4.3280707     22572.76   -7938.3366    65450.756    10205.862   -27812.005   -4520.6486   -11525.967    81.074267 
   20800    698.21064   -108.23939   0.63175566   -107.60763   -5815.9504     4.355488     4.355488     4.355488   -5815.9504   -25272.413    20626.473   -12801.911    -2555.241    4432.5194    3510.8031    82.624806 
   20900    1075.7622   -108.56603   0.97337223   -107.59266   -13649.221    4.3511928    4.3511928    4.3511928   -13649.221    -24048.23    5232.8736   -22132.306    3799.8509   -5528.7026   -702.12937    82.380608 
   21000    619.89362   -108.15126   0.56089277   -107.59037     3803.611    4.3312912    4.3312912    4.3312912     3803.611   -21653.673    18451.732    14612.774    -26968.22    2754.0189   -4879.7048    81.255385 
   21100    728.23252   -108.25625   0.65892009   -107.59733    8091.7409    4.3469694    4.3469694    4.3469694    8091.7409   -8263.5729    49554.992   -17016.196    -2359.795   -2929.4716   -1630.8541    82.140955 
   21200    922.76957   -108.42824    0.8349413    -107.5933   -16234.918    4.3579229    4.3579229    4.3579229   -16234.918   -14190.703   -9640.2735   -24873.778    -6693.574   -1847.5095   -9591.0472     82.76346 
   21300    755.83186   -108.27442   0.68389255   -107.59053   -2616.0973    4.3325859    4.3325859    4.3325859   -2616.0973    -13463.05    10720.902   -5106.1445    -15201.73    184.92544    3377.9133    81.328272 
   21400    726.67071   -108.25669   0.65750693   -107.59918    20033.986    4.3409099    4.3409099    4.3409099    20033.986   -4828.3371    71180.492   -6250.1977    6066.0953   -519.75796    -8557.181    81.797932 
   21500     853.7417   -108.36885   0.77248343   -107.59637   -26936.113    4.3610894    4.3610894    4.3610894   -26936.113   -44139.503   -11783.188   -24885.649   -15952.414    4919.5972   -2823.4183    82.943999 
   21600    695.46799   -108.22542   0.62927406   -107.59615   -3377.4386    4.3310727    4.3310727    4.3310727   -3377.4386   -28414.196    23640.083   -5358.2029   -20557.751    3115.0447   -1209.8671    81.243089 
   21700    978.27238   -108.48254   0.88516141   -107.59738    22913.262    4.3325949    4.3325949    4.3325949    22913.262    6736.0625    42252.963     19750.76    11470.751    4087.0697    12568.241    81.328782 
   21800    607.28941   -108.14353   0.54948822   -107.59404    -21228.44    4.3674709    4.3674709    4.3674709    -21228.44    -46055.84     10924.81   -28554.291   -15156.853    3126.0496    2498.2653    83.308644 
   21900    1008.1259   -108.50029   0.91217347   -107.58811   -2267.4188    4.3316788    4.3316788    4.3316788   -2267.4188    -11550.32    4218.7769    529.28708   -8240.3878    7390.3765   -408.70278    81.277203 
   22000    1035.8319   -108.53459   0.93724244   -107.59734    20878.339    4.3288325    4.3288325    4.3288325    20878.339    3054.8467    40360.108    19220.063    454.54063   -2217.3652   -5933.7974    81.117089 
   22100    606.48533   -108.14905   0.54876067   -107.60029   -19748.774    4.3617875    4.3617875    4.3617875   -19748.774   -47391.193    25220.868   -37075.997   -20436.908    7439.7716   -2328.8532    82.983839 
   22200    923.27889   -108.42542   0.83540214   -107.59002    12915.652      4.33584      4.33584      4.33584    12915.652    4939.0936    17114.771    16693.092    10103.159    6040.4468    4967.1618    81.511659 
   22300    905.69821   -108.41075   0.81949478   -107.59126    10732.529    4.3362274    4.3362274    4.3362274    10732.529   -16245.422     40117.22    8325.7892   -7599.5975   -6882.9193   -2042.8796    81.533509 
   22400    755.16558   -108.27719   0.68328969    -107.5939   -15387.309     4.351869     4.351869     4.351869   -15387.309   -28271.601   -9304.9035   -8585.4228   -15811.653    3495.3133    5007.8755    82.419021 
   22500    792.36255   -108.30244   0.71694629    -107.5855    23295.174    4.3406567    4.3406567    4.3406567    23295.174    3345.6392    36450.636    30089.246    10797.117    2269.6945   -2622.7433     81.78362 
   22600    870.95594   -108.37465   0.78805924   -107.58659   -12431.073    4.3461015    4.3461015    4.3461015   -12431.073   -26681.804    206.50546   -10817.919   -20827.313   -2746.7308    2348.6798    82.091763 
   22700    775.37855   -108.28756   0.70157881   -107.58598    4413.9683    4.3392331    4.3392331    4.3392331    4413.9683   -1911.9759    6894.5202    8259.3607   -6380.1822    4177.9694   -1210.8032    81.703179 
   22800    1028.1233   -108.51826   0.93026759     -107.588   -1622.0893    4.3468219    4.3468219    4.3468219   -1622.0893   -11473.033     10901.15   -4294.3844    6798.3112    2112.6465    738.23938    82.132597 
   22900    534.29689   -108.08156   0.48344305   -107.59812    9476.4293    4.3442446    4.3442446    4.3442446    9476.4293   -22025.543    45643.723    4811.1084    -7964.246    5685.1039   -54.979522    81.986587 
   23000     805.2798   -108.32866   0.72863409   -107.60003    15932.542      4.34262      4.34262      4.34262    15932.542    13633.363    28907.557    5256.7047   -5757.2064     10916.99   -4679.5495    81.894641 
   23100    923.36433   -108.43123   0.83547945   -107.59575   -15687.611    4.3512596    4.3512596    4.3512596   -15687.611   -27037.448   -26009.817    5984.4312   -13701.723   -2330.6443    4712.7465    82.384398 
   23200    642.78237   -108.17214   0.58160299   -107.59054    24697.962    4.3282366    4.3282366    4.3282366    24697.962    3777.7039    58176.642    12139.541   -15382.758    11841.505    8765.3476    81.083595 
   23300     902.1668   -108.41052   0.81629948   -107.59422   -4901.6686    4.3560929    4.3560929    4.3560929   -4901.6686   -7509.4657    3936.5395    -11132.08   -999.26549   -2383.8857   -1623.9493    82.659238 
   23400    724.97941   -108.24275    0.6559766   -107.58677   -2761.6144    4.3473262    4.3473262    4.3473262   -2761.6144   -26699.939    26344.158   -7929.0621   -11192.075   -1502.6823    982.62273    82.161185 
   23500    861.11788   -108.36146   0.77915756    -107.5823     16552.37    4.3285715    4.3285715    4.3285715     16552.37    30229.576    3030.5558    16396.977   -10940.026    6765.6487   -3719.3419    81.102415 
   23600    1074.7121   -108.56077   0.97242213   -107.58835   -19015.981    4.3597424    4.3597424    4.3597424   -19015.981   -15092.698   -11018.217   -30937.027    12392.111   -10848.142   -7287.9508    82.867169 
   23700    513.50127   -108.05186   0.46462674   -107.58723    11453.446    4.3439957    4.3439957    4.3439957    11453.446    2021.9424    23158.744    9179.6533   -14891.719    5618.8892    8000.8396    81.972498 
   23800    800.82986   -108.30759   0.72460768   -107.58298    16580.785    4.3288618    4.3288618    4.3288618    16580.785    7413.7725    36991.619    5336.9624   -4789.6427    1840.6746   -7211.9299    81.118732 
   23900    1046.0788   -108.53813   0.94651412   -107.59161   -10085.472    4.3522907    4.3522907    4.3522907   -10085.472   -8513.8906   -22418.323     675.7981   -5427.2714   -3177.7499    3993.6307    82.442983 
   24000     652.0913   -108.18446   0.59002591   -107.59443   -6598.2306    4.3506496    4.3506496    4.3506496   -6598.2306    528.91969    2831.8369   -23155.448   -11090.525    5701.8511    1560.8801    82.349755 
   24100      831.271   -108.34091   0.75215147   -107.58875    19474.463    4.3271722    4.3271722    4.3271722    19474.463    2272.8174    41074.928    15075.644    1741.7308    1686.4087    350.28551    81.023787 
   24200    777.68711   -108.30299   0.70366764   -107.59932   -29.475654    4.3482349    4.3482349    4.3482349   -29.475654    15230.111   -6917.2679   -8401.2697    5233.7362    4431.2142    1066.5322    82.212714 
   24300    777.69903   -108.29472   0.70367842   -107.59105   -20250.055    4.3548502    4.3548502    4.3548502   -20250.055   -29572.157   -17326.974   -13851.034   -22945.365    6441.7215   -3066.1189    82.588516 
   24400    842.50708   -108.34281   0.76231811   -107.58049    22600.151    4.3251797    4.3251797    4.3251797    22600.151    4378.1745    40315.393    23106.887    4279.7119   -387.96974    6332.6114    80.911914 
   24500    873.16522   -108.38536   0.79005824   -107.59531    -788.3528    4.3439683    4.3439683    4.3439683    -788.3528   -8058.4401   -7333.4724    13026.854   -3516.9076    6955.1226   -145.85142    81.970942 
   24600    835.23092   -108.34567   0.75573449   -107.58993   -27366.577    4.3590158    4.3590158    4.3590158   -27366.577   -52063.636   -11461.085   -18575.012   -7746.0772     842.6396    2529.2482    82.825739 
   24700    799.35315   -108.30473   0.72327153   -107.58146    32158.475    4.3239217    4.3239217    4.3239217    32158.475     24102.36    25380.456     46992.61    11577.395   -2010.0299   -10719.557     80.84133 
   24800    838.91386   -108.35696   0.75906689    -107.5979   -13330.227    4.3447055    4.3447055    4.3447055   -13330.227   -9740.3038   -6851.7278   -23398.649   -18771.974     2243.165     10238.58    82.012682 
   24900    637.54819   -108.16994     0.576867   -107.59308   -1140.3736     4.352282     4.352282     4.352282   -1140.3736   -12940.353    13748.138   -4228.9055   -17174.192      3950.76   -4224.8709    82.442488 
   25000    1032.1329   -108.51523   0.93389555   -107.58134    21429.968    4.3252998    4.3252998    4.3252998    21429.968    22857.823    24920.696    16511.385    5710.9804   -6886.6382   -1406.7003    80.918651 
   25100    640.95274   -108.17495   0.57994751     -107.595   -21842.543    4.3537835    4.3537835    4.3537835   -21842.543   -42806.516   -8657.1094   -14064.003   -14800.758    8357.8161    6869.7532    82.527839 
   25200    942.32082   -108.43929   0.85263168   -107.58666    4716.2562    4.3358355    4.3358355    4.3358355    4716.2562   -22757.779    23739.965    13166.583   -3830.8121   -215.38384   -12337.853    81.511406 
   25300    759.27431   -108.27938   0.68700736   -107.59237    12062.427    4.3333938    4.3333938    4.3333938    12062.427    2128.0282    17891.346    16167.906   -3553.9248   -818.37206    4741.5328    81.373779 
   25400     670.0107   -108.19964   0.60623976    -107.5934   -33144.736    4.3543818    4.3543818    4.3543818   -33144.736   -53096.746   -15088.337   -31249.124   -19660.403    14957.309   -1828.5919    82.561869 
   25500    850.59652    -108.3532   0.76963761   -107.58356    34081.503    4.3239638    4.3239638    4.3239638    34081.503    35932.496    35221.306    31090.707    7161.6472    63.971483    422.23432    80.843692 
   25600    918.65235   -108.43206   0.83121595   -107.60085   -24365.658    4.3479789    4.3479789    4.3479789   -24365.658   -14569.861   -22086.376   -36440.736   -4691.5649     12623.73     3736.863    82.198198 
   25700    460.05095   -108.01932   0.41626377   -107.60305    1454.1804    4.3432676    4.3432676    4.3432676    1454.1804    -13565.07    9325.4983    8602.1127    -18614.55    6162.4117    11306.919    81.931286 
   25800    1196.6446   -108.67308    1.0827492   -107.59033    9729.9933    4.3275598    4.3275598    4.3275598    9729.9933     4197.856     20862.88    4129.2438     3831.652   -1127.0971   -5794.1598    81.045561 
   25900    563.17093   -108.10569   0.50956889   -107.59612   -9654.1191    4.3501325    4.3501325    4.3501325   -9654.1191   -20298.331   -157.88406   -8506.1424   -6934.7755    7447.7505    15051.028    82.320398 
   26000    819.74557   -108.32952   0.74172302    -107.5878    539.13673    4.3376979    4.3376979    4.3376979    539.13673    1555.7446   -1510.0727    1571.7382   -4337.6296    1048.5204    7966.3818    81.616487 
   26100    1026.3577   -108.51467   0.92867004     -107.586     6581.456    4.3353892    4.3353892    4.3353892     6581.456    5401.6963    8264.2712    6078.4006    4277.9097   -4646.3225   -3684.0378    81.486238 
   26200    561.98492   -108.10308   0.50849577   -107.59458   -10374.996     4.345722     4.345722     4.345722   -10374.996    4249.9122   -12080.682   -23294.218    -17965.03    4412.3902    15718.072    82.070262 
   26300    805.67525   -108.31858    0.7289919   -107.58958    1843.2813    4.3385893    4.3385893    4.3385893    1843.2813   -11038.242   -1713.4331    18281.519   -3990.0407    974.78672   -4534.0258    81.666817 
   26400    891.02386   -108.39579   0.80621712   -107.58957    -3650.652    4.3431368    4.3431368    4.3431368    -3650.652     2162.368    1094.9413   -14209.265   -21.973312   -2698.4827    7297.5131    81.923883 
   26500    564.51833   -108.10442   0.51078804   -107.59364   -1872.4333    4.3402739    4.3402739    4.3402739   -1872.4333    14881.409   -22827.789    2329.0805   -4215.4545    7026.3034    8142.0209    81.761982 
   26600    1045.1914   -108.53479   0.94571116   -107.58908   -6593.7248    4.3368753    4.3368753    4.3368753   -6593.7248    -15706.32   -10407.731     6332.876    -1400.456   -6760.1058   -2855.8646    81.570065 
   26700    804.27874   -108.31956    0.7277283   -107.59183     3884.756    4.3401926    4.3401926    4.3401926     3884.756    46160.569   -24173.842   -10332.458   -2038.6247    3158.8932    13477.483    81.757387 
   26800    718.82164   -108.24652   0.65040492   -107.59611   -9212.0611    4.3430196    4.3430196    4.3430196   -9212.0611   -34864.907   -21884.641    29113.365   -11152.343    5036.0597   -1850.4798    81.917248 
   26900    800.65076    -108.3202   0.72444564   -107.59575    2023.8986    4.3401502    4.3401502    4.3401502    2023.8986    19236.823   -7373.4598   -5791.6677   -64.579915    -7683.996    7254.7261     81.75499 
   27000    748.84606   -108.27285   0.67757165   -107.59528    14169.837    4.3362523    4.3362523    4.3362523    14169.837    3831.1233    10590.797    28087.591    4412.1739    316.09586    6852.0807    81.534918 
   27100     851.2827    -108.3634   0.77025847   -107.59314   -22883.409    4.3506415    4.3506415    4.3506415   -22883.409   -44101.177   -13101.286   -11447.763      -9724.8     1353.304    2154.5606    82.349298 
   27200    741.63177   -108.25739   0.67104401   -107.58635    21354.095    4.3328182    4.3328182    4.3328182    21354.095    31989.696    32314.766   -242.17558    10031.469   -7229.6939    5687.9799    81.341354 
   27300    882.03135   -108.38829    0.7980805   -107.59021   -12410.269    4.3378877    4.3378877    4.3378877   -12410.269   -21551.595   -18608.996    2929.7838   -12722.807      5369.22    1578.9801    81.627202 
   27400    610.00717   -108.14333    0.5519473   -107.59139   -11970.516    4.3509629    4.3509629    4.3509629   -11970.516   -22763.644    16063.306    -29211.21   -2920.9531   -5944.3037    1150.7346    82.367546 
   27500    961.80847   -108.45381   0.87026452   -107.58355    16067.387    4.3307921    4.3307921    4.3307921    16067.387    17344.272    16497.493    14360.395    9749.0307   -7372.9866    3903.8032    81.227299 
   27600    792.12028   -108.30981   0.71672708   -107.59308   -5697.3272    4.3416797    4.3416797    4.3416797   -5697.3272   -23640.098    21490.718   -14942.601   -11674.453    5115.1556    1000.5267    81.841453 
   27700    582.65422   -108.11728   0.52719778   -107.59008   -8261.7529    4.3495499    4.3495499    4.3495499   -8261.7529   -15003.992   -597.63729   -9183.6293    669.92257   -6509.6801    4396.7936    82.287324 
   27800    1072.0921   -108.54999   0.97005148   -107.57993    10380.789     4.324294     4.324294     4.324294    10380.789    10295.582    9895.7248    10951.059    826.90949    -573.6047   -254.25216    80.862216 
   27900    609.30236   -108.14991   0.55130958   -107.59861   -6825.2778    4.3462795    4.3462795    4.3462795   -6825.2778   -23585.623   -783.77327    3893.5631   -6202.2031    6850.3589    1617.6489    82.101849 
   28000    879.29962   -108.38574   0.79560878   -107.59013   -16752.072    4.3479789    4.3479789    4.3479789   -16752.072   -9292.9338   -23251.084   -17712.199    4976.2323   -5726.1696    375.31624    82.198197 
   28100    835.28181    -108.3402   0.75578054   -107.58442    18029.179     4.326556     4.326556     4.326556    18029.179    15765.503    22709.466    15612.568      5890.78   -535.79829   -601.51141    80.989177 
   28200    688.62093   -108.21701   0.62307869   -107.59393   -8724.9174    4.3426528    4.3426528    4.3426528   -8724.9174    -12185.77   -15297.644    1308.6614   -10411.602   -3960.1453    -5291.087    81.896498 
   28300    898.30033    -108.4042   0.81280101    -107.5914   -10610.558    4.3440629    4.3440629    4.3440629   -10610.558   -36585.304    8664.6509   -3911.0212    6863.6616   -8554.0961   -7204.3924    81.976299 
   28400    716.16698   -108.24011   0.64800293   -107.59211    19883.386    4.3352069    4.3352069    4.3352069    19883.386    30571.639    13672.971    15405.547    10475.816    6111.9448    1835.2811     81.47596 
   28500    941.16533   -108.44876   0.85158617   -107.59717   -11172.115    4.3395207    4.3395207    4.3395207   -11172.115    -10152.49    -11998.11   -11365.746   -9220.8507   -5495.0432   -155.70326    81.719421 
   28600    677.25145   -108.20797   0.61279134   -107.59518   -9538.5021    4.3501127    4.3501127    4.3501127   -9538.5021   -9239.3667   -7706.7806   -11669.359    16329.633   -3326.2249    5784.6698    82.319273 
   28700    1035.4317   -108.52198   0.93688041    -107.5851   -31.694465     4.331865     4.331865     4.331865   -31.694465   -4982.3432   -7477.1476    12364.407    3797.8961   -271.59548    7539.3747    81.287681 
   28800    619.82999   -108.15406    0.5608352   -107.59323    8141.7988    4.3356101    4.3356101    4.3356101    8141.7988    14759.012   -2872.8178    12539.202     -1237.84   -676.52288   -5602.5968    81.498696 
   28900    568.59623   -108.11034   0.51447782   -107.59586   -7480.9948    4.3525658    4.3525658    4.3525658   -7480.9948   -31147.593   -13823.846    22528.454    27103.323    3222.3825    6827.2426    82.458616 
   29000    1230.0698   -108.69702     1.112993   -107.58403    6624.6697    4.3296782    4.3296782    4.3296782    6624.6697    16318.237     1092.626    2463.1462   -5355.8641   -2452.6659   -7286.9731     81.16464 
   29100    500.99508   -108.05219   0.45331087   -107.59888    3404.5077    4.3361389    4.3361389    4.3361389    3404.5077   -20962.992     30069.88    1106.6352    15098.052   -10939.239    7324.1153    81.528519 
   29200    788.33892    -108.3124   0.71330563   -107.59909   -3906.7803    4.3464196    4.3464196    4.3464196   -3906.7803   -13561.501   -11245.608    13086.769     11463.35     2245.916   -3676.5478     82.10979 
   29300    1046.8448   -108.53661   0.94720717    -107.5894   -1097.5192    4.3460681    4.3460681    4.3460681   -1097.5192     9941.191    5313.8147   -18547.563   -169.49043   -659.62426    612.61973    82.089874 
   29400    573.14052   -108.11179   0.51858959    -107.5932    14010.305    4.3247092    4.3247092    4.3247092    14010.305   -16294.897    7866.2149    50459.598    15222.494    -48.89636    4355.4814     80.88551 
   29500    857.95268    -108.3756   0.77629361   -107.59931   -7226.7206    4.3478916    4.3478916    4.3478916   -7226.7206   -3010.5481   -4351.2351   -14318.378    5214.6582    3814.7409   -1552.6311    82.193246 
   29600      967.045   -108.46643   0.87500264   -107.59143   -8553.8375    4.3474224    4.3474224    4.3474224   -8553.8375   -16870.678   -7605.9691   -1184.8654    2196.0559   -668.43759   -956.06524    82.166638 
   29700    699.90133   -108.22104   0.63328543   -107.58775    13371.897    4.3150614    4.3150614    4.3150614    13371.897    16538.602    635.44584    22941.643    26060.893   -5952.9605   -1892.4193    80.345385 
   29800    705.56649   -108.24106   0.63841139   -107.60265   -5388.4505    4.3500954    4.3500954    4.3500954   -5388.4505   -15032.273    3722.2616   -4855.3405   -5167.4284    14490.995    6266.8885    82.318288 
   29900    936.55769   -108.43641   0.84741708     -107.589   -9977.7296    4.3485051    4.3485051    4.3485051   -9977.7296   -11070.125   -17751.663   -1111.4009    12292.614    4008.1093    -1066.229    82.228043 
   30000    563.58329   -108.09611     0.509942   -107.58617    13396.451    4.3300927    4.3300927    4.3300927    13396.451   -20632.113    19059.327     41762.14    16678.552    -1229.199   -3801.6352     81.18795 
   30100    965.26074   -108.46287    0.8733882   -107.58948   -2450.3791    4.3400269    4.3400269    4.3400269   -2450.3791    17276.857   -5985.8279   -18642.166   -15141.182    2032.0668   -7589.2025    81.748025 
   30200    777.42091   -108.29555   0.70342678   -107.59212   -2399.9421    4.3459552    4.3459552    4.3459552   -2399.9421   -24179.623   -4585.6594    21565.456    19685.959   -3306.1032    3519.8309    82.083475 
   30300    789.52053   -108.30254   0.71437476   -107.58817   -770.52585    4.3391701    4.3391701    4.3391701   -770.52585    6133.5698    8894.0566   -17339.204   -5853.3113    12494.122    2372.6747    81.699616 
   30400    838.87864   -108.34731   0.75903502   -107.58827    13556.551     4.329652     4.329652     4.329652    13556.551   -10096.892     3195.934     47570.61    2797.5487    278.04616   -11254.268    81.163165 
   30500    777.42027   -108.29824    0.7034262   -107.59482   -1462.3353    4.3455797    4.3455797    4.3455797   -1462.3353   -11972.329   -2186.6334    9771.9559    12392.431   -2956.7193    4310.7559    82.062199 
   30600    772.29441   -108.28693   0.69878821   -107.58814    13245.968    4.3383082    4.3383082    4.3383082    13245.968    3636.4829    6381.6237    29719.798   -7720.9984   -4188.9043   -7284.6173    81.650945 
   30700    820.18556    -108.3336   0.74212113   -107.59148   -4733.1822    4.3331246    4.3331246    4.3331246   -4733.1822   -969.56432   -13043.895   -186.08752    8817.6202    7882.7358   -7670.2903    81.358612 
   30800    719.28515   -108.24593   0.65082432    -107.5951    8524.8642    4.3422836    4.3422836    4.3422836    8524.8642   -4046.7284    3350.1528    26271.168    10041.413   -1225.9266    1224.6866    81.875614 
   30900    1041.7747   -108.53239   0.94261967   -107.58977   -20285.785    4.3507812    4.3507812    4.3507812   -20285.785    -32689.08   -27125.326   -1042.9483   -5602.5534    11818.879    2965.3357     82.35723 
   31000    507.61389   -108.05282   0.45929971   -107.59352    11206.197    4.3292221    4.3292221    4.3292221    11206.197   -4786.6436    6804.8581    31600.377    18636.078   -3016.2099   -8110.4679    81.138991 
   31100    1100.4214   -108.59183   0.99568439   -107.59615    5049.6403    4.3341183    4.3341183    4.3341183    5049.6403    15000.593   -10612.144    10760.472    -1841.324   -9895.3315   -1144.9301    81.414599 
   31200    680.03935   -108.21002    0.6153139   -107.59471   -22507.881     4.356662     4.356662     4.356662   -22507.881    3917.4519   -31789.023   -39652.072   -5934.8362    501.32708   -9200.0232     82.69164 
   31300    574.23306   -108.10466   0.51957814   -107.58509    19271.764    4.3225663    4.3225663    4.3225663    19271.764    36550.801    14784.026    6480.4655    17015.676    2060.8818   -7741.3619    80.765334 
   31400     1146.208   -108.62981    1.0371131   -107.59269   -4569.7122    4.3414902    4.3414902    4.3414902   -4569.7122   -1265.6663   -14707.025    2263.5548   -8452.4604    368.90522    5600.2746    81.830742 
   31500    704.73344   -108.23411   0.63765763   -107.59645   -4568.5954    4.3445961    4.3445961    4.3445961   -4568.5954    34815.635   -18364.918   -30156.503    11838.474    4404.3315   -14691.687    82.006492 
   31600    646.69059   -108.17804   0.58513923    -107.5929    21884.913    4.3255858    4.3255858    4.3255858    21884.913    28584.724     23457.19    13612.825     13636.97    1664.9784    8404.4967    80.934706 
   31700    1020.2628    -108.5107   0.92315521   -107.58755   -4068.8025    4.3496139    4.3496139    4.3496139   -4068.8025    18618.415   -31343.208    518.38571   -8710.3821   -8105.8806    374.83562     82.29096 
   31800    660.05056   -108.19041   0.59722762   -107.59319    4659.3485    4.3334116    4.3334116    4.3334116    4659.3485    4.8147579    14189.042   -215.81109    14625.074    7731.4372   -11071.523    81.374779 
   31900    661.74867   -108.19753   0.59876411   -107.59876    10754.846    4.3351528    4.3351528    4.3351528    10754.846    23243.245   -5300.2271     14321.52    1604.5898    8731.8901    12213.427    81.472909 
   32000    1018.6277   -108.50737   0.92167577    -107.5857   -9758.1781    4.3541236    4.3541236    4.3541236   -9758.1781    19565.907   -27530.973   -21309.468   -1456.0198    533.55487   -7532.7301    82.547181 
   32100    642.13934   -108.16819   0.58102117   -107.58717     10945.74    4.3256716    4.3256716    4.3256716     10945.74    21020.161    12001.086   -184.02677    9199.4015    86.005974   -3162.3594     80.93952 
   32200    894.05727   -108.40567   0.80896181   -107.59671    -3885.386    4.3398372    4.3398372    4.3398372    -3885.386    5212.5318   -22527.116    5658.4257    4497.6478     -7355.23     10469.81    81.737305 
   32300    1083.5014   -108.56577   0.98037484    -107.5854   -19609.497    4.3504653    4.3504653    4.3504653   -19609.497   -14700.967   -16585.517   -27542.008    45.759297   -291.97715   -10660.401    82.339293 
   32400    439.09028    -107.9842   0.39729811    -107.5869    22246.433    4.3211401    4.3211401    4.3211401    22246.433    17435.604    12234.615     37069.08     12543.78    8481.6726    7529.5309    80.685417 
   32500    801.61926   -108.32308   0.72532195   -107.59776    2957.2607    4.3447083    4.3447083    4.3447083    2957.2607    23301.136   -12126.235   -2303.1185   -371.78467    4061.1045    6816.2297    82.012842 
   32600    1015.0809   -108.50721   0.91846652   -107.58875    3646.5812    4.3440228    4.3440228    4.3440228    3646.5812    14695.463   -3707.6365    -48.08304     2997.761    4941.6704   -3191.6614    81.974032 
   32700    627.40055   -108.15613    0.5676852   -107.58844    3137.2358    4.3345532    4.3345532    4.3345532    3137.2358    4920.8565   -16638.799     21129.65    10767.228   -2978.3781    15051.408    81.439111 
   32800    1208.8323    -108.6767    1.0937769   -107.58293   -11669.953    4.3443282    4.3443282    4.3443282   -11669.953   -8644.8769   -9341.6645   -17023.319   -6414.6211    -10538.52    2255.3402    81.991321 
   32900    678.93403   -108.20123   0.61431378   -107.58692    20407.319    4.3361228    4.3361228    4.3361228    20407.319    25187.383     6412.719    29621.854    9547.6667    2495.8022    4434.0793     81.52761 
   33000    601.94751   -108.13871   0.54465476   -107.59406   -3953.4588    4.3426263    4.3426263    4.3426263   -3953.4588    8991.6913   -26141.171    5289.1029    5402.3886    8801.4039    13819.168    81.894997 
   33100    919.40308   -108.41852   0.83189523   -107.58662    21874.377    4.3346949    4.3346949    4.3346949    21874.377    26451.604    24459.565    14711.963   -936.26623   -4271.9031   -9119.5288    81.447094 
   33200    882.12415    -108.3934   0.79816447   -107.59523    1475.3965     4.333935     4.333935     4.333935    1475.3965   -11997.436   -7160.9742      23584.6     13239.97    958.73309    9076.8824     81.40427 
   33300    742.50474   -108.26796   0.67183389   -107.59613   -15805.175    4.3477183    4.3477183    4.3477183   -15805.175   -22980.631    3375.4488   -27810.341    1090.1901    1925.5003    1865.1547    82.183416 
   33400    1018.7733   -108.51055    0.9218075   -107.58874    8657.2175    4.3308647    4.3308647    4.3308647    8657.2175     707.2263   -1338.5565    26602.983   -2344.7494   -7431.1456   -8322.2274    81.231383 
   33500    581.84887   -108.12356   0.52646908   -107.59709    2628.1475    4.3379665    4.3379665    4.3379665    2628.1475    9282.3657   -1210.3908   -187.53231    18224.178    11618.491    15390.932    81.631653 
   33600    690.93117   -108.21807   0.62516904    -107.5929   -8455.1379    4.3485548    4.3485548    4.3485548   -8455.1379    60.811364   -11981.223   -13445.002   -9125.9207    4205.6746    155.89881    82.230863 
   33700    818.51092   -108.32524   0.74060588   -107.58463    18332.563    4.3290497    4.3290497    4.3290497    18332.563    16440.234    24147.043    14410.413   -3255.9529   -5790.4062    8129.5051    81.129297 
   33800    789.20145    -108.3054   0.71408605   -107.59132   -13394.407     4.340934     4.340934     4.340934   -13394.407   -17011.329   -4044.6675   -19127.224    17300.973    2968.7801    16133.163    81.799295 
   33900    901.26334   -108.40275   0.81548201   -107.58727   -11792.037    4.3452804    4.3452804    4.3452804   -11792.037   -2153.6093   -7119.1509    -26103.35   -6195.2431   -8942.2022   -539.08122    82.045244 
   34000    872.39361   -108.37749   0.78936007   -107.58813    6637.3712    4.3265427    4.3265427    4.3265427    6637.3712   -7497.4526    31560.071   -4150.5047     10961.21   -6106.2769   -1567.8155     80.98843 
   34100    595.45387   -108.14022   0.53877917   -107.60144    938.26337    4.3390628    4.3390628    4.3390628    938.26337    28599.711   -3386.0181   -22398.903    12274.558    5996.7429    12344.756    81.693558 
   34200    925.09066   -108.43135   0.83704147   -107.59431    3400.5812    4.3407833    4.3407833    4.3407833    3400.5812    1404.1039     20703.75    -11906.11   -7555.6862    3059.6039   -4530.4325    81.790773 
   34300    696.88381   -108.22524   0.63055511   -107.59468      6473.16    4.3344509    4.3344509    4.3344509      6473.16    1546.6428    14194.649    3678.1879    11816.212    1352.1676    6270.0762    81.433345 
   34400    857.01237   -108.36865    0.7754428   -107.59321   -11917.174    4.3399745    4.3399745    4.3399745   -11917.174   -16385.528   -1866.6366   -17499.359    8154.8296    6739.4189    17413.288    81.745062 
   34500    992.71681    -108.4864   0.89823103   -107.58816     2915.956    4.3343816    4.3343816    4.3343816     2915.956   -6169.7319    2702.1787    12215.421   -1028.4778   -6769.0054   -11487.657    81.429437 
   34600    525.41027   -108.07229   0.47540225   -107.59689   -13098.663    4.3411046    4.3411046    4.3411046   -13098.663   -4649.5122   -5134.9888   -29511.487     17181.75    78.312775    11166.549    81.808939 
   34700    833.42825   -108.35044    0.7541034   -107.59634    5209.8486    4.3355138    4.3355138    4.3355138    5209.8486     13969.92    15114.181   -13454.556   -2823.7596    3324.8119    5753.6016    81.493263 
   34800     886.1442   -108.39546   0.80180189   -107.59366    6993.7894    4.3383726    4.3383726    4.3383726    6993.7894    19654.093     7645.126   -6317.8512   -1796.3225    -5683.763   -14671.534    81.654579 
   34900    644.45623   -108.17885   0.58311754   -107.59573    -4990.307    4.3355005    4.3355005    4.3355005    -4990.307   -9745.3469    13148.532   -18374.107    14742.263    7638.8044    12054.492    81.492513 
   35000    957.30759    -108.4617   0.86619203    -107.5955   -9767.1371    4.3397471    4.3397471    4.3397471   -9767.1371    -9240.148   -6930.6183   -13130.645    4739.2656    2725.0048     6436.234    81.732216 
   35100    943.64579    -108.4495   0.85383054   -107.59567     5253.616    4.3353253    4.3353253    4.3353253     5253.616   -14862.872    39347.818   -8724.0979    6092.1496   -6121.9667   -3159.9635    81.482638 
   35200    545.07944   -108.09686   0.49319933   -107.60366   -17678.403    4.3431236    4.3431236    4.3431236   -17678.403    -1539.444   -22998.443   -28497.323    14357.787    143.41016    15363.597    81.923135 
   35300    827.69878   -108.34144   0.74891925   -107.59252      9650.25    4.3346517    4.3346517    4.3346517      9650.25    35502.424     4242.573   -10794.247   -3548.1141   -6410.4303    6276.3157    81.444664 
   35400    769.22629   -108.28884   0.69601211   -107.59283    7505.8211    4.3377641    4.3377641    4.3377641    7505.8211    31157.964    3251.4677   -11891.969    1105.2995    2102.6537   -2070.1743    81.620226 
   35500     767.3576   -108.28435   0.69432129   -107.59003   -29100.321    4.3510921    4.3510921    4.3510921   -29100.321   -6074.5158   -42677.275   -38549.173    14077.728    906.02866    9884.6495    82.374887 
   35600    865.79343   -108.36893   0.78338809   -107.58554     5827.298    4.3300591    4.3300591    4.3300591     5827.298     -8751.91    17578.705    8655.0987   -16585.126   -341.16824   -4513.2211    81.186063 
   35700    902.41789   -108.40788   0.81652667   -107.59136   -3079.8061    4.3311623    4.3311623    4.3311623   -3079.8061    29144.741   -20425.833   -17958.326    12028.974     -1294.26   -1338.8749    81.248133 
   35800    580.45176   -108.12295   0.52520496   -107.59774   -9726.9345    4.3514531    4.3514531    4.3514531   -9726.9345    11533.839    -12350.79   -28363.853    1669.2163    6873.7615    6762.9261    82.395389 
   35900    866.61645   -108.37437   0.78413278   -107.59024     15501.24    4.3245651    4.3245651    4.3245651     15501.24    20289.167    14524.493     11690.06   -15362.561   -4030.1119   -11167.837    80.877425 
   36000     963.0864    -108.4692   0.87142081   -107.59778   -14891.318    4.3407535    4.3407535    4.3407535   -14891.318   -16005.622   -13393.083   -15275.249    8772.0721    973.06686     15169.72    81.789089 
   36100    729.99018   -108.25068   0.66051045   -107.59017   -22074.473    4.3507482    4.3507482    4.3507482   -22074.473   -38093.994   -20144.021   -7985.4025    8630.1731    13821.673   -476.07618    82.355358 
   36200    820.31854   -108.32053   0.74224145   -107.57829     18449.93    4.3219451    4.3219451    4.3219451     18449.93    22079.188    4365.9887    28904.613   -8399.8081   -3266.9957    1517.2824    80.730516 
   36300    895.36544   -108.39525   0.81014547   -107.58511   -15487.829    4.3510186    4.3510186    4.3510186   -15487.829    6018.5701   -29315.661   -23166.394    6160.5632     2750.254    16718.007    82.370713 
   36400    659.26179   -108.18242   0.59651392   -107.58591    5789.0678    4.3374316    4.3374316    4.3374316    5789.0678    533.51265   -3909.8316    20743.522   -7744.9531   -94.098147   -6785.3048     81.60146 
   36500    677.60905   -108.20046   0.61311491   -107.58734    16640.713    4.3294078    4.3294078    4.3294078    16640.713   -719.60713    34928.444    15713.302   -17780.979   -5715.3835   -437.05448    81.149432 
   36600    835.85587   -108.33966   0.75629996   -107.58336   -903.15515    4.3484641    4.3484641    4.3484641   -903.15515   -19347.329    2983.4061    13654.458    848.80616   -5343.7584   -7713.4118    82.225718 
   36700    495.89406   -108.03958   0.44869536   -107.59089    12364.167    4.3314919    4.3314919    4.3314919    12364.167   -19350.914     25862.26    30581.154   -14494.261    4372.3645    -6763.802    81.266679 
   36800    942.82253   -108.44484   0.85308564   -107.59175   -15131.618    4.3386861    4.3386861    4.3386861   -15131.618   -26783.854   -21624.616    3013.6163   -3096.0813   -7675.3493   -347.09098    81.672285 
   36900    1154.7889   -108.63442    1.0448772   -107.58954    6212.2727    4.3324278    4.3324278    4.3324278    6212.2727   -13191.148   -2010.6733    33838.639    4055.6485    5210.7679    7317.6729    81.319367 
   37000    414.71622   -107.98227   0.37524395   -107.60702   -12096.409    4.3378617    4.3378617    4.3378617   -12096.409   -43516.172   -13246.419    20473.363   -11942.651   -1579.6648   -11766.241    81.625738 
   37100    898.01154   -108.41961   0.81253971   -107.60707    1960.1676    4.3350364    4.3350364    4.3350364    1960.1676   -28101.008    -7005.729    40987.239    51.613527   -8360.8835    1089.8085    81.466345 
   37200    1085.9531   -108.58858   0.98259319   -107.60598   -1325.2956    4.3324804    4.3324804    4.3324804   -1325.2956   -11926.776    1733.6722    6217.2166    368.80293    6030.6517    578.08626    81.322329 
   37300     308.8721   -107.89081   0.27947397   -107.61133    12278.688    4.3334022    4.3334022    4.3334022    12278.688   -16558.956    2157.4842    51237.534   -16413.168   -5609.6688   -9631.9524    81.374249 
   37400     1056.444   -108.55288   0.95589271   -107.59699   -11824.827    4.3421515    4.3421515    4.3421515   -11824.827   -21041.901    -10594.64   -3837.9407    4934.0373   -5036.6134     4228.987     81.86814 
   37500    852.94177   -108.36425   0.77175964   -107.59249    10974.998    4.3295312    4.3295312    4.3295312    10974.998   -4186.3032   -3795.4498    40906.748   -2184.7975   -999.58368   -1177.8472    81.156373 
   37600    573.72425   -108.12222   0.51911776   -107.60311   -2852.2882    4.3318014    4.3318014    4.3318014   -2852.2882   -20988.749   -11741.637    24173.521   -7269.0967   -11071.275   -6922.4936    81.284105 
   37700    765.90809   -108.29338   0.69300974   -107.60037   -4824.1526    4.3440265    4.3440265    4.3440265   -4824.1526   -33746.726   -5098.6542    24372.922    22200.454   -1629.2755    13061.789    81.974238 
   37800     1049.892   -108.54394   0.94996432   -107.59398   -687.63623    4.3331617    4.3331617    4.3331617   -687.63623   -9622.4967    8113.6759   -554.08779   -3376.2935    4462.9953   -9460.9798      81.3607 
   37900    626.80249    -108.1654   0.56714407   -107.59826   -6287.2744    4.3370684    4.3370684    4.3370684   -6287.2744   -36043.913    16753.296    428.79381    5247.7627   -1056.4887   -9112.7931    81.580959 
   38000    948.49634   -108.44841   0.85821942   -107.59019    -8430.971     4.344212     4.344212     4.344212    -8430.971   -41072.869   -1758.9339     17538.89    9893.4897    6785.5893   -11451.356    81.984741 
   38100     1002.027   -108.49143   0.90665506   -107.58478    1768.9751    4.3351122    4.3351122    4.3351122    1768.9751   -19462.265   -10213.167    34982.357   -10903.554   -3548.4682   -4164.6208    81.470623 
   38200    573.18457    -108.1132   0.51862945   -107.59457    2484.0982    4.3318271    4.3318271    4.3318271    2484.0982   -33361.548   -1709.4432    42523.286    10286.363   -10051.138   -789.82116    81.285551 
   38300    1067.8444   -108.55933   0.96620805   -107.59313   -14314.534    4.3450586    4.3450586    4.3450586   -14314.534   -25541.841   -12736.232   -4665.5294    4982.7337   -2469.9706    10029.822    82.032683 
   38400     1070.078   -108.55642   0.96822903   -107.58819   -5538.0193     4.338624     4.338624     4.338624   -5538.0193   -14925.747   -9328.2123     7639.902   -2570.9954   -2666.7962   -933.68625    81.668774 
   38500    273.19901   -107.84516    0.2471962   -107.59796    5255.9067    4.3354795    4.3354795    4.3354795    5255.9067   -37067.337    11472.809    41362.249    22679.484    5291.0641   -7467.8312    81.491334 
   38600    791.79522   -108.31079   0.71643295   -107.59436    8095.7554    4.3355595    4.3355595    4.3355595    8095.7554   -15418.738   -1958.5489    41664.553   -998.69985    9114.0075     1350.548     81.49584 
   38700    963.00422   -108.46763   0.87134646   -107.59628    1897.9199    4.3384078    4.3384078    4.3384078    1897.9199   -17011.558    17185.381     5519.936    7924.0553    1438.7955   -8905.7796    81.656568 
   38800    607.17192   -108.15031   0.54938191   -107.60093    -22936.77    4.3420035    4.3420035    4.3420035    -22936.77   -40166.691   -20909.581   -7734.0388    22693.123   -2882.6508   -557.82625    81.859768 
   38900     908.2626   -108.41358   0.82181509   -107.59176    21436.519    4.3199388    4.3199388    4.3199388    21436.519   -8401.1996    11174.755    61536.002   -9046.6396    6216.5828    7126.6821    80.618142 
   39000    834.41313   -108.35426   0.75499453   -107.59927   -1862.9241    4.3406604    4.3406604    4.3406604   -1862.9241   -34343.675   -7046.5065    35801.409    13535.331   -3266.8778   -14406.542     81.78383 
   39100    609.76237   -108.14665   0.55172581   -107.59492   -9334.3365    4.3459683    4.3459683    4.3459683   -9334.3365   -41987.662   -15827.235    29811.887    6129.6827    6008.7307    597.71022    82.084216 
   39200    993.21961   -108.48425   0.89868597   -107.58556    13539.163    4.3229525    4.3229525    4.3229525    13539.163   -6129.6763     11512.49    35234.675   -9160.2212      2615.85   -1731.8719    80.786982 
   39300    758.94709   -108.28089   0.68671128   -107.59418    22730.849    4.3321232    4.3321232    4.3321232    22730.849    4868.2204    12312.964    51011.361    17881.862   -2676.4828    -7261.172    81.302219 
   39400    788.68061   -108.30714   0.71361479   -107.59353   -20670.676    4.3493086    4.3493086    4.3493086   -20670.676   -27367.279   -22724.751   -11919.998   -5143.2884    1364.5926    6308.2934    82.273634 
   39500     617.5826   -108.14958   0.55880171   -107.59077    19826.004     4.324996     4.324996     4.324996    19826.004   -9001.3069    13317.841    55161.477   -6869.8281    1216.6088   -9455.1735    80.901605 
   39600    1047.4632   -108.54019   0.94776674   -107.59243    772.53182    4.3321618    4.3321618    4.3321618    772.53182   -11784.672    7359.2129    6743.0543    8607.6993    -639.9557    3192.3839    81.304392 
   39700    669.48811   -108.19673   0.60576691   -107.59096   -23061.351    4.3492469    4.3492469    4.3492469   -23061.351   -51337.348   -27537.254    9690.5494   -20122.313   -1836.3936    3680.7647    82.270128 
   39800    890.47354   -108.39167   0.80571917   -107.58595      14414.6     4.322925     4.322925     4.322925      14414.6   -6779.7044    46047.505    3976.0008    -819.4774   -305.25853   -5197.6045    80.785444 
   39900    971.68123   -108.47103    0.8791976   -107.59183    7243.0547    4.3330447    4.3330447    4.3330447    7243.0547   -5021.0811   -7850.9548      34601.2    3834.9814     6550.124   -5795.2708    81.354111 
   40000    449.45126   -108.00464   0.40667295   -107.59796   -9786.5195    4.3431464    4.3431464    4.3431464   -9786.5195   -42443.392    16191.609   -3107.7752   -10497.106    9670.2239   -4365.2751    81.924425 
   40100    784.03958   -108.30063   0.70941549   -107.59121    14315.988    4.3327819    4.3327819    4.3327819    14315.988    807.98611    13134.461    29005.517    3459.3472    -3484.586   -2880.4567    81.339307 
   40200    1147.3349   -108.62804    1.0381327   -107.58991   -5813.8733    4.3299012    4.3299012    4.3299012   -5813.8733   -13310.687   -2052.8038   -2078.1294    2092.8192    5178.9667   -4439.5958     81.17718 
   40300    461.86374   -108.02233   0.41790402   -107.60443    5455.9131    4.3323488    4.3323488    4.3323488    5455.9131   -33305.002    14654.259    35018.482   -8685.1245   -1277.2874    7890.8425    81.314921 
   40400    1115.3396   -108.60688    1.0091827    -107.5977   -7342.0739    4.3430532    4.3430532    4.3430532   -7342.0739   -30013.572   -4743.0947    12730.445    1438.8517   -2617.9034   -7249.1022    81.919155 
   40500    823.14346   -108.34104   0.74479751   -107.59624    7016.2221     4.331463     4.331463     4.331463    7016.2221    -20866.55   -5335.5489    47250.765   -3687.1216    10804.061    183.83866    81.265054 
   40600     626.0675   -108.16335   0.56647903   -107.59687    6573.8863    4.3275277    4.3275277    4.3275277    6573.8863   -21443.818    27665.219    13500.258   -8261.9073   -3199.8977    731.76377    81.043758 
   40700    836.80662   -108.35175   0.75716021   -107.59459    2893.1492     4.346009     4.346009     4.346009    2893.1492   -16922.926   -20392.192    45994.567    9504.3529   -10920.453    1366.5823    82.086524 
   40800    892.94933   -108.40484   0.80795932   -107.59688   -1506.3264    4.3295609    4.3295609    4.3295609   -1506.3264   -13236.539    8319.0315    398.52869   -2106.2554    2512.0072    3976.9875    81.158041 
   40900    612.28169   -108.15594   0.55400534   -107.60194     6648.288    4.3242059    4.3242059    4.3242059     6648.288   -12234.773    9031.2907    23148.346   -4370.9869   -1089.3644   -2531.0893    80.857274 
   41000    925.80539   -108.43217   0.83768817   -107.59448   -20573.995    4.3499997    4.3499997    4.3499997   -20573.995   -48448.892   -24272.381    10999.287    16372.421      3571.64   -4858.8615    82.312856 
   41100    685.98166   -108.21393   0.62069062   -107.59324    10730.431    4.3265655    4.3265655    4.3265655    10730.431   -6462.4453    8900.3462    29753.393   -8888.7569    1653.1797   -833.04716    80.989712 
   41200    816.88374   -108.33469   0.73913358   -107.59555   -12524.238    4.3281065    4.3281065    4.3281065   -12524.238   -31337.899      8870.73   -15105.543    8823.3066   -6419.0724    3156.6087    81.076279 
   41300    903.96467   -108.41058   0.81792623   -107.59266   -8648.8787    4.3445889    4.3445889    4.3445889   -8648.8787     -22991.1   -18585.451    15629.916     18420.88   -1806.2369   -10945.841    82.006081 
   41400    925.02712   -108.42759   0.83698398   -107.59061    6980.0546    4.3246987    4.3246987    4.3246987    6980.0546   -12079.403     23003.82    10015.747   -7205.2079    1497.1379    9248.2388    80.884921 
   41500    363.86937   -107.92993   0.32923666    -107.6007    1250.9033    4.3362975    4.3362975    4.3362975    1250.9033   -35562.415   -8939.3776    48254.502    18269.902    -3856.316   -885.69791    81.537465 
   41600    1110.3928   -108.59372    1.0047068   -107.58901   -9234.7441    4.3388809    4.3388809    4.3388809   -9234.7441   -23121.355   -12555.134    7972.2559    9300.2703    1079.3298    6122.1669    81.683286 
   41700    755.10914   -108.27599   0.68323862   -107.59275      10985.8     4.330942     4.330942     4.330942      10985.8   -6105.8834    25239.746    13823.537   -2808.5265   -392.23254    4934.1922    81.235733 
   41800    738.66856   -108.26516   0.66836283    -107.5968   -25822.312    4.3391875    4.3391875    4.3391875   -25822.312   -50975.453   -25975.825   -515.65737    22863.568   -11177.391   -1142.0487    81.700601 
   41900    982.70966   -108.48252   0.88917635   -107.59334    24407.494    4.3288214    4.3288214    4.3288214    24407.494     385.3588    27475.499    45361.625    178.64219    5783.5564     2010.302    81.116462 
   42000    865.28688   -108.38245   0.78292976   -107.59952   -14739.873    4.3374674    4.3374674    4.3374674   -14739.873     -20534.2   -21731.941   -1953.4778    4954.9312    3200.6575    1656.4757    81.603479 
   42100    383.66285   -107.95109   0.34714621   -107.60395   -2266.1374    4.3319566    4.3319566    4.3319566   -2266.1374   -19092.777     9958.259     2336.106     17571.78   -8138.2555    6225.1589    81.292837 
   42200    1124.5936    -108.6105     1.017556   -107.59294    7492.5996    4.3326899    4.3326899    4.3326899    7492.5996    18850.947     4574.543    -947.6913   -6909.0242   -3276.9418   -4620.5174    81.334128 
   42300     807.6171    -108.3242   0.73074893   -107.59345   -24251.233     4.345495     4.345495     4.345495   -24251.233   -37366.092   -15286.951   -20100.657    12168.076    -10137.35    7658.9695    82.057403 
   42400    606.22387   -108.13947    0.5485241   -107.59095    18665.838    4.3216602    4.3216602    4.3216602    18665.838    7224.5845    28662.997    20109.933     11698.12    -7342.764   -2185.5632    80.714553 
   42500     1087.711   -108.57477   0.98418376   -107.59058   -7498.0469    4.3361521    4.3361521    4.3361521   -7498.0469     -12103.1   -14166.505    3775.4644   -10007.456     6719.115    737.54562    81.529263 
   42600    568.23596   -108.10905   0.51415184   -107.59489   -2966.0658    4.3384536    4.3384536    4.3384536   -2966.0658   -5713.2341    2711.0126    -5895.976    13977.416    -1502.817    13772.798    81.659152 
   42700    788.59519   -108.30414    0.7135375   -107.59061    3492.8941    4.3284847    4.3284847    4.3284847    3492.8941    2207.5885    19904.354    -11633.26   -3297.3816    -4824.079   -4395.1078    81.097539 
   42800    962.99795   -108.45984   0.87134078    -107.5885   -11278.414    4.3401371    4.3401371    4.3401371   -11278.414   -2995.7248   -13820.138   -17019.379   -9877.7278      3575.27    835.97335    81.754253 
   42900    837.44619   -108.34759   0.75773891   -107.58985   -916.72646    4.3319327    4.3319327    4.3319327   -916.72646    9692.2676   -7827.9005   -4614.5465    17887.311   -9538.8363    4531.5032    81.291491 
   43000    761.52083   -108.28457   0.68904005   -107.59553   -5724.5884     4.330345     4.330345     4.330345   -5724.5884   -7567.3407   -1393.5571   -8212.8675   -7388.3818   -2980.7284   -7844.4818    81.202141 
   43100    678.93217   -108.21079    0.6143121   -107.59647    6466.2876    4.3333459    4.3333459    4.3333459    6466.2876    26063.304   -7370.2894    705.84817   -7863.5621    5494.2145    8901.1073    81.371079 
   43200    780.30115   -108.29772   0.70603288   -107.59168   -8197.4108    4.3438829    4.3438829    4.3438829   -8197.4108    -28621.29     19860.31   -15831.252    235.79171   -9346.7649    7585.5202     81.96611 
   43300    710.04101   -108.23295   0.64246003   -107.59049     8603.206    4.3281503    4.3281503    4.3281503     8603.206    11675.075    9228.7757    4905.7677   -17417.158    2061.9894   -4213.4878    81.078744 
   43400    891.07777    -108.3978    0.8062659   -107.59153    675.76236    4.3321069    4.3321069    4.3321069    675.76236     -6452.75    19505.413   -11025.376    236.61651   -5183.1577    6187.6795    81.301302 
   43500    980.04322   -108.47392    0.8867637   -107.58716    -10714.61    4.3417195    4.3417195    4.3417195    -10714.61   -20573.522   -1655.2628   -9915.0438    2321.6984   -9996.6473   -985.45982    81.843708 
   43600    607.10666   -108.14008   0.54932287   -107.59076    16864.663    4.3245812    4.3245812    4.3245812    16864.663    1565.4687    34899.761    14128.761   -8837.8722    2012.8666   -4439.5165    80.878329 
   43700    757.81599    -108.2827   0.68568784   -107.59702   -5568.0907    4.3372042    4.3372042    4.3372042   -5568.0907   -4861.0961    6083.5292   -17926.705   -5040.0165   -6871.1061    900.81457    81.588624 
   43800    936.51032   -108.43946   0.84737421   -107.59209    17912.859    4.3308735    4.3308735    4.3308735    17912.859    -3607.863    44243.111     13103.33   -893.15262   -1784.2735    243.57508    81.231878 
   43900    820.91356   -108.33932   0.74277984   -107.59654   -9722.7797     4.335106     4.335106     4.335106   -9722.7797    7886.7515   -30037.292   -7017.7989   -16306.459     1636.329   -312.03385     81.47027 
   44000    637.84024   -108.17571   0.57713125   -107.59858   -530.97448    4.3317548    4.3317548    4.3317548   -530.97448   -6550.3818    8723.7873   -3766.3289    11699.058   -3366.2603    4443.3665    81.281477 
   44100    955.75955   -108.46012   0.86479133   -107.59533    11323.509    4.3278914    4.3278914    4.3278914    11323.509   -3393.0614    32159.285    5204.3037   -5835.0555   -5048.8158    2235.5759    81.064195 
   44200     754.5884   -108.27903   0.68276744   -107.59626   -21038.536    4.3434368    4.3434368    4.3434368   -21038.536   -25460.334   -24039.929   -13615.344   -14115.526     86.09645     -4159.08    81.940859 
   44300    763.18687   -108.28287   0.69054752   -107.59232      4913.59    4.3256275    4.3256275    4.3256275      4913.59   -7495.5797     25002.46   -2766.1107    5200.6503    -2113.449    12091.337    80.937044 
   44400    1119.3408   -108.60405    1.0128031   -107.59125   -1776.7497    4.3337701    4.3337701    4.3337701   -1776.7497   -9938.6887    12063.783   -7455.3438   -8931.6971   -3371.3314   -2191.8184    81.394976 
   44500     692.6545   -108.22153   0.62672835    -107.5948   -60.872401    4.3380772    4.3380772    4.3380772   -60.872401   -14347.393    10071.466    4093.3106   -5551.8168    4362.2591   -5757.6986    81.637903 
   44600    593.78278   -108.13627   0.53726714     -107.599    -2196.142    4.3274904    4.3274904    4.3274904    -2196.142   -3566.0475    15064.475   -18086.853    11790.019   -5584.0923    4170.1655     81.04166 
   44700    881.07817   -108.39505   0.79721805   -107.59783    13880.677    4.3308275    4.3308275    4.3308275    13880.677    21169.025    11308.567    9164.4389   -353.19902      3057.63     4291.153    81.229289 
   44800    870.76392   -108.38724    0.7878855   -107.59935   -2469.0409    4.3389924    4.3389924    4.3389924   -2469.0409   -3651.4315    7991.1813   -11746.872   -9424.1208   -2224.1828    4587.1758    81.689581 
   44900    601.60937   -108.14318    0.5443488   -107.59883   -8951.6843    4.3371177    4.3371177    4.3371177   -8951.6843    2725.7062    6584.8309    -36165.59    9524.8176   -8926.2245    12699.584    81.583744 
   45000     1125.195   -108.60648    1.0181001   -107.58838    17135.037    4.3217769    4.3217769    4.3217769    17135.037    10982.727    29520.757    10901.628    18.594057    3746.0702   -776.19617    80.721094 
   45100    883.52474   -108.39669   0.79943175   -107.59726   -20762.421    4.3450056    4.3450056    4.3450056   -20762.421   -9115.4153    -16867.86   -36303.986   -633.97301   -3174.5793     1751.138    82.029681 
   45200    588.28675   -108.13318   0.53229421   -107.60089   -17420.617    4.3331878    4.3331878    4.3331878   -17420.617    6856.4334   -29380.317   -29737.968    16007.349    -3868.734    5781.1535    81.362174 
   45300    871.09458   -108.38385   0.78818469   -107.59567    27850.663    4.3195814    4.3195814    4.3195814    27850.663    25798.723    43088.895    14664.371   -4696.1341    11050.212   -581.30088    80.598136 
   45400     906.8245   -108.41737   0.82051387   -107.59686   -10973.054    4.3469086    4.3469086    4.3469086   -10973.054   -1258.7276    -7131.979   -24528.455   -2404.4775    3547.8696    11361.948    82.137511 
   45500    473.50179    -108.0282   0.42843437   -107.59977      4914.05    4.3299792    4.3299792    4.3299792      4914.05    10817.737   -4667.0603    8591.4729    15064.867    4891.0985    7961.2864    81.181565 
   45600    1043.3802   -108.53922   0.94407236   -107.59515    1815.7362    4.3280351    4.3280351    4.3280351    1815.7362   -5558.5342    13191.554    -2185.811   -111.75225    5741.0943   -6784.6962    81.072267 
   45700    881.00966   -108.39085   0.79715605    -107.5937   -9508.8213    4.3399548    4.3399548    4.3399548   -9508.8213   -304.95811   -20342.343   -7879.1629   -2641.7609   -4970.7681    7347.5404    81.743948 
   45800    537.08337   -108.08369   0.48596432   -107.59772    -7729.617    4.3303072    4.3303072    4.3303072    -7729.617    3293.1827   -6874.8994   -19607.134    16648.175    2288.8901   -6144.4424    81.200017 
   45900    852.06922   -108.36909   0.77097014   -107.59812    889.58408    4.3358049    4.3358049    4.3358049    889.58408     6656.125    11255.423   -15242.796    -8942.715    7961.2025   -3459.7053    81.509681 
   46000    945.66188   -108.45062   0.85565474   -107.59496    7697.1192    4.3335481    4.3335481    4.3335481    7697.1192   -2594.3182    12608.757    13076.918    6004.0295    1533.7455    14848.891    81.382469 
   46100     451.6592   -108.00984   0.40867074   -107.60117   -12578.812    4.3378016    4.3378016    4.3378016   -12578.812   -17157.462   -4433.7958   -16145.177     12230.33    5206.3934   -4180.0726    81.622345 
   46200     856.4007   -108.36599   0.77488935   -107.59111    339.07461     4.331822     4.331822     4.331822    339.07461   -8477.8907     7215.059    2280.0555   -3212.5747    1092.0541   -6108.9791     81.28526 
   46300    1072.5579   -108.56316   0.97047291   -107.59268   -9935.8734    4.3332329    4.3332329    4.3332329   -9935.8734   -13060.911   -10481.643   -6265.0664    7732.6714   -2670.1639   -3410.2571    81.364711 
   46400    443.11152   -108.00587   0.40093662   -107.60494   -7822.9044    4.3336945    4.3336945    4.3336945   -7822.9044    691.08842    5315.1787    -29474.98    2750.6768    8371.9878   -14552.798    81.390719 
   46500    911.29088   -108.42581   0.82455514   -107.60126    7686.5618    4.3283385    4.3283385    4.3283385    7686.5618    10825.278    25472.594   -13238.187   -2820.0749    2504.6722   -930.63866    81.089317 
   46600    906.96688   -108.41928   0.82064269   -107.59864    11265.962    4.3401738    4.3401738    4.3401738    11265.962   -9519.1129    16443.949     26873.05    595.60517    3751.9917    10778.859    81.756328 
   46700    570.67997   -108.11706   0.51636323    -107.6007    4334.0994    4.3333051    4.3333051    4.3333051    4334.0994   -1547.7035    15713.548    -1163.546    2505.8142    9996.2461   -13079.017    81.368777 
   46800    872.41036   -108.38112   0.78937522   -107.59174   -6397.5666    4.3359934    4.3359934    4.3359934   -6397.5666   -5346.2207   -7958.9175   -5887.5615   -1835.9705   -3766.7239   -5720.2377     81.52031 
   46900     1067.302   -108.55155   0.96571731   -107.58584   -7722.6845    4.3392377    4.3392377    4.3392377   -7722.6845   -13390.337    6926.6201   -16704.337    12201.857    1819.9774   -1356.2696    81.703437 
   47000    708.38502   -108.23321   0.64096165   -107.59225    -3889.014    4.3314399    4.3314399    4.3314399    -3889.014    6429.6151   -6579.7726   -11516.884    6434.8235    2007.2487   -12648.897    81.263752 
   47100    792.50924   -108.31224   0.71707901   -107.59517   -466.23786    4.3341247    4.3341247    4.3341247   -466.23786    861.47961    13467.645   -15727.838   -2085.0834    -4023.025    9084.1436    81.414957 
   47200    848.19413   -108.35963   0.76746387   -107.59216    16648.675    4.3367411    4.3367411    4.3367411    16648.675    21697.245    398.18031      27850.6    5060.4085    8116.7705    4833.5836    81.562493 
   47300    730.93081   -108.25997   0.66136156   -107.59861   -10501.423    4.3341793    4.3341793    4.3341793   -10501.423   -7203.7327   -14556.116    -9744.422   -2211.6119    12673.319   -8379.1391    81.418035 
   47400    472.57183   -108.02942   0.42759292   -107.60183    8163.0026    4.3260894    4.3260894    4.3260894    8163.0026    22012.133    4518.2664   -2041.3912    -4557.446   -4242.8467    3187.5281    80.962975 
   47500    1193.1763   -108.67465     1.079611   -107.59504    -15716.29    4.3417895    4.3417895    4.3417895    -15716.29   -13235.672   -18508.692   -15404.505    4864.8625   -2114.5021    950.79314    81.847663 
   47600    869.74986    -108.3816   0.78696795   -107.59463   -14889.677    4.3411523    4.3411523    4.3411523   -14889.677    6868.6814   -15919.455   -35618.257    1370.8426    3772.6622   -5813.6665    81.811632 
   47700    605.45678    -108.1406   0.54783001   -107.59277    10483.749    4.3190655    4.3190655    4.3190655    10483.749    11649.089    11107.679    8694.4778   -86.517549   -10613.373    10059.377    80.569261 
   47800    944.57143   -108.45249   0.85466808   -107.59782   -1915.8676    4.3405326    4.3405326    4.3405326   -1915.8676    16118.621   -24146.112    2279.8881    14548.596    3289.3584   -3452.1751    81.776603 
   47900    608.61136    -108.1511   0.55068435   -107.60041    2614.1966    4.3376794    4.3376794    4.3376794    2614.1966     24448.08   -17509.499    904.00909    -6370.278    11450.895   -3334.5575    81.615444 
   48000    640.30688    -108.1804   0.57936312   -107.60104   -2519.6248    4.3190155    4.3190155    4.3190155   -2519.6248     6446.313    741.75945   -14746.947    13404.569   -18155.772    13009.312     80.56646 
   48100     1021.345   -108.52465   0.92413445   -107.60051   -5309.5041    4.3430369    4.3430369    4.3430369   -5309.5041    15018.095   -13383.667   -17562.941   -6239.5227   -5651.0035   -5891.0844    81.918227 
   48200    1028.1746   -108.52872   0.93031401    -107.5984   -9856.5293    4.3378161    4.3378161    4.3378161   -9856.5293   -3853.7587   -4691.7233   -21024.106   -4723.6172     7740.003     4739.756    81.623163 
   48300    385.67149   -107.95197   0.34896366   -107.60301    7981.8906    4.3203556    4.3203556    4.3203556    7981.8906    12628.767   -3903.3663    15220.271    7280.3896   -11171.543    9580.7646    80.641478 
   48400    1016.7832   -108.52026   0.92000676   -107.60025   -5727.8672    4.3411793    4.3411793    4.3411793   -5727.8672   -13253.881    -8432.007    4502.2862    343.65098   -2249.7715   -5686.0555    81.813159 
   48500    787.40325   -108.30915     0.712459   -107.59669   -2248.0433    4.3400574    4.3400574    4.3400574   -2248.0433    9544.5931   -9271.9969   -7016.7261    6569.8623   -1563.5875     13027.89    81.749745 
   48600    578.95116   -108.12012   0.52384717   -107.59627    -7184.084    4.3272356    4.3272356    4.3272356    -7184.084    -3655.808    9653.3042   -27549.748    3633.3783   -17899.493    5689.0228     81.02735 
   48700     1055.783   -108.54756   0.95529466   -107.59227    3705.9665    4.3347085    4.3347085    4.3347085    3705.9665    11700.731   -3028.1179    2445.2865    11993.309    685.13218   -3617.7123    81.447865 
   48800    755.48929   -108.28054   0.68358259   -107.59695    1805.1944    4.3371474    4.3371474    4.3371474    1805.1944   -179.27395    17057.073   -11462.215    1752.4561   -3811.6846    7130.6359    81.585419 
   48900    588.37488   -108.12956   0.53237396   -107.59719    -15876.54    4.3364321    4.3364321    4.3364321    -15876.54   -27914.698   -16963.331   -2751.5907    4214.2035   -12070.428   -2530.3154    81.545058 
   49000    983.01005   -108.48083   0.88944815   -107.59138    20568.703    4.3227666    4.3227666    4.3227666    20568.703    25660.416     24257.44    11788.253   -987.10018    2538.4062   -9104.8754    80.776561 
   49100    819.62072   -108.34353   0.74161006   -107.60192   -6256.1529    4.3416183    4.3416183    4.3416183   -6256.1529   -13572.555     996.6474   -6192.5512   -278.37295   -5667.4698    7571.2746    81.837984 
   49200    728.92302   -108.25627   0.65954487   -107.59673   -28858.531    4.3429045    4.3429045    4.3429045   -28858.531    -24675.36   -16669.986   -45230.246    4293.3045   -12199.708    -5203.452    81.910736 
   49300    952.12752   -108.44523   0.86150499   -107.58372    33540.848    4.3141231    4.3141231    4.3141231    33540.848     35831.44    36574.256    28216.849   -238.24097    1868.6178   -11930.539    80.292986 
   49400    919.83486   -108.42719   0.83228591    -107.5949   -19462.056    4.3468071    4.3468071    4.3468071   -19462.056   -30761.136   -24408.101   -3216.9325    12461.207   -3118.2753    5623.8516    82.131754 
   49500    463.73306    -108.0214   0.41959542    -107.6018   -1222.9332    4.3343987    4.3343987    4.3343987   -1222.9332   -2460.6167    1858.7568   -3066.9398    5972.4221   -7231.7965    -12722.41    81.430399 
   49600     1011.407   -108.50547   0.91514227   -107.59032    25577.862    4.3133002    4.3133002    4.3133002    25577.862    27702.131    27904.136    21127.318    2338.5968    7386.3186   -3802.9488    80.247045 
   49700    837.47801   -108.35215    0.7577677   -107.59438   -28427.763    4.3505154    4.3505154    4.3505154   -28427.763   -26481.768   -27558.816   -31242.706    6136.3759    -12739.75    5936.0967    82.342135 
   49800    606.16246   -108.14267   0.54846853    -107.5942   -6970.3613    4.3305988    4.3305988    4.3305988   -6970.3613   -3364.0168   -2247.9876   -15299.079    1416.3894   -16100.872   -10535.951     81.21642 
   49900    1033.9888   -108.52551   0.93557477   -107.58994    13679.451     4.318748     4.318748     4.318748    13679.451    7243.8778     1611.715     32182.76   -1844.7165    8185.8898   -2309.6732    80.551491 
   50000    762.49633   -108.28409    0.6899227   -107.59417    -16881.98    4.3456471    4.3456471    4.3456471    -16881.98    -28356.54   -18401.721   -3887.6798     9539.372   -5154.0156   -3492.3778    82.066021 
   50100    685.85348   -108.21661   0.62057464   -107.59603   -14472.641    4.3313985    4.3313985    4.3313985   -14472.641   -12021.917   -3954.7474   -27441.259    -3609.601   -2442.1927   -16913.398    81.261424 
   50200    867.38946   -108.37725   0.78483221   -107.59242    9081.4203    4.3267415    4.3267415    4.3267415    9081.4203    8467.9903    10959.965    7816.3053    8559.3978    8738.7372    3717.8212    80.999594 
   50300    750.49141   -108.27148    0.6790604   -107.59242   -1245.3153    4.3396698    4.3396698    4.3396698   -1245.3153   -14988.179   -7629.5405    18881.773    13593.091   -12298.278   -4333.0056    81.727846 
   50400    635.37865   -108.16984   0.57490396   -107.59493   -1400.8225     4.332131     4.332131     4.332131   -1400.8225    20361.284    -17068.14   -7495.6114   -4618.0412   -8696.0991   -10848.105    81.302658 
   50500    904.79644   -108.41064   0.81867883   -107.59196    7267.3609    4.3300723    4.3300723    4.3300723    7267.3609   -5010.5309    6792.9764    20019.637    17231.855    7166.3605    6958.2865    81.186802 
   50600    842.34725   -108.35526   0.76217349   -107.59309   -8883.1059    4.3362459    4.3362459    4.3362459   -8883.1059   -762.97638   -10016.609   -15869.732   -2671.2866   -1873.9792   -14228.716    81.534556 
   50700    777.21211   -108.29655   0.70323785   -107.59331   -9771.9715    4.3354147    4.3354147    4.3354147   -9771.9715   -15983.872   -10408.833     -2923.21    140.25257    2003.0063   -4930.3428    81.487677 
   50800    804.36825   -108.31887    0.7278093   -107.59106    3170.3851    4.3344863    4.3344863    4.3344863    3170.3851   -3957.6324    382.35986    13086.428    7076.5274     12183.07    6996.2604    81.435339 
   50900    881.67236   -108.38997   0.79775568   -107.59221   -1917.8701    4.3254238    4.3254238    4.3254238   -1917.8701    10653.475   -6336.5722   -10070.513   -9342.3051   -9383.1893   -16593.771    80.925615 
   51000    656.51836   -108.19402   0.59403161   -107.59999   -779.67012    4.3373015    4.3373015    4.3373015   -779.67012    13135.693    597.64091   -16072.344    223.87965    649.63463    1585.4341    81.594114 
   51100    832.37827   -108.34685   0.75315335    -107.5937   -9431.3225      4.33973      4.33973      4.33973   -9431.3225   -11437.146    9762.2574   -26619.079   -8483.7287     21169.92    7050.0225     81.73125 
   51200    847.29739   -108.35545   0.76665248    -107.5888    13412.803    4.3188715    4.3188715    4.3188715    13412.803    24628.188   -3714.9124    19325.132    3397.3437   -7964.8473   -20047.914    80.558401 
   51300    640.03374   -108.17609   0.57911598   -107.59698   -9319.3234    4.3400653    4.3400653    4.3400653   -9319.3234   -14456.742    9918.1413   -23419.369    -2260.078    11690.595    6666.7186    81.750196 
   51400     942.3058   -108.44317   0.85261809   -107.59055   -12391.185    4.3377684    4.3377684    4.3377684   -12391.185   -6270.0753   -13554.058   -17349.421    7428.2853    10514.584   -2648.2401     81.62047 
   51500    986.93266   -108.47929   0.89299741   -107.58629    7320.7874    4.3239624    4.3239624    4.3239624    7320.7874    21488.035    3906.0036   -3431.6763      -2283.7   -9666.6435   -9890.9711    80.843616 
   51600    522.98668   -108.07254   0.47320934   -107.59933   -1322.7105    4.3379079    4.3379079    4.3379079   -1322.7105    7731.0858    2857.3456   -14556.563    89.209252    24756.435    10636.336    81.628343 
   51700    857.59353   -108.37077   0.77596865    -107.5948    8713.5378    4.3341079    4.3341079    4.3341079    8713.5378    15339.118    -4850.213    15651.709   -1143.4124    16245.093    2881.5799    81.414014 
   51800    924.43819   -108.42922    0.8364511   -107.59277    9924.5899    4.3304874    4.3304874    4.3304874    9924.5899    7243.6762     13331.23    9198.8635   -7644.3804    243.33834   -3363.4286    81.210153 
   51900    468.17773   -108.02389   0.42361704   -107.60027   -8195.2877    4.3341626    4.3341626    4.3341626   -8195.2877   -6954.5762    9155.7634    -26787.05   -2762.7668    13031.648    7857.6792    81.417093 
   52000    1102.8643   -108.58922    0.9978948   -107.59133   -3198.9762    4.3332728    4.3332728    4.3332728   -3198.9762    68.394255    -15942.43    6277.1075   -3174.4641    485.00643   -1839.1169    81.366963 
   52100    800.01837   -108.31637   0.72387343    -107.5925    1723.0655    4.3364407    4.3364407    4.3364407    1723.0655   -2746.2563    11015.959   -3100.5064    1995.3497    3010.0728   -4951.5127    81.545546 
   52200    420.83398   -107.97979   0.38077943   -107.59901   -9168.2018    4.3339675    4.3339675    4.3339675   -9168.2018   -17335.815    12067.925   -22236.715    1817.5735    21560.733    11413.747    81.406098 
   52300      1296.84   -108.76334    1.1734081   -107.58993     6515.895    4.3259574    4.3259574    4.3259574     6515.895    33694.269   -10618.187   -3528.3968    6963.6156   -9184.4777    27.175782    80.955565 
   52400     704.8972   -108.23863    0.6378058   -107.60083    3463.1038    4.3356386    4.3356386    4.3356386    3463.1038    15337.819     12188.88   -17137.387   -2691.1268    14420.634    1001.6007    81.500302 
   52500    548.91338   -108.09916   0.49666836   -107.60249   -20215.463    4.3398006    4.3398006    4.3398006   -20215.463   -3758.2654   -23173.578   -33714.546    5845.0551    5093.4219    12672.627    81.735238 
   52600     1111.936   -108.59708    1.0061031   -107.59098    12020.928    4.3238395    4.3238395    4.3238395    12020.928    30423.263   -9602.9144    15242.435    -3147.664   -2867.1782   -5358.9873    80.836723 
   52700    562.61063   -108.10964   0.50906193   -107.60058    12086.747    4.3327271    4.3327271    4.3327271    12086.747     52241.93    5386.3781   -21368.068    -1682.266    30227.676    1331.8966    81.336227 
   52800    675.10013   -108.21513   0.61084478   -107.60429   -26261.716    4.3405267    4.3405267    4.3405267   -26261.716   -14958.777   -20646.783   -43179.589   -32.632494    2689.8051    9585.9754    81.776271 
   52900    1076.5706   -108.56923   0.97410372   -107.59512    9161.6493     4.317973     4.317973     4.317973    9161.6493    31053.217   -3869.1414    300.87235    364.58014   -9377.1056   -10732.542    80.508136 
   53000    848.95972   -108.36826   0.76815659    -107.6001   -14300.049    4.3375011    4.3375011    4.3375011   -14300.049    1184.3485   -6061.8515   -38022.644    1344.4029    20550.217     8757.521    81.605379 
   53100    433.30318   -107.99415   0.39206183   -107.60208   -10695.774    4.3342981    4.3342981    4.3342981   -10695.774    5788.4303    -12309.95   -25565.802   -3990.2029   -4034.5395    1928.4326     81.42473 
   53200    874.28648   -108.38479   0.79107278   -107.59372    17529.125    4.3183566    4.3183566    4.3183566    17529.125     43692.28    1814.1529    7080.9417    1656.7407   -4961.1871   -12006.084    80.529595 
   53300    1047.6802   -108.54218   0.94796309   -107.59421   -14291.235    4.3433577    4.3433577    4.3433577   -14291.235   -16372.586   -8726.3194   -17774.799   -9579.6913    10955.531    9037.1125    81.936383 
   53400    516.56207   -108.06928   0.46739621   -107.60188   -2685.0794    4.3303196    4.3303196    4.3303196   -2685.0794    17501.493   -1322.7722   -24233.959    3686.5705    -16658.96   -7484.1602    81.200716 
   53500    957.70835   -108.46652   0.86655464   -107.59997    2180.3913    4.3255675    4.3255675    4.3255675    2180.3913    21329.301    6662.9394   -21451.066   -10627.982   -5741.5492   -13107.786    80.933678 
   53600    1035.3371   -108.53266   0.93679475   -107.59587    6015.8268    4.3354283    4.3354283    4.3354283    6015.8268    8650.4417    6976.3864    2420.6524    8299.2907    10637.257    7069.1569    81.488445 
   53700    289.11149   -107.86712   0.26159415   -107.60553    2047.6677    4.3307975    4.3307975    4.3307975    2047.6677    23976.647   -2369.7481   -15463.896    2800.4092   -11498.004   -14856.438    81.227603 
   53800    923.08974   -108.43505   0.83523099   -107.59982   -2925.9049    4.3311447    4.3311447    4.3311447   -2925.9049   -9507.9875    6493.7156   -5763.4429    542.09977   -8073.2277   -9299.8641    81.247138 
   53900     1134.349   -108.62163    1.0263828   -107.59524    6473.1126    4.3306442    4.3306442    4.3306442    6473.1126    25684.701    5525.4486   -11790.811    4114.1431    705.84456    1156.7575    81.218977 
   54000    421.54952   -107.99069   0.38142686   -107.60926    -14886.27    4.3333027    4.3333027    4.3333027    -14886.27    6008.8307   -6387.4101   -44280.231    -5466.498   -23494.853   -13925.164    81.368643 
   54100    940.75046   -108.45264   0.85121078   -107.60143    3548.4776    4.3300321    4.3300321    4.3300321    3548.4776    10145.808    12246.694   -11747.069    2229.2267    6235.4171    3973.9131    81.184545 
   54200    1033.1535   -108.53133     0.934819   -107.59651   -877.45784    4.3335225    4.3335225    4.3335225   -877.45784    13418.041   -9340.1541   -6710.2601   -474.63444    -1229.029   -6239.4929    81.381024 
   54300    377.86023   -107.94758   0.34189587   -107.60568   -1450.7518    4.3297169    4.3297169    4.3297169   -1450.7518    7956.5264    15721.482   -28030.264    498.15116   -26251.896   -12788.574    81.166813 
   54400     891.6814   -108.40628   0.80681207   -107.59946    7209.8486    4.3296528    4.3296528    4.3296528    7209.8486    23964.941    10459.796   -12795.191   -9266.9154    8424.5483    4551.3381     81.16321 
   54500    1060.0223   -108.55546   0.95913045   -107.59633   -4726.4898    4.3367624    4.3367624    4.3367624   -4726.4898     12664.69   -4877.0605   -21967.099    2316.3021      1647.49   -10784.584    81.563696 
   54600    658.87946   -108.19421   0.59616799   -107.59804     7234.494    4.3291888    4.3291888    4.3291888     7234.494    13030.438    33658.274    -24985.23    128.63034    -15412.72   -5236.8171    81.137117 
   54700    846.34411   -108.36502   0.76578994   -107.59924   -11600.503    4.3375625    4.3375625    4.3375625   -11600.503     7348.291   -9839.7793   -32310.021    27.936482    15413.094    10059.614    81.608848 
   54800    833.09653   -108.35037   0.75380324   -107.59657    30119.294    4.3192412    4.3192412    4.3192412    30119.294    43828.106    37960.229    8569.5475    5213.2767   -3238.8942   -8398.4526    80.579094 
   54900    730.92257    -108.2689    0.6613541   -107.60755   -22375.214    4.3350305    4.3350305    4.3350305   -22375.214   -23238.401    -9148.868   -34738.372    991.67929   -13055.841    6566.2453    81.466014 
   55000    693.82772   -108.23041   0.62778991   -107.60262   -17727.729    4.3347908    4.3347908    4.3347908   -17727.729   -25480.003   -3238.2355   -24464.947   -5226.6876    27823.399    4287.4421      81.4525 
   55100    1105.0374   -108.59296   0.99986102    -107.5931    19949.425    4.3172626    4.3172626    4.3172626    19949.425    50483.785    9890.9788   -526.48991    -2526.281    -8844.293    790.56709    80.468407 
   55200    498.97067   -108.05525   0.45147914   -107.60377   -25081.322    4.3435511    4.3435511    4.3435511   -25081.322   -12320.224   -15432.723    -47491.02     6292.312    3258.2882    1642.4559    81.947332 
   55300    734.07762    -108.2612   0.66420886   -107.59699   -802.53811    4.3252969    4.3252969    4.3252969   -802.53811    26412.644   -6159.6201   -22660.638   -11088.493    21385.532    7072.0559     80.91849 
   55400    1251.4626   -108.72654    1.1323497   -107.59419    5542.1722    4.3259376    4.3259376    4.3259376    5542.1722    11531.711    12338.226   -7243.4206    8894.7522   -14288.579    -4479.849    80.954457 
   55500    478.47532   -108.04194   0.43293453     -107.609   -10849.919    4.3351308    4.3351308    4.3351308   -10849.919    23986.925   -18931.768   -37604.914   -7045.9462    16715.918    5130.7708    81.471668 
   55600    585.37839   -108.13839   0.52966267   -107.60873    7360.2552    4.3238744    4.3238744    4.3238744    7360.2552    33453.006    1950.1456   -13322.386    4011.2474     21193.99    3843.1683    80.838682 
   55700    1274.6265   -108.75174    1.1533088   -107.59843    3278.3231    4.3304463    4.3304463    4.3304463    3278.3231    21847.766    1044.3224   -13057.119   -1395.9746   -9529.8256   -8907.7421    81.207843 
   55800    478.45064   -108.03953   0.43291219   -107.60662   -6475.9101    4.3348737    4.3348737    4.3348737   -6475.9101    14398.377     1036.258   -34862.365   -1677.4622    21297.828    11204.406    81.457173 
   55900    742.62312   -108.27499   0.67194101   -107.60304    6563.7636    4.3243599    4.3243599    4.3243599    6563.7636     31514.95    20639.786   -32463.446    779.13072    9469.3575   -5256.9487    80.865913 
   56000    1185.5655   -108.67041    1.0727246   -107.59768    874.58179    4.3328816    4.3328816    4.3328816    874.58179     9982.771    7396.4555   -14755.481    5616.8756    390.58461   -231.30523    81.344923 
   56100    507.75658   -108.06761   0.45942883   -107.60818   -7780.2111    4.3294447    4.3294447    4.3294447   -7780.2111   -15461.373    25212.628   -33091.889   -1716.4041    27992.292     9704.046    81.151506 
   56200    788.98062   -108.31959   0.71388624    -107.6057    2621.1545      4.32729      4.32729      4.32729    2621.1545    35688.138   -7155.4249   -20669.249   -6567.5082   -6383.3102   -9178.0891    81.030402 
   56300    885.30213   -108.39976   0.80103997   -107.59872    15139.833     4.333713     4.333713     4.333713    15139.833    21259.163    38272.639   -14112.302    1716.2019     3797.599    1776.6169    81.391757 
   56400    747.58687   -108.27694   0.67643231    -107.6005   -5141.5122    4.3282389    4.3282389    4.3282389   -5141.5122    1301.6752    10478.209   -27204.421   -2706.8154     20192.35    5718.7947    81.083723 
   56500    738.16128   -108.26725   0.66790384   -107.59935   -7878.6064    4.3302498    4.3302498    4.3302498   -7878.6064    8142.2286    891.97685   -32670.025   -878.49566   -9358.7201   -14765.314    81.196788 
   56600    1135.5555   -108.61902    1.0274745   -107.59154   -8721.5601    4.3313966    4.3313966    4.3313966   -8721.5601   -14452.036     4517.355   -16229.999    4479.6686     9665.793    5211.1513    81.261319 
   56700    582.95715    -108.1247   0.52747188   -107.59723   -12993.562    4.3351546    4.3351546    4.3351546   -12993.562    4575.7895   -5336.4104   -38220.064   -5976.8664    14353.384    -8813.255    81.473012 
   56800    638.35773   -108.17461   0.57759949   -107.59701    12274.175    4.3244222    4.3244222    4.3244222    12274.175     23550.71    25587.934    -12316.12   -1718.8385   -18040.897   -15071.217    80.869406 
   56900    1051.9321   -108.54345   0.95181031   -107.59164    7321.2242    4.3336303    4.3336303    4.3336303    7321.2242     10199.68    22086.293     -10322.3   -3246.0673    5677.0351    700.17066    81.387099 
   57000    607.89536   -108.14758   0.55003649   -107.59754    3224.4719    4.3328202    4.3328202    4.3328202    3224.4719    21724.215    10052.367   -22103.167     1998.045   -171.03729   -10411.952    81.341467 
   57100    738.00364   -108.26446    0.6677612    -107.5967   -4592.4258    4.3287467    4.3287467    4.3287467   -4592.4258   -1479.6921    6811.1866   -19108.772   -1572.6537   -17422.741   -1840.3381    81.112266 
   57200    1105.5037   -108.59107    1.0002829   -107.59079   -869.78691    4.3340983    4.3340983    4.3340983   -869.78691   -3001.2944    11050.024    -10658.09    1735.7974    8154.3026    1881.7514    81.413469 
   57300    746.40117   -108.27332   0.67535947   -107.59796   -4842.1655    4.3272692    4.3272692    4.3272692   -4842.1655    10843.032   -4771.7648   -20597.764   -869.92382    -3047.183    -3768.122    81.029234 
   57400    567.75808    -108.1166   0.51371944   -107.60288   -635.25375     4.333682     4.333682     4.333682   -635.25375   -2953.1928    29037.955   -27990.524    817.18567   -16609.019    33.593067    81.390014 
   57500    1106.3235   -108.59218    1.0010247   -107.59116    7783.6558     4.332162     4.332162     4.332162    7783.6558    2446.3397   -6.0739517    20910.702    5750.7001   -1962.0177    2822.8806    81.304402 
   57600    536.84578   -108.08667   0.48574934   -107.60092     6707.705    4.3282728    4.3282728    4.3282728     6707.705    31251.598    17791.917     -28920.4   -4689.9085   -15361.337    -11757.53    81.085624 
   57700    666.77551   -108.20534    0.6033125   -107.60203   -13345.792    4.3336275    4.3336275    4.3336275   -13345.792   -6814.1376   -12044.739   -21178.499    1167.4804   -18034.704    5633.3324    81.386941 
   57800    1125.3275   -108.61306      1.01822   -107.59484    13030.305    4.3266792    4.3266792    4.3266792    13030.305    30750.874    4678.6021      3661.44    2816.7654    6883.1133    -3427.717    80.996098 
   57900    714.34416   -108.24829   0.64635361   -107.60194   -19544.249    4.3358552    4.3358552    4.3358552   -19544.249   -16804.261   -5929.2597   -35899.225   -3669.2314   -23758.587    -3853.176    81.512516 
   58000    507.36331   -108.05933   0.45907298   -107.60026    1056.8297    4.3288228    4.3288228    4.3288228    1056.8297    8829.0122     938.6951   -6597.2183    5364.1318   -7066.8336    4591.0054    81.116544 
   58100    1028.2313   -108.52324   0.93036526   -107.59287    2005.9522    4.3312446    4.3312446    4.3312446    2005.9522   -397.74662   -2610.3856    9025.9889    5217.4545   -1997.0776    441.41676    81.252761 
   58200    601.92125   -108.14397     0.544631   -107.59934   -3858.4647    4.3337524    4.3337524    4.3337524   -3858.4647    10883.274    819.40767   -23278.076   -3325.7671    -24510.34   -2732.0133    81.393983 
   58300    922.03799   -108.43103   0.83427935   -107.59675   -9241.8788    4.3274363    4.3274363    4.3274363   -9241.8788   -3269.8174   -16772.459   -7683.3603    6266.3206    10622.849    1136.7551    81.038621 
   58400    919.04961   -108.42519    0.8315754   -107.59361   -407.43206    4.3335881    4.3335881    4.3335881   -407.43206    1037.9212    4731.5501   -6991.7675    2138.3061   -184.95162    345.89579    81.384724 
   58500      708.691   -108.23699   0.64123851   -107.59575     -7050.72    4.3289498    4.3289498    4.3289498     -7050.72   -6800.5133   -10914.805   -3436.8414    -1585.739   -20973.447   -6841.4353    81.123681 
   58600    630.23188   -108.16812   0.57024705   -107.59787   -1678.4427     4.331096     4.331096     4.331096   -1678.4427    1345.1237    -9155.554    2775.1021    6521.7809    4233.3649    3597.3613    81.244397 
   58700    938.90502   -108.44383   0.84954099   -107.59429    6114.2333    4.3317977    4.3317977    4.3317977    6114.2333    1914.4045    5020.0457     11408.25    2767.1449   -1265.3173   -1207.0882    81.283894 
   58800    875.15462   -108.38742   0.79185829   -107.59556   -4185.7635     4.331164     4.331164     4.331164   -4185.7635    -629.9194   -1829.9932   -10097.378    2079.3218   -17964.997     431.6031    81.248225 
   58900    782.18951   -108.30278   0.70774151   -107.59504     9365.182    4.3269508    4.3269508    4.3269508     9365.182    20428.508   -6115.6021     13782.64     9637.584    19966.352    4513.4593    81.011353 
   59000    782.68149   -108.30179   0.70818666    -107.5936     3877.671    4.3342836    4.3342836    4.3342836     3877.671   -14810.853     20993.34    5450.5263    2670.6967   -15484.432    765.34495    81.423914 
   59100     641.6894   -108.17537   0.58061405   -107.59476   -720.52417    4.3333879    4.3333879    4.3333879   -720.52417    6339.4711   -12304.787    3803.7429    2012.2956     -17224.8   -174.67597    81.373445 
   59200    893.47968   -108.40365   0.80843919   -107.59521    5224.8041    4.3213377    4.3213377    4.3213377    5224.8041   -6122.3645    15110.075    6686.7014    13180.444    18706.005    3082.7457    80.696488 
   59300    891.66491   -108.40722   0.80679715   -107.60042   -6087.9466    4.3353595    4.3353595    4.3353595   -6087.9466   -5348.2182    4300.7988    -17216.42    -7945.018   -11237.734   -1901.7891    81.484566 
   59400    834.26574   -108.35176   0.75486117    -107.5969   -8187.0024    4.3358313    4.3358313    4.3358313   -8187.0024   -9167.2054   -12592.492   -2801.3098     3550.712   -5038.0835   -6496.5725    81.511172 
   59500    701.38189    -108.2286   0.63462507   -107.59398    7811.4111    4.3225847    4.3225847    4.3225847    7811.4111    11653.047    7554.1155    4227.0709    2498.9309    18565.205   -2925.6288    80.766365 
   59600    717.71869   -108.24473   0.64940695   -107.59532    2374.8382    4.3348277    4.3348277    4.3348277    2374.8382   -16507.178    13768.799    9862.8944   -6119.2931   -17714.749   -2510.1802     81.45458 
   59700    934.02708   -108.43664   0.84512733   -107.59151   -14070.669    4.3358641    4.3358641    4.3358641   -14070.669   -12569.835   -13580.461    -16061.71    7144.7898    3915.7355   -9768.8164    81.513018 
   59800    659.82234    -108.1904   0.59702112   -107.59338    18456.596    4.3204186    4.3204186    4.3204186    18456.596   -1888.4477    33952.429    23305.807    2451.8184    15757.738     3280.633    80.645008 
   59900    1020.5913   -108.51722   0.92345248   -107.59377   -11069.449    4.3355764    4.3355764    4.3355764   -11069.449   -17675.378    -3723.179   -11809.791    3055.5823   -23628.621   -3967.0841    81.496795 
   60000    592.53768   -108.13046   0.53614055   -107.59432    7608.6792    4.3351307    4.3351307    4.3351307    7608.6792    9594.1378    4728.6757     8503.224    4521.2111     6297.801   -7555.5121    81.471665 
   60100     899.9705   -108.40405   0.81431222   -107.58973    440.43965    4.3225807    4.3225807    4.3225807    440.43965   -12566.707     17402.97   -3514.9444    8809.1872    9957.8781    6784.2932     80.76614 
   60200    769.96221   -108.28993   0.69667799   -107.59325     5128.409    4.3343431    4.3343431    4.3343431     5128.409   -6270.5923    11273.862    10381.957   -5909.1151   -16959.654    -3996.742    81.427269 
   60300    886.98999    -108.3953   0.80256718   -107.59273   -8515.4103    4.3351367    4.3351367    4.3351367   -8515.4103   -9594.0086   -10475.277   -5476.9455    8136.3661    14142.228   -1880.9931    81.472001 
   60400    694.11298   -108.22161   0.62804801   -107.59356    13772.941    4.3262366    4.3262366    4.3262366    13772.941   -11040.638    35659.009     16700.45    -171.3485    9913.9684    4755.7433    80.971241 
   60500    908.59663   -108.41619   0.82211732   -107.59407    5701.6114    4.3281048    4.3281048    4.3281048    5701.6114    13645.826   -2561.8026    6020.8104   -9062.3431   -17337.619     -5170.36    81.076186 
   60600    677.78435   -108.21276   0.61327352   -107.59948     314.3255    4.3346847    4.3346847    4.3346847     314.3255   -7585.5454    22165.251   -13636.729    3116.6237    14237.112   -7405.6325    81.446523 
   60700    855.80611    -108.3705   0.77435135   -107.59615    325.98327    4.3305242    4.3305242    4.3305242    325.98327   -6561.9018     5800.707    1739.1446   -7200.9127    11602.336    7227.6348    81.212226 
   60800     960.6604    -108.4619   0.86922571   -107.59267    1093.2529    4.3262668    4.3262668    4.3262668    1093.2529    849.14932   -1258.7317    3689.3411    473.02203   -11270.508   -10794.226     80.97294 
   60900    540.31946   -108.08638    0.4888924   -107.59749   -7892.1887    4.3369652    4.3369652    4.3369652   -7892.1887   -13495.924   -1292.8104   -8887.8317    9692.1353    23142.319   -5501.5551    81.575139 
   61000     1002.144   -108.49861   0.90676098   -107.59185   -4849.3125    4.3267722    4.3267722    4.3267722   -4849.3125   -9991.2756   -94.329019   -4462.3328    3241.5069    3044.6274    4680.9241    81.001318 
   61100    694.70428   -108.22667   0.62858303   -107.59809     9524.851    4.3264194    4.3264194    4.3264194     9524.851    25971.578     2492.237    110.73806   -5338.2032   -5820.4739   -15838.682    80.981508 
   61200    801.16935   -108.32472   0.72491486   -107.59981   -16813.237    4.3367848    4.3367848    4.3367848   -16813.237   -10307.039   -12332.788   -27799.883    10730.918    27669.929   -3637.3854     81.56496 
   61300    896.27772   -108.40416   0.81097092   -107.59319   -2761.4458    4.3307302    4.3307302    4.3307302   -2761.4458    6851.5057   -6509.0863   -8626.7566   -4297.7255   -4440.5611    3853.9416    81.223816 
   61400     764.7497    -108.2852    0.6919616   -107.59324    7315.3498    4.3219289    4.3219289    4.3219289    7315.3498    20663.171    4512.5125    -3229.634   -4111.7924    5459.7438   -13745.393    80.729607 
   61500     593.2354   -108.13661   0.53677186   -107.59983   -8029.2523    4.3377032    4.3377032    4.3377032   -8029.2523   -393.86185   -6400.7246    -17293.17    8162.2686    15954.438     2941.064    81.616785 
   61600    993.08265   -108.49147   0.89856206   -107.59291    3574.3105    4.3308677    4.3308677    4.3308677    3574.3105    22946.407   -1812.3403   -10411.135   -7094.8695   -1142.4163    2154.7205    81.231554 
   61700    874.17104   -108.38391   0.79096833   -107.59294    11733.432    4.3223424    4.3223424    4.3223424    11733.432    13759.565    20315.402    1125.3288   -421.53878    3382.2146   -9222.9054    80.752785 
   61800    702.08407   -108.23162   0.63526042   -107.59636   -17233.031    4.3380839    4.3380839    4.3380839   -17233.031   -6763.9211   -9946.4525   -34988.718    7532.4501    24081.658    10999.938    81.638278 
   61900    927.66417   -108.42803   0.83937003   -107.58866    13883.826    4.3272149    4.3272149    4.3272149    13883.826    18308.614    17434.039    5908.8258    5514.0602   -6921.2665   -662.28432    81.026185 
   62000      737.541    -108.2619   0.66734259   -107.59455   -4753.4745    4.3307484    4.3307484    4.3307484   -4753.4745    7998.5329   -728.25983   -21530.697    1303.2187    16188.943   -929.41213     81.22484 
   62100    588.05247   -108.12891   0.53208224   -107.59683   -3147.7454    4.3323712    4.3323712    4.3323712   -3147.7454   -9944.9374    12466.406   -11964.704    13585.717    16491.111    8790.0433    81.316183 
   62200    1166.5973   -108.64432    1.0555618   -107.58876    7358.2961    4.3289395    4.3289395    4.3289395    7358.2961    14233.424    13151.341    -5309.877   -1508.8988   -7491.7222    1417.4142    81.123101 
   62300    679.03597   -108.21342   0.61440602   -107.59901   -9548.3218    4.3325873    4.3325873    4.3325873   -9548.3218       -10781   -103.74468    -17760.22     1937.023     26507.76    -2414.047    81.328351 
   62400    611.56735   -108.15327   0.55335899   -107.59991    12860.713    4.3181492    4.3181492    4.3181492    12860.713    25637.428    13719.482   -774.76973    15616.011   -2116.7833     17948.48    80.517991 
   62500    983.03675   -108.48468   0.88947231   -107.59521    -4250.418     4.344999     4.344999     4.344999    -4250.418    21160.467   -21647.069   -12264.652   -5339.0149    2420.2854   -1792.1373    82.029309 
   62600    830.45308   -108.35626    0.7514114   -107.60485   -4562.5129    4.3223633    4.3223633    4.3223633   -4562.5129    704.48333    2200.2691   -16592.291    6750.7892    21466.437    51.394484    80.753957 
   62700     616.8926   -108.16418   0.55817738     -107.606    20172.392    4.3185703    4.3185703    4.3185703    20172.392    35145.889    16894.039    8477.2489    15819.092   -3551.5142    17321.316    80.541551 
   62800    1191.6081   -108.66339     1.078192    -107.5852    -18810.75    4.3485947    4.3485947    4.3485947    -18810.75   -4991.9569   -20573.094   -30867.198   -11689.049    5742.5363   -7268.0855    82.233126 
   62900    584.90528   -108.12233   0.52923459    -107.5931    19046.893    4.3125525    4.3125525    4.3125525    19046.893    19985.254    23999.997    13155.428    12690.253    19744.248    7926.6198    80.205324 
   63000    681.56418   -108.22011   0.61669359   -107.60341   -11034.621    4.3294214    4.3294214    4.3294214   -11034.621   -5565.7087   -6499.7663   -21038.389     7105.474   -8381.6205    14478.409    81.150197 
   63100    1175.3868   -108.65286    1.0635147   -107.58935   -5042.7384    4.3356204    4.3356204    4.3356204   -5042.7384   -5485.1852   -7747.9298   -1895.1002   -10974.463    8296.2968   -3037.3134    81.499279 
   63200    524.45163   -108.07198   0.47453486   -107.59745   -2596.3203    4.3244008    4.3244008    4.3244008   -2596.3203   -11104.598     26885.26   -23569.623    13835.599    6170.4726    15367.725    80.868209 
   63300    740.85741   -108.26962   0.67034335   -107.59928   -12242.061    4.3299386    4.3299386    4.3299386   -12242.061   -5166.7818   -20741.076   -10818.326    12174.906   -5657.2796    14361.182    81.179282 
   63400    1087.8056   -108.57771   0.98426933   -107.59344    11374.324    4.3272999    4.3272999    4.3272999    11374.324    13061.875    28408.105   -7347.0069   -3781.6766   -235.89726   -1239.6178    81.030958 
   63500    526.26447   -108.08019   0.47617515   -107.60402   -11460.032    4.3328383    4.3328383    4.3328383   -11460.032   -12755.833   -7566.5948   -14057.668    13623.012     9591.696     15902.34    81.342488 
   63600    841.60425   -108.36104   0.76150122   -107.59954    1446.2641     4.325169     4.325169     4.325169    1446.2641    25166.148   -13833.576   -6993.7801    14083.024   -10909.553    8106.1861    80.911311 
   63700    1061.6247   -108.55559   0.96058033   -107.59501    8143.5827    4.3287335    4.3287335    4.3287335    8143.5827   -1248.0389    26391.867   -713.07948   -13178.979    9198.2644    -5207.382    81.111522 
   63800    522.47409   -108.07489   0.47274554   -107.60215   -10317.843    4.3307308    4.3307308    4.3307308   -10317.843    22750.593   -29436.529   -24267.594    18381.023    3099.5304    23691.927     81.22385 
   63900    795.77398   -108.32087   0.72003302   -107.60084    249.69047    4.3277617    4.3277617    4.3277617    249.69047    4824.5129    233.21499   -4308.6565    5285.4401   -887.95409   -6966.0111    81.056905 
   64000    1073.6117   -108.56566   0.97142646   -107.59424    5544.8718    4.3267745    4.3267745    4.3267745    5544.8718    27312.564   -1215.1001    -9462.848    71.503224    4008.8172    1075.3703    81.001448 
   64100    563.40425   -108.11167   0.50978001   -107.60189   -14207.547    4.3317603    4.3317603    4.3317603   -14207.547    8838.1189   -36442.374   -15018.385    17349.539   -1766.8522    23270.501    81.281789 
   64200    852.26079   -108.36725   0.77114348    -107.5961   -8610.7178    4.3302083    4.3302083    4.3302083   -8610.7178   -5289.7176   -10843.017   -9699.4187     11210.36   -7392.6037    -17793.29    81.194453 
   64300    831.92544   -108.34599   0.75274362   -107.59325    10243.113    4.3227243    4.3227243    4.3227243    10243.113    35187.252   -4090.0501   -367.86168   -4393.0745   -5209.0578    18405.669    80.774193 
   64400    643.97384   -108.18327   0.58268106   -107.60059   -22422.888    4.3352229    4.3352229    4.3352229   -22422.888   -17741.228    -36554.15   -12973.287    18480.627   -3331.3112    7206.4472    81.476861 
   64500    779.42765   -108.30186   0.70524252   -107.59661    5412.6311    4.3245058    4.3245058    4.3245058    5412.6311    9371.6676    16301.422   -9435.1967   -1285.9911   -9321.8091    -13730.62    80.874097 
   64600    976.43175   -108.47848   0.88349597   -107.59498   -2722.6933    4.3280861    4.3280861    4.3280861   -2722.6933    17598.872   -20945.124   -4821.8282   -1919.7847    358.24527    16295.276    81.075132 
   64700    759.52836   -108.28371   0.68723722   -107.59648   -9764.5704    4.3334873    4.3334873    4.3334873   -9764.5704   -6101.0844    -8025.167    -15167.46    13763.024    2744.9438    689.97856    81.379047 
   64800    636.78613   -108.17268   0.57617747   -107.59651    17667.391    4.3216847    4.3216847    4.3216847    17667.391    43089.636    18149.059   -8236.5215   -778.25117   -11385.793   -10515.343    80.715929 
   64900    985.91059    -108.4845   0.89207262   -107.59243   -6791.1355    4.3355824    4.3355824    4.3355824   -6791.1355   -785.11441   -12758.577   -6829.7147    7138.2371    6090.6362    9868.1567    81.497132 
   65000    715.06762   -108.24325   0.64700821   -107.59624    8830.9539    4.3238052    4.3238052    4.3238052    8830.9539    10038.578    18421.301   -1967.0167     11698.04   -4995.6105    -8134.461    80.834796 
   65100    724.06753   -108.25646   0.65515152   -107.60131    2178.6327    4.3268681    4.3268681    4.3268681    2178.6327    25862.781   -4021.1274   -15305.755    705.26386      -9245.4    -18263.33    81.006707 
   65200    1084.6853   -108.57504   0.98144606   -107.59359    3502.6485    4.3336514    4.3336514    4.3336514    3502.6485    1894.1504    8345.0299    268.76512    1290.8838    5.1277585    12024.474    81.388289 
   65300    624.05664   -108.16398   0.56465957   -107.59932    2190.9121    4.3266011    4.3266011    4.3266011    2190.9121    31872.655   -3213.3259   -22086.593   -1248.8571   -3020.4845     -21267.4     80.99171 
   65400    603.68952    -108.1475   0.54623096   -107.60127   -12364.792    4.3318235    4.3318235    4.3318235   -12364.792   -22991.443   -510.30215   -13592.632   -2086.6324   -7599.0406    -6518.462    81.285348 
   65500    1187.2337   -108.66692     1.074234   -107.59269    6455.8217    4.3210213    4.3210213    4.3210213    6455.8217    9451.3908    4107.3941    5808.6803   -39.261005    2688.8096    2200.1616    80.678763 
   65600    497.14676   -108.05353   0.44982883    -107.6037    -18584.25    4.3381911    4.3381911    4.3381911    -18584.25   -5919.6906   -27413.446   -22419.614   -1559.9764   -3678.7315    -19371.32    81.644331 
   65700    834.73415    -108.3578     0.755285   -107.60252   -9753.3468    4.3207392    4.3207392    4.3207392   -9753.3468   -8217.5627    3247.0924    -24289.57     1249.218   -15890.688   -1607.9638    80.662959 
   65800    904.25228   -108.42002   0.81818647   -107.60183    15876.679    4.3208888    4.3208888    4.3208888    15876.679     44821.16   -11150.476    13959.353   -10454.436     9229.931   -469.86677    80.671338 
   65900    732.40305   -108.26035   0.66269368   -107.59766   -32599.135    4.3463092    4.3463092    4.3463092   -32599.135   -28036.065   -23197.335   -46564.004    4807.1725    -10169.53   -13491.068    82.103536 
   66000    732.07256   -108.25412   0.66239464   -107.59173    23827.583    4.3096489    4.3096489    4.3096489    23827.583    44610.037    18396.424    8476.2896   -14198.417   -11857.844    4724.7842    80.043424 
   66100    998.01899   -108.50022   0.90302855   -107.59719   -2420.3082      4.32949      4.32949      4.32949   -2420.3082    18137.868   -21807.102   -3591.6907    2058.3152    7516.5347    1112.6234    81.154054 
   66200    793.39202   -108.31219   0.71787778   -107.59431    5186.3729    4.3326925    4.3326925    4.3326925    5186.3729    45408.032   -4849.5189   -24999.395     6334.385       -16353   -10195.103    81.334278 
   66300    634.70951   -108.17078   0.57429851   -107.59648   -4481.2031    4.3249938    4.3249938    4.3249938   -4481.2031    11805.668   -16293.458   -8955.8191   -6952.1011   -6039.9819    11221.438     80.90148 
   66400    904.26353   -108.41212   0.81819665   -107.59393    1474.1851      4.32671      4.32671      4.32671    1474.1851    33319.036   -14180.547   -14715.933   -253.30229    4909.4229    2619.7084    80.997828 
   66500    912.81253   -108.42271   0.82593196   -107.59678    8256.9606    4.3237768    4.3237768    4.3237768    8256.9606    23258.879    12310.403     -10798.4    -5244.329   -17020.098   -5787.3021    80.833205 
   66600    585.28816   -108.12991   0.52958103   -107.60032   -29920.761    4.3400952    4.3400952    4.3400952   -29920.761   -17409.272   -32281.437   -40071.574   -11223.458   -2444.2302    19494.674    81.751883 
   66700    1004.3141   -108.49881   0.90872448   -107.59008    23728.843    4.3112128    4.3112128    4.3112128    23728.843    46152.444    10005.982    15028.104   -4700.6382    5962.1368    2225.6313    80.130599 
   66800    732.17329    -108.2647   0.66248578   -107.60221   -17517.163    4.3316064    4.3316064    4.3316064   -17517.163   -14533.426   -9040.2767   -28977.787    5452.1315   -26797.326    3147.8745    81.273123 
   66900    499.14662   -108.05273   0.45163835   -107.60109    -22209.02    4.3359869    4.3359869    4.3359869    -22209.02    2488.1914   -34337.328   -34777.925   -12002.538    11052.478    20625.268    81.519945 
   67000    1150.6295   -108.62914    1.0411138   -107.58802    20668.078    4.3105125    4.3105125    4.3105125    20668.078    35177.759    22980.229    3846.2444    6511.7925   -7698.3408   -3847.0065    80.091557 
   67100    852.37442   -108.37034   0.77124629   -107.59909   -15816.295    4.3328875    4.3328875    4.3328875   -15816.295   -6556.8026   -13242.712   -27649.371   -5164.0371   -13568.068    8914.8068    81.345256 
   67200    513.72529   -108.06725   0.46482944   -107.60242    1631.8169    4.3320326    4.3320326    4.3320326    1631.8169    48750.901   -16785.727   -27069.723   -13810.856     7491.726    13349.704    81.297115 
   67300    1068.3543   -108.56175    0.9666694   -107.59508    7107.2898    4.3212002    4.3212002    4.3212002    7107.2898    10673.534    7798.6715    2849.6644   -1817.8678    708.68289   -9083.3247    80.688785 
   67400    638.47292    -108.1796   0.57770371    -107.6019    14526.166    4.3237171    4.3237171    4.3237171    14526.166    62646.467     1316.009   -20383.979     715.8517   -9745.7453    13537.721    80.829859 
   67500    663.68946   -108.20382   0.60052017    -107.6033   -10252.768    4.3365891    4.3365891    4.3365891   -10252.768    13363.664   -17847.098    -26274.87   -8921.0633     17064.36    7099.9143    81.553916 
   67600    1104.4376   -108.59419   0.99931832   -107.59487    4745.2582    4.3218208    4.3218208    4.3218208    4745.2582    26371.034   -1485.9971   -10649.262    15632.391   -4384.7626   -14822.182    80.723551 
   67700    724.00602   -108.25376   0.65509586   -107.59866    9077.0397    4.3190481    4.3190481    4.3190481    9077.0397    47159.982   -11487.176   -8441.6874   -4910.6188   -5591.8628    26434.199    80.568288 
   67800    639.18172   -108.18035   0.57834505   -107.60201   -25845.766    4.3381969    4.3381969    4.3381969   -25845.766   -41.871271   -38485.764   -39009.661   -1871.0552    6006.3708   -9326.9609     81.64466 
   67900    884.79235   -108.39339   0.80057872   -107.59281    5053.7003    4.3258306    4.3258306    4.3258306    5053.7003    33257.251   -1491.5157   -16604.634   -1894.5963     3833.781    -8010.607    80.948449 
   68000     808.4622   -108.32627   0.73151359   -107.59476   -2723.7522    4.3227889    4.3227889    4.3227889   -2723.7522    26624.552   -13503.501   -21292.308   -10217.128    -1183.496    28426.841    80.777809 
   68100    737.67243   -108.26856   0.66746152    -107.6011   -15276.763    4.3267639    4.3267639    4.3267639   -15276.763   -13143.063   -9208.0851    -23479.14   -5170.1849    16979.722   -24879.046    81.000852 
   68200    748.17203    -108.2777   0.67696178   -107.60074    8801.2771    4.3314134    4.3314134    4.3314134    8801.2771    53639.933   -8701.7282   -18534.374    547.27785    3872.4113    7525.8973    81.262261 
   68300     976.9942    -108.4815   0.88400489    -107.5975    -5406.481    4.3254948    4.3254948    4.3254948    -5406.481    6188.1073   -9640.2865   -12767.264    3836.9641    7394.5985    12508.842      80.9296 
   68400    518.10276   -108.07273   0.46879027   -107.60394     1334.536    4.3222145    4.3222145    4.3222145     1334.536    26410.755    2933.9058   -25341.053   -2687.6075    8809.0136   -26900.654    80.745615 
   68500    947.17884   -108.45591   0.85702732   -107.59888   -9407.9714    4.3319007    4.3319007    4.3319007   -9407.9714    8074.6429   -16944.627    -19353.93    8777.5444    3525.8441    9740.0247    81.289694 
   68600     1010.098   -108.51018    0.9139579   -107.59622    3821.6649    4.3197854    4.3197854    4.3197854    3821.6649    17005.014   -3323.0575    -2216.962   -1413.8001   -8036.9423    -1856.371    80.609556 
   68700    458.89205    -108.0197   0.41521517   -107.60448   -7969.9804     4.331263     4.331263     4.331263   -7969.9804    15045.362    -12215.45   -26739.853   -4794.5305    13115.607   -22930.787    81.253799 
   68800    1086.6963   -108.57918   0.98326564   -107.59591   -2506.4523     4.326024     4.326024     4.326024   -2506.4523   -3193.8643   -7287.1367     2961.644   -6622.8523   -7146.6971    11635.837    80.959304 
   68900    717.47115   -108.24926   0.64918297   -107.60008    9438.9774    4.3219274    4.3219274    4.3219274    9438.9774    41358.847   -1856.4727   -11185.442    8300.8029     6795.394   -11769.748    80.729525 
   69000    611.51563   -108.15757    0.5533122   -107.60425    2123.6243    4.3282696    4.3282696    4.3282696    2123.6243    10789.454   -2275.0513   -2143.5294   -15788.157    9133.4537   -16606.415    81.085446 
   69100    1027.5725   -108.52566   0.92976917   -107.59589    796.83694    4.3302298    4.3302298    4.3302298    796.83694    10603.522   -4710.1377   -3502.8737    9203.4129   -337.29766    10751.056    81.195664 
   69200    719.19033   -108.24908   0.65073853   -107.59834     15626.14    4.3179851    4.3179851    4.3179851     15626.14    39505.986   -1674.0625    9046.4968    8779.0057       3038.6   -21475.347     80.50881 
   69300    868.30595   -108.38542   0.78566147   -107.59976   -7170.7666     4.326973     4.326973     4.326973   -7170.7666   -2919.2464   -13716.562   -4876.4919   -9337.5646    7841.7331   -3367.3483    81.012599 
   69400    765.81477   -108.28958   0.69292529   -107.59665   -1734.5612    4.3317441    4.3317441    4.3317441   -1734.5612    7441.0337    -8139.209   -4505.5081    7547.0894   -2085.2179    1764.8423    81.280879 
   69500    794.51792   -108.31614   0.71889651   -107.59724    4127.5635    4.3196556    4.3196556    4.3196556    4127.5635    13937.079   -12776.985    11222.596    11712.606   -2371.9335   -18602.565    80.602286 
   69600     784.6632   -108.30982   0.70997975   -107.59984   -6032.8457     4.329088     4.329088     4.329088   -6032.8457   -6044.8174   -2940.7135   -9113.0062   -18525.335    11742.795   -678.24163     81.13145 
   69700     723.0718   -108.25456   0.65425056   -107.60031    9705.3788    4.3241023    4.3241023    4.3241023    9705.3788    26854.716   -16252.387    18513.807    11403.531   -9954.4876   -6141.5816    80.851461 
   69800     961.0247   -108.47016   0.86955535   -107.60061   -15689.181    4.3306257    4.3306257    4.3306257   -15689.181    1887.2018    -33738.95   -15215.795    8977.3361    12623.774   -19318.217    81.217933 
   69900    782.68804   -108.30693   0.70819258   -107.59873    22478.142    4.3158749    4.3158749    4.3158749    22478.142    44631.316    2370.4673    20432.642   -16643.829    2803.2811    2105.3019    80.390836 
   70000    691.02109    -108.2335   0.62525041   -107.60825    -25643.52    4.3311828    4.3311828    4.3311828    -25643.52   -27552.309   -46572.224   -2806.0282    24877.739    1753.1076   -7084.6003    81.249281 
   70100    724.27109   -108.25678    0.6553357   -107.60145    31.226385    4.3267784    4.3267784    4.3267784    31.226385    24834.249   -25169.219     428.6486      6398.12   -3922.3128   -16111.096    81.001668 
   70200    975.62769   -108.48059   0.88276844   -107.59782    2703.8827    4.3186148    4.3186148    4.3186148    2703.8827    12884.088   -8693.4368    3920.9964   -2919.4366    4184.0632    11023.008    80.544041 
   70300    530.52411    -108.0867   0.48002936   -107.60667   -26820.985    4.3335312    4.3335312    4.3335312   -26820.985   -30307.688    -48653.68    -1501.588    26341.615   -1759.5448   -18342.874    81.381515 
   70400    919.99701   -108.43483   0.83243263    -107.6024    10283.635    4.3210567    4.3210567    4.3210567    10283.635    41351.231    -9962.336   -537.99142      -7429.5   -17397.574   -4946.1034    80.680747 
   70500    938.72719   -108.45042   0.84938009   -107.60104    5105.7632     4.326952     4.326952     4.326952    5105.7632    12052.445   -20324.508    23589.353    5656.4151    2557.7137    943.35776    81.011416 
   70600    517.38766   -108.07267   0.46814323   -107.60452   -6002.5605     4.329975     4.329975     4.329975   -6002.5605    16639.382   -36884.269    2237.2052    21140.938   -4748.4524   -16048.931    81.181333 
   70700    901.50608   -108.41181   0.81570165   -107.59611    10695.603    4.3211467    4.3211467    4.3211467    10695.603    19866.989    976.75689    11243.063   -7413.6745   -10883.658   -3194.5182    80.685785 
   70800    954.37866   -108.46093   0.86354187   -107.59739    265.68745    4.3254511    4.3254511    4.3254511    265.68745    13879.012   -23936.082    10854.132    17267.702    11774.383     4798.228    80.927148 
   70900    578.87952   -108.12631   0.52378236   -107.60253   -18889.201    4.3317953    4.3317953    4.3317953   -18889.201   -19324.249   -29548.721   -7794.6321    12190.203   -4309.8823   -14681.022    81.283759 
   71000     821.2056   -108.34188   0.74304409   -107.59883     8671.844    4.3204524    4.3204524    4.3204524     8671.844    8705.1108   -848.58488    18159.006   -2959.4164   -14945.817    1537.3121      80.6469 
   71100    1050.8697   -108.54675   0.95084899    -107.5959    -683.4292    4.3258142    4.3258142    4.3258142    -683.4292    8120.0826    -20790.94     10620.57    12602.043    2822.3078    117.25334    80.947527 
   71200    518.53107   -108.07132   0.46917781   -107.60214   -8582.9619    4.3294245    4.3294245    4.3294245   -8582.9619    -15264.86    -16253.33    5769.3044    7158.5259   -15238.413    -13868.44    81.150373 
   71300    896.80396   -108.41057   0.81144707   -107.59913   -1052.1872    4.3230437    4.3230437    4.3230437   -1052.1872    8646.0374   -1334.9062   -10467.693   -5770.9108   -21410.954    8019.4965    80.792099 
   71400    958.54899   -108.46597   0.86731527   -107.59865    -2194.238    4.3251934    4.3251934    4.3251934    -2194.238   -2612.7972    -20896.54    16926.623     9481.916     7228.176   -1406.1509    80.912684 
   71500    413.20292   -107.98124   0.37387468   -107.60736   -13044.638    4.3278901    4.3278901    4.3278901   -13044.638   -12626.337   -12521.373   -13986.205    628.66094    -19210.47   -14845.494    81.064119 
   71600    994.61153   -108.49893   0.89994541   -107.59898    4094.0799    4.3239756    4.3239756    4.3239756    4094.0799    20393.131   -12075.233    3964.3409   -7565.0379   -8279.3928    1097.7439    80.844353 
   71700    991.28062   -108.49423   0.89693153    -107.5973    5206.2676    4.3273135    4.3273135    4.3273135    5206.2676    5854.1336   -16883.809    26648.479    5857.8383    10428.031   -5998.8061    81.031724 
   71800    506.14638    -108.0623   0.45797188   -107.60433    430.68367    4.3244259    4.3244259    4.3244259    430.68367     25434.38   -5862.6339   -18279.695   -1582.6236   -23434.051   -18644.496    80.869618 
   71900    1050.0263   -108.54926   0.95008583   -107.59918   -6273.2993    4.3312964    4.3312964    4.3312964   -6273.2993   -9877.2116   -20644.886      11702.2   -6662.6659    -1177.544    5584.8755    81.255678 
   72000    836.12961   -108.35573   0.75654764   -107.59918    18305.373    4.3182853    4.3182853    4.3182853    18305.373    23638.223     -3386.19    34664.086    3359.3107    -1645.699   -3499.2747    80.525603 
   72100    472.96183   -108.03829    0.4279458   -107.61034   -15414.687    4.3290093    4.3290093    4.3290093   -15414.687   -11394.856   -19890.675   -14958.529   -6960.4796   -13601.503    -10097.82    81.127026 
   72200    1024.7455    -108.5253   0.92721128   -107.59809   -704.21062    4.3286068    4.3286068    4.3286068   -704.21062    1748.3972   -27040.728    23179.699   -15747.357   -4071.9728    5526.3827    81.104398 
   72300    859.32245   -108.37484   0.77753301    -107.5973    9298.4442    4.3198731    4.3198731    4.3198731    9298.4442    27986.896   -6852.3176    6760.7538    4527.7854   -5013.4813   -7654.9634    80.614462 
   72400    609.48332   -108.15215   0.55147331   -107.60068   -27833.351    4.3342254    4.3342254    4.3342254   -27833.351    -26184.16   -26456.967   -30858.925   -16181.145   -22946.306   -13630.187    81.420635 
   72500    912.33537   -108.41981   0.82550022   -107.59431    17764.645    4.3188183    4.3188183    4.3188183    17764.645      11179.3   -8403.3081    50517.944   -7126.4064   -1024.4043    6325.9653    80.555423 
   72600    797.69426   -108.32337   0.72177053    -107.6016   -13504.564    4.3288133    4.3288133    4.3288133   -13504.564   -1920.4448   -18456.378   -20136.869    5585.7757   -16839.592   -13253.118     81.11601 
   72700     562.9023    -108.1098   0.50932583   -107.60047   -13445.645    4.3321719    4.3321719    4.3321719   -13445.645   -16532.093   -27708.755     3903.912   -18082.734   -16359.066     -4781.84    81.304962 
   72800    1043.7672   -108.53592   0.94442251    -107.5915     12777.49    4.3138708    4.3138708    4.3138708     12777.49    17618.687   -10036.883    30750.666    6249.1949    8292.3948    5061.5114    80.278896 
   72900    697.09893   -108.23212   0.63074976   -107.60137   -9185.7216    4.3309082    4.3309082    4.3309082   -9185.7216     3592.089   -20038.794    -11110.46   -925.56133   -16379.332   -8800.0795    81.233833 
   73000    771.55645   -108.29671   0.69812049   -107.59859   -8733.0847    4.3330383    4.3330383    4.3330383   -8733.0847    -22234.72    -23724.38    19759.846    -13774.45   -6956.1905   -3698.5418    81.353749 
   73100    894.87556   -108.40128   0.80970221   -107.59158    17612.851    4.3150444    4.3150444    4.3150444    17612.851    17406.344   -8446.7502    43878.959    7215.7198    7689.6923    5283.5154    80.344435 
   73200    687.56871   -108.22474   0.62212661   -107.60261   -11149.228    4.3276718    4.3276718    4.3276718   -11149.228   -10057.346   -17491.735   -5898.6021   -5923.0639   -20023.032   -13804.028    81.051852 
   73300    725.46599   -108.25465   0.65641688   -107.59823    6671.4385     4.331943     4.331943     4.331943    6671.4385   -2389.9252   -17825.893    40230.133   -11972.478   -4317.7611   -1480.0629    81.292073 
   73400    1064.3475   -108.55703   0.96304396   -107.59399   -1017.1538     4.323115     4.323115     4.323115   -1017.1538    1076.9268   -9829.9243     5701.536    9225.7337   -5785.3462     1552.767    80.796096 
   73500    609.63648   -108.15453    0.5516119   -107.60292    7155.0176    4.3198814    4.3198814    4.3198814    7155.0176    11284.469   -7522.8234    17703.408   -5308.0437       -13941   -17133.393    80.614931 
   73600     858.8126   -108.37661   0.77707169   -107.59954   -6705.0942    4.3355801    4.3355801    4.3355801   -6705.0942   -15985.045   -12076.922    7946.6838   -4268.0138    -5060.717    -1018.848    81.497007 
   73700    931.13571   -108.44012   0.84251116    -107.5976   -5081.1321    4.3243701    4.3243701    4.3243701   -5081.1321   -1576.4879   -23750.686    10083.778    12241.667    8114.4496    274.62698    80.866485 
   73800    380.67432   -107.94545   0.34444213   -107.60101    17866.606    4.3137447    4.3137447    4.3137447    17866.606    14984.282    23590.655     15024.88     -11399.8    -21505.54   -16525.146    80.271859 
   73900    1017.1487   -108.51684    0.9203375    -107.5965   -24973.987    4.3412222    4.3412222    4.3412222   -24973.987    -34378.94   -35585.757   -4957.2658    4409.4913    9737.0353    10470.606    81.815585 
   74000    918.67173   -108.42554   0.83123349   -107.59431    13337.967    4.3187665    4.3187665    4.3187665    13337.967    13766.239    9551.0748    16696.587    3582.7696   -9190.7101    -10315.52    80.552527 
   74100    517.05977   -108.07162   0.46784654   -107.60378    1133.7675    4.3170397    4.3170397    4.3170397    1133.7675   -8892.0365    3283.2955    9010.0434   -9043.2871   -17895.801    -10396.54    80.455944 
   74200    1069.4281   -108.56226   0.96764102   -107.59462   -17273.928    4.3382596    4.3382596    4.3382596   -17273.928   -25559.093   -27182.762    920.07024    1032.6568    5581.4195   -2631.0648    81.648197 
   74300    708.38817   -108.23859    0.6409645   -107.59763    13208.187     4.322686     4.322686     4.322686    13208.187    3428.6476    14413.311    21782.602   -369.75378   -10226.342   -12580.973    80.772042 
   74400    572.51332   -108.12039   0.51802208   -107.60236   -10258.894    4.3193317    4.3193317    4.3193317   -10258.894   -25756.308    244.71309   -5265.0859   -14014.111   -14946.898   -11204.411    80.584156 
   74500    1026.0557   -108.52593   0.92839674   -107.59753    4306.3601    4.3298308    4.3298308    4.3298308    4306.3601   -8651.8897   -4404.1769    25975.147    1456.8916      11367.4    3490.2882    81.173221 
   74600     849.5777   -108.36718   0.76871575   -107.59846   -7060.6979    4.3303571    4.3303571    4.3303571   -7060.6979   -13718.794   -1571.8642    -5891.435   -4794.4616   -12093.599    8.7421497    81.202824 
   74700    562.81849   -108.10895      0.50925    -107.5997   -715.22605    4.3208383    4.3208383    4.3208383   -715.22605   -24037.147    354.49041    21536.979    -14139.72   -11376.099   -9448.0504    80.668512 
   74800    1064.1662   -108.55654    0.9628799   -107.59366    8415.5517    4.3236926    4.3236926    4.3236926    8415.5517    16076.139   -10102.683      19273.2    5988.9383     10402.89    16893.571    80.828481 
   74900     689.4182    -108.2229   0.62380007    -107.5991   -12802.529    4.3328647    4.3328647    4.3328647   -12802.529   -22287.413    -6893.641   -9226.5338   -3293.0713   -25034.584    -8764.201    81.343973 
   75000    606.38602   -108.14809   0.54867082   -107.59942    3239.0456     4.321808     4.321808     4.321808    3239.0456   -10816.391   -8717.4973    29251.025   -12752.896   -6851.5485     -1782.54    80.722836 
   75100    1093.5275   -108.58294    0.9894467    -107.5935    2070.2349    4.3230342    4.3230342    4.3230342    2070.2349    11633.692   -8024.7719    2601.7848    6489.1282   -5621.6473    15503.165    80.791565 
   75200    625.54229    -108.1652   0.56600381    -107.5992   -7207.0645    4.3319178    4.3319178    4.3319178   -7207.0645   -31601.221   -9557.9835    19538.011   -10774.765   -14429.625   -7340.8205    81.290655 
   75300    813.59683   -108.33241   0.73615951   -107.59625    3889.3905    4.3181739    4.3181739    4.3181739    3889.3905    2196.9793   -11600.584    21071.776   -12019.327   -6855.4042    3346.8996    80.519372 
   75400     987.0798   -108.49147   0.89313054   -107.59834   -13594.228    4.3299196    4.3299196    4.3299196   -13594.228   -174.65134   -27289.101   -13318.931    4412.8022    6377.7818    23611.574    81.178215 
   75500     558.4381   -108.10737   0.50528653   -107.60208    -447.2063    4.3261344    4.3261344    4.3261344    -447.2063    -27166.72   -188.08825    26013.189   -12778.798     -20386.6   -6964.5137    80.965502 
   75600    887.39587   -108.40276   0.80293444   -107.59983    5596.4932    4.3210237    4.3210237    4.3210237    5596.4932    7186.3505   -18251.244    27854.373    -4599.518    2474.6191    11360.872    80.678894 
   75700     910.3176   -108.42327    0.8236745    -107.5996   -12974.228    4.3299704    4.3299704    4.3299704   -12974.228    -6607.599   -15489.847   -16825.239    1233.6539   -9908.2204    20137.578    81.181072 
   75800    606.92202   -108.15471    0.5491558   -107.60555     6710.667    4.3207403    4.3207403    4.3207403     6710.667   -17028.407    -3445.938    40606.346   -15204.538   -19883.393   -10415.142    80.663023 
   75900    823.58835   -108.34921   0.74520005   -107.60401    6144.4664    4.3244701    4.3244701    4.3244701    6144.4664    10888.895   -20142.569    27687.074    231.64401    5045.5478    14885.002    80.872097 
   76000     951.0129   -108.46299   0.86049646   -107.60249   -4448.0865    4.3247519    4.3247519    4.3247519   -4448.0865   -10241.449   -16517.299    13414.488   -2612.7916   -13308.158    19858.808    80.887907 
   76100    653.77099   -108.19248   0.59154573   -107.60093    2840.8564    4.3258819    4.3258819    4.3258819    2840.8564   -15854.627   -179.77821    24556.975   -14083.422   -15944.879     -8661.67    80.951325 
   76200     958.8646   -108.46243   0.86760084   -107.59483   -1175.9384    4.3187444    4.3187444    4.3187444   -1175.9384    11409.101   -15295.422    358.50641    2340.6868    12823.083    29259.585    80.551289 
   76300    696.23969   -108.22841   0.62997231   -107.59844   -7071.6888    4.3282388    4.3282388    4.3282388   -7071.6888   -336.83665   -1781.7902    -19096.44   -2873.8842   -18006.783   -163.67477    81.083716 
   76400    681.36807   -108.21462   0.61651614    -107.5981   -2909.3378    4.3262139    4.3262139    4.3262139   -2909.3378   -16690.555   -16362.705    24325.247   -14723.626   -5867.3253    1838.1217    80.969966 
   76500    918.81911   -108.42726   0.83136684   -107.59589   -105.86088    4.3216658    4.3216658    4.3216658   -105.86088    18680.863   -17919.731   -1078.7152    2485.6596    4412.9798    17560.079    80.714867 
   76600    889.62225    -108.4012   0.80494891   -107.59626    3156.4097    4.3245114    4.3245114    4.3245114    3156.4097   -12510.615   -4575.3727    26555.217   -8704.9473   -14027.361   -3172.4386    80.874412 
   76700    768.78429   -108.29372   0.69561218    -107.5981   -7962.7876    4.3245135    4.3245135    4.3245135   -7962.7876    -13982.58   -17413.176    7507.3936   -15174.905   -7889.2018    10533.969    80.874532 
   76800     753.0942   -108.27944   0.68141546   -107.59802   -6620.4395    4.3249747    4.3249747    4.3249747   -6620.4395    14330.597   -10107.794   -24084.122    5024.4561    10758.592     23328.94     80.90041 
   76900    709.97042   -108.24082   0.64239616   -107.59842    15509.871    4.3231578    4.3231578    4.3231578    15509.871   -17584.626   -9756.8715     73871.11   -13085.047   -9357.5539   -3841.0541    80.798496 
   77000    732.09167   -108.27051   0.66241193   -107.60809   -9580.2586    4.3262877    4.3262877    4.3262877   -9580.2586   -14099.918   -15863.656    1222.7984   -6903.2947   -3674.3091    19737.739    80.974112 
   77100    1063.9335   -108.56831   0.96266939   -107.60564   -70.762987    4.3225201    4.3225201    4.3225201   -70.762987    8902.5059   -15825.612    6710.8176    3575.1256    3275.7116    9181.6129    80.762741 
   77200    723.35824   -108.26089   0.65450974   -107.60638   -13044.652    4.3312024    4.3312024    4.3312024   -13044.652   -35187.792   -26914.574     22968.41   -16568.996    -13219.94   -10143.021    81.250387 
   77300    695.34811    -108.2316   0.62916559   -107.60243    9759.5903    4.3175387    4.3175387    4.3175387    9759.5903    7651.8754   -1152.9085    22779.804   -1066.8221   -6915.7279    20505.502    80.483845 
   77400     941.6763   -108.45011    0.8520485   -107.59806   -11451.165    4.3287016    4.3287016    4.3287016   -11451.165   -5821.5229   -25112.581   -3419.3928     1867.738    9282.8284    8959.3028     81.10973 
   77500     483.3143   -108.03921   0.43731293    -107.6019   -8824.8085    4.3286839    4.3286839    4.3286839   -8824.8085   -25086.572   -15013.656    13625.803   -16069.966   -13353.802   -10018.445    81.108732 
   77600    1079.8796   -108.57315   0.97709771   -107.59605    1480.6742    4.3181968    4.3181968    4.3181968    1480.6742    8722.8261    -1755.889   -2524.9144    2769.1353    8230.2611    26149.416    80.520656 
   77700    802.38477   -108.32383   0.72601461   -107.59781    860.15011    4.3280546    4.3280546    4.3280546    860.15011   -7723.1523   -24044.352    34347.955   -3416.7443    -3776.649   -8892.0854    81.073363 
   77800    572.53302   -108.12138   0.51803991   -107.60334   -11349.666    4.3289059    4.3289059    4.3289059   -11349.666   -27937.387   -21450.938    15339.327   -14133.333   -1216.6482   -4369.3265    81.121214 
   77900    1128.3812    -108.6133    1.0209831   -107.59231     11429.37    4.3203307    4.3203307    4.3203307     11429.37     17034.97   -6067.7435    23320.885    753.24485   -12261.892    7763.1233    80.640082 
   78000    558.96267   -108.10725   0.50576117   -107.60149    725.55048    4.3260194    4.3260194    4.3260194    725.55048    -4926.997   -13656.851    20760.499   -5777.7932    152.50206   -11641.346    80.959049 
   78100     763.7677   -108.29354   0.69107306   -107.60246   -20048.341    4.3301299    4.3301299    4.3301299   -20048.341   -15495.702   -31599.646   -13049.674   -10944.208   -16500.088   -6868.4863    81.190045 
   78200    991.64673   -108.49118    0.8972628   -107.59392    31841.547    4.3202931    4.3202931    4.3202931    31841.547    31341.469    11564.683    52618.488    4452.4436   -1836.5993    796.85398    80.637977 
   78300    684.14085   -108.22328   0.61902501   -107.60425   -21632.895    4.3279545    4.3279545    4.3279545   -21632.895   -24888.103    -41922.05    1911.4681   -8531.8964     2985.475   -10435.645    81.067738 
   78400    607.59222   -108.15291   0.54976221   -107.60314    3460.2569    4.3256421    4.3256421    4.3256421    3460.2569    7106.7452   -20361.119    23635.145   -5788.5198   -11502.538   -6150.7256    80.937867 
   78500    1190.9517    -108.6724    1.0775981    -107.5948    1745.5559    4.3237706    4.3237706    4.3237706    1745.5559    7556.9879    37.061981   -2357.3823    5076.4409     14426.11    7068.3645    80.832857 
   78600     579.3729   -108.12736   0.52422878   -107.60313   -11546.479    4.3269722    4.3269722    4.3269722   -11546.479   -2289.1583   -32639.713    289.43555    -16119.46   -4454.3555   -14319.024    81.012551 
   78700    739.33163   -108.26957   0.66896279   -107.60061    12977.282     4.325729     4.325729     4.325729    12977.282    25402.359   -10602.993     24132.48    811.77272   -4373.2392    1612.4805    80.942746 
   78800    1020.0552   -108.51854   0.92296741   -107.59557   -3600.3674    4.3266303    4.3266303    4.3266303   -3600.3674   -6671.7914   -709.03434   -3420.2765    -4187.877    468.45233    1523.8916    80.993349 
   78900    465.95404   -108.02387     0.421605   -107.60227    8811.2174      4.32295      4.32295      4.32295    8811.2174    19501.634   -28868.743    35800.762   -16372.741    2527.2697   -15337.657    80.786841 
   79000    1064.0333   -108.55987   0.96275969   -107.59711   -5260.5837    4.3284458    4.3284458    4.3284458   -5260.5837    819.69632   -10695.193   -5906.2544    3701.2475   -14759.697    1214.1782    81.095348 
   79100    811.04164    -108.3324   0.73384752   -107.59855    7249.2603    4.3243184    4.3243184    4.3243184    7249.2603    20817.561   -13091.505    14021.725   -2537.9166    16844.516    5528.3119    80.863582 
   79200    708.57423   -108.24128   0.64113285   -107.60015    3479.7667    4.3235753    4.3235753    4.3235753    3479.7667    19080.339   -25367.857    16726.818   -10017.028   -4965.5622   -15000.931    80.821904 
   79300    855.29488   -108.37192   0.77388878   -107.59803   -7045.9268    4.3283099    4.3283099    4.3283099   -7045.9268    379.20655    -19625.54   -1891.4473    7696.9054    5622.7549    13493.638    81.087714 
   79400     651.2688   -108.18901    0.5892817   -107.59973    3935.0461    4.3230388    4.3230388    4.3230388    3935.0461    17435.793   -14043.489    8412.8342   -3448.5039    14868.312    9896.5658    80.791821 
   79500    999.85655   -108.50395   0.90469121   -107.59926   -13838.415    4.3256306    4.3256306    4.3256306   -13838.415   -8423.4824   -28162.039   -4929.7234   -7683.8524   -4794.1233   -16130.956    80.937221 
   79600    632.98449   -108.17589   0.57273767   -107.60315    -2623.926    4.3257654    4.3257654    4.3257654    -2623.926    22389.976   -25118.817   -5142.9375    2143.9571    3680.7927    27375.015    80.944786 
   79700    968.98261   -108.47604   0.87675583   -107.59929   -2772.9849    4.3238653    4.3238653    4.3238653   -2772.9849    10176.494   -17055.085   -1440.3641   -2848.8754    1875.6338   -381.61708     80.83817 
   79800    754.80709   -108.28314   0.68296532   -107.60018   -10748.557    4.3288109    4.3288109    4.3288109   -10748.557   -183.48509   -35091.619    3029.4343   -12675.896    1568.5302   -6672.7481    81.115872 
   79900    519.94933   -108.07337   0.47046108   -107.60291    2305.7074    4.3195757    4.3195757    4.3195757    2305.7074    14818.399   -20083.525    12182.249    4961.4818    2254.1635    29788.084    80.597816 
   80000    1120.1788   -108.61059    1.0135613   -107.59703   -6936.0685    4.3315907    4.3315907    4.3315907   -6936.0685   -6674.3522    -15905.58    1771.7272   -4675.3694    20984.827   -8143.3384     81.27224 
   80100    703.37927   -108.23728   0.63643234   -107.60085    19174.425    4.3209397    4.3209397    4.3209397    19174.425     26070.98   -14315.816    45768.111   -2837.5869    -8409.579    9421.2293    80.674192 
   80200    664.11628   -108.20653   0.60090637   -107.60562   -5673.2552    4.3245322    4.3245322    4.3245322   -5673.2552    14502.634   -30054.449   -1467.9506    6695.2411    11247.218    25902.696    80.875581 
   80300     1061.997   -108.55611    0.9609172   -107.59519    5979.8385    4.3294411    4.3294411    4.3294411    5979.8385    4918.6046   -13259.084    26279.995    3999.5344   -3025.4022   -6740.0255    81.151303 
   80400    687.32124   -108.22227    0.6219027   -107.60037    2592.3431     4.321443     4.321443     4.321443    2592.3431    14740.096     -23653.5    16690.434   -865.93643   -9847.1959    19425.558    80.702387 
   80500    689.62097   -108.22834   0.62398355   -107.60436   -16732.066    4.3271468    4.3271468    4.3271468   -16732.066    -7753.675   -33322.237    -9120.287    12411.989    1842.2101    17700.067    81.022362 
   80600    1009.4818   -108.51066   0.91340037   -107.59726    11777.943      4.32389      4.32389      4.32389    11777.943     1437.462   -1280.5823     35176.95    6977.4725    2697.6759   -5451.1634    80.839553 
   80700     621.0144   -108.16667   0.56190688   -107.60477   -14528.944    4.3303211    4.3303211    4.3303211   -14528.944    16994.505     -38088.2   -22493.138   -1726.6038    905.03278    24624.166    81.200796 
   80800    783.26506   -108.31141   0.70871469    -107.6027   -3189.0973    4.3184488    4.3184488    4.3184488   -3189.0973    1913.6876   -20737.622     9256.642     17393.12    729.18278    3676.8551    80.534751 
   80900    943.82296   -108.45451   0.85399084   -107.60052    2354.4921    4.3295241    4.3295241    4.3295241    2354.4921   -6510.3314   -20159.517    33733.325   -3343.1138    4169.8985    3442.6345    81.155975 
   81000    882.67364   -108.40017   0.79866166    -107.6015   -8590.0705    4.3244035    4.3244035    4.3244035   -8590.0705    14852.277    -32036.14   -8586.3487    4165.3794   -9329.3795      26721.6    80.868361 
   81100    677.32958   -108.21505   0.61286204   -107.60218    10257.634    4.3145335    4.3145335    4.3145335    10257.634    -8882.807   -6398.9341    46054.644    12517.794    7513.5247   -9246.4459    80.315899 
   81200    807.85449   -108.32908   0.73096372   -107.59812   -16101.211    4.3377188    4.3377188    4.3377188   -16101.211   -9754.0316   -29096.502   -9453.1005   -10805.242    3200.3112    7075.9652    81.617669 
   81300    952.94718   -108.45588   0.86224664   -107.59363     1357.971    4.3190521    4.3190521    4.3190521     1357.971     15095.65   -13145.426    2123.6889    9704.2836    3058.9442     12001.32    80.568508 
   81400    458.12283    -108.0175   0.41451916   -107.60298   -1547.3493    4.3222467    4.3222467    4.3222467   -1547.3493   -13882.667   -28059.983    37300.602     5929.228    5847.4497   -12577.847    80.747419 
   81500    1146.2938   -108.63363    1.0371907   -107.59644   -11547.692    4.3281047    4.3281047    4.3281047   -11547.692   -7137.4525   -23060.498   -4445.1256    -16257.34    11284.253    5734.6398     81.07618 
   81600    837.53319   -108.35692   0.75781763   -107.59911    6743.0734    4.3271725    4.3271725    4.3271725    6743.0734    9046.3225   -16331.345    27514.242    17259.198   -5319.6994     1835.961    81.023805 
   81700    563.75586    -108.1144   0.51009815    -107.6043   -15149.499    4.3201472    4.3201472    4.3201472   -15149.499   -14184.661   -28818.549   -2445.2875   -741.36708    5034.1654   -17711.839    80.629807 
   81800    828.76504   -108.35128   0.74988403   -107.60139    9898.3498     4.324927     4.324927     4.324927    9898.3498    29258.341   -1574.6404    2011.3484   -15131.326    1410.5469    3745.5777    80.897734 
   81900    992.98959   -108.49652   0.89847785   -107.59804   -5574.2782    4.3304223    4.3304223    4.3304223   -5574.2782   -3132.6414   -16264.355    2674.1622    19629.786   -9931.5521   -7527.1145    81.206491 
   82000    428.73036   -107.99183   0.38792424   -107.60391    7573.1908    4.3173339    4.3173339    4.3173339    7573.1908     17484.57   -26649.125    31884.127   -17215.734    9367.9587   -8574.5674    80.472391 
   82100    1136.8286   -108.62884    1.0286264   -107.60021    726.09586    4.3279547    4.3279547    4.3279547    726.09586   -2692.7581   -5762.5364    10633.582    -7355.035   -3100.1267    2533.8553    81.067751 
   82200    926.84872   -108.43842    0.8386322   -107.59979    1466.5725    4.3269006    4.3269006    4.3269006    1466.5725    14290.869   -22321.393    12430.241    8149.8961   -2498.9425    205.46208    81.008529 
   82300    400.75185   -107.96782   0.36260869   -107.60521   -11670.949    4.3225547    4.3225547    4.3225547   -11670.949   -12451.075   -26412.657    3850.8852   -16942.813    3444.3818   -10016.182    80.764682 
   82400    1037.8533   -108.53518   0.93907144   -107.59611   -2224.8899    4.3232487    4.3232487    4.3232487   -2224.8899    6203.9374   -1092.2718   -11786.335   -4787.8821    5074.0858    10094.315    80.803593 
   82500    696.91579   -108.22977   0.63058406   -107.59918   -2283.5481    4.3299661    4.3299661    4.3299661   -2283.5481   -742.14785    -20011.65    13903.153    4436.3218   -4817.0044   -7253.9749    81.180832 
   82600    689.41975   -108.22474   0.62380148   -107.60093   -11673.441    4.3233128    4.3233128    4.3233128   -11673.441   -17649.979   -27518.791    10148.447   -24050.253    10521.167   -6519.7611    80.807186 
   82700    944.64398   -108.45155   0.85473373   -107.59682    17348.123    4.3207253    4.3207253    4.3207253    17348.123    38419.076    40.151749    13585.142    6119.1616    -1606.808    9953.1202    80.662183 
   82800    903.40093   -108.41648   0.81741614   -107.59906   -11103.348    4.3301303    4.3301303    4.3301303   -11103.348   -5207.0749   -22301.056   -5801.9117   -9491.5417   -9216.3821   -11658.228    81.190068 
   82900    599.15719   -108.14049   0.54213002   -107.59836    7725.5268    4.3229066    4.3229066    4.3229066    7725.5268    34552.268   -20835.186    9459.4986   -17840.619    8456.8948   -244.48946    80.784408 
   83000    921.77467   -108.42877   0.83404109   -107.59473   -5362.2862    4.3263529    4.3263529    4.3263529   -5362.2862    5202.1223    1589.3328   -22878.314     7810.926   -9582.6036    11240.242    80.977775 
   83100    659.16259   -108.19289   0.59642416   -107.59647    12669.583    4.3214437    4.3214437    4.3214437    12669.583    20410.613   -16176.851    33774.989   -19047.212   -5167.1778   -10631.526    80.702424 
   83200    822.33584   -108.34239   0.74406675   -107.59833   -11322.343    4.3294178    4.3294178    4.3294178   -11322.343   -2313.3964   -18258.821   -13394.811   -5526.0332    2962.8664     2359.327    81.149997 
   83300    802.34362   -108.32299   0.72597737   -107.59701    7481.3475    4.3244009    4.3244009    4.3244009    7481.3475    24691.542   -6655.1776    4407.6781    4855.1997   -8426.4519    16229.033    80.868212 
   83400    904.77747   -108.41514   0.81866167   -107.59647   -1626.2195    4.3218171    4.3218171    4.3218171   -1626.2195    1798.3482   -7556.5427    879.53596   -14112.142   -4295.5607   -16943.752    80.723345 
   83500    680.39354   -108.21316   0.61563438   -107.59752   -7857.8536    4.3304084    4.3304084    4.3304084   -7857.8536    7785.6025   -23247.495    -8111.668    -6693.766    2868.3929    11335.332    81.205709 
   83600    926.83453   -108.43275   0.83861936   -107.59413    853.66546    4.3198038    4.3198038    4.3198038    853.66546    2074.3701    6849.8051   -6363.1788    3826.2749   -6114.7726    16218.707    80.610584 
   83700    619.65619   -108.15878   0.56067794   -107.59811   -2634.6539    4.3279071    4.3279071    4.3279071   -2634.6539   -12069.709   -16030.131    20195.878   -18844.221   -922.86399   -18895.412    81.065074 
   83800    861.17206   -108.37462   0.77920658   -107.59542   -8743.2355    4.3255163    4.3255163    4.3255163   -8743.2355    2266.9154   -20360.077   -8136.5452   -4210.0314    2704.1823     16622.32    80.930803 
   83900    772.70157   -108.29407   0.69915662   -107.59491    14628.982     4.322742     4.322742     4.322742    14628.982     13228.57    9979.9311    20678.444    4769.0233    -4133.623    6070.4059    80.775182 
   84000    902.58418   -108.41282   0.81667714   -107.59614   -12047.766    4.3281704    4.3281704    4.3281704   -12047.766   -7361.6552   -26405.558   -2376.0852   -21948.865   -322.99736    -20273.44    81.079874 
   84100    838.93634    -108.3556   0.75908723   -107.59651    6242.5651    4.3229433    4.3229433    4.3229433    6242.5651    18806.073   -4404.4411     4326.063    8868.9776    277.35484    9172.9126    80.786467 
   84200    831.23005   -108.34928   0.75211442   -107.59717   -1138.5289    4.3247605    4.3247605    4.3247605   -1138.5289   -13256.533    -4920.287    14761.233   -1650.5441    2082.8653    2408.0801    80.888391 
   84300    690.28623   -108.22352   0.62458549   -107.59893   -6848.9557    4.3243269    4.3243269    4.3243269   -6848.9557   -6873.3278   -21803.649    8130.1094   -14128.196   -2052.4517   -27688.963    80.864062 
   84400    805.71176    -108.3265   0.72902493   -107.59747    2603.7202    4.3259413    4.3259413    4.3259413    2603.7202    11907.296   -5970.3857    1874.2502    11219.961      7109.87    12325.961    80.954664 
   84500    790.33393   -108.31269   0.71511075   -107.59758   -732.08449    4.3242465    4.3242465    4.3242465   -732.08449    7721.6572   -8448.6775   -1469.2333   -2666.9031    -2913.667   -4716.8187    80.859551 
   84600    714.31999   -108.24561   0.64633174   -107.59928   -5059.3311    4.3268457    4.3268457    4.3268457   -5059.3311    12418.826   -24062.358   -3534.4618   -7625.0383    47.410564   -27834.274    81.005448 
   84700    1153.6634   -108.63557    1.0438588   -107.59171    2722.0185    4.3232282    4.3232282    4.3232282    2722.0185    10058.107    7030.7788   -8922.8306    408.10017    767.04871    20748.703    80.802442 
   84800    537.09226   -108.08535   0.48597236   -107.59938   -4161.6807    4.3249937    4.3249937    4.3249937   -4161.6807   -3170.2431   -16789.311    7474.5123    2489.7006   -4948.0482   -20774.075    80.901474 
   84900    748.32046   -108.27727   0.67709608   -107.60018   -17731.756    4.3281705    4.3281705    4.3281705   -17731.756   -11795.866   -20770.955   -20628.446    -19072.19   -485.88366   -18785.372    81.079878 
   85000    968.76174   -108.46838   0.87655598   -107.59182    21306.753    4.3221949    4.3221949    4.3221949    21306.753    29186.008    22677.616    12056.634    3824.6764    -724.9109    8133.7419    80.744515 
   85100    607.68085   -108.15373    0.5498424   -107.60389   -17698.713    4.3256096    4.3256096    4.3256096   -17698.713    1771.6265   -31998.997   -22868.767    620.85143   -520.73004   -32981.958    80.936044 
   85200    738.51735   -108.27227   0.66822602   -107.60404    6677.1815    4.3251585    4.3251585    4.3251585    6677.1815    24248.347   -6511.1497    2294.3468   -14797.841    42.533161   -10316.785    80.910721 
   85300    1315.4081   -108.78733    1.1902089   -107.59712    2206.9317    4.3243981    4.3243981    4.3243981    2206.9317    3924.3735    6031.1447   -3334.7232    11169.941    3479.5471   -2669.2843    80.868058 
   85400    404.65112   -107.97664   0.36613684    -107.6105   -12217.084     4.326372     4.326372     4.326372   -12217.084    2297.8694    -29761.67   -9187.4519   -12438.372   -42.593062   -31908.491    80.978846 
   85500      754.209   -108.28661   0.68242415   -107.60419      8572.08    4.3203356    4.3203356    4.3203356      8572.08    14251.878    1808.3166    9656.0456   -7117.0498    4490.0459    3589.0913    80.640356 
   85600    984.83131   -108.48952   0.89109606   -107.59842    827.68799    4.3262874    4.3262874    4.3262874    827.68799    10536.242    -381.2481     -7671.93    -1639.825    57.760916   -1367.0208    80.974095 
   85700    558.07266   -108.10821   0.50495587   -107.60326   -6921.8906    4.3262792    4.3262792    4.3262792   -6921.8906    5612.6678   -19414.532   -6963.8072   -11233.172    1165.9545   -25554.645    80.973635 
   85800    985.63989   -108.49153   0.89182769    -107.5997   -1631.6204    4.3209702    4.3209702    4.3209702   -1631.6204   -6466.9437   -9809.4959    11381.578   -12613.476   -2546.4668    17826.806    80.675899 
   85900    898.68544   -108.41159   0.81314947   -107.59844   -2171.8373    4.3295174    4.3295174    4.3295174   -2171.8373    11739.106   -9503.4388   -8751.1794     10360.71    4784.4849   -2859.4982    81.155593 
   86000    757.65649   -108.28334   0.68554351   -107.59779    527.52637    4.3221542    4.3221542    4.3221542    527.52637   -4235.9237    -6964.754    12783.257    -20884.65   -6429.3265    -19289.26    80.742238 
   86100    581.79703   -108.12506   0.52642218   -107.59863    308.54117    4.3263741    4.3263741    4.3263741    308.54117    6827.1002   -14818.455    8916.9782    829.70902    7212.8372    23758.016    80.978965 
   86200    913.86189   -108.42079   0.82688145    -107.5939   -3879.7313    4.3236912    4.3236912    4.3236912   -3879.7313   -5455.0455   -802.25276   -5381.8955    10854.906   -2900.9387   -12272.068    80.828407 
   86300    745.47795   -108.27203   0.67452412    -107.5975   -1729.6619    4.3249899    4.3249899    4.3249899   -1729.6619   -6351.7553   -21390.606    22553.376   -29256.575    5752.6546    -6667.156    80.901262 
   86400     835.0705   -108.35386   0.75558934   -107.59827   -12564.654    4.3281054    4.3281054    4.3281054   -12564.654   -1171.1432   -27176.481   -9346.3388    8037.5059   -2208.1814    19621.073    81.076216 
   86500    918.23659   -108.42354   0.83083977    -107.5927    11219.792    4.3197465    4.3197465    4.3197465    11219.792    3824.3045    3631.5892    26203.482   -1760.2449    3058.0413   -5979.7707    80.607377 
   86600    783.11039   -108.30554   0.70857474   -107.59696   -7340.8058    4.3280221    4.3280221    4.3280221   -7340.8058   -1962.3887   -23411.749    3351.7201   -24945.225   -1297.4162    829.59182    81.071539 
   86700    505.90635   -108.05793   0.45775469   -107.60018    3508.6296      4.32524      4.32524      4.32524    3508.6296    1126.5421   -8087.4889    17486.836    15162.459    -55.68436    18866.973    80.915296 
   86800    1026.1057   -108.52244   0.92844203     -107.594   -2113.1243    4.3239826    4.3239826    4.3239826   -2113.1243   -11783.851   -4364.0056    9808.4834   -4973.4027    3489.0163    6721.3506     80.84475 
   86900    809.50487   -108.33095   0.73245702   -107.59849    4820.6757    4.3247916    4.3247916    4.3247916    4820.6757   -6430.9999   -7928.7067    28821.734   -15680.007   -3523.5288   -1259.9921    80.890132 
   87000    696.26905   -108.23104   0.62999887   -107.60104    3245.1961    4.3212656    4.3212656    4.3212656    3245.1961    8139.8758   -4491.4607    6087.1733    18483.171    3576.7231    28791.931    80.692446 
   87100    1072.9399   -108.56695   0.97081859   -107.59614   -6995.0127    4.3320522    4.3320522    4.3320522   -6995.0127   -22394.553   -8514.7746    9924.2893   -1486.3898    589.41058   -9677.2398    81.298219 
   87200    650.24216     -108.189   0.58835277   -107.60065    21507.062      4.31766      4.31766      4.31766    21507.062    13898.896    11453.167    39169.124   -7023.4239     1156.273    7812.8962    80.490631 
   87300    577.45841   -108.13443    0.5224965   -107.61193   -18756.014    4.3263565    4.3263565    4.3263565   -18756.014   -11021.986   -30408.877   -14837.178    24625.553   -660.53882    13941.935    80.977973 
   87400    1070.1562   -108.57013   0.96829982   -107.60183    4615.5376    4.3298003    4.3298003    4.3298003    4615.5376   -9023.3642    3318.4294    19551.548   -4310.6211   -5901.6962   -1829.6235    81.171507 
   87500    831.07538   -108.35882   0.75197447   -107.60685    10142.562    4.3161841    4.3161841    4.3161841    10142.562    10331.445    6448.5436    13647.698    2410.0991   -1043.0296    16633.075    80.408114 
   87600    501.15201   -108.06601   0.45345287   -107.61256    -24305.76    4.3317696    4.3317696    4.3317696    -24305.76   -9038.9502   -39794.412   -24083.919     26967.41   -1305.4213    14835.709    81.282314 
   87700    1111.0656   -108.60396    1.0053155   -107.59864    11420.901    4.3239203    4.3239203    4.3239203    11420.901   -6741.0564    15865.793    25137.967   -13970.433    3948.6016   -13712.171    80.841253 
   87800    685.39837    -108.2238   0.62016285   -107.60364    1373.6466    4.3203631    4.3203631    4.3203631    1373.6466    18329.067   -15004.872    796.74454    15391.052    883.02893    17745.839      80.6419 
   87900    501.07767   -108.06056   0.45338561   -107.60718   -13850.959      4.32981      4.32981      4.32981   -13850.959   -14003.571   -34368.115    6818.8076    18672.965    6063.5367    4546.1595    81.172053 
   88000    1129.3663   -108.61648    1.0218743    -107.5946    15087.153    4.3212463    4.3212463    4.3212463    15087.153    22067.843    17025.797     6167.819   -14852.196    3169.9899   -13857.354    80.691367 
   88100     762.9485   -108.29304   0.69033183   -107.60271    -13328.51    4.3267611    4.3267611    4.3267611    -13328.51   -6772.9985   -25290.429   -7922.1023    18770.569    2124.1177    24986.564    81.000698 
   88200    615.89013   -108.15951   0.55727033   -107.60224    1963.5815    4.3244778    4.3244778    4.3244778    1963.5815    6123.5485    -11093.68    10860.876    13693.069    5097.9721    3910.2121    80.872525 
   88300    1119.0297   -108.60798    1.0125216   -107.59546    268.07189    4.3255735    4.3255735    4.3255735    268.07189    4343.8395   -5161.7711    1622.1473   -13038.965   -9455.6618    -2969.481    80.934013 
   88400    528.89107   -108.08276   0.47855176   -107.60421   -2614.4265    4.3247468    4.3247468    4.3247468   -2614.4265    3239.8431   -22412.651    11329.528    13626.259    3117.2488    21322.869    80.887618 
   88500    801.47471   -108.32645   0.72519116   -107.60126     3746.017    4.3231121    4.3231121    4.3231121     3746.017    14546.994   -244.73844   -3064.2047    12819.593   -7681.7766    1759.0368    80.795932 
   88600    975.40819    -108.4804   0.88256983   -107.59783   -15472.608      4.33033      4.33033      4.33033   -15472.608   -12568.308   -18484.295    -15365.22   -32158.608    5856.0963    -3484.776    81.201303 
   88700     455.6176   -108.01439   0.41225238   -107.60213    8953.3699    4.3158118    4.3158118    4.3158118    8953.3699    33555.052   -9956.7015    3261.7589    24648.234   -4024.3202    16178.461    80.387309 
   88800     1048.932   -108.55129   0.94909569    -107.6022   -8906.3361    4.3289055    4.3289055    4.3289055   -8906.3361    1230.5708    -25748.16   -2201.4186    2059.4046    7403.9737    2760.6681    81.121193 
   88900    890.14065   -108.40654   0.80541797   -107.60113   -3670.6397    4.3295883    4.3295883    4.3295883   -3670.6397    13085.823   -19572.689   -4525.0528   -18915.539   -1003.4508   -2882.1882    81.159584 
   89000    475.82327   -108.03681   0.43053489   -107.60627     -479.804    4.3164974    4.3164974    4.3164974     -479.804    13875.861   -26778.698    11463.426    33998.516    1542.7338    16048.634    80.425627 
   89100    1075.6221   -108.57371   0.97324545   -107.60046   -5840.1871    4.3272391    4.3272391    4.3272391   -5840.1871   -4122.0727   -10717.377   -2681.1111    621.60576   -4261.2461   -1388.9012    81.027547 
   89200    725.43797   -108.26023   0.65639152   -107.60384   -12570.635    4.3311583    4.3311583    4.3311583   -12570.635    10005.006   -29700.473   -18016.437   -9653.4974    3221.3383    3012.4356    81.247904 
   89300     477.5243    -108.0384   0.43207403   -107.60633    -710.7309    4.3150611    4.3150611    4.3150611    -710.7309    14205.549   -28109.318    11771.576    35836.373   -3506.7127    14318.897    80.345369 
   89400    1249.6736   -108.73075    1.1307309   -107.60002   -70.838786    4.3284578    4.3284578    4.3284578   -70.838786     10099.53   -12210.379    1898.3329   -7694.7795    14058.715   -2655.6594    81.096024 
   89500    770.42501   -108.30171   0.69709674   -107.60461    4531.4539    4.3283363    4.3283363    4.3283363    4531.4539    30239.284   -25237.568    8592.6456    5503.7897   -1255.4756    12187.049    81.089197 
   89600    499.16483   -108.06032   0.45165483   -107.60866   -10711.802    4.3232546    4.3232546    4.3232546   -10711.802   -6796.2994   -34767.548    9428.4406    32376.663    1470.0263    7236.9761    80.803919 
   89700    1064.0314   -108.56051   0.96275794   -107.59775    13323.139    4.3210601    4.3210601    4.3210601    13323.139    32703.142    392.55837    6873.7167   -7663.2513   -3761.1236   -8166.2016    80.680936 
   89800    727.81195   -108.26291   0.65853955   -107.60437   -11945.553    4.3289961    4.3289961    4.3289961   -11945.553   -6929.6408   -25787.943   -3119.0762    21205.231   -7690.8006    10330.317    81.126285 
   89900    566.02942   -108.11829   0.51215532   -107.60614   -22063.479    4.3269958    4.3269958    4.3269958   -22063.479    -14348.13   -38724.612   -13117.694    26313.055    154.77884     3232.729    81.013878 
   90000    1019.0622   -108.51995   0.92206886   -107.59788    20966.678     4.316592     4.316592     4.316592    20966.678    25108.557    7474.4725    30317.005   -12925.545   -3218.0776   -10575.981    80.430914 
   90100    911.06975   -108.42733   0.82435506   -107.60298   -19924.435    4.3325974    4.3325974    4.3325974   -19924.435   -30371.807   -31821.053    2419.5544    29197.296    9243.0332     11146.11    81.328921 
   90200    476.95707   -108.03579   0.43156078   -107.60423    2768.5784    4.3250823    4.3250823    4.3250823    2768.5784   -4517.8272   -12055.415    24878.977    9182.5686   -1705.5333    2703.6397    80.906446 
   90300    1070.9711    -108.5654   0.96903712   -107.59636    7368.8944    4.3159789    4.3159789    4.3159789    7368.8944    5113.5931    5132.3476    11860.742   -11299.491    10542.072   -16858.197     80.39665 
   90400    761.79304   -108.29032   0.68928635   -107.60104   -10621.577      4.33297      4.33297      4.33297   -10621.577   -31780.894   -13013.714    12929.875    26486.004   -2624.4616    8188.1772    81.349907 
   90500    648.83121   -108.18853   0.58707611   -107.60145    7645.5506      4.32199      4.32199      4.32199    7645.5506   -5224.6276   -11815.423    39976.702    2110.4697   -65.767596   -564.49399    80.733035 
   90600    978.60368   -108.48401   0.88546118   -107.59855    2286.3429    4.3216288    4.3216288    4.3216288    2286.3429   -7869.0282   -443.04473    15171.102   -6935.2418   -3650.4695   -3930.2844    80.712795 
   90700    739.02916   -108.26717   0.66868911   -107.59848    3960.1785    4.3291247    4.3291247    4.3291247    3960.1785   -26044.877   -16237.792    54163.205    20391.593   -5010.0326    7323.2467    81.133515 
   90800     838.3417   -108.35728   0.75854919   -107.59873   -5475.1598    4.3202892    4.3202892    4.3202892   -5475.1598     5483.938   -15352.401   -6557.0163   -3611.5734   -3527.4929    17355.678    80.637762 
   90900     774.6511   -108.30054   0.70092059   -107.59962   -4052.1875     4.325133     4.325133     4.325133   -4052.1875   -14540.298   -15514.225     17897.96   -8092.1242   -1522.5875   -17581.597    80.909291 
   91000    894.21829    -108.4064    0.8091075    -107.5973   -4251.9237    4.3247688    4.3247688    4.3247688   -4251.9237   -20141.792   -16763.644    24149.665    15486.972     1379.335    20797.076    80.888857 
   91100    594.62859   -108.13967   0.53803245   -107.60164   -17501.884    4.3277395    4.3277395    4.3277395   -17501.884   -12006.351   -28704.829   -11794.472   -9469.9266    596.88656    1972.5938     81.05566 
   91200    781.75425   -108.30589   0.70734767   -107.59854    2082.2331    4.3212856    4.3212856    4.3212856    2082.2331   -18500.406   -14443.644    39190.749   -6219.6373    1258.1219   -17157.043    80.693565 
   91300    999.29781   -108.50155   0.90418566   -107.59736   -6517.1084    4.3250291    4.3250291    4.3250291   -6517.1084   -3065.1679   -14582.174   -1903.9834    8808.0345   -1875.3617    19908.887    80.903464 
   91400    586.26637   -108.13545   0.53046614   -107.60499   -7144.8045    4.3271825    4.3271825    4.3271825   -7144.8045   -1090.0756   -19206.876   -1137.4623    -10023.57   -4255.2154    2013.3956    81.024366 
   91500    978.40886   -108.48474    0.8852849   -107.59945     11227.84    4.3207229    4.3207229    4.3207229     11227.84    -860.6045   -8918.6312    43462.755   -7798.4693   -915.23292   -14768.899    80.662046 
   91600    885.85573   -108.40376   0.80154088   -107.60222   -6267.8131    4.3288552    4.3288552    4.3288552   -6267.8131   -14144.434    1466.6943   -6125.6997    5318.5611    4906.1226    30678.606    81.118364 
   91700    441.63235    -108.0063   0.39959823    -107.6067    11038.929    4.3190001    4.3190001    4.3190001    11038.929   -6429.4143   -17607.596    57153.799   -9981.7426    1082.3984   -2027.4313    80.565599 
   91800    920.52291   -108.43744   0.83290848   -107.60453    2791.8797    4.3269153    4.3269153    4.3269153    2791.8797   -11160.507    12684.087    6852.0586   -6877.7759    9055.7343   -17039.754    81.009355 
   91900    988.03649   -108.49549   0.89399618   -107.60149    6601.5074    4.3254868    4.3254868    4.3254868    6601.5074    5776.9614   -12308.009     26335.57    4900.3679   -7330.8273    24943.833    80.929151 
   92000    592.09607   -108.14145   0.53574097    -107.6057    4002.8333     4.322668     4.322668     4.322668    4002.8333    2254.9677   -5149.4545    14902.987    -13785.79   -1712.5247   -12787.706    80.771036 
   92100    970.97685   -108.47946   0.87856026    -107.6009   -4195.6464    4.3258751    4.3258751    4.3258751   -4195.6464   -3139.2342   -12552.684    3104.9789     -3849.12   -2764.1515   -19163.211    80.950948 
   92200    860.59434   -108.37769   0.77868384     -107.599     1135.556    4.3255476    4.3255476    4.3255476     1135.556   -8309.6896    -1334.739    13051.097    525.22907    1042.9618    28007.857    80.932561 
   92300    451.60656   -108.01289   0.40862311   -107.60427   -13675.587    4.3251642    4.3251642    4.3251642   -13675.587   -10978.469    -22087.28   -7961.0104   -13150.295    562.32323   -24815.461    80.911044 
   92400    992.33144    -108.4979   0.89788234   -107.60002    82.669336    4.3211039    4.3211039    4.3211039    82.669336    1921.9612   -11677.595    10003.642     316.7494    7768.2727   -5233.8837    80.683387 
   92500    930.46119   -108.44134   0.84190084   -107.59944   -2750.8933    4.3323874    4.3323874    4.3323874   -2750.8933    2070.9808    -5709.068   -4614.5926   -279.77195   -328.76569    15163.244    81.317093 
   92600    608.24496   -108.15773   0.55035282   -107.60738   -8834.2823    4.3183281    4.3183281    4.3183281   -8834.2823    10524.219   -31952.589   -5074.4769   -11077.582   -5482.5797   -29260.014    80.528001 
   92700    803.77379   -108.33366   0.72727142   -107.60639    14161.246    4.3243751    4.3243751    4.3243751    14161.246    3866.4147    2473.7698    36143.555    2329.7456    4329.4154    -3342.387    80.866768 
   92800    1118.8241   -108.61305    1.0123355   -107.60072   -4244.7475    4.3307418    4.3307418    4.3307418   -4244.7475    248.98872   -13074.203    90.971618    635.46268   -5415.8718   -3235.9813    81.224465 
   92900    451.02597   -108.01591   0.40809777   -107.60781    6019.6206    4.3138368    4.3138368    4.3138368    6019.6206     18116.38   -24700.712    24643.194   -12630.632    1581.7569   -27982.577    80.276999 
   93000    838.01042   -108.36526   0.75824944   -107.60701   -11246.871    4.3320808    4.3320808    4.3320808   -11246.871   -19053.362   -4462.1434   -10225.109    9388.7448    8805.0865    1606.8265    81.299832 
   93100    1075.9562   -108.57287   0.97354782   -107.59933   -134.93064    4.3251778    4.3251778    4.3251778   -134.93064    17760.985   -11083.953    -7081.824   -565.03269    476.92649   -3770.1736    80.911805 
   93200    443.04723   -108.00807   0.40087844   -107.60719   -5729.1666    4.3225126    4.3225126    4.3225126   -5729.1666   -5031.9143   -8561.6497   -3593.9359   -4044.8322    92.654144   -22896.511    80.762322 
   93300    980.93743   -108.49083    0.8875728   -107.60326   -4793.2583    4.3235029    4.3235029    4.3235029   -4793.2583   -4063.2083   -8797.7394   -1518.8272     11330.95    13031.092    9529.0544    80.817843 
   93400    933.21291   -108.44719   0.84439065    -107.6028    11008.661    4.3240136    4.3240136    4.3240136    11008.661    15798.933    6323.2978    10903.751   -4885.0687   -9695.9161   -4577.5757    80.846489 
   93500    607.47008   -108.15476    0.5496517   -107.60511   -18979.656    4.3321698    4.3321698    4.3321698   -18979.656   -10286.735   -21797.898   -24854.335    747.15516    4723.4246   -19560.242     81.30484 
   93600    808.64775   -108.32964   0.73168147   -107.59796    12638.159    4.3164043    4.3164043    4.3164043    12638.159    12558.832    10809.805     14545.84    1101.3007    93.166374    12540.958    80.420424 
   93700    824.74274   -108.34497   0.74624457   -107.59873    6647.1222    4.3275078    4.3275078    4.3275078    6647.1222     15818.99    2618.7778    1503.5983    581.34698   -6295.4145   -2873.9697    81.042637 
   93800    856.50557    -108.3742   0.77498424   -107.59921     1653.362    4.3278103    4.3278103    4.3278103     1653.362   -4009.7177   -14502.565    23472.369   -10554.277    6206.4862   -17473.322    81.059634 
   93900    876.85319   -108.39109   0.79339519   -107.59769    12648.044    4.3190877    4.3190877    4.3190877    12648.044    24753.586    2059.0053    11131.539    5764.8288    7391.4064    22477.472    80.570501 
   94000    783.70045   -108.30878   0.70910864   -107.59967    1232.1391    4.3265429    4.3265429    4.3265429    1232.1391    15705.709   -13715.053    1705.7618   -4190.2786    2457.9263   -4546.1875    80.988439 
   94100    807.47729   -108.33013   0.73062242   -107.59951   -7538.2288    4.3285906    4.3285906    4.3285906   -7538.2288     7148.002    -16647.71   -13114.979   -4628.4592   -5048.5121   -13910.126     81.10349 
   94200    585.10399   -108.13144   0.52941438   -107.60202   -112.30717    4.3224567    4.3224567    4.3224567   -112.30717    13564.897   -14237.286     335.4681    8624.8135    7222.9194    31331.054    80.759193 
   94300    987.20362   -108.49269   0.89324258   -107.59945   -2509.2528    4.3230999    4.3230999    4.3230999   -2509.2528    10879.775   -10210.378   -8197.1551    1136.5063   -12910.807   -7000.9459    80.795249 
   94400    796.41642   -108.32207   0.72061431   -107.60145   -12885.282    4.3296137    4.3296137    4.3296137   -12885.282   -8429.8301   -28556.934    -1669.081   -5876.5267   -472.26203   -2530.5001     81.16101 
   94500    651.31501   -108.19232   0.58932351   -107.60299   -7430.3296    4.3197089    4.3197089    4.3197089   -7430.3296    5389.2865   -28134.742    454.46663    4736.8112    2083.8651    35436.778    80.605269 
   94600    1034.3512    -108.5346   0.93590268    -107.5987   -5361.9908    4.3261684    4.3261684    4.3261684   -5361.9908    5793.6042   -16631.973    -5247.603    -750.6879   -167.49925   -13996.073    80.967415 
   94700     629.8496   -108.17151   0.56990116   -107.60161    5249.6503    4.3252657    4.3252657    4.3252657    5249.6503    5315.9408   -28083.007    38516.017   -12203.411     1125.503    10165.894    80.916737 
   94800    646.81069   -108.18866    0.5852479   -107.60341   -10708.572     4.327037     4.327037     4.327037   -10708.572    6103.1993   -35861.372   -2367.5436    10879.284    3519.9418      31462.1    81.016191 
   94900    1133.6593   -108.61927    1.0257588   -107.59351    12305.776    4.3197805    4.3197805    4.3197805    12305.776    374.91351    802.21892    35740.195   -1330.5258   -87.383473   -9924.3243    80.609279 
   95000    650.61665   -108.19074   0.58869162   -107.60205   -4866.5612    4.3250192    4.3250192    4.3250192   -4866.5612     -1916.62   -30233.285    17550.222   -5841.0145   -4807.9951     23093.97    80.902904 
   95100     603.7706   -108.15023   0.54630432   -107.60393   -24395.557     4.332516     4.332516     4.332516   -24395.557    -15196.39   -41732.487   -16257.793    15364.745    5802.6484    17815.808    81.324333 
   95200    1104.2088   -108.59199   0.99911132   -107.59288    25308.358    4.3128823    4.3128823    4.3128823    25308.358    11565.283    10421.434    53938.357   -3635.4609    1340.7042   -7019.6082    80.223725 
   95300    689.98034   -108.22718   0.62430871   -107.60287   -24521.299    4.3326774    4.3326774    4.3326774   -24521.299    1315.3913   -51428.769    -23450.52    3479.1663   -2825.1925    25548.099    81.333427 
   95400    621.20777   -108.16543   0.56208185   -107.60335   -7834.1461    4.3223159    4.3223159    4.3223159   -7834.1461   -2217.2172   -26203.029    4917.8083    11932.698    13075.044    4481.7243    80.751297 
   95500    984.79418   -108.48974   0.89106247   -107.59868    17167.801    4.3196753    4.3196753    4.3196753    17167.801    24557.372   -615.14455    27561.175   -44.621015    4268.4073    1271.7926    80.603391 
   95600    790.96252   -108.32381   0.71567951   -107.60813   -15314.986    4.3274439    4.3274439    4.3274439   -15314.986    6173.2952   -36441.142   -15677.111    4640.3211   -3645.6578    23833.084    81.039052 
   95700      543.544   -108.10184   0.49181004   -107.61003    18153.373    4.3211274    4.3211274    4.3211274    18153.373    12331.921   -8224.6164    50352.814    14774.508    7740.7382   -4380.7115    80.684704 
   95800    1118.0951   -108.61196    1.0116759   -107.60028   -11317.428    4.3340689    4.3340689    4.3340689   -11317.428    8354.6853   -21610.707   -20696.261   -6487.7582   -4149.9186   -527.98768    81.411815 
   95900     876.9973    -108.3926   0.79352559   -107.59908    24629.146    4.3080234    4.3080234    4.3080234    24629.146    31791.352   -1536.2207    43632.306    16579.528   -35.246181    18656.299    79.952888 
   96000    495.15828   -108.05933   0.44802962    -107.6113   -10911.422    4.3320567    4.3320567    4.3320567   -10911.422    3806.0081   -25323.277   -11216.998    8523.5998     12070.36   -10998.862    81.298474 
   96100    915.67142   -108.42989   0.82851874   -107.60137   -7740.4166    4.3275256    4.3275256    4.3275256   -7740.4166   -3746.3148   -18602.048   -872.88743   -10823.786    12658.341   -5811.5335     81.04364 
   96200    886.64633   -108.39975   0.80225623   -107.59749    10893.966    4.3145518    4.3145518    4.3145518    10893.966     14963.43     1208.691    16509.777    11987.203   -4561.8019    12473.708    80.316923 
   96300    615.36083    -108.1582   0.55679141   -107.60141   -25855.716     4.334333     4.334333     4.334333   -25855.716   -13486.375   -35734.075   -28346.698    2836.7359    17591.766   -16177.116      81.4267 
   96400    1004.1066   -108.50587   0.90853673   -107.59733    6863.9674    4.3156079    4.3156079    4.3156079    6863.9674    15546.829    2259.5896    2785.4832   -14209.081   -3151.0736   -3819.7177    80.375914 
   96500    797.75926   -108.32313   0.72182935    -107.6013     2645.485    4.3273363    4.3273363    4.3273363     2645.485    19760.853   -10732.716   -1091.6822    14212.549   -8152.5521    5716.5092    81.033005 
   96600    590.30046   -108.14211   0.53411626   -107.60799    -11753.74    4.3239415    4.3239415    4.3239415    -11753.74   -528.71794   -15599.768   -19132.734    4316.9333    20651.503   -7105.8343    80.842442 
   96700    858.56799   -108.38503   0.77685036   -107.60818     7069.308    4.3225084    4.3225084    4.3225084     7069.308    5783.0976     -3150.69    18575.516   -13371.337    596.39093   -8914.8921    80.762088 
   96800    1020.9867   -108.52841    0.9238102    -107.6046    6507.0543      4.32903      4.32903      4.32903    6507.0543    39609.314   -12545.857   -7542.2938    14523.368    1225.2109    4110.8289    81.128192 
   96900    637.57858   -108.18791    0.5768945   -107.61101   -3092.8625     4.317855     4.317855     4.317855   -3092.8625    9486.5211   -15025.141    -3739.968   -3073.1753    18761.764   -12691.918    80.501535 
   97000     782.5209   -108.31804   0.70804135      -107.61    5155.5257    4.3262069    4.3262069    4.3262069    5155.5257    28595.664   -16780.874    3651.7877   -13790.107   -5558.0083   -6862.5167    80.969577 
   97100    1081.8542   -108.57988   0.97888439   -107.60099   -4532.7673    4.3280865    4.3280865    4.3280865   -4532.7673    547.83001   -11663.844   -2482.2874    3990.4088   -1426.4875    869.26873    81.075156 
   97200    475.48041   -108.03875   0.43022467   -107.60852    -5619.952     4.319149     4.319149     4.319149    -5619.952    3185.9356   -16975.929   -3069.8626   -4951.2087    18854.361   -15842.985    80.573933 
   97300    809.57227    -108.3378     0.732518   -107.60528    6941.6531    4.3268544    4.3268544    4.3268544    6941.6531    27993.699   -13510.204     6341.464   -14732.555   -4431.9827    2135.3784    81.005936 
   97400    1106.0304   -108.60095    1.0007596   -107.60019    979.44041    4.3276913    4.3276913    4.3276913    979.44041    25574.051   -13175.414   -9460.3165    8599.9044    7349.5216   -2120.5702    81.052952 
   97500    444.06138   -108.01177   0.40179607   -107.60997    10274.849    4.3137805    4.3137805    4.3137805    10274.849    25537.055   -9056.5909    14344.084   -9627.6071    8561.1586   -13463.199    80.273857 
   97600    806.06108   -108.33893   0.72934101   -107.60959    -2663.751    4.3319516    4.3319516    4.3319516    -2663.751    21922.975   -36207.289    6293.0614   -13508.419    922.87891    8483.9497    81.292558 
   97700    1259.8672   -108.74279    1.1399543   -107.60284    10839.813    4.3208064    4.3208064    4.3208064    10839.813    14845.511   -5018.7089    22692.637    7513.4061   -3238.5928    -5849.569    80.666726 
   97800    491.28657   -108.05714   0.44452642   -107.61261    14005.951    4.3148882    4.3148882    4.3148882    14005.951    51683.446   -14208.864    4543.2717   -19005.357    13095.804   -6676.9408     80.33571 
   97900    655.25778   -108.19954   0.59289101   -107.60665   -27184.881    4.3388974    4.3388974    4.3388974   -27184.881   -10893.207   -49645.217   -21016.219   -11123.891   -3511.3817    10464.429    81.684213 
   98000     1109.965    -108.5989    1.0043197   -107.59458    19484.169    4.3105237    4.3105237    4.3105237    19484.169    34284.811    8885.1039    15282.591    14329.229    7520.1968   -2387.1744     80.09218 
   98100    570.36031   -108.12528     0.516074   -107.60921   -7734.3741    4.3243713    4.3243713    4.3243713   -7734.3741    4265.8431   -27449.931   -19.034148   -25616.374    10297.189   -626.55103     80.86655 
   98200    742.38729   -108.27951   0.67172762   -107.60779   -7505.0712    4.3244364    4.3244364    4.3244364   -7505.0712    10311.231   -34680.298    1853.8535    710.82248    7973.5079      11456.4    80.870202 
   98300    1065.9618   -108.56771   0.96450464    -107.6032      7971.84    4.3244122    4.3244122    4.3244122      7971.84    17969.321   -13277.952    19224.151    18215.852   -5187.8449   -2659.5809    80.868845 
   98400    785.33754   -108.31804   0.71058991   -107.60745   -7057.4231    4.3224194    4.3224194    4.3224194   -7057.4231    11509.769     -17764.5   -14917.538   -19797.329      7557.41    5309.6324    80.757098 
   98500     526.4224     -108.087   0.47631805   -107.61068    1269.3669    4.3145445    4.3145445    4.3145445    1269.3669    24633.419    -28619.88    7794.5614    15042.295   -2932.2175    5949.7527    80.316517 
   98600    832.13271   -108.35478   0.75293116   -107.60185    -12728.07    4.3379699    4.3379699    4.3379699    -12728.07   -7072.3232   -32562.909    1451.0232    17137.285    3458.8888    -2112.017    81.631843 
   98700    1056.3269   -108.55533   0.95578681   -107.59954    17679.759    4.3072879    4.3072879    4.3072879    17679.759    30406.308     7690.059    14942.911   -13995.267    18535.982    1249.4112    79.911944 
   98800    507.44451    -108.0745   0.45914646   -107.61536   -11085.415    4.3223828    4.3223828    4.3223828   -11085.415     -8536.13    -45406.34    20686.225    23046.512   -2156.7335     9722.035    80.755048 
   98900    894.79759   -108.40963   0.80963166       -107.6   -15486.367    4.3353177    4.3353177    4.3353177   -15486.367    -1188.249   -32623.532   -12647.321    9393.1468    10120.966   -7347.6221    81.482205 
   99000    1066.0514    -108.5579   0.96458571   -107.59332    12243.139    4.3094758    4.3094758    4.3094758    12243.139    27458.635    4063.1629    5207.6192   -2257.2376   -1169.8694    2999.7997    80.033783 
   99100    471.77126   -108.03355   0.42686855   -107.60668    -4761.298    4.3225122    4.3225122    4.3225122    -4761.298    15113.028   -44804.507    15407.586    31066.111    687.72415    5666.0148      80.7623 
   99200    813.40631   -108.33791   0.73598712   -107.60193     -8147.28    4.3302678    4.3302678    4.3302678     -8147.28    7201.7478   -23845.218   -7798.3697   -846.77289    -2399.152   -11636.668      81.1978 
   99300    997.41212   -108.50201   0.90247945   -107.59953   -460.70204    4.3204095    4.3204095    4.3204095   -460.70204   -5612.9499   -5603.1702     9834.014    7326.9649    12743.924    972.03976    80.644495 
   99400    604.23896   -108.15168   0.54672811   -107.60496    20939.998    4.3151902    4.3151902    4.3151902    20939.998    54894.039   -25012.134     32938.09     25999.25    1855.2281   -2626.9878     80.35258 
   99500    778.24821   -108.31326   0.70417533   -107.60909   -16721.637    4.3334512    4.3334512    4.3334512   -16721.637   -6213.7785   -25558.874   -18392.259   -7448.0825    7349.7516   -9759.2207    81.377008 
   99600    931.91864   -108.44676   0.84321957   -107.60354       9541.9    4.3173771    4.3173771    4.3173771       9541.9    20552.124   -6224.3449    14297.921    4695.9643    5513.7321    1390.0651    80.474811 
   99700    841.84901   -108.36521   0.76172267   -107.60349    2016.0669    4.3172134    4.3172134    4.3172134    2016.0669    9269.7625   -20618.775    17397.213    21372.835   -5627.7619   -4254.7215    80.465654 
   99800    707.82976   -108.24532   0.64045924   -107.60486   -15170.763    4.3280358    4.3280358    4.3280358   -15170.763   -14864.926   -22687.234     -7960.13   -14422.668    8801.4448   -5034.2975    81.072306 
   99900    670.73742    -108.2098   0.60689731    -107.6029    14357.067    4.3215559    4.3215559    4.3215559    14357.067    39194.561   -7783.6847    11660.325    6976.3022    11953.493    3792.5964    80.708711 
  100000    915.37654   -108.43237   0.82825193   -107.60411     2633.234    4.3197789    4.3197789    4.3197789     2633.234    3814.6421   -15605.856    19690.916    12040.586    -4640.895   -7697.3023    80.609188 
Loop time of 22.1082 on 1 procs for 100000 steps with 8 atoms

Pair  time (%) = 7.02441 (31.7728)
Kspce time (%) = 5.31884 (24.0582)
Neigh time (%) = 0 (0)
Comm  time (%) = 1.05241 (4.76028)
Outpt time (%) = 0.0244367 (0.110532)
Other time (%) = 8.68811 (39.2981)

Nlocal:    8 ave 8 max 8 min
Histogram: 1 0 0 0 0 0 0 0 0 0
Nghost:    2189 ave 2189 max 2189 min
Histogram: 1 0 0 0 0 0 0 0 0 0
Neighs:    2344 ave 2344 max 2344 min
Histogram: 1 0 0 0 0 0 0 0 0 0

Total # of neighbors = 2344
Ave neighs/atom = 293
Neighbor list builds = 0
Dangerous builds = 0
unfix 20
unfix 21
print "seeds:2252713"
seeds:2252713
