LAMMPS (10 Feb 2015)
# ---- initialize simulations
clear
units metal
dimension 3
boundary p p p
atom_style charge
atom_modify map array
# ---- create atoms
read_data /Users/eugeneragasa/pyflamestk_git/pypospack/tests/tests_integration/workflow/WorkflowLammpsThermalExpansion/param_3867/MgO_NaCl_unit.npt.T800/lammps.structure
  triclinic box = (0 0 0) to (4.2565 4.2565 4.2565) with tilt (0 0 0)
  1 by 1 by 1 MPI processor grid
  reading atoms ...
  8 atoms
# ---- define interatomic potential
include potential.mod
mass 1 24.305
mass 2 15.999

group Mg type 1
4 atoms in group Mg
group O type 2
4 atoms in group O

set group Mg charge 1.73479148785
  4 settings made for charge
set group O charge -1.73479148785
  4 settings made for charge

variable R_cut equal 10.0

pair_style buck/coul/long ${R_cut}
pair_style buck/coul/long 10
pair_coeff 1 1 0.0 0.5 0.0 ${R_cut}
pair_coeff 1 1 0.0 0.5 0.0 10
pair_coeff 1 2 1225.32983502 0.291530354982 0.0 ${R_cut}
pair_coeff 1 2 1225.32983502 0.291530354982 0.0 10
pair_coeff 2 2 16858.6500597 0.120403294253 7.45918898041 ${R_cut}
pair_coeff 2 2 16858.6500597 0.120403294253 7.45918898041 10

kspace_style pppm 1.0e-5

neighbor 1.0 bin
neigh_modify every 1 delay 0 check yes
# ---- define settings
compute eng all pe/atom
compute eatoms all reduce sum c_eng
# ---- run minimization
reset_timestep 0
fix 1 all box/relax iso 0.0 vmax 0.001
thermo 10
thermo_style custom step pe lx ly lz xy xz yz press pxx pyy pzz pxy pxz pyz c_eatoms
min_style cg
minimize 1e-25 1e-25 5000 10000
PPPM initialization ...
  G vector (1/distance) = 0.3534
  grid = 8 8 8
  stencil order = 5
  estimated absolute RMS force accuracy = 4.23269e-05
  estimated relative force accuracy = 2.93944e-06
  using double precision FFTs
  3d grid and FFT values/proc = 3375 512
Neighbor list info ...
  1 neighbor list requests
  update every 1 steps, delay 0 steps, check yes
  master list distance cutoff = 11
Memory usage per processor = 4.06549 Mbytes
Step PotEng Lx Ly Lz Xy Xz Yz Press Pxx Pyy Pzz Pxy Pxz Pyz eatoms 
       0   -122.62677       4.2565       4.2565       4.2565            0            0            0    18600.794    18600.794    18600.794    18600.794 4.9707872e-11 4.7042733e-11 1.8950886e-10   -122.62677 
       5   -122.63132    4.2712858    4.2712858    4.2712858            0            0            0   -6.7076035   -6.7076035   -6.7076035   -6.7076035 9.5134085e-11 4.9732958e-12 8.6603347e-11   -122.63132 
Loop time of 0.00746918 on 1 procs for 5 steps with 8 atoms

Minimization stats:
  Stopping criterion = linesearch alpha is zero
  Energy initial, next-to-last, final = 
        -122.626768711     -122.631316441     -122.631316441
  Force two-norm initial, final = 2.68597 0.0019334
  Force max component initial, final = 2.68596 0.000975322
  Final line search alpha, max atom move = 0.00390625 3.80985e-06
  Iterations, force evaluations = 5 22

Pair  time (%) = 0.00205493 (27.5121)
Kspce time (%) = 0.00118208 (15.8261)
Neigh time (%) = 0 (0)
Comm  time (%) = 0.000223637 (2.99413)
Outpt time (%) = 0 (0)
Other time (%) = 0.00400853 (53.6676)

Nlocal:    8 ave 8 max 8 min
Histogram: 1 0 0 0 0 0 0 0 0 0
Nghost:    2189 ave 2189 max 2189 min
Histogram: 1 0 0 0 0 0 0 0 0 0
Neighs:    2344 ave 2344 max 2344 min
Histogram: 1 0 0 0 0 0 0 0 0 0

Total # of neighbors = 2344
Ave neighs/atom = 293
Neighbor list builds = 0
Dangerous builds = 0
unfix 1
# ---- define output variables ----
variable natoms equal "count(all)"
variable tot_energy equal "c_eatoms"
variable length_x equal "lx"
variable length_y equal "ly"
variable length_z equal "lz"
variable tilt_xy equal "xy"
variable tilt_xz equal "xz"
variable tilt_yz equal "yz"
variable tot_press equal "press"
variable press_xx equal "pxx"
variable press_yy equal "pyy"
variable press_zz equal "pzz"
variable press_xy equal "pxy"
variable press_xz equal "pxz"
variable press_yz equal "pyz"

# ---- output ----
print "pypospack:output_section:begin"
pypospack:output_section:begin
print "tot_energy = ${tot_energy}"
tot_energy = -122.631316441343
print "num_atoms = ${natoms}"
num_atoms = 8
print "xx = ${length_x}"
xx = 4.27128583299446
print "yy = ${length_y}"
yy = 4.27128583299446
print "zz = ${length_z}"
zz = 4.27128583299446
print "xy = ${tilt_xy}"
xy = 0
print "xz = ${tilt_xz}"
xz = 0
print "yz = ${tilt_yz}"
yz = 0
print "tot_press = ${tot_press}"
tot_press = -6.70760353710228
print "pxx = ${press_xx}"
pxx = -6.70760353705429
print "pyy = ${press_yy}"
pyy = -6.70760353725253
print "pzz = ${press_zz}"
pzz = -6.70760353700002
print "pxy = ${press_xy}"
pxy = 9.51340852761742e-11
print "pxz = ${press_xz}"
pxz = 4.97329584958765e-12
print "pyz = ${press_yz}"
pyz = 8.66033470907354e-11
print "pypospack:output_section:done"
pypospack:output_section:done
print "pypospack:lammps_sim:done"
pypospack:lammps_sim:done
#------------------------------------------------------------------------------
# RUN THERMOSTAT
# running using an NPT Nose-Hoover style thermostat
#------------------------------------------------------------------------------
variable tempdamp equal 0.1
variable pressdamp equal 1.0
# set initial velocities
velocity all create 800 5164502 mom yes dist gaussian loop all
# fix for Nose-Hoover style thermostat
fix 20 all npt temp 800 800 0.1 aniso 0.0 0.0 1.0 drag 1.0 couple xyz
variable boxx equal lx
variable boxy equal ly
variable boxz equal lz
variable boxp equal press
variable boxt equal temp
# calculate averages every 10000 steps
reset_timestep 0
fix 21 all ave/time 10 10 100 v_boxx v_boxy v_boxz v_boxp v_boxt file lattice.out
thermo_style custom step temp pe ke etotal press lx ly lz press pxx pyy pzz pxy pxz pyz vol
thermo_modify flush yes
thermo 100
run 100000
PPPM initialization ...
  G vector (1/distance) = 0.353246
  grid = 8 8 8
  stencil order = 5
  estimated absolute RMS force accuracy = 4.26311e-05
  estimated relative force accuracy = 2.96057e-06
  using double precision FFTs
  3d grid and FFT values/proc = 3375 512
Memory usage per processor = 3.06549 Mbytes
Step Temp PotEng KinEng TotEng Press Lx Ly Lz Press Pxx Pyy Pzz Pxy Pxz Pyz Volume 
       0          800   -122.63132   0.72385681   -121.90746    9914.6224    4.2712858    4.2712858    4.2712858    9914.6224    8293.5962    11391.977    10058.294    1700.8797   -5639.0214    -2068.727    77.924838 
     100    324.49082   -122.10275   0.29360611   -121.80915    11082.099    4.2963577    4.2963577    4.2963577    11082.099   -2454.1487    16801.403    18899.044   -213.37509    5979.2628    1684.5438    79.305131 
     200    484.53767   -122.05549   0.43841987   -121.61707   -20378.498    4.3140669    4.3140669    4.3140669   -20378.498   -20907.119   -24639.347   -15589.027    5445.9346    9907.9068   -126.67425    80.289845 
     300    608.69218    -121.9871   0.55075747   -121.43634    8936.2196    4.2912821    4.2912821    4.2912821    8936.2196   -5708.4887    38292.087   -5774.9398   -1203.1564   -2081.9886    3464.1629    79.024399 
     400     782.4364   -122.01605    0.7079649   -121.30808    31751.967    4.2913954    4.2913954    4.2913954    31751.967    38764.952    30732.073    25758.874    -9254.609    5508.8674   -1246.2021    79.030658 
     500    869.07369   -122.01192   0.78635614   -121.22557   -25928.559     4.332314     4.332314     4.332314   -25928.559   -22378.256    -17488.32   -37919.101   -953.86309    8799.9176    2872.9556    81.312961 
     600    625.51314   -121.74376   0.56597743   -121.17779   -20462.449    4.3114822    4.3114822    4.3114822   -20462.449   -39320.965      7865.78    -29932.16   -1895.5938    22217.988    6036.2415    80.145618 
     700    658.90781   -121.74607   0.59619364   -121.14987    42453.825    4.2741411    4.2741411    4.2741411    42453.825    31189.184    48882.101    47290.191    7881.7799    15558.512   -3520.4667    78.081218 
     800     923.0383   -122.00798   0.83518445   -121.17279   -22155.036     4.333036     4.333036     4.333036   -22155.036   -38713.257   -25983.499   -1768.3524   -335.16826   -1754.0359    3235.6319    81.353621 
     900    975.08007   -122.04592   0.88227294   -121.16365   -31803.856    4.3227475    4.3227475    4.3227475   -31803.856   -48740.493   -19688.704   -26982.372    3046.4781    20608.553   -6354.7635    80.775491 
    1000    471.00859    -121.5635   0.42617847   -121.13732    54737.631    4.2649579    4.2649579    4.2649579    54737.631     8545.462    103864.28    51803.152    4948.5307    18845.887   -15887.314    77.579012 
    1100    781.72655   -121.88086   0.70732261   -121.17354   -25177.188    4.3196111    4.3196111    4.3196111   -25177.188   -46007.221   -17025.412   -12498.932     4126.667   -6567.8269   -6497.6796    80.599796 
    1200    616.63788   -121.71559   0.55794691   -121.15765   -19555.246    4.3281969    4.3281969    4.3281969   -19555.246   -52725.525    19864.747   -25804.962    1664.1108    3565.2248   -6859.9865    81.081359 
    1300    903.47775   -121.96124   0.81748566   -121.14376    19593.211    4.2816495    4.2816495    4.2816495    19593.211   -11129.546    48821.088    21088.092   -5702.3546    22239.731    7610.7008    78.493436 
    1400    942.63413   -122.01519   0.85291517   -121.16227   -13638.719    4.3047521    4.3047521    4.3047521   -13638.719   -34828.357    3828.6544   -9916.4532    8034.7442     3420.623   -3838.7337    79.770888 
    1500    838.18653   -121.92313   0.75840879   -121.16472    -14219.39    4.3142492    4.3142492    4.3142492    -14219.39   -26970.611   -24130.563    8443.0031    844.89533   -7305.1104    3552.3594    80.300024 
    1600    698.84734   -121.80421   0.63233176   -121.17187    1442.7024    4.3076238    4.3076238    4.3076238    1442.7024   -45827.358    66114.657   -15959.192    3044.8124    7482.4027   -282.52546    79.930642 
    1700     1107.092   -122.17154    1.0017201   -121.16982   -2123.0596    4.2999188    4.2999188    4.2999188   -2123.0596    -16007.01    23988.612   -14350.781     519.7663   -952.17951    2753.3355    79.502498 
    1800    922.25618   -122.00743   0.83447677   -121.17296    23206.125    4.2999474    4.2999474    4.2999474    23206.125   -10210.071    56806.751    23021.693    4933.6788   -6375.9937     1756.138    79.504081 
    1900    788.34734   -121.88208   0.71331324   -121.16877   -44955.971    4.3358331    4.3358331    4.3358331   -44955.971   -76603.528    -26476.84   -31787.544    8756.8085   -3637.3367   -12931.602    81.511272 
    2000    876.12471   -121.95826   0.79273605   -121.16553   -5848.5313    4.2929242    4.2929242    4.2929242   -5848.5313   -35773.524     14248.66    3979.2698   -413.17453    1914.4915     927.0212    79.115149 
    2100    1036.3439   -122.09935   0.93770578   -121.16164    34587.852    4.2812843    4.2812843    4.2812843    34587.852    10317.102    42142.355      51304.1   -2237.6708   -977.05395   -5209.3267    78.473349 
    2200    820.47456   -121.89936   0.74238263   -121.15698   -52548.877    4.3441486    4.3441486    4.3441486   -52548.877   -74527.281   -40546.649   -42572.701    5132.8221   -8776.6666    8748.2408    81.981152 
    2300    609.63664   -121.72173   0.55161204   -121.17011   -1276.6373    4.2897547    4.2897547    4.2897547   -1276.6373   -29083.117   -3352.9491    28606.155    980.81472   -879.48976   -3481.8581    78.940044 
    2400    865.22988   -121.93911   0.78287818   -121.15623    32441.279    4.2741535    4.2741535    4.2741535    32441.279    14379.598    29798.415    53145.825   -4298.9307    11066.197    9163.8436    78.081894 
    2500    798.21861   -121.86946   0.72224497   -121.14721   -31056.793    4.3380394    4.3380394    4.3380394   -31056.793   -41432.563   -37225.683   -14512.133    -1564.375    43.891022    21353.757    81.635767 
    2600     592.4049   -121.68571    0.5360204   -121.14969    5090.5878      4.30026      4.30026      4.30026    5090.5878   -4102.9478    838.13686    18536.574   -4727.1857    1348.1802     3953.227    79.521424 
    2700    657.99398   -121.74598   0.59536678   -121.15062    12289.952    4.2908728    4.2908728    4.2908728    12289.952   -14193.609   -6740.3344    57803.799    1242.8501    3488.6513    6612.9453    79.001788 
    2800    950.15554   -122.01003    0.8597207   -121.15031   -12054.252    4.3133037    4.3133037    4.3133037   -12054.252   -3667.2073   -17912.968    -14582.58    4650.2919    3757.3104    8007.0913    80.247244 
    2900     857.4179   -121.93292   0.77580973   -121.15711    6409.8175    4.2960942    4.2960942    4.2960942    6409.8175    22236.193   -503.38617   -2503.3542   -10043.538    3317.6233    12147.349    79.290543 
    3000    488.81373   -121.61331   0.44228893   -121.17102   -22435.347     4.313859     4.313859     4.313859   -22435.347    -42820.65   -39848.138    15362.746   -8315.4117   -15641.486    2403.2566    80.278238 
    3100    826.45553   -121.91835   0.74779433   -121.17055    9339.0504     4.288779     4.288779     4.288779    9339.0504    2120.9335   -3292.6373    29188.855   -415.63552    7927.3948   -6879.4048    78.886195 
    3200    1134.3888   -122.19866    1.0264189   -121.17224    20464.385     4.286047     4.286047     4.286047    20464.385     13027.45    9780.0264    38585.678    259.86145   -3374.3209    7678.8699    78.735534 
    3300    563.66151   -121.67736   0.51001278   -121.16735    -50546.16    4.3334783    4.3334783    4.3334783    -50546.16   -62219.472   -54292.014   -35126.993   -4795.9466    3634.4381    11162.438    81.378536 
    3400    496.68734   -121.62303   0.44941314   -121.17361     16158.34     4.273736     4.273736     4.273736     16158.34   -18266.486    17862.177     48879.33   -5255.9363    12861.735    3047.3192    78.059014 
    3500    1124.5073   -122.19312    1.0174779   -121.17564    30927.234    4.2748365    4.2748365    4.2748365    30927.234    6272.7183    24690.533     61818.45     4814.249   -12969.768   -3275.3996    78.119335 
    3600    794.69196   -121.86984   0.71905399   -121.15079   -43242.813    4.3416362    4.3416362    4.3416362   -43242.813   -52474.205     -49890.6   -27363.635    3952.1378    8482.8172    7943.0608    81.838997 
    3700    377.26326   -121.51038   0.34135573   -121.16903     7719.594    4.2771362    4.2771362    4.2771362     7719.594    1964.4632    23255.164   -2060.8448    -1777.914    9464.2555    12287.878    78.245476 
    3800    763.79958   -121.85475   0.69110191   -121.16365     26987.16    4.2690155    4.2690155    4.2690155     26987.16    15163.043    13059.937      52738.5   -7356.5221   -1285.8182   -4009.1185    77.800644 
    3900    1255.3453   -122.27568    1.1358628   -121.13982   -35497.444    4.3298542    4.3298542    4.3298542   -35497.444   -38901.428   -39827.844    -27763.06    2188.1062    2363.6561   -1415.4612    81.174535 
    4000    632.50463   -121.72932   0.57230348   -121.15702    7586.7402    4.2901501    4.2901501    4.2901501    7586.7402     7341.115   -13151.756    28570.862    1525.2877     3833.797   -3053.5315    78.961875 
    4100    347.20748   -121.47667   0.31416062   -121.16251    2262.8016    4.2818915    4.2818915    4.2818915    2262.8016    4008.3858   -18990.121     21770.14   -9627.3007    10569.453    8586.5803    78.506744 
    4200    1073.3339   -122.13255   0.97117503   -121.16137    -13733.04    4.3044482    4.3044482    4.3044482    -13733.04   -25463.251   -21847.196    6111.3265    -4070.355    7451.5919   -716.93166    79.753997 
    4300    1022.6674   -122.08828   0.92533099   -121.16295    2531.0332    4.3014723    4.3014723    4.3014723    2531.0332   -5763.6125    6552.4186    6804.2936   -2480.6327   -10210.372    6150.8857    79.588694 
    4400    408.83005   -121.54492   0.36991802     -121.175   -12026.315    4.2946295    4.2946295    4.2946295   -12026.315    3807.2014    229.60039   -40115.745   -5036.0365    2230.7405    9625.3913     79.20947 
    4500    607.30812   -121.72234   0.54950515   -121.17284     8667.894    4.2859731    4.2859731    4.2859731     8667.894    6809.5482    16270.106    2924.0276   -11529.902    9137.4028   -7416.1892    78.731463 
    4600    1073.7512   -122.13947    0.9715527   -121.16792    4280.1451    4.3080818    4.3080818    4.3080818    4280.1451   -342.24072    1484.9586    11697.717    -5225.901   -3458.5914    3623.2829    79.956138 
    4700    828.87877   -121.92159   0.74998693    -121.1716   -2918.9403    4.2995569    4.2995569    4.2995569   -2918.9403    11859.736   -5716.7151   -14899.841    982.79905   -12452.862   -3504.2293    79.482423 
    4800    443.50947   -121.56817   0.40129669   -121.16687    17161.073    4.2764533    4.2764533    4.2764533    17161.073    19603.761    12576.291    19303.168    2190.0577   -3280.8074     3966.333    78.208004 
    4900    914.92057   -122.00142   0.82783936   -121.17358   -17950.144    4.3078118    4.3078118    4.3078118   -17950.144   -2772.1543   -35270.218   -15808.059   -7.4325153     11861.12   -1773.1816    79.941108 
    5000    1186.5863   -122.23524    1.0736482   -121.16159   -4760.3512    4.3032531    4.3032531    4.3032531   -4760.3512   -5608.0428   -13357.542    4684.5318    -4591.178   -7435.8081   -2035.6521    79.687584 
    5100    697.96617   -121.79493   0.63153446   -121.16339   -2679.4235    4.2802911    4.2802911    4.2802911   -2679.4235   -17389.545    19674.673   -10323.399    6335.3828   -16358.121      5794.66    78.418752 
    5200     451.2005   -121.58186    0.4082557    -121.1736   -14506.442    4.2948077    4.2948077    4.2948077   -14506.442   -17719.355   -13617.892   -12182.078    3804.5439    2222.7289   -127.54476    79.219333 
    5300     1105.767   -122.16556    1.0005212   -121.16504   -9658.6245    4.3055253    4.3055253    4.3055253   -9658.6245    14307.204   -23447.651   -19835.426    3413.0114    4320.3669    8215.0921    79.813882 
    5400    949.24751   -122.02279    0.8588991   -121.16389    3005.0347    4.2939807    4.2939807    4.2939807    3005.0347   -5022.5713    2948.7799    11088.896   -555.07929   -13933.632   -4101.7921    79.173575 
    5500     433.5811   -121.56198    0.3923133   -121.16966    2077.3196     4.283255     4.283255     4.283255    2077.3196    19886.357    9333.0238   -22987.422   -3236.8747   -19430.891    1845.8185    78.581768 
    5600    670.90857   -121.78276   0.60705218   -121.17571   -6342.4759    4.3027908    4.3027908    4.3027908   -6342.4759    16492.167    -17257.83   -18261.764     3929.394    3423.7008    5332.2902    79.661905 
    5700    1193.5114   -122.24566    1.0799142   -121.16575   -2995.4984    4.3041598    4.3041598    4.3041598   -2995.4984   -279.55723   -18218.965    9512.0267   -1638.6419    4708.1861   -8836.2919    79.737966 
    5800    998.79272   -122.07216   0.90372864   -121.16843    12063.231     4.273252     4.273252     4.273252    12063.231     12763.66    17572.712    5853.3198   -12202.858   -18295.711    4048.6716    78.032497 
    5900    233.58566   -121.40087   0.21135321   -121.18951    4360.2117     4.296336     4.296336     4.296336    4360.2117   -5419.1962    4129.7682    14370.063   -1392.6149   -12773.844     929.0774    79.303933 
    6000    943.36603   -122.02857   0.85357741     -121.175   -24952.211    4.3130151    4.3130151    4.3130151   -24952.211     89.02336   -35593.901   -39351.755    74.151495    4694.1864    6611.0206    80.231133 
    6100    1258.8729    -122.2968    1.1390546   -121.15775    42437.707    4.2664686    4.2664686    4.2664686    42437.707    44719.337    28120.435    54473.349    3120.9052    3790.6374   -4047.6538    77.661478 
    6200    535.42367   -121.66712   0.48446259   -121.18266   -5247.3191    4.2966798    4.2966798    4.2966798   -5247.3191     3128.611    -5755.287   -13115.281    1273.2146   -18929.695    3656.7671     79.32297 
    6300    364.53445   -121.50097   0.32983843   -121.17113   -34331.666     4.312933     4.312933     4.312933   -34331.666   -26360.657   -21505.539   -55128.802   -8290.7371   -22004.212    432.65483    80.226554 
    6400    1044.7824    -122.1002   0.94534106   -121.15486    32751.834    4.2679635    4.2679635    4.2679635    32751.834    41899.797    22825.956    33529.748    8339.3829    639.32098   -2007.6289     77.74314 
    6500    1216.3379   -122.26588    1.1005681   -121.16531   -8796.4087    4.2952202    4.2952202    4.2952202   -8796.4087   -12683.975   -11191.881   -2513.3703    6192.5233    5301.7412    4757.8724    79.242159 
    6600    426.56643    -121.5582   0.38596627   -121.17223    -6611.384    4.3039152    4.3039152    4.3039152    -6611.384   -7703.2696   -5224.1553   -6906.7272    -7147.229   -13037.916   -8094.2512    79.724377 
    6700    579.65448   -121.69289   0.52448355   -121.16841    14762.012    4.2873442    4.2873442    4.2873442    14762.012     15769.82    32862.515   -4346.2978   -6587.7691    -17818.31    4123.4272    78.807048 
    6800      1102.26   -122.15785   0.99734802    -121.1605     8419.169    4.2960888    4.2960888    4.2960888     8419.169    12635.992    4320.5971     8300.918     -1955.92    188.29283   -3977.7707    79.290241 
    6900    991.03759   -122.06214   0.89671164   -121.16543    15191.843    4.2851056    4.2851056    4.2851056    15191.843    18547.969    8387.8221    18639.737      11787.9    3532.7125   -2877.5278    78.683665 
    7000    419.57184   -121.56006   0.37963742   -121.18043   -12547.089    4.2990873    4.2990873    4.2990873   -12547.089   -29707.219    4366.1376   -12300.185    2880.9777   -12252.673   -1240.5218    79.456382 
    7100     760.8401   -121.86308   0.68842411   -121.17466   -12348.963    4.2945416    4.2945416    4.2945416   -12348.963   -5479.5166    3143.5675   -34710.939   -5295.7011   -20693.199   -12824.276    79.204607 
    7200    1260.9916   -122.30513    1.1409717   -121.16415    18887.141    4.2789569    4.2789569    4.2789569    18887.141    20559.326    18377.425    17724.674    7060.1028    309.37041    8824.3173    78.345441 
    7300    740.28593   -121.84302   0.66982627   -121.17319   -21583.245    4.3068971    4.3068971    4.3068971   -21583.245    -18621.69   -32890.323   -13237.722    12301.984    5129.5911   -5172.9889    79.890196 
    7400    455.13383    -121.5863   0.41181465   -121.17449   -7939.8852    4.2907747    4.2907747    4.2907747   -7939.8852   -1959.1056   -1093.0318   -20767.518    6927.1097   -16738.158    1880.3738    78.996372 
    7500    936.60843   -122.01613   0.84746299   -121.16866    14669.404    4.2842637    4.2842637    4.2842637    14669.404    22081.381    22681.278   -754.44661   -5964.1388   -20950.781    5404.1532    78.637297 
    7600      1216.26   -122.26236    1.1004976   -121.16186   -14768.049    4.3051259    4.3051259    4.3051259   -14768.049    -16725.25   -15278.433   -12300.464   -2566.6303    5962.7809   -6823.3421    79.791672 
    7700    589.60207   -121.70515   0.53348435   -121.17166    3917.1599    4.2872701    4.2872701    4.2872701    3917.1599   -4309.0071    5219.2329    10841.254     3178.751    5862.1579    9065.2116     78.80296 
    7800    574.27565   -121.69614   0.51961668   -121.17652   -1549.2356    4.2914393    4.2914393    4.2914393   -1549.2356   -14581.024    16244.159   -6310.8421   -3499.2088   -9679.6735   -2968.7608    79.033083 
    7900    1057.8574   -122.12245    0.9571716   -121.16528   -2477.2018    4.3056119    4.3056119    4.3056119   -2477.2018    3202.8494   -235.91479    -10398.54    1497.5879   -9947.1693   -8396.9857      79.8187 
    8000    828.80522   -121.91376   0.74992038   -121.16384    22032.166    4.2891675    4.2891675    4.2891675    22032.166    28727.187    32404.664    4964.6455    12740.313    8366.9839    7867.5125    78.907633 
    8100    326.77836   -121.46869   0.29567593   -121.17301   -2187.3344    4.2988818    4.2988818    4.2988818   -2187.3344   -8842.5823   -1002.7433    3283.3224    15573.946    10190.657   -6969.2483    79.444989 
    8200     663.4544   -121.76885   0.60030748   -121.16854   -4487.4475    4.2996582    4.2996582    4.2996582   -4487.4475   -4652.5517   -6544.9118   -2264.8788    6479.8833   -6193.7146    2277.8258    79.488041 
    8300     1192.199   -122.23773    1.0787267     -121.159    20827.662    4.2838776    4.2838776    4.2838776    20827.662     11356.78    37667.439    13458.768   -5878.7711   -1391.8974    536.01555     78.61604 
    8400    824.93115   -121.92009   0.74641504   -121.17367    -24237.61    4.3043941    4.3043941    4.3043941    -24237.61   -29944.398   -21389.466   -21378.966    12503.322     7176.703   -7099.5069    79.750989 
    8500    409.92754   -121.54916   0.37091106   -121.17825   -13567.529    4.2925386    4.2925386    4.2925386   -13567.529   -35354.962   -32660.388    27312.762    11280.455    9969.6433    5012.6695    79.093835 
    8600    1044.5871   -122.11496   0.94516434   -121.16979    9341.8848    4.2854484    4.2854484    4.2854484    9341.8848   -9027.7266     19687.11    17366.271   -6028.4032   -2038.2032   -5366.4058    78.702549 
    8700    1191.9483   -122.23956    1.0784998   -121.16106   -13754.714    4.3117663    4.3117663    4.3117663   -13754.714   -24834.905   -2953.8596   -13475.378   -7182.1824   -6080.8917    4982.8602    80.161465 
    8800    730.62651   -121.83006   0.66108622   -121.16898    4713.2575    4.2828788    4.2828788    4.2828788    4713.2575    6513.2472   -10632.925     18259.45    15039.898    2555.0486    11669.898    78.561061 
    8900    387.94459   -121.52761   0.35102042   -121.17659    11376.128    4.2873503    4.2873503    4.2873503    11376.128   -7151.3062    15453.378    25826.311    16455.266    7585.9203   -4107.8561    78.807385 
    9000    1109.5853   -122.16577    1.0039761   -121.16179   -21787.346    4.3105747    4.3105747    4.3105747   -21787.346    -32871.22   -14637.879   -17852.939   -6318.3923    995.95503    7639.9121    80.095021 
    9100    1049.3415   -122.10874   0.94946621   -121.15928    25911.417    4.2769593    4.2769593    4.2769593    25911.417    40692.905    12825.852    24215.494    293.46874    -6845.371    3525.1761     78.23577 
    9200    471.86039     -121.603    0.4269492   -121.17605   -9854.0363    4.2899881    4.2899881    4.2899881   -9854.0363   -9310.3971    -11578.39   -8673.3215    18014.877    762.84329    8792.6841     78.95293 
    9300    616.59568   -121.73098   0.55790873   -121.17307   -24198.897    4.3033658    4.3033658    4.3033658   -24198.897   -36795.052   -29280.457   -6521.1806    22484.513    14289.102   -2290.1763    79.693847 
    9400    1069.5615   -122.12981   0.96776175   -121.16205    19800.028    4.2875982    4.2875982    4.2875982    19800.028    20824.477    6418.9118    32156.694   -1572.5494    7822.8868   -5370.1021    78.821054 
    9500    825.03802   -121.91435   0.74651174   -121.16784   -7933.5493    4.2988641    4.2988641    4.2988641   -7933.5493     1874.468   -21987.318   -3687.7975   -4129.0407   -4775.9638    13834.539    79.444006 
    9600    338.67607   -121.48013   0.30644122   -121.17369    -912.4093    4.2912485    4.2912485    4.2912485    -912.4093   -2480.9128   -15653.368    15397.053    16429.976    -7535.355   -1072.2959    79.022543 
    9700    859.30599   -121.94885   0.77751812   -121.17134    4053.3038    4.2916321    4.2916321    4.2916321    4053.3038    6636.7785   -7148.1784    12671.311    11189.185    8214.5751    -4114.886    79.043735 
    9800    1274.4644   -122.31597    1.1531622   -121.16281   -9858.6139    4.3031844    4.3031844    4.3031844   -9858.6139   -8826.4063   -19183.417   -1566.0182   -1713.7291    1258.1661    4072.5433     79.68377 
    9900     810.2798   -121.90597   0.73315819   -121.17282   -3336.9822    4.2827817    4.2827817    4.2827817   -3336.9822   -351.43263   -796.83419   -8862.6797    -4699.136   -15026.633    5876.2038    78.555721 
   10000    405.11342   -121.54814   0.36655513   -121.18158   -4097.9423    4.2905149    4.2905149    4.2905149   -4097.9423    7551.9208       -11820   -8025.7474    12310.865   -12424.158    4297.4755     78.98202 
   10100    1055.2319    -122.1223     0.954796    -121.1675   -20321.619    4.3102609    4.3102609    4.3102609   -20321.619   -30033.914   -33436.195    2505.2532    16853.875   -4986.7668   -965.54667    80.077534 
   10200    1074.5277    -122.1341   0.97225523   -121.16184    18191.431    4.2795062    4.2795062    4.2795062    18191.431    882.59842    19305.221    34386.475   -17013.446    4129.6348   -3612.4341    78.375617 
   10300    458.34877   -121.58774    0.4147236   -121.17302    3297.1083     4.283131     4.283131     4.283131    3297.1083   -6237.3285   -10827.451    26956.104    -8164.828   -2878.3195   -593.13352    78.574945 
   10400    488.82604   -121.61557   0.44230008   -121.17327   -26660.119    4.3083736    4.3083736    4.3083736   -26660.119   -12385.956   -47394.286   -20200.115     14016.02   -13224.022    16969.756    79.972388 
   10500    1106.7003    -122.1638    1.0013657   -121.16243    11956.758    4.2829943    4.2829943    4.2829943    11956.758    2215.6146     14458.59    19196.071     2240.317    3199.1204   -137.06177    78.567418 
   10600    921.54869   -122.00059   0.83383662   -121.16675    -2805.503    4.2881575    4.2881575    4.2881575    -2805.503   -5212.2099   -9397.9247    6193.6255   -10757.936    11093.083   -2300.4269    78.851903 
   10700    462.93436   -121.59089   0.41887273   -121.17202   -18394.755    4.3010451    4.3010451    4.3010451   -18394.755   -13061.898   -18688.944   -23433.425   -11517.748   -3602.8705    9875.1592    79.564985 
   10800    845.90295   -121.93276   0.76539076   -121.16737    10008.188    4.2858396    4.2858396    4.2858396    10008.188    11834.625    5410.2881     12779.65     9771.553   -12497.447    6406.0712    78.724105 
   10900    1155.5849   -122.20926    1.0455975   -121.16367    9166.3441    4.2898096    4.2898096    4.2898096    9166.3441    6301.3235    9409.6428    11788.066   -2278.3636    1169.4093    11181.892    78.943075 
   11000     591.0606   -121.70945   0.53480405   -121.17465    11882.645    4.2881882    4.2881882    4.2881882    11882.645   -12937.532    15360.836     33224.63   -20621.874    17135.125   -10099.234    78.853599 
   11100     510.8567   -121.64283   0.46223388    -121.1806   -4677.6915    4.2932756    4.2932756    4.2932756   -4677.6915   -21087.502    10220.167   -3165.7391   -11097.108     7120.448    4547.6371     79.13458 
   11200    1095.8959   -122.16136   0.99158967   -121.16977   -1463.3302    4.2947643    4.2947643    4.2947643   -1463.3302   -669.25925    7875.1323   -11595.864    3292.1282   -6945.6843    2848.2028    79.216928 
   11300    1171.3595   -122.22705    1.0598707   -121.16717    12725.786    4.2825144    4.2825144    4.2825144    12725.786    4909.9743     19730.06    13537.325    1210.3344    5439.5566    1347.9693    78.541011 
   11400    458.11245   -121.59298   0.41450978   -121.17847   -19485.028    4.2994684    4.2994684    4.2994684   -19485.028   -44481.877    1952.1485   -15925.354   -21946.821    17599.399   -819.85224    79.477517 
   11500    542.43469   -121.66721   0.49080631    -121.1764   -11791.289     4.295931     4.295931     4.295931   -11791.289   -15836.563   -12442.845   -7094.4596   -11616.342    6029.6439   -14707.967    79.281507 
   11600    1250.9422   -122.29405    1.1318788   -121.16217    17147.762    4.2829928    4.2829928    4.2829928    17147.762    13403.551    9224.2478    28815.488    6023.3075   -2286.9739    6051.6241    78.567335 
   11700    809.75702    -121.9018   0.73268517   -121.16911    423.97325    4.2995302    4.2995302    4.2995302    423.97325   -15989.733   -4813.9244    22075.577   -5458.4884    250.04071   -700.96988    79.480942 
   11800    334.26519   -121.47675   0.30245017    -121.1743   -865.46587    4.2941367    4.2941367    4.2941367   -865.46587    -17661.67   -3404.9186    18470.191   -14541.767    15700.855   -1906.0385    79.182207 
   11900    778.13028   -121.87239   0.70406863   -121.16832    9826.7992    4.2867801    4.2867801    4.2867801    9826.7992    9014.0798    6418.8623    14047.456   -11562.234    8714.8998   -8336.7195    78.775946 
   12000    1256.4085   -122.30049    1.1368248   -121.16366    3065.4814    4.2918552    4.2918552    4.2918552    3065.4814   -1660.7952    9915.6037    941.63558    10664.368   -674.19399   -8207.4456    79.056062 
   12100    684.72395   -121.79186   0.61955262   -121.17231   -1221.0632    4.2967153    4.2967153    4.2967153   -1221.0632   -1301.2267   -6982.1465    4620.1837    2066.4874    2583.3808    3917.1233    79.324935 
   12200     563.1721   -121.68172   0.50956995   -121.17215   -19105.263    4.2980882    4.2980882    4.2980882   -19105.263    -46072.61   -9824.6848   -1418.4928   -24848.654    6154.1164   -5855.4133    79.401002 
   12300    1060.3612     -122.124   0.95943709   -121.16456    7376.0825    4.2831275    4.2831275    4.2831275    7376.0825    4733.6185    18790.912    -1396.283   -5713.8117    13057.626    1182.8411    78.574751 
   12400    1129.1607   -122.18863    1.0216884   -121.16694   -3240.9586    4.2933819    4.2933819    4.2933819   -3240.9586   -10363.296    110.27266    530.14709    15255.279   -7729.7091   -7321.7498    79.140459 
   12500    461.77517   -121.59324   0.41782387   -121.17542   -15582.629    4.3015909    4.3015909    4.3015909   -15582.629   -40774.398    -10085.81    4112.3217   -623.58925   -8308.3784    2179.8099     79.59528 
   12600      585.464   -121.70293   0.52974013   -121.17319    9571.8087    4.2839768    4.2839768    4.2839768    9571.8087   -19067.863    15903.924    31879.365   -20295.119    3115.0704    4083.5052    78.621501 
   12700    1115.2642   -122.17536    1.0091145   -121.16625     9925.312    4.2955283    4.2955283    4.2955283     9925.312    9698.8494    4118.6684    15958.418   -6720.9802   -1864.6671   -1648.6191     79.25921 
   12800    916.56033   -121.99742   0.82932305    -121.1681    2648.3358    4.2963028    4.2963028    4.2963028    2648.3358   -19167.335    14442.041    12670.301    16507.276    -153.1307    4591.5891     79.30209 
   12900    389.23953   -121.52664    0.3521921   -121.17445    1335.7884    4.2870223    4.2870223    4.2870223    1335.7884   -37614.979    11023.368    30598.977   -3224.0035   -9150.7808   -2281.5087    78.789295 
   13000    569.99348   -121.69152   0.51574208   -121.17578   -5013.3885    4.2982746    4.2982746    4.2982746   -5013.3885   -8088.1929   -17770.852    10818.879   -20027.861    159.59707    6204.7798    79.411331 
   13100    1202.8115   -122.25447    1.0883291   -121.16614    6611.1457    4.2860244    4.2860244    4.2860244    6611.1457   -2104.7662    10430.139    11508.064   -3268.8701    2067.0452    4572.9989    78.734292 
   13200    785.95895   -121.88377   0.71115217   -121.17262     8456.604    4.2865678    4.2865678    4.2865678     8456.604    3640.1905    5498.2689    16231.352    23278.426    227.97092   -2952.6314    78.764241 
   13300    437.95266   -121.57221   0.39626877   -121.17595   -24199.829    4.3046071    4.3046071    4.3046071   -24199.829   -56409.272   -34756.293    18566.077   -6357.5408    1693.0397   -2413.2675    79.762828 
   13400    704.64347   -121.80562   0.63757622   -121.16805    10475.861    4.2869627    4.2869627    4.2869627    10475.861   -12442.509    12779.753    31090.339   -26679.656   -2422.3372   -4456.8389     78.78601 
   13500    1105.0299   -122.16259    0.9998543   -121.16274    12995.225    4.2883734    4.2883734    4.2883734    12995.225    1548.4746    18183.413    19253.789    7695.8269    6562.2676    5574.1622    78.863815 
   13600    669.74056   -121.77619   0.60599533    -121.1702    -2214.311     4.300501     4.300501     4.300501    -2214.311   -18063.129    3558.2298    7861.9664    14127.477    9205.1024   -532.63557    79.534794 
   13700    473.79698   -121.59908   0.42870146   -121.17038    1410.9289    4.2914635    4.2914635    4.2914635    1410.9289   -35273.105    13963.056    25542.835   -7543.0434    3571.8316   -720.17744    79.034419 
   13800    948.32828   -122.02322   0.85806736   -121.16515      2095.19    4.2928582    4.2928582    4.2928582      2095.19   -13217.158    1754.7235    17748.004   -22569.459   -1339.0447   -241.74674    79.111502 
   13900    1143.0294   -122.19734    1.0342371    -121.1631   -4337.0645    4.2970806    4.2970806    4.2970806   -4337.0645   -3755.0376    3475.1785   -12731.335    3222.2253    9356.2669     2319.717     79.34517 
   14000    655.78008   -121.76406    0.5933636    -121.1707   -9599.3851    4.2907875    4.2907875    4.2907875   -9599.3851   -30507.686    13449.215   -11739.684     9405.423    18545.072    7437.8132    78.997074 
   14100     643.3943   -121.75317   0.58215669   -121.17101   -12084.122    4.2908818    4.2908818    4.2908818   -12084.122   -31377.297   -10686.679    5811.6103   -17056.791    -2224.014    4672.1382    79.002283 
   14200    1195.2097   -122.24564    1.0814508   -121.16419   -16927.925    4.3029577    4.3029577    4.3029577   -16927.925   -14795.076   -22801.634   -13187.065   -12360.694   -5750.3751    5768.4924    79.671179 
   14300    935.15687   -122.01023   0.84614959   -121.16408   -4029.5528     4.294831     4.294831     4.294831   -4029.5528   -6534.9274    11048.108   -16601.839    7222.9308    14061.189   -659.78622    79.220622 
   14400    621.50363   -121.72841   0.56234955   -121.16606    848.87283    4.2823811    4.2823811    4.2823811    848.87283   -22836.844    12845.542    12537.921    4354.4423    15285.983    -304.9571     78.53368 
   14500    734.63578   -121.83448   0.66471389   -121.16977   -5510.4239    4.3045357    4.3045357    4.3045357   -5510.4239   -2924.3856   -23569.861     9962.975   -11095.347   -1429.2376    2009.3459    79.758862 
   14600    1174.3567   -122.22108    1.0625826   -121.15849   -6936.4142    4.3006777    4.3006777    4.3006777   -6936.4142   -7706.6099    -11639.22   -1463.4123   -12499.173   -1617.1074   -1483.4155    79.544596 
   14700    616.39445   -121.71788   0.55772665   -121.16015    21756.834    4.2788106    4.2788106    4.2788106    21756.834    19874.912    32982.527    12413.063    15377.845    19508.682   -6230.3368    78.337406 
   14800    442.08699   -121.57421    0.4000096    -121.1742   -11577.209    4.2977512    4.2977512    4.2977512   -11577.209   -28054.689    4160.7533   -10837.692    8550.5446    20955.566   -4217.7231    79.382326 
   14900    906.21925   -121.98662   0.81996622   -121.16666     3322.044    4.2968439    4.2968439    4.2968439     3322.044   -2508.4395    4849.2734    7625.2981   -9885.8896    -459.6479   -688.19357    79.332058 
   15000    1107.0461   -122.16222    1.0016786   -121.16054    18372.566    4.2850677    4.2850677    4.2850677    18372.566    15731.102    25011.306     14375.29    531.35343    2715.6837   -7903.1234    78.681579 
   15100    495.58658   -121.62314   0.44841716   -121.17472   -5102.5557    4.2963635    4.2963635    4.2963635   -5102.5557   -28868.798    36235.935   -22674.804    9534.9578    22027.327   -11963.885    79.305454 
   15200    404.51271   -121.54089    0.3660116   -121.17487    70.459041    4.2959767    4.2959767    4.2959767    70.459041   -11654.032    23297.038   -11431.629    6775.2296    5674.5861    -7744.159    79.284039 
   15300    1107.8903   -122.16534    1.0024424    -121.1629    7063.8767    4.2908664    4.2908664    4.2908664    7063.8767    8326.5241    10301.176    2563.9296   -9764.0803   -8866.6704    -1045.606    79.001433 
   15400    989.00536   -122.06086   0.89487283   -121.16599    6626.5866    4.2897317    4.2897317    4.2897317    6626.5866    9896.9331    25980.908   -15998.081   -4593.9654    13601.208    1777.5031    78.938778 
   15500    453.77267   -121.58747   0.41058305   -121.17688   -5141.4195    4.2901634    4.2901634    4.2901634   -5141.4195   -9325.4321    25083.836   -31182.662    6875.2285    27599.605   -4442.2601     78.96261 
   15600    521.95299   -121.64947   0.47227404    -121.1772   -9343.9454    4.2955769    4.2955769    4.2955769   -9343.9454   -23493.577    13943.846   -18482.105    11588.325   -3656.3942   -5269.2293    79.261904 
   15700    1110.6234   -122.17198    1.0049154   -121.16707    3823.4897    4.2880165    4.2880165    4.2880165    3823.4897    13158.793    5170.1053   -6858.4293     12223.37   -16491.586    1002.8756    78.844124 
   15800    945.71231   -122.02605   0.85570037   -121.17035   -570.67245    4.2902182    4.2902182    4.2902182   -570.67245    715.48826    16545.186   -18972.692    -9202.503    17770.855    8573.9665    78.965634 
   15900    455.53603   -121.58509   0.41217858   -121.17291   -16257.927    4.3017539    4.3017539    4.3017539   -16257.927   -19028.711   -5853.6978   -23891.373    11742.237    21957.941    2379.1838    79.604327 
   16000    747.41225   -121.84191   0.67627431   -121.16563    4667.0522    4.2898595    4.2898595    4.2898595    4667.0522    17662.015    2225.9346   -5886.7932    15560.666   -2620.0832   -365.08255    78.945834 
   16100     1283.112   -122.32109    1.1609867    -121.1601    12575.931    4.2820898    4.2820898    4.2820898    12575.931    24344.095     9128.812    4254.8869   -5495.1435   -12095.416    4904.7946    78.517653 
   16200    763.36126   -121.86154   0.69070531   -121.17083    739.66226     4.296114     4.296114     4.296114    739.66226    20916.541   -10166.272    -8531.282   -1362.6438    19427.752    7974.8239     79.29164 
   16300    491.62271   -121.61896   0.44483056   -121.17413   -10241.619    4.2996655    4.2996655    4.2996655   -10241.619    2413.7198   -8987.0645   -24151.512     978.0335    25444.212    5961.9905    79.488444 
   16400    1085.2331   -122.14989   0.98194175   -121.16795     10758.93    4.2822532    4.2822532    4.2822532     10758.93    16184.767     15870.31    221.71369     12508.76   -11144.565   -2536.0734    78.526644 
   16500    1239.7328   -122.28658    1.1217363   -121.16484    14003.247       4.2883       4.2883       4.2883    14003.247    27427.878     2713.959    11867.904   -1720.2223    273.19083     55.69815    78.859764 
   16600    484.63605   -121.61375   0.43850888   -121.17524    -12496.55    4.3035225    4.3035225    4.3035225    -12496.55    9550.4291    -21972.92   -25067.161    -9558.804    22022.131    3258.7804    79.702555 
   16700    455.15916     -121.585   0.41183757   -121.17316   -619.22148    4.2891366    4.2891366    4.2891366   -619.22148    9440.6549    10963.051   -22261.371    3108.1138    25660.571    4462.0258    78.905929 
   16800    1082.4254   -122.14826   0.97940121   -121.16886     11883.77    4.2896227    4.2896227    4.2896227     11883.77    21401.568    6220.2974    8029.4442    3339.2944   -3456.0633     2040.369     78.93276 
   16900    1150.8809   -122.20975    1.0413412   -121.16841   -2602.8051    4.2941735    4.2941735    4.2941735   -2602.8051   -3703.3054   -8501.0403    4395.9304    8020.0543   -5747.0989   -2678.4511     79.18424 
   17000    420.00565   -121.55831   0.38002994   -121.17828   -451.37277    4.2854045    4.2854045    4.2854045   -451.37277   -6800.5571    21269.356   -15822.917   -6630.7673    32956.081    1597.4809    78.700133 
   17100    404.18098    -121.5503   0.36571145   -121.18458   -6250.9259     4.295762     4.295762     4.295762   -6250.9259   -2526.4058   -6846.0043   -9380.3675    -6188.385    21959.707    4148.9447    79.272151 
   17200    1256.1304   -122.30667    1.1365732    -121.1701   -830.61708    4.2928879    4.2928879    4.2928879   -830.61708    3189.9384   -15329.163    9647.3737    3541.5387   -3913.9213   -2219.6019    79.113145 
   17300     1025.335   -122.09804   0.92774462    -121.1703    20658.027    4.2827869    4.2827869    4.2827869    20658.027    36983.832    11741.499    13248.749   -1936.4872   -8460.8584   -6267.5616    78.556004 
   17400    509.44752   -121.64063   0.46095882   -121.17968   -19639.485     4.300214     4.300214     4.300214   -19639.485   -16407.901   -6441.1013   -36069.453     -1481.78    23146.723    4208.1133     79.51887 
   17500     590.8598   -121.70955   0.53462237   -121.17493   -2227.2216    4.2927883    4.2927883    4.2927883   -2227.2216    612.72988   -10085.709    2791.3138    -11627.85    26245.767     2825.462     79.10764 
   17600    1214.3409   -122.26352    1.0987612   -121.16476    14400.817    4.2810707    4.2810707    4.2810707    14400.817     19498.89   -3879.9153    27583.476   -6859.1695   -10505.109    3960.0914    78.461607 
   17700    909.00311   -121.99484   0.82248512   -121.17236   -1464.7384     4.291885     4.291885     4.291885   -1464.7384    -4930.561    3986.9264   -3450.5807    10439.109   -12462.629   -2307.0617     79.05771 
   17800     464.5341   -121.59859   0.42032022   -121.17827   -2298.4767    4.2920296    4.2920296    4.2920296   -2298.4767    5657.2462    4879.2678   -17431.944   -6277.9923     13719.15     69.48536    79.065699 
   17900     729.5486    -121.8352   0.66011091   -121.17508   -3437.0651    4.2912226    4.2912226    4.2912226   -3437.0651    17863.613   -8021.5228   -20153.286   -6627.4711    28197.211    9660.6276    79.021112 
   18000    1106.0236   -122.16912    1.0007534   -121.16837    18473.783    4.2789201    4.2789201    4.2789201    18473.783    42624.882    7194.9324    5601.5361    10263.037   -4763.1641   -4776.8863    78.343419 
   18100    788.73097   -121.89106   0.71366035    -121.1774   -2697.2988    4.2924173    4.2924173    4.2924173   -2697.2988    9224.9504     2131.512   -19448.359    5654.8986   -21341.477    4555.0872    79.087129 
   18200    438.60837   -121.57225   0.39686207   -121.17538   -26308.105    4.3025024    4.3025024    4.3025024   -26308.105   -15286.755   -7968.2172   -55669.342    4361.9313    20042.649     3606.129    79.645891 
   18300    917.40368   -121.99821   0.83008613   -121.16813    12597.672    4.2705858    4.2705858    4.2705858    12597.672    15304.168    31670.492   -9181.6441   -6288.0492     29344.69   -435.45986    77.886529 
   18400    1158.4125   -122.21926    1.0481559    -121.1711     4788.763    4.2886715    4.2886715    4.2886715     4788.763    10771.518   -1215.7195    4810.4901    3373.5017   -2179.0806    3917.0958    78.880263 
   18500    710.98016    -121.8156   0.64330979   -121.17229   -23483.336    4.3054915    4.3054915    4.3054915   -23483.336   -20243.802   -16730.742   -33475.463    18501.885   -12363.514   -5518.3576    79.812002 
   18600    472.05183    -121.5977   0.42712241   -121.17058    4313.4984    4.2741326    4.2741326    4.2741326    4313.4984   -2191.3144    31874.791   -16742.981   -12.406511    22329.502   -363.19213    78.080748 
   18700    853.35782   -121.94512   0.77213609   -121.17298    1866.0455    4.2878197    4.2878197    4.2878197    1866.0455    8360.2132    13220.621   -15982.698   -1595.5906    24715.436    1220.8156    78.833272 
   18800    1203.9049   -122.25258    1.0893185   -121.16327   -12573.599    4.2991701    4.2991701    4.2991701   -12573.599   -7284.6718     -17112.8   -13323.326    2675.9183   -8225.3688   -3499.6704    79.460973 
   18900    576.11934   -121.69107   0.52128489   -121.16979     13219.18    4.2805529    4.2805529    4.2805529     13219.18    10919.164    13782.487    14955.889   -651.86265    355.63864   -721.64752    78.433143 
   19000    592.83518   -121.70974   0.53640973   -121.17333   -12275.452    4.2882782    4.2882782    4.2882782   -12275.452   -22377.164    19308.159   -33757.352    9088.3093    14452.546   -5975.1177    78.858565 
   19100    976.20279   -122.05219    0.8832888    -121.1689   -2279.8422    4.2896121    4.2896121    4.2896121   -2279.8422   -208.49448    12574.059   -19205.091   -8167.7507    14491.352    4287.3401    78.932176 
   19200    855.91134   -121.94365   0.77444656    -121.1692    13809.134    4.2897218    4.2897218    4.2897218    13809.134    12277.821    4010.3295    25139.251   -13883.793    -2044.048    1188.0993    78.938229 
   19300    774.88864    -121.8723   0.70113553   -121.17116   -12240.163    4.2930721    4.2930721    4.2930721   -12240.163   -12137.635   -11592.325   -12990.528    4699.9065   -340.29522   -4943.9707    79.123329 
   19400    691.94343   -121.79601   0.62608496   -121.16992    15044.487    4.2811026    4.2811026    4.2811026    15044.487    24341.145    32973.559   -12181.243    5317.2644    10493.531    372.54736    78.463363 
   19500    1000.0051   -122.07584   0.90482567   -121.17101   -9218.8569    4.2935748    4.2935748    4.2935748   -9218.8569   -15720.684    2738.5604   -14674.447   -6051.4398    441.96453    -1433.826    79.151126 
   19600    665.89872   -121.77163   0.60251916   -121.16911   -3380.3369    4.2949083    4.2949083    4.2949083   -3380.3369     3946.702   -17027.372    2939.6591   -22103.281    791.11178    6220.4007    79.224899 
   19700    844.88524   -121.93101   0.76446992   -121.16654    486.21128    4.2801901    4.2801901    4.2801901    486.21128   -2253.2817   -3971.1174    7683.0329   -10982.329   -4492.6518   -806.87095      78.4132 
   19800     894.8408   -121.97827   0.80967076    -121.1686   -4313.8117    4.2904989    4.2904989    4.2904989   -4313.8117   -15094.481    26378.388   -24225.342    12023.252    16187.023   -4270.5679    78.981139 
   19900    779.63942   -121.87527   0.70543413   -121.16983   -10401.393    4.2925994    4.2925994    4.2925994   -10401.393   -15713.876    5119.0363   -20609.339   -13866.676    15853.749    4633.0716    79.097193 
   20000     591.2286   -121.70665   0.53495606   -121.17169   -3999.3728    4.2879535    4.2879535    4.2879535   -3999.3728   -2035.4315   -16917.412    6954.7254   -30513.441   -7148.4819    783.51254    78.840649 
   20100     857.0955    -121.9454   0.77551802   -121.16988    1164.9942    4.2872528    4.2872528    4.2872528    1164.9942    11248.255   -7371.4123    -381.8599   -8255.9599      5137.17   -397.20568    78.802009 
   20200    1034.0125   -122.10298   0.93559627   -121.16738    6772.2947    4.2853831    4.2853831    4.2853831    6772.2947    7759.6043    27393.123   -14835.843    6115.3704     6988.735   -3933.2938    78.698956 
   20300    544.73559   -121.66693   0.49288821   -121.17405   -5187.9099    4.2964597    4.2964597    4.2964597   -5187.9099    846.18426    609.08098   -17018.995   -8918.2603     12303.44    224.75227    79.310783 
   20400    723.12158   -121.82656    0.6542956   -121.17227   -8028.8374     4.287731     4.287731     4.287731   -8028.8374    -11892.39   -22316.768    10122.645   -33597.528   -1212.6887    4205.4564    78.828378 
   20500    964.53589   -122.03981   0.87273234   -121.16708     21535.13    4.2797853    4.2797853    4.2797853     21535.13    38350.532    7469.7462    18785.113   -11362.198    913.19726    3179.9197    78.390953 
   20600    923.84237   -122.00645   0.83591199   -121.17053       -17234    4.2988097    4.2988097    4.2988097       -17234   -23040.879    1572.5327   -30233.655    13479.015    19229.107   -931.32788    79.440992 
   20700    494.50812    -121.6232   0.44744134   -121.17576    -5595.379    4.2860373    4.2860373    4.2860373    -5595.379   -23367.724    10991.961   -4410.3736   -13044.908     1820.066   -1650.7319    78.735002 
   20800     732.5591   -121.83671   0.66283487   -121.17387    5957.5867    4.2835911    4.2835911    4.2835911    5957.5867    14983.741    -7281.475    10170.494   -21884.876   -2077.4138    3711.0183    78.600266 
   20900    1171.5993    -122.2261    1.0600877   -121.16602   -14798.924     4.297241     4.297241     4.297241   -14798.924   -4025.9172   -20269.963   -20100.891   -2540.2879   -1201.7886    3636.1595    79.354056 
   21000    614.98416   -121.72874   0.55645059   -121.17229    10222.575    4.2836003    4.2836003    4.2836003    10222.575    16274.075    18644.259   -4250.6096    11816.233    9403.9092    2663.2815    78.600772 
   21100    508.61029   -121.63799   0.46020127   -121.17779    -8528.732    4.2905618    4.2905618    4.2905618    -8528.732   -10901.148    12358.049   -27043.097    1317.4133    8934.1573   -282.37847    78.984613 
   21200    1016.9642   -122.09069   0.92017054   -121.17052    723.89978    4.2915521    4.2915521    4.2915521    723.89978    27205.761   -6790.0519    -18244.01    -13883.55   -7544.9073    2638.0668    79.039316 
   21300    1149.8678   -122.20628    1.0404246   -121.16586      14813.3    4.2845676    4.2845676    4.2845676      14813.3    35829.683    1198.9093    7411.3084    5680.6492    2218.5738   -106.85657    78.654036 
   21400    564.28394    -121.6892   0.51057597   -121.17863   -18552.658    4.2945678    4.2945678    4.2945678   -18552.658   -25401.133   -4907.9684   -25348.874    21171.199    10946.267   -1155.2939    79.206056 
   21500    399.90897   -121.54156   0.36184604   -121.17971   -266.84901    4.2848407    4.2848407    4.2848407   -266.84901   -231.96776    22245.661    -22814.24    5774.1003    8723.4501   -1849.8588    78.669075 
   21600      1171.35   -122.23241    1.0598621   -121.17255    611.14791    4.2899171    4.2899171    4.2899171    611.14791    9909.2055    3801.6416   -11877.403   -3291.3418   -2555.0406   -4956.5259    78.949014 
   21700    1049.6845   -122.11998   0.94977656    -121.1702    2345.3183    4.2949293    4.2949293    4.2949293    2345.3183    22867.157   -16984.561    1153.3589    2605.1369   -3174.6267    1821.2293    79.226063 
   21800    612.48376   -121.72916   0.55418818   -121.17497   -1020.2696    4.2815638    4.2815638    4.2815638   -1020.2696   -8654.3774    2416.9486    3176.6201    15042.674    18620.996    186.27705    78.488725 
   21900    493.69581   -121.62757   0.44670634   -121.18086   -12171.408    4.2926749    4.2926749    4.2926749   -12171.408   -24823.709    12412.455   -24102.969    8530.1051    15249.412    372.08035    79.101368 
   22000    1047.0585   -122.11803    0.9474005   -121.17063   -963.62493    4.2910127    4.2910127    4.2910127   -963.62493    663.12676    12437.785   -15991.786   -8578.3348   -6128.0428    984.75989    79.009518 
   22100    1010.0085   -122.08286   0.91387694   -121.16898    1576.6015    4.2851465    4.2851465    4.2851465    1576.6015    4077.2938   -8539.0222    9191.5328   -913.03233   -2011.8946   -3701.9081    78.685919 
   22200    386.62227   -121.52835   0.34982396   -121.17852   -7944.2113    4.2919387    4.2919387    4.2919387   -7944.2113   -24775.813    5789.2999   -4846.1214    6950.8176    23021.197    2176.7417    79.060677 
   22300     730.3357   -121.83585   0.66082309   -121.17502    1299.5096    4.2852642    4.2852642    4.2852642    1299.5096   -12274.184    28579.395   -12406.682    11633.016     22526.52    -4495.996    78.692402 
   22400    995.45691    -122.0722   0.90071034   -121.17149    10064.461    4.2944347    4.2944347    4.2944347    10064.461    31889.257    11743.069   -13438.942   -4179.1982   -855.48546   -2196.7268    79.198693 
   22500    1016.6014   -122.09448   0.91984233   -121.17464    4574.0173    4.2850566    4.2850566    4.2850566    4574.0173   -6333.3094    8955.1392    11100.222   -17659.429   -4205.3802    2887.6209    78.680964 
   22600    398.54703   -121.54197   0.36061373   -121.18135    12809.327    4.2814438    4.2814438    4.2814438    12809.327    172.72814    22165.088    16090.165    2754.6109    15061.047   -2329.7619    78.482124 
   22700    579.03955   -121.70113   0.52392715    -121.1772   -19069.378    4.3043729    4.3043729    4.3043729   -19069.378   -29668.267   -8579.8086   -18960.059    12440.922     25164.45    3792.7383    79.749813 
   22800    1178.4148   -122.23316    1.0662545   -121.16691    16232.064    4.2775284    4.2775284    4.2775284    16232.064    9689.0625    25296.119     13711.01    3710.7756    1971.9894   -4297.2248    78.267002 
   22900    919.15239   -122.00527    0.8316684    -121.1736    16257.706    4.2812322    4.2812322    4.2812322    16257.706    19759.756     7201.036    21812.327   -17542.433   -10077.722   -1955.1725    78.470485 
   23000    563.52243   -121.68578   0.50988694   -121.17589   -34707.623    4.3044502    4.3044502    4.3044502   -34707.623   -65404.652   -32651.731   -6066.4857   -7670.6764    17682.649    5256.4361    79.754108 
   23100    600.35442   -121.71454    0.5432133   -121.17133    13312.056    4.2764582    4.2764582    4.2764582    13312.056   -4878.7694    28398.699    16416.237    15083.869    28385.125   -1747.4897     78.20827 
   23200    1174.0212   -122.23212     1.062279   -121.16984    -10264.21    4.2903786    4.2903786    4.2903786    -10264.21   -11237.896    3262.2449   -22816.981   -1786.8584   -623.97692    3919.0674    78.974492 
   23300    745.97216    -121.8473   0.67497129   -121.17233   -8705.1126    4.2943803    4.2943803    4.2943803   -8705.1126   -13640.894    231.85754   -12706.302   -13738.572   -20419.265    644.63853    79.195683 
   23400    623.59848   -121.73552   0.56424501   -121.17127    4609.4255     4.277217     4.277217     4.277217    4609.4255   -17662.543    12104.656    19386.163   -6016.3896    1684.3508    -4959.882     78.24991 
   23500    906.32077   -121.99112   0.82005808   -121.17107   -13556.037    4.2984131    4.2984131    4.2984131   -13556.037   -21623.185   -7080.6356   -11964.292      9678.02    22590.153    3566.8476    79.419005 
   23600    1088.1686   -122.15257   0.98459783   -121.16798    5942.8406     4.285204     4.285204     4.285204    5942.8406    5885.5069    11123.955    819.05991    4592.3326   -8529.3679   -4059.0775    78.689085 
   23700     492.7608   -121.62412   0.44586033   -121.17826    3378.9809    4.2844969    4.2844969    4.2844969    3378.9809    -11568.52     8074.926    13630.537   -13666.664   -28434.362      1720.46     78.65014 
   23800     558.3456   -121.68354   0.50520284   -121.17834   -16311.791    4.2969783    4.2969783    4.2969783   -16311.791   -27732.269   -13803.016   -7400.0872   -5123.8501   -8203.1805    1814.2824    79.339506 
   23900    1246.1804   -122.29246    1.1275702   -121.16489    23599.858    4.2759697    4.2759697    4.2759697    23599.858     14421.76    14649.021    41728.794    3865.7708    7080.4004   -4575.0819    78.181475 
   24000    1012.9162   -122.09166   0.91650788   -121.17516   -5573.6336    4.2949926    4.2949926    4.2949926   -5573.6336   -1116.4384   -4761.5947   -10842.868   -110.21658   -4861.8191    2671.7179    79.229561 
   24100    351.35223   -121.50491   0.31791088     -121.187   -20697.407    4.2903958    4.2903958    4.2903958   -20697.407   -30450.483   -3373.6343   -28268.102   -13233.071   -31842.424    344.33279    78.975443 
   24200    468.41042   -121.60716   0.42382759   -121.18333    18183.155    4.2731663    4.2731663    4.2731663    18183.155    13078.004    20716.816    20754.645   -19375.957   -19023.481    1743.3791    78.027806 
   24300    1307.9457   -122.35511    1.1834567   -121.17165   -17059.664    4.3036038    4.3036038    4.3036038   -17059.664   -21385.698   -23234.758   -6558.5344       3950.2    13202.767    478.35991    79.707073 
   24400     939.9013   -122.02414   0.85044245    -121.1737    10526.921    4.2835975    4.2835975    4.2835975    10526.921     17569.31    14995.371   -983.91774     4067.657   -2730.2156   -2751.5108    78.600622 
   24500    419.45722   -121.55663   0.37953371    -121.1771    1247.1417    4.2781396    4.2781396    4.2781396    1247.1417    10446.663   -913.27327   -5791.9644   -11129.583   -22196.804   -1111.9877    78.300559 
   24600    579.17322   -121.69914    0.5240481   -121.17509   -22822.209    4.2995482    4.2995482    4.2995482   -22822.209   -26173.585   -27750.564   -14542.477   -18487.156   -24062.095    911.21098    79.481939 
   24700     1128.876   -122.18879    1.0214308   -121.16736    14968.628    4.2767746    4.2767746    4.2767746    14968.628    17640.402    9276.3047    17989.177   -7103.8007     14136.12    4046.1571    78.225636 
   24800    952.92331   -122.03572   0.86222504    -121.1735   -7052.7283    4.2898899    4.2898899    4.2898899   -7052.7283   -13559.835    3021.3732   -10619.723    9408.9687    22860.123   -3145.8786    78.947512 
   24900    537.16465   -121.66196   0.48603786   -121.17592   -15665.445     4.293358     4.293358     4.293358   -15665.445   -17784.243   -11616.904   -17595.189   -11088.497   -23761.653   -1948.9267    79.139137 
   25000    707.13564   -121.81095   0.63983119   -121.17112    10463.204    4.2794589    4.2794589    4.2794589    10463.204    11624.945    1944.0228    17820.644   -24580.279   -19578.353    1087.2279    78.373018 
   25100    1059.5455   -122.12432     0.958699   -121.16562   -10313.899    4.2956822    4.2956822    4.2956822   -10313.899   -2912.4333   -11840.796   -16188.467    2214.8007    12299.738   -3322.5166    79.267735 
   25200    786.05861   -121.88033   0.71124235   -121.16909     7573.164    4.2825136    4.2825136    4.2825136     7573.164    12796.216    10154.879   -231.60258    11904.584    16253.303   -721.49799    78.540971 
   25300    641.76834   -121.75587   0.58068548   -121.17519   -8876.2406    4.2862487    4.2862487    4.2862487   -8876.2406   -631.44146   -500.10568   -25497.175   -8763.4703   -17173.437   -5141.1424     78.74665 
   25400    687.97686   -121.79587   0.62249592   -121.17337   -6289.6726    4.2929344    4.2929344    4.2929344   -6289.6726   -6578.9502   -4161.4019   -8128.6657   -13062.478   -33175.823   -769.45705    79.115713 
   25500    1017.1738   -122.08729   0.92036019   -121.16693    12570.407    4.2791148    4.2791148    4.2791148    12570.407    22196.422    5934.0965    9580.7019    3083.9207    18168.093    2592.3141    78.354115 
   25600    674.98099   -121.78364   0.61073698   -121.17291   -9626.0485    4.2954375    4.2954375    4.2954375   -9626.0485   -4035.0152   -3662.5266   -21180.603    17634.352    17691.447   -4378.0509    79.254188 
   25700    616.74734   -121.73463   0.55804596   -121.17658   -4918.7962    4.2832308    4.2832308    4.2832308   -4918.7962   -9862.8765    22200.111   -27093.623    2031.1438   -30520.683    46.790822    78.580438 
   25800    866.94096   -121.95913    0.7844264    -121.1747    11995.248    4.2820148    4.2820148    4.2820148    11995.248    16572.203    25827.404   -6413.8642   -7084.8855   -30763.264   -3134.8071     78.51353 
   25900    1154.6934   -122.21284    1.0447909   -121.16805   -13952.065     4.300688     4.300688     4.300688   -13952.065   -5108.6677   -16699.599   -20047.927    10285.507    12193.953    859.28213    79.545168 
   26000    725.31993   -121.83149   0.65628472    -121.1752    21731.736    4.2708383    4.2708383    4.2708383    21731.736    25688.625    33522.948    5983.6337    10210.195    9114.2393     1668.896    77.900347 
   26100    302.70056   -121.46269   0.27388983    -121.1888   -2983.0389    4.2900384    4.2900384    4.2900384   -2983.0389     1907.907    27994.402   -38851.425    5090.7817   -34177.034   -3659.0493    78.955709 
   26200    912.70846   -121.99897   0.82583779   -121.17313   -16491.574    4.2996444    4.2996444    4.2996444   -16491.574   -16433.463    6200.3033   -39241.563   -5858.4246   -25057.146    2032.4815    79.487274 
   26300    1284.1028   -122.32093    1.1618832   -121.15905    35151.933     4.267398     4.267398     4.267398    35151.933    51198.815    22956.291    31300.693   -7334.4332    8584.4936    1465.9033    77.712241 
   26400    700.67312    -121.8106   0.63398376   -121.17662   -15768.951    4.2943662    4.2943662    4.2943662   -15768.951   -19499.523   -3959.6284   -23847.703    13968.243   -7479.0877    2639.2921    79.194905 
   26500    399.82258   -121.53974   0.36176788   -121.17797   -6036.3252    4.2887831    4.2887831    4.2887831   -6036.3252   -8095.6522    27102.115   -37115.438    11084.149   -34270.314    2708.0211    78.886418 
   26600    805.95716   -121.90079   0.72924697   -121.17154    17762.916     4.281822     4.281822     4.281822    17762.916    35100.676    23130.623    -4942.552   -1365.2151   -12675.055   -2320.8323    78.502922 
   26700    1083.7291   -122.14817   0.98058089   -121.16759   -8127.6955    4.2935074    4.2935074    4.2935074   -8127.6955    1513.3495   -24636.802   -1259.6335   -13780.697    15599.492    7095.2738      79.1474 
   26800    665.92146    -121.7747   0.60253973   -121.17216    19502.511    4.2719259    4.2719259    4.2719259    19502.511    25869.193    16740.681    15897.658   -13959.565   -21106.504    5607.2924    77.959872 
   26900     597.4529   -121.72225   0.54058794   -121.18166   -10925.442    4.2949207    4.2949207    4.2949207   -10925.442   -27762.678    17019.956   -22033.604    10265.438   -35574.218    580.80372    79.225583 
   27000    982.58574   -122.05927   0.88906423   -121.17021   -12303.735    4.2939006    4.2939006    4.2939006   -12303.735   -14641.631   -3466.1911   -18803.383   -885.27201   -6124.8327   -383.45151    79.169148 
   27100    954.08568   -122.02652   0.86327677   -121.16324    24420.499    4.2675604    4.2675604    4.2675604    24420.499    23123.981    6788.2544     43349.26   -30541.185    12625.424    1.5239369    77.721116 
   27200    634.48746   -121.74827   0.57409759   -121.17417   -26569.674    4.2985314    4.2985314    4.2985314   -26569.674   -33161.621   -22385.239   -24162.164   -16811.845   -20221.165    5164.5708    79.425567 
   27300    661.93341   -121.77059   0.59893126   -121.17166   -11068.113    4.2914756    4.2914756    4.2914756   -11068.113   -14740.637    8495.4765   -26959.179    8041.1959    -45287.39    414.69892     79.03509 
   27400    1082.5032   -122.14312   0.97947165   -121.16364    10854.368    4.2746202    4.2746202    4.2746202    10854.368    8615.5254    7107.9937    16839.585     3234.284   -9769.6868    -2871.355    78.107478 
   27500    979.60787   -122.05448   0.88636979   -121.16811   -4746.9245    4.2904758    4.2904758    4.2904758   -4746.9245   -10490.189   -26926.165     23175.58   -22841.333    13176.921    1711.4473    78.979863 
   27600    623.38733     -121.738   0.56405395   -121.17395   -2238.3047    4.2874702    4.2874702    4.2874702   -2238.3047   -13675.475   -370.29244    7330.8538   -22040.686   -26979.816    487.42441    78.813997 
   27700    558.66571   -121.68179   0.50549248    -121.1763   -5699.5438    4.2909594    4.2909594    4.2909594   -5699.5438   -18853.107    16672.281   -14917.806    8388.8589   -39216.291    7590.0594    79.006574 
   27800     1064.356   -122.13263   0.96305168   -121.16958   -967.41198     4.282923     4.282923     4.282923   -967.41198   -6977.4049   -1195.6782    5270.8472    3622.7633   -5072.1175    2288.4497    78.563494 
   27900    952.82478   -122.03256   0.86213588   -121.17042      15630.7    4.2785037    4.2785037    4.2785037      15630.7    16043.979   -3799.5178     34647.64   -20955.353    9185.7592    -2910.288    78.320552 
   28000    536.97958   -121.66091   0.48587041   -121.17504   -31331.716    4.3035884    4.3035884    4.3035884   -31331.716   -51967.463   -10898.954   -31128.731   -16604.621   -31133.524    4156.3628    79.706217 
   28100    569.91688   -121.69189   0.51567277   -121.17622   -2277.9245    4.2808207    4.2808207    4.2808207   -2277.9245   -15755.846    31644.333   -22722.261   -606.12638   -45115.811    5294.8281    78.447862 
   28200    1186.0146   -122.23919    1.0731309   -121.16606    17874.023    4.2708576    4.2708576    4.2708576    17874.023    31046.004    9159.2352     13416.83    9222.2954    3825.6123    9217.5828    77.901402 
   28300    931.66241   -122.01131   0.84298773   -121.16832   -14395.158    4.3015605    4.3015605    4.3015605   -14395.158   -15183.095    -20288.44   -7713.9393   -12946.931    5554.4271   -690.72468    79.593593 
   28400    392.34911   -121.53259   0.35500572   -121.17759   -2020.2114    4.2846888    4.2846888    4.2846888   -2020.2114   -12311.547    17151.987   -10901.073   -19593.572   -46282.035   -3705.8782    78.660707 
   28500    627.48734   -121.74465   0.56776373   -121.17688    9171.2577    4.2761419    4.2761419    4.2761419    9171.2577   -3204.0751    37648.474   -6930.6258    2892.3031   -35395.114     4542.381    78.190919 
   28600    1292.8844   -122.33876     1.169829   -121.16894    4463.3852    4.2882475    4.2882475    4.2882475    4463.3852    12110.017   -104.51026     1384.649   -898.74316     14485.33   -1011.1601    78.856868 
   28700     926.7482   -122.01325   0.83854125    -121.1747    11186.742    4.2882962    4.2882962    4.2882962    11186.742   -1186.6581     24776.77    9970.1139   -2272.8505   -1871.0999    4555.5438    78.859557 
   28800    398.58571   -121.54146   0.36064872   -121.18081   -18035.382    4.2903887    4.2903887    4.2903887   -18035.382   -44563.439    9643.4259   -19186.133   -14050.034   -53675.481   -5536.9697    78.975053 
   28900    631.91897   -121.74918   0.57177356   -121.17741    7568.9451    4.2755228    4.2755228    4.2755228    7568.9451   -11131.786    26703.658    7134.9632   -14866.574   -29827.349   -740.83114    78.156966 
   29000    1326.2307   -122.37267    1.2000014   -121.17267     2068.127    4.2877796    4.2877796    4.2877796     2068.127    2153.7124    -669.4122     4720.081    9243.6622    18371.282    10190.994    78.831059 
   29100    762.63955   -121.86963   0.69005229   -121.17958   -14644.378    4.2957321    4.2957321    4.2957321   -14644.378   -25919.436    5671.6465   -23685.345   -2510.4873   -15845.286    -758.5444    79.270495 
   29200    282.45357   -121.43713   0.25556992   -121.18156    4357.9836    4.2689827    4.2689827    4.2689827    4357.9836   -24981.138    32236.036    5819.0527   -17649.846    -51505.51    5323.8629    77.798852 
   29300    737.18452   -121.85134   0.66702005   -121.18432   -7262.1779    4.2885077    4.2885077    4.2885077   -7262.1779     -33792.2   -775.89111    12781.557   -18541.667   -15076.579   -7817.1888    78.871224 
   29400    1328.4718   -122.36867    1.2020292   -121.16664   -3998.0683    4.2960969    4.2960969    4.2960969   -3998.0683    -13074.84   -2337.7446    3418.3793   -1680.2016    14290.799   -4275.9278    79.290691 
   29500    850.93415   -121.93971    0.7699431   -121.16977     14451.94    4.2771332    4.2771332    4.2771332     14451.94   -4709.7892    30578.942    17486.667    6270.5699    -28947.26    8287.9843    78.245315 
   29600    424.72361   -121.56015   0.38429885   -121.17586   -17053.395    4.2884968    4.2884968    4.2884968   -17053.395    -48083.93    19823.165   -22899.419   -14218.499   -46239.499   -3560.5663    78.870625 
   29700    798.75244   -121.89581     0.722728   -121.17308    1516.1454    4.2829895    4.2829895    4.2829895    1516.1454   -5644.4359    6470.0052    3722.8669   -15216.929   -1165.4401    3749.7321    78.567158 
   29800    1104.3238   -122.16832   0.99921536   -121.16911    8553.5025    4.2847528    4.2847528    4.2847528    8553.5025    10144.125     7942.296    7574.0863   -2664.7098    9158.5653   -7076.3056    78.664233 
   29900    805.43424   -121.90151   0.72877383   -121.17274   -7840.2782    4.2914793    4.2914793    4.2914793   -7840.2782   -11826.769    8653.5531   -20347.619    8504.0678    -32514.67   -4443.5571    79.035292 
   30000    606.83289   -121.72149   0.54907515   -121.17242    11135.998    4.2760607    4.2760607    4.2760607    11135.998    4294.0912    33908.162   -4794.2601   -8258.8871   -38364.169    10990.532    78.186468 
   30100     809.3593   -121.90564    0.7323253   -121.17332   -2198.5419    4.2874812    4.2874812    4.2874812   -2198.5419   -3167.3519    -12739.97    9311.6958   -28997.488    3980.2155   -3116.7749    78.814604 
   30200     930.2319   -122.00927   0.84169338   -121.16758   -10256.478     4.293887     4.293887     4.293887   -10256.478   -9692.1398   -22052.737    975.44231   -7526.5752    4835.4705   -5367.6203    79.168394 
   30300    795.16325   -121.88692   0.71948042   -121.16744    2412.4842    4.2772544    4.2772544    4.2772544    2412.4842   -13992.069    23408.644   -2179.1224    9039.7361   -35825.256   -7547.9491    78.251964 
   30400     691.5313   -121.79854   0.62571206   -121.17283   -2379.7528    4.2825721    4.2825721    4.2825721   -2379.7528    -22770.72    18392.938   -2761.4756   -7577.9529   -27114.379    1905.0093    78.544185 
   30500    795.71776   -121.88912   0.71998215   -121.16913   -12234.266    4.2940698    4.2940698    4.2940698   -12234.266   -19613.621   -28396.307    11307.129   -28386.601    6175.0421    10642.838    79.178503 
   30600    787.22229   -121.88132   0.71229527   -121.16903   -1196.1362    4.2849247    4.2849247    4.2849247   -1196.1362   -4515.6769   -7512.2557    8439.5239   -13197.042   -1132.0832   -10642.009    78.673699 
   30700    879.30411   -121.96462   0.79561283   -121.16901     1183.757    4.2782255    4.2782255    4.2782255     1183.757   -7384.7373    29531.509   -18595.501    12523.483   -29530.879   -7946.7458    78.305274 
   30800    741.85713   -121.84349   0.67124792   -121.17224    1416.8186    4.2884586    4.2884586    4.2884586    1416.8186   -4500.8275    8642.3159    108.96739   -10850.054   -22327.021    2221.4611    78.868515 
   30900    743.15409   -121.84474   0.67242144   -121.17232   -7057.6273    4.2925562    4.2925562    4.2925562   -7057.6273   -16896.396   -24219.048    19942.563   -32420.057    9454.8465    10897.078    79.094808 
   31000    796.72453   -121.89032    0.7208931   -121.16943    8877.8407    4.2802197    4.2802197    4.2802197    8877.8407    7010.5143    4432.9657    15190.042   -8778.0019   -1601.9557    6447.0676    78.414825 
   31100    921.35146   -122.00239   0.83365817   -121.16874    6686.2956    4.2821456    4.2821456    4.2821456    6686.2956    6021.7334    14758.517   -721.36337    6304.1494   -25208.525   -14121.567    78.520725 
   31200    746.38035   -121.84642   0.67534062   -121.17107   -4982.4462    4.2941776    4.2941776    4.2941776   -4982.4462   -16955.903   -9741.2822    11749.846   -12437.385   -12712.503   -386.34217    79.184468 
   31300    708.91161   -121.81371   0.64143812   -121.17227   -3090.9254    4.2832381    4.2832381    4.2832381   -3090.9254   -18992.634   -9853.7715     19573.63   -35922.699    3534.8816    9619.3752    78.580838 
   31400     846.1297   -121.93686   0.76559593   -121.17127    8428.1754    4.2779353    4.2779353    4.2779353    8428.1754    14005.249   -128.84892    11408.126   -9783.5216    8078.3503    3951.3741    78.289339 
   31500    1062.0584   -122.12938   0.96097275    -121.1684    -9254.443     4.293882     4.293882     4.293882    -9254.443   -14692.687   -2798.1665   -10272.476    16306.117   -19579.609   -5283.3299    79.168119 
   31600    710.63366   -121.81133   0.64299627   -121.16833   -9614.6296     4.291625     4.291625     4.291625   -9614.6296   -28467.556   -228.42514   -147.90715   -24819.939   -17913.086   -7210.5637    79.043344 
   31700    603.41337   -121.71544    0.5459811   -121.16946   -2500.3772    4.2780785    4.2780785    4.2780785   -2500.3772   -13900.551   -14927.076    21326.495    -41304.63    8628.3116    9463.4562    78.297204 
   31800     943.3036   -122.02385   0.85352092   -121.17033     944.2185    4.2826317    4.2826317    4.2826317     944.2185    3360.1736   -12042.933    11515.415    2614.3046    560.74613    5614.1109    78.547469 
   31900    971.36054   -122.04813   0.87890743   -121.16922   -2014.6895    4.2920539    4.2920539    4.2920539   -2014.6895    1329.7316    -5161.444   -2212.3561    13616.372   -4693.9501    566.26236    79.067042 
   32000     608.3793   -121.72594   0.55047438   -121.17547   -6655.9794    4.2870227    4.2870227    4.2870227   -6655.9794   -11394.306   -18065.285    9491.6523     -35483.5   -10366.472   -1665.2696    78.789317 
   32100    542.94648   -121.66805   0.49126938   -121.17678    6938.9562    4.2785822    4.2785822    4.2785822    6938.9562   -8040.1886   -12685.398    41542.456   -49025.642   -3257.5124    839.34289    78.324863 
   32200    1193.0911   -122.25013    1.0795339   -121.17059    6634.5435     4.285792     4.285792     4.285792    6634.5435     16382.12    1097.3156    2424.1945    4595.7508    10495.489    11249.856    78.721484 
   32300    951.95266    -122.0339   0.86134677   -121.17255   -3019.5292    4.2943041    4.2943041    4.2943041   -3019.5292    8217.2241   -9908.7465   -7367.0651    4811.6624   -5286.1383    1525.0311    79.191465 
   32400    322.57621   -121.47348   0.29187373    -121.1816   -10399.813    4.2819561    4.2819561    4.2819561   -10399.813   -27794.687   -35743.275    32338.523   -51086.313   -2886.1096   -1734.8595    78.510296 
   32500    559.55001   -121.69012   0.50629261   -121.18382   -657.89408    4.2802422    4.2802422    4.2802422   -657.89408   -6622.6224   -22808.119     27457.06   -34186.532    -6472.468   -1740.0748    78.416064 
   32600    1335.1883   -122.38043    1.2081065   -121.17233   -2041.7482    4.2925778    4.2925778    4.2925778   -2041.7482    15351.179   -10519.509   -10956.915    15595.968   -3433.9579    3124.3773       79.096 
   32700    1035.1593    -122.1144   0.93663387   -121.17776    2712.5799    4.2823486    4.2823486    4.2823486    2712.5799    9957.6681   -17118.354    15298.425   -15979.881    10996.128     3892.177     78.53189 
   32800    358.69576   -121.50732   0.32455546   -121.18277   -4219.7541    4.2807891    4.2807891    4.2807891   -4219.7541   -18606.418   -36581.122    42528.277   -56397.056   -5542.7913    -2084.505    78.446126 
   32900    661.37646   -121.77624   0.59842732   -121.17781   -11898.507    4.2933244    4.2933244    4.2933244   -11898.507   -21734.051   -19593.547    5632.0775    -9244.288   -9605.7374   -3343.9865    79.137279 
   33000    1053.2591   -122.11862   0.95301092   -121.16561    5922.3391    4.2890004    4.2890004    4.2890004    5922.3391    14502.472    9678.2346   -6413.6891    18936.217    1010.3694   -3815.1179    78.898412 
   33100    775.17608   -121.86914    0.7013956   -121.16774    2812.7573    4.2829206    4.2829206    4.2829206    2812.7573    -8986.001    1954.7504    15469.522   -30835.621    5865.8924    120.81924    78.563362 
   33200    594.00996   -121.70959    0.5374727   -121.17211   -1736.7857    4.2862387    4.2862387    4.2862387   -1736.7857   -18562.462   -4858.0216    18210.126   -47237.156     4436.874    65.522042    78.746099 
   33300    806.70882   -121.89981    0.7299271   -121.16989    -2413.464    4.2896572    4.2896572    4.2896572    -2413.464    1552.0309    1056.2723   -9848.6952   -1591.5017   -16181.675   -6585.1865    78.934663 
   33400    861.42692   -121.94983   0.77943718   -121.17039   -5580.0121    4.2863359    4.2863359    4.2863359   -5580.0121   -5723.3008    6181.5656   -17198.301    19168.975   -8981.5936   -7241.1811    78.751457 
   33500       753.71   -121.85418   0.68197265   -121.17221   -1708.7627    4.2789016    4.2789016    4.2789016   -1708.7627   -7591.6579   -6946.1807    9411.5505   -19395.103    18232.071   -1936.0131    78.342403 
   33600    867.05024   -121.95726   0.78452528   -121.17274   -9092.8208    4.2892409    4.2892409    4.2892409   -9092.8208   -20408.685    -10083.47     3213.692   -28301.333    -1773.483   -316.10514    78.911686 
   33700    777.81495   -121.87302   0.70378332   -121.16924   -15039.918    4.2956734    4.2956734    4.2956734   -15039.918   -19128.978   -3630.1204   -22360.656    4007.1427   -22666.894   -2166.5419    79.267242 
   33800    705.55881   -121.80821   0.63840444   -121.16981    957.09484    4.2742739    4.2742739    4.2742739    957.09484    1415.1245    2061.4427   -605.28266    14181.708   -10555.423   -745.87514    78.088491 
   33900    836.39268   -121.93029   0.75678568   -121.17351    10232.909    4.2808426    4.2808426    4.2808426    10232.909    4647.3635    9454.2514    16597.111   -5463.9405    12082.473   -1632.5713    78.449067 
   34000    1090.8631   -122.15369   0.98703584   -121.16666   -6866.7074    4.2982543    4.2982543    4.2982543   -6866.7074   -25578.995   -2661.2198    7640.0925   -18268.593    3020.9949    2549.7301    79.410205 
   34100    639.77811   -121.75207   0.57888468   -121.17319     4522.126    4.2814884    4.2814884    4.2814884     4522.126    2160.6715    11054.895      350.812   -2483.4178   -29704.166   -239.66667    78.484575 
   34200    415.08659    -121.5539   0.37557907   -121.17832   -1185.2372    4.2789209    4.2789209    4.2789209   -1185.2372    15450.917    4132.5154   -23139.143    8569.3997    -15501.13   -6445.4431    78.343466 
   34300    949.05066   -122.03308   0.85872099   -121.17436   -3960.6846    4.2892717    4.2892717    4.2892717   -3960.6846   -1800.1123   -12695.047    2613.1059    8392.5467    7430.8659   -370.70704    78.913384 
   34400    1179.8851   -122.23759    1.0675848      -121.17    4124.7519    4.2887475    4.2887475    4.2887475    4124.7519    3078.1922   -3559.6015    12855.665   -52.069149    -3187.652    128.00749    78.884455 
   34500    654.97679   -121.76978   0.59263676   -121.17714   -3657.3817    4.2836708    4.2836708    4.2836708   -3657.3817   -1857.7041    9659.1632   -18773.604   -5847.5725   -22435.419   -3947.5284    78.604657 
   34600    390.73626   -121.53188   0.35354638   -121.17834   -1642.0512    4.2818086    4.2818086    4.2818086   -1642.0512   -823.89561   -14755.732    10653.474    14074.817   -20362.861   -3028.9821    78.502189 
   34700    847.94388   -121.94279   0.76723744   -121.17555   -6289.1637    4.2898698    4.2898698    4.2898698   -6289.1637     -3915.17   -34709.254    19756.933    20191.656    7047.6973     664.5998      78.9464 
   34800    1108.5955   -122.17223    1.0030805   -121.16914    2103.4332    4.2844286    4.2844286    4.2844286    2103.4332   -214.62265   -3754.4529    10279.375     4082.357     5872.302    1880.2524    78.646378 
   34900    743.89751   -121.84817    0.6730941   -121.17507   -5583.0883    4.2824865    4.2824865    4.2824865   -5583.0883   -8762.2747    9858.9555   -17845.946   -5290.6266   -20193.628    1117.3682    78.539479 
   35000    584.17694     -121.707   0.52857557   -121.17842   -13503.625    4.2887774    4.2887774    4.2887774   -13503.625    3688.0959   -16268.941   -27930.031    3179.7373   -17894.534   -515.46888    78.886108 
   35100    1114.1331   -122.17883     1.008091   -121.17074    2577.6709    4.2846377    4.2846377    4.2846377    2577.6709    16007.195       -18548    10273.818    15490.596     820.5972    591.37093    78.657897 
   35200     987.4008   -122.06457     0.893421   -121.17115    1247.7811    4.2886688    4.2886688    4.2886688    1247.7811   -2714.6994   -769.30867    7227.3515   -991.54878    8518.4179    3155.0364    78.880112 
   35300    412.81326   -121.55424   0.37352212   -121.18071    -3565.531    4.2823055    4.2823055    4.2823055    -3565.531   -12654.543    14652.015   -12694.064   -13125.393   -7931.1217   -2352.7203    78.529517 
   35400    526.43997   -121.66187   0.47633395   -121.18553    1077.0892    4.2810091    4.2810091    4.2810091    1077.0892    5016.3394    4418.8751   -6203.9468   -1928.7076   -15694.281    -7663.601    78.458218 
   35500    1261.7914   -122.31584    1.1416954   -121.17415   -5010.5783    4.2929063    4.2929063    4.2929063   -5010.5783    17674.675    -18498.09    -14208.32   -1897.0917   -811.60986   -8481.9285    79.114164 
   35600    1111.6486   -122.18126     1.005843   -121.17542    5600.3948    4.2817815    4.2817815    4.2817815    5600.3948    16169.593    9310.6095   -8679.0184    1039.3395    11656.779   -619.16631    78.500698 
   35700     366.3263   -121.51647   0.33145973   -121.18501   -11351.144    4.2831563    4.2831563    4.2831563   -11351.144   -9727.5214    22300.412   -46626.324   -3001.5808    42.334816    758.38575    78.576333 
   35800    468.82021   -121.60746   0.42419837   -121.18326   -13633.062      4.29039      4.29039      4.29039   -13633.062   -12660.693    14002.557   -42241.049   -9803.0522   -18838.133   -3341.5413    78.975122 
   35900    1136.3171   -122.20085    1.0281636   -121.17269    7940.2943     4.282978     4.282978     4.282978    7940.2943    18318.965   -5164.3359    10666.254    12933.396   -2508.3412   -73.148013    78.566524 
   36000    977.71234   -122.05893   0.88465467   -121.17427    7175.0528    4.2833357    4.2833357    4.2833357    7175.0528    8542.5421    5011.6553    7970.9609    15962.762    5525.5503    3917.8642    78.586208 
   36100    520.21557    -121.6508   0.47070198    -121.1801    1705.0188    4.2857437    4.2857437    4.2857437    1705.0188   -9164.3184    25096.076   -10816.701   -2904.4152   -10615.433    5804.3864    78.718823 
   36200    587.07625   -121.70987   0.53119893   -121.17867    821.02942    4.2892837    4.2892837    4.2892837    821.02942    3608.7442    19963.658   -21109.314   -5405.2484   -10978.308    1547.5084    78.914049 
   36300    1024.1413    -122.0972   0.92666457   -121.17054    6741.9957    4.2845955    4.2845955    4.2845955    6741.9957    7513.8151     494.0809    12218.091    9385.3861   -1722.5256   -237.55288     78.65557 
   36400    962.17533    -122.0405   0.87059646    -121.1699    13270.475    4.2809956    4.2809956    4.2809956    13270.475    19899.416     -406.337    20318.347    26077.902    2677.4981    3876.9745    78.457476 
   36500    715.05376   -121.82222   0.64699567   -121.17522   -6711.3761    4.2917725    4.2917725    4.2917725   -6711.3761    10738.309    5166.5569   -36038.994    4675.4913   -5913.3027    5650.7202    79.051492 
   36600    643.53521   -121.75696   0.58228418   -121.17468   -3348.0156    4.2870098    4.2870098    4.2870098   -3348.0156     82.49971    29466.526   -39593.072   -8959.1746   -4589.6154    4373.1782    78.788606 
   36700    860.06472   -121.94943   0.77820464   -121.17123    7299.1611    4.2771557    4.2771557    4.2771557    7299.1611    10535.234    12137.054   -774.80486    21314.342    5676.2857   -2600.4752    78.246545 
   36800    1021.1557   -122.09626   0.92396312    -121.1723    -2933.632    4.2890274    4.2890274    4.2890274    -2933.632    5964.3864   -22305.327    7540.0447    20908.065    531.55302   -744.12542      78.8999 
   36900      721.525   -121.82852   0.65285098   -121.17567   -7002.8318    4.2893718    4.2893718    4.2893718   -7002.8318   -2154.3389    -331.3737   -18522.783   -842.99486   -4106.1043    239.28709    78.918908 
   37000    446.16252   -121.58081   0.40369723   -121.17711    157.06255    4.2797185    4.2797185    4.2797185    157.06255   -14590.526    34524.778   -19463.064   -4492.9697   -8592.6851   -1449.7589    78.387283 
   37100    787.87196   -121.88868   0.71288311    -121.1758   -749.91667    4.2885291    4.2885291    4.2885291   -749.91667    -4491.547    3480.5277   -1238.7308    4062.4767    3667.9049   -3320.8993    78.872402 
   37200    1241.9215    -122.2923    1.1237167   -121.16858    3983.5364    4.2869554    4.2869554    4.2869554    3983.5364    17740.535   -13288.004    7498.0782    12686.791    3475.3043   -4202.7565     78.78561 
   37300    793.23682   -121.89474   0.71773734     -121.177    6013.2417    4.2787413    4.2787413    4.2787413    6013.2417    21332.791    6379.8015   -9672.8671   -921.99707   -15284.524    806.36253    78.333602 
   37400    367.54554    -121.5166   0.33256293   -121.18404   -15325.832    4.2874782    4.2874782    4.2874782   -15325.832    -12830.56    6104.1702   -39251.107    -12122.23   -10700.142    4624.2264    78.814439 
   37500    804.80955   -121.90735    0.7282086   -121.17914   -6472.3066     4.288618     4.288618     4.288618   -6472.3066   -6357.3555    2584.4417   -15644.006   -5631.6637    5792.7112    2173.8215    78.877308 
   37600    1192.6788   -122.24894    1.0791608   -121.16978    7244.9205     4.283399     4.283399     4.283399    7244.9205    24498.994   -10153.939    7389.7067   -34.910537    7819.9043    -8662.541    78.589693 
   37700     765.5552   -121.86808   0.69269043   -121.17539   -3673.5854    4.2852174    4.2852174    4.2852174   -3673.5854    12619.285   -18893.042    -4746.999    2098.0473   -10061.986   -8160.5463    78.689823 
   37800    464.42011    -121.5989   0.42021708   -121.17869   -2290.4611     4.286433     4.286433     4.286433   -2290.4611   -7977.1706   -1148.5961    2254.3834   -6966.6948   -11929.846    5411.3109    78.756811 
   37900    909.13903   -121.99505    0.8226081   -121.17244     3864.062    4.2853458    4.2853458    4.2853458     3864.062    8640.8204    6774.2568   -3822.8913   -9001.6832     63.34299    2578.5954    78.696899 
   38000    1016.1354   -122.09004   0.91942068   -121.17062    -1312.341      4.28656      4.28656      4.28656    -1312.341    16912.688   -26062.475    5212.7649    14084.027    3754.7468   -11956.666    78.763812 
   38100     591.5302   -121.71235   0.53522895   -121.17712   -4475.2048    4.2809376    4.2809376    4.2809376   -4475.2048     25004.19   -26499.461   -11930.343    13534.253   -3194.5053   -17367.163    78.454291 
   38200    658.73853   -121.77534   0.59604046    -121.1793   -2114.6022    4.2847169    4.2847169    4.2847169   -2114.6022    9048.1369   -7554.0991   -7837.8443   -2411.9276   -21549.173    3643.5716    78.662255 
   38300      1059.58   -122.13047   0.95873027   -121.17174   -2396.2383    4.2922894    4.2922894    4.2922894   -2396.2383   -11844.788   -2814.9423    7471.0154   -1560.6207   -12102.108    7739.6856    79.080061 
   38400    949.77947   -122.03183   0.85938043   -121.17245    10068.156    4.2790694    4.2790694    4.2790694    10068.156    9107.2934   -19219.335    40316.508    7575.6408    10187.361    -13701.99    78.351624 
   38500     473.7999   -121.60926   0.42870411   -121.18056   -4608.3922    4.2832648    4.2832648    4.2832648   -4608.3922    9812.1987    -23265.73   -371.64516    16437.382   -4007.1496   -18155.913    78.582306 
   38600    651.42214   -121.76833   0.58942045   -121.17891   -13264.856    4.2898885    4.2898885    4.2898885   -13264.856   -11418.596   -11683.129   -16692.843    3493.0509   -15601.254   -114.86431    78.947436 
   38700    1113.6885   -122.17731    1.0076888   -121.16962    5122.0558    4.2844379    4.2844379    4.2844379    5122.0558   -7737.6491    8350.1244    14753.692    -7009.887   -13151.331    9836.0559    78.646889 
   38800    972.60906    -122.0504   0.88003712   -121.17037    146.43863    4.2841744    4.2841744    4.2841744    146.43863   -3193.6888   -11711.272    15344.277    3143.3492    2596.3729   -12402.826    78.632383 
   38900    469.49563   -121.60226   0.42480951   -121.17745    2777.0434     4.284306     4.284306     4.284306    2777.0434     5727.895   -15229.197    17832.432    9677.4852    6270.3229   -25068.079    78.639629 
   39000    740.59976   -121.84673   0.67011022   -121.17662   -6501.3414    4.2876829    4.2876829    4.2876829   -6501.3414    -2709.321   -6490.3066   -10304.397    6683.2288   -18135.896   -10928.185    78.825726 
   39100    1045.0469    -122.1169   0.94558038   -121.17132    13914.813     4.278151     4.278151     4.278151    13914.813    1784.9837     14827.69    25131.764   -13001.131   -14457.694     9707.965    78.301185 
   39200    811.94657   -121.91068   0.73466632   -121.17601   -5699.5184    4.2861347    4.2861347    4.2861347   -5699.5184   -16979.895   -9646.5313    9527.8713   -16222.247     8905.439   -10706.958    78.740371 
   39300    494.42392   -121.62491   0.44736515   -121.17755   -19692.451    4.2936853    4.2936853    4.2936853   -19692.451   -612.23225       -28886    -29579.12    6160.8779     6763.381   -31833.321    79.157235 
   39400    903.75479   -121.98962   0.81773633   -121.17188    7897.4626    4.2753543    4.2753543    4.2753543    7897.4626    15816.818    8496.4049   -620.83527    10921.197   -1366.7613   -11417.882    78.147725 
   39500    1165.0009   -122.22433    1.0541173   -121.17021    5254.2744    4.2840601    4.2840601    4.2840601    5254.2744   -14031.226    6874.3516    22919.697   -13556.682   -6262.7408     8738.823    78.626085 
   39600    669.95902    -121.7841     0.606193   -121.17791   -5522.1007    4.2912983    4.2912983    4.2912983   -5522.1007   -22419.293   -15250.862    21103.853   -28167.561   -983.79762   -4920.5035    79.025293 
   39700     438.0286   -121.57575   0.39633748   -121.17941   -546.94252    4.2810191    4.2810191    4.2810191   -546.94252    1883.0932   -17111.601     13587.68    4266.1278    10086.259    -30925.21    78.458769 
   39800    822.20269   -121.92037   0.74394628   -121.17643   -914.21333    4.2876357    4.2876357    4.2876357   -914.21333   -11817.284    3607.1209    5467.5232     16381.69    7834.9318   -17725.603    78.823121 
   39900    1130.1497   -122.19073    1.0225832   -121.16814     684.7675    4.2898387    4.2898387    4.2898387     684.7675   -18796.441    2356.4468    18494.296   -16010.488   -409.00134    8067.2964    78.944686 
   40000    804.08832    -121.9006   0.72755601   -121.17305   -956.28786    4.2806256    4.2806256    4.2806256   -956.28786   -5265.5375   -12856.935    15253.609   -21061.907    -99.54099   -6319.2679    78.437138 
   40100    445.55815   -121.58282   0.40315038   -121.17967   -3110.9356    4.2824537    4.2824537    4.2824537   -3110.9356    476.79086   -1722.8602   -8086.7376    2805.2723    8153.2092   -28676.468    78.537672 
   40200    722.36099   -121.83029   0.65360741   -121.17668   -6806.3118    4.2894895    4.2894895    4.2894895   -6806.3118   -14643.204   -1242.6745   -4533.0573     15433.09    15615.326   -19079.802    78.925405 
   40300    1030.1866   -122.10433   0.93213452    -121.1722     7893.145    4.2833855    4.2833855    4.2833855     7893.145     1533.003    4468.7539    17677.678    -9307.387    929.46788    13105.634    78.588952 
   40400    992.99852   -122.07009   0.89848593   -121.17161    9684.4641    4.2811144    4.2811144    4.2811144    9684.4641    5646.9807   -2946.9029    26353.315   -20992.193   -7807.8018    545.04433    78.464012 
   40500    585.54757   -121.70524   0.52981575   -121.17543   -8102.4293    4.2933075    4.2933075    4.2933075   -8102.4293   -8581.1544   -17799.834    2073.7007    3474.1424    6375.7763   -32020.185    79.136344 
   40600    638.57573   -121.75277   0.57779674   -121.17498   -5097.6255    4.2858897    4.2858897    4.2858897   -5097.6255   -1506.5052    3137.1934   -16923.565    11291.482    12899.947   -17648.255    78.726868 
   40700    1062.3219   -122.13021   0.96121116   -121.16899    11677.396     4.275146     4.275146     4.275146    11677.396   -3706.4779    19502.231    19236.435    526.12474    6975.3065    10680.046      78.1363 
   40800    1055.4412   -122.12761   0.95498535   -121.17263   -378.68086    4.2891098    4.2891098    4.2891098   -378.68086    -10554.63   -1939.7891    11358.376   -11146.907   -4767.2478   -3632.2152    78.904449 
   40900    661.63697   -121.77682   0.59866304   -121.17815   -6043.2491    4.2878011    4.2878011    4.2878011   -6043.2491    12437.362   -19656.407   -10910.703   -5061.2889   -535.47133   -35481.303    78.832245 
   41000     553.0665   -121.67671   0.50042619   -121.17628    1144.6292    4.2791349    4.2791349    4.2791349    1144.6292   -2638.5765    831.37023    5241.0938    12464.342    14491.448   -24775.834    78.355222 
   41100    949.66756   -122.03213   0.85927917   -121.17285   -7086.4145    4.2909718    4.2909718    4.2909718   -7086.4145   -35854.702    8497.7868    6097.6717    4711.7483    3084.7973    14688.883    79.007255 
   41200    961.32955   -122.03829   0.86983118   -121.16846   -3181.0151    4.2864722    4.2864722    4.2864722   -3181.0151    2958.8524   -4548.0589   -7953.8387   -2129.0623   -4387.0599   -17178.621    78.758969 
   41300    690.57665   -121.79692   0.62484827   -121.17207    2322.8535    4.2769032    4.2769032    4.2769032    2322.8535    25643.803    -13294.84   -5380.4021   -442.13048   -320.46405   -48756.742    78.232693 
   41400    707.88231   -121.81497   0.64050679   -121.17446   -10641.675    4.2891469    4.2891469    4.2891469   -10641.675   -9320.8073   -17444.646   -5159.5729    12479.484    13896.528   -11504.033    78.906497 
   41500    891.90789   -121.97844     0.807017   -121.17142    142.91576    4.2829324    4.2829324    4.2829324    142.91576   -29158.605    18108.671    11478.681     15921.86    15140.739    11145.864    78.564013 
   41600     670.9373   -121.78242   0.60707817   -121.17535     2301.325    4.2805987    4.2805987    4.2805987     2301.325    14093.121   -1974.8582    -5214.288   -447.97609   -8441.2503   -17010.234    78.435658 
   41700    555.64979   -121.67882    0.5027636   -121.17605   -8644.0161      4.29195      4.29195      4.29195   -8644.0161    22002.456   -24292.809   -23641.696   -677.61619   -8541.1862     -42387.6    79.061302 
   41800    1011.8646   -122.08558   0.91555637   -121.17003    5166.2872    4.2818196    4.2818196    4.2818196    5166.2872    6931.5457   -4287.1023    12854.418     3099.423    3712.4578   -5155.6061     78.50279 
   41900     1072.872   -122.14075   0.97075712      -121.17    11202.227    4.2796647    4.2796647    4.2796647    11202.227    13191.863    3966.1075     16448.71    8854.9347     8660.906    15241.228    78.384328 
   42000    603.27332   -121.72522   0.54585437   -121.17937   -3284.2398      4.28756      4.28756      4.28756   -3284.2398    12209.293   -10206.389   -11855.624    5489.4582    1288.9053   -35473.623    78.818946 
   42100    490.34355   -121.62452   0.44367315   -121.18084   -1041.0887    4.2882161    4.2882161    4.2882161   -1041.0887    18378.136   -7455.7521    -14045.65   -5596.4572   -10046.465   -37816.864    78.855136 
   42200    1007.7746   -122.08458    0.9118556   -121.17273    12175.266    4.2813248    4.2813248    4.2813248    12175.266    22962.382    6721.0477    6842.3692   -707.05718   -2442.9819    15304.744     78.47558 
   42300    1166.6527   -122.22631    1.0556119   -121.17069     11084.19    4.2797561    4.2797561    4.2797561     11084.19    9512.4275    12900.612    10839.531    2244.5075    1413.9979    13705.339     78.38935 
   42400    579.75847   -121.70433   0.52457765   -121.17975    -11980.37    4.2916117    4.2916117    4.2916117    -11980.37    -184.8316   -19857.022   -15899.257    12156.496   -2896.7115   -39761.905    79.042611 
   42500    599.84814   -121.72081    0.5427552   -121.17806   -6685.1506    4.2809869    4.2809869    4.2809869   -6685.1506    11711.112   -15885.802   -15880.762    5758.3977   -7192.4888   -40976.881    78.456998 
   42600    1028.3129    -122.1036    0.9304391   -121.17316    4354.0766    4.2796939    4.2796939    4.2796939    4354.0766    201.81752    19045.799   -6185.3866    -7053.878   -11261.705    16763.687    78.385929 
   42700    955.58496   -122.03592   0.86463335   -121.17129   -10470.454    4.2928414    4.2928414    4.2928414   -10470.454   -8491.0401   -5761.7022   -17158.619    6974.8817    2333.6033    14285.704    79.110573 
   42800    588.20635   -121.70861   0.53222146   -121.17639   -1514.3847    4.2781245    4.2781245    4.2781245   -1514.3847    15471.223   -6854.6595   -13159.717    7911.2217    4155.1578    -42184.97    78.299727 
   42900    585.95517   -121.70861   0.53018456   -121.17842   -1134.3584    4.2807361    4.2807361    4.2807361   -1134.3584    10210.952    5059.8188   -18673.847    5165.8228   -8508.0413   -31496.884    78.443213 
   43000    937.41611   -122.01972   0.84819379   -121.17153   -9668.9656     4.291261     4.291261     4.291261   -9668.9656   -19343.365    2792.8593   -12456.392   -9959.1379   -14111.797    12723.639     79.02323 
   43100    914.12057   -121.99882   0.82711551   -121.17171    3272.8633    4.2791253    4.2791253    4.2791253    3272.8633   -1536.7435    7702.7455    3652.5879   -9467.9573   -5492.9062    745.42298    78.354692 
   43200    728.97633   -121.83476    0.6595931   -121.17517   -1844.5824    4.2815184    4.2815184    4.2815184   -1844.5824    33809.327     -16452.4   -22890.674    7498.6767    8353.0156   -35495.665    78.486226 
   43300    773.43521   -121.87264   0.69982043   -121.17282   -1817.2455    4.2894767    4.2894767    4.2894767   -1817.2455    9860.3258   -3288.0559   -12024.006    2791.3839   -7994.3877   -26140.181      78.9247 
   43400    869.87123   -121.95754   0.78707777   -121.17046    3732.1455    4.2848636    4.2848636    4.2848636    3732.1455   -24859.379     24284.18    11771.636   -5391.9702   -22022.636     13613.09    78.670335 
   43500    715.55938   -121.82089   0.64745316   -121.17344    259.10535    4.2804821    4.2804821    4.2804821    259.10535    587.61935    14032.504   -13842.807   -7937.2907   -7888.3908   -3844.3032    78.429247 
   43600    658.73736    -121.7728   0.59603941   -121.17677    2835.7914    4.2818075    4.2818075    4.2818075    2835.7914    26112.654   -872.62405   -16732.656    -1755.384    12185.513   -34890.804    78.502124 
   43700    923.85675   -122.00962     0.835925   -121.17369   -9743.4318    4.2911566    4.2911566    4.2911566   -9743.4318   -1458.4559   -2591.5858   -25180.254    5262.6445   -4451.1649   -16639.365    79.017464 
   43800    935.28812   -122.01761   0.84626834   -121.17135   -1234.2394    4.2840552    4.2840552    4.2840552   -1234.2394   -9413.4008    23080.858   -17370.175   -1500.9337   -33230.989    5886.9412    78.625817 
   43900    785.11409   -121.88386   0.71038773   -121.17347    7076.1419    4.2743443    4.2743443    4.2743443    7076.1419    6346.4544    14876.813    5.1580565   -8846.7032   -15042.098   -6269.5221    78.092352 
   44000    674.34965   -121.78668   0.61016573   -121.17651   -11700.856     4.290989     4.290989     4.290989   -11700.856    7467.8151   -24111.123   -18459.259   -8400.9125    14618.838   -36025.089    79.008208 
   44100    789.54549   -121.88898   0.71439735   -121.17459    -6196.071    4.2866829    4.2866829    4.2866829    -6196.071     2189.519   -1002.2551   -19775.477   -2411.3038   -5319.2103   -20153.694    78.770587 
   44200    1000.3616    -122.0754   0.90514824   -121.17026    9622.5523     4.273577     4.273577     4.273577    9622.5523    -2714.372    35572.639     -3990.61    4932.6339   -29933.322    15883.261    78.050302 
   44300    755.30037   -121.85691   0.68341164   -121.17349   -4695.3033    4.2888328    4.2888328    4.2888328   -4695.3033   -2453.5538   -5482.8908   -6149.4652   -7222.8863    -19864.78   -11639.378    78.889165 
   44400    695.48122   -121.80437   0.62928603   -121.17509   -5098.1329    4.2871338    4.2871338    4.2871338   -5098.1329    18355.872   -24409.251     -9241.02    -7709.434    8237.8757   -33828.855    78.795446 
   44500    730.67633    -121.8332    0.6611313   -121.17207    10806.971     4.279094     4.279094     4.279094    10806.971     29362.89    5279.7793    -2221.756   -1646.5078     1149.917   -13541.336    78.352975 
   44600    883.88612   -121.97094   0.79975874   -121.17118    1021.7841    4.2840432    4.2840432    4.2840432    1021.7841   -4617.5535    19094.549   -11411.643    3152.8629   -22197.627    7743.5893    78.625159 
   44700     741.3709   -121.84525   0.67080797   -121.17444    1702.4284    4.2838376    4.2838376    4.2838376    1702.4284    16215.482    3656.4182   -14764.615    4122.3279   -15930.068   -6765.5075    78.613836 
   44800    705.79226   -121.81287   0.63861567   -121.17425   -5747.3204    4.2863049    4.2863049    4.2863049   -5747.3204    24465.792   -26376.608   -15331.144   -10172.471    3017.4824   -33829.343    78.749748 
   44900    935.85482   -122.01854    0.8467811   -121.17176   -6841.6265    4.2833609    4.2833609    4.2833609   -6841.6265   -2166.7511   -8634.3191   -9723.8093    -9481.148    5196.0819   -12162.031    78.587597 
   45000    819.48739   -121.91389   0.74148942    -121.1724   -2436.2112    4.2817854    4.2817854    4.2817854   -2436.2112   -8598.4989    19470.877   -18181.011    126.99008   -13915.914    12110.738     78.50091 
   45100    665.10409   -121.77746   0.60180016   -121.17566   -9543.9786    4.2874854    4.2874854    4.2874854   -9543.9786    15603.434   -5608.5244   -38626.846    184.73815    -18059.12   -9527.4654    78.814836 
   45200    857.78477   -121.95161   0.77614169   -121.17547    6295.9543    4.2818581    4.2818581    4.2818581    6295.9543    41698.607   -24845.565    2034.8208   -12.255948   -2434.3939   -20969.308    78.504908 
   45300    1104.4324   -122.17014   0.99931367   -121.17083    14265.675    4.2783683    4.2783683    4.2783683    14265.675     41772.57   -2472.5748    3497.0288   -6253.3935    8261.5905   -7851.3555    78.313118 
   45400    659.14997   -121.77473   0.59641275   -121.17831   -7840.4302    4.2899979    4.2899979    4.2899979   -7840.4302   -1379.2595      9869.64   -32011.671   -1636.9677   -2089.8252    10411.646    78.953473 
   45500    435.67156   -121.57415   0.39420478   -121.17994   -14117.248     4.285391     4.285391     4.285391   -14117.248   -13041.711    1119.6889   -30429.721    5425.0095   -8956.2528   -155.62388    78.699388 
   45600    972.11378   -122.05341   0.87958898   -121.17382    7873.8856    4.2742885    4.2742885    4.2742885    7873.8856    26697.373   -6312.6567    3236.9401    6320.9047    -5934.357   -16510.134    78.089293 
   45700    1199.2604   -122.25591     1.085116    -121.1708   -1427.6628    4.2878934    4.2878934    4.2878934   -1427.6628    16650.038   -12073.787   -8859.2399    7546.9178    7608.0043   -657.77874    78.837338 
   45800    541.92878   -121.67216   0.49034855   -121.18182   -1818.2125     4.284963     4.284963     4.284963   -1818.2125    17846.755     10121.77   -33423.162   -941.63797    5822.7387    12391.907    78.675812 
   45900    315.86414   -121.47028   0.28580051   -121.18448   -3664.8773    4.2808145    4.2808145    4.2808145   -3664.8773    20244.137    14546.356   -45785.125   -1633.0578   -11585.054    3403.4322     78.44752 
   46000    1046.4425   -122.12404   0.94684317    -121.1772   -587.16695    4.2813733    4.2813733    4.2813733   -587.16695    9301.2149    2019.1994   -13081.915    8104.0115   -13129.677   -3113.3976    78.478247 
   46100    1310.6105   -122.35788    1.1858679   -121.17201    5126.6964    4.2845031    4.2845031    4.2845031    5126.6964    25741.982   -9464.9952   -896.89722    1681.2577    5770.3294    1684.5197    78.650482 
   46200    576.54332    -121.7056   0.52166851   -121.18393   -19124.592    4.2898819    4.2898819    4.2898819   -19124.592    8742.9658   -15242.359   -50874.384   -3676.3365    414.54728    14318.679     78.94707 
   46300    282.17759    -121.4408   0.25532022   -121.18548    254.10008    4.2749636    4.2749636    4.2749636    254.10008    15230.684    20872.655   -35341.039    -1405.541   -12754.852     8102.422    78.126299 
   46400    941.68446   -122.03436   0.85205589    -121.1823    1108.4487     4.284383     4.284383     4.284383    1108.4487    19107.956    3537.9782   -19320.588    -3895.751   -6735.5945   -3947.7794    78.643868 
   46500    1220.4643   -122.27614    1.1043017   -121.17184     984.9307    4.2897841    4.2897841    4.2897841     984.9307    34846.254   -27477.477   -4413.9849   -121.75424    3084.0102   -3730.4718    78.941668 
   46600    733.08546   -121.84004   0.66331113   -121.17672   -1501.6183    4.2798401    4.2798401    4.2798401   -1501.6183    18069.151   -15923.754   -6650.2527    1017.4212    -5721.769    5510.5218    78.393965 
   46700    532.40348   -121.66072   0.48172986   -121.17899   -7597.6989    4.2816439    4.2816439    4.2816439   -7597.6989   -9937.7176    9562.9627   -22418.342   -4217.0717   -10977.651    8300.4081     78.49313 
   46800    873.13799    -121.9644    0.7900336   -121.17437     7035.759    4.2845032    4.2845032    4.2845032     7035.759    24253.504    2866.9113   -6013.1383   -840.71262    -3859.525   -4155.9216    78.650485 
   46900    942.65476   -122.02523   0.85293383   -121.17229    7152.5724    4.2858998    4.2858998    4.2858998    7152.5724    38529.803   -29884.943    12812.857    3898.7618    4265.2561    -11201.25    78.727422 
   47000    649.89643   -121.76451   0.58803995   -121.17647    3002.7127    4.2789587    4.2789587    4.2789587    3002.7127    50024.225   -25642.589   -15373.498    3705.3242   -1738.3935   -1775.0863    78.345543 
   47100     656.2139   -121.77138   0.59375613   -121.17762   -196.06929     4.281286     4.281286     4.281286   -196.06929    14806.098    3713.0928   -19107.398    2427.9188   -20006.176     11859.98    78.473447 
   47200    948.93565    -122.0314   0.85861692   -121.17279   -12939.715    4.2919352    4.2919352    4.2919352   -12939.715   -20625.227   -3775.3408   -14418.578    -893.3876   -12774.026   -2510.6395    79.060481 
   47300       954.28   -122.03526    0.8634526   -121.17181   -3667.4418    4.2802749    4.2802749    4.2802749   -3667.4418    24610.994   -24968.519   -10644.801    1234.2915    6358.5009   -17804.181    78.417858 
   47400    719.02765   -121.82494   0.65059132   -121.17435    1488.8613    4.2773768    4.2773768    4.2773768    1488.8613     34776.72   -25666.241   -4643.8959    4031.1702    1173.0975   -5248.0277    78.258683 
   47500    759.85171   -121.86283    0.6875298    -121.1753   -14212.552    4.2925643    4.2925643    4.2925643   -14212.552   -12164.531   -12592.307   -17880.818    520.79503   -22401.275    9363.7654    79.095255 
   47600     864.9523   -121.95557   0.78262702   -121.17294    2777.9616    4.2837266    4.2837266    4.2837266    2777.9616    5095.1006    8885.3819   -5646.5977   -2839.0049   -18931.745    2683.6357    78.607728 
   47700    889.13233   -121.97602   0.80450562   -121.17152    14069.982    4.2760446    4.2760446    4.2760446    14069.982    37949.479   -12426.816    16687.282   -5022.0715    5472.4638    -24955.99    78.185585 
   47800    690.73055    -121.8014   0.62498751   -121.17641   -2881.7115    4.2886066    4.2886066    4.2886066   -2881.7115    24400.936   -38894.387    5848.3174   -2948.1455    1438.4273   -17381.047    78.876681 
   47900    644.47155    -121.7593   0.58313141   -121.17616    3731.2665    4.2836067    4.2836067    4.2836067    3731.2665    12514.574    2220.6256   -3541.4007    3153.7224   -26345.533    11185.725    78.601126 
   48000    796.14207   -121.89385   0.72036608   -121.17348    8375.6512     4.279104     4.279104     4.279104    8375.6512   -2049.5167    11146.016    16030.455    -3554.224   -30674.398    5870.2415    78.353525 
   48100     912.5339   -121.99749   0.82567985   -121.17181   -9749.4384    4.2901125    4.2901125    4.2901125   -9749.4384   -1982.0796   -30420.808    3154.5724   -8705.5157    5142.4745   -25110.342      78.9598 
   48200    794.77523   -121.89282   0.71912933   -121.17369   -3745.3657    4.2800491    4.2800491    4.2800491   -3745.3657    21034.881   -25518.773   -6752.2048   -5672.0426    3928.1787   -26264.329    78.405448 
   48300    649.95592   -121.76497   0.58809377   -121.17688   -3957.1415    4.2792907    4.2792907    4.2792907   -3957.1415    -1950.046    2660.0795   -12581.458   -293.35538   -30098.765    14988.625    78.363779 
   48400    737.54804    -121.8436   0.66734896   -121.17625   -16683.172    4.2923034    4.2923034    4.2923034   -16683.172   -31226.282   -3532.7188   -15290.516   -318.60192   -30138.419    15777.446    79.080832 
   48500    986.83667   -122.06608   0.89291056   -121.17317    6411.6551    4.2754635    4.2754635    4.2754635    6411.6551    6041.7205    2168.7715    11024.473   -7270.4114    8136.3876   -16901.913    78.153714 
   48600    907.82275   -121.99655    0.8214171   -121.17514     5633.662    4.2806743    4.2806743    4.2806743     5633.662    3387.2522   -2577.9871    16091.721   -5993.5769    7540.0041   -18545.875    78.439814 
   48700    731.45594   -121.83718   0.66183671   -121.17534    -15183.72    4.2935964    4.2935964    4.2935964    -15183.72   -28083.996   -5217.1356   -12250.029     805.3291   -30585.831     6228.408    79.152323 
   48800    790.06318   -121.88788   0.71486577   -121.17302    10756.219    4.2739696    4.2739696    4.2739696    10756.219   -333.62542    31181.491    1420.7908    1433.5613   -23631.803    15900.566    78.071815 
   48900    812.26466   -121.90884   0.73495413   -121.17389     4272.129    4.2821312    4.2821312    4.2821312     4272.129   -12532.183    9415.7854    15932.784   -2887.6711    17927.783   -3381.7691    78.519932 
   49000    723.34401    -121.8283   0.65449687    -121.1738   -6889.0654    4.2906003    4.2906003    4.2906003   -6889.0654   -25686.109    -12998.77    18017.683   -9561.2084    16095.157   -11278.265    78.986739 
   49100    772.91434   -121.87117   0.69934914   -121.17182    9321.2681    4.2780196    4.2780196    4.2780196    9321.2681    11235.442    10492.996    6235.3659   -1626.1617   -21096.456    1155.0394    78.293971 
   49200    967.58663   -122.04629   0.87549272   -121.17079    1396.4215    4.2823967    4.2823967    4.2823967    1396.4215   -7450.9523    17948.239    -6308.022    5432.6907   -15779.294    6948.0977    78.534538 
   49300    717.00936     -121.825   0.64876514   -121.17624    2124.1533      4.28236      4.28236      4.28236    2124.1533   -14472.362    14384.477    6460.3443   -8213.9084      24460.2    649.20798     78.53252 
   49400    471.34837   -121.60858   0.42648591    -121.1821   -7070.6517    4.2836151    4.2836151    4.2836151   -7070.6517   -18542.216   -2426.6871   -243.05182   -10938.984    26066.834   -9353.6482    78.601586 
   49500    849.01695   -121.94834   0.76820838   -121.18014   -6594.5911    4.2838287    4.2838287    4.2838287   -6594.5911    -21066.48   -6203.3469     7486.054    -613.8619   -8538.1772   -2700.0041    78.613348 
   49600    1267.3767   -122.31928     1.146749   -121.17253    12804.262    4.2778555    4.2778555    4.2778555    12804.262    7348.8535    21540.462    9523.4715    5487.0431   -8190.4034    5845.4869    78.284958 
   49700    894.24005   -121.98715   0.80912719   -121.17802   -9614.4469    4.2904125    4.2904125    4.2904125   -9614.4469   -27295.818    18338.865   -19886.387   -5790.4807    28395.957   -2331.3921    78.976364 
   49800    392.66739   -121.53824   0.35529371   -121.18295   -11110.573     4.283912     4.283912     4.283912   -11110.573   -35506.211    5733.3593   -3558.8686   -9734.1481    28459.635    -6436.457    78.617935 
   49900    665.30572   -121.78242    0.6019826   -121.18044    7048.6387    4.2727946    4.2727946    4.2727946    7048.6387     -9375.75   -4113.5852    34635.251    1502.2434   -4192.2203   -7534.0445    78.007444 
   50000    1081.8247   -122.15418   0.97885769   -121.17532   -5930.7567    4.2893978    4.2893978    4.2893978   -5930.7567   -14319.712   -1904.3427   -1568.2154    5143.8719     -2874.48   -1090.2406    78.920346 
   50100    892.24986   -121.98283   0.80732642    -121.1755    276.79313    4.2846684    4.2846684    4.2846684    276.79313   -15176.116    35166.969   -19160.474    3014.3405    20318.996    7975.5492    78.659586 
   50200    597.28204    -121.7183   0.54043334   -121.17787   -1520.7397    4.2765951    4.2765951    4.2765951   -1520.7397   -19934.706    10446.243    4926.2441   -14442.287    21998.793    984.47485    78.215782 
   50300    647.75297   -121.76358    0.5861005   -121.17748   -9714.5603    4.2864248    4.2864248    4.2864248   -9714.5603   -25497.463   -16523.953    12877.735    -11444.29   -2165.3427   -6941.2299    78.756358 
   50400    985.37688   -122.06346   0.89158971   -121.17187    -768.7831    4.2821063    4.2821063    4.2821063    -768.7831   -14731.314    15362.339   -2937.3745      6227.13   -12210.086   -3184.3888     78.51856 
   50500    812.59336    -121.9091   0.73525155   -121.17384   -198.39632    4.2821936    4.2821936    4.2821936   -198.39632    1443.6164    24691.916   -26730.721   -52.787181    2512.5773    8510.4271    78.523362 
   50600    665.84216    -121.7794   0.60246798   -121.17693   -3370.3662    4.2842379    4.2842379    4.2842379   -3370.3662    4053.8096   -1738.4965   -12426.412   -12198.029    17020.472    11431.074    78.635877 
   50700    865.64643   -121.95771   0.78325508   -121.17446     8873.925    4.2780224    4.2780224    4.2780224     8873.925   -1278.5154    9133.4065    18766.884    -19152.28    6346.7545    412.36949    78.294121 
   50800    957.18719    -122.0393   0.86608308   -121.17322    7059.6667    4.2848162    4.2848162    4.2848162    7059.6667    7293.6696     13738.74    146.59006    1439.3144   -15930.113   -3642.0911    78.667727 
   50900    857.21413   -121.94929   0.77562536   -121.17366   -1679.8277    4.2860122    4.2860122    4.2860122   -1679.8277    9464.0479    10587.796   -25091.328    13025.858   -10587.702    8615.0028    78.733618 
   51000    681.38571   -121.79173   0.61653211    -121.1752    8738.4358    4.2766594    4.2766594    4.2766594    8738.4358    8973.3016    23646.058   -6404.0524   -15178.795    5338.9195    11180.192    78.219312 
   51100    765.54671   -121.86959   0.69268275   -121.17691   -1912.5179      4.28402      4.28402      4.28402   -1912.5179   -6361.0368   -6839.1478     7462.631   -30020.954     12169.04    1921.2686    78.623878 
   51200     842.6895   -121.93673   0.76248317   -121.17424   -3327.4415    4.2859911    4.2859911    4.2859911   -3327.4415   -8332.6275    -11470.99     9821.293   -14540.279   -7284.5898    -5411.074    78.732455 
   51300    920.95398   -122.00567   0.83329852   -121.17237    4186.0856    4.2769298    4.2769298    4.2769298    4186.0856    6831.0302    16773.381   -11046.154    13200.562   -21872.636   -2757.3918    78.234147 
   51400    603.93034   -121.72381   0.54644887   -121.17737   -8196.3435     4.284466     4.284466     4.284466   -8196.3435   -12451.798    387.56641   -12524.799   -13332.648   -3205.1157    7300.5652    78.648438 
   51500    573.86588    -121.6966   0.51924591   -121.17735   -15750.299     4.286604     4.286604     4.286604   -15750.299   -24699.947    -37908.26    15357.309   -52184.213    10272.124    4098.4279    78.766237 
   51600    919.79213   -122.00662   0.83224725   -121.17437    1609.3652     4.278603     4.278603     4.278603    1609.3652     4442.865   -9383.1154     9768.346   -17638.232   -871.84944   -7337.9611    78.326007 
   51700     1165.291   -122.22612    1.0543798   -121.17174    959.65622    4.2807137    4.2807137    4.2807137    959.65622    20383.166    3210.3352   -20714.533    16395.209   -11258.555   -7332.5554    78.441981 
   51800    652.71739   -121.77059   0.59059241   -121.17999    -6539.283    4.2852971    4.2852971    4.2852971    -6539.283    8470.5293   -23640.944   -4447.4345   -26284.944   -9662.8777    2561.3627    78.694216 
   51900    445.45328   -121.58674   0.40305549   -121.18369   -12739.759    4.2832848    4.2832848    4.2832848   -12739.759   -25955.757   -33666.421    21402.902   -49141.824    2478.6973     9242.206    78.583409 
   52000    925.56682   -122.01491   0.83747231   -121.17744    1697.1394    4.2797311    4.2797311    4.2797311    1697.1394    3116.4392   -9742.0149    11716.994   -203.01761    7361.3361   -5491.8669    78.387974 
   52100    1209.5248   -122.26572    1.0944034   -121.17131    275.97424    4.2846073    4.2846073    4.2846073    275.97424    16760.151   -11099.024   -4833.2042    18680.404    544.08693   -9827.6491    78.656221 
   52200    758.67176   -121.86438   0.68646215   -121.17791   -2537.4339    4.2827735    4.2827735    4.2827735   -2537.4339   -10547.967   -22239.712    25175.377   -33009.376   -917.30215    3399.1876    78.555271 
   52300    540.31126   -121.66713   0.48888498   -121.17825    4445.4725    4.2796876    4.2796876    4.2796876    4445.4725   -2743.5111   -12747.153    28827.082   -44764.829   -397.14364      7284.15    78.385588 
   52400    822.30998   -121.91894   0.74404335   -121.17489    -1129.201    4.2863161    4.2863161    4.2863161    -1129.201    4558.0465   -7724.1626   -221.48708    11005.203    526.68525     1827.971    78.750366 
   52500    857.33451   -121.94941   0.77573428   -121.17368    11111.427    4.2782102    4.2782102    4.2782102    11111.427   -1966.8729    14778.411    20522.743    31304.499    4467.7866   -5109.9827    78.304437 
   52600    711.46126   -121.82144    0.6437451    -121.1777    4446.6416    4.2791036    4.2791036    4.2791036    4446.6416    -5175.746   -5974.2898    24489.961   -25308.947    3103.4334   -1093.3566      78.3535 
   52700    798.74366   -121.89741   0.72272005   -121.17469   -11026.663    4.2903381    4.2903381    4.2903381   -11026.663   -12628.301   -19772.057   -679.63242   -40057.202   -4193.2027    6814.8868     78.97226 
   52800    837.03039    -121.9302   0.75736269   -121.17284    11.621099    4.2783963    4.2783963    4.2783963    11.621099   -14487.924    9339.6233    5183.1637    11661.863   -7863.3909    1249.9256    78.314653 
   52900    668.46837   -121.78134   0.60484423   -121.17649   -5308.6322    4.2766069    4.2766069    4.2766069   -5308.6322    -18549.37    2656.0052    -32.53132     34797.28    2906.6247   -2763.4978     78.21643 
   53000    669.30233   -121.78386   0.60559881   -121.17826   -12927.103    4.2895255    4.2895255    4.2895255   -12927.103   -21107.315   -6568.2805   -11105.712   -7334.7893    13478.489   -4540.3268    78.927395 
   53100    1134.7038   -122.19881    1.0267038    -121.1721    2329.1667    4.2816872    4.2816872    4.2816872    2329.1667    2877.4042    7208.8892   -3098.7934   -32450.631    539.11247   -2287.1899    78.495509 
   53200    951.42108   -122.03534   0.86086579   -121.17447      8813.71    4.2753643    4.2753643    4.2753643      8813.71    8157.0236    16672.699    1611.4073    11632.676    -15007.75    2346.1674    78.148273 
   53300    381.45383   -121.53031   0.34514744   -121.18516   -8714.9094    4.2869981    4.2869981    4.2869981   -8714.9094   -22108.759    17357.789   -21393.759    29564.496   -1075.6188   -3370.1084    78.787961 
   53400     627.4574   -121.74987   0.56773664   -121.18213   -4010.6121    4.2877642    4.2877642    4.2877642   -4010.6121   -9314.1483    26110.458   -28828.146      8177.88    19712.332   -4161.9708     78.83021 
   53500    1361.7075   -122.40353    1.2321016   -121.17143    15352.366    4.2752857    4.2752857    4.2752857    15352.366    29937.711    16723.187   -603.80026   -7117.9219    7766.0265   -1972.2353    78.143964 
   53600    1092.6722   -122.16738   0.98867275   -121.17871    10449.336    4.2797215    4.2797215    4.2797215    10449.336    14342.084    14729.047    2276.8781   -1700.7764    -12627.31    2707.4902    78.387445 
   53700    347.71651   -121.50165    0.3146212   -121.18703   -12956.169    4.2911804    4.2911804    4.2911804   -12956.169   -28227.737    20618.108    -31258.88    26336.468   -4155.2635    2429.6287    79.018778 
   53800     515.6857   -121.65212   0.46660326   -121.18552   -4396.2029    4.2795684    4.2795684    4.2795684   -4396.2029   -20854.453    23809.909   -16144.064    16046.075    13768.523   -2858.4293    78.379034 
   53900    1120.1345   -122.18819    1.0135213   -121.17467    16750.436    4.2747755    4.2747755    4.2747755    16750.436    11557.446    29582.968    9110.8952   -10628.814    8806.1897   -524.00994    78.115991 
   54000    998.94495   -122.07928   0.90386638   -121.17541   -4298.5445    4.2897602    4.2897602    4.2897602   -4298.5445   -14174.444    9143.1871   -7864.3766   -14265.318   -8244.7571    1296.7312    78.940352 
   54100    471.25633   -121.60838   0.42640263   -121.18198    -9046.416    4.2849546    4.2849546    4.2849546    -9046.416   -31671.962    11539.871   -7007.1569    12364.261   -5667.7297    2601.8341     78.67535 
   54200    626.23968   -121.74372   0.56663483   -121.17709    8806.8429    4.2728282    4.2728282    4.2728282    8806.8429    -6529.103    29941.075    3008.5567    34986.279    9602.2915     1510.404    78.009282 
   54300    1057.3946   -122.13034   0.95675283   -121.17359   -5002.5656    4.2859314    4.2859314    4.2859314   -5002.5656   -11321.871    7100.9555   -10786.781   -16355.796    8216.2861     151.8562    78.729165 
   54400    852.96874   -121.94673   0.77178404   -121.17495   -10315.302    4.2880422    4.2880422    4.2880422   -10315.302    -23195.88   -13911.059    6161.0333   -40604.746   -3155.2627   -855.21367    78.845543 
   54500    720.73187   -121.82746   0.65213334   -121.17533    2092.2617    4.2728369    4.2728369    4.2728369    2092.2617   -10228.737   -6132.6172     22638.14    8915.7981   -3504.6056    506.39259    78.009762 
   54600    867.35925   -121.96083   0.78480488   -121.17603   -2210.7071     4.282088     4.282088     4.282088   -2210.7071   -12976.626    14406.335   -8061.8307    36439.679    3087.6404    1097.8036    78.517555 
   54700    842.77167   -121.93681   0.76255752   -121.17425   -2613.5216    4.2888543    4.2888543    4.2888543   -2613.5216   -2407.9761    2031.1962    -7463.785   -9513.5776    6110.8658   -2810.2594    78.890348 
   54800    739.65023   -121.84355   0.66925108    -121.1743    8974.5937    4.2773202    4.2773202    4.2773202    8974.5937    3515.9724    1939.5418    21468.267   -52108.778    1288.1383   -1621.0528    78.255577 
   54900    803.78711   -121.90146   0.72728347   -121.17418    1082.7389    4.2804046    4.2804046    4.2804046    1082.7389   -17483.544    3475.2607      17256.5   -2428.0583   -2056.8458   -96.585239    78.424989 
   55000    947.80809   -122.03027   0.85759668   -121.17267    833.36792    4.2839209    4.2839209    4.2839209    833.36792    3436.7416   -3596.4353    2659.7976    41593.444    2892.4805    3140.9465    78.618426 
   55100      707.808   -121.81656   0.64043955   -121.17612   -1621.7322     4.281561     4.281561     4.281561   -1621.7322     -10405.5   -2703.4518    8243.7549   -8866.1795     4324.018    638.80522    78.488571 
   55200    536.71398   -121.66544   0.48563009   -121.17981   -10385.295    4.2812505    4.2812505    4.2812505   -10385.295   -32466.008    -10436.48    11746.604   -54941.223    1848.1344   -4370.9191    78.471493 
   55300    792.52235   -121.89447   0.71709088   -121.17738   -2084.4032    4.2825113    4.2825113    4.2825113   -2084.4032   -7601.4561   -7200.7018    8548.9484   -12812.734   -1087.9875   -494.32576    78.540841 
   55400    1119.1307   -122.18474    1.0126129   -121.17213    2342.8783    4.2837634    4.2837634    4.2837634    2342.8783    3251.2179    699.33792     3078.079    36047.535   -2016.3087    1545.6242     78.60975 
   55500    817.03101   -121.91719   0.73926683   -121.17792    695.56236    4.2786019    4.2786019    4.2786019    695.56236   -2009.4192   -11750.289    15846.395   -9824.3077    1219.3343   -176.94135    78.325947 
   55600    313.92727   -121.46787   0.28404799   -121.18382   -12137.091    4.2858508    4.2858508    4.2858508   -12137.091   -14934.945    -30180.07    8703.7432   -57033.488     2128.608   -4750.6442    78.724725 
   55700    760.33062   -121.86985   0.68796312   -121.18189   -9445.5212    4.2841259    4.2841259    4.2841259   -9445.5212   -7026.2964   -7717.2661   -13593.001   -12416.851   -3621.2988   -5098.4695    78.629709 
   55800    1307.6043   -122.35398    1.1831479   -121.17083    10101.827    4.2773096    4.2773096    4.2773096    10101.827    23820.963    13901.398   -7416.8802    16810.032   -3187.6795    927.16219    78.254994 
   55900     974.3188   -122.05867   0.88158412   -121.17709   -7976.8084    4.2861559    4.2861559    4.2861559   -7976.8084   -3331.5243   -28618.433    8019.5315   -32200.582    1610.7386    1353.7497    78.741535 
   56000     464.9169   -121.60461   0.42066658   -121.18394   -2581.2457    4.2793371    4.2793371    4.2793371   -2581.2457    -9866.281   -9450.9722    11573.516   -42033.903    1641.6106   -1217.2989    78.366329 
   56100    622.03263   -121.74323   0.56282819    -121.1804   -2446.7736    4.2817736    4.2817736    4.2817736   -2446.7736    3028.2366    14003.135   -24371.692   -4512.2883   -917.55061   -4180.8683    78.500261 
   56200     934.0946   -122.02074   0.84518843   -121.17556   -2067.3165    4.2847038    4.2847038    4.2847038   -2067.3165    5558.8779    12970.325   -24731.153    14315.871   -3614.1987   -4319.2209    78.661534 
   56300    857.83223   -121.95023   0.77618463   -121.17405      16443.6    4.2753673    4.2753673    4.2753673      16443.6    19683.458    9730.7104    19916.631   -14518.742   -4436.9029     2288.085    78.148436 
   56400    861.41229   -121.95421   0.77942394   -121.17479   -2682.5566    4.2860063    4.2860063    4.2860063   -2682.5566    -524.2489   -9263.6368    1740.2161   -34337.469    3833.7203     1841.414    78.733292 
   56500    720.41347   -121.82762   0.65184524   -121.17578   -3953.4304    4.2841718    4.2841718    4.2841718   -3953.4304   -5270.5576     13136.73   -19726.463   -2404.8876    5134.7175   -2941.4144    78.632238 
   56600     646.4752   -121.76084   0.58494435    -121.1759    6373.8254    4.2741624    4.2741624    4.2741624    6373.8254   -1918.9279    34995.087   -13954.683    14371.033    1787.6118   -1942.6363    78.082385 
   56700    811.59333   -121.91072    0.7343467   -121.17638   -7788.1352    4.2866118    4.2866118    4.2866118   -7788.1352   -14809.691    1551.7121   -10106.427    2850.1777   -4658.0302    1275.4143    78.766666 
   56800    1059.8629   -122.13065   0.95898622   -121.17166    2298.4693    4.2836538    4.2836538    4.2836538    2298.4693    14041.027   -8614.9818    1469.3631   -6129.6261   -377.33579    8136.7308    78.603721 
   56900    916.30364   -122.00318   0.82909079   -121.17409    9579.8535    4.2755071    4.2755071    4.2755071    9579.8535    19024.762    24504.245   -14789.446   -10009.654    10274.303    5161.8097    78.156101 
   57000    440.81015   -121.58094   0.39885429   -121.18208   -11614.183    4.2851918    4.2851918    4.2851918   -11614.183    -14934.45    19910.708   -39818.807    11621.035   -1149.9539   -2659.6694    78.688414 
   57100    544.44594   -121.67542   0.49262613    -121.1828   -1815.9094    4.2818828    4.2818828    4.2818828   -1815.9094   -6410.5628    11093.453   -10130.619     21165.32   -10496.334   -326.09557    78.506265 
   57200    1183.2233   -122.24552    1.0706053   -121.17492    5327.7285    4.2806898    4.2806898    4.2806898    5327.7285    22487.753   -7028.0996    523.53165     1874.779   -1409.2575    2710.1307    78.440666 
   57300    1124.1138   -122.19231    1.0171218   -121.17518   -2498.2005    4.2832129    4.2832129    4.2832129   -2498.2005    9600.7931    70.826701   -17166.221   -7718.2737     3213.929    5358.5445     78.57945 
   57400    516.02392   -121.65032   0.46690929   -121.18341    3672.2214    4.2767544    4.2767544    4.2767544    3672.2214   -5722.9743    33618.759    -16879.12     2413.745   -1986.2278     2036.728    78.224525 
   57500    571.79284    -121.6999   0.51737018   -121.18253   -5454.0198    4.2867559    4.2867559    4.2867559   -5454.0198   -1017.5454    6127.5923   -21472.106    23737.123   -4642.6843   -2112.8993    78.774612 
   57600     990.6925   -122.07033   0.89639939   -121.17393    3189.9357     4.284082     4.284082     4.284082    3189.9357     22056.78   -13808.838     1321.866    3715.4913   -1731.8218   -711.76946    78.627291 
   57700    876.73695   -121.96699   0.79329002    -121.1737    15026.536    4.2730187    4.2730187    4.2730187    15026.536    30845.039   -385.31333    14619.882   -30076.431    2375.6835   -1147.9371    78.019721 
   57800    590.09928   -121.71324   0.53393423   -121.17931   -8687.5975    4.2868727    4.2868727    4.2868727   -8687.5975   -8310.0187    4224.7593   -21977.533   -11046.858    4748.8091    3051.9972    78.781049 
   57900    803.02884   -121.90238   0.72659737   -121.17578   -6232.5279    4.2836073    4.2836073    4.2836073   -6232.5279   -6191.7683    15300.329   -27806.145    10061.074   -403.52305    -625.4276     78.60116 
   58000     948.6914   -122.03161   0.85839591   -121.17321    3471.3375     4.275804     4.275804     4.275804    3471.3375    15005.918    106.32867   -4698.2339   -4578.9294   -4632.7253   -9148.5271    78.172384 
   58100    743.71261   -121.84963    0.6729268   -121.17671    -13951.64    4.2859532    4.2859532    4.2859532    -13951.64   -3723.8214   -39633.926     1502.827   -36481.646    2313.5882   -6611.6488    78.730366 
   58200    750.19804   -121.85494   0.67879495   -121.17614   -2577.5835    4.2803881    4.2803881    4.2803881   -2577.5835   -3617.9158    -5134.187    1019.3524   -23429.229    7359.3421   -476.23602    78.424082 
   58300    895.11937   -121.98413   0.80992282    -121.1742    602.17937    4.2811508    4.2811508    4.2811508    602.17937    1139.0549    26301.477   -25633.994    12548.628    6869.4581    3888.7718     78.46601 
   58400    798.35793   -121.89691   0.72237103   -121.17454   -6346.4148    4.2847024    4.2847024    4.2847024   -6346.4148    2799.2603    -1019.321   -20819.184   -7530.0188   -4783.2353   -5028.4941    78.661456 
   58500    795.01755   -121.89369   0.71934859   -121.17435    6991.7361    4.2776015    4.2776015    4.2776015    6991.7361    17577.079   -15019.206    18417.336   -33592.401   -3659.6904   -9750.0407    78.271017 
   58600     930.7392   -122.01514   0.84215239   -121.17298      699.892    4.2836147    4.2836147    4.2836147      699.892    3569.1407   -847.59561   -621.86908   -11216.341    5032.8021   -3845.1805    78.601565 
   58700    642.01447   -121.75797   0.58090818   -121.17706   -935.42688    4.2822066    4.2822066    4.2822066   -935.42688     -21.4897    28011.647   -30796.438    8800.4744    554.58902    713.25489    78.524077 
   58800    502.55707    -121.6357    0.4547242   -121.18098     285.0144    4.2781306    4.2781306    4.2781306     285.0144   -4147.8102    24434.518   -19431.664    8092.8216   -5442.6509    931.10356    78.300064 
   58900    959.52243    -122.0457   0.86819606    -121.1775    1287.3311    4.2833911    4.2833911    4.2833911    1287.3311    6689.1978     2148.839   -4976.0436   -8763.0996   -4792.3962   -6368.3097    78.589258 
   59000     1267.882   -122.31898    1.1472063   -121.17177     8573.416    4.2818758    4.2818758    4.2818758     8573.416    25523.945    2202.6514   -2006.3485   -11131.677    4356.3545   -3650.7617    78.505883 
   59100    540.76838   -121.67483    0.4892986   -121.18553   -10129.198    4.2836092    4.2836092    4.2836092   -10129.198   -15481.333     22832.86    -37739.12    8036.5943    4636.3336    5020.0362    78.601261 
   59200    187.35428   -121.36025   0.16952209   -121.19073   -9623.5845    4.2784489    4.2784489    4.2784489   -9623.5845   -24248.977    35512.075   -40133.851    7248.1483   -3110.3696    4896.5409    78.317543 
   59300    966.54642    -122.0608   0.87455151   -121.18625    5016.7754    4.2823802    4.2823802    4.2823802    5016.7754    20374.326     12119.54    -17443.54    5997.0956   -7926.3528    1933.3281    78.533632 
   59400    1451.8807   -122.48795    1.3136921   -121.17426    3322.4787    4.2876026    4.2876026    4.2876026    3322.4787     24362.98    -5205.391   -9190.1526   -3413.8149    3871.9332   -1975.5462    78.821297 
   59500    764.12593   -121.87623    0.6913972   -121.18483    8617.3987    4.2740793    4.2740793    4.2740793    8617.3987     15389.71    28267.465   -17804.979    -7810.166    8958.3576    632.25581    78.077826 
   59600    354.43827   -121.50831    0.3207032   -121.18761   -6633.2194    4.2833404    4.2833404    4.2833404   -6633.2194   -3501.8061    26398.409   -42796.261    12660.509   -5809.6744    3896.3084     78.58647 
   59700    845.38929   -121.94411   0.76492599   -121.17918    -9433.443     4.287094     4.287094     4.287094    -9433.443    1090.2336    3587.0085   -32977.571    3910.5044   -7661.0576    1303.7399    78.793253 
   59800    1067.4071   -122.13817   0.96581237   -121.17236    12958.509    4.2733728    4.2733728    4.2733728    12958.509      29166.6   -2139.9739    11848.901   -22365.837    345.65681   -4978.6517    78.039115 
   59900    758.32235   -121.86301     0.686146   -121.17687   -11201.655    4.2853819    4.2853819    4.2853819   -11201.655   -4861.9721   -18894.076    -9848.918   -19962.981   -1688.3847   -7339.8003    78.698886 
   60000    693.38715   -121.80332   0.62739126   -121.17593   -10564.116    4.2843361    4.2843361    4.2843361   -10564.116    -11483.31    15950.292    -36159.33    2372.1913   -8793.3426    3980.1426    78.641286 
   60100     833.7151   -121.92702   0.75436294   -121.17266     3082.391    4.2768874    4.2768874    4.2768874     3082.391    2193.4197     22289.89   -15236.137    6825.7686   -6628.2067    2603.3795    78.231821 
   60200    763.65609   -121.86479   0.69097208   -121.17382   -9670.9309    4.2850922    4.2850922    4.2850922   -9670.9309   -6700.8575   -23542.938    1231.0032   -31321.465    2246.2908   -11360.426     78.68293 
   60300    704.81187   -121.81321   0.63772859   -121.17548    -642.1471     4.280063     4.280063     4.280063    -642.1471    4912.5012   -15156.973    8318.0309   -33578.522    147.71197   -9576.0037    78.406215 
   60400    853.10438   -121.94601   0.77190677    -121.1741    513.84352    4.2823027    4.2823027    4.2823027    513.84352   -1040.0372    19742.055   -17160.487    7237.3693    -15182.85    -5137.703    78.529363 
   60500     832.1559   -121.92628   0.75295215   -121.17333   -1614.0624    4.2834816    4.2834816    4.2834816   -1614.0624   -6117.3859    23719.545   -22444.346    2298.3927   -7012.5517     3720.832    78.594242 
   60600    698.78509   -121.80742   0.63227543   -121.17514    1738.8487    4.2783895    4.2783895    4.2783895    1738.8487    2128.5225   -3394.2494    6482.2731   -26955.225    9318.4453    -2241.453    78.314278 
   60700     759.4472   -121.86182   0.68716379   -121.17465   -6625.9074     4.286059     4.286059     4.286059   -6625.9074    829.41959   -25869.247    5162.1054   -26531.241   -672.89768   -14878.018    78.736199 
   60800    931.54844   -122.01566   0.84288461   -121.17277   -132.52834      4.27942      4.27942      4.27942   -132.52834    13325.578    2743.8646   -16467.028    3529.5801   -11772.738   -5173.1125    78.370881 
   60900    745.68435    -121.8512   0.67471087   -121.17649    4916.6326    4.2783717    4.2783717    4.2783717    4916.6326    3578.0946    23678.903   -12507.099    9158.0894   -6925.2637    1756.4402    78.313304 
   61000    761.69859   -121.86619   0.68920089   -121.17699    -9220.651    4.2863798    4.2863798    4.2863798    -9220.651   -12242.149    -4153.113   -11266.691   -22126.803    9636.5962   -126.79539    78.753879 
   61100    951.63121   -122.03458   0.86105592   -121.17353    5942.6486    4.2788608    4.2788608    4.2788608    5942.6486    19769.175   -10356.821    8415.5926   -18576.818    6708.6733   -12639.183    78.340163 
   61200    873.55511   -121.96483   0.79041102   -121.17442   -2396.1633    4.2818483    4.2818483    4.2818483   -2396.1633    8496.6173   -8757.2238   -6927.8833    14199.721   -15272.238   -16602.315    78.504369 
   61300    554.88592   -121.68082   0.50207244   -121.17875   -6042.2225    4.2825709    4.2825709    4.2825709   -6042.2225    -14874.71     19035.38   -22287.338    13381.703     -12037.8     2457.724    78.544122 
   61400    781.89188    -121.8854   0.70747221   -121.17793    1931.0843    4.2797857    4.2797857    4.2797857    1931.0843   -1559.3929    22834.958   -15482.312   -1647.4049    12162.712    2447.3946    78.390977 
   61500    1106.4273   -122.17335    1.0011187   -121.17223    4335.6233     4.283838     4.283838     4.283838    4335.6233    21557.998   -3100.5148   -5450.6135   -9583.3733    11867.077   -5830.1152    78.613861 
   61600    866.01904   -121.95967   0.78359222   -121.17608    2710.3505    4.2795106    4.2795106    4.2795106    2710.3505    24587.771   -5686.0791    -10770.64    8041.7184   -13790.825    -9975.181    78.375858 
   61700    422.93252   -121.56539   0.38267823   -121.18271   -10040.279    4.2820472    4.2820472    4.2820472   -10040.279   -18839.683    11378.297   -22659.452    19712.169    -20496.04   -5572.6449     78.51531 
   61800    596.20426   -121.72086   0.53945815    -121.1814   -4556.9144    4.2831201    4.2831201    4.2831201   -4556.9144   -12794.473    21135.175   -22011.445    3527.1281    3956.6845    5320.2123    78.574342 
   61900    1126.2953   -122.19195    1.0190957   -121.17285    6176.7831    4.2791159    4.2791159    4.2791159    6176.7831    24965.429    4349.6479   -10784.727   -5499.1162    16682.935   -468.39425    78.354179 
   62000    925.91296   -122.01329    0.8377855   -121.17551   -102.46789    4.2830189    4.2830189    4.2830189   -102.46789    7614.7691   -8535.5953    613.42249   -758.50926   -5971.6158   -4762.6644    78.568775 
   62100     626.8164   -121.74627   0.56715665   -121.17911    474.67726    4.2811742    4.2811742    4.2811742    474.67726    184.70423    8023.8733   -6784.5458    7987.4425   -28175.703   -5104.4241    78.467298 
   62200    769.14402   -121.87263   0.69593768   -121.17669    2463.9246     4.282448     4.282448     4.282448    2463.9246    3581.4389    19597.034   -15786.699    11067.192   -10598.475    799.81162    78.537359 
   62300     1011.604   -122.08876   0.91532053   -121.17344    2045.0943    4.2811725    4.2811725    4.2811725    2045.0943    2787.1677    180.43203    3167.6831   -10210.586    15316.248     10148.61    78.467206 
   62400     746.6796   -121.85184    0.6756114   -121.17622    8673.9427     4.277538     4.277538     4.277538    8673.9427    8629.8375   -3274.4748    20666.465   -22091.742     3345.625    2090.4332    78.267529 
   62500    668.51481   -121.78334   0.60488625   -121.17845   -13071.966     4.287461     4.287461     4.287461   -13071.966   -26359.386   -1652.0205   -11204.491   -3385.7903   -25731.197   -3877.8306     78.81349 
   62600    847.21725   -121.94288   0.76657998    -121.1763    2200.4637      4.27892      4.27892      4.27892    2200.4637    -19789.19    24808.864    1581.7179     10966.14   -29442.311   -3355.7932    78.343414 
   62700    1058.1703   -122.13095   0.95745469    -121.1735    11011.068    4.2745603    4.2745603    4.2745603    11011.068    5967.7587    10793.082    16272.364   -3416.0379    2598.0805    9097.5167    78.104194 
   62800    694.47636   -121.80613    0.6283768   -121.17775    -11013.04    4.2908874    4.2908874    4.2908874    -11013.04   -12148.626   -26291.858    5401.3643   -28249.998    7910.1821     11402.99    79.002597 
   62900    438.18336    -121.5772   0.39647752   -121.18073   -3835.6011    4.2792435    4.2792435    4.2792435   -3835.6011    -14247.54    348.54559    2392.1914   -16758.759   -30800.596   -1629.4427    78.361188 
   63000    813.33842   -121.91398    0.7359257   -121.17806    4012.7499    4.2756834    4.2756834    4.2756834    4012.7499   -5612.9835    24269.651   -6618.4175    8290.0223   -33359.973   -2382.1861     78.16577 
   63100    1190.9506   -122.24804    1.0775971   -121.17044   -4524.1428    4.2885429    4.2885429    4.2885429   -4524.1428   -2501.8958   -11564.541    494.00829   -3833.3899    2148.6231    949.90878    78.873169 
   63200    868.04523   -121.96195   0.78542557   -121.17653    5137.3913    4.2791127    4.2791127    4.2791127    5137.3913    11860.129   -15624.836    19176.881   -21264.155    7782.1217    9794.3798    78.354002 
   63300    427.39265   -121.56927   0.38671385   -121.18256   -10989.849    4.2791386    4.2791386    4.2791386   -10989.849   -21420.413   -4141.6589   -7407.4763   -18114.961   -35875.936    3891.4263    78.355422 
   63400    597.73565   -121.72371   0.54084377   -121.18287   -7566.3371    4.2825432    4.2825432    4.2825432   -7566.3371    -22706.49    16563.578   -16556.099    3127.8989   -42657.351   -8175.3567    78.542598 
   63500    1177.7439   -122.24031    1.0656475   -121.17466    2626.4339    4.2815198    4.2815198    4.2815198    2626.4339   -4344.6862      5665.19     6558.798    7351.1575    13285.556    2271.5938    78.486305 
   63600    963.69054   -122.04828   0.87196746   -121.17631    -1597.122    4.2820109    4.2820109    4.2820109    -1597.122   -17367.356    1376.2842    11199.706   -17975.122    15773.594    1108.2303    78.513312 
   63700    479.91487   -121.61649   0.43423706   -121.18225    160.79256    4.2772589    4.2772589    4.2772589    160.79256   -20703.665    19978.169    1207.8744    -18740.01   -38201.569    688.00719    78.252209 
   63800    649.54099   -121.76872   0.58771834     -121.181   -6963.6793    4.2866457    4.2866457    4.2866457   -6963.6793   -9056.5839    11448.184   -23282.638   -3121.7754   -37752.169    3631.4393    78.768537 
   63900    1108.0255   -122.17613    1.0025647   -121.17356    4368.8865    4.2801383    4.2801383    4.2801383    4368.8865    9032.6146    5309.6422   -1235.5973     6324.793    11015.902   -3875.2348    78.410352 
   64000    926.16358   -122.01386   0.83801227   -121.17585    13749.405    4.2732175    4.2732175    4.2732175    13749.405    17814.249    9815.0228    13618.943   -1170.2293    19449.213    1530.3788    78.030609 
   64100    555.07617   -121.68315   0.50224459   -121.18091   -16818.228    4.2896254    4.2896254    4.2896254   -16818.228   -27465.062   -694.16187   -22295.459   -22179.828    -28140.16    3.3604833    78.932907 
   64200    655.29845   -121.77275   0.59292781   -121.17982    -1713.006    4.2782777    4.2782777    4.2782777    -1713.006   -11824.417    6367.8621    317.53671   -6653.8994    -36703.48     5074.161    78.308141 
   64300    949.78435   -122.03432   0.85938484   -121.17493    3438.0522    4.2767971    4.2767971    4.2767971    3438.0522    10142.227   -9112.6314    9284.5607    20875.399    5944.2841    9194.7806    78.226869 
   64400    937.82142   -122.02232   0.84856053   -121.17376    -14249.18    4.2882047    4.2882047    4.2882047    -14249.18   -15400.988   -18087.643   -9258.9086    8985.8485    16185.368   -4439.7135    78.854507 
   64500    785.96365   -121.88653   0.71115643   -121.17538    9951.4234    4.2740516    4.2740516    4.2740516    9951.4234   -2396.4869    24832.469    7418.2879   -14384.964   -15844.847   -4247.0957    78.076312 
   64600     804.1522   -121.90361   0.72761381     -121.176   -2130.5687    4.2831452    4.2831452    4.2831452   -2130.5687   -2753.3399    4978.6656   -8617.0318   -7852.8265   -23082.459    3671.8882    78.575726 
   64700    665.86435   -121.77896   0.60248806   -121.17648   -5465.1179    4.2856243    4.2856243    4.2856243   -5465.1179   -2675.3643   -18617.065    4897.0759    28908.782   -1559.5788    8652.8675     78.71224 
   64800    697.06943   -121.80622   0.63072307    -121.1755    15461.671    4.2712238    4.2712238    4.2712238    15461.671    16557.982   -5413.0038    35240.035    29589.133    9214.8569    4485.3078    77.921442 
   64900    953.24459   -122.03707   0.86251574   -121.17456   -1560.6996    4.2870196    4.2870196    4.2870196   -1560.6996    7757.4975   -1041.6583   -11397.938   -8603.4693   -11079.902   -9356.9685    78.789148 
   65000    978.21661   -122.05895   0.88511094   -121.17384   -116.82302    4.2824769    4.2824769    4.2824769   -116.82302   -5077.8288    8528.0259   -3800.6663   -2628.6194   -20602.548   -1824.5382    78.538949 
   65100    637.22798   -121.75439   0.57657727   -121.17781    4765.2212    4.2722235    4.2722235    4.2722235    4765.2212   -5225.8979   -9574.5725    29096.134     33230.85   -2240.3937    14108.499    77.976169 
   65200    566.24749   -121.69292   0.51235263   -121.18057   -19042.911    4.2870225    4.2870225    4.2870225   -19042.911   -6488.3466   -47853.296   -2787.0909    32570.236    5889.2235    10539.048     78.78931 
   65300    937.02763   -122.02317   0.84784229   -121.17533   -4174.3659    4.2814033    4.2814033    4.2814033   -4174.3659    9752.4333   -7084.8806    -15190.65   -3042.1523   -5631.6895   -5807.6249    78.479895 
   65400    1039.7347   -122.11313   0.94077378   -121.17236    465.08675    4.2789445    4.2789445    4.2789445    465.08675   -6461.7335    10352.302   -2495.3086     -4065.38   -17320.402   -9913.6829    78.344763 
   65500    708.73933   -121.81865   0.64128224   -121.17737   -11262.203    4.2821166    4.2821166    4.2821166   -11262.203   -20722.606   -24674.883     11610.88    29839.228   -8223.0014    10695.605    78.519129 
   65600    509.53747   -121.64117   0.46104021   -121.18013   -1335.3398    4.2793029    4.2793029    4.2793029   -1335.3398    8150.6555    -18599.39    6442.7152    28198.811    6093.7829    21317.449    78.364446 
   65700    855.45356   -121.95158   0.77403236   -121.17755   -6520.4416    4.2851855    4.2851855    4.2851855   -6520.4416     1131.991   -1482.5103   -19210.806   -2044.4493    2488.4798    2270.2261     78.68807 
   65800     1138.833   -122.20382      1.03044   -121.17338    11544.462    4.2747509    4.2747509    4.2747509    11544.462    3148.3594     24100.77     7384.257    -8542.339   -6201.2404   -9955.5884    78.114642 
   65900    791.86885   -121.89612   0.71649958   -121.17962    5672.7023    4.2797453    4.2797453    4.2797453    5672.7023   -7314.4949    5541.4807    18791.121    9374.8672   -5896.4865    3820.2421    78.388758 
   66000    457.20846    -121.5962   0.41369183    -121.1825    -18158.67    4.2908887    4.2908887    4.2908887    -18158.67    -14975.25   -31859.122   -7641.6375    23732.606    2507.6626    28077.257    79.002669 
   66100    771.32871   -121.87745   0.69791442   -121.17954    10230.393    4.2703028    4.2703028    4.2703028    10230.393    20558.081    9193.3924    939.70464    5714.5786    11619.573    24833.595    77.871048 
   66200    1179.7797   -122.24337    1.0674895   -121.17588    7468.9514    4.2795665    4.2795665    4.2795665    7468.9514    1309.2033    25822.101   -4724.4503   -8645.2817    7863.9854   -9320.5972    78.378931 
   66300    887.32555   -121.97936    0.8028708   -121.17649   -7131.1763    4.2898221    4.2898221    4.2898221   -7131.1763   -20058.833     -1898.34    563.64362    3944.3744   -3297.0922   -2615.0529    78.943766 
   66400    468.67384   -121.60318   0.42406594   -121.17911    2710.9502    4.2741197    4.2741197    4.2741197    2710.9502     1168.968   -5568.6429    12532.525      14954.7   -2550.7375    28151.589    78.080045 
   66500     600.4001   -121.72243   0.54325463   -121.17917   -6639.2683     4.281147     4.281147     4.281147   -6639.2683   -4805.4711    2202.6198   -17314.954    12534.881    17271.994    21374.293    78.465801 
   66600    968.13812    -122.0497   0.87599171   -121.17371   -2049.3556    4.2817642    4.2817642    4.2817642   -2049.3556   -11506.788    23966.632   -18607.911   -5783.5317    23359.174   -7569.0656    78.499741 
   66700    941.30191   -122.02623   0.85170975   -121.17452    2705.5525    4.2795569    4.2795569    4.2795569    2705.5525   -4503.4933    8610.4691    4009.6818    1293.8846   -898.63787   -16110.934    78.378406 
   66800    779.89786   -121.88247   0.70566797    -121.1768   -7773.4813    4.2833544    4.2833544    4.2833544   -7773.4813   -10084.293   -19355.336     6119.185    16057.608   -7850.8245    11562.798    78.587236 
   66900    751.85381   -121.85722   0.68029313   -121.17693     2926.985    4.2756288    4.2756288    4.2756288     2926.985   -9748.1102    14210.182    4318.8838    6567.5572    17955.962    21615.102    78.162778 
   67000    745.29325   -121.85226     0.674357   -121.17791   -2411.2349    4.2845629    4.2845629    4.2845629   -2411.2349   -13894.205    24474.107   -17813.607   -349.09158    32912.771   -8358.7305    78.653772 
   67100    916.75587   -122.00494   0.82949998   -121.17544    -3340.742    4.2830099    4.2830099    4.2830099    -3340.742   -1478.4072    102.04286   -8645.8618   -5044.5524    5103.5525   -20310.777    78.568279 
   67200    959.03001    -122.0406    0.8677505   -121.17285    13201.452    4.2720741    4.2720741    4.2720741    13201.452    10735.208    6752.0905    22117.058    7371.7624   -12098.511   -5077.4992    77.967986 
   67300    637.20507   -121.75541   0.57655654   -121.17886   -9962.3716     4.285517     4.285517     4.285517   -9962.3716   -24117.033    5251.6164   -11021.698     9681.762     23784.11    13091.242    78.706331 
   67400    519.03332   -121.65035   0.46963226   -121.18072   -8787.1775    4.2826658    4.2826658    4.2826658   -8787.1775   -23331.438    22086.318   -25116.412   -142.59363    41934.348    737.15923    78.549344 
   67500    955.38298   -122.03966    0.8644506   -121.17521    7763.0622     4.275928     4.275928     4.275928    7763.0622    14040.749    10206.942   -958.50495   -746.70508    6195.9882   -24320.664    78.179186 
   67600    1147.9642   -122.21081    1.0387021    -121.1721    -267.9142    4.2841763    4.2841763    4.2841763    -267.9142    1655.3294   -6093.7296    3634.6576   -318.21293   -12059.249     -7666.33    78.632484 
   67700    543.81385   -121.67442    0.4920542   -121.18237   -3507.9893    4.2802362    4.2802362    4.2802362   -3507.9893   -28407.833    19726.686   -1842.8201    11391.309    27127.456    9508.1793    78.415735 
   67800    308.79013   -121.46586    0.2793998   -121.18646    -10187.13     4.280704     4.280704     4.280704    -10187.13   -32145.106    16018.205   -14434.488    8212.4428    40391.606    8090.0982    78.441447 
   67900    961.96001   -122.05217   0.87040163   -121.18177   -1968.0948    4.2804131    4.2804131    4.2804131   -1968.0948   -5432.2758    -849.1364    377.12777   -2386.7269   -1127.5051   -4200.3542    78.425459 
   68000    1334.0775   -122.38163    1.2071014   -121.17453    9176.4607    4.2774596    4.2774596    4.2774596    9176.4607    178.03256    2071.1379    25280.212   -5328.6338   -6219.9763   -11085.332    78.263227 
   68100    703.99642      -121.82   0.63699076   -121.18301   -10508.433    4.2857246    4.2857246    4.2857246   -10508.433   -27913.688     9778.727   -13390.337   -2770.8745    36444.088    5621.1928    78.717769 
   68200    457.20727   -121.59834   0.41369075   -121.18465   -8369.0479    4.2789707    4.2789707    4.2789707   -8369.0479   -25678.728      18911.1   -18339.516    9794.3143    31209.745    10165.897      78.3462 
   68300      877.502   -121.97271   0.79398225   -121.17872    4383.9718    4.2765202    4.2765202    4.2765202    4383.9718   -8114.0238    6995.1342    14270.805   -39.213612   -13966.472    6306.8383    78.211673 
   68400    1024.0944   -122.10095   0.92662217   -121.17433    125.88652    4.2850061    4.2850061    4.2850061    125.88652   -7954.5642   -4425.0328    12757.257   -16634.876   -6583.7511   -72.997482    78.678186 
   68500    774.92559   -121.87834   0.70116896   -121.17717    2556.6363    4.2790939    4.2790939    4.2790939    2556.6363   -14717.583    18191.174    4196.3182   -11352.637    35499.924   -4024.6393    78.352967 
   68600    716.40419   -121.82489   0.64821757   -121.17667     852.0442    4.2793317    4.2793317    4.2793317     852.0442   -12611.284    24484.361   -9316.9442    3873.0083    30668.968    9094.6627     78.36603 
   68700     794.7428   -121.89409   0.71909999   -121.17499   -2022.3109     4.281894     4.281894     4.281894   -2022.3109   -5309.4683    7131.9955   -7889.4598    9409.0327   -14277.526    10098.264    78.506881 
   68800    721.57815   -121.82942   0.65289908   -121.17652   -1485.8454    4.2800554    4.2800554    4.2800554   -1485.8454    -13400.35    605.74682    8337.0674   -13727.036   -16528.468    713.02323    78.405798 
   68900    772.62188   -121.87593   0.69908452   -121.17684   -1565.4011     4.280551     4.280551     4.280551   -1565.4011   -24524.446    11879.558    7948.6853   -22409.836    22260.475   -1530.0365    78.433034 
   69000      1015.14   -122.09192   0.91852001    -121.1734    4089.3667    4.2789992    4.2789992    4.2789992    4089.3667   -5869.3209     20901.89   -2764.4687    3318.6996    17906.521    512.70232    78.347768 
   69100    722.57984    -121.8313   0.65380543   -121.17749   -6388.0428    4.2837972    4.2837972    4.2837972   -6388.0428   -13467.062   -408.57781   -5288.4888    14003.001   -13982.258    13094.622    78.611613 
   69200    431.17161   -121.57213   0.39013313   -121.18199   -8403.3173    4.2818955    4.2818955    4.2818955   -8403.3173   -32914.049   -5831.3326     13535.43   -10755.053   -21153.016    7516.7019    78.506965 
   69300    903.90538   -121.99732   0.81787258   -121.17945    5700.4214    4.2761536    4.2761536    4.2761536    5700.4214   -15329.767    5369.4701    27061.561   -27594.255   -3128.0069   -4231.3196    78.191564 
   69400    1339.5407   -122.38557    1.2120446   -121.17352    5562.3713    4.2821274    4.2821274    4.2821274    5562.3713   -2712.0502    2482.4936     16916.67   -3372.0732    10111.809    1546.2778    78.519724 
   69500    819.49397   -121.92536   0.74149537   -121.18386    129.39304    4.2810218    4.2810218    4.2810218    129.39304   -9363.1582    2482.5373       7268.8    15534.985   -10201.476    6408.0251    78.458918 
   69600    322.33248   -121.48032    0.2916532   -121.18867   -6990.1509    4.2793955    4.2793955    4.2793955   -6990.1509   -21673.932    69.623061    633.85587   -7316.3897   -20981.263    6937.0446    78.369537 
   69700    707.25765   -121.82331   0.63994158   -121.18337     -4462.85    4.2835525    4.2835525    4.2835525     -4462.85    -23520.67   -1816.1005    11948.221   -23600.386   -6095.4593   -243.91381    78.598143 
   69800    1133.7657   -122.19915     1.025855    -121.1733    7636.5308    4.2795492    4.2795492    4.2795492    7636.5308   -9331.3188    11044.638    21196.273   -4942.9517    13517.964   -5229.2357    78.377981 
   69900    853.82678   -121.94882   0.77256041   -121.17626    1893.2588    4.2798591    4.2798591    4.2798591    1893.2588    14208.167   -4295.4904      -4232.9    9519.9509    12962.046    3164.5792    78.395011 
   70000    664.12255   -121.77947   0.60091204   -121.17856   -2945.5311    4.2811943    4.2811943    4.2811943   -2945.5311    3196.5046   -23462.374    11429.276   -3853.3146   -17048.719    9100.9124    78.468405 
   70100    796.68554   -121.89712   0.72085782   -121.17626    1367.2734    4.2788122    4.2788122    4.2788122    1367.2734   -18467.124   -8294.3004    30863.245    -14001.56   -6322.2857    5488.3039    78.337493 
   70200    801.30686   -121.90226   0.72503929   -121.17722   -1871.8064    4.2803225    4.2803225    4.2803225   -1871.8064   -14493.298    11935.799   -3057.9199   -5698.5875    31054.688   -5102.2106    78.420474 
   70300    651.80338   -121.76852    0.5897654   -121.17875   -3079.2168    4.2808878    4.2808878    4.2808878   -3079.2168    234.60276    -3674.876    -5797.377    4485.5845    24366.094   -2337.2664     78.45155 
   70400    794.08495   -121.89523   0.71850475   -121.17673   -5461.4161     4.281735     4.281735     4.281735   -5461.4161    4858.4439   -35409.196    14166.504    544.06703   -5495.0907    9173.9667    78.498136 
   70500    902.66122   -121.99215   0.81674684    -121.1754    1903.4057    4.2777291    4.2777291    4.2777291    1903.4057     2770.947   -11410.538    14349.808   -7802.2277   -2591.9179      7015.39    78.278019 
   70600    909.75194    -121.9987   0.82316267   -121.17554    3053.8303    4.2801212    4.2801212    4.2801212    3053.8303    -21917.88    18086.786    12992.584   -4713.6897    32519.596   -736.04766    78.409415 
   70700    816.19901   -121.91474   0.73851402   -121.17623    -9723.345    4.2861715    4.2861715    4.2861715    -9723.345   -20962.175   -7575.6986   -632.16124    3012.5974    26737.435    -3307.413    78.742395 
   70800    638.08843   -121.75629   0.57735583   -121.17894   -457.47489      4.27411      4.27411      4.27411   -457.47489    26192.435   -24316.336   -3248.5233    2625.2128   -9144.5701    8782.2223    78.079511 
   70900    699.64541   -121.81486   0.63305387    -121.1818   -962.19403    4.2778457    4.2778457    4.2778457   -962.19403    15136.587   -25002.239    6979.0701   -4212.5317   -4342.4676    11680.574    78.284421 
   71000    1094.8821   -122.16621   0.99067232   -121.17554   -5956.4954    4.2887692    4.2887692    4.2887692   -5956.4954   -17494.904   -9918.3794    9543.7972   -3386.1404    14590.749   -696.91012    78.885652 
   71100    1119.8141   -122.18908    1.0132313   -121.17585     14177.07    4.2717169    4.2717169    4.2717169     14177.07    10602.849    7233.9234    24694.439    4891.5359    11995.126   -1050.6193    77.948436 
   71200    404.87014    -121.5536   0.36633501   -121.18727    237.63701    4.2781959    4.2781959    4.2781959    237.63701    22133.336   -34482.049    13061.624    8970.3326    2157.0647    10267.579     78.30365 
   71300    303.25856   -121.46039   0.27439472   -121.18599   -19301.632    4.2919541    4.2919541    4.2919541   -19301.632    4640.0481   -51758.344   -10786.601    4032.6711   -13393.646    11269.912    79.061527 
   71400    1017.4359    -122.0973   0.92059734    -121.1767    13359.712    4.2720665    4.2720665    4.2720665    13359.712    13578.603     6051.377    20449.155   -2596.5623   -8573.7366   -5662.1101    77.967573 
   71500    1215.2807   -122.27224    1.0996115   -121.17262    8250.1064    4.2781988    4.2781988    4.2781988    8250.1064   -6245.3089   -3843.6481    34839.276    3935.5632    3222.6067    846.68703    78.303809 
   71600    675.98455   -121.79203   0.61164503   -121.18039   -13946.366     4.288291     4.288291     4.288291   -13946.366   -10115.455   -42222.517    10498.875    10426.287    1991.9878    14794.501    78.859267 
   71700    514.67171   -121.64703   0.46568578   -121.18134    2990.8783    4.2737993    4.2737993    4.2737993    2990.8783    24471.027   -17671.092    2172.6996    5737.1801    -5392.005    12080.018    78.062484 
   71800    1003.5085   -122.08458   0.90799557   -121.17658    985.70376    4.2794306    4.2794306    4.2794306    985.70376    1617.3304   -742.81378    2082.5947   -2369.0589   -15287.532   -3480.5321    78.371465 
   71900    1021.4584   -122.09971   0.92423702   -121.17547    2541.1376    4.2826647    4.2826647    4.2826647    2541.1376   -23083.207    1357.7761    29348.844   -5831.9458    1544.0238   -7331.1582    78.549281 
   72000    524.10035   -121.65694   0.47421701   -121.18272   -1442.0953    4.2787706    4.2787706    4.2787706   -1442.0953   -12360.856   -8698.7947    16733.365    2192.9982    13537.681    16256.854    78.335212 
   72100    593.32495   -121.72096   0.53685288    -121.1841   -7056.3202    4.2812702    4.2812702    4.2812702   -7056.3202    8100.8806   -21023.499   -8246.3426    8620.0097    2271.8233     19652.81    78.472576 
   72200    1196.5863   -122.25689    1.0826965   -121.17419    7895.1236    4.2788223    4.2788223    4.2788223    7895.1236    10385.172    2004.7258    11295.473   -1995.9316   -1423.1487    1398.6663    78.338047 
   72300    1077.0886   -122.14999    0.9745724   -121.17542   -2728.9858    4.2837846    4.2837846    4.2837846   -2728.9858   -24141.521   -1023.0369      16977.6   -15310.678    1129.6992   -7205.8828    78.610919 
   72400    389.75298   -121.53714   0.35265669   -121.18448   -10284.739     4.281305     4.281305     4.281305   -10284.739   -27972.924   -13608.146    10726.853   -7465.5546    11577.864    11127.061    78.474492 
   72500    438.38921    -121.5812   0.39666377   -121.18454   -763.42282    4.2755782    4.2755782    4.2755782   -763.42282    362.54236   -3492.8785    840.06767    10696.478     11969.06    32450.566        78.16 
   72600    1014.6172   -122.09694   0.91804698   -121.17889   -733.37954    4.2828738    4.2828738    4.2828738   -733.37954    -6217.424    9031.1179   -5013.8325    6376.6575   -7685.3704    8368.3346     78.56079 
   72700     1060.992     -122.135   0.96000784   -121.17499    1584.6854    4.2822159    4.2822159    4.2822159    1584.6854   -22117.677    19505.968    7365.7661   -14959.511    -11677.62    -10375.19    78.524593 
   72800    687.26864   -121.80066    0.6218551   -121.17881   -4942.2498     4.279974     4.279974     4.279974   -4942.2498   -19727.985    -7309.892    12211.128   -10202.945    2431.5485     11499.23    78.401324 
   72900    538.66255   -121.66741    0.4873932   -121.18001     -7513.35    4.2810416    4.2810416    4.2810416     -7513.35   -6957.1037   -18412.903    2829.9565    12163.442    9494.5936    28657.622    78.460007 
   73000    831.85432   -121.92968   0.75267927     -121.177   -341.30968    4.2800679    4.2800679    4.2800679   -341.30968   -6181.1415    15409.556   -10252.344    9184.2132   -10759.486    12729.601    78.406485 
   73100    1060.2479   -122.13299   0.95933457   -121.17366   -751.21442    4.2829822    4.2829822    4.2829822   -751.21442   -14132.835    20316.203   -8437.0111   -5524.2677   -24743.198   -17475.401    78.566754 
   73200    971.45548   -122.05438   0.87899333   -121.17538    1707.3446    4.2784418    4.2784418    4.2784418    1707.3446   -1287.6438     6050.367    359.31061   -4584.7824    -859.9722    2526.6181    78.317154 
   73300    694.80766   -121.80798   0.62867657   -121.17931    338.90619    4.2777098    4.2777098    4.2777098    338.90619    4482.1272   -2746.9739   -718.43475    5358.9361    11642.357    34831.139    78.276958 
   73400     565.8658   -121.69308   0.51200727   -121.18107   -10109.105    4.2852131    4.2852131    4.2852131   -10109.105   -8522.2697   -7131.8044   -14673.241    9045.4851   -12514.458    10425.822    78.689586 
   73500    735.33881   -121.84373   0.66535001   -121.17838    1029.0091    4.2789895    4.2789895    4.2789895    1029.0091   -3844.9165    13075.474   -6143.5303    104.12976   -28932.477   -20786.467    78.347231 
   73600    993.41171   -122.07285   0.89885979   -121.17399    6038.3492    4.2774009    4.2774009    4.2774009    6038.3492    8443.0319    8594.8253    1077.1902   -2544.5971   -6316.1552    -2602.117    78.260004 
   73700    913.45878    -122.0014    0.8265167   -121.17488   -2032.1745    4.2837125    4.2837125    4.2837125   -2032.1745    11555.747    -14469.97      -3182.3    2728.2913    16712.568    29091.933     78.60695 
   73800    595.48989    -121.7173   0.53881176   -121.17849   -546.20803    4.2804061    4.2804061    4.2804061   -546.20803    329.28359    2918.3837   -4886.2914     6248.636   -11659.829    16196.144     78.42507 
   73900    567.31726   -121.69296   0.51332058   -121.17964   -6302.9305    4.2794987    4.2794987    4.2794987   -6302.9305   -20799.138    15510.151   -13619.804    6012.1042   -37076.348   -18639.698    78.375206 
   74000    883.01111   -121.97538   0.79896701   -121.17641   -4757.3277    4.2812212    4.2812212    4.2812212   -4757.3277   -6277.0025   -2524.9873   -5469.9932   -1539.9925   -9653.9534    -8337.613     78.46988 
   74100    1103.9956   -122.17186   0.99891841   -121.17295   -984.06907    4.2806192    4.2806192    4.2806192   -984.06907    10020.046   -9189.2919   -3782.9614   -5832.7089    11306.191    24583.112    78.436786 
   74200    840.67598   -121.93841   0.76066129   -121.17775   -5162.0927    4.2799481    4.2799481    4.2799481   -5162.0927   -12010.425      7224.83   -10700.683    5620.8928   -16614.598    16977.748    78.399899 
   74300    475.87269   -121.61355   0.43057961   -121.18297   -7515.8233    4.2782031    4.2782031    4.2782031   -7515.8233   -32840.675    12583.423   -2290.2178    10065.116   -37576.253   -8241.8815    78.304047 
   74400    634.01979   -121.75662   0.57367443   -121.18295   -5674.7127    4.2825421    4.2825421    4.2825421   -5674.7127   -17723.744   -6510.4936    7210.0998   -489.56052   -10627.209   -13963.984    78.542536 
   74500    1125.2138    -122.1921    1.0181171   -121.17398    587.60946     4.283856     4.283856     4.283856    587.60946    1197.2442   -8180.0087    8745.5929   -6022.5485    12541.613    4312.5759    78.614853 
   74600    1064.1289   -122.13548   0.96284623   -121.17264    5298.1325     4.279307     4.279307     4.279307    5298.1325    -5559.162    19692.231    1761.3288   -429.88781   -14189.416    13759.442    78.364675 
   74700    563.10815   -121.68911   0.50951209    -121.1796   -4761.8455    4.2814738    4.2814738    4.2814738   -4761.8455   -18823.454    10976.326   -6438.4077    10017.278   -33434.445    -5071.186     78.48377 
   74800    508.71634   -121.64286   0.46029724   -121.18256     -5418.53    4.2795436    4.2795436    4.2795436     -5418.53   -10905.866   -10158.977    4809.2534    6955.1314    -11829.82   -17455.859    78.377672 
   74900    958.93127   -122.04629   0.86766116   -121.17863    5416.3953    4.2787738    4.2787738    4.2787738    5416.3953    10245.553    -1976.924    7980.5572   -5583.8854    8872.8592   -14030.956    78.335387 
   75000    1136.4203   -122.20216     1.028257    -121.1739    897.88644    4.2840487    4.2840487    4.2840487    897.88644   -498.26985    17722.812   -14530.882   -1660.3115    650.00525    2063.6728    78.625459 
   75100    727.04445    -121.8378    0.6578451   -121.17996    1111.4312    4.2783298    4.2783298    4.2783298    1111.4312   -13215.653    23603.217   -7053.2703     7990.062   -20296.484     4437.097    78.310999 
   75200     498.8334   -121.63372   0.45135494   -121.18237   -2993.1374    4.2783541    4.2783541    4.2783541   -2993.1374   -7173.0532    -1676.191   -130.16809    18191.017   -15585.002   -18223.469    78.312338 
   75300    846.33861   -121.94366   0.76578496   -121.17788   -3932.7313    4.2841092    4.2841092    4.2841092   -3932.7313    7914.4471   -12789.041      -6923.6    8831.6495    5717.0106   -20554.345     78.62879 
   75400    1018.5231   -122.09518   0.92158111    -121.1736    5233.5733    4.2786177    4.2786177    4.2786177    5233.5733    7189.1884    15691.847   -7180.3153   -9011.2475    8295.6007    224.35302    78.326814 
   75500    617.43317   -121.73778   0.55866651   -121.17911   -2478.5726    4.2800305    4.2800305    4.2800305   -2478.5726   -11764.819     25248.19   -20919.089    5136.2291   -8154.8389    10962.586    78.404428 
   75600    567.92576   -121.69462   0.51387116   -121.18075   -5595.4577    4.2822282    4.2822282    4.2822282   -5595.4577   -1617.0723    887.73177   -16057.033    15606.443   -19841.172   -3049.4277     78.52527 
   75700    1070.4138   -122.14292    0.9685329   -121.17439    7604.6112    4.2780617    4.2780617    4.2780617    7604.6112    22432.024   -4926.9301    5308.7398     11930.19   -83.667586   -14192.935    78.296283 
   75800    1085.4393   -122.15696   0.98212829   -121.17483    2319.4147    4.2810092    4.2810092    4.2810092    2319.4147    15173.109    5965.5727   -14180.438   -2116.1265    11982.622    1207.9999    78.458224 
   75900     508.5804   -121.64449   0.46017424   -121.18431   -5236.0596    4.2803416    4.2803416    4.2803416   -5236.0596   -331.27443    24292.969   -39669.873   -7257.0029   -5093.9155    10294.544    78.421528 
   76000    516.16865   -121.65272   0.46704024   -121.18568   -4264.1174    4.2789268    4.2789268    4.2789268   -4264.1174   -1318.9659    13009.227   -24482.613    16267.917   -19761.207    6400.0963    78.343791 
   76100    1134.6842   -122.20464    1.0266861   -121.17796    2019.8708    4.2820552    4.2820552    4.2820552    2019.8708    13359.427   -7253.1736   -46.641261    9440.2216   -6500.3893   -200.85997    78.515751 
   76200    1154.5919   -122.22131     1.044699   -121.17661    5419.5566    4.2787031    4.2787031    4.2787031    5419.5566    16695.538   -1297.8636    860.99549   -17823.206    12129.926    -4650.287    78.331504 
   76300    442.44505   -121.58522   0.40033358   -121.18488   -5099.1286    4.2812709    4.2812709    4.2812709   -5099.1286   -2137.7708    11855.785     -25015.4   -8584.0635   -4691.4858    6425.1266    78.472615 
   76400    480.01357   -121.61748   0.43432637   -121.18315   -9074.4867    4.2840702    4.2840702    4.2840702   -9074.4867    375.18852     14216.96   -41815.609    5057.5845   -22576.727    10169.062    78.626641 
   76500    1054.3816   -122.12983   0.95402661   -121.17581    10563.124    4.2748181    4.2748181    4.2748181    10563.124    25903.161    14784.808   -8998.5969     3632.669   -7028.3477   -148.70213    78.118323 
   76600    1037.2168   -122.11468   0.93849557   -121.17618    4796.9567    4.2798747    4.2798747    4.2798747    4796.9567    22182.915   -11602.661    3810.6163   -16176.628    7072.2452   -12409.746    78.395864 
   76700    635.54291   -121.75617   0.57505258   -121.18111   -10342.626     4.284603     4.284603     4.284603   -10342.626   -5050.9997   -5092.1203   -20884.759   -22162.083    -14044.15   -7229.4699    78.655985 
   76800    679.77907    -121.7959   0.61507839   -121.18083    308.07038    4.2748998    4.2748998    4.2748998    308.07038   -5391.3456    34653.649   -28338.092    1420.0973   -26161.873    10078.281    78.122801 
   76900    1007.6803   -122.08739   0.91177028   -121.17562   -4085.1142    4.2808521    4.2808521    4.2808521   -4085.1142    -497.3143    12497.286   -24255.314    3871.6089   -5543.2997   -2469.4829    78.449591 
   77000    818.02446   -121.91617   0.74016572   -121.17601   -7640.2832    4.2844633    4.2844633    4.2844633   -7640.2832    4518.5452   -17476.586    -9962.809   -12362.897    7515.3999    -20075.43    78.648288 
   77100    526.72239   -121.65529   0.47658949    -121.1787   -6053.4222    4.2784221    4.2784221    4.2784221   -6053.4222   -9983.2943   -2139.1231   -6037.8492   -16407.352   -15413.423   -13369.812    78.316069 
   77200    716.35296   -121.82626   0.64817122   -121.17809    -6392.031     4.280452     4.280452     4.280452    -6392.031   -20701.258    23650.268   -22125.103   -3824.1679   -31743.652    3720.8711    78.427592 
   77300    1091.9636   -122.16239   0.98803161   -121.17436    4761.3314    4.2784507    4.2784507    4.2784507    4761.3314    4889.5253    23741.145   -14346.676    7963.2002   -4860.3463    5504.5185    78.317643 
   77400    994.17463   -122.07677    0.8995501   -121.17722    4490.2841    4.2793506    4.2793506    4.2793506    4490.2841    11754.584    -4560.676    6276.9439   -9563.1397    11418.182   -13861.521    78.367069 
   77500    477.36292   -121.61727   0.43192801   -121.18535   -4385.1023     4.282271     4.282271     4.282271   -4385.1023   -11044.941   -4043.1355    1932.7701    -18629.78    -16120.88   -14772.857    78.527621 
   77600    499.81239   -121.63603   0.45224076   -121.18379   -1131.9313    4.2801716    4.2801716    4.2801716   -1131.9313   -16481.023    19497.509   -6412.2799   -4636.6905   -37411.136    99.634256    78.412182 
   77700    1034.2835   -122.11186   0.93584146   -121.17602    8650.2912    4.2808437    4.2808437    4.2808437    8650.2912    5812.3055    17889.569    2248.9988    4882.7154   -12179.386    11173.417    78.449125 
   77800    1199.7146   -122.25752    1.0855269     -121.172    5856.6207    4.2819607    4.2819607    4.2819607    5856.6207    7487.7468   -2234.3595    12316.475   -2170.8235    12915.572    7578.6348    78.510554 
   77900    656.01863   -121.77418   0.59357944    -121.1806    -3280.446    4.2793681    4.2793681    4.2793681    -3280.446   -18207.821    3052.3693    5314.1138   -21391.632   -14819.984   -14632.901    78.368032 
   78000    422.06723   -121.56731    0.3818953   -121.18541   -5753.9311    4.2767595    4.2767595    4.2767595   -5753.9311   -22046.939    9145.9039   -4360.7584   -13244.987   -41707.461   -9343.7091    78.224803 
   78100    905.95131   -122.00169   0.81972378   -121.18197   -5040.1903    4.2819976    4.2819976    4.2819976   -5040.1903   -5161.8745    1962.3381   -11921.034    5756.5413   -15938.581    14813.519    78.512583 
   78200    1194.4787   -122.25542    1.0807894   -121.17463   -1808.9421    4.2833227    4.2833227    4.2833227   -1808.9421    9133.8034   -7968.3535   -6592.2761    2186.7058     12440.93    17070.515    78.585495 
   78300    749.15303   -121.85683   0.67784941   -121.17898    751.96603    4.2771325    4.2771325    4.2771325    751.96603   -362.43582    3131.5093   -513.17542   -13338.613   -15472.068   -3065.6223    78.245276 
   78400    437.42057   -121.57802   0.39578733   -121.18224   -7216.0082    4.2819696    4.2819696    4.2819696   -7216.0082   -22621.685    6919.8789   -5946.2186   -17891.732   -40228.483   -14772.906    78.511039 
   78500    790.69421   -121.89473   0.71543674   -121.17929   -2472.3181    4.2824366    4.2824366    4.2824366   -2472.3181   -5770.3951    7654.5897   -9301.1488   -953.54473   -11081.085    7011.8797    78.536734 
   78600    1141.3433   -122.20534    1.0327114   -121.17262    15157.304    4.2748041    4.2748041    4.2748041    15157.304    24573.756    6544.8934    14353.263    8079.3429    12749.384     21214.91    78.117558 
   78700    771.00545   -121.87807   0.69762193   -121.18045   -433.64826    4.2816999    4.2816999    4.2816999   -433.64826   -5414.6961   -1620.7139    5734.4653    945.36018   -16514.195    4102.7966    78.496209 
   78800    359.99678   -121.51155   0.32573265   -121.18582   -9146.2459    4.2817607    4.2817607    4.2817607   -9146.2459   -23911.105    13292.343   -16819.976   -12714.659   -43477.853   -12218.218     78.49955 
   78900    753.54873   -121.86411   0.68182673   -121.18228    2023.3435    4.2770149    4.2770149    4.2770149    2023.3435    4513.9437    712.24939    843.83747   -16992.227   -12725.229   -11632.587     78.23882 
   79000    1292.5636   -122.34279    1.1695388   -121.17325   -2508.0107    4.2848925    4.2848925    4.2848925   -2508.0107    11042.381    -18213.88   -352.53286    2109.3698    15413.378    10204.787    78.671928 
   79100     932.3982   -122.02314   0.84365348   -121.17949   -1076.6474    4.2784434    4.2784434    4.2784434   -1076.6474    1366.6252    5793.3292   -10389.897    9198.1489    -21838.76    12684.134     78.31724 
   79200    375.98281   -121.52649   0.34019715   -121.18629   -5105.3776    4.2763744    4.2763744    4.2763744   -5105.3776   -15053.968     5335.537   -5597.7021   -7008.8307   -41665.068   -8455.1098    78.203676 
   79300    633.04524   -121.75826   0.57279264   -121.18547   -13671.914    4.2862181    4.2862181    4.2862181   -13671.914   -13128.172   -30046.404    2158.8333    -16485.38    -10563.47   -15347.659    78.744964 
   79400    1195.2358   -122.25731    1.0814745   -121.17584    7046.9835    4.2771286    4.2771286    4.2771286    7046.9835    17263.766    -10336.06    14213.245    -7709.005    11760.022   -9122.4148    78.245062 
   79500    1030.2001   -122.10847   0.93214673   -121.17632    6146.9876    4.2779582    4.2779582    4.2779582    6146.9876   -4454.9948    20025.915    2870.0425    5695.5366   -15802.831    6044.3919      78.2906 
   79600    511.46517   -121.64531   0.46278443   -121.18253   -9336.0381    4.2846682    4.2846682    4.2846682   -9336.0381   -21762.033    1053.0932   -7299.1748   -1306.0426   -35963.986   -733.03185    78.659576 
   79700    492.11071   -121.62691   0.44527211   -121.18163   -564.51412    4.2772261    4.2772261    4.2772261   -564.51412     4556.516    -17104.78    10854.721   -13338.716   -7025.8299   -20776.964    78.250411 
   79800     926.4882   -122.01379   0.83830599   -121.17549   -920.60909    4.2803538    4.2803538    4.2803538   -920.60909    5728.5242   -20293.095    11802.743   -7446.7433    9289.3418   -12672.172    78.422199 
   79900    921.54809   -122.00916   0.83383607   -121.17532    168.00115    4.2804398    4.2804398    4.2804398    168.00115   -5211.3029    6585.8658   -870.55941    2718.7413    -14665.02    5291.2624    78.426926 
   80000    633.96309   -121.75389   0.57362313   -121.18027    1842.5826    4.2778942    4.2778942    4.2778942    1842.5826   -20292.475    22359.266    3460.9574    2388.4874   -28991.508    6243.8037    78.287084 
   80100    849.19583   -121.94748   0.76837023   -121.17911   -2414.1545    4.2818262    4.2818262    4.2818262   -2414.1545   -21259.703   -6043.6954    20060.934   -7445.5574   -7923.1061    -8005.783    78.503152 
   80200    1227.5044   -122.28422    1.1106717   -121.17355    11940.031    4.2767427    4.2767427    4.2767427    11940.031    12504.718   -13203.656    36519.029   -9846.8474    11179.559   -12933.836    78.223885 
   80300    839.88293   -121.94071   0.75994372   -121.18077     1080.715     4.280428     4.280428     4.280428     1080.715   -8325.4621    6478.9061     5088.701   -203.86122   -20219.764    4993.7894    78.426273 
   80400    304.04792   -121.46248   0.27510895   -121.18737   -11549.377     4.282354     4.282354     4.282354   -11549.377   -38617.415    20582.056   -16612.773    1768.1132   -35519.395    12828.597    78.532188 
   80500     632.2721   -121.75812   0.57209308   -121.18602    3485.9197    4.2758039    4.2758039    4.2758039    3485.9197   -12112.673    12115.514    10454.918   -5891.3358    2867.8568    4218.2712    78.172381 
   80600    1213.4318   -122.27437    1.0979386   -121.17643    1568.6613    4.2813055    4.2813055    4.2813055    1568.6613   -8401.8243   -9381.1634    22488.972   -7699.0906    17271.465   -3351.9903    78.474519 
   80700    928.91425      -122.02   0.84050114    -121.1795    765.14245    4.2794285    4.2794285    4.2794285    765.14245   -15451.216    9181.8083    8564.8346   -1476.1418   -26400.775    -4990.665     78.37135 
   80800    490.94972   -121.62816   0.44422162   -121.18394   -4900.6961    4.2782489    4.2782489    4.2782489   -4900.6961   -25529.227    24649.547   -13822.408    4281.6601   -38871.452    6714.4284    78.306562 
   80900    636.56472   -121.75655   0.57597713   -121.18058    -11419.87    4.2824529    4.2824529    4.2824529    -11419.87   -25464.874     6034.592   -14829.327   -1098.1397    10229.438    13875.081    78.537629 
   81000    924.79554   -122.01259   0.83677444   -121.17582    544.45016    4.2775168    4.2775168    4.2775168    544.45016   -1683.0661   -3103.1745     6419.591   -3861.5987    23357.346   -9413.7841    78.266365 
   81100     833.4382   -121.93151    0.7541124    -121.1774   -1655.4924    4.2792907    4.2792907    4.2792907   -1655.4924        945.9    739.69403   -6652.0712   -1919.0512   -18360.476   -27777.674    78.363779 
   81200    827.07253   -121.92586   0.74835261   -121.17751   -3223.7867    4.2813108    4.2813108    4.2813108   -3223.7867   -8885.2297    4793.0564    -5579.187   -23.428763   -29148.824   -2838.6132    78.474812 
   81300     920.5073   -122.00864   0.83289435   -121.17575    2830.4219    4.2783412    4.2783412    4.2783412    2830.4219   -11284.945    7046.2402    12729.971    1979.5381    3990.3271    20142.751    78.311629 
   81400    722.84093   -121.83351   0.65404166   -121.17947   -3758.1578    4.2789061    4.2789061    4.2789061   -3758.1578     11091.82   -15517.019   -6849.2748    307.13165    22427.613    -10318.07    78.342653 
   81500    564.90344   -121.69427    0.5111365   -121.18313   -2590.1108     4.279975     4.279975     4.279975   -2590.1108    28926.646   -31465.683   -5231.2953   -737.23469    2101.4487   -46930.046    78.401377 
   81600    1059.2476   -122.13639   0.95842948   -121.17796    1153.3139    4.2813278    4.2813278    4.2813278    1153.3139     5349.613   -16900.694    15011.023   -842.10562   -16623.316   -15934.605    78.475744 
   81700    1272.1588   -122.32556     1.151076   -121.17448    7204.0408    4.2774652    4.2774652    4.2774652    7204.0408   -1634.1699    1191.6345    22054.658   -1631.1753   -1951.4291    18568.727    78.263533 
   81800     465.6371   -121.61013   0.42131824   -121.18881   -5001.1174    4.2784196    4.2784196    4.2784196   -5001.1174    18931.262   -25645.491    -8289.123    756.90518    15788.424   -23468.727    78.315935 
   81900     163.8915   -121.34213   0.14829247   -121.19384   -17840.313    4.2839871    4.2839871    4.2839871   -17840.313    21995.598   -49434.186   -26082.351   -1508.3054    11599.379   -48339.437    78.622071 
   82000    933.55914   -122.03127   0.84470393   -121.18657    3519.5711    4.2781168    4.2781168    4.2781168    3519.5711    10004.867   -16109.028    16662.874   -2940.4174   -1685.0825   -1842.6267    78.299304 
   82100      1346.43   -122.39412    1.2182782   -121.17584    8111.7353    4.2772271    4.2772271    4.2772271    8111.7353   -1258.2635    607.58339    24985.886    85.927886   -6812.0697    11189.422    78.250463 
   82200    706.81238   -121.82524    0.6395387    -121.1857   -6425.1892    4.2818053    4.2818053    4.2818053   -6425.1892    16302.576   -21374.245   -14203.899   -19.605382    1786.0348   -37723.933    78.502006 
   82300    424.46988   -121.57029   0.38406927   -121.18622   -4281.0489    4.2799363    4.2799363    4.2799363   -4281.0489    27289.139   -22600.414   -17531.872    2107.9622    15357.702   -39463.553    78.399253 
   82400    870.03524   -121.96635   0.78722617   -121.17913   -917.75404    4.2791381    4.2791381    4.2791381   -917.75404    4734.9334   -5768.3043   -1719.8913   -1861.6897     9067.242    8078.7356    78.355398 
   82500    1036.0804   -122.11344   0.93746735   -121.17598    6415.8926    4.2775679    4.2775679    4.2775679    6415.8926    7275.5795    7743.6339    4228.4645   -3097.9201   -19330.288    16640.842    78.269173 
   82600    759.33952   -121.86709   0.68706636   -121.18002   -623.78135    4.2805711    4.2805711    4.2805711   -623.78135    10092.073   -2223.9857    -9739.431    412.16384   -20725.468   -24624.779    78.434143 
   82700    710.43676   -121.82342   0.64281811    -121.1806    -5605.795    4.2824234    4.2824234    4.2824234    -5605.795     4334.262   -10628.963   -10522.685   -405.97871    17859.116   -34280.613    78.536005 
   82800    882.83759   -121.97631      0.79881    -121.1775    5562.1546    4.2750757    4.2750757    4.2750757    5562.1546    5989.7516    9379.1048    1317.6074    173.41312    29342.172    -1321.862     78.13245 
   82900    932.08488   -122.02035   0.84336999   -121.17698    205.56903     4.280118     4.280118     4.280118    205.56903   -14375.855    10652.823     4339.739   -2235.8445   -13380.421    13020.814    78.409236 
   83000    749.79818   -121.85668   0.67843315   -121.17824   -5858.8568    4.2838216    4.2838216    4.2838216   -5858.8568   -11477.576    3104.4453   -9203.4399   -1537.1847   -37759.431    -6767.501    78.612959 
   83100      663.326   -121.77853   0.60019131   -121.17834    1505.8873     4.275285     4.275285     4.275285    1505.8873    9575.5245    12648.166   -17706.028    1503.2229    7400.4244   -22809.464    78.143926 
   83200    688.32087   -121.80245   0.62280719   -121.17965   -613.97936    4.2796073    4.2796073    4.2796073   -613.97936   -1762.7329    11064.957   -11144.162   -1318.0375    45730.175   -10650.994     78.38117 
   83300    890.57217   -121.98269   0.80580842   -121.17689   -2572.7457    4.2818546    4.2818546    4.2818546   -2572.7457   -14609.373    14220.749   -7329.6135   -1073.8674    7344.3579     4792.172    78.504719 
   83400    1011.8707   -122.09067   0.91556184   -121.17511    4466.6767    4.2766809    4.2766809    4.2766809    4466.6767    6039.9956    15861.671   -8501.6363   -1844.6107   -38169.414    82.886801    78.220493 
   83500    632.82571   -121.75427     0.572594   -121.18168   -6380.2915    4.2806121    4.2806121    4.2806121   -6380.2915    1028.5828    6934.6759   -27104.133   -1261.9147    706.64801   -15019.707    78.436392 
   83600     409.5085   -121.55641    0.3705319   -121.18588   -11789.405    4.2804313    4.2804313    4.2804313   -11789.405     -7233.79    11033.661   -39168.086      1635.43    54373.695   -14764.843    78.426459 
   83700    867.60181   -121.96936   0.78502435   -121.18434    1534.7094    4.2780303    4.2780303    4.2780303    1534.7094    11849.357    15679.288   -22924.516   -1630.6461    24234.587    2208.5893    78.294559 
   83800     1433.067   -122.47183    1.2966691   -121.17516    7268.0304    4.2800197    4.2800197    4.2800197    7268.0304    14524.735     5768.379    1510.9775    72.495671   -19382.575    7555.0668    78.403835 
   83900    908.66948   -122.00679   0.82218324    -121.1846    2012.5934    4.2801667    4.2801667    4.2801667    2012.5934    8784.3735    15715.503   -18462.096   -940.18713    16725.057   -7258.3709    78.411914 
   84000    314.28143   -121.47543   0.28436844   -121.19106   -10450.252    4.2794049    4.2794049    4.2794049   -10450.252   -4137.6222    22796.319   -50009.453   -287.58961    53919.527   -17380.879    78.370055 
   84100    616.33242   -121.74594   0.55767053   -121.18827   -5157.6229    4.2786984    4.2786984    4.2786984   -5157.6229    5527.1954    7438.3032   -28438.367    808.53414    16443.474   -3447.4073    78.331244 
   84200    1122.6559   -122.19407    1.0158027   -121.17827    2731.7669    4.2801369    4.2801369    4.2801369    2731.7669    15862.273    824.80755   -8491.7798   -3422.6518   -17373.927    16412.521    78.410275 
   84300    956.54796   -122.04351   0.86550469   -121.17801   -1171.3459     4.280368     4.280368     4.280368   -1171.3459   -12632.909     22178.78   -13059.908   -200.88731    19269.103    6563.6569    78.422977 
   84400    599.09011   -121.72355   0.54206932   -121.18148   -1594.7521    4.2786085    4.2786085    4.2786085   -1594.7521   -18508.897    28756.769   -15032.128    1044.5087    43474.256   -14723.815    78.326307 
   84500    615.66781   -121.73765   0.55706917   -121.18058   -504.89364    4.2780616    4.2780616    4.2780616   -504.89364    10093.455    11610.716   -23218.852   -246.62733    15528.825    -16643.79    78.296275 
   84600    822.77257   -121.92226   0.74446191    -121.1778    361.87269    4.2808957    4.2808957    4.2808957    361.87269    16546.503    1081.7876   -16542.672    1211.6104    -14834.03    4638.7323    78.451983 
   84700    894.19342   -121.98561   0.80908499   -121.17652   -740.70022    4.2813534    4.2813534    4.2813534   -740.70022   -10908.105    17524.719   -8838.7146   -2686.4052     1577.299    18677.315    78.477151 
   84800    789.00093   -121.89187   0.71390462   -121.17796    3275.6493    4.2750117    4.2750117    4.2750117    3275.6493   -14358.734    34158.983   -9973.3011   -760.16914    22322.673   -7571.8573    78.128938 
   84900     699.9255   -121.81448    0.6333073   -121.18118   -4204.5158    4.2797633    4.2797633    4.2797633   -4204.5158    5913.2025   -2134.0578   -16392.692    1231.9751    13833.672    -34923.28    78.389747 
   85000    835.31235   -121.93529   0.75580817   -121.17948   -5171.1118    4.2840874    4.2840874    4.2840874   -5171.1118    16590.173   -20292.316   -11811.192   -266.08638   -5327.1284   -16783.901    78.627591 
   85100    1172.7485   -122.23498    1.0611275   -121.17385    9231.3624    4.2748245    4.2748245    4.2748245    9231.3624    -2785.084    19296.194    11182.978    1939.8784   -7273.6366    19357.572    78.118677 
   85200    822.63728   -121.92467    0.7443395   -121.18033   -331.83796    4.2785475    4.2785475    4.2785475   -331.83796   -16016.261    17115.895   -2095.1483   -975.03772    5600.0559    170.07745    78.322956 
   85300    278.74681   -121.44041   0.25221597   -121.18819   -12125.062    4.2833016    4.2833016    4.2833016   -12125.062    5002.3248   -14023.035   -27354.475    105.84145    13184.005   -52173.539    78.584332 
   85400     692.5267   -121.81489   0.62661272   -121.18828    807.16791    4.2781688    4.2781688    4.2781688    807.16791    14139.682   -6809.1171   -4909.0611    1138.1615    5613.3668    -36084.91     78.30216 
   85500    1437.8894   -122.47701    1.3010325   -121.17598    6868.7571    4.2802434    4.2802434    4.2802434    6868.7571   -6996.0851    2085.7293    25516.627   -791.27482   -6167.7926     17133.41    78.416129 
   85600    964.15905   -122.05721   0.87239137   -121.18482    5706.9739    4.2784205    4.2784205    4.2784205    5706.9739    4183.0144     2020.784    10917.123    725.81238    200.86892   -10663.668    78.315981 
   85700    245.05714    -121.4145   0.22173285   -121.19277   -8805.3496    4.2808872    4.2808872    4.2808872   -8805.3496    11546.408   -12306.322   -25656.134   -1151.1281    10175.626   -56846.669    78.451517 
   85800    520.18528   -121.65847   0.47067457    -121.1878   -11262.893     4.281955     4.281955     4.281955   -11262.893   -3895.4205   -7040.6692    -22852.59    1105.4412    9974.0314   -24379.294    78.510239 
   85900    1098.2838   -122.17127   0.99375022   -121.17752    9574.1654    4.2736026    4.2736026    4.2736026    9574.1654   -1525.8356    19470.611     10777.72    2582.4277    1978.9694     27819.39    78.051709 
   86000     933.5793   -122.02393   0.84472217    -121.1792   -3411.2156    4.2822971    4.2822971    4.2822971   -3411.2156    9507.4588   -7521.1261   -12219.979   -924.04558   -6891.2489    1281.2345    78.529055 
   86100    651.63502   -121.77123   0.58961306   -121.18162   -12270.716    4.2828745    4.2828745    4.2828745   -12270.716    9838.4008   -16075.583   -30574.966    1153.7581    7231.1172   -45715.011    78.560827 
   86200    786.61033   -121.89066   0.71174156   -121.17892    2198.4387    4.2729546    4.2729546    4.2729546    2198.4387   -3287.6726    20567.909    -10684.92   -1933.7046    22918.125   -26349.639    78.016209 
   86300    982.85031   -122.06624   0.88930362   -121.17694   -3009.6348     4.281662     4.281662     4.281662   -3009.6348   -15913.627    17136.183   -10251.461   -2566.2055     10965.32    20507.662    78.494123 
   86400    939.68295   -122.02734   0.85024488   -121.17709   -3191.5558    4.2818169    4.2818169    4.2818169   -3191.5558    8801.5842   -3044.4858   -15331.766    1277.3737   -9145.4034    17518.719     78.50264 
   86500     662.2203   -121.77876   0.59919085   -121.17957    3607.6264    4.2758704    4.2758704    4.2758704    3607.6264    22720.405    5414.2471   -17311.772    -1427.103   -1868.8741   -19596.557    78.176026 
   86600    622.37757    -121.7446   0.56314031   -121.18146   -4824.2574     4.280329     4.280329     4.280329   -4824.2574   -6885.5655    16508.017   -24095.223     -1354.64    28600.732   -26420.945    78.420836 
   86700    844.64405   -121.94359   0.76425169   -121.17933    2171.8538    4.2794297    4.2794297    4.2794297    2171.8538    -10399.11    26183.617   -9268.9458    -2470.389    29742.959    3903.5729    78.371418 
   86800    1057.6139   -122.13258    0.9569513   -121.17563    8355.2203    4.2789527    4.2789527    4.2789527    8355.2203    17199.388    13931.932   -6065.6593   -1496.0814   -3850.5766    17243.313    78.345211 
   86900     792.0664   -121.89698   0.71667832   -121.18031    314.13737    4.2799597    4.2799597    4.2799597    314.13737    26510.221   -390.05213   -25177.757    1454.5431   -5093.9032   -6299.4176    78.400538 
   87000    332.99619   -121.48783   0.30130195   -121.18652   -6230.0348    4.2786355    4.2786355    4.2786355   -6230.0348    11721.737    12814.693   -43226.534   -634.19272    33810.841    -25345.48    78.327787 
   87100    605.26214    -121.7338    0.5476539   -121.18614   -3771.9897    4.2802937    4.2802937    4.2802937   -3771.9897    502.76183    23670.259    -35488.99   -1807.7401     33991.31   -10319.036    78.418894 
   87200    1225.7111    -122.2861    1.1090492   -121.17705    5540.9248    4.2797766    4.2797766    4.2797766    5540.9248    4927.5718    16225.234   -4530.0316   -4007.1481   -7915.8802    9295.1115    78.390474 
   87300    1091.1379   -122.16612   0.98728447   -121.17884    2186.1345    4.2789157    4.2789157    4.2789157    2186.1345    16991.235   -260.31475   -10172.517    -1520.234   -9082.4127    -7448.723    78.343178 
   87400    558.16758   -121.69095   0.50504176   -121.18591   -8906.8528    4.2794962    4.2794962    4.2794962   -8906.8528    10136.931   -1327.8765   -35529.613    4197.7785    37738.089   -23259.856    78.375071 
   87500    596.38517   -121.72434   0.53962183   -121.18472   -9207.6607    4.2797947    4.2797947    4.2797947   -9207.6607   -8918.6299    12279.708    -30984.06   -1633.2983    34031.167   -9714.2986    78.391469 
   87600    952.47025   -122.04017    0.8618151   -121.17836   -1748.9369    4.2808968    4.2808968    4.2808968   -1748.9369    -11184.56    12883.638    -6945.888   -6895.0821   -21739.281     4857.515    78.452044 
   87700    992.02047   -122.07372   0.89760097   -121.17612    1054.3099    4.2796049    4.2796049    4.2796049    1054.3099     3556.258    384.94648   -778.27482   -1258.3289   -24729.378      -1557.3    78.381042 
   87800    750.73925   -121.85766   0.67928465   -121.17838    2440.1461    4.2776814    4.2776814    4.2776814    2440.1461    15561.755    753.08068   -8994.3974    4300.5028     22955.91   -17837.003    78.275404 
   87900    667.54302   -121.78382   0.60400695   -121.17981   -886.03591    4.2800373    4.2800373    4.2800373   -886.03591    10018.143    10753.319   -23429.569    1034.6467    27925.511   -16974.686    78.404802 
   88000    775.47224   -121.87946   0.70166358    -121.1778   -767.63531    4.2817419    4.2817419    4.2817419   -767.63531    2871.4273    13668.389   -18842.722   -6669.8419   -14938.369    1789.2081    78.498517 
   88100     905.9726   -121.99528   0.81974305   -121.17554    2725.8112    4.2785533    4.2785533    4.2785533    2725.8112   -603.51751    5199.3753    3581.5758   -3490.4843    -28962.34     4061.255    78.323273 
   88200    668.38277   -121.78389   0.60476678   -121.17912    780.23372    4.2771445    4.2771445    4.2771445    780.23372    8446.8534   -4275.6781   -1830.4741    10668.953    8080.5749   -13857.565    78.245933 
   88300     528.6545   -121.66008    0.4783377   -121.18174   -9204.8058    4.2841771    4.2841771    4.2841771   -9204.8058    7941.0214   -17111.043   -18444.395     8087.705    22154.295   -21333.133    78.632532 
   88400    897.55616   -121.99052   0.81212768    -121.1784   -3520.8205    4.2831195    4.2831195    4.2831195   -3520.8205    169.92971   -4531.0963    -6201.295   -3510.3502   -7243.7485   -1308.9034    78.574312 
   88500    1289.7768   -122.33943    1.1670171   -121.17241    14673.926    4.2728614    4.2728614    4.2728614    14673.926    8347.3794    11944.752    23729.647    67.106063   -17337.681    6900.0821    78.011103 
   88600    921.04468   -122.01553   0.83338058   -121.18215    2771.8002    4.2797159    4.2797159    4.2797159    2771.8002    8402.6497   -19770.479     19683.23    8113.5375    2504.6539   -16835.459     78.38714 
   88700    282.24076   -121.44593   0.25537737   -121.19056   -15997.343    4.2863273    4.2863273    4.2863273   -15997.343    13890.569   -40778.691   -21103.906    9548.4831     20146.96   -26951.921    78.750985 
   88800    565.49048   -121.70144   0.51166767   -121.18977    41.604852    4.2741125    4.2741125    4.2741125    41.604852    24054.946   -11913.339   -12016.792    1086.6058    13618.795     2577.753    78.079649 
   88900    1276.2381    -122.3335     1.154767   -121.17874    4275.2857    4.2795821    4.2795821    4.2795821    4275.2857    4094.0943   -7346.7236    16078.487   -8429.0976   -7225.6116     16729.85    78.379787 
   89000    993.88466   -122.07777   0.89928773   -121.17848   -7887.5323    4.2872996    4.2872996    4.2872996   -7887.5323    2068.7592   -21669.635   -4061.7211   -3337.5774   -2548.9104     -18796.6    78.804589 
   89100     432.5477   -121.57533   0.39137825   -121.18395   -3371.1318    4.2748721    4.2748721    4.2748721   -3371.1318    19408.835    -8017.543   -21504.688    7836.2776    16344.277   -29281.131    78.121283 
   89200    564.50891   -121.69328   0.51077952    -121.1825   -7069.2638    4.2793785    4.2793785    4.2793785   -7069.2638    4476.9675   -13674.931   -12009.827    7070.1346    18217.657    1303.2582      78.3686 
   89300    1012.8887   -122.09262   0.91648301   -121.17613   -1994.7266    4.2828324    4.2828324    4.2828324   -1994.7266    -4958.626   -11969.746    10944.192   -11747.056    1481.4507    16586.081    78.558512 
   89400    941.91836   -122.02874   0.85226753   -121.17647    7145.3114    4.2767392    4.2767392    4.2767392    7145.3114    8908.4744    2628.0202    9899.4396   -19489.378    -14259.52   -5917.0008    78.223693 
   89500     730.6663   -121.84068   0.66112222   -121.17955   -4530.7426    4.2814643    4.2814643    4.2814643   -4530.7426    3716.8479   -3729.5241   -13579.552    1935.9975    8025.8079   -23439.007    78.483253 
   89600    762.30844   -121.86883    0.6897527   -121.17907    1088.7208    4.2787204    4.2787204    4.2787204    1088.7208    9228.3996    2882.0208   -8844.2581    11204.333    27262.165   -9509.2995    78.332455 
   89700    881.07457   -121.97426   0.79721479   -121.17704    4173.3381    4.2793775    4.2793775    4.2793775    4173.3381    7223.2915    199.87295    5096.8497   -11731.014     4100.694    7890.0003    78.368545 
   89800    865.68237   -121.96012    0.7832876   -121.17683   -5368.4907    4.2828203    4.2828203    4.2828203   -5368.4907   -9794.7017   -13240.076    6929.3051   -27784.657   -16556.702    4761.9655    78.557843 
   89900    710.97419   -121.82155   0.64330439   -121.17825    2753.0488    4.2751022    4.2751022    4.2751022    2753.0488    7953.5976     7511.206   -7205.6571   -7932.2338    3440.9105   -10720.522    78.133899 
   90000    678.40251   -121.79364   0.61383285   -121.17981   -7355.5251    4.2804174    4.2804174    4.2804174   -7355.5251    3826.6564    10581.609   -36474.841    12619.474    31839.284   -16971.258    78.425693 
   90100    739.85665     -121.848   0.66943785   -121.17857   -10840.912    4.2830986    4.2830986    4.2830986   -10840.912   -9462.6932   -12359.359   -10700.683   -15320.655    16602.043   -4502.5265     78.57316 
   90200     904.6213   -121.99432   0.81852036    -121.1758     1558.297    4.2762104    4.2762104    4.2762104     1558.297   -2529.9784    -19626.09    26830.959   -37760.626   -11866.322    4840.8917    78.194679 
   90300    927.29472   -122.01451   0.83903575   -121.17548   -5353.8745    4.2802157    4.2802157    4.2802157   -5353.8745   -92.997981   -4725.8139   -11242.812   -9780.4307    4742.2533   -2913.6559    78.414605 
   90400    726.28773   -121.83681    0.6571604   -121.17965   -4233.8869    4.2789204    4.2789204    4.2789204   -4233.8869    7982.0296    13155.934   -33839.625    9783.9927     29140.11   -14374.174    78.343438 
   90500    555.78157   -121.68553   0.50288284   -121.18265   -2824.4684    4.2804938    4.2804938    4.2804938   -2824.4684    6007.4713   -7680.6373   -6800.2392   -15588.438    16154.442   -11952.212    78.429892 
   90600    814.99821   -121.91853   0.73742751   -121.18111   -4035.6864    4.2816098    4.2816098    4.2816098   -4035.6864   -3553.4918   -23888.761    15335.193    -37491.19   -7074.1126    1312.8991     78.49125 
   90700    1134.6023   -122.20315     1.026612   -121.17654    14074.849    4.2726817    4.2726817    4.2726817    14074.849    15055.464    11077.934    16091.147   -11098.232   -1527.2983    3254.5538    78.001262 
   90800    1055.5889   -122.13322   0.95511902    -121.1781    5441.6569    4.2820314    4.2820314    4.2820314    5441.6569    15755.593    13877.716   -13308.339    12281.136    19913.167    -7835.219    78.514442 
   90900    560.58288   -121.69152   0.50722717   -121.18429        -7774    4.2846421    4.2846421    4.2846421        -7774   -2043.4387   -4557.0399   -16721.521   -16970.318    17942.354    -13047.43    78.658137 
   91000    376.64727   -121.52607   0.34079836   -121.18527    3634.6626    4.2727686    4.2727686    4.2727686    3634.6626    1870.7887   -2904.0731    11937.272   -43022.717   -3756.1102   -5061.6069    78.006022 
   91100    904.03043   -121.99957   0.81798573   -121.18159    1502.5885     4.280947     4.280947     4.280947    1502.5885    899.87019   -5044.2476     8652.143   -14360.477   -10808.591    5242.2519    78.454804 
   91200    1244.1688   -122.29951    1.1257501   -121.17376     3535.518    4.2842186    4.2842186    4.2842186     3535.518    7443.4708    8171.8757   -5008.7925    17414.722    386.13167   -171.55371    78.634816 
   91300     725.9725   -121.84013   0.65687517   -121.18326    1555.8652    4.2760369    4.2760369    4.2760369    1555.8652    8652.4859   -7045.8219    3060.9316   -18889.169    11114.861   -13525.197    78.185162 
   91400    327.99828    -121.4851   0.29677973   -121.18832   -7615.7194    4.2775815    4.2775815    4.2775815   -7615.7194   -8017.6384   -26038.577    11209.057   -49360.789    7196.8061   -11237.291    78.269916 
   91500    788.03694   -121.89818   0.71303238   -121.18515    -2089.216    4.2819314    4.2819314    4.2819314    -2089.216   -5086.5771   -484.49455   -696.57638   -14457.987   -9227.0815    1094.6957    78.508939 
   91600    1250.6226    -122.3075    1.1315896   -121.17591    4522.4885    4.2815624    4.2815624    4.2815624    4522.4885    7730.4231    20148.091   -14311.049    15797.753   -15409.889    4896.7811    78.488648 
   91700    889.94393    -121.9855   0.80523997   -121.18026    2235.9766    4.2764747    4.2764747    4.2764747    2235.9766     11.81495    3082.2465    3613.8685    -20016.49   -2879.1079   -4438.5883     78.20918 
   91800    495.57325   -121.63215   0.44840509   -121.18374   -6512.7676    4.2795982    4.2795982    4.2795982   -6512.7676   -14350.367   -14669.519    9481.5831   -46859.529    5909.8161   -12835.788    78.380673 
   91900    713.61121   -121.82548   0.64569042   -121.17979   -10598.183    4.2831737    4.2831737    4.2831737   -10598.183   -7279.1407   -1148.8138   -23366.595   -11899.078    -1741.972   -1658.0127    78.577295 
   92000    888.84284   -121.98018   0.80424368   -121.17594   -2155.6899    4.2771025    4.2771025    4.2771025   -2155.6899    5352.3821    24265.476   -36084.927    14067.633   -16531.015    12971.779    78.243629 
   92100    700.59819   -121.81285   0.63391596   -121.17894   -5908.2603    4.2776871    4.2776871    4.2776871   -5908.2603     -11071.3   -956.77837   -5696.7022   -25973.345   -11652.138    7621.5799    78.275712 
   92200    778.19973   -121.88406   0.70413147   -121.17993   -4197.6476     4.280867     4.280867     4.280867   -4197.6476   -12887.026   -18539.381    18833.465   -44481.117    3912.4097    -2736.462    78.450406 
   92300     1108.052   -122.17796    1.0025888   -121.17537    3775.5781    4.2803693    4.2803693    4.2803693    3775.5781    7645.5974    7801.7072   -4120.5704   -5291.0687    1554.9102    -3701.482    78.423049 
   92400     948.5527   -122.03699   0.85827042   -121.17872    2973.3174    4.2782827    4.2782827    4.2782827    2973.3174    12572.132    20714.984   -24367.164    12197.909   -8633.9331     7691.949    78.308417 
   92500     387.8641   -121.53873   0.35094759   -121.18778   -4135.1425    4.2777209    4.2777209    4.2777209   -4135.1425   -5320.6637    -2817.807   -4266.9567   -25445.808   -9197.3858     11499.98     78.27757 
   92600    518.08893    -121.6582   0.46877776   -121.18942   -5883.4693    4.2820606    4.2820606    4.2820606   -5883.4693   -11193.519   -12973.172    6516.2824   -44153.425   -2074.7991    2669.9108    78.516049 
   92700    1235.0448   -122.29556    1.1174945   -121.17806    5981.1592    4.2812899    4.2812899    4.2812899    5981.1592    13952.031    7836.1286   -3844.6817   -3138.8067    2622.4563   -3395.4712    78.473658 
   92800    1219.0594    -122.2797    1.1030306   -121.17667    8890.9252    4.2777537    4.2777537    4.2777537    8890.9252    11570.193    21270.922   -6168.3399    12871.621   -3353.4603   -1548.5883    78.279373 
   92900    437.15857   -121.58465   0.39555026    -121.1891   -5342.7354    4.2792972    4.2792972    4.2792972   -5342.7354   -16078.438    7188.3004   -7138.0681    -29968.97    -8494.392    8863.4547    78.364135 
   93000    245.89041   -121.41351   0.22248681   -121.19102    -9843.416    4.2823317    4.2823317    4.2823317    -9843.416   -8027.9112   -8674.8742   -12827.463   -40416.697   -4160.2606    10942.815    78.530961 
   93100    930.86114   -122.02594   0.84226272   -121.18368    3128.2986    4.2793407    4.2793407    4.2793407    3128.2986    19704.965     1462.464   -11782.533    9.7645661   -311.45443   -5941.8247    78.366527 
   93200    1301.3007   -122.35367    1.1774442   -121.17623    14212.558     4.274996     4.274996     4.274996    14212.558    19665.578    20792.267    2179.8287    12098.091    1845.0601    -11354.29    78.128076 
   93300    827.40467   -121.93261   0.74865314   -121.18396   -2261.9176    4.2830353    4.2830353    4.2830353   -2261.9176   -7073.1924   -4429.3165    4716.7561   -32548.256   -3356.0517    2674.7231    78.569676 
   93400    475.48187   -121.61543   0.43022599    -121.1852   -8938.8924    4.2823613    4.2823613    4.2823613   -8938.8924   -11888.593   -15090.861    162.77711   -41989.792    -10211.89    11872.824    78.532587 
   93500    811.77282   -121.91393   0.73450911   -121.17942    3219.6568    4.2739862    4.2739862    4.2739862    3219.6568    15520.821    12635.179   -18497.029     3028.584   -4640.9214    861.97693    78.072729 
   93600    961.58295   -122.04583   0.87006046   -121.17577   -2392.4783     4.281037     4.281037     4.281037   -2392.4783    15793.066    4914.8309   -27885.331    8171.3778    2994.3603   -15496.591    78.459754 
   93700    694.92399   -121.80772   0.62878183   -121.17894   -5122.0633    4.2819577    4.2819577    4.2819577   -5122.0633   -11232.644   -5498.3635    1364.8177   -37420.137    5192.5135   -7181.7765    78.510387 
   93800    762.72274    -121.8688   0.69012756   -121.17867    857.07502    4.2760872    4.2760872    4.2760872    857.07502   -13888.076    2492.4754    13966.825   -39066.332   -1101.4893    5480.8902     78.18792 
   93900    1062.5739   -122.13598   0.96143919   -121.17454    1099.5835    4.2793938    4.2793938    4.2793938    1099.5835    10257.319    11701.464   -18660.033    5859.9995    -8184.728   -1104.4839    78.369441 
   94000    794.78712   -121.89917   0.71914009   -121.18003   -2749.4745     4.281159     4.281159     4.281159   -2749.4745     16306.16    4709.9022   -29264.486    3430.9638   -352.77791   -9006.8786     78.46646 
   94100    323.49781   -121.48017   0.29270762   -121.18747   -10791.997    4.2794689    4.2794689    4.2794689   -10791.997   -15420.092    -18987.25    2031.3506   -45899.339    6459.6784   -8642.6472    78.373567 
   94200    662.43575   -121.78775   0.59938579   -121.18837   -2329.3963    4.2774517    4.2774517    4.2774517   -2329.3963   -20529.454   -7115.1664    20656.431   -39568.341    7642.6778    190.09185    78.262795 
   94300    1366.2359   -122.41379    1.2361989   -121.17759    6267.3193    4.2809705    4.2809705    4.2809705    6267.3193    4029.8354    15181.427   -409.30449    14709.304   -489.52475     1660.096      78.4561 
   94400    1095.5315    -122.1734    0.9912599   -121.18214   -1083.9371    4.2815815    4.2815815    4.2815815   -1083.9371    2489.5064    133.38382   -5874.7016   -823.41547   -10243.397   -6782.6245    78.489694 
   94500    287.93809   -121.45195   0.26053244   -121.19141   -5445.4172    4.2762012    4.2762012    4.2762012   -5445.4172   -14493.206   -13533.316    11690.271   -49629.132    1104.4171   -6719.8094    78.194173 
   94600    395.63261   -121.54942    0.3579767   -121.19144   -10309.439    4.2818804    4.2818804    4.2818804   -10309.439   -14498.938   -8050.2235   -8379.1562   -32382.939    15936.416   -2832.6706    78.506138 
   94700    1133.6026   -122.20627    1.0257074   -121.18056    721.56753    4.2817291    4.2817291    4.2817291    721.56753     10012.63    12858.849   -20706.776    13884.846    14344.545     691.1105    78.497815 
   94800    1173.4379   -122.23872    1.0617512   -121.17697    10680.741    4.2746806    4.2746806    4.2746806    10680.741    18451.165    4012.3269    9578.7309   -3120.6187   -972.97176    2586.0345    78.110789 
   94900    643.35569    -121.7669   0.58212175   -121.18477   -6469.3562    4.2811062    4.2811062    4.2811062   -6469.3562   -8143.1142   -24790.184    13525.229   -46456.706   -5388.7653   -3395.3565    78.463559 
   95000    503.76853   -121.64087   0.45582035   -121.18505   -10676.731    4.2819454    4.2819454    4.2819454   -10676.731   -9076.8373   -6001.4512   -16951.905   -26159.508    17972.353   -6795.4235    78.509711 
   95100    857.45643   -121.95558    0.7758446   -121.17974    438.90042    4.2769396    4.2769396    4.2769396    438.90042    11199.667    19168.409   -29051.374    12497.343    25349.431   -5158.1538    78.234685 
   95200    998.55396   -122.08001   0.90351261    -121.1765   -1853.0056     4.278898     4.278898     4.278898   -1853.0056    1695.6208   -692.17899   -6562.4585   -8916.3208      1186.13    2366.6651    78.342206 
   95300    823.51784   -121.92346   0.74513624   -121.17832   -1403.4202    4.2793801    4.2793801    4.2793801   -1403.4202   -8432.6403   -12220.003    16442.383   -40846.352   -7877.9114    3978.9573    78.368689 
   95400    760.61617   -121.86672   0.68822149   -121.17849   -1285.3407    4.2808922    4.2808922    4.2808922   -1285.3407    1195.5707   -201.73225   -4849.8604   -21035.943    11209.431   -6524.0294    78.451794 
   95500    890.83584   -121.98239   0.80604699   -121.17634    2688.5084    4.2780367    4.2780367    4.2780367    2688.5084    14421.469     18726.72   -25082.664    12326.437    25368.967   -9495.8555    78.294909 
   95600    683.75787   -121.79776   0.61867849   -121.17908     5749.233    4.2761081    4.2761081    4.2761081     5749.233    13230.688    14073.164   -10056.153    -7863.259    5401.3302   -2921.8552    78.189068 
   95700    500.37971   -121.63568   0.45275407   -121.18293   -5859.9376    4.2834377    4.2834377    4.2834377   -5859.9376   -3980.0214    -18635.26    5035.4682    -40706.17   -15939.462    5289.7484    78.591825 
   95800    822.90385   -121.92406    0.7445807   -121.17948    393.21072    4.2793818    4.2793818    4.2793818    393.21072    -22.19479   -10711.848    11913.675   -20437.705   -1584.3847    7464.6141    78.368785 
   95900    1186.3287   -122.24721    1.0734151    -121.1738    9642.5431    4.2765558    4.2765558    4.2765558    9642.5431    14020.759    12826.353    2080.5173    14175.279    15579.149   -6162.8508    78.213629 
   96000     864.5244    -121.9627   0.78223984   -121.18046   -3136.8304    4.2821458    4.2821458    4.2821458   -3136.8304    3576.5703   -5434.0569   -7553.0045   -8651.4415     10540.25   -14034.017    78.520735 
   96100     432.2844   -121.57717   0.39114001   -121.18603   -4368.4835    4.2784934    4.2784934    4.2784934   -4368.4835   -5834.1145   -19833.505    12562.169   -41886.388   -7974.4868    -3466.411    78.319985 
   96200    745.72752   -121.85936   0.67474993   -121.18461   -2317.1857    4.2791842    4.2791842    4.2791842   -2317.1857   -5920.8163    -8160.456    7129.7152   -21392.743   -14329.963    10622.376    78.357927 
   96300    1218.2611   -122.27904    1.1023083   -121.17673    3241.1963    4.2801131    4.2801131    4.2801131    3241.1963     13091.08    9220.9962   -12588.488    15284.363    -494.5376    7317.6631     78.40897 
   96400    939.73145   -122.03001   0.85028876   -121.17972    1851.2393     4.278243     4.278243     4.278243    1851.2393    8216.2854    997.53429   -3660.1018   -11051.825    7454.5272     -14144.1    78.306235 
   96500    433.39169   -121.57728   0.39214191   -121.18514   -11562.764    4.2819082    4.2819082    4.2819082   -11562.764   -13338.877    -24285.85    2936.4347   -44599.197    1857.8711   -14691.251    78.507666 
   96600    570.77124   -121.69967   0.51644581   -121.18323   -5384.9747     4.278977     4.278977     4.278977   -5384.9747   -1715.1024   -7377.0263   -7062.7955    -18834.21   -9511.2003    11196.831    78.346546 
   96700    997.64155   -122.07938   0.90268704   -121.17669    979.18118    4.2783854    4.2783854    4.2783854    979.18118    11246.338    10325.117   -18633.911    13237.896   -14983.437    18456.461    78.314056 
   96800    958.98805   -122.04418   0.86771254   -121.17647    -3508.592    4.2812709    4.2812709    4.2812709    -3508.592     2735.528   -13155.893   -105.41101   -8108.6851   -1281.8036   -3436.8185    78.472614 
   96900    741.81016   -121.85088   0.67120542   -121.17967    -1109.735     4.277211     4.277211     4.277211    -1109.735    1143.5414    -23585.99    19113.244   -36689.438    3914.4126   -18129.982    78.249584 
   97000    672.94453   -121.78975   0.60889435   -121.18085   -4400.6931    4.2792592    4.2792592    4.2792592   -4400.6931    1381.2746   -6202.2023   -8381.1518   -16973.215   -5877.4524    876.67339    78.362049 
   97100    707.67279   -121.82029   0.64031721   -121.17998   -4575.1914    4.2814146    4.2814146    4.2814146   -4575.1914    4168.0264      8168.71   -26062.311    12083.592    -13963.52    21987.938    78.480517 
   97200    810.61195   -121.91196   0.73345873    -121.1785    3395.7638    4.2777805    4.2777805    4.2777805    3395.7638    14153.449    5560.1849    -9526.343   -6488.7609    -6460.437    8664.3716     78.28084 
   97300    1012.9716    -122.0921     0.916558   -121.17555    4932.7137    4.2791361    4.2791361    4.2791361    4932.7137    9843.2821   -459.62186    5414.4808   -25908.759    4904.6206   -7526.7636    78.355286 
   97400    980.16718   -122.06276   0.88687587   -121.17589    5689.1252    4.2794208    4.2794208    4.2794208    5689.1252    18191.359    -25.71708   -1098.2662   -11845.345   -2811.4997    2492.9968    78.370928 
   97500    557.52648   -121.68693   0.50446168   -121.18247    -3524.452    4.2801969    4.2801969    4.2801969    -3524.452    20300.856    2881.5118   -33755.723    9836.6893   -16411.792    21169.158    78.413572 
   97600    461.15429    -121.6031   0.41726209   -121.18583   -7061.8195    4.2791226    4.2791226    4.2791226   -7061.8195     3915.031    15226.628   -40327.117    5956.0538   -7773.1462    15996.895    78.354545 
   97700     1013.864   -122.09812   0.91736543   -121.18076    4885.3232    4.2764221    4.2764221    4.2764221    4885.3232    7566.1216    13127.117   -6037.2686   -13808.049     10068.38   -4940.5797    78.206294 
   97800    1224.1565   -122.28347    1.1076425   -121.17583   -803.35727    4.2839921    4.2839921    4.2839921   -803.35727    14686.299   -13052.841     -4043.53   -8014.5503     1356.186   -4088.8262    78.622345 
   97900    598.69195   -121.72665   0.54170906   -121.18494   -6544.0723    4.2810084    4.2810084    4.2810084   -6544.0723    9309.3916   -6291.7251   -22649.883    9792.5483   -16312.145    14626.155     78.45818 
   98000    391.83148    -121.5402   0.35453735   -121.18566   -2806.4114    4.2754701    4.2754701    4.2754701   -2806.4114    1399.4827    10852.899   -20671.616    10862.804   -11890.854    19910.295    78.154073 
   98100    981.43493   -122.06799   0.88802295   -121.17996   -3137.9072    4.2833982    4.2833982    4.2833982   -3137.9072    1356.7086    1331.6382   -12102.068    3578.3608    8961.1077    242.64203     78.58965 
   98200    1217.0103   -122.27642    1.1011765   -121.17525    7390.2042    4.2782712    4.2782712    4.2782712    7390.2042    23951.795   -3111.5365    1330.3542   -5080.9473    8942.4445   -19040.428    78.307781 
   98300    715.24709   -121.82967   0.64717059    -121.1825     468.1379    4.2765748    4.2765748    4.2765748     468.1379    22830.854   -12151.147   -9275.2925    1807.3885   -13874.538   -5638.2904    78.214672 
   98400     547.1856   -121.67941   0.49510503    -121.1843   -10869.992    4.2821227    4.2821227    4.2821227   -10869.992   -8504.6403   -6477.4927   -17627.842    13518.029   -18994.621    17772.486    78.519465 
   98500    862.05996   -121.95853   0.78000997   -121.17852    2669.8444    4.2778789    4.2778789    4.2778789    2669.8444   -4124.9409    9862.0456    2272.4286    5079.3772   -5883.4961    6801.1119    78.286245 
   98600    960.24342    -122.0441   0.86884843   -121.17525   -3132.0086    4.2820577    4.2820577    4.2820577   -3132.0086    9628.6238   -19128.637    103.98772   -11431.476    7655.7517   -25809.925    78.515888 
   98700    654.66561    -121.7709   0.59235521   -121.17854   -6600.9993    4.2803278    4.2803278    4.2803278   -6600.9993    14453.158   -26596.689   -7659.4667   -8711.8938    -1756.597   -18314.109    78.420769 
   98800    586.93245   -121.71102   0.53106881   -121.17995   -734.78383    4.2754117    4.2754117    4.2754117   -734.78383    7612.0525   -2516.9304   -7299.4736     9795.825   -22818.299    18954.498     78.15087 
   98900    832.51442   -121.93264   0.75327654   -121.17936     -5584.36     4.282013     4.282013     4.282013     -5584.36   -4965.3596   -5452.3524   -6335.3679    7031.9973     -17704.9    18582.719    78.513431 
   99000     1031.757   -122.10998    0.9335554   -121.17642    2189.7179    4.2789899    4.2789899    4.2789899    2189.7179    6294.1781   -14166.609    14441.585   -11581.794    4870.8089    -17250.05    78.347254 
   99100     940.2938   -122.02853   0.85079759   -121.17774     2433.727    4.2775533    4.2775533    4.2775533     2433.727    8781.9203   -13208.515    11727.776   -12087.904    3479.2282   -16793.365    78.268369 
   99200    552.70994   -121.68242   0.50010357   -121.18231   -5396.1771     4.282376     4.282376     4.282376   -5396.1771    -386.2656   -6681.9956     -9120.27    3545.0165   -20139.442    17725.832    78.533399 
   99300    536.65871     -121.667   0.48558008   -121.18142   -2106.0822     4.280381     4.280381     4.280381   -2106.0822   -11150.693    6191.3551   -1358.9091    6058.4984   -21906.664    21352.003    78.423693 
   99400    937.58878    -122.0255   0.84835003   -121.17715    2014.5721    4.2789919    4.2789919    4.2789919    2014.5721    -19907.88     12181.63    13769.966   -8523.8279        10821   -3138.4188    78.347366 
   99500    1141.0018    -122.2063    1.0324024    -121.1739    6981.1219     4.277562     4.277562     4.277562    6981.1219   -8839.4383    4978.5358    24804.268   -11896.121    14831.812   -5660.1129    78.268845 
   99600    852.01726   -121.95117   0.77092312   -121.18025   -2020.4314    4.2799295    4.2799295    4.2799295   -2020.4314   -5434.0649   -3140.7276    2513.4984     4220.746   -22154.179    13618.458    78.398878 
   99700    456.93878   -121.59966   0.41344781   -121.18622   -9329.0477     4.279775     4.279775     4.279775   -9329.0477   -20872.612    14001.395   -21115.926    8973.3056   -21936.664    19310.668    78.390389 
   99800    633.45053   -121.75701   0.57315935   -121.18385   -351.61996    4.2777268    4.2777268    4.2777268   -351.61996   -19928.452    25705.027   -6831.4348   -3527.6969     16422.63    5991.3583    78.277892 
   99900    1110.0301   -122.17954    1.0043786   -121.17516   -848.14613    4.2840613    4.2840613    4.2840613   -848.14613   -12790.868    6691.7519    3554.6773   -6431.2116     23286.11   -10590.425    78.626154 
  100000    951.98691   -122.03714   0.86137776   -121.17577    3914.3926    4.2783797    4.2783797    4.2783797    3914.3926   -991.79441    9736.7468    2998.2254    4370.8708   -12228.871   -3254.4041    78.313741 
Loop time of 22.257 on 1 procs for 100000 steps with 8 atoms

Pair  time (%) = 7.16511 (32.1927)
Kspce time (%) = 5.31612 (23.8852)
Neigh time (%) = 0 (0)
Comm  time (%) = 1.06017 (4.7633)
Outpt time (%) = 0.026895 (0.120839)
Other time (%) = 8.68869 (39.038)

Nlocal:    8 ave 8 max 8 min
Histogram: 1 0 0 0 0 0 0 0 0 0
Nghost:    2189 ave 2189 max 2189 min
Histogram: 1 0 0 0 0 0 0 0 0 0
Neighs:    2344 ave 2344 max 2344 min
Histogram: 1 0 0 0 0 0 0 0 0 0

Total # of neighbors = 2344
Ave neighs/atom = 293
Neighbor list builds = 0
Dangerous builds = 0
unfix 20
unfix 21
print "seeds:5164502"
seeds:5164502
