LAMMPS (10 Feb 2015)
# ---- initialize simulations
clear
units metal
dimension 3
boundary p p p
atom_style charge
atom_modify map array
# ---- create atoms
read_data lammps.structure
  triclinic box = (0 0 0) to (12.6321 12.6321 12.6321) with tilt (0 0 0)
  1 by 1 by 1 MPI processor grid
  reading atoms ...
  216 atoms
# ---- define interatomic potential
include potential.mod
mass 1 24.305
mass 2 15.999

group magnesium type 1
108 atoms in group magnesium
group oxygen type 2
108 atoms in group oxygen

set group magnesium charge 2.0
  108 settings made for charge
set group oxygen charge -2.0
  108 settings made for charge

variable R_cut equal 10.0

pair_style buck/coul/long ${R_cut}
pair_style buck/coul/long 10
pair_coeff 1 1 0.0 0.5 0.0 ${R_cut}
pair_coeff 1 1 0.0 0.5 0.0 10
pair_coeff 1 2 821.6 0.3242 0.0 ${R_cut}
pair_coeff 1 2 821.6 0.3242 0.0 10
pair_coeff 2 2 2274.0 0.149 27.88 ${R_cut}
pair_coeff 2 2 2274.0 0.149 27.88 10

kspace_style pppm 1.0e-5

neighbor 1.0 bin
neigh_modify every 1 delay 0 check yes

# ---- define settings
compute eng all pe/atom
compute eatoms all reduce sum c_eng

# ---- run minimization
reset_timestep 0
thermo 1
thermo_style custom step pe lx ly lz xy xz yz press pxx pyy pzz pxy pxz pyz c_eatoms
min_style cg
minimize 1e-20 1e-20 1000 100000
PPPM initialization ...
  G vector (1/distance) = 0.345834
  grid = 20 20 20
  stencil order = 5
  estimated absolute RMS force accuracy = 0.000107862
  estimated relative force accuracy = 7.49059e-06
  using double precision FFTs
  3d grid and FFT values/proc = 19683 8000
Neighbor list info ...
  1 neighbor list requests
  update every 1 steps, delay 0 steps, check yes
  master list distance cutoff = 11
Memory usage per processor = 6.46179 Mbytes
Step PotEng Lx Ly Lz Xy Xz Yz Press Pxx Pyy Pzz Pxy Pxz Pyz eatoms 
       0   -4337.1922      12.6321      12.6321      12.6321            0            0            0     14979.98    12858.994    16040.473    16040.473   -663.84464   -663.84464    -766.8114   -4337.1922 
       1   -4360.4702      12.6321      12.6321      12.6321            0            0            0      15609.9    15877.269    15476.216    15476.216   -257.07821   -257.07821   -156.73867   -4360.4702 
       2   -4366.1293      12.6321      12.6321      12.6321            0            0            0    21691.797    23048.587    21013.401    21013.401   -250.84448   -250.84448    7.8730028   -4366.1293 
       3   -4367.7189      12.6321      12.6321      12.6321            0            0            0    20471.581    21000.888    20206.928    20206.928   -35.640598   -35.640598    147.33315   -4367.7189 
       4   -4368.3696      12.6321      12.6321      12.6321            0            0            0    21279.638    22297.534     20770.69     20770.69   -96.505133   -96.505133    89.184737   -4368.3696 
       5   -4368.5964      12.6321      12.6321      12.6321            0            0            0    21536.002    22213.619    21197.194    21197.194   -181.81795   -181.81795    4.6164279   -4368.5964 
       6    -4368.691      12.6321      12.6321      12.6321            0            0            0     21597.07    22498.295    21146.458    21146.458   -331.34725   -331.34725   -65.512049    -4368.691 
       7   -4368.7237      12.6321      12.6321      12.6321            0            0            0    21820.716     22819.99    21321.078    21321.078   -367.57812   -367.57812   -17.617615   -4368.7237 
       8    -4368.745      12.6321      12.6321      12.6321            0            0            0    21768.242    22846.318    21229.204    21229.204   -412.85525   -412.85525   -14.954732    -4368.745 
       9   -4368.7536      12.6321      12.6321      12.6321            0            0            0    21905.167    23006.662     21354.42     21354.42   -466.71805   -466.71805   -19.012056   -4368.7536 
      10   -4368.7605      12.6321      12.6321      12.6321            0            0            0    21881.332    22998.695    21322.651    21322.651   -497.82127   -497.82127    -26.51365   -4368.7605 
      11   -4368.7634      12.6321      12.6321      12.6321            0            0            0    21907.377    23084.755    21318.689    21318.689   -507.15294   -507.15294   -27.687303   -4368.7634 
      12   -4368.7665      12.6321      12.6321      12.6321            0            0            0    21936.036    23184.247    21311.931    21311.931   -516.11375   -516.11375   -12.922538   -4368.7665 
      13   -4368.7682      12.6321      12.6321      12.6321            0            0            0     21914.66    23238.637    21252.671    21252.671   -536.81315   -536.81315   -18.472169   -4368.7682 
      14   -4368.7702      12.6321      12.6321      12.6321            0            0            0    21961.696    23372.318    21256.385    21256.385   -556.12759   -556.12759   -29.852435   -4368.7702 
      15   -4368.7727      12.6321      12.6321      12.6321            0            0            0    21916.176    23477.497    21135.515    21135.515   -560.99385   -560.99385   -27.036385   -4368.7727 
      16   -4368.7755      12.6321      12.6321      12.6321            0            0            0    21958.747    23656.945    21109.649    21109.649   -585.38344   -585.38344   -26.540207   -4368.7755 
      17   -4368.7777      12.6321      12.6321      12.6321            0            0            0    21972.081    23814.122     21051.06     21051.06   -606.97334   -606.97335     -48.9167   -4368.7777 
      18   -4368.7804      12.6321      12.6321      12.6321            0            0            0    21952.538    23951.608    20953.004    20953.004   -642.66681   -642.66681   -83.292233   -4368.7804 
      19   -4368.7816      12.6321      12.6321      12.6321            0            0            0    22023.189    24092.915    20988.326    20988.326   -670.83092   -670.83094    -110.5996   -4368.7816 
      20   -4368.7827      12.6321      12.6321      12.6321            0            0            0    22012.429    24152.626    20942.331    20942.331   -682.05989   -682.06001   -117.99582   -4368.7827 
      21   -4368.7832      12.6321      12.6321      12.6321            0            0            0    22014.742    24170.006     20937.11     20937.11   -692.14793   -692.14849   -123.92498   -4368.7832 
      22   -4368.7838      12.6321      12.6321      12.6321            0            0            0    22006.864    24189.818    20915.387    20915.386   -700.70401   -700.70497   -138.98738   -4368.7838 
      23   -4368.7841      12.6321      12.6321      12.6321            0            0            0    22019.881    24203.987    20927.827    20927.829    -714.7035   -714.70508   -152.28001   -4368.7841 
      24   -4368.7848      12.6321      12.6321      12.6321            0            0            0    22034.026    24209.132    20946.467    20946.478   -731.97086   -731.96222   -163.84683   -4368.7848 
      25   -4368.7853      12.6321      12.6321      12.6321            0            0            0    22031.194    24208.715     20942.44    20942.427   -743.63966   -743.63373   -168.60616   -4368.7853 
      26    -4368.786      12.6321      12.6321      12.6321            0            0            0    22084.963    24256.245    20999.327    20999.317   -767.93326   -767.92642   -201.06353    -4368.786 
      27   -4368.7873      12.6321      12.6321      12.6321            0            0            0    22154.882    24297.347    21083.641    21083.657   -806.76107   -806.76092   -266.34597   -4368.7873 
      28   -4368.7986      12.6321      12.6321      12.6321            0            0            0    22582.262    24413.323    21666.717    21666.747   -841.89865   -841.90211   -337.24192   -4368.7986 
      29   -4368.8016      12.6321      12.6321      12.6321            0            0            0    22669.227    24448.344    21779.654    21779.684   -826.86676   -826.86995   -321.38828   -4368.8016 
      30   -4368.8224      12.6321      12.6321      12.6321            0            0            0    22742.382    24567.029    21830.062    21830.053   -887.74054   -887.74212   -376.73489   -4368.8224 
      31   -4368.8454      12.6321      12.6321      12.6321            0            0            0    22830.489    24692.626    21899.417    21899.423   -915.42595   -915.43964   -360.38611   -4368.8454 
      32   -4368.8584      12.6321      12.6321      12.6321            0            0            0    22776.419    24713.477     21807.89     21807.89   -873.32122   -873.31544   -319.74254   -4368.8584 
      33   -4368.8687      12.6321      12.6321      12.6321            0            0            0    22699.088    24820.318    21638.455     21638.49   -822.39522   -822.40735   -316.13656   -4368.8687 
      34   -4368.8768      12.6321      12.6321      12.6321            0            0            0    22626.572    24970.183    21454.773    21454.759   -792.87426    -792.8779   -307.16515   -4368.8768 
      35   -4368.8825      12.6321      12.6321      12.6321            0            0            0    22588.512    25033.331    21366.098    21366.106   -800.86067   -800.87267   -272.55869   -4368.8825 
      36   -4368.8864      12.6321      12.6321      12.6321            0            0            0    22557.408    25159.277     21256.47    21256.478   -792.88807   -792.88274   -215.10186   -4368.8864 
      37   -4368.8899      12.6321      12.6321      12.6321            0            0            0     22526.37    25252.674    21163.216    21163.219   -778.52015   -778.52556   -169.58107   -4368.8899 
      38   -4368.8926      12.6321      12.6321      12.6321            0            0            0    22453.272     25314.05    21022.878    21022.887   -757.49445   -757.48178   -149.72946   -4368.8926 
      39   -4368.8954      12.6321      12.6321      12.6321            0            0            0     22378.94    25353.279     20891.76    20891.782   -727.66381   -727.65741   -91.985003   -4368.8954 
      40   -4368.8985      12.6321      12.6321      12.6321            0            0            0    22330.113    25494.588    20747.876    20747.875   -697.37366   -697.36742   -20.921669   -4368.8985 
      41   -4368.9021      12.6321      12.6321      12.6321            0            0            0    22278.509    25677.621    20578.965    20578.943   -644.50922   -644.51218    87.986347   -4368.9021 
      42   -4368.9099      12.6321      12.6321      12.6321            0            0            0     22238.48    26053.323    20331.049    20331.067   -484.27521   -484.28309    315.56582   -4368.9099 
      43   -4368.9268      12.6321      12.6321      12.6321            0            0            0    22018.177    26281.111    19886.713    19886.709   -115.61085   -115.62491    787.42135   -4368.9268 
      44   -4368.9439      12.6321      12.6321      12.6321            0            0            0    21892.305    26449.512    19613.713    19613.689    177.59291    177.58341    1163.8143   -4368.9439 
      45   -4368.9665      12.6321      12.6321      12.6321            0            0            0    21925.393    26603.214    19586.492    19586.472     180.0357    180.02748       1114.4   -4368.9665 
      46   -4368.9798      12.6321      12.6321      12.6321            0            0            0     21796.57    26500.511    19444.612    19444.589    198.09895    198.10742    1080.9039   -4368.9798 
      47   -4368.9914      12.6321      12.6321      12.6321            0            0            0    21744.997    26417.408    19408.805    19408.779    256.50922    256.50506    1120.1648   -4368.9914 
      48    -4368.998      12.6321      12.6321      12.6321            0            0            0    21747.346     26272.94    19484.567    19484.532     312.9289    312.93173    1150.6845    -4368.998 
      49   -4369.0027      12.6321      12.6321      12.6321            0            0            0    21756.391    26154.904    19557.143    19557.126    335.82809    335.82559    1169.6386   -4369.0027 
      50   -4369.0068      12.6321      12.6321      12.6321            0            0            0    21778.365    26047.837    19643.629    19643.628    336.53345    336.53076    1151.7467   -4369.0068 
      51   -4369.0095      12.6321      12.6321      12.6321            0            0            0    21767.989    25879.986    19711.986    19711.994    322.86135    322.86285    1120.1921   -4369.0095 
      52   -4369.0119      12.6321      12.6321      12.6321            0            0            0    21773.105    25684.241    19817.548    19817.527    315.37822    315.37654    1083.9448   -4369.0119 
      53   -4369.0135      12.6321      12.6321      12.6321            0            0            0    21794.181    25541.508    19920.522    19920.512    300.23864    300.23535    1073.2513   -4369.0135 
      54   -4369.0157      12.6321      12.6321      12.6321            0            0            0    21823.419    25331.888    20069.186    20069.184    277.75764    277.75658    1073.9313   -4369.0157 
      55   -4369.0172      12.6321      12.6321      12.6321            0            0            0    21843.459    25120.901    20204.758    20204.719    258.06242    258.06299    1098.6711   -4369.0172 
      56   -4369.0182      12.6321      12.6321      12.6321            0            0            0    21859.862    24949.812    20314.885    20314.889    249.48324    249.47135    1092.6089   -4369.0182 
      57   -4369.0192      12.6321      12.6321      12.6321            0            0            0    21883.165    24796.175    20426.666    20426.654    244.69329    244.68971    1105.6196   -4369.0192 
      58     -4369.02      12.6321      12.6321      12.6321            0            0            0    21884.709    24643.265    20505.427    20505.434    226.59576    226.59641    1119.4662     -4369.02 
      59   -4369.0204      12.6321      12.6321      12.6321            0            0            0    21901.288    24566.523    20568.672    20568.668     211.6094    211.60602    1125.7243   -4369.0204 
      60   -4369.0207      12.6321      12.6321      12.6321            0            0            0    21910.468    24497.127    20617.142    20617.134     198.5162    198.53166    1126.5512   -4369.0207 
      61   -4369.0209      12.6321      12.6321      12.6321            0            0            0    21891.253    24385.711    20644.022    20644.026    197.46846    197.45919    1142.6471   -4369.0209 
      62   -4369.0211      12.6321      12.6321      12.6321            0            0            0    21888.681    24339.771    20663.141    20663.132     200.1173    200.12486    1150.8156   -4369.0211 
      63   -4369.0213      12.6321      12.6321      12.6321            0            0            0    21886.153    24312.339    20673.057    20673.064    196.75047    196.75805     1158.213   -4369.0213 
      64   -4369.0214      12.6321      12.6321      12.6321            0            0            0    21881.142    24296.498    20673.463    20673.464    194.28963    194.28833    1163.2599   -4369.0214 
      65   -4369.0216      12.6321      12.6321      12.6321            0            0            0    21881.663     24282.33    20681.324    20681.336    194.23484    194.24485     1163.958   -4369.0216 
      66   -4369.0216      12.6321      12.6321      12.6321            0            0            0    21880.661    24278.369    20681.817    20681.799    195.41156    195.41429    1163.7326   -4369.0216 
      67   -4369.0217      12.6321      12.6321      12.6321            0            0            0    21880.409    24275.061    20683.089    20683.078    194.86819    194.87773    1164.5567   -4369.0217 
      68   -4369.0217      12.6321      12.6321      12.6321            0            0            0    21881.945    24276.266    20684.796    20684.773    193.99781    194.00425    1165.4177   -4369.0217 
      69   -4369.0217      12.6321      12.6321      12.6321            0            0            0    21884.596    24278.935    20687.447    20687.406     194.2633    194.26077    1165.9739   -4369.0217 
      70   -4369.0217      12.6321      12.6321      12.6321            0            0            0    21884.596    24278.935    20687.447    20687.406     194.2633    194.26077    1165.9739   -4369.0217 
Loop time of 1.67008 on 1 procs for 70 steps with 216 atoms

Minimization stats:
  Stopping criterion = linesearch alpha is zero
  Energy initial, next-to-last, final = 
        -4337.19221828     -4369.02169723     -4369.02169723
  Force two-norm initial, final = 60.7623 0.0108565
  Force max component initial, final = 11.113 0.00114884
  Final line search alpha, max atom move = 6.10352e-05 7.01193e-08
  Iterations, force evaluations = 70 167

Pair  time (%) = 1.11282 (66.633)
Kspce time (%) = 0.504795 (30.2259)
Neigh time (%) = 0.0217948 (1.30502)
Comm  time (%) = 0.0187922 (1.12523)
Outpt time (%) = 0.0036273 (0.217194)
Other time (%) = 0.00824594 (0.493747)

Nlocal:    216 ave 216 max 216 min
Histogram: 1 0 0 0 0 0 0 0 0 0
Nghost:    4697 ave 4697 max 4697 min
Histogram: 1 0 0 0 0 0 0 0 0 0
Neighs:    66357 ave 66357 max 66357 min
Histogram: 1 0 0 0 0 0 0 0 0 0

Total # of neighbors = 66357
Ave neighs/atom = 307.208
Neighbor list builds = 3
Dangerous builds = 0


variable natoms equal "count(all)"
variable tot_energy equal "c_eatoms"
variable length_x equal "lx"
variable length_y equal "ly"
variable length_z equal "lz"
variable tilt_xy equal "xy"
variable tilt_xz equal "xz"
variable tilt_yz equal "yz"
variable ecoh equal "pe/atoms"
variable press_t equal "press"
variable press_xx equal "pxx"
variable press_yy equal "pyy"
variable press_zz equal "pzz"
variable press_xy equal "pxy"
variable press_xz equal "pxz"
variable press_yz equal "pyz"
#variable ecoh equal "v_etotal/v_atoms"
# --- output
print "pyPosMat output section"
pyPosMat output section
print "tot_energy = ${tot_energy}"
tot_energy = -4369.02169723209
print "num_atoms = ${natoms}"
num_atoms = 216
print "xx = ${length_x}"
xx = 12.6321
print "yy = ${length_y}"
yy = 12.6321
print "zz = ${length_z}"
zz = 12.6321
print "xy = ${tilt_xy}"
xy = 0
print "xz = ${tilt_xz}"
xz = 0
print "yz = ${tilt_yz}"
yz = 0
print "pressure_total = ${press_t}"
pressure_total = 21884.5960019236
print "press_xx = ${press_xx}"
press_xx = 24278.9346432265
print "press_yy = ${press_yy}"
press_yy = 20687.447139999
print "press_zz = ${press_zz}"
press_zz = 20687.4062225453
print "press_xy = ${press_xy}"
press_xy = 194.26330468424
print "press_xz = ${press_xz}"
press_xz = 194.260768738297
print "press_yz = ${press_yz}"
press_yz = 1165.97387024329

print "ecoh = ${ecoh}"
ecoh = -20.2269523020005
print "lammps_sim_done"
lammps_sim_done
