LAMMPS (10 Feb 2015)
# ---- initialize simulations
clear
units metal
dimension 3
boundary p p p
atom_style charge
atom_modify map array
# ---- create atoms
read_data /Users/eugeneragasa/pyflamestk_git/pypospack/tests/tests_integration/workflow/WorkflowLammpsThermalExpansion/param_4537/MgO_NaCl_unit.npt.T1700/lammps.structure
  triclinic box = (0 0 0) to (4.2565 4.2565 4.2565) with tilt (0 0 0)
  1 by 1 by 1 MPI processor grid
  reading atoms ...
  8 atoms
# ---- define interatomic potential
include potential.mod
mass 1 24.305
mass 2 15.999

group Mg type 1
4 atoms in group Mg
group O type 2
4 atoms in group O

set group Mg charge 1.68595133453
  4 settings made for charge
set group O charge -1.68595133453
  4 settings made for charge

variable R_cut equal 10.0

pair_style buck/coul/long ${R_cut}
pair_style buck/coul/long 10
pair_coeff 1 1 0.0 0.5 0.0 ${R_cut}
pair_coeff 1 1 0.0 0.5 0.0 10
pair_coeff 1 2 1257.74769115 0.28905643469 0.0 ${R_cut}
pair_coeff 1 2 1257.74769115 0.28905643469 0.0 10
pair_coeff 2 2 3064.42109336 0.236064465148 18.7313535189 ${R_cut}
pair_coeff 2 2 3064.42109336 0.236064465148 18.7313535189 10

kspace_style pppm 1.0e-5

neighbor 1.0 bin
neigh_modify every 1 delay 0 check yes
# ---- define settings
compute eng all pe/atom
compute eatoms all reduce sum c_eng
# ---- run minimization
reset_timestep 0
fix 1 all box/relax iso 0.0 vmax 0.001
thermo 10
thermo_style custom step pe lx ly lz xy xz yz press pxx pyy pzz pxy pxz pyz c_eatoms
min_style cg
minimize 1e-25 1e-25 5000 10000
PPPM initialization ...
  G vector (1/distance) = 0.353047
  grid = 8 8 8
  stencil order = 5
  estimated absolute RMS force accuracy = 4.05219e-05
  estimated relative force accuracy = 2.81409e-06
  using double precision FFTs
  3d grid and FFT values/proc = 3375 512
Neighbor list info ...
  1 neighbor list requests
  update every 1 steps, delay 0 steps, check yes
  master list distance cutoff = 11
Memory usage per processor = 4.06549 Mbytes
Step PotEng Lx Ly Lz Xy Xz Yz Press Pxx Pyy Pzz Pxy Pxz Pyz eatoms 
       0   -115.66496       4.2565       4.2565       4.2565            0            0            0    45758.215    45758.215    45758.215    45758.215 1.7170796e-11 2.2312869e-10 1.3064853e-10   -115.66496 
      10   -115.69248    4.2933032    4.2933032    4.2933032            0            0            0   -6.7922673   -6.7922673   -6.7922673   -6.7922673 -6.3857142e-11 -7.0573166e-11 -5.8083176e-11   -115.69248 
      13    -115.6925     4.293297     4.293297     4.293297            0            0            0   0.20218487   0.20218487   0.20218487   0.20218487 1.6450748e-10 -9.163684e-11 -3.6202501e-11    -115.6925 
Loop time of 0.00672007 on 1 procs for 13 steps with 8 atoms

Minimization stats:
  Stopping criterion = linesearch alpha is zero
  Energy initial, next-to-last, final = 
        -115.664963059     -115.692495365     -115.692495365
  Force two-norm initial, final = 6.60751 4.45929e-05
  Force max component initial, final = 6.60751 2.97026e-05
  Final line search alpha, max atom move = 0.5 1.48513e-05
  Iterations, force evaluations = 13 19

Pair  time (%) = 0.00182843 (27.2085)
Kspce time (%) = 0.00112319 (16.714)
Neigh time (%) = 0 (0)
Comm  time (%) = 0.000197887 (2.94472)
Outpt time (%) = 1.88351e-05 (0.280281)
Other time (%) = 0.00355172 (52.8525)

Nlocal:    8 ave 8 max 8 min
Histogram: 1 0 0 0 0 0 0 0 0 0
Nghost:    2189 ave 2189 max 2189 min
Histogram: 1 0 0 0 0 0 0 0 0 0
Neighs:    2344 ave 2344 max 2344 min
Histogram: 1 0 0 0 0 0 0 0 0 0

Total # of neighbors = 2344
Ave neighs/atom = 293
Neighbor list builds = 0
Dangerous builds = 0
unfix 1
# ---- define output variables ----
variable natoms equal "count(all)"
variable tot_energy equal "c_eatoms"
variable length_x equal "lx"
variable length_y equal "ly"
variable length_z equal "lz"
variable tilt_xy equal "xy"
variable tilt_xz equal "xz"
variable tilt_yz equal "yz"
variable tot_press equal "press"
variable press_xx equal "pxx"
variable press_yy equal "pyy"
variable press_zz equal "pzz"
variable press_xy equal "pxy"
variable press_xz equal "pxz"
variable press_yz equal "pyz"

# ---- output ----
print "pypospack:output_section:begin"
pypospack:output_section:begin
print "tot_energy = ${tot_energy}"
tot_energy = -115.692495364628
print "num_atoms = ${natoms}"
num_atoms = 8
print "xx = ${length_x}"
xx = 4.29329700926666
print "yy = ${length_y}"
yy = 4.29329700926666
print "zz = ${length_z}"
zz = 4.29329700926666
print "xy = ${tilt_xy}"
xy = 0
print "xz = ${tilt_xz}"
xz = 0
print "yz = ${tilt_yz}"
yz = 0
print "tot_press = ${tot_press}"
tot_press = 0.202184869803092
print "pxx = ${press_xx}"
pxx = 0.202184869911938
print "pyy = ${press_yy}"
pyy = 0.202184869729888
print "pzz = ${press_zz}"
pzz = 0.20218486976745
print "pxy = ${press_xy}"
pxy = 1.64507477572858e-10
print "pxz = ${press_xz}"
pxz = -9.16368397176372e-11
print "pyz = ${press_yz}"
pyz = -3.62025011042311e-11
print "pypospack:output_section:done"
pypospack:output_section:done
print "pypospack:lammps_sim:done"
pypospack:lammps_sim:done
#------------------------------------------------------------------------------
# RUN THERMOSTAT
# running using an NPT Nose-Hoover style thermostat
#------------------------------------------------------------------------------
variable tempdamp equal 0.1
variable pressdamp equal 1.0
# set initial velocities
velocity all create 1700 988445 mom yes dist gaussian loop all
# fix for Nose-Hoover style thermostat
fix 20 all npt temp 1700 1700 0.1 aniso 0.0 0.0 1.0 drag 1.0 couple xyz
variable boxx equal lx
variable boxy equal ly
variable boxz equal lz
variable boxp equal press
variable boxt equal temp
# calculate averages every 10000 steps
reset_timestep 0
fix 21 all ave/time 10 10 100 v_boxx v_boxy v_boxz v_boxp v_boxt file lattice.out
thermo_style custom step temp pe ke etotal press lx ly lz press pxx pyy pzz pxy pxz pyz vol
thermo_modify flush yes
thermo 100
run 100000
PPPM initialization ...
  G vector (1/distance) = 0.352672
  grid = 8 8 8
  stencil order = 5
  estimated absolute RMS force accuracy = 4.1232e-05
  estimated relative force accuracy = 2.8634e-06
  using double precision FFTs
  3d grid and FFT values/proc = 3375 512
Memory usage per processor = 3.06549 Mbytes
Step Temp PotEng KinEng TotEng Press Lx Ly Lz Press Pxx Pyy Pzz Pxy Pxz Pyz Volume 
       0         1700    -115.6925    1.5381957   -114.15431    20760.435     4.293297     4.293297     4.293297    20760.435    25429.968    21729.547     15121.79    13100.806    10481.503    4409.9457    79.135764 
     100    603.82995   -114.52658   0.54635803   -113.98022    17431.395    4.3303317    4.3303317    4.3303317    17431.395    3690.1026    38789.138    9814.9454   -5721.4844   -7320.4013   -2457.4988    81.201394 
     200    1406.9282   -114.81466    1.2730182   -113.54165   -58163.561    4.3810292    4.3810292    4.3810292   -58163.561   -72420.489   -39770.412   -62299.782    15131.531    12939.555   -11350.743    84.086922 
     300    1658.6199   -114.66514    1.5007542   -113.16439   -19936.295    4.3913715    4.3913715    4.3913715   -19936.295   -27713.936    18431.311   -50526.259   -2119.1506    7845.9774    5132.8389    84.683841 
     400    1230.5424   -113.97422    1.1134206    -112.8608    15604.155    4.3756354    4.3756354    4.3756354    15604.155   -10903.897    48745.544    8970.8177    14685.775    6436.8053    20478.986    83.776726 
     500    1765.1357   -114.27462    1.5971319   -112.67749   -7344.4353    4.3753974    4.3753974    4.3753974   -7344.4353    1352.7499   -30920.973    7534.9169   -18919.972    14033.616   -21325.144    83.763057 
     600    1698.6181   -114.13694    1.5369453       -112.6    8262.8954    4.3974016    4.3974016    4.3974016    8262.8954   -48303.856    40955.394    32137.148    9471.4972   -6418.1996   -4919.2901    85.033175 
     700    1381.2854   -113.78867    1.2498161   -112.53885    5967.9645    4.4168265    4.4168265    4.4168265    5967.9645   -15346.957    21468.147    11782.704   -13574.741   -13452.178    3497.0271    86.165027 
     800    1616.8383   -113.95146    1.4629493   -112.48851   -41387.001    4.4132909    4.4132909    4.4132909   -41387.001    -73923.69    6352.8533   -56590.165    17232.161    12136.522   -16914.952    85.958267 
     900    1814.1103   -114.10501    1.6414451   -112.46357   -8541.5401    4.3770992    4.3770992    4.3770992   -8541.5401   -50498.785    46850.805    -21976.64    6598.2144   -33032.183   -16030.811    83.860833 
    1000    1917.4926   -114.24165    1.7349876   -112.50666    16188.949     4.362225     4.362225     4.362225    16188.949       -18497    82914.661   -15850.814    22578.779   -3365.9079    6608.7144    83.008808 
    1100    1937.8561   -114.32203    1.7534129   -112.56862   -53143.449    4.3923688    4.3923688    4.3923688   -53143.449   -43263.422    -52081.03   -64085.894   -1145.3494    87.495994   -23284.626    84.741551 
    1200    1203.5032   -113.65307     1.088955   -112.56411   -22977.782    4.3965811    4.3965811    4.3965811   -22977.782   -28489.223    36916.665   -77360.789   -13458.573   -20322.809   -6574.6065    84.985586 
    1300    2384.8031     -114.688      2.15782   -112.53018   -2566.4719    4.3754546    4.3754546    4.3754546   -2566.4719   -16483.008   -7246.0416    16029.634    4688.3797    9267.9577    11408.613    83.766339 
    1400    983.32314   -113.44662   0.88973144   -112.55689     10392.39    4.3638266    4.3638266    4.3638266     10392.39   -50390.025    138110.19       -56543    15300.441   -58506.927   -8979.4181    83.100272 
    1500    2013.1837    -114.3856     1.821571   -112.56403    1431.6799    4.3713823    4.3713823    4.3713823    1431.6799   -1250.6483     13496.96   -7951.2715   -8164.4252   -1577.1377   -11444.043    83.532673 
    1600    1471.6611   -113.90278    1.3315899   -112.57119     10917.11    4.3925564    4.3925564    4.3925564     10917.11   -51634.969    71530.109    12856.189    1474.6651   -30890.069    10382.018    84.752409 
    1700    1447.6436   -113.86879    1.3098583   -112.55894   -631.00085    4.3894624    4.3894624    4.3894624   -631.00085   -76036.088    27355.965    46787.121    5893.6346   -27937.751    -13620.12    84.573442 
    1800     1764.276   -114.13151     1.596354   -112.53515    28529.979    4.3662825    4.3662825    4.3662825    28529.979    -20743.61   -7876.7194    114210.27     15197.22    7687.6431    14322.267    83.240654 
    1900    1269.3156   -113.70243    1.1485035   -112.55392    28345.434    4.3642414    4.3642414    4.3642414    28345.434   -22778.825    118503.06   -10687.938    5735.0631   -34856.234    33219.374    83.123974 
    2000    1729.6265   -114.13976    1.5650024   -112.57476    6877.3391    4.3777484    4.3777484    4.3777484    6877.3391   -33932.361    33898.485    20665.894    10249.094    11419.292    13894.645    83.898151 
    2100     1660.417    -114.0718    1.5023802   -112.56942   -28385.472       4.3907       4.3907       4.3907   -28385.472   -41762.514   -12102.032    -31291.87   -659.41328    13511.348   -9358.5388    84.644995 
    2200    1718.7114   -114.10416    1.5551262   -112.54904   -15658.926    4.3859304    4.3859304    4.3859304   -15658.926   -47080.892    37778.353    -37674.24   -4148.3078    -655.7987    18973.814    84.369448 
    2300    1919.3631   -114.27123      1.73668   -112.53455    13153.598    4.3685796    4.3685796    4.3685796    13153.598    10125.754    6739.9081    22595.131   -3968.4605    25909.642   -3529.0002    83.372106 
    2400    1559.2387   -113.95457    1.4108319   -112.54374    25419.416    4.3681193    4.3681193    4.3681193    25419.416    43393.649    25624.572    7240.0285    28310.386   -462.34998    4259.0715    83.345751 
    2500    1519.9895   -113.92539    1.3753184   -112.55007    16550.028    4.3907117    4.3907117    4.3907117    16550.028    43723.104    1329.8434    4597.1374   -10249.533   -8084.3072    9051.0208    84.645673 
    2600    1930.0584   -114.27156    1.7463574    -112.5252    3526.9861    4.3968536    4.3968536    4.3968536    3526.9861    29818.695    1459.2174   -20696.954   -22852.421    32318.987     2190.611    85.001389 
    2700    1639.3156   -114.00491    1.4832872   -112.52163   -18153.717    4.3867477    4.3867477    4.3867477   -18153.717    -6680.591    886.13178    -48666.69    4980.0796   -2213.3409   -13842.473    84.416622 
    2800    1624.0035   -114.00389    1.4694325   -112.53446   -11084.608    4.3756199    4.3756199    4.3756199   -11084.608    6704.0294   -2559.9035   -37397.951   -25281.975   -33627.596   -13159.898    83.775835 
    2900    2527.1978   -114.82357    2.2866616   -112.53691   -1935.6915    4.3796844    4.3796844    4.3796844   -1935.6915   -20381.415    45591.081    -31016.74   -5818.0126    17266.958   -5416.8755    84.009509 
    3000    1278.8124   -113.72132    1.1570964   -112.56422    19038.636    4.3986971    4.3986971    4.3986971    19038.636     20570.32   -1932.0177    38477.606   -17826.177    -1297.608   -2325.2433    85.108349 
    3100    2157.7824   -114.48588    1.9524068   -112.53347    -44665.99    4.4172449    4.4172449    4.4172449    -44665.99   -34167.939   -48739.131   -51090.898   -18862.838    1749.3928    7958.7107    86.189512 
    3200    2439.5179   -114.69976     2.207327   -112.49243   -50635.301    4.4059137    4.4059137    4.4059137   -50635.301   -50564.627   -34932.499   -66408.778   -7869.1518    1510.9674   -4670.9517    85.527927 
    3300     1490.077   -113.84234     1.348253   -112.49409    35001.887    4.3777601    4.3777601    4.3777601    35001.887    63895.766    55427.026   -14317.132   -10935.451   -21346.281    9857.6177    83.898825 
    3400    2121.0617   -114.44071    1.9191812   -112.52153   -19221.172    4.3796834    4.3796834    4.3796834   -19221.172   -4108.5465   -26300.225   -27254.744   -5753.7002    15709.191    7438.1015    84.009453 
    3500    929.40122   -113.40871   0.84094175   -112.56777    30756.056    4.3855289    4.3855289    4.3855289    30756.056    71268.953    29096.401   -8097.1874   -21029.961    38988.561   -13429.873    84.346279 
    3600    1688.8976   -114.09256      1.52815   -112.56441    14594.254    4.3849805    4.3849805    4.3849805    14594.254    10936.208    70212.142   -37365.589    20858.371   -14930.757     4257.301    84.314642 
    3700    2127.4979   -114.46761    1.9250048    -112.5426      -8772.9    4.3692021    4.3692021    4.3692021      -8772.9    33211.396   -15300.383   -44229.712    4911.5028    15654.156   -8542.2845    83.407747 
    3800    1723.1235   -114.10341    1.5591183    -112.5443    9369.3224    4.3538386    4.3538386    4.3538386    9369.3224   -20729.075     57836.13   -8999.0877     -29109.5    25826.294   -3102.0167    82.530977 
    3900    2096.7778   -114.48907    1.8972086   -112.59186    14157.068    4.3696186    4.3696186    4.3696186    14157.068     12800.48    26693.331    2977.3916    16198.441     4046.343   -14785.795    83.431603 
    4000    1258.8257   -113.73998     1.139012   -112.60097    12283.854    4.4070572    4.4070572    4.4070572    12283.854    2397.1092    16991.086    17463.365   -7518.7251    13909.613   -4861.7869    85.594539 
    4100    1677.5228   -114.05244    1.5178579   -112.53458    -50838.17    4.4106417    4.4106417    4.4106417    -50838.17   -52392.539   -89019.743   -11102.228    -29643.66    11201.769    15110.184    85.803566 
    4200     1256.096   -113.65389     1.136542   -112.51735    15948.575    4.3694898    4.3694898    4.3694898    15948.575    131278.51   -74419.408   -9013.3764    14930.907    22016.758    812.19604    83.424226 
    4300    1869.7133   -114.22352    1.6917559   -112.53177    38228.892    4.3481658    4.3481658    4.3481658    38228.892    107906.94   -27950.063      34729.8    6862.8649    22560.586    5338.0357    82.208796 
    4400    1746.7939   -114.19681    1.5805359   -112.61627   -22368.268    4.3821092    4.3821092    4.3821092   -22368.268   -44397.274   -51315.839    28608.308   -30083.638    3596.4236   -1527.8271    84.149124 
    4500    1898.7605   -114.29051    1.7180384   -112.57247   -67424.748    4.4151232    4.4151232    4.4151232   -67424.748   -67855.312   -53245.008   -81173.924   -1398.2343   -9462.2404    7238.5877    86.065376 
    4600    2396.2114   -114.68362    2.1681425   -112.51547   -29634.362     4.393899     4.393899     4.393899   -29634.362   -25749.024   -21071.383   -42082.679    10237.185   -2430.3316    10529.588    84.830143 
    4700    1547.9411   -113.90745    1.4006096   -112.50684      40790.5    4.3583952    4.3583952    4.3583952      40790.5    141762.32    -37174.01    17783.186   -25544.559    39472.144   -4240.3268    82.790369 
    4800    1134.7231   -113.60642    1.0267213    -112.5797     55692.01    4.3673547    4.3673547    4.3673547     55692.01    116778.55    67745.717   -17448.242    30696.476    10109.574   -7959.0177    83.301992 
    4900    1425.1261   -113.88659    1.2894841   -112.59711    6416.6595    4.4196441    4.4196441    4.4196441    6416.6595    33264.722    32934.961   -46949.705    21126.919    9531.0132   -356.46182    86.330031 
    5000    1904.0971   -114.24853    1.7228671   -112.52566   -33601.773     4.411302     4.411302     4.411302   -33601.773   -21676.558   -1034.8184   -78093.942    2558.6109    8475.8519   -5505.1303    85.842106 
    5100    716.13655   -113.15219    0.6479754   -112.50421    33050.163    4.3423371    4.3423371    4.3423371    33050.163     41934.92    111045.26   -53829.692    3380.4816   -43078.558    7298.2739    81.878635 
    5200    1801.6751   -114.15791    1.6301935   -112.52771    13876.195    4.3167808    4.3167808    4.3167808    13876.195    21250.598    24285.297   -3907.3106    42356.829   -8635.7629   -2278.9587    80.441466 
    5300    2366.9268   -114.77955    2.1416451   -112.63791    5401.5456    4.3576497    4.3576497    4.3576497    5401.5456    36090.027    14724.728   -34610.119   -10267.461   -14480.777    831.62694    82.747892 
    5400    1428.9121   -113.91876    1.2929097   -112.62585   -29745.396    4.4197522    4.4197522    4.4197522   -29745.396    28255.493   -19869.683   -97621.999   -4068.9492   -24903.003    9341.5426    86.336364 
    5500    1017.6152   -113.46503   0.92075961   -112.54427   -31969.916    4.4171294    4.4171294    4.4171294   -31969.916    17629.579   -74722.486   -38816.841   -12894.714     16942.73   -7089.0912    86.182753 
    5600    2225.2994    -114.4871    2.0134976    -112.4736    18691.524    4.3519306    4.3519306    4.3519306    18691.524    9622.6341     44322.33    2129.6087   -18405.054    7500.8595   -6551.1687    82.422517 
    5700    2359.9133   -114.63619    2.1352992   -112.50089    29251.238    4.3385429    4.3385429    4.3385429    29251.238    56567.542   -980.53398    32166.706   -4128.1862   -2828.4076   -16532.568    81.664197 
    5800    1443.9555   -113.89707    1.3065213   -112.59055   -22728.275    4.3920145    4.3920145    4.3920145   -22728.275   -55171.172   -46110.388    33096.735   -2457.7523     13700.66    9683.6563    84.721044 
    5900     1864.387   -114.19277    1.6869365   -112.50584   -19226.864    4.4225532    4.4225532    4.4225532   -19226.864   -29536.981   -49595.876    21452.266    13104.922    6008.4195    13116.803    86.500616 
    6000    1654.8111   -113.93943    1.4973079   -112.44212   -8274.6745    4.4084246    4.4084246    4.4084246   -8274.6745   -19421.114   -22717.413    17314.504    11952.337   -28903.441   -438.10754    85.674238 
    6100    1630.6146   -113.90755    1.4754144   -112.43214    2367.9285    4.3793574    4.3793574    4.3793574    2367.9285   -2633.3174   -47768.067     57505.17   -853.30337    -40118.54   -8638.5165    83.990691 
    6200    2124.0548   -114.38899    1.9218894    -112.4671   -10312.403    4.3764127    4.3764127    4.3764127   -10312.403    13697.743    -15385.06   -29249.891     4258.932   -9130.4373   -28968.655    83.821381 
    6300    1436.8753   -113.81942     1.300115    -112.5193    27494.039    4.3852875    4.3852875    4.3852875    27494.039    48406.965    39812.747   -5737.5957   -8817.8074   -33813.933    6259.9208    84.332353 
    6400    1431.8492   -113.81431    1.2955672   -112.51874    6643.4394     4.396364     4.396364     4.396364    6643.4394    26898.649   -1580.0256    -5388.305     7818.258   -6344.7502   -753.57223    84.972996 
    6500    1667.1368   -114.03349    1.5084604   -112.52503   -21444.512    4.3696534    4.3696534    4.3696534   -21444.512   -21766.693    17022.878   -59589.722   -157.98548   -10327.903   -5629.7128    83.433595 
    6600    1149.2589   -113.55411    1.0398736   -112.51423     46692.86    4.3364564    4.3364564    4.3364564     46692.86    7922.5992    138499.52   -6343.5364   -16208.317    1881.7085   -1133.2592    81.546432 
    6700    1684.8469   -114.09497    1.5244849   -112.57049     19464.53    4.3620836    4.3620836    4.3620836     19464.53    15284.926    16694.256    26414.407   -12232.525   -758.25996    17339.053    83.000738 
    6800    1613.3961   -114.00796    1.4598347   -112.54812   -17231.245    4.3889118    4.3889118    4.3889118   -17231.245   -58431.615    54283.712   -47545.831   -2972.6914   -32597.173    -676.1381    84.541621 
    6900    1801.1798   -114.14598    1.6297453   -112.51623   -19815.886    4.3806837    4.3806837    4.3806837   -19815.886   -68784.993     40321.98   -30984.644    -19331.93    10026.483   -9649.0744    84.067025 
    7000    1498.6048   -113.87592    1.3559691   -112.51995   -44981.137    4.3752748    4.3752748    4.3752748   -44981.137   -32144.516   -40407.854   -62391.042   -3451.9891    551.39943    46857.368    83.756013 
    7100    1657.5073   -114.02602    1.4997475   -112.52627    -23855.59    4.3536522    4.3536522    4.3536522    -23855.59   -40062.859    51457.415   -82961.325    16712.788   -48549.373    23186.149    82.520377 
    7200    1934.9617    -114.3052     1.750794   -112.55441    25455.643    4.3471275    4.3471275    4.3471275    25455.643   -37475.478    108451.88    5390.5299   -23374.577    18582.935   -22472.726    82.149918 
    7300    1700.2524   -114.12277    1.5384241   -112.58434   -21962.534    4.3609297    4.3609297    4.3609297   -21962.534    -24324.04    -12087.71   -29475.852   -19051.725     -18590.1    22963.875    82.934887 
    7400    1305.2642   -113.76963    1.1810305    -112.5886    8703.9483    4.3712951    4.3712951    4.3712951    8703.9483   -58234.349    75946.631    8399.5622    5912.6467   -32932.024    8006.8307    83.527674 
    7500    2580.3037   -114.89616     2.334713   -112.56145   -27029.559    4.3821764    4.3821764    4.3821764   -27029.559   -44901.333   -9727.6757   -26459.668    6696.7821    18387.084    -5920.121    84.152995 
    7600    1286.4663   -113.73141    1.1640217   -112.56739    32883.717    4.3508505    4.3508505    4.3508505    32883.717    24874.173    36475.877    37301.101    1645.2811   -37427.875   -8649.3898    82.361167 
    7700     1930.035   -114.30201    1.7463363   -112.55568    40570.192    4.3298828    4.3298828    4.3298828    40570.192    42823.307    21390.232    57497.039      3463.62   -12603.371    37620.012    81.176147 
    7800    1924.6219   -114.33398    1.7414383   -112.59254    -11882.76    4.3574171    4.3574171    4.3574171    -11882.76   -15538.552   -32013.935    11904.206   -5504.3556    12390.086   -15841.938    82.734645 
    7900    1410.2123   -113.85659    1.2759897    -112.5806    1406.2905    4.3728412    4.3728412    4.3728412    1406.2905    -16333.57    5038.8397    15513.602    15517.371   -43838.956   -14046.092    83.616332 
    8000    2137.5888   -114.49456    1.9341352   -112.56042   -31705.098    4.3876995    4.3876995    4.3876995   -31705.098    4767.0401   -28143.343   -71738.991   -14822.755   -337.99625    11999.538    84.471585 
    8100    1815.6717   -114.19495    1.6428579   -112.55209   -28883.832     4.368345     4.368345     4.368345   -28883.832   -18465.011   -54405.149   -13781.335   -3609.5087    14532.434    21773.014    83.358671 
    8200    1020.9634   -113.45407   0.92378914   -112.53029    58467.742    4.3250024    4.3250024    4.3250024    58467.742    56200.115    96393.639    22809.471   -853.64004   -35917.953   -2776.1579    80.901965 
    8300    2179.2598   -114.56106    1.9718401   -112.58922   -9189.2909    4.3518229    4.3518229    4.3518229   -9189.2909   -13479.239    20059.205   -34147.839   -9177.7292   -1827.4963   -34315.552    82.416401 
    8400    2027.8319   -114.40011    1.8348249   -112.56528   -44969.672    4.3930508    4.3930508    4.3930508   -44969.672    -65444.96   -16563.706   -52900.351    1811.0358    251.22149    18374.615    84.781025 
    8500    1500.9736   -113.89424    1.3581125   -112.53612   -12346.667    4.3788602    4.3788602    4.3788602   -12346.667    3041.1443    30245.729   -70326.874    9922.5863   -43327.349   -14326.337     83.96209 
    8600    1783.4879   -114.12529    1.6137373   -112.51155    22908.271    4.3505508    4.3505508    4.3505508    22908.271    52220.248    32194.394   -15689.828   -6771.2672   -4718.3538   -34546.938    82.344147 
    8700    2054.8702   -114.38658    1.8592897   -112.52729     3540.805    4.3465385    4.3465385    4.3465385     3540.805   -8506.1703    3070.5779    16058.007     16119.35    1100.7372    21211.739    82.116529 
    8800    1684.9948   -114.08419    1.5246187   -112.55957   -14469.638    4.3660642    4.3660642    4.3660642   -14469.638   -9038.9947    13117.027   -47486.948    26448.945   -33995.594   -21307.396    83.228174 
    8900    2058.9778   -114.40526    1.8630064   -112.54225   -12198.196    4.3799847    4.3799847    4.3799847   -12198.196   -12016.476    19100.329   -43678.442     -6876.32    1165.8485   -6486.6542    84.026791 
    9000     1689.052   -114.05898    1.5282898   -112.53069   -3410.3412    4.3823934    4.3823934    4.3823934   -3410.3412   -7282.9936    15497.084   -18445.114    3381.7742    -5190.489   -9099.3139    84.165495 
    9100     1380.246   -113.78842    1.2488756   -112.53954   -5640.3295    4.3669256    4.3669256    4.3669256   -5640.3295    4959.5287    15288.867   -37169.384    21552.739    -25116.01   -4362.4376    83.277443 
    9200    2231.4893   -114.56175    2.0190984   -112.54265    14958.942    4.3489391    4.3489391    4.3489391    14958.942     63449.45   -8764.1379   -9808.4849   -17867.421    5644.4642   -14263.111    82.252666 
    9300    1860.9412   -114.27312    1.6838187    -112.5893   -14472.206    4.3596074    4.3596074    4.3596074   -14472.206   -44965.069    15809.385   -14260.934    25382.482   -6141.2103    2635.4664    82.859467 
    9400    1638.7971   -114.08166    1.4828181   -112.59884   -7576.6333    4.3697608    4.3697608    4.3697608   -7576.6333    -29521.54     36263.55   -29471.909     12661.44   -19183.725   -7014.8963    83.439752 
    9500    1666.9482   -114.07195    1.5082897   -112.56366    2339.4823    4.3856015    4.3856015    4.3856015    2339.4823    81030.793   -44121.801   -29890.545    -6223.541    21397.887   -7269.1023     84.35047 
    9600    1758.8306   -114.11312    1.5914269   -112.52169   -21236.427    4.3814322    4.3814322    4.3814322   -21236.427   -48368.462   -35921.184    20580.363     16487.82    -1601.367    1124.3999    84.110127 
    9700    1710.7545   -114.05866    1.5479266   -112.51073    9571.1019    4.3587416    4.3587416    4.3587416    9571.1019     45531.43    3087.9419   -19906.067   -2173.3595    -17327.72    18155.956    82.810111 
    9800    1087.3027    -113.5277   0.98381437   -112.54389    896.30866    4.3540523    4.3540523    4.3540523    896.30866    28650.814   -10833.342   -15128.545   -20586.944    28452.788    7378.5719    82.543128 
    9900    1493.6175   -113.91168    1.3514565   -112.56023   -2374.4255    4.3552728    4.3552728    4.3552728   -2374.4255    10886.699   -21401.485    3391.5094    4795.1188      36431.2   -9573.4711    82.612564 
   10000    1908.4966    -114.2973    1.7268478   -112.57045    27344.107    4.3713568    4.3713568    4.3713568    27344.107    33268.699    10800.883    37962.738    -6055.124   -508.60957    14880.362    83.531211 
   10100    1765.8624     -114.172    1.5977894   -112.57421   -38537.277    4.3720653    4.3720653    4.3720653   -38537.277   -36597.191   -24044.496   -54970.144   -21163.421     26863.36   -11198.626    83.571829 
   10200    1309.9115   -113.74131    1.1852354   -112.55607     18624.32    4.3465514    4.3465514    4.3465514     18624.32   -439.74034    43164.334    13148.365    3355.4766    32339.418   -20024.351    82.117264 
   10300    2240.3232    -114.5829    2.0270915   -112.55581    5180.8797    4.3578318    4.3578318    4.3578318    5180.8797   -22759.141   -15241.693    53543.473   -4184.6571    1579.0446    20153.341    82.758265 
   10400    1961.6119   -114.32773    1.7749077   -112.55282   -21541.343    4.3754666    4.3754666    4.3754666   -21541.343   -26867.011    3968.7912    -41725.81   -18098.094   -7380.4347    597.97723    83.767033 
   10500    1809.2992   -114.17395     1.637092   -112.53686   -15276.776    4.3700732    4.3700732    4.3700732   -15276.776   -63035.357   -4092.4547    21297.485   -9969.5875    25862.026   -24467.724    83.457646 
   10600    1632.9363   -114.01097    1.4775151   -112.53345   -17743.778    4.3787818    4.3787818    4.3787818   -17743.778   -54697.242   -15850.084    17315.991    -3594.668   -12927.498    39065.571    83.957581 
   10700    1823.9216   -114.17148    1.6503226   -112.52116   -9692.7691    4.3684555    4.3684555    4.3684555   -9692.7691   -4308.2196    -4052.053   -20718.035    1981.2395    -20150.34    20477.011    83.364997 
   10800    1230.5398   -113.62217    1.1134183   -112.50875    70731.388    4.3365495    4.3365495    4.3365495    70731.388    37678.568    14093.289    160422.31    952.77069   -21270.365   -16285.341    81.551682 
   10900    1415.0115   -113.84933    1.2803322     -112.569   -4556.5575    4.3646579    4.3646579    4.3646579   -4556.5575      52617.3   -24341.746   -41945.226    12664.528   -23632.977     12361.73    83.147777 
   11000    1690.2378   -114.07642    1.5293626   -112.54705   -27871.938    4.3856395    4.3856395    4.3856395   -27871.938    15837.891    -42444.06   -57009.645    18446.172   -29170.049    -13273.92     84.35266 
   11100    1711.0444   -114.06477    1.5481889   -112.51658    25717.015    4.3651952    4.3651952    4.3651952    25717.015    97067.076   -10996.204   -8919.8263   -7382.4278    3044.4866   -18328.793    83.178487 
   11200    1784.7378    -114.1486    1.6148683   -112.53373   -12198.014    4.3605443    4.3605443    4.3605443   -12198.014   -36037.194    8917.4576   -9474.3047   -7185.7287   -50598.803    5216.4165    82.912902 
   11300    1595.4232   -113.99483    1.4435724   -112.55125   -55381.074    4.3688236    4.3688236    4.3688236   -55381.074   -44773.432   -55832.227   -65537.563    9501.1709    -40995.29    -23696.06    83.386075 
   11400     2014.472   -114.37347    1.8227366   -112.55074    21747.801    4.3384481    4.3384481    4.3384481    21747.801    44496.285   -25357.243    46104.361    10290.981    5704.0129   -8622.8502    81.658842 
   11500    2033.8824   -114.41284    1.8402995   -112.57254    9291.0156    4.3443917    4.3443917    4.3443917    9291.0156   -31538.449    25891.497    33519.998    -24384.97   -25564.586    10333.527    81.994914 
   11600    854.13752   -113.36831   0.77284158   -112.59547   -3368.8327     4.387944     4.387944     4.387944   -3368.8327     35217.73   -60727.043    15402.815   -6793.0456    -18200.45    -21380.22    84.485705 
   11700    1771.5395   -114.13744    1.6029262   -112.53451   -13020.759    4.3992521    4.3992521    4.3992521   -13020.759    52230.271   -71457.082   -19835.467   -4845.8374    13837.509    2613.2101    85.140572 
   11800    2149.7314    -114.4642    1.9451221   -112.51908    -21217.38    4.3541887    4.3541887    4.3541887    -21217.38   -13600.551   -45986.899   -4064.6889   -19648.295    1286.7295   -1036.3295    82.550887 
   11900    1784.4167   -114.12004    1.6145777   -112.50546     14598.36    4.3204791    4.3204791    4.3204791     14598.36    52417.074   -6064.7705    -2557.224   -896.75874    -21051.72   -47201.967    80.648396 
   12000    1783.0918   -114.18292     1.613379   -112.56954    2189.3481    4.3482103    4.3482103    4.3482103    2189.3481    15522.079    14352.132   -23306.167   -14132.177    14610.641   -7603.8383     82.21132 
   12100    2186.2362   -114.54879    1.9781524   -112.57064   -36046.639    4.3818307    4.3818307    4.3818307   -36046.639   -29821.791   -36510.976   -41807.148   -36500.424    15467.055   -16377.647    84.133079 
   12200    1622.5388   -114.00129    1.4681072   -112.53318   -22762.659    4.3958117    4.3958117    4.3958117   -22762.659    5226.6441   -15026.983   -58487.638    1361.0745   -5306.3193    -28337.32    84.940975 
   12300    1756.7145   -114.09274    1.5895122   -112.50323   -12590.079    4.3728262    4.3728262    4.3728262   -12590.079   -17745.945    23282.768   -43307.061    2229.4685    34220.211    13544.716    83.615472 
   12400    1313.8087   -113.68329    1.1887617   -112.49453    25137.738    4.3263794    4.3263794    4.3263794    25137.738    -8966.874    66865.848     17514.24   -44552.211    14153.186   -1075.1686    80.979262 
   12500     2037.694   -114.37314    1.8437483   -112.52939    1436.7864    4.3254065    4.3254065    4.3254065    1436.7864    5187.2386    -6895.136    6018.2567   -14968.559   -8400.5521   -26322.022    80.924641 
   12600    1781.7392   -114.18455    1.6121551    -112.5724   -26197.503     4.359595     4.359595     4.359595   -26197.503   -56810.895   -501.25912   -21280.356     9015.529    48624.225   -19690.861    82.858764 
   12700    1157.2223   -113.61521     1.047079   -112.56813   -5741.0786    4.3745241    4.3745241    4.3745241   -5741.0786   -70127.058    5959.5094    46944.313   -26595.902    32908.295    12108.223    83.712911 
   12800    2129.2762   -114.45188    1.9266138   -112.52527    15579.062      4.35649      4.35649      4.35649    15579.062   -15542.905    48326.683    13953.408   -3477.0723   -15979.369    3421.9637    82.681844 
   12900    1281.0632   -113.69412    1.1591329   -112.53498   -14716.701    4.3532166    4.3532166    4.3532166   -14716.701   -75826.271    13261.457     18414.71   -4465.2459    58952.967    -29248.08    82.495609 
   13000    1882.7838   -114.24782    1.7035823   -112.54423    -9861.552    4.3490146    4.3490146    4.3490146    -9861.552   -42869.087   -18452.788    31737.219   -34016.005    3512.2261   -2209.8744    82.256951 
   13100    2136.4476   -114.46672    1.9331027   -112.53362    60751.773    4.3340114    4.3340114    4.3340114    60751.773    23088.013    43656.897    115510.41   -696.61726    6172.7467     12709.61    81.408572 
   13200    1150.4029   -113.63047    1.0409087   -112.58956   -6509.8989    4.3608306    4.3608306    4.3608306   -6509.8989   -52033.253    50740.191   -18236.635   -9966.2442    56283.014   -12154.392     82.92923 
   13300    1854.5115   -114.21813     1.678001   -112.54013     -9156.42    4.3756755    4.3756755    4.3756755     -9156.42    1394.1597   -32449.325    3585.9049   -27744.518   -16860.328   -5739.3048     83.77903 
   13400    1911.3293   -114.25223    1.7294109   -112.52282    42815.905    4.3378021    4.3378021    4.3378021    42815.905    37231.196    63434.891    27781.627    2364.7177     38853.44    21276.261    81.622372 
   13500    1237.9657   -113.67191    1.1201374   -112.55177    36806.815    4.3341106    4.3341106    4.3341106    36806.815   -9781.0289    78303.629    41897.844   -1216.2533    38684.728   -9864.0461    81.414163 
   13600    2228.2219   -114.56333     2.016142   -112.54719   -4233.6392    4.3654518    4.3654518    4.3654518   -4233.6392   -20209.632   -35518.022    43026.737    2301.6766   -8396.1878   -10985.866    83.193153 
   13700    1120.1066   -113.55875     1.013496   -112.54526     3264.322    4.3829248    4.3829248    4.3829248     3264.322    42693.808    19872.869   -52773.711   -756.68873    48359.462    23987.973    84.196114 
   13800    1837.6145    -114.1639    1.6627122   -112.50118   -19932.484    4.3902996    4.3902996    4.3902996   -19932.484   -31253.592   -2041.6334   -26502.225    -5173.635    -13731.77   -14819.045    84.621842 
   13900    2115.1212   -114.42068    1.9138061   -112.50687   -6655.1454    4.3459295    4.3459295    4.3459295   -6655.1454   -51043.023    30071.794    1005.7919   -4336.5832   -2668.0299   -5866.2455    82.082019 
   14000    1069.2097    -113.4666   0.96744344   -112.49916     48067.66    4.3055982    4.3055982    4.3055982     48067.66    4092.6816     68792.04    71318.258    3657.5525    73066.551    12168.443    79.817934 
   14100    1920.2885   -114.31277    1.7375174   -112.57525    3257.5364    4.3514645    4.3514645    4.3514645    3257.5364   -25413.406    10832.701    24353.314   -16671.508   -41418.766   -6666.5234    82.396038 
   14200    1509.0299   -113.90532    1.3654019   -112.53992   -39876.492    4.3832134    4.3832134    4.3832134   -39876.492   -88004.577    13629.575   -45254.474   -10140.416    35552.442   -10654.257    84.212748 
   14300    1651.5615   -114.01639    1.4943675   -112.52202   -38319.002    4.3559558    4.3559558    4.3559558   -38319.002   -34064.105   -2801.5767   -78091.326    739.82985    46083.584    37765.107    82.651432 
   14400     1527.143   -113.90115     1.381791   -112.51936    37.169085    4.3354336    4.3354336    4.3354336    37.169085   -31446.152    59711.726   -28154.066    7003.1886   -46072.864     6911.333     81.48874 
   14500    1605.8744   -113.99963    1.4530289    -112.5466   -34512.277    4.3402193    4.3402193    4.3402193   -34512.277   -85507.706    31425.678   -49454.804   -1280.0326     55735.55   -13572.196    81.758898 
   14600    1762.5119   -114.14977    1.5947578   -112.55502   -13047.051    4.3555968    4.3555968    4.3555968   -13047.051   -10346.572    35499.101   -64293.682   -1873.6533    8161.0349     38095.13    82.631001 
   14700     1438.612   -113.85643    1.3016864   -112.55475   -47199.528    4.3635248    4.3635248    4.3635248   -47199.528   -37839.319   -31159.633   -72599.634    2913.5685   -33221.978    31244.427    83.083034 
   14800     1895.147   -114.26187    1.7147688   -112.54711    2294.7779    4.3426495    4.3426495    4.3426495    2294.7779   -46523.407    68812.845   -15405.105    1901.7702    41898.805   -16923.773     81.89631 
   14900    1802.0589   -114.19063    1.6305407   -112.56009     1957.807    4.3317285    4.3317285    4.3317285     1957.807   -3206.9502    34842.724   -25762.353    1784.8078    -12323.98    91.345988    81.280001 
   15000    1386.2645   -113.83827    1.2543213   -112.58395   -1326.6579    4.3388749    4.3388749    4.3388749   -1326.6579   -5224.1561    16947.367   -15703.185   -5888.5511   -52802.867    6675.0017    81.682943 
   15100    2220.0653   -114.57836    2.0087618    -112.5696    8974.6441     4.367314     4.367314     4.367314    8974.6441    -21725.21    34496.625    14152.517    -7358.366    28274.734    4316.8881    83.299667 
   15200    1019.7905   -113.47765   0.92272787   -112.55492   -21858.989    4.3754356    4.3754356    4.3754356   -21858.989   -22891.358    1180.8302   -43866.439   -16994.321   -33804.078   -5488.9346    83.765247 
   15300    1352.2809   -113.73648    1.2235722    -112.5129    4684.1875    4.3464033    4.3464033    4.3464033    4684.1875    13718.441   -8488.9267    8823.0486    9077.9862   -19825.286    9185.2989    82.108869 
   15400     2311.756   -114.60245    2.0917254   -112.51073    31764.975    4.3377594    4.3377594    4.3377594    31764.975    54261.732     4662.349    36370.845    8505.2606    33556.106    -2004.586    81.619963 
   15500    1560.6444   -113.96835    1.4121038   -112.55625   -4741.7627     4.346464     4.346464     4.346464   -4741.7627    262.75935     29258.52   -43746.567    3260.0711   -42113.059    799.20649    82.112307 
   15600    1562.1268   -113.97944    1.4134452     -112.566    8728.6981    4.3526626    4.3526626    4.3526626    8728.6981    47391.716   -39983.624    18778.003    2904.0857    -30109.45     2511.391    82.464119 
   15700    2009.6371   -114.37591    1.8183619   -112.55755   -22190.311    4.3669482    4.3669482    4.3669482   -22190.311    17198.494    -51101.47   -32667.956    12901.567    39921.065     -2288.82    83.278736 
   15800    1239.1784   -113.68519    1.1212347   -112.56396   -37464.592    4.3519227    4.3519227    4.3519227   -37464.592   -89534.321    41014.225   -63873.679    10384.542   -30585.729    4174.8341    82.422068 
   15900    1924.0302   -114.28854    1.7409029   -112.54763     17519.56    4.3205153    4.3205153    4.3205153     17519.56    83712.996   -2215.2002   -28939.117   -16258.879   -44249.245    19128.294    80.650419 
   16000    2193.0759   -114.54835    1.9843412   -112.56401   -1069.7391    4.3350338    4.3350338    4.3350338   -1069.7391    28580.502   -12318.369    -19471.35   -7816.1162    33722.585   -771.82851    81.466203 
   16100    1537.9221   -113.96474    1.3915442   -112.57319   -11365.064     4.354189     4.354189     4.354189   -11365.064    1323.5676    27016.743   -62435.502    6011.1184    2927.9251    6328.2352    82.550904 
   16200    1551.1637   -113.96963    1.4035255    -112.5661   -25125.714    4.3728957    4.3728957    4.3728957   -25125.714    24293.684   -49357.706   -50313.121   -17863.023   -29203.187    12928.723     83.61946 
   16300    1957.5213   -114.30551    1.7712064   -112.53431   -11868.415      4.36388      4.36388      4.36388   -11868.415   -6459.2282   -17419.012   -11727.004    2220.4783    22795.567   -12738.499    83.103326 
   16400    1757.8681   -114.11931     1.590556   -112.52876    12566.935     4.326759     4.326759     4.326759    12566.935    12277.062    67392.973   -41969.231    6444.2539    46314.257   -10682.428    81.000579 
   16500    1605.8023    -114.0053    1.4529636   -112.55234    32244.095    4.3251139    4.3251139    4.3251139    32244.095    12570.793    22468.868    61692.624   -1412.6734   -42509.824    1219.7673    80.908222 
   16600    1767.9091   -114.18451    1.5996413   -112.58486   -10970.605    4.3526458    4.3526458    4.3526458   -10970.605   -6833.7803   -27626.211    1548.1781   -3901.4067    24478.008    28399.953    82.463163 
   16700    1642.1493   -114.06383    1.4858512   -112.57798    1819.2384    4.3698422    4.3698422    4.3698422    1819.2384   -27499.246   -13570.979    46527.941   -7324.3127    45303.727    -19572.48    83.444415 
   16800    1822.8608   -114.20786    1.6493628    -112.5585    -11056.08    4.3589929    4.3589929    4.3589929    -11056.08    123.24779   -9161.7777   -24129.711    459.84494   -23390.501     9610.958    82.824434 
   16900     1214.606   -113.65527    1.0990011   -112.55627    36599.424    4.3411996    4.3411996    4.3411996    36599.424     10916.26    36752.182     62129.83   -12990.955   -5356.9103    29750.195    81.814311 
   17000    2907.4839   -115.17773    2.6307525   -112.54698    -11997.11     4.340189     4.340189     4.340189    -11997.11   -29878.352   -6529.4156    416.43771     5465.409    25147.749   -21469.327    81.757182 
   17100    897.58495   -113.40348   0.81215373   -112.59133    30879.142    4.3381867    4.3381867    4.3381867    30879.142    33289.579    17251.075    42096.772    6680.7585   -19902.066    35074.067    81.644082 
   17200    1602.6117   -114.05537    1.4500767   -112.60529   -4461.3541    4.3547419    4.3547419    4.3547419   -4461.3541    12656.235    23543.607   -49583.904   -19275.922   -23333.133    39398.851    82.582353 
   17300    2232.5171   -114.58356    2.0200284   -112.56353   -3377.6187    4.3648349    4.3648349    4.3648349   -3377.6187    -26558.09   -25805.728    42230.962    16340.866     11355.59   -18064.589    83.157893 
   17400    1299.7486    -113.7296    1.1760399   -112.55356    15830.955    4.3436925    4.3436925    4.3436925    15830.955    23465.006    30808.429   -6780.5692    14078.417   -2383.2283    38977.385    81.955332 
   17500    1853.7336   -114.22567    1.6772971   -112.54838    14412.773    4.3378628    4.3378628    4.3378628    14412.773    7172.7863    26448.847    9616.6869   -18099.108   -23601.699    22264.789    81.625796 
   17600    1676.3208   -114.07334    1.5167703   -112.55657    5132.7286    4.3467359    4.3467359    4.3467359    5132.7286   -16111.199   -12416.349    43925.734    32074.493    10199.098   -8286.6463    82.127721 
   17700    1427.8893   -113.86589    1.2919843   -112.57391    3576.1984    4.3482597    4.3482597    4.3482597    3576.1984    36100.529   -28139.222    2767.2877   -4414.5693    12857.356    41087.808    82.214123 
   17800    2178.9492   -114.53717     1.971559   -112.56561    8644.5937    4.3581731    4.3581731    4.3581731    8644.5937    2709.5048   -8340.3464    31564.623   -7635.1335   -2413.5498    7333.2037    82.777713 
   17900     1629.463   -114.04589    1.4743724   -112.57152   -13406.308    4.3535338    4.3535338    4.3535338   -13406.308    5607.3193   -33341.587   -12484.657    29711.828    11001.508   -6718.7273    82.513642 
   18000    1088.8748   -113.54906   0.98523682   -112.56382   -539.55083    4.3309755    4.3309755    4.3309755   -539.55083    56376.423   -39993.594   -18001.481   -717.39465    20442.378    44518.742    81.237615 
   18100    2451.1005   -114.77719    2.2178072   -112.55938    12693.714    4.3297026    4.3297026    4.3297026    12693.714    2608.5348    20748.021    14724.587   -5159.2994   -24539.286    12065.808    81.166009 
   18200    1412.0256   -113.86104    1.2776305   -112.58341   -8651.2746    4.3453936    4.3453936    4.3453936   -8651.2746    23599.334   -7943.1024   -41610.056    2904.2514    2525.9192   -21039.532    82.051659 
   18300    1367.8854   -113.82548    1.2376914   -112.58779   -42802.505    4.3498206    4.3498206    4.3498206   -42802.505   -36133.175   -42006.661   -50267.681    31590.923    45594.432    34554.346     82.30269 
   18400    1639.2992   -114.06036    1.4832724   -112.57709   -15252.692    4.3448716    4.3448716    4.3448716   -15252.692   -28930.568    7842.8353   -24670.344   -64.269296   -49660.803    9748.4594    82.022093 
   18500    1779.0369   -114.18176    1.6097099   -112.57205   -8289.7917    4.3402015    4.3402015    4.3402015   -8289.7917   -18272.708    7855.7265   -14452.394   -10209.945   -14102.184   -28475.568    81.757893 
   18600    1772.1802   -114.17708    1.6035059   -112.57358   -11437.253    4.3401902    4.3401902    4.3401902   -11437.253    6858.7936   -17364.003   -23806.549    12462.572    55597.078    17506.277    81.757249 
   18700    1608.2291   -114.03076    1.4551595    -112.5756    8258.8816    4.3407618    4.3407618    4.3407618    8258.8816   -14047.859    61189.961   -22365.457    13874.712   -47173.866     3136.078    81.789559 
   18800    1728.3664   -114.14009    1.5638622   -112.57623   -9635.9921     4.350821     4.350821     4.350821   -9635.9921   -7997.3491   -449.93728    -20460.69    389.83441   -27824.815   -10891.612    82.359491 
   18900    1947.5225   -114.32407    1.7621593   -112.56191    19532.314    4.3421766    4.3421766    4.3421766    19532.314    47100.141   -12614.818    24111.619   -20571.218    43779.919   -3276.3036    81.869559 
   19000    1558.0214   -113.97712    1.4097305   -112.56739     26009.52    4.3360547    4.3360547    4.3360547     26009.52    13162.141    72138.061   -7271.6416    37024.465    -27211.18   -1178.4474     81.52377 
   19100    1800.2628   -114.20062    1.6289156   -112.57171      12011.1    4.3575381    4.3575381    4.3575381      12011.1    9265.8153    14998.217    11769.269    81.655405   -16873.392    4286.8831    82.741534 
   19200     2162.637   -114.50453    1.9567994   -112.54773   -38406.372    4.3677619    4.3677619    4.3677619   -38406.372   -53765.966   -43516.532   -17936.619   -25219.398    38098.025   -2057.2527    83.325295 
   19300    1135.1008   -113.57603    1.0270631   -112.54897    3146.1177    4.3433461    4.3433461    4.3433461    3146.1177    1825.3414    20847.349   -13234.338    42126.151   -25776.919    8547.7805    81.935727 
   19400     1697.844   -114.08082    1.5362449   -112.54457    34743.891    4.3280622    4.3280622    4.3280622    34743.891    62043.584    54854.025   -12665.935   -9890.1274    -21872.57    14646.991    81.073791 
   19500    2118.3088   -114.47722    1.9166903   -112.56053    12405.331    4.3497905    4.3497905    4.3497905    12405.331    45546.308   -808.07743   -7522.2392   -21412.265    11402.608   -8017.0142    82.300985 
   19600    1128.0514   -113.59749    1.0206846    -112.5768   -16487.056    4.3701383    4.3701383    4.3701383   -16487.056   -49977.558    32096.709   -31580.321     39856.97    -25992.55   -334.98113    83.461377 
   19700     1457.869   -113.87924    1.3191105   -112.56013   -16544.705     4.366782     4.366782     4.366782   -16544.705   -574.33163    13202.161   -62261.945   -13845.772   -18092.819    1578.9875    83.269226 
   19800    2263.5823    -114.5877    2.0481368   -112.53956    32332.196    4.3308292    4.3308292    4.3308292    32332.196    32950.101    45022.692    19023.796    752.94161    7645.0251   -3953.8436    81.229386 
   19900    1516.6976   -113.93862    1.3723399   -112.56628    10991.054    4.3263542    4.3263542    4.3263542    10991.054   -18982.526    42144.896    9810.7935    47280.614   -39050.011    10704.226    80.977847 
   20000    1476.5224    -113.9198    1.3359885   -112.58381   -18204.256    4.3650585    4.3650585    4.3650585   -18204.256    51385.352   -49396.685   -56601.435    8255.1746   -12661.779   -9606.4494    83.170669 
   20100    2153.9262   -114.48791    1.9489176   -112.53899   -40432.332    4.3811653    4.3811653    4.3811653   -40432.332    8999.9337   -54004.206   -76292.724   -2609.6491    9992.5032   -29298.512    84.094756 
   20200    1276.5271   -113.69334    1.1550285   -112.53831   -29963.247    4.3537985    4.3537985    4.3537985   -29963.247   -42901.106   -17732.695   -29255.939    49931.791   -50296.267    11637.093    82.528697 
   20300    1304.5621   -113.71913    1.1803952   -112.53874    7864.2013    4.3213197    4.3213197    4.3213197    7864.2013    45840.746   -34038.324    11790.183    5510.8997   -4462.7259   -18093.068     80.69548 
   20400    1776.7711   -114.17368    1.6076599   -112.56602    6113.4979    4.3220839    4.3220839    4.3220839    6113.4979    44674.465   -24061.912   -2272.0592   -28747.887    22010.897   -43667.342    80.738294 
   20500    1656.5146   -114.09039    1.4988492   -112.59154    12532.428    4.3488178    4.3488178    4.3488178    12532.428    -29125.32    43150.029    23572.573    17693.271   -25483.924    17286.233    82.245781 
   20600    1930.5137   -114.31369    1.7467693   -112.56692   -17183.861    4.3679343    4.3679343    4.3679343   -17183.861   -4630.3825   -13675.596   -33245.606    6274.6028   -4485.5671   -21030.492    83.335163 
   20700    1153.0165   -113.59793    1.0432736   -112.55466    793.25597    4.3570865    4.3570865    4.3570865    793.25597    11302.776    33247.905   -42170.913   -17789.632    19104.349   -13679.585    82.715813 
   20800    2071.0381   -114.40448    1.8739188   -112.53057      13506.6    4.3338261    4.3338261    4.3338261      13506.6   -23569.032    64524.052    -435.2206    10049.811   -16430.237    12720.033    81.398132 
   20900    2071.2337   -114.42051    1.8740958   -112.54642     15448.96    4.3306379    4.3306379    4.3306379     15448.96    7446.8673    57317.114   -18417.103    21818.425    -16757.59   -13870.659    81.218623 
   21000    1791.4298   -114.20334    1.6209233   -112.58242   -6352.2943     4.358827     4.358827     4.358827   -6352.2943    7204.3328    1142.1584   -27403.374   -2985.0827    13871.507    909.26111    82.814982 
   21100    1953.0285   -114.31561    1.7671412   -112.54846   -38479.115    4.3773093    4.3773093    4.3773093   -38479.115   -77765.792   -187.50231    -37484.05    4785.8405    -1532.323   -2457.9404    83.872909 
   21200     1439.642   -113.84865    1.3026184   -112.54603    -7545.929    4.3442109    4.3442109    4.3442109    -7545.929   -38934.072    12874.009    3422.2757    50800.407   -29080.341   -14513.834    81.984677 
   21300    2214.1504   -114.52685    2.0034098   -112.52344    47474.461     4.310471     4.310471     4.310471    47474.461    58219.489    48575.672    35628.223   -7029.6985   -8921.8861   -10552.102    80.089244 
   21400    2063.1422   -114.44692    1.8667744   -112.58015    15946.064    4.3371202    4.3371202    4.3371202    15946.064   -28263.477    913.78825    75187.881        13514    1713.6972    10172.877    81.583881 
   21500    966.58336   -113.46648   0.87458493    -112.5919   -33827.885    4.3718558    4.3718558    4.3718558   -33827.885   -81995.824   -32625.195    13137.363    51174.065   -15400.018   -20639.433    83.559819 
   21600    1469.9313   -113.89532    1.3300248    -112.5653   -15194.932    4.3593702    4.3593702    4.3593702   -15194.932   -50116.126   -14004.832    18536.162    -11477.65   -23966.208   -9795.3628    82.845943 
   21700     2098.373   -114.44346     1.898652    -112.5448    28349.662    4.3259837    4.3259837    4.3259837    28349.662    5155.7222   -8257.8264    88151.091   -41798.505   -1972.2375    19896.305    80.957045 
   21800    1809.9957   -114.20245    1.6377221   -112.56472    30723.285     4.318951     4.318951     4.318951    30723.285    6334.3816    52288.261    33547.213    13486.668   -13508.752   -18755.848    80.562849 
   21900    1028.1046    -113.5384   0.93025064   -112.60815   -18462.287    4.3491638    4.3491638    4.3491638   -18462.287   -60697.212      21073.7    -15763.35    -6084.964   -29129.777   -21217.315    82.265414 
   22000      1955.08   -114.33097    1.7689974   -112.56198   -48347.391    4.3806065    4.3806065    4.3806065   -48347.391   -82518.665   -62771.047    247.53934   -4659.4989    29489.902    18863.088    84.062584 
   22100    1640.7003   -113.99322    1.4845401   -112.50868   -24715.196    4.3788544    4.3788544    4.3788544   -24715.196   -37245.034   -9098.7867   -27801.769   -1192.1756   -14271.643   -41250.671    83.961755 
   22200    2008.2883   -114.30171    1.8171415   -112.48457   -2048.5994    4.3493461    4.3493461    4.3493461   -2048.5994   -36713.607    12057.018    18510.791    219.09004   -9142.8883    10742.022    82.275761 
   22300     1212.925    -113.6097      1.09748   -112.51222   -20228.249    4.3261231    4.3261231    4.3261231   -20228.249   -32997.428   -15658.598   -12028.721   -2482.3152    32064.567    1298.6302    80.964868 
   22400    1714.5246   -114.09175    1.5513379   -112.54041    23859.661    4.3148387    4.3148387    4.3148387    23859.661    16303.489    27960.398    27315.094   -4948.4257    14382.312   -30456.461    80.332946 
   22500    2466.3318   -114.80961    2.2315889   -112.57803   -9143.6739    4.3403538    4.3403538    4.3403538   -9143.6739   -35845.622   -4676.7995      13091.4    6835.6193   -8933.3717     5195.193    81.766499 
   22600    1021.2017   -113.49273   0.92400473   -112.56872     -49331.4    4.3731709    4.3731709    4.3731709     -49331.4   -110916.93   -79800.498    42723.233    4303.5861    15048.028    767.05298    83.635248 
   22700    2227.1902   -114.53665    2.0152085   -112.52144     9569.892    4.3525659    4.3525659    4.3525659     9569.892   -30179.072      15650.1    43238.649   -4438.3848    -4246.631   -10680.373    82.458619 
   22800    1783.8421   -114.13921    1.6140578   -112.52515    29379.816    4.3173913    4.3173913    4.3173913    29379.816    14198.324    51847.707    22093.417    11035.893   -38116.684   -3138.5833    80.475601 
   22900    1432.4935   -113.85705    1.2961502    -112.5609    25621.076    4.3152789    4.3152789    4.3152789    25621.076   -41095.836    15950.353    102008.71   -7142.9856    16900.722    4941.3693    80.357538 
   23000    1841.6927    -114.2432    1.6664023    -112.5768    19630.103    4.3384763    4.3384763    4.3384763    19630.103   -1651.4951    26131.764    34410.041   -19923.566   -23404.072   -2038.1433    81.660433 
   23100    1776.4459   -114.17404    1.6073656   -112.56667    22662.606    4.3569945    4.3569945    4.3569945    22662.606    52377.073    45374.091   -29763.347    5767.3063   -27129.101       -28039    82.710573 
   23200    1552.6409   -113.95052    1.4048621   -112.54566    1330.8885    4.3597741    4.3597741    4.3597741    1330.8885   -50251.059    33999.239    20244.486    13609.674    8759.2657   -1214.4064    82.868976 
   23300    1706.6437   -114.07461    1.5442071    -112.5304   -25243.237    4.3427205    4.3427205    4.3427205   -25243.237   -68199.227    10388.894   -17919.378    3021.8841   -24020.986    -723.9773    81.900326 
   23400    1803.7733   -114.15521     1.632092   -112.52312    14475.315    4.3219677    4.3219677    4.3219677    14475.315    51751.354     40268.86   -48594.269    9055.8219   -12560.476   -48350.467    80.731785 
   23500    1858.2064   -114.22808    1.6813442   -112.54673   -4619.4819    4.3445513    4.3445513    4.3445513   -4619.4819   -46475.275    27974.576    4642.2528     2795.165    925.69388    14121.324    82.003952 
   23600    1001.6111   -113.45155   0.90627876   -112.54527   -40470.452    4.3636668    4.3636668    4.3636668   -40470.452   -93680.179   -7077.5346   -20653.643   -5636.5988   -40950.758   -4355.2903    83.091143 
   23700    2176.9976    -114.4996    1.9697932   -112.52981    7200.6992    4.3347434    4.3347434    4.3347434    7200.6992     7056.259    42130.822   -27584.984    3191.5549   -23381.123   -12120.832    81.449827 
   23800    1331.8716   -113.75174    1.2051054   -112.54664    22001.704    4.3225508    4.3225508    4.3225508    22001.704    10675.935    37765.987    17563.192    4892.6867    21547.808     14675.97    80.764463 
   23900    1180.2027   -113.63852    1.0678722   -112.57065   -24029.549    4.3393173    4.3393173    4.3393173   -24029.549   -57426.944    -44632.59    29970.887   -14547.963   -32256.229    7683.1441    81.707934 
   24000    2300.2838   -114.62494    2.0813452   -112.54359    -14872.47    4.3523617    4.3523617    4.3523617    -14872.47   -13724.273    12501.898   -43395.036    3053.6069    13291.353   -4096.8969    82.447013 
   24100    1056.7078   -113.49663   0.95613139   -112.54049   -41178.117     4.361395     4.361395     4.361395   -41178.117   -31853.177   -31075.654    -60605.52    -1067.627    38746.775    36927.471    82.961439 
   24200    1789.0089   -114.14535    1.6187328   -112.52661    -11961.16    4.3418358    4.3418358    4.3418358    -11961.16   -30925.134   -30699.616    25741.271   -8599.2877   -23131.785   -5734.9544    81.850282 
   24300    1986.1536   -114.31749    1.7971135   -112.52038    4120.9312    4.3224186    4.3224186    4.3224186    4120.9312   -12087.832    68068.728   -43618.103    12385.913    60100.604   -15206.949    80.757054 
   24400    1551.7769   -113.95812    1.4040803   -112.55403    13493.841    4.3294487    4.3294487    4.3294487    13493.841    6674.3064    34392.246   -585.03056   -12818.998    33823.762    20575.894    81.151732 
   24500    2179.7056   -114.51983    1.9722434   -112.54758    3657.2365    4.3434763    4.3434763    4.3434763    3657.2365   -16760.886    12033.271    15699.325   -6530.2852   -17739.022    7626.4403    81.943095 
   24600    1046.8923   -113.51053   0.94725014   -112.56328     1273.802    4.3476931    4.3476931    4.3476931     1273.802   -34002.272    85685.981   -47862.303    13067.904    73200.751   -29129.073    82.181988 
   24700    2445.9003   -114.74558     2.213102   -112.53248   -149.18141     4.347338     4.347338     4.347338   -149.18141   -4549.0155    4363.6331   -262.16186   -78.720734   -4220.4776   -32504.022    82.161855 
   24800    1758.3046   -114.13104    1.5909509   -112.54009     29749.23    4.3305216    4.3305216    4.3305216     29749.23    -22665.09    89364.737    22548.044   -2879.9335    14742.413    9196.8495     81.21208 
   24900    1021.7825   -113.48634   0.92453025   -112.56181    5558.7055    4.3322664    4.3322664    4.3322664    5558.7055   -32392.602    62075.892   -13007.174    14122.867    66027.589   -21834.495    81.310283 
   25000    2229.2984   -114.56422     2.017116    -112.5471   -18015.176    4.3470889    4.3470889    4.3470889   -18015.176    1623.6861   -15259.725   -40409.489   -8454.8028   -37843.295   -29677.862    82.147731 
   25100    1502.5029   -113.90471    1.3594962   -112.54522    2367.1709    4.3452983    4.3452983    4.3452983    2367.1709   -45229.845    59603.573   -7272.2159    8277.7732    17223.207   -12911.633    82.046258 
   25200    1661.1132    -114.0365    1.5030101   -112.53349   -2411.2643    4.3513121    4.3513121    4.3513121   -2411.2643   -23894.415    16537.448    123.17414    1346.7209    46484.823   -11415.103    82.387384 
   25300    1795.3579   -114.14437    1.6244776   -112.51989   -39486.308    4.3570535    4.3570535    4.3570535   -39486.308   -38640.568   -26733.468   -53084.889    -15369.26   -59156.691   -13098.643    82.713934 
   25400    1247.9081   -113.66288    1.1291335   -112.53375   -18064.417    4.3286103    4.3286103    4.3286103   -18064.417   -35938.548     14071.36   -32326.062    14219.572    5704.9112    -2092.326    81.104598 
   25500    2347.3961   -114.65302    2.1239733   -112.52905    32232.054    4.3139426    4.3139426    4.3139426    32232.054    30676.829    29328.665    36690.668   -1346.2532    27524.601     16783.51    80.282907 
   25600    968.78742   -113.44899   0.87657921   -112.57241   -28917.435    4.3444611    4.3444611    4.3444611   -28917.435   -24396.361   -60291.728    -2064.215   -16093.648    -48034.42    8740.1172    81.998848 
   25700    1663.8978   -114.05317    1.5055297   -112.54764   -22761.439    4.3581051    4.3581051    4.3581051   -22761.439    -67865.46   -28369.362    27950.503    4878.3355   -15240.703   -1361.1237     82.77384 
   25800    2152.3089    -114.4627    1.9474543   -112.51525    -6300.814    4.3560897    4.3560897    4.3560897    -6300.814   -19974.377   -43247.643    44319.578   -7819.8115    9557.9302    12457.752    82.659059 
   25900    602.08523   -113.07151   0.54477937   -112.52673     -36513.8    4.3536175    4.3536175    4.3536175     -36513.8    -63472.53   -43681.448   -2387.4216   -41204.557   -42789.109   -8942.1222    82.518402 
   26000    2693.7414   -114.93671    2.4373538   -112.49935    25363.015    4.3177819    4.3177819    4.3177819    25363.015   -4201.9672     34321.84    45969.171    7562.2288   -2253.8541    9720.4674    80.497449 
   26100    1495.7884   -113.89487    1.3534208   -112.54145   -7123.0982    4.3200669    4.3200669    4.3200669   -7123.0982   -13451.647   -26057.969    18140.322    2933.3779    9685.1349    3694.9074    80.625314 
   26200    2029.0342   -114.37007    1.8359128   -112.53415   -39206.226     4.358414     4.358414     4.358414   -39206.226   -41703.064   -44638.588   -31277.025   -27074.937   -32490.324     8685.569    82.791442 
   26300    1661.8136   -114.01316    1.5036439   -112.50952   -12711.073    4.3598498    4.3598498    4.3598498   -12711.073   -25908.758   -27132.666    14908.206    47902.644     32210.31   -6360.0908    82.873289 
   26400    1454.1104   -113.81324    1.3157096   -112.49753   -6596.7475    4.3506728    4.3506728    4.3506728   -6596.7475   -26141.287   -20340.581    26691.625   -12272.362    17560.258    1660.3385    82.351074 
   26500    1866.2533   -114.19647    1.6886252   -112.50784    9656.9027     4.333828     4.333828     4.333828    9656.9027   -13096.724   -3680.3303    45747.763   -23390.643    -4955.018    7168.9539    81.398237 
   26600    1219.0037   -113.63957    1.1029802   -112.53659    21794.731    4.3175901    4.3175901    4.3175901    21794.731   -20055.855    9333.1866    76106.862    79951.862     24568.13   -10352.239    80.486719 
   26700     1854.329   -114.23457    1.6778358   -112.55673    831.37488    4.3405412    4.3405412    4.3405412    831.37488   -23622.371   -6608.0597    32724.556   -36411.674    34955.435   -20648.169    81.777088 
   26800    1684.3116   -114.06528    1.5240005   -112.54128     -15159.8    4.3570641    4.3570641    4.3570641     -15159.8   -21391.415    -50296.58    26208.593    14730.678   -14917.275   -2665.2137    82.714539 
   26900     1036.169   -113.48435   0.93754752    -112.5468   -17545.884    4.3443979    4.3443979    4.3443979   -17545.884   -34439.256   -18531.243    332.84757    63489.598    29856.471    3598.3233    81.995265 
   27000    2177.4391   -114.51479    1.9701927    -112.5446    690.60154    4.3287063    4.3287063    4.3287063    690.60154   -9773.4056    22199.806   -10354.595   -24980.906    19228.184    14018.864    81.109995 
   27100    2160.1809   -114.50356    1.9545771   -112.54898    11765.451    4.3228098    4.3228098    4.3228098    11765.451    11932.652   -3449.7865    26813.489    38915.529   -28141.355    3442.5592    80.778984 
   27200    1326.3716    -113.7746    1.2001289   -112.57447   -15433.592    4.3358287    4.3358287    4.3358287   -15433.592   -31664.171    -13837.16   -799.44515    40188.875     40920.11   -944.12915    81.511021 
   27300    1842.8019    -114.2269    1.6674059    -112.5595   -6730.2487    4.3514052    4.3514052    4.3514052   -6730.2487   -10445.664    24860.296   -34605.377   -28328.912    9573.7593    23771.945    82.392671 
   27400    1980.4101   -114.30893    1.7919167   -112.51701   -17698.623    4.3601936    4.3601936    4.3601936   -17698.623   -52016.855    -33908.64    32829.626    55075.636   -9758.4865   -15592.342      82.8929 
   27500    1030.7947   -113.44314   0.93268469   -112.51046    4491.5812    4.3570392    4.3570392    4.3570392    4491.5812   -35946.742    71561.053   -22139.567    10013.039    56122.982   -10889.234    82.713122 
   27600    2508.6091   -114.74497    2.2698422   -112.47513   -16285.129    4.3465697    4.3465697    4.3465697   -16285.129   -14851.116   -16118.331    -17885.94    23665.714   -11154.635    7936.5709    82.118298 
   27700    1131.9403   -113.54983    1.0242033   -112.52563    17715.886    4.3198302    4.3198302    4.3198302    17715.886    13397.118    20761.589    18988.951    65158.585    18883.828   -702.90879    80.612061 
   27800    1424.2453   -113.84974    1.2886871   -112.56105    2660.6459     4.319316     4.319316     4.319316    2660.6459    6523.3152    22553.685   -21095.063   -5899.3312     58497.04   -22462.476    80.583277 
   27900    2113.1455   -114.48432    1.9120184    -112.5723    8289.3025    4.3335114    4.3335114    4.3335114    8289.3025    23190.972   -2134.4083    3811.3441    7609.4623    -10259.26    -18769.48      81.3804 
   28000    1742.4985   -114.15955    1.5766493    -112.5829   -15904.739    4.3423079    4.3423079    4.3423079   -15904.739   -17426.165   -17494.238   -12793.813    41225.616    14642.764    12162.098    81.876983 
   28100    1155.3115   -113.62697    1.0453501   -112.58162   -17963.849    4.3385055    4.3385055    4.3385055   -17963.849   -7363.0242    13463.757    -59992.28    15095.762    64778.681   -17960.885    81.662083 
   28200    2269.8242    -114.5956    2.0537847   -112.54182    7307.1571    4.3316663    4.3316663    4.3316663    7307.1571    22286.569   -19848.961    19483.863    4418.5591   -22849.978    -5879.628    81.276495 
   28300    1370.1969   -113.78563     1.239783   -112.54584   -27834.773    4.3435301    4.3435301    4.3435301   -27834.773   -66766.438    -19938.63    3200.7494    60296.962     36755.95    7178.7485    81.946143 
   28400    1663.6811   -114.05308    1.5053337   -112.54774   -6519.2865    4.3296841    4.3296841    4.3296841   -6519.2865   -14647.682    34505.893   -39416.071   -10745.897    56810.005   -10495.408     81.16497 
   28500    1619.3626   -114.00728    1.4652333   -112.54205    18182.965    4.3192049    4.3192049    4.3192049    18182.965    26794.129    6312.4291    21442.338    25401.129   -16128.344   -22084.339    80.577059 
   28600    1497.8082   -113.91566    1.3552484   -112.56041   -19807.481     4.333574     4.333574     4.333574   -19807.481     -41418.4   -21953.498    3949.4568    50417.103    293.42702    12698.499    81.383928 
   28700    2412.6286   -114.72913    2.1829971   -112.54613    3019.2858    4.3364051    4.3364051    4.3364051    3019.2858    14541.017    36474.623   -41957.783   -27031.983     12952.04   -11103.778    81.543538 
   28800    1001.2883   -113.47402   0.90598671   -112.56803    8865.9859    4.3362011    4.3362011    4.3362011    8865.9859    6342.0015    10957.288    9298.6684    33603.311    231.58485   -17638.314    81.532029 
   28900    1692.1896   -114.09053    1.5311287    -112.5594   -9161.3783    4.3333758    4.3333758    4.3333758   -9161.3783   -21087.313   -19268.835    12872.012    24921.503   -28768.635   -5208.7005    81.372761 
   29000    2104.4487   -114.44345    1.9041494    -112.5393    26985.136    4.3221307    4.3221307    4.3221307    26985.136    54842.012    71874.568   -45761.171   -11500.284     13915.73    18174.466    80.740921 
   29100    1120.6067   -113.58181    1.0139485   -112.56786   -18531.926    4.3355164    4.3355164    4.3355164   -18531.926    4408.5719   -830.36498   -59173.984    28232.393    10885.466   -17171.898    81.493413 
   29200    2703.7693   -114.98467    2.4464273   -112.53825   -6222.8909    4.3393218    4.3393218    4.3393218   -6222.8909   -8590.8718     12697.99   -22775.791   -1716.0417   -15654.577   -7215.7469    81.708186 
   29300    1272.1502   -113.70618    1.1510682   -112.55512    8086.8198    4.3306238    4.3306238    4.3306238    8086.8198    21160.684      73243.4   -70143.624   -14787.778    34378.039    23710.854    81.217831 
   29400    1148.2506   -113.60446    1.0389613    -112.5655   -31941.769    4.3355274    4.3355274    4.3355274   -31941.769    23285.938   -33511.353   -85599.892    2028.6163      26538.8   -21394.609    81.494031 
   29500    2483.3789   -114.79209    2.2470134   -112.54508    10200.291    4.3220659    4.3220659    4.3220659    10200.291   -4772.8908     45651.77   -10278.006    11061.447   -47568.127   -8288.2389    80.737289 
   29600    1184.6696   -113.64247    1.0719139   -112.57056    6903.7159    4.3307894    4.3307894    4.3307894    6903.7159    60120.038   -210.26925   -39198.621     5450.173   -6059.9148    21797.378    81.227145 
   29700     2013.325   -114.37697    1.8216988   -112.55527   -26300.901    4.3429305    4.3429305    4.3429305   -26300.901    14766.006   -42692.975   -50975.734    725.19753    9953.1656    446.68383    81.912207 
   29800    1502.5081   -113.91069    1.3595009   -112.55119    38991.866    4.3240676    4.3240676    4.3240676    38991.866    73721.614    49964.946   -6710.9637   -1101.6488   -61353.892   -14544.815    80.849517 
   29900    1576.5107    -113.9828      1.42646   -112.55634   -21709.715    4.3345816    4.3345816    4.3345816   -21709.715   -11118.339   -43543.282   -10467.525    8243.9094    613.80456    31644.817    81.440708 
   30000    1838.3597    -114.1924    1.6633865   -112.52901   -14182.362     4.343486     4.343486     4.343486   -14182.362    14956.476   -29822.819   -27680.742   -1197.2529    -5842.868    8269.8246    81.943643 
   30100    1382.7581   -113.77804    1.2511486   -112.52689    893.34741    4.3343877    4.3343877    4.3343877    893.34741   -44929.694    50112.319   -2502.5824    5376.7463   -53451.272    2352.6341    81.429779 
   30200    1827.9389   -114.18003    1.6539576   -112.52607   -9061.1783    4.3394591    4.3394591    4.3394591   -9061.1783   -21084.073   -30608.888    24509.427    23809.851    19613.853    21571.966    81.715941 
   30300    1800.3171   -114.15904    1.6289647   -112.53007    11541.624     4.328606     4.328606     4.328606    11541.624    -24171.91    51474.193    7322.5903    -6629.372   -49697.675    48.153114    81.104352 
   30400    1222.1217   -113.65517    1.1058014   -112.54937    9437.1721    4.3335909    4.3335909    4.3335909    9437.1721   -42303.809    73938.391   -3323.0653    3798.5245   -37062.413    1181.6942     81.38488 
   30500    2242.1626   -114.55278    2.0287559   -112.52402   -27263.328    4.3502952    4.3502952    4.3502952   -27263.328   -30508.161   -44736.141   -6545.6812     5377.943    20978.534   -5224.7531    82.329636 
   30600    1188.0604   -113.61137     1.074982   -112.53639    6563.0302    4.3326342    4.3326342    4.3326342    6563.0302   -16165.326    40187.933   -4333.5162    4803.8751   -105815.91    12883.248    81.330991 
   30700    2449.6496    -114.7429    2.2164945    -112.5264    11993.886    4.3274909    4.3274909    4.3274909    11993.886    10459.912    19093.933    6427.8128    -11776.69    13076.008   -2779.0352    81.041688 
   30800    1383.7853   -113.79648     1.252078    -112.5444   -14447.743    4.3405455    4.3405455    4.3405455   -14447.743   -23173.842    24633.332    -44802.72    11242.082   -31803.627     -7057.13    81.777331 
   30900    1015.2192    -113.4757   0.91859168   -112.55711   -1414.0137    4.3377143    4.3377143    4.3377143   -1414.0137     16026.06    33059.342   -53327.443    4038.0612   -72848.515   -343.55705    81.617414 
   31000    2655.6681    -114.9301    2.4029043    -112.5272   -2139.1683    4.3461256    4.3461256    4.3461256   -2139.1683    29843.949   -11410.572   -24850.881   -16409.385    27247.677    1452.8027    82.093128 
   31100    1274.6514    -113.7094    1.1533314   -112.55607   -29071.568    4.3378579    4.3378579    4.3378579   -29071.568   -70192.587    49645.909   -66668.025    7810.4205   -107868.73    7638.4399    81.625518 
   31200    1617.5304   -114.01318    1.4635755   -112.54961    16495.889    4.3149844    4.3149844    4.3149844    16495.889        21774    15796.058    11917.608    14134.175   -10255.297   -19883.253    80.341086 
   31300    1842.3818   -114.23757    1.6670258   -112.57055   -12504.032    4.3312119    4.3312119    4.3312119   -12504.032   -4749.4353    9641.6942   -42404.355   -4455.3385    26780.771    11971.593    81.250921 
   31400    1967.2948   -114.34371    1.7800496   -112.56366   -29526.715    4.3429569    4.3429569    4.3429569   -29526.715   -62392.602    32920.757   -59108.299   -2064.7629   -35982.178    6847.6801    81.913703 
   31500    1774.3428   -114.17277    1.6054626   -112.56731    5603.8491    4.3239473    4.3239473    4.3239473    5603.8491   -5008.2015    21237.277    582.47151    26759.103   -15560.057   -22779.738    80.842769 
   31600    1097.4146   -113.58095   0.99296377   -112.58798   -22765.203    4.3232952    4.3232952    4.3232952   -22765.203   -11031.579   -264.79506   -56999.236    15771.868    52986.395   -869.29611    80.806199 
   31700    2416.3872   -114.75711    2.1863979   -112.57071   -10476.863    4.3335777    4.3335777    4.3335777   -10476.863   -23674.702    28628.854    -36384.74   -13117.394    25507.947    14128.751    81.384138 
   31800    1425.9913   -113.85595    1.2902669   -112.56569   -20897.036    4.3505724    4.3505724    4.3505724   -20897.036   -6584.1563   -79023.169    22916.216    19535.397    3182.5414   -41113.174    82.345371 
   31900    1215.8569   -113.64891    1.1001329   -112.54878   -24649.171    4.3487375    4.3487375    4.3487375   -24649.171   -1483.7572   -35126.022   -37337.733    22780.399    55324.492   -23598.373    82.241229 
   32000    2694.5299   -114.95438    2.4380673   -112.51631    16261.563    4.3225553    4.3225553    4.3225553    16261.563    23636.947    16633.447    8514.2942   -16043.602   -12387.188    18682.836    80.764718 
   32100    1353.5677   -113.78257    1.2247365   -112.55784   -34219.136    4.3237128    4.3237128    4.3237128   -34219.136   -18825.878   -79938.827    -3892.704    39506.076   -11126.497   -38910.508    80.829617 
   32200    1353.0397   -113.80261    1.2242587   -112.57835    -12853.24    4.3244982    4.3244982    4.3244982    -12853.24    15612.426   -33632.988   -20539.157     26052.27    26040.102   -33059.385    80.873669 
   32300    2253.2608   -114.61348    2.0387978   -112.57468    -12865.83      4.33657      4.33657      4.33657    -12865.83    26203.752   -26946.781   -37854.461   -9567.4768   -6989.4315     45290.05    81.552836 
   32400    1217.7004   -113.67677    1.1018009   -112.57496   -54228.119    4.3495688    4.3495688    4.3495688   -54228.119   -23929.995   -80636.107   -58118.254    20467.131   -25082.718   -38272.446      82.2884 
   32500    1816.6037   -114.20024    1.6437012   -112.55654   -4026.6735    4.3200699    4.3200699    4.3200699   -4026.6735    11544.277   -26680.746    3056.4484    31342.852    5645.0097   -51823.639    80.625484 
   32600    1930.4368    -114.2993    1.7466998    -112.5526    12610.044      4.32159      4.32159      4.32159    12610.044    34820.332    6016.6884   -3006.8899   -10840.891   -1854.5478    71940.315    80.710623 
   32700    1462.8192   -113.88386    1.3235895   -112.56027   -32801.852    4.3390796    4.3390796    4.3390796   -32801.852   -7568.2003   -46256.502   -44580.855    12577.915   -18153.502   -22905.803    81.694506 
   32800    1287.8834   -113.72733     1.165304   -112.56203    22452.121    4.3253619    4.3253619    4.3253619    22452.121   -6587.9812    48627.135    25317.209    31296.124    662.37129   -54321.515    80.922138 
   32900    2383.2729   -114.71132    2.1564354   -112.55488    826.72055    4.3382956    4.3382956    4.3382956    826.72055   -5249.0913    -5652.007     13381.26   -12462.407    4367.3986    43539.112    81.650233 
   33000    1516.6011   -113.93761    1.3722526   -112.56536   -15104.953    4.3380226    4.3380226    4.3380226   -15104.953   -7469.8485    25543.529   -63388.539   -91.032371   -3744.2851   -61901.635     81.63482 
   33100    1082.2665   -113.55433   0.97925745   -112.57508    2612.7593    4.3168753    4.3168753    4.3168753    2612.7593   -4199.1261   -13136.168    25173.572    36592.186   -18437.449   -49285.204    80.446751 
   33200    2083.7401   -114.45949    1.8854118   -112.57408    14802.168    4.3247994    4.3247994    4.3247994    14802.168   -7129.2633   -14240.614    65776.382    5801.9962   -3820.2126    28719.634    80.890574 
   33300     1911.333   -114.30244    1.7294143   -112.57302   -4134.0382    4.3317215    4.3317215    4.3317215   -4134.0382    16614.781   -13237.268   -15779.628   -15691.925    7059.3436   -37133.324    81.279602 
   33400    1039.0313   -113.52673   0.94013733   -112.58659   -3911.3224    4.3314733    4.3314733    4.3314733   -3911.3224    -1275.794   -38505.192    28047.019    43843.916   -3194.2799   -34409.429    81.265632 
   33500    2006.8543   -114.38242     1.815844   -112.56657   -3693.4851    4.3363275    4.3363275    4.3363275   -3693.4851    439.66048   -31413.276     19893.16    16113.469   -6850.1061    24060.251    81.539159 
   33600    1788.3094   -114.17371       1.6181   -112.55561    8061.9073    4.3371987    4.3371987    4.3371987    8061.9073    35067.377   -17160.232    6278.5767   -11367.618    8845.7653    23285.135    81.588316 
   33700    1063.0897   -113.53098   0.96190591   -112.56908   -10536.206    4.3345662    4.3345662    4.3345662   -10536.206    24395.006   -45506.976   -10496.647    53954.361    22656.582   -43472.147    81.439844 
   33800    2016.9608   -114.39497    1.8249885   -112.56998    10847.962    4.3271665    4.3271665    4.3271665    10847.962    23258.512   -1953.0498    11238.424    11233.112   -12703.551    69.553736    81.023467 
   33900    2499.1553   -114.82946    2.2612882   -112.56817    16400.613    4.3243019    4.3243019    4.3243019    16400.613    20552.646    2368.3098    26280.883   -15138.995   -11385.687    20420.837    80.862661 
   34000    978.40229   -113.48237   0.88527896   -112.59709     301.0157    4.3269607    4.3269607    4.3269607     301.0157    22637.824   -7330.5917   -14404.185    67249.524    16172.293   -32130.016    81.011907 
   34100    1698.8857   -114.12347    1.5371875   -112.58629   -8722.5656    4.3337619    4.3337619    4.3337619   -8722.5656    15275.299   -38364.405   -3078.5908   -11266.275    15208.548   -21816.555    81.394515 
   34200    2410.2715   -114.74867    2.1808643    -112.5678   -2946.3037    4.3369581    4.3369581    4.3369581   -2946.3037   -41270.109    16291.233    16139.965   -18277.426   -13307.271    16554.515    81.574737 
   34300    916.49175   -113.41781     0.829261   -112.58855   -4545.7763    4.3265818    4.3265818    4.3265818   -4545.7763   -21338.974   -13692.349    21393.994    59968.392    3723.8855   -13852.218    80.990627 
   34400     1692.647    -114.1074    1.5315426   -112.57586    7951.1805    4.3271691    4.3271691    4.3271691    7951.1805   -12287.155    16943.419    19197.278    6584.1558    20431.047    -42071.27    81.023613 
   34500     2652.314   -114.96014    2.3998695   -112.56027   -12535.778    4.3421099    4.3421099    4.3421099   -12535.778   -27351.218    1044.8689   -11300.984   -10500.326   -5530.5943    29570.601    81.865784 
   34600    1070.0289   -113.55067   0.96818463   -112.58249    526.03006    4.3340137    4.3340137    4.3340137    526.03006   -13329.781   -6802.4738    21710.345    58628.061    5894.3447   -2903.1829    81.408702 
   34700    1567.1344   -113.99006    1.4179762   -112.57208    5136.3689    4.3189568    4.3189568    4.3189568    5136.3689    -6690.479    16683.624    5415.9615   -5824.5806    25108.768   -15672.046    80.563175 
   34800    1784.1593    -114.1902    1.6143448   -112.57586   -5954.9903     4.326107     4.326107     4.326107   -5954.9903   -18373.214   -23059.531    23567.774   -73528.262    -6907.249    1269.2238    80.963963 
   34900     2121.975   -114.48904    1.9200076   -112.56903   -3181.5781    4.3349739    4.3349739    4.3349739   -3181.5781   -25809.417    1450.4995    14814.183    47597.634    2901.8142    13517.375    81.462823 
   35000    1118.6937   -113.58501    1.0122176   -112.57279   -10583.661    4.3386946    4.3386946    4.3386946   -10583.661   -39639.102   -33102.728    40990.849   -20139.664    16877.255     -8649.27    81.672762 
   35100    1222.4322   -113.68266    1.1060823   -112.57657   -19133.324    4.3344912    4.3344912    4.3344912   -19133.324   -69571.699   -33648.321    45820.048   -84345.834    1771.3258    -20.90767    81.435614 
   35200    2980.3737   -115.24764    2.6967048   -112.55094    20456.743    4.3305657    4.3305657    4.3305657    20456.743    10316.627    42669.599    8384.0026    39392.273   -4608.5312    6920.0539     81.21456 
   35300    1530.1365   -113.96303    1.3844996   -112.57853    -6377.578    4.3339158    4.3339158    4.3339158    -6377.578   -36778.976   -32311.268    49957.509   -91480.208   -909.74768   -4312.3165    81.403186 
   35400     1281.899   -113.73104    1.1598892   -112.57115    12308.626    4.3286593    4.3286593    4.3286593    12308.626   -16234.789   -2482.5935    55643.262   -27104.787    21728.241   -4557.1373    81.107348 
   35500    1951.6866    -114.3277     1.765927   -112.56178   -263.96916    4.3325051    4.3325051    4.3325051   -263.96916    23323.647   -6699.2905   -17416.264    36215.821   -11084.441   -19970.223    81.323722 
   35600    1725.0233   -114.12513    1.5608374   -112.56429   -11967.303    4.3341383    4.3341383    4.3341383   -11967.303   -18649.743   -33316.077    16063.911   -39811.358   -8620.1992    6182.3943    81.415728 
   35700    1450.0094   -113.88571     1.311999   -112.57371    7279.8035    4.3166427    4.3166427    4.3166427    7279.8035    22998.884    9614.4252   -10773.898   -27438.154    26446.221     34365.08    80.433749 
   35800     1579.977   -114.01713    1.4295964   -112.58753   -6138.8769     4.317583     4.317583     4.317583   -6138.8769    2188.0134   -4256.5585   -16348.086    39553.957    18807.048   -11505.745    80.486322 
   35900    1900.7838   -114.30721    1.7198691   -112.58734   -7767.9577    4.3300883    4.3300883    4.3300883   -7767.9577   -4058.7005   -31946.991    12701.819    40147.994   -9116.4755    -18367.17    81.187702 
   36000    1613.5829   -114.04618    1.4600037   -112.58618   -16273.337    4.3365216    4.3365216    4.3365216   -16273.337    10716.248   -8796.5716   -50739.687   -30343.213    28732.592    50392.344    81.550111 
   36100    1315.4586   -113.76788    1.1902546   -112.57763   -12011.201    4.3334436    4.3334436    4.3334436   -12011.201   -17502.395    -37391.97    18860.763    29191.597    32230.297    10257.211    81.376584 
   36200     1959.338   -114.33198    1.7728502   -112.55913   -13805.961    4.3313092    4.3313092    4.3313092   -13805.961   -35547.832    -39675.13    33805.079     74442.26    -17890.03   -15276.969    81.256398 
   36300    2026.4562   -114.38424    1.8335801   -112.55066   -14117.904    4.3326656    4.3326656    4.3326656   -14117.904   -20361.292     4770.809    -26763.23   -19817.187    31503.187    13582.404     81.33276 
   36400    1257.3807   -113.70391    1.1377045   -112.56621   -11145.151     4.329883     4.329883     4.329883   -11145.151   -21548.893   -18558.244    6671.6846    33590.568    35561.587    20054.998    81.176157 
   36500    1816.1286   -114.21406    1.6432713   -112.57078   -9333.0275    4.3323296    4.3323296    4.3323296   -9333.0275   -39840.253   -9216.3874    21057.558    43976.364   -33462.348    1064.5242     81.31384 
   36600    2106.2168   -114.47918    1.9057492   -112.57343   -3727.7781      4.32654      4.32654      4.32654   -3727.7781    2196.6668    19530.271   -32910.272   -18898.827    5223.5008   -36478.182     80.98828 
   36700    1645.8445   -114.07114    1.4891947   -112.58194    16756.464     4.316322     4.316322     4.316322    16756.464    8608.3255    9624.3107    32036.756    38804.373    23886.118    1108.4354    80.415824 
   36800    1859.5555   -114.26873    1.6825649   -112.58616   -8205.0506    4.3313564    4.3313564    4.3313564   -8205.0506   -2210.3484   -31381.441    8976.6378    57393.048   -7091.8035    4296.6414    81.259056 
   36900     2302.956   -114.65586     2.083763    -112.5721    1292.9219    4.3354057    4.3354057    4.3354057    1292.9219    37392.747    12374.126   -45888.107   -19409.273   -24802.558   -21997.365     81.48717 
   37000    934.62327   -113.42932   0.84566678   -112.58366   -8278.1469    4.3358486    4.3358486    4.3358486   -8278.1469   -10234.149   -17200.285    2599.9938     60673.11    13518.321   -12841.742    81.512148 
   37100    1801.6259   -114.20435     1.630149    -112.5742   -23876.007    4.3424434    4.3424434    4.3424434   -23876.007   -57964.392    -38192.73      24529.1    20751.074    20148.133    6805.4046    81.884649 
   37200    2250.2057   -114.58232    2.0360334   -112.54629   -18233.776     4.341327     4.341327     4.341327   -18233.776   -5789.9079   -33745.307   -15166.111   -10156.367    -11162.58   -18038.483     81.82151 
   37300    1232.6851   -113.66157    1.1153594   -112.54621   -16935.038    4.3470912    4.3470912    4.3470912   -16935.038   -71112.029   -16832.965    37139.879    72182.665    14676.899   -23399.474    82.147862 
   37400    2136.4872   -114.46804    1.9331385    -112.5349   -17409.255    4.3380185    4.3380185    4.3380185   -17409.255   -48226.218    27518.842   -31520.388   -20941.986    8459.7421    31606.098    81.634589 
   37500     1813.626   -114.18227    1.6410069   -112.54127    4261.4928    4.3125815    4.3125815    4.3125815    4261.4928    11899.151   -11378.693    12264.021   -3951.7287   -8661.4582   -32352.076    80.206938 
   37600    1564.6788   -113.98288    1.4157542   -112.56712    3962.6164    4.3199488    4.3199488    4.3199488    3962.6164   -10413.531    -25939.81    48241.191    39629.613     20352.56   -25525.957    80.618702 
   37700    1477.0046   -113.90935    1.3364248   -112.57293   -19373.738    4.3353108    4.3353108    4.3353108   -19373.738   -15107.914    3508.6142   -46521.915   -5220.5073    50213.537    36107.187    81.481817 
   37800    1795.9338   -114.19344    1.6249987   -112.56844    21461.463    4.3337046    4.3337046    4.3337046    21461.463    32939.578   -29243.068    60687.879   -8632.1672   -18960.267    2140.7994    81.391287 
   37900     1884.454   -114.27044    1.7050936   -112.56535   -8731.8488    4.3399215    4.3399215    4.3399215   -8731.8488   -18679.889   -8209.3766    693.71929    5582.5909      21280.1   -25435.811    81.742066 
   38000     1251.484   -113.70967     1.132369    -112.5773    5343.2703    4.3203989    4.3203989    4.3203989    5343.2703     5591.165    42542.133   -32103.487    1734.8089    74955.393    30666.646    80.643905 
   38100    2280.4881    -114.6242    2.0634336   -112.56076    28429.161    4.3145782    4.3145782    4.3145782    28429.161    51985.079    -21440.98    54743.384     461.9447    -28827.42    28906.489      80.3184 
   38200    1024.4983   -113.50252   0.92698761   -112.57554   -27811.673    4.3381067    4.3381067    4.3381067   -27811.673   -72746.165    34796.423   -45485.276   -8956.0619    58415.784   -15088.739    81.639568 
   38300     1384.995   -113.82093    1.2531726   -112.56776   -7712.4283    4.3311748    4.3311748    4.3311748   -7712.4283   -59944.682     33907.16     2900.237    2511.9591    60273.805   -15038.787    81.248832 
   38400    2715.9775   -115.00294    2.4574735   -112.54547    11147.872    4.3301535    4.3301535    4.3301535    11147.872   -8557.0042   -7297.8056    49298.427    1672.1481   -16282.167    12655.983    81.191369 
   38500    1035.0204   -113.51126   0.93650817   -112.57475   -16878.289    4.3310704    4.3310704    4.3310704   -16878.289    -73522.99    48528.198   -25640.074   -2044.9762    112458.83   -1935.2236    81.242957 
   38600    1522.8153   -113.94047    1.3778753   -112.56259    13378.484    4.3223174    4.3223174    4.3223174    13378.484   -27.858139    16965.852    23197.458   -361.79919   -6342.7636   -25807.995    80.751384 
   38700     1820.697   -114.21022    1.6474049   -112.56281   -12156.035    4.3308202    4.3308202    4.3308202   -12156.035   -313.10988   -14840.578   -21314.418    6050.0478   -19176.096    23068.194     81.22888 
   38800    1644.6108   -114.05023    1.4880784   -112.56215   -11566.878    4.3303484    4.3303484    4.3303484   -11566.878   -25081.318    1997.7966   -11617.112    11264.153    65676.152    18189.708    81.202336 
   38900    1462.8114   -113.88815    1.3235825   -112.56457    6767.9649    4.3265701    4.3265701    4.3265701    6767.9649    30686.331    8244.7031   -18627.139   -24008.207    2089.0122   -50661.171    80.989966 
   39000    1530.1078   -113.95247    1.3844737   -112.56799   -14304.021    4.3330647    4.3330647    4.3330647   -14304.021    6848.7997   -18486.961   -31273.903    4865.6642   -14459.595    29335.527    81.355241 
   39100    2056.3408    -114.4108    1.8606204   -112.55018    -9932.116    4.3321671    4.3321671    4.3321671    -9932.116   -840.49227   -23822.664    -5133.192    13710.237     11137.19    12810.945    81.304688 
   39200    1307.1237   -113.74271     1.182713      -112.56   -15740.033    4.3304972    4.3304972    4.3304972   -15740.033    20380.744    -36430.29   -31170.551   -40007.638    8583.6027   -80656.568    81.210707 
   39300    1724.7323   -114.11819     1.560574   -112.55762   -10327.704    4.3285855    4.3285855    4.3285855   -10327.704   -17386.312   -31686.614    18089.814    20712.455    5421.5104    34970.055    81.103202 
   39400     1798.593   -114.18874    1.6274048   -112.56133   -4256.8303    4.3242328    4.3242328    4.3242328   -4256.8303   -13002.029    4994.2528   -4762.7143    17749.447   -25745.084   -5470.1325    80.858782 
   39500    1579.4544   -114.00037    1.4291235   -112.57124    5237.4875    4.3247732    4.3247732    4.3247732    5237.4875    31275.619   -18118.971    2555.8155    -29423.23   -1924.5913     -63942.6    80.889102 
   39600    2043.8536   -114.41035    1.8493217   -112.56103   -8096.8591    4.3315548    4.3315548    4.3315548   -8096.8591     -17431.4   -9407.9264    2548.7491    16503.208    23984.842    27182.689    81.270223 
   39700    1021.1852   -113.49723   0.92398982   -112.57324   -13574.879    4.3387076    4.3387076    4.3387076   -13574.879   -52261.377    18463.928   -6927.1885    22129.436    -38667.28   -7085.5158    81.673495 
   39800      2638.35    -114.9244    2.3872345   -112.53717    3427.1027     4.333561     4.333561     4.333561    3427.1027    4775.2436    4716.6605    789.40415   -8556.1149   -16686.243   -17968.988    81.383198 
   39900    1586.1445   -113.99068    1.4351769   -112.55551   -15420.157     4.332472     4.332472     4.332472   -15420.157   -33728.108   -10881.132   -1651.2311    6152.7626    30951.591    37707.524     81.32186 
   40000     1112.424   -113.57846    1.0065446   -112.57192   -25004.525    4.3266287    4.3266287    4.3266287   -25004.525   -75852.775    49976.559   -49137.359    23362.735   -47333.773    1629.9096    80.993258 
   40100    2149.1821   -114.50405    1.9446251   -112.55942    12094.569    4.3205301    4.3205301    4.3205301    12094.569   -24787.125   -1829.3337    62900.166   -38289.995   -5761.3615   -11192.912    80.651252 
   40200    1776.8702   -114.18059    1.6077495   -112.57284   -12172.102    4.3256114    4.3256114    4.3256114   -12172.102   -21954.799   -18887.751    4326.2431   -20970.485    1369.8403   -5156.4285    80.936142 
   40300    1672.6178   -114.08958    1.5134198   -112.57616    5209.6219    4.3258451    4.3258451    4.3258451    5209.6219   -33675.407    48547.761    756.51185    18337.954   -35750.276    29268.167    80.949262 
   40400    1681.8577   -114.09407    1.5217802   -112.57229   -12117.559    4.3308115    4.3308115    4.3308115   -12117.559   -22949.722   -29858.604    16455.649   -25626.603     -6425.65   -20391.906    81.228387 
   40500    1447.9341   -113.88831    1.3101212   -112.57819   -4572.0818    4.3292682    4.3292682    4.3292682   -4572.0818    7428.6651   -31845.786    10700.875     -21683.7    14267.473    -67415.33    81.141584 
   40600    2512.6115   -114.83547    2.2734636     -112.562    16314.173    4.3194368    4.3194368    4.3194368    16314.173    10139.129    24603.558    14199.831    7178.0938   -28328.701    20492.488    80.590043 
   40700    1617.1411   -114.04814    1.4632233   -112.58492   -10790.923    4.3224729    4.3224729    4.3224729   -10790.923    17215.942   -18031.192   -31557.519   -8942.1674   -27174.769   -48450.493    80.760101 
   40800    1190.7265     -113.666    1.0773943    -112.5886    3898.2331    4.3283349    4.3283349    4.3283349    3898.2331    45019.806     -56775.9    23450.793   -33141.559    18068.191   -61169.174    81.089119 
   40900    2130.8706   -114.49035    1.9280565   -112.56229    -7728.316    4.3375056    4.3375056    4.3375056    -7728.316   -25690.934    5251.0627   -2745.0767   -5696.9583   -36591.536     38413.73    81.605635 
   41000    1344.6706   -113.78757    1.2166863   -112.57089   -16287.331    4.3333237    4.3333237    4.3333237   -16287.331    24338.381   -20537.752   -52662.622    18678.979   -29859.569   -41864.508    81.369825 
   41100     1770.289   -114.16603    1.6017947   -112.56423   -4815.8376    4.3161511    4.3161511    4.3161511   -4815.8376    834.81065   -32770.958    17488.635   -52806.243    16994.258    -42653.94     80.40627 
   41200    1803.2793   -114.20525     1.631645   -112.57361    3662.3126    4.3164019    4.3164019    4.3164019    3662.3126    -31177.89     27439.76    14725.068   -27287.683   -9903.5157    16531.845    80.420289 
   41300    1940.1462   -114.32715    1.7554851   -112.57166   -20524.046    4.3333078    4.3333078    4.3333078   -20524.046   -11054.178    4944.3096   -55462.271    17629.903   -29387.898   -19691.721    81.368929 
   41400    1526.0945   -113.94807    1.3808423   -112.56723   -8982.3267    4.3366041    4.3366041    4.3366041   -8982.3267   -17871.514   -15665.464    6589.9973   -44362.211   -2660.5122   -28411.768    81.554762 
   41500    1852.1269   -114.23054    1.6758434   -112.55469   -17395.667    4.3394389    4.3394389    4.3394389   -17395.667   -56750.438    22340.283   -17776.845   -20959.796     34416.51    8506.8459    81.714801 
   41600    1397.6345    -113.8248    1.2646091   -112.56019   -19404.134    4.3334819    4.3334819    4.3334819   -19404.134   -40751.374   -3862.0061   -13599.021    18717.359   -22658.143   -8064.8623    81.378741 
   41700    2109.7412   -114.46533    1.9089382    -112.5564    13717.538    4.3080447    4.3080447    4.3080447    13717.538    3915.9353   -5518.5909    42755.269    11348.919       -16865   -23837.321    79.954074 
   41800     1474.761   -113.91301    1.3343947   -112.57861    691.28831    4.3159646    4.3159646    4.3159646    691.28831   -34833.971    37653.127   -745.29102   -15805.111    60666.139    7669.3252    80.395851 
   41900    1153.3744   -113.62535    1.0435974   -112.58175   -38556.802    4.3409566    4.3409566    4.3409566   -38556.802   -81123.535   -4977.2493   -29569.621    10403.515   -15069.347    14667.815    81.800573 
   42000    2151.8104   -114.50102    1.9470033   -112.55402   -5797.9312    4.3410277    4.3410277    4.3410277   -5797.9312   -35319.744    -32466.33     50392.28    36364.563   -22475.569   -5029.7625    81.804588 
   42100    1682.7439   -114.08297     1.522582   -112.56039   -19575.081    4.3277689    4.3277689    4.3277689   -19575.081   -44616.262     29928.53    -44037.51     1489.446    71940.645    2154.5383    81.057308 
   42200    1486.4977   -113.91005    1.3450144   -112.56504    890.44054    4.3107623    4.3107623    4.3107623    890.44054   -18348.105    29645.867   -8626.4395    877.36005    7412.0778    19444.647    80.105479 
   42300    1857.3571   -114.25546    1.6805758   -112.57489    10804.037    4.3131793    4.3131793    4.3131793    10804.037   -32352.543   -4357.7517    69122.407      35451.1   -30737.094    798.49178    80.240297 
   42400    1468.3695   -113.91074    1.3286116   -112.58213   -18612.703    4.3408487    4.3408487    4.3408487   -18612.703    -32184.21   -16653.878   -7000.0213      4613.82    48139.017    -36596.02     81.79447 
   42500    1625.7962   -114.02452    1.4710546   -112.55347   -31983.501    4.3548771    4.3548771    4.3548771   -31983.501   -20311.892   -15884.284   -59754.328    -1538.434    14089.419    43698.801    82.590047 
   42600    2310.4041   -114.62431    2.0905022   -112.53381   -16942.379    4.3392605    4.3392605    4.3392605   -16942.379   -45679.543   -3764.8195   -1382.7748    34280.762   -9261.3539   -3413.6139    81.704725 
   42700     1226.702   -113.66363    1.1099457   -112.55369    10101.828    4.3066293    4.3066293    4.3066293    10101.828    48603.391     5613.875   -23911.783    17807.869    22566.217   -22875.126    79.875294 
   42800    925.65552   -113.42261   0.83755257   -112.58506   -1102.3284    4.3065088    4.3065088    4.3065088   -1102.3284    46707.479    16522.232   -66536.695   -18237.824    20034.549    59906.546     79.86859 
   42900    2617.9753   -114.94612     2.368799   -112.57732   -2790.6237    4.3357447    4.3357447    4.3357447   -2790.6237   -24073.289    23317.259   -7615.8408   -13848.179   -19756.833   -11283.542    81.506288 
   43000    1788.3903   -114.19877    1.6181732    -112.5806   -4389.0231    4.3406885    4.3406885    4.3406885   -4389.0231   -4573.1028    36503.202   -45097.169     7159.905   -8223.3153    27566.312    81.785418 
   43100    1333.9081   -113.77621    1.2069481   -112.56926    12653.571    4.3269192    4.3269192    4.3269192    12653.571    44760.775    23936.969   -30737.031    1667.8777    37538.543    48646.266    81.009574 
   43200    2198.7592   -114.54498    1.9894835    -112.5555   -8152.4499    4.3218759    4.3218759    4.3218759   -8152.4499   -41945.048    6883.4987    10604.199   -2052.7541   -32136.907   -18371.793     80.72664 
   43300    1475.6478    -113.9089    1.3351971    -112.5737   -1180.9175    4.3177584    4.3177584    4.3177584   -1180.9175    1213.4448     27484.29   -32240.487   -254.69702   -44474.314    20871.468    80.496132 
   43400    1214.7018    -113.6855    1.0990877   -112.58641    8027.8798    4.3264295    4.3264295    4.3264295    8027.8798    26758.256    23775.428   -26450.044    2911.2559    56775.589    49196.478    80.982075 
   43500    2347.7196   -114.69273     2.124266   -112.56846   -22300.095    4.3397946    4.3397946    4.3397946   -22300.095   -48963.697   -12269.579   -5667.0083     965.7914    11049.758   -24862.606    81.734897 
   43600     1886.428   -114.28525    1.7068797   -112.57837    12259.116    4.3173738    4.3173738    4.3173738    12259.116    21818.236    9316.2219      5642.89    3723.4061   -29287.476    20597.488    80.474623 
   43700    1154.3412   -113.62833    1.0444721   -112.58386    27524.339    4.3110073    4.3110073    4.3110073    27524.339    52680.116    41140.343   -11247.443    -1510.597    34764.326    67741.798    80.119137 
   43800    2227.2268   -114.58501    2.0152416   -112.56977   -16700.644     4.330069     4.330069     4.330069   -16700.644   -12395.017    2739.9848   -40446.901    -8216.906    28084.319   -47262.439    81.186619 
   43900    1596.8083   -114.02142    1.4448257   -112.57659    647.48401    4.3221805    4.3221805    4.3221805    647.48401     34670.61     26145.37   -58873.528    4805.5413   -15137.963    -3287.543    80.743708 
   44000    1590.4275   -114.02146    1.4390522   -112.58241   -7873.6758    4.3254388    4.3254388    4.3254388   -7873.6758    27603.302    7182.6124   -58406.942    2649.4089   -9736.9494    65502.451    80.926456 
   44100     2270.927     -114.617    2.0547825   -112.56221   -6637.0353    4.3288428    4.3288428    4.3288428   -6637.0353   -32686.997    31802.611    -19026.72   -28757.139    5778.7146   -27857.821    81.117665 
   44200    1032.4251    -113.5186   0.93415992   -112.58444    11336.042    4.3131105    4.3131105    4.3131105    11336.042     64713.18    19498.144   -50203.197   -18484.587    9659.3658    22330.559     80.23646 
   44300    1109.6277   -113.60516    1.0040145   -112.60115   -23019.405    4.3181731    4.3181731    4.3181731   -23019.405    49282.658   -21063.008   -97277.866    -3036.647   -16131.314    32116.718    80.519326 
   44400    2667.5366   -114.99396    2.4136432   -112.58031   -921.10696    4.3214249    4.3214249    4.3214249   -921.10696   -25548.312    58722.976   -35937.985    20110.578   -25832.993   -18204.671    80.701372 
   44500    1880.5911    -114.2882    1.7015984    -112.5866    -13866.58    4.3282855    4.3282855    4.3282855    -13866.58    20631.223   -1763.3716    -60467.59   -342.43888    11527.252    51506.722    81.086341 
   44600    1301.8901   -113.76274    1.1779776   -112.58476   -14503.952    4.3293798    4.3293798    4.3293798   -14503.952    67664.948    -22374.27   -88802.534   -18334.408   -1025.1371   -14971.493    81.147856 
   44700    1693.5531   -114.10395    1.5323624   -112.57159    20917.404     4.319502     4.319502     4.319502    20917.404     24981.04    65431.259   -27660.087    22995.166   -18617.124   -37894.673    80.593688 
   44800    2051.7556   -114.42597    1.8564716   -112.56949    12496.131    4.3250579    4.3250579    4.3250579    12496.131    18611.776    46952.111   -28075.494   -1617.5634     11473.83    27360.748    80.905079 
   44900    1217.2719   -113.67554    1.1014132   -112.57413   -8949.6098     4.336558     4.336558     4.336558   -8949.6098    83067.231   -9812.1842   -100103.88   -6681.4857    263.88419   -50710.966    81.552161 
   45000    1991.8712    -114.3531    1.8022869   -112.55081    20160.985    4.3333811    4.3333811    4.3333811    20160.985    54666.907    41428.691   -35612.643    9887.8445    -13199.02   -13031.184    81.373061 
   45100    2036.3935   -114.39251    1.8425717   -112.54993    11638.089    4.3298297    4.3298297    4.3298297    11638.089    10238.704    25942.749   -1267.1861    1476.9703     16392.47   -10219.658    81.173159 
   45200    701.88849   -113.21558   0.63508345    -112.5805   -7977.3072    4.3222977    4.3222977    4.3222977   -7977.3072     40116.75   -13563.005   -50485.666   -13438.991    8623.1248   -65403.707    80.750277 
   45300    2043.4295   -114.42339     1.848938   -112.57446    23438.436    4.3164736    4.3164736    4.3164736    23438.436    15779.896    41739.495    12795.917   -6491.8417   -9374.4265    36883.333    80.424297 
   45400    1870.0846   -114.26777    1.6920918   -112.57568   -2576.5657    4.3302342    4.3302342    4.3302342   -2576.5657   -13857.042     31489.52   -25362.175    5518.9149   -8375.9865   -17200.132    81.195909 
   45500    1045.8898   -113.52726    0.9463431   -112.58091    1297.8937    4.3336068    4.3336068    4.3336068    1297.8937     2209.354    56958.204   -55273.877   -3064.8043     9641.393   -68201.978    81.385775 
   45600    2698.4271   -114.99692    2.4415935   -112.55532     4892.803    4.3331795    4.3331795    4.3331795     4892.803   -36475.375    3254.4468    47899.337   -8242.7493      8479.26    24848.155    81.361702 
   45700    1964.7693   -114.36146    1.7777646    -112.5837   -2339.8458    4.3238341    4.3238341    4.3238341   -2339.8458   -24415.203   -5935.8858    23331.551    3548.6897   -5767.7123   -18587.515    80.836419 
   45800    526.97695   -113.08662   0.47681982    -112.6098    22189.054    4.3084199    4.3084199    4.3084199    22189.054    -344.0377    51682.739    15228.462    4828.7125    14101.623   -58308.195     79.97497 
   45900      2017.46   -114.43034    1.8254402    -112.6049    374.09675    4.3216352    4.3216352    4.3216352    374.09675   -33828.748    39684.473   -4733.4346     4246.749     2436.345    20633.201    80.713155 
   46000    1988.2131   -114.39212     1.798977   -112.59314   -2817.5306    4.3320379    4.3320379    4.3320379   -2817.5306    11707.468    598.80067   -20758.861   -5612.3768   -5515.7494    15206.983    81.297417 
   46100    1276.8899   -113.74861    1.1553568   -112.59325   -10685.007    4.3345082    4.3345082    4.3345082   -10685.007   -1248.7868    48973.599   -79779.834    6972.9923    22993.846   -45295.174    81.436572 
   46200    2250.2403   -114.60732    2.0360648   -112.57126    10126.329    4.3245365    4.3245365    4.3245365    10126.329   -1490.4666    64860.334   -32990.882    1843.6776    23346.674   -1614.5147     80.87582 
   46300    1904.7883   -114.29819    1.7234925    -112.5747    35417.578    4.3104268    4.3104268    4.3104268    35417.578    50187.691    70593.759   -14528.716   -17792.914   -10366.907    11108.876    80.086776 
   46400    765.35221   -113.29715   0.69250676   -112.60464   -20708.196    4.3230242    4.3230242    4.3230242   -20708.196    34937.065   -19186.656   -77874.997    4440.3884    11428.766   -27574.865    80.791005 
   46500     2075.761   -114.46108    1.8781921   -112.58289    11654.659    4.3274725    4.3274725    4.3274725    11654.659    18511.886    15122.722    1329.3693    14359.971    10547.013    2081.6047    81.040656 
   46600    1883.9503    -114.2821    1.7046378   -112.57746    4784.7215    4.3373521    4.3373521    4.3373521    4784.7215    2943.2697    42854.847   -31443.952    3994.1176   -33643.896   -6665.4674     81.59697 
   46700    1273.0602   -113.71585    1.1518916   -112.56396   -26377.434    4.3464722    4.3464722    4.3464722   -26377.434    45644.747   -36906.625   -87870.424    1295.7049   -4747.5305   -29256.617    82.112775 
   46800    2192.8999   -114.51777    1.9841819   -112.53359    11461.712     4.324478     4.324478     4.324478    11461.712    193.60578    27311.671    6879.8604    15182.267   -307.39908     15547.65    80.872536 
   46900    1305.6436   -113.73493    1.1813738   -112.55356   -1103.1398    4.3255587    4.3255587    4.3255587   -1103.1398   -30663.156    44334.993   -16981.257    15149.929   -40852.042   -17428.695    80.933183 
   47000    1339.2514   -113.78212    1.2117828   -112.57033   -34374.004     4.334885     4.334885     4.334885   -34374.004   -8280.0933    -32281.31    -62560.61   -1553.0045    16420.293   -23842.989     81.45781 
   47100    2066.2837   -114.44338    1.8696169   -112.57376    12979.372    4.3153499    4.3153499    4.3153499    12979.372    35209.065    23250.313   -19521.263    -1745.987    7704.5553    25073.309    80.361503 
   47200     1754.453   -114.17915     1.587466   -112.59168    5248.9475    4.3146148    4.3146148    4.3146148    5248.9475    -10488.65    55792.844   -29557.352    4758.2934   -80290.964    432.52081    80.320441 
   47300    2113.6463   -114.50032    1.9124716   -112.58785   -5712.9558    4.3288222    4.3288222    4.3288222   -5712.9558    3181.7684    972.78681   -21293.423   -5069.0106    3296.8258   -32167.835    81.116507 
   47400    1194.2978   -113.67781    1.0806258   -112.59718    1129.7807    4.3316732    4.3316732    4.3316732    1129.7807    8099.8204    42278.587   -46989.066    -134.9651    3768.3956    4464.6639    81.276886 
   47500    946.82062   -113.45999   0.85670319   -112.60329   -12134.016    4.3312753    4.3312753    4.3312753   -12134.016    2119.5296    34081.718   -72603.295   -3817.5606   -61410.114    35297.174    81.254491 
   47600    2396.4067   -114.75563    2.1683192   -112.58731    8897.7427    4.3173937    4.3173937    4.3173937    8897.7427    20714.289     18030.61   -12051.671    2897.6602    6499.4231   -3172.4165    80.475737 
   47700    2027.6507   -114.42965     1.834661   -112.59499    18145.608    4.3097859    4.3097859    4.3097859    18145.608   -27506.992    68451.869    13491.947    21450.792   -16771.116   -3816.6171    80.051058 
   47800    1167.9256   -113.66668    1.0567636   -112.60992   -13881.167    4.3268864    4.3268864    4.3268864   -13881.167   -37534.546    27195.479   -31304.435   -18605.623   -60046.877    22513.473    81.007733 
   47900    1935.3665   -114.33871    1.7511603   -112.58755   -7113.5644     4.335707     4.335707     4.335707   -7113.5644    14184.951   -679.94434     -34845.7   -1112.9546    3637.1633   -3698.2418    81.504161 
   48000     2075.501   -114.44442    1.8779569   -112.56646   -7647.8286    4.3371836    4.3371836    4.3371836   -7647.8286   -29644.589    43269.869   -36568.766    7774.7878    -21498.84   -10485.485     81.58746 
   48100    1249.2513   -113.70198    1.1303488   -112.57163   -17497.125    4.3321666    4.3321666    4.3321666   -17497.125   -71720.106    56128.515   -36899.783   -18035.637   -76160.623    4948.9721    81.304662 
   48200    1921.1294   -114.29957    1.7382782    -112.5613    12559.152    4.3177583    4.3177583    4.3177583    12559.152    15088.222    15273.152    7316.0804   -2136.7115    26330.515   -5352.6951    80.496127 
   48300    1382.9678   -113.83441    1.2513384   -112.58307      -3112.6    4.3181929    4.3181929    4.3181929      -3112.6    9689.1054    37067.371   -56094.276    1975.0081   -37249.176   -16900.501    80.520437 
   48400      1066.06   -113.56801    0.9645935   -112.60342   -14961.112    4.3294625    4.3294625    4.3294625   -14961.112   -39352.873    64242.489   -69772.951   -929.12423    -81989.08    12472.163     81.15251 
   48500    2414.2171   -114.76117    2.1844343   -112.57674    14198.855    4.3284929    4.3284929    4.3284929    14198.855   -383.01454    19896.916    23082.663   -23715.719    36184.038   -158.84568    81.097998 
   48600    1664.9365   -114.09144    1.5064695   -112.58497   -1526.0382    4.3251086    4.3251086    4.3251086   -1526.0382   -10185.611    43167.318   -37559.821   -3111.4455   -66212.875   -6522.1718    80.907922 
   48700    1524.1503    -113.9608    1.3790832   -112.58171    -6912.516    4.3224642    4.3224642    4.3224642    -6912.516   -26252.053    29026.052   -23511.547    7263.3463   -66840.826   -7149.4231    80.759612 
   48800     1985.027   -114.36955    1.7960941   -112.57346    7523.5168    4.3145654    4.3145654    4.3145654    7523.5168   -12444.004   -7850.0734    42864.627   -33654.918    46594.607   -1111.2183    80.317683 
   48900    1356.0508   -113.81225    1.2269833   -112.58527   -7554.4107    4.3239937    4.3239937    4.3239937   -7554.4107   -31570.114    42285.736   -33378.853   -17058.662   -29309.702     16236.12    80.845374 
   49000    1445.0147   -113.89028    1.3074796    -112.5828    -18891.87    4.3284283    4.3284283    4.3284283    -18891.87   -35884.828   -14426.078   -6364.7035    26544.131   -47409.416   -21978.289    81.094365 
   49100    1994.4715   -114.37554    1.8046397    -112.5709    1921.2678    4.3191163    4.3191163    4.3191163    1921.2678   -18986.453   -49089.129    73839.386    21082.554    17914.132   -20848.492    80.572102 
   49200    1956.4906   -114.34247    1.7702738   -112.57219   -14250.414    4.3234304    4.3234304    4.3234304   -14250.414   -48288.067    22069.357   -16532.533   -18138.309   -2284.4062    12889.407    80.813777 
   49300    978.61884   -113.46897   0.88547489    -112.5835   -12399.813    4.3282641    4.3282641    4.3282641   -12399.813    -81872.41    10329.331     34343.64    33968.389   -23648.422   -4739.6989    81.085136 
   49400    2041.3952   -114.42285    1.8470973   -112.57575   -2561.3837    4.3261796    4.3261796    4.3261796   -2561.3837    -62486.93   -14477.528    69280.308    56067.377   -5056.5991   -6805.1963    80.968043 
   49500    2247.9115   -114.60755    2.0339575   -112.57359   -5353.3598    4.3216024    4.3216024    4.3216024   -5353.3598   -30102.973    21253.205    -7210.311   -26834.904    7341.6094    5875.9625    80.711317 
   49600    1286.2359   -113.75326    1.1638133   -112.58945    2573.0089    4.3143148    4.3143148    4.3143148    2573.0089   -67588.409    52913.156     22394.28    26271.548   -29820.569    8645.1076    80.303689 
   49700    1962.1256   -114.36093    1.7753725   -112.58556   -7936.1175    4.3194284    4.3194284    4.3194284   -7936.1175   -55998.031   -4734.3095    36923.988      22740.7   -6400.9395    -6939.642    80.589569 
   49800    1299.3999    -113.7611    1.1757243   -112.58537   -25834.681     4.333824     4.333824     4.333824   -25834.681   -42361.325   -63766.501    28623.784   -66822.756    2452.7555    9308.2035    81.398017 
   49900     1666.258   -114.07343    1.5076652   -112.56577   -13491.174    4.3343127    4.3343127    4.3343127   -13491.174   -33448.833    27364.539   -34389.229    9616.8896   -30084.569    19898.987    81.425555 
   50000    2265.5976   -114.60407    2.0499603   -112.55411    2859.1377    4.3260721    4.3260721    4.3260721    2859.1377   -24453.217     16707.96     16322.67     -19049.6   -12115.681    -9309.359    80.962008 
   50100    1821.2823   -114.20893    1.6479345   -112.56099    12285.893    4.3191405    4.3191405    4.3191405    12285.893   -15753.389    36932.531    15678.539   -53425.624    9992.9862    4638.1479    80.573455 
   50200    760.04193   -113.27293   0.68770191   -112.58523   -4402.1871    4.3214558    4.3214558    4.3214558   -4402.1871    2255.7051    31389.105   -46851.371    7875.2016   -35672.904    34852.129    80.703101 
   50300    2084.2183   -114.46465    1.8858445    -112.5788   -6482.8655     4.328928     4.328928     4.328928   -6482.8655   -12189.904   -15703.427    8444.7338    36994.836   -10507.159   -10357.856    81.122453 
   50400    2152.2182   -114.51479    1.9473723   -112.56742   -3386.0826    4.3316339    4.3316339    4.3316339   -3386.0826   -28021.473    41360.617   -23497.391   -3971.0901    7983.4577    10160.092    81.274674 
   50500     931.8741   -113.42079   0.84317927   -112.57762   -24311.949     4.333957     4.333957     4.333957   -24311.949   -26650.326    10664.067   -56949.588    2354.9659    -29591.59    47882.434     81.40551 
   50600    2154.2662   -114.49979    1.9492254   -112.55056    6545.9278    4.3256735    4.3256735    4.3256735    6545.9278   -42626.311    12268.857    49995.238     31038.75    1736.0718   -14259.202    80.939629 
   50700    1747.7577   -114.13374    1.5814079   -112.55234   -5387.2495    4.3271873    4.3271873    4.3271873   -5387.2495   -48694.933    20976.724     11556.46   -16102.266   -13949.618    18146.948    81.024636 
   50800    869.71834   -113.36161   0.78693943   -112.57467   -6050.4019     4.337302     4.337302     4.337302   -6050.4019    -45844.64    80649.901   -52956.467   -7491.1974   -29819.584    39820.105    81.594143 
   50900    3066.3187   -115.30442    2.7744696   -112.52995    1438.5593    4.3420176    4.3420176    4.3420176    1438.5593   -38513.587    32506.699    10322.566    1507.6093     6296.285   -8365.7015    81.860564 
   51000    1210.6834    -113.6584    1.0954518   -112.56295   -24262.695    4.3360479    4.3360479    4.3360479   -24262.695   -15419.967   -6604.5482   -50763.571   -13865.703   -1446.1628    3435.5951    81.523385 
   51100    1037.6988   -113.50758   0.93893172   -112.56865   -14677.107    4.3211295    4.3211295    4.3211295   -14677.107   -18665.479   -15403.381   -9962.4619     5562.765    -23514.21    46609.608    80.684824 
   51200    2034.6656   -114.40902    1.8410082   -112.56801    17052.348    4.3128451    4.3128451    4.3128451    17052.348    -50857.43    57397.505    44616.969    49315.739    6488.1373   -11734.015    80.221651 
   51300    1837.1945   -114.24636    1.6623322   -112.58403    9329.7501    4.3173042    4.3173042    4.3173042    9329.7501   -18123.631    45212.554      900.327    5397.2643   -5524.0935   -1035.1763    80.470732 
   51400    1195.8996   -113.68009    1.0820751   -112.59802     16791.64     4.329584     4.329584     4.329584     16791.64    7773.4655    61228.557   -18627.103    1905.4596   -25964.096    55767.298     81.15934 
   51500    2638.8777   -114.94842     2.387712   -112.56071   -7453.0966     4.346424     4.346424     4.346424   -7453.0966   -36095.734    154.68841    13581.756    26441.031    12056.906   -4827.9841     82.11004 
   51600    1242.9298   -113.70395     1.124629   -112.57932    2742.8138    4.3338707    4.3338707    4.3338707    2742.8138   -24001.288    18361.687    13868.042   -2046.2585   -6711.2425    20645.573    81.400643 
   51700    847.86284   -113.34046   0.76716412    -112.5733    19696.912    4.3199912    4.3199912    4.3199912    19696.912   -5976.1989    69889.851   -4822.9152   -11826.139   -44060.335    57877.186    80.621076 
   51800     2723.146   -115.00784    2.4639598   -112.54388    5175.4784      4.33674      4.33674      4.33674    5175.4784   -33362.966    15163.013    33726.388    2961.3684    15227.486   -17375.726     81.56243 
   51900    1451.2859   -113.87702     1.313154   -112.56386   -21252.076    4.3433858    4.3433858    4.3433858   -21252.076   -22589.828    4715.3202   -45881.721   -7812.5735    13589.035    12759.226    81.937976 
   52000    1041.5405   -113.51702   0.94240771   -112.57461   -7456.5421    4.3194424    4.3194424    4.3194424   -7456.5421   -16643.622    2395.9787   -8121.9832   -1346.7705   -43746.859    48947.484    80.590355 
   52100    2129.9519   -114.49196    1.9272252   -112.56474    18489.961    4.3074776    4.3074776    4.3074776    18489.961   -21880.647    16766.109    60584.422     7953.078    2766.5961   -27291.237    79.922505 
   52200    1662.8448   -114.08176    1.5045769   -112.57718   -11237.517     4.327487     4.327487     4.327487   -11237.517    14797.946   -10811.927   -37698.571   -2327.8266    674.27535    41449.845    81.041473 
   52300    1127.0876   -113.59479    1.0198126   -112.57498   -6067.5374    4.3422324    4.3422324    4.3422324   -6067.5374    21517.218    15214.398   -54934.228    3420.8043   -50014.855    52103.341    81.872713 
   52400    2625.8232   -114.91259       2.3759   -112.53669    10743.258    4.3408087    4.3408087    4.3408087    10743.258   -10844.225    30854.477    12219.523   -23834.173    9821.7214   -23713.309    81.792209 
   52500    1122.7166   -113.56806    1.0158576    -112.5522   -8387.2322    4.3313051    4.3313051    4.3313051   -8387.2322    4787.4884    17826.676   -47775.861    924.59157   -1649.3127     65421.69    81.256164 
   52600    1577.2237   -113.98694    1.4271052   -112.55983    11545.706    4.3172197    4.3172197    4.3172197    11545.706    20827.742     34891.96   -21082.585    4066.0642   -49739.483    22649.324    80.466008 
   52700    2641.4673   -114.93156    2.3900551    -112.5415    21831.292    4.3247131    4.3247131    4.3247131    21831.292    22474.946    33550.166    9468.7637    -199.8226    22284.174   -14904.931    80.885731 
   52800    979.19062    -113.4506   0.88599225   -112.56461   -21655.957    4.3465946    4.3465946    4.3465946   -21655.957   -7813.6659   -13575.327   -43578.878   -7212.8628    5948.8011    62408.089     82.11971 
   52900    1943.7117   -114.30004    1.7587112   -112.54133   -11017.515     4.344755     4.344755     4.344755   -11017.515   -40941.966    8485.1497   -595.72903   -6871.4899   -28066.888   -6699.5345    82.015491 
   53000    1836.2699   -114.20534    1.6614956   -112.54385     19491.08    4.3159243    4.3159243    4.3159243     19491.08    38509.978    21843.639   -1880.3769    20074.094    1809.8985    9606.6895    80.393596 
   53100    717.95564   -113.22582   0.64962135    -112.5762    16871.236    4.3036955    4.3036955    4.3036955    16871.236    69410.727    35933.622   -54730.643   -9446.5312    19259.242    65770.098    79.712168 
   53200    2707.1484   -115.01241    2.4494847   -112.56292    4613.9422    4.3247348    4.3247348    4.3247348    4613.9422   -10824.929    40958.617   -16291.861   -4997.6719   -1575.5907   -24066.277    80.886948 
   53300    1846.1881   -114.24128    1.6704698   -112.57081   -20488.976    4.3413668    4.3413668    4.3413668   -20488.976    -7975.213   -18558.273   -34933.443    7276.9191   -4723.8849    52496.358    81.823762 
   53400    1042.9201   -113.51758   0.94365605   -112.57392   -22339.604    4.3349544    4.3349544    4.3349544   -22339.604     21994.13    -31795.48   -57217.462    2357.7115    19762.408    46028.808    81.461725 
   53500    2465.5413   -114.77803    2.2308736   -112.54716    5566.1195    4.3154191    4.3154191    4.3154191    5566.1195   -31247.228    21379.974    26565.612   -20815.266   -2186.4551   -29477.253     80.36537 
   53600    1340.6442   -113.77884     1.213043    -112.5658    6905.3783    4.3110616    4.3110616    4.3110616    6905.3783   -379.10322   -2831.2184    23926.456    -39491.44   -10111.378    50523.682    80.122168 
   53700    1305.0808   -113.76239    1.1808645   -112.58152    5195.1569    4.3291534    4.3291534    4.3291534    5195.1569   -8049.5233    48468.252   -24833.258    13780.515    15420.059    37560.464    81.135129 
   53800    2385.5753   -114.69689    2.1585186   -112.53837   -744.26528    4.3539384    4.3539384    4.3539384   -744.26528   -37448.682    39021.335   -3805.4491   -21420.655    8217.5606   -12603.503    82.536649 
   53900    610.48824   -113.07857   0.55238259   -112.52619    6952.0576     4.358391     4.358391     4.358391    6952.0576    34009.294   -956.81553   -12196.306   -35190.992     8419.195    68464.908     82.79013 
   54000    2835.9688   -115.00343    2.5660442   -112.43739   -17676.196    4.3584652    4.3584652    4.3584652   -17676.196   -33291.912    11219.344    -30956.02    19048.912   -27694.219   -27852.668    82.794359 
   54100     647.8966   -113.03286   0.58623046   -112.44663   -10325.545     4.355433     4.355433     4.355433   -10325.545    39150.597   -68414.149   -1713.0834     -49270.4    5688.6939     65903.76    82.621678 
   54200      2366.29    -114.5716    2.1410689   -112.43053    4797.6201    4.3434035    4.3434035    4.3434035    4797.6201    45236.724   -16441.932   -14401.932    6574.6874     11117.38    13524.701    81.938978 
   54300     2010.213   -114.29492    1.8188829   -112.47604   -11708.001    4.3308327    4.3308327    4.3308327   -11708.001    4053.7486   -13719.163   -25458.588   -12825.169   -4187.6311     11959.21    81.229584 
   54400    295.55056    -112.8232   0.26742036   -112.55578   -24051.066    4.3170551    4.3170551    4.3170551   -24051.066     46765.07   -66439.377    -52478.89   -59939.318    12023.531    95553.539    80.456804 
   54500    2321.8726   -114.66402    2.1008792   -112.56315    33030.672    4.3069111    4.3069111    4.3069111    33030.672    64872.527    31703.776    2515.7147    13981.167   -4355.3282   -22897.586    79.890975 
   54600    1628.3836   -114.06092    1.4733957   -112.58753    10854.849    4.3282333    4.3282333    4.3282333    10854.849    69025.958   -40428.592    3967.1797   -3706.1153    6487.7606    42738.702    81.083405 
   54700    1102.3351   -113.56594   0.99741595   -112.56852   -14908.238    4.3486593    4.3486593    4.3486593   -14908.238     50686.22   -76232.128   -19178.807   -52646.067    9396.8457    48964.275    82.236788 
   54800    2385.3159   -114.67913    2.1582839   -112.52085    15200.292    4.3374534    4.3374534    4.3374534    15200.292    12394.198    5150.8916    28055.786    6328.7469     -5713.15   -28160.339    81.602688 
   54900    1265.8623   -113.68328    1.1453788    -112.5379    10914.882     4.316433     4.316433     4.316433    10914.882    55269.334    -35039.64    12514.954    2782.7967   -8568.5807    79437.943    80.422029 
   55000    2110.6764   -114.44215    1.9097843   -112.53237    24085.937    4.3150269    4.3150269    4.3150269    24085.937    13961.109    10894.931    47401.772   -32150.022   -6337.8868    1695.6297    80.343456 
   55100    1738.8394   -114.11642    1.5733384   -112.54309   -4825.0821     4.334606     4.334606     4.334606   -4825.0821    1710.2992   -38980.127    22794.581   -3134.7063    11268.959    8055.5123    81.442084 
   55200    1231.8032   -113.66094    1.1145614   -112.54638   -9688.7087    4.3467326    4.3467326    4.3467326   -9688.7087    23131.786   -41203.741   -10994.171    10435.699   -8646.1107    54387.695    82.127534 
   55300    2416.6152   -114.69691    2.1866042    -112.5103    14301.527    4.3426902    4.3426902    4.3426902    14301.527   -16255.271    48607.469    10552.383    4854.4946   -1550.2382   -17087.422    81.898612 
   55400    1087.9923   -113.50959   0.98443828   -112.52515    -3068.681      4.33246      4.33246      4.33246    -3068.681    49814.606    -3677.999    -55342.65   -11031.569    12963.334    43855.183    81.321181 
   55500    1987.6112    -114.3062    1.7984324   -112.50776    23811.559    4.3180005    4.3180005    4.3180005    23811.559    49903.668    24680.704   -3149.6943     4785.783   -1618.2982    11076.527    80.509673 
   55600    1475.8594   -113.86581    1.3353886   -112.53042    18057.398    4.3225895    4.3225895    4.3225895    18057.398      34393.7    39477.982   -19699.488    12960.616    -10121.38    34.347191    80.766636 
   55700     1442.459   -113.84401    1.3051672   -112.53884   -12689.577    4.3408624    4.3408624    4.3408624   -12689.577    29136.848   -1763.6349   -65441.945   -11479.503    2941.7866    44586.977    81.795247 
   55800    2144.8147   -114.45568    1.9406734     -112.515    19911.738    4.3346578    4.3346578    4.3346578    19911.738    23691.694    27363.475    8680.0432    5604.2609   -3680.4344   -1684.7146    81.445005 
   55900    951.56838   -113.39943   0.86099907   -112.53843    7768.0587    4.3262277    4.3262277    4.3262277    7768.0587    28793.265    33349.139   -38838.227    21102.781   -16363.822   -3772.9442    80.970743 
   56000    2742.3909   -114.99706    2.4813729   -112.51568    7382.5808     4.322561     4.322561     4.322561    7382.5808    17404.976     23259.23   -18516.463   -5636.2771    4402.1465   -209.85448    80.765034 
   56100    876.88458   -113.34306   0.79342359   -112.54964    34121.795     4.318603     4.318603     4.318603    34121.795   -2227.0712    66206.715    38385.742   -29525.276   -7152.0302    701.96123     80.54338 
   56200    1947.2187   -114.30444    1.7618844   -112.54256   -22984.533    4.3426261    4.3426261    4.3426261   -22984.533   -50216.607    14306.952   -33043.945     40922.47   -23338.733   -23498.804    81.894988 
   56300    2136.8351   -114.44894    1.9334533   -112.51549     5762.838    4.3360641    4.3360641    4.3360641     5762.838   -1036.3549    14927.865     3397.004   -47929.495    7483.5069    8587.3906    81.524299 
   56400    1302.0167   -113.69811    1.1780921   -112.52001    9500.2474    4.3226656    4.3226656    4.3226656    9500.2474   -26691.992    18323.492    36869.242   -13057.213   -4025.7286    1852.9525    80.770901 
   56500    2462.4573   -114.74611    2.2280831   -112.51802   -11758.136    4.3274048    4.3274048    4.3274048   -11758.136    -30816.34    1669.2198   -6127.2886    52736.669   -13040.063   -9872.3852    81.036851 
   56600    1404.7168   -113.81932    1.2710173    -112.5483    21644.492    4.3155054    4.3155054    4.3155054    21644.492    36477.465   -7809.9344    36265.945   -59149.326    18361.653     34585.17     80.37019 
   56700    1731.0239   -114.13306    1.5662668   -112.56679    7323.3763      4.32844      4.32844      4.32844    7323.3763       -15971    10990.536    26950.593   -15136.989   -2978.3206    6629.6333    81.095026 
   56800    2521.0701   -114.80843    2.2811172   -112.52731   -7919.0072    4.3532964    4.3532964    4.3532964   -7919.0072    251.66628   -27537.396    3528.7076    11765.784   -2810.9009    2088.7149    82.500148 
   56900    596.43493   -113.06591   0.53966686   -112.52625    11180.487    4.3484095    4.3484095    4.3484095    11180.487    3135.8898   -34629.672    65035.242   -76193.735    25236.454    34274.207    82.222621 
   57000    2849.0116   -115.04211    2.5778456   -112.46426    3189.5105    4.3403111    4.3403111    4.3403111    3189.5105   -6420.7098    1264.8859    14724.355     21528.05   -23596.916   -31401.121    81.764083 
   57100    1241.9884   -113.62391    1.1237772   -112.50013    4573.4594    4.3294002    4.3294002    4.3294002    4573.4594   -39949.198    -14927.43    68597.007   -49595.341    24705.605    26226.579    81.149005 
   57200    1282.0757   -113.69188     1.160049   -112.53183    233.28336    4.3210351    4.3210351    4.3210351    233.28336   -11494.478    -22259.21    34453.538   -29648.866    14898.668    27581.489    80.679532 
   57300    2992.7357   -115.23398    2.7078902   -112.52609    14511.688    4.3187501    4.3187501    4.3187501    14511.688    11051.945    28772.415    3710.7058    20188.976   -16790.197    -30324.96    80.551609 
   57400     967.3631   -113.45376   0.87529046   -112.57847   -4423.6417    4.3291207    4.3291207    4.3291207   -4423.6417   -11289.569   -17000.738    15019.382   -73518.083    13027.796    25332.902    81.133291 
   57500     1565.068   -113.98482    1.4161064   -112.56871   -6115.5731      4.33621      4.33621      4.33621   -6115.5731     -9627.53   -18193.247    9474.0579   -6512.1382    7732.9841    24264.854    81.532529 
   57600     2493.971   -114.78603    2.2565974   -112.52943     1130.558    4.3380794    4.3380794    4.3380794     1130.558   -2078.0566   -12485.693    17955.423    -8291.075   -7876.6783   -13478.386    81.638023 
   57700    644.14639   -113.11736   0.58283719   -112.53452    1264.2739     4.342894     4.342894     4.342894    1264.2739   -6150.3541   -41320.708    51263.884   -62684.917    22574.084    35978.513    81.910144 
   57800    2437.9548   -114.70363    2.2059127   -112.49772    3571.2042    4.3348001    4.3348001    4.3348001    3571.2042    31772.611    15509.996   -36568.995    30393.363    2904.7535    25825.591    81.453028 
   57900    1561.0758   -113.93494    1.4124942   -112.52245    13266.395    4.3144851    4.3144851    4.3144851    13266.395   -13540.383   -5461.4843    58801.052   -72459.072   -6838.5849   -16011.473    80.313199 
   58000    1609.0297   -114.00706    1.4558839   -112.55118    3218.0183    4.3117932    4.3117932    4.3117932    3218.0183    -3561.512    8054.0297     5161.537   -36524.608    24988.893    1796.8561    80.162967 
   58100    2288.7907   -114.62813    2.0709459   -112.55718    9368.2607    4.3166461    4.3166461    4.3166461    9368.2607   -14420.464    57458.267    -14933.02    22153.718    18987.784   -768.96145     80.43394 
   58200    1298.0689   -113.75763      1.17452   -112.58311    -3729.421    4.3215936    4.3215936    4.3215936    -3729.421   -55315.273   -19740.228    63867.237    -18135.64   -10461.709    1653.5875    80.710822 
   58300    1535.9942   -113.96924    1.3897998   -112.57944   -18554.121     4.329073     4.329073     4.329073   -18554.121   -51507.407    9886.7092   -14041.664    -21138.75    13354.932   -21858.515    81.130608 
   58400    2471.1066    -114.7964    2.2359092   -112.56049    4496.5771    4.3183024    4.3183024    4.3183024    4496.5771   -21759.923     69247.31   -33997.656    13199.189    19977.516    1207.0985    80.526561 
   58500    772.75934   -113.28757   0.69920889   -112.58836    3335.7214     4.308125     4.308125     4.308125    3335.7214   -56290.694   -25791.768    92089.626   -14079.584   -4431.4731    23961.489    79.958549 
   58600    1493.7698   -113.94415    1.3515943   -112.59256   -7637.2369    4.3154156    4.3154156    4.3154156   -7637.2369   -71172.177    8081.9752    40178.491   -3426.4395   -9547.1754   -15348.568    80.365174 
   58700    2560.2133   -114.88247    2.3165348   -112.56594     6233.837    4.3251285    4.3251285    4.3251285     6233.837     -6062.64    40614.057   -15849.906    7141.6459    794.69094   -15381.826    80.909039 
   58800      1363.67     -113.817    1.2338773   -112.58312   -13660.629    4.3238969    4.3238969    4.3238969   -13660.629   -58561.293   -29887.411    47466.818   -34005.008    3527.1426    17062.483    80.839944 
   58900    1375.2025   -113.81876    1.2443122   -112.57445    4793.4031    4.3158449    4.3158449    4.3158449    4793.4031   -51504.295     20519.55    45364.954    5914.0565   -1822.4546     -2609.63     80.38916 
   59000    1881.7738   -114.27179    1.7026684   -112.56912    2295.0218    4.3154196    4.3154196    4.3154196    2295.0218    22442.147    10712.962   -26270.044    17954.652    743.15849   -63482.891    80.365394 
   59100    1826.3408   -114.22403    1.6525115   -112.57152    13830.568    4.3112982    4.3112982    4.3112982    13830.568   -15327.157     46050.65    10768.211   -41922.618    9387.4399   -6768.4979    80.135359 
   59200      1696.25   -114.11404    1.5348026   -112.57924    1351.1817    4.3215265    4.3215265    4.3215265    1351.1817   -37347.032    22704.002    18696.576   -21615.446    8074.2534    4616.1944     80.70706 
   59300    1599.1065   -114.02572    1.4469051   -112.57882   -21065.319    4.3297455    4.3297455    4.3297455   -21065.319    18265.638   -37469.465   -43992.129    33765.093   -5712.2877   -69265.147    81.168422 
   59400    1931.5728   -114.31586    1.7477277   -112.56813    17161.804    4.3105574    4.3105574    4.3105574    17161.804    30418.536    42129.866   -21062.991   -13578.716    9065.1077    12955.529    80.094056 
   59500    1545.0825   -113.97676    1.3980231   -112.57874    9718.4665    4.3121594    4.3121594    4.3121594    9718.4665    12992.573    36905.354   -20742.527   -25710.824     10591.83    11080.349    80.183393 
   59600    2455.3684   -114.78732    2.2216689   -112.56565    803.45515    4.3237059    4.3237059    4.3237059    803.45515    9990.9704    18719.003   -26299.608     13414.12   -1973.1425   -33970.956    80.829229 
   59700    1531.3974    -113.9685    1.3856406   -112.58286    25150.995    4.3215279    4.3215279    4.3215279    25150.995    81315.336    19765.273   -25627.624    -7459.988     18096.45    50040.353    80.707143 
   59800    847.37241   -113.35256   0.76672036   -112.58584   -17046.954    4.3332956    4.3332956    4.3332956   -17046.954   -29121.423    32837.651   -54857.091   -13770.403    7128.8631    20314.784    81.368247 
   59900     2512.922   -114.81046    2.2737446   -112.53671   -10661.539    4.3320126    4.3320126    4.3320126   -10661.539    1981.8843   -7575.3698    -26391.13    9165.0194   -30370.138   -19792.563    81.295991 
   60000    1122.8646   -113.56102    1.0159915   -112.54503   -10803.847    4.3269751    4.3269751    4.3269751   -10803.847    5234.0265   -29357.751   -8287.8172   -10907.861    22184.654    33891.959    81.012717 
   60100    1778.9055   -114.14816     1.609591   -112.53857   -15401.188    4.3272071    4.3272071    4.3272071   -15401.188   -28918.236    4411.6446   -21696.972   -13740.168    37778.215    20985.327    81.025746 
   60200    2314.5324   -114.63148    2.0942375   -112.53724     5060.387    4.3158739    4.3158739    4.3158739     5060.387    28680.893   -26147.347    12647.615     10668.72   -15772.388   -51316.565    80.390781 
   60300    1051.3284   -113.52189   0.95126399   -112.57062   -12355.024      4.31903      4.31903      4.31903   -12355.024    15780.328   -47608.293   -5237.1059   -6682.8026    15933.959    23843.907    80.567271 
   60400    1829.1103   -114.22396    1.6550174   -112.56894   -8167.8032    4.3216102    4.3216102    4.3216102   -8167.8032   -37585.567    18880.063   -5797.9063   -1754.0648    46078.962    28052.722    80.711754 
   60500    1916.0253    -114.2984    1.7336599   -112.56474    18889.427    4.3185794    4.3185794    4.3185794    18889.427    5153.4461    10426.322    41088.514    9231.4899    -37043.56    -31782.73    80.542057 
   60600    1426.7558   -113.86691    1.2909586   -112.57595    -8585.683    4.3275542    4.3275542    4.3275542    -8585.683     29307.48    -65830.03    10765.501   -7792.0721    1236.2338    34852.468    81.045247 
   60700    2562.9005   -114.86915    2.3189662   -112.55019    13281.821    4.3226685    4.3226685    4.3226685    13281.821    7945.6323    10735.312    21164.519   -6000.3512    944.01247    14704.506    80.771062 
   60800    1359.8421   -113.79504    1.2304137   -112.56463    20941.385     4.320192     4.320192     4.320192    20941.385    14112.612    34122.539    14589.003    12721.052   -50106.693   -14712.091     80.63232 
   60900    1502.0105   -113.91735    1.3590506    -112.5583   -8979.1424    4.3349102    4.3349102    4.3349102   -8979.1424    17114.747   -38373.994   -5678.1793    1794.5888    5670.3975    25012.907    81.459231 
   61000     2291.182   -114.60496    2.0731096   -112.53185    13695.284    4.3264792    4.3264792    4.3264792    13695.284    22204.888    43825.955    -24944.99   -11622.987    26707.693    5357.3235    80.984867 
   61100    1160.4081   -113.60003    1.0499616   -112.55006    7507.9273    4.3191121    4.3191121    4.3191121    7507.9273    25307.938    18023.686   -20807.841    17345.057   -35343.333   -8850.8577    80.571864 
   61200    2265.5483   -114.58711    2.0499158    -112.5372   -1985.9622    4.3213424    4.3213424    4.3213424   -1985.9622     16712.42   -4994.9617   -17675.345    5485.8218   -9534.2764   -14395.458     80.69675 
   61300    1378.7916     -113.803    1.2475596   -112.55544    13128.722    4.3158085    4.3158085    4.3158085    13128.722    3274.4226    59977.974    -23866.23   -17925.757    86041.253   -857.60836    80.387125 
   61400     1929.796   -114.30058      1.74612   -112.55446   -1328.1951    4.3256665    4.3256665    4.3256665   -1328.1951   -19463.124     31436.04   -15957.501    4189.0058   -37429.216   -3688.3178    80.939235 
   61500    1639.9934   -114.03487    1.4839005   -112.55097   -634.13243    4.3283354    4.3283354    4.3283354   -634.13243   -6119.2248    27713.946   -23497.118    6467.5884    20412.595    -14500.14    81.089147 
   61600    1162.9183    -113.6119    1.0522329   -112.55966    12376.954    4.3215668    4.3215668    4.3215668    12376.954   -4495.4385    43351.901   -1725.6005   -11619.707    87205.382   -89.935953     80.70932 
   61700    2682.9594   -114.96259    2.4275981   -112.53499    12514.719    4.3231398    4.3231398    4.3231398    12514.719   -1354.6379    998.46352    37900.332    2977.3309   -38155.867    13200.504    80.797482 
   61800    919.16852   -113.39387     0.831683   -112.56218    12693.701    4.3203249    4.3203249    4.3203249    12693.701   -22123.808    87362.631   -27157.721    14680.065    91588.998    -13217.13    80.639761 
   61900    1947.4623   -114.30875    1.7621048   -112.54665    1513.4276    4.3280343    4.3280343    4.3280343    1513.4276   -1437.0233    14579.757   -8602.4508    6204.7399    11644.403   -20750.146    81.072222 
   62000    2014.6365   -114.36315    1.8228854   -112.54026   -3020.6348    4.3288777    4.3288777    4.3288777   -3020.6348   -4339.0611    4356.9807   -9079.8239   -5772.8079    17287.211    21019.402    81.119629 
   62100     1211.544   -113.64914    1.0962305   -112.55291     14152.74    4.3175233    4.3175233    4.3175233     14152.74   -26076.992    65552.565    2982.6464    1094.1867    95425.615    11053.065    80.482985 
   62200    2556.4626   -114.84073    2.3131411   -112.52759    13191.789    4.3274354    4.3274354    4.3274354    13191.789    4969.7349   -12189.139    46794.772   -2320.9238   -34170.445   -28267.842     81.03857 
   62300    1196.2441     -113.636    1.0823868   -112.55362   -16865.181    4.3330977    4.3330977    4.3330977   -16865.181   -8027.8662    505.63541   -43073.314   -3494.9728     60447.91    30845.438    81.357096 
   62400    1611.8461   -114.00328    1.4584322   -112.54485    14068.749    4.3215975    4.3215975    4.3215975    14068.749    15504.906     29700.07   -2998.7298   -456.82392    47335.358    16512.202    80.711041 
   62500    2355.5373   -114.66588    2.1313396   -112.53454   -3126.0274    4.3229155    4.3229155    4.3229155   -3126.0274     3353.814    4412.2242    -17144.12   -2821.8339   -39768.302   -32005.756    80.784908 
   62600    1118.9104    -113.5702    1.0124136   -112.55779   -4174.7439     4.321156     4.321156     4.321156   -4174.7439    967.14143    36064.435   -49555.808   -243.53811    79798.696    29029.343    80.686306 
   62700    1923.0452   -114.28599    1.7400117   -112.54598    6050.4569    4.3316053    4.3316053    4.3316053    6050.4569     17422.33    26.077639    702.96351   -4064.5273    7074.7959    12690.352    81.273062 
   62800    1626.9347   -114.00712    1.4720847   -112.53504   -8101.7592    4.3355636    4.3355636    4.3355636   -8101.7592    855.89305    21185.552   -46346.723    8653.7291   -18060.967   -22670.121    81.496072 
   62900    1021.4709   -113.46079   0.92424833   -112.53654    27587.515    4.3194204    4.3194204    4.3194204    27587.515    32282.835     70622.27   -20142.561    708.27062     79974.29    15689.459    80.589124 
   63000    2812.2621   -115.05028    2.5445938   -112.50569    14209.911    4.3275818    4.3275818    4.3275818    14209.911    37702.892   -20247.665    25174.506     3256.632   -28905.904   -2205.8796    81.046799 
   63100     678.7712   -113.16042   0.61416645   -112.54625   -10319.336    4.3298977    4.3298977    4.3298977   -10319.336    5730.6414    16848.469    -53537.12    13079.086    54097.723   -32933.364    81.176983 
   63200    1820.6322   -114.19265    1.6473462   -112.54531    18419.723    4.3241271    4.3241271    4.3241271    18419.723    39283.708    38448.793   -22473.332   -14361.665    26874.566    5445.0517    80.852853 
   63300     2390.232   -114.69632    2.1627321   -112.53359    9009.4304     4.327847     4.327847     4.327847    9009.4304    27473.572    2149.7801   -2595.0612    2737.7961   -10682.863    10510.552    81.061701 
   63400    961.26925   -113.42626   0.86977662   -112.55649     6424.798    4.3216988    4.3216988    4.3216988     6424.798    28037.929    37677.041   -46440.576    13992.967    81507.588   -7599.3423    80.716718 
   63500    2659.8282   -114.93818    2.4066684   -112.53152    14820.601    4.3226524    4.3226524    4.3226524    14820.601    12042.445    11410.759      21008.6   -13382.534   -5738.7236    786.71301    80.770162 
   63600    1574.2033   -113.97381    1.4243722   -112.54943    953.35578    4.3269138    4.3269138    4.3269138    953.35578   -7341.0947    18470.992   -8269.8301   -18742.632    28323.734    16264.982    81.009274 
   63700    1342.2868   -113.76041    1.2145293   -112.54588    13098.861    4.3324428    4.3324428    4.3324428    13098.861    12524.008    41639.921   -14867.347    9455.3305    64909.496   -6681.1805    81.320215 
   63800    2209.9527   -114.52215    1.9996116   -112.52254   -14446.733    4.3361915    4.3361915    4.3361915   -14446.733   -24947.185   -22329.922    3936.9086   -14561.872   -42486.159   -12833.328    81.531484 
   63900     809.9773   -113.28236   0.73288448   -112.54948   -5539.5244    4.3138785    4.3138785    4.3138785   -5539.5244   -18463.177    42727.795   -40883.191   -23467.402     35857.74    16863.088    80.279328 
   64000    2347.9305   -114.65698    2.1244569   -112.53253    23519.507    4.3105307    4.3105307    4.3105307    23519.507      34412.1    55626.041   -19479.619     17163.41    34423.643    10607.542     80.09257 
   64100    1138.0854    -113.5838    1.0297636   -112.55404    -29111.64    4.3300609    4.3300609    4.3300609    -29111.64   -59518.342   -25225.288   -2591.2903   -10051.885   -40434.559   -6930.8826    81.186161 
   64200     1209.793   -113.65702    1.0946461   -112.56238   -7365.4581    4.3289328    4.3289328    4.3289328   -7365.4581   -62495.142     65886.26   -25487.493   -23886.495     696.6935    9904.3622    81.122727 
   64300    2828.8876   -115.08848     2.559637   -112.52885    6289.8809    4.3272216    4.3272216    4.3272216    6289.8809   -14234.868    43729.669   -10625.158    10285.453    2820.2797   -3685.6431    81.026559 
   64400    350.51135   -112.88307   0.31715003   -112.56592     1335.522    4.3220576    4.3220576    4.3220576     1335.522   -74555.814    47263.633    31298.747   -19586.517   -32777.367   -13046.664    80.736822 
   64500    2250.0594    -114.5693    2.0359011    -112.5334    11554.634    4.3260777    4.3260777    4.3260777    11554.634   -17062.423    33608.847    18117.478   -1556.2405      7677.62    731.73248    80.962321 
   64600    1769.1551    -114.1348    1.6007687   -112.53403    2431.8521    4.3294664    4.3294664    4.3294664    2431.8521    3815.8151    55386.126   -51906.385    2000.4837     9769.573     6630.775    81.152728 
   64700    1330.3535   -113.74297    1.2037318   -112.53924    107.64866    4.3310536    4.3310536    4.3310536    107.64866    -26518.43    29765.344   -2923.9685   -36138.133    -27732.02   -5613.3821    81.242011 
   64800     2619.041   -114.88525    2.3697633   -112.51549    553.15844    4.3322653    4.3322653    4.3322653    553.15844    30488.944    -5486.961   -23342.507     5927.687     15761.99    6108.0852    81.310217 
   64900     1131.771    -113.5662    1.0240502   -112.54215    2447.3893    4.3219769    4.3219769    4.3219769    2447.3893    34165.098     20867.84    -47690.77   -2953.6712    27692.837    18399.042      80.7323 
   65000    2008.9381   -114.36073    1.8177294     -112.543    7711.2937    4.3200744    4.3200744    4.3200744    7711.2937    10607.128    1354.7452    11172.008   -32073.525   -27060.859   -1430.8379    80.625736 
   65100    1740.7733   -114.13111    1.5750883   -112.55602    6500.1471    4.3203249    4.3203249    4.3203249    6500.1471    60120.396   -25195.279   -15424.676    12143.389    15986.751   -27324.839    80.639758 
   65200    959.44418   -113.44454   0.86812526   -112.57641    6437.3939    4.3234235    4.3234235    4.3234235    6437.3939    42271.349   -16414.418   -6544.7502    20400.375    35620.825    16069.917    80.813392 
   65300    2685.8978   -114.97332    2.4302567   -112.54307    6557.6636    4.3325238    4.3325238    4.3325238    6557.6636    13510.509   -13479.433    19641.914     2797.866   -9274.2412   -8738.6517    81.324775 
   65400    1100.2957   -113.55608   0.99557063   -112.56051    24966.317    4.3283812    4.3283812    4.3283812    24966.317    64756.508   -5210.5401    15352.982   -4685.7597    28290.915   -50282.044    81.091721 
   65500    1645.0947   -114.02368    1.4885162   -112.53517     2596.384    4.3327897    4.3327897    4.3327897     2596.384    5258.2942    1013.9316    1516.9262    14436.973    50535.071     26627.44    81.339751 
   65600    2040.0347   -114.36795    1.8458662   -112.52209   -795.12294    4.3282221    4.3282221    4.3282221   -795.12294    11738.002   -10451.899   -3671.4714   -12974.668   -29821.424    -26245.08    81.082775 
   65700    849.27804    -113.3113   0.76844462   -112.54285    7445.1976    4.3201462    4.3201462    4.3201462    7445.1976     49376.67    3013.2954   -30054.373    395.82139    24530.507    -56365.57    80.629756 
   65800    2325.5507   -114.63767    2.1042071   -112.53346    6994.2645    4.3280815    4.3280815    4.3280815    6994.2645   -6479.9824    13605.369    13857.407    2409.9854    35440.103    17682.705    81.074873 
   65900    1377.0843   -113.80071    1.2460148   -112.55469     15628.49    4.3233212    4.3233212    4.3233212     15628.49    36849.581    1924.6529    8111.2356    -11855.94    -29750.68   -39107.246    80.807655 
   66000    1388.3143   -113.81525     1.256176   -112.55907    7536.2702    4.3245049    4.3245049    4.3245049    7536.2702    53422.274    -22053.29   -8760.1727   -8222.9484    1184.0281    -44487.18    80.874051 
   66100    3105.1975   -115.33769    2.8096479   -112.52804     9269.991     4.329929     4.329929     4.329929     9269.991   -8363.2485   -22703.204    58876.425    1169.0557    14788.244    19140.902    81.178745 
   66200    681.24691   -113.19409   0.61640652   -112.57769    -3695.892     4.320801     4.320801     4.320801    -3695.892    43027.585   -40575.156   -13540.105   -12102.905   -22662.424   -56794.897    80.666423 
   66300    1796.8111   -114.19161    1.6257924   -112.56582     6795.812    4.3214304    4.3214304    4.3214304     6795.812    12599.932   -16842.908    24630.412   -11206.648   -23403.686     1155.221    80.701678 
   66400    2247.5553   -114.58222    2.0336352   -112.54859   -8901.7014    4.3275509    4.3275509    4.3275509   -8901.7014   -22626.337    11262.776   -15341.543    12671.124    57451.533   -5938.7532     81.04506 
   66500    997.36796   -113.46295   0.90243949   -112.56051   -2002.3286    4.3255017    4.3255017    4.3255017   -2002.3286    31203.957   -5567.2465   -31643.696   -11732.132   -5010.6555   -65179.712    80.929988 
   66600    2580.5115    -114.8554     2.334901    -112.5205   -3501.3373    4.3357552    4.3357552    4.3357552   -3501.3373   -26392.491    32066.828   -16178.349    218.70258   -8405.9237    1988.0025    81.506877 
   66700    958.82859   -113.40622   0.86756826   -112.53865    3316.6124    4.3352423    4.3352423    4.3352423    3316.6124   -24789.273    53368.672   -18629.561    17796.512    56475.851   -24969.307    81.477958 
   66800    1835.8126   -114.17217    1.6610818   -112.51108    7879.5251    4.3311938    4.3311938    4.3311938    7879.5251    37900.478   -22569.547    8307.6443   -15247.207   -15083.615   -53321.127    81.249901 
   66900    1958.3526   -114.27853    1.7719586   -112.50657   -19533.628    4.3347979    4.3347979    4.3347979   -19533.628   -38510.904     7005.914   -27095.893    11964.893    35386.668    26098.836    81.452901 
   67000    727.67362   -113.19562   0.65841438   -112.53721   -12841.548      4.32419      4.32419      4.32419   -12841.548    8188.1802    3009.1528   -49721.977    19275.338    48799.295   -30055.598    80.856384 
   67100    2398.5671   -114.69485    2.1702739   -112.52457     20173.75    4.3184413    4.3184413    4.3184413     20173.75     51228.05   -24757.699    34050.899   -6912.8599     -16558.1    -31241.47    80.534331 
   67200    1626.2563   -114.02481    1.4714709   -112.55333   -5817.8824    4.3250137    4.3250137    4.3250137   -5817.8824   -20695.442    29435.705    -26193.91    4944.2276    26228.435    11598.874    80.902595 
   67300    1485.5472   -113.89428    1.3441543   -112.55013    4733.8158    4.3273056    4.3273056    4.3273056    4733.8158    5604.1381    16350.543   -7753.2332    24682.702    32181.666   -38043.167    81.031278 
   67400    2216.0346   -114.53879    2.0051147   -112.53367   -2684.0474    4.3322041    4.3322041    4.3322041   -2684.0474    2210.3927   -26922.801    16660.266    -32256.41   -17851.334   -11390.958    81.306773 
   67500    1120.6167   -113.56254    1.0139576   -112.54859   -22174.683    4.3342155    4.3342155    4.3342155   -22174.683   -57472.344    47479.412   -56531.115   -10709.197    44481.851    6883.6618    81.420074 
   67600    2320.0846   -114.62976    2.0992613   -112.53049    10697.305    4.3177607    4.3177607    4.3177607    10697.305    30152.069    12789.152   -10849.308    14465.366    10817.116   -15682.851    80.496261 
   67700    1770.3955    -114.1469    1.6018911     -112.545   -3591.5272     4.314463     4.314463     4.314463   -3591.5272   -14111.693   -12292.121    15629.232   -13083.195   -2679.5647   -15324.356    80.311962 
   67800     1279.322   -113.72446    1.1575575    -112.5669   -6177.9192    4.3187083    4.3187083    4.3187083   -6177.9192   -45502.799    65594.481   -38625.439    -20848.04    36824.172    8325.9012    80.549271 
   67900    2172.9421   -114.51537    1.9661236   -112.54924    12521.502    4.3275315    4.3275315    4.3275315    12521.502    50545.529   -1488.2175   -11492.805    11989.342   -4124.4891    27604.433    81.043974 
   68000    1377.1105   -113.79884    1.2460385    -112.5528   -25480.433     4.335336     4.335336     4.335336   -25480.433   -64732.747   -8626.3127   -3082.2388    26305.377    12638.975   -14364.272     81.48324 
   68100    1720.5248    -114.0962     1.556767   -112.53943   -4784.1052     4.326941     4.326941     4.326941   -4784.1052   -20694.252    50936.858   -44594.922   -18502.182     15504.35    13984.436    81.010798 
   68200    1813.7517   -114.17805    1.6411206   -112.53693    14759.814    4.3161961    4.3161961    4.3161961    14759.814    35531.269    2302.9006    6445.2721    23663.423   -5151.9598    40076.855    80.408786 
   68300    966.34261   -113.43241    0.8743671   -112.55804    6916.7869    4.3156575    4.3156575    4.3156575    6916.7869   -54504.239    49134.799    26119.801    38001.137    8532.4722   -4394.7052    80.378688 
   68400    2257.5751   -114.58586    2.0427014   -112.54316   -5901.9135    4.3292363    4.3292363    4.3292363   -5901.9135   -6176.6857    11733.189   -23262.244   -13470.399   -2396.5615    565.06595    81.139787 
   68500      1322.85    -113.7505    1.1969425   -112.55356   -19174.054    4.3342349    4.3342349    4.3342349   -19174.054   -14269.541    -37199.87   -6052.7516    36009.176     4949.679    459.57508    81.421168 
   68600    1524.6827   -113.92453    1.3795649   -112.54497   -2365.8211    4.3288509    4.3288509    4.3288509   -2365.8211   -40586.337    6251.0343     27237.84    47630.058   -7615.7461     20464.45    81.118121 
   68700    2361.3545   -114.66488    2.1366032   -112.52828    14517.376    4.3227635    4.3227635    4.3227635    14517.376    25354.805   -7033.4851    25230.807   -20698.363    1958.5995    -37535.17    80.776386 
   68800    980.71526    -113.4459   0.88737178   -112.55853   -11672.631    4.3214512    4.3214512    4.3214512   -11672.631   -2875.8187   -39763.234    7621.1587    42482.159    5821.5284   -1433.8392    80.702843 
   68900    2271.9476   -114.60187     2.055706   -112.54616   -48.068518    4.3260165    4.3260165    4.3260165   -48.068518     -23545.2    4976.4446     18424.55     32688.65   -7689.1401    19135.592    80.958883 
   69000     1642.698   -114.04227    1.4863477   -112.55593    1113.4918    4.3242576    4.3242576    4.3242576    1113.4918    4535.0512   -23123.427    21928.851    -34000.49    1453.3495   -59213.743    80.860174 
   69100     1360.797   -113.79606    1.2312777   -112.56478    -3468.607    4.3213797    4.3213797    4.3213797    -3468.607    6152.2404   -22225.008    5666.9471    23290.814   -623.42061    613.91907    80.698839 
   69200    2712.6424    -114.9976    2.4544558   -112.54314     5506.525    4.3246057    4.3246057    4.3246057     5506.525   -14911.562    -6994.488    38425.624    5752.4881   -1860.6978    16444.942    80.879706 
   69300    1117.8543   -113.57644    1.0114581   -112.56498   -6867.3971    4.3245833    4.3245833    4.3245833   -6867.3971    -11442.63   -40537.011     31377.45   -51723.282   -9918.8766   -63288.699    80.878449 
   69400     1796.568   -114.18101    1.6255725   -112.55543   -4126.3529    4.3281978    4.3281978    4.3281978   -4126.3529    8786.1099   -37577.578     16412.41    21283.124    7683.6224   -1093.3185    81.081412 
   69500    2401.1049    -114.7128    2.1725701   -112.54023     1143.816    4.3264671    4.3264671    4.3264671     1143.816    -14016.14   -22991.405    40438.994   -26131.193    4450.6662    23844.001    80.984183 
   69600    714.92752   -113.21062   0.64688144   -112.56373    5926.2275    4.3209078    4.3209078    4.3209078    5926.2275   -7688.5732   -45535.109    71002.365   -56544.617   -9281.5016    -60515.79    80.672404 
   69700    2416.7586   -114.72615    2.1867339   -112.53942    911.21564     4.329695     4.329695     4.329695    911.21564    11123.784   -6011.7593    -2378.378    38012.039    17022.207    3210.8944    81.165582 
   69800    1598.4243   -113.98441    1.4462879   -112.53813    3076.0765     4.334976     4.334976     4.334976    3076.0765   -24996.793    4512.2074    29712.815   -76714.419   -6683.5314    1289.9767    81.462941 
   69900    1180.8643   -113.60379    1.0684708   -112.53531     14783.56    4.3401911    4.3401911    4.3401911     14783.56    15460.287   -15856.066    44746.461   -32137.271    3567.8953   -44852.122    81.757305 
   70000     2371.172   -114.64516    2.1454863   -112.49967   -4829.2394    4.3439323    4.3439323    4.3439323   -4829.2394   -15902.407   -4730.8743    6145.5633    12036.084   -501.68278    12152.659    81.968904 
   70100    1150.5236   -113.57578     1.041018   -112.53476     192.9241    4.3189505    4.3189505    4.3189505     192.9241   -11867.052   -14137.757    26583.581   -80103.986   -23961.308   -6354.0931    80.562822 
   70200    1704.8126   -114.08078    1.5425503   -112.53823    20040.611    4.3048016    4.3048016    4.3048016    20040.611    51504.751   -89.359826    8706.4413     4892.812   -1172.1518   -53922.836     79.77364 
   70300    2080.7478   -114.43526    1.8827043   -112.55256    11169.871    4.3191722    4.3191722    4.3191722    11169.871    15745.106    815.64764    16948.858   -21879.471     10726.48    2059.9611    80.575233 
   70400    1055.9158   -113.52427   0.95541476   -112.56885   -11172.585    4.3438615    4.3438615    4.3438615   -11172.585   -12103.119   -37315.064    15900.428   -71862.795   -23053.194   -2077.2076    81.964901 
   70500    2273.8836   -114.58488    2.0574577   -112.52742   -14931.459    4.3448085    4.3448085    4.3448085   -14931.459    31137.087   -30594.961   -45336.502     27456.86   -2987.6148   -37717.946    82.018516 
   70600    997.98984   -113.43788   0.90300218   -112.53487   -12578.012    4.3214247    4.3214247    4.3214247   -12578.012   -19550.617    -55930.23    37746.811   -83583.127    25698.283    5730.0801    80.701356 
   70700    1621.5017   -114.00424    1.4671688   -112.53707    12537.427    4.3086692    4.3086692    4.3086692    12537.427     5084.256   -15417.452    47945.478   -47057.661   -20787.647   -5026.2064    79.988848 
   70800    2555.2877   -114.84689     2.312078   -112.53481    18032.915    4.3149833    4.3149833    4.3149833    18032.915    54596.527   -8193.3778    7695.5969    13967.323    3907.0264   -5766.4583    80.341022 
   70900    598.54937   -113.12433   0.54158004   -112.58275    -29239.52    4.3301292    4.3301292    4.3301292    -29239.52   -71817.361   -65526.543    49625.345   -105961.74    23946.097   -6304.4553    81.190004 
   71000    2280.2521    -114.6162    2.0632201   -112.55298   -13036.392    4.3355797    4.3355797    4.3355797   -13036.392   -11672.225   -13455.178   -13981.771    17712.623    10271.302    13504.251    81.496984 
   71100    1766.2317   -114.15041    1.5981236   -112.55228    2037.8729    4.3235089    4.3235089    4.3235089    2037.8729   -9545.7465   -28317.065     43976.43   -53827.611   -8824.1933    21267.087    80.818181 
   71200    1308.2648   -113.73787    1.1837455   -112.55413    5647.1769    4.3133726    4.3133726    4.3133726    5647.1769   -41563.444    -3773.889    62278.863   -74766.433    16413.968   -6651.2508     80.25109 
   71300    2312.6626   -114.62875    2.0925457   -112.53621    13125.681    4.3186805    4.3186805    4.3186805    13125.681    23290.593    27505.605   -11419.154    32343.189    30534.343    -3415.925    80.547716 
   71400    1048.0546   -113.50941   0.94830183   -112.56111   -13637.251    4.3310622    4.3310622    4.3310622   -13637.251   -36933.037   -45602.029    41623.313   -88310.158   -8745.8732    20290.806    81.242496 
   71500    2151.8239   -114.48095    1.9470154   -112.53394   -5651.3604    4.3361207    4.3361207    4.3361207   -5651.3604    -11218.53     1424.942   -7160.4935   -11543.653    11372.087    3932.8602    81.527492 
   71600    1365.1366   -113.77063    1.2352043   -112.53543     9545.721    4.3322207    4.3322207    4.3322207     9545.721     7211.689    14366.273    7059.2006   -9497.7863    36414.424   -8055.7661     81.30771 
   71700    1556.5904   -113.93607    1.4084357   -112.52763    5796.5288    4.3296421    4.3296421    4.3296421    5796.5288   -18042.865   -34886.111    70318.563   -64622.933   -6807.4093    3759.6505    81.162608 
   71800    2205.8604   -114.50183    1.9959088   -112.50592    7306.4022     4.329155     4.329155     4.329155    7306.4022      15788.7    24352.762   -18222.256    20870.328    30604.689    1829.5985     81.13522 
   71900    1077.4717   -113.51648   0.97491908   -112.54156    1059.0242    4.3302846    4.3302846    4.3302846    1059.0242   -12576.942    33797.592   -18043.578   -8936.8018    48457.801   -7307.9179    81.198746 
   72000     2917.962   -115.15758    2.6402334   -112.51735    20977.623    4.3265798    4.3265798    4.3265798    20977.623    51995.553   -2709.0898    13646.406   -23067.016   -15437.807    659.19313    80.990516 
   72100     969.0976   -113.43964   0.87685988   -112.56278   -15013.441    4.3249179    4.3249179    4.3249179   -15013.441   -18002.468    37900.941   -64938.797    15984.865    31697.581   -4592.2826    80.897222 
   72200    1275.0623   -113.72867    1.1537032   -112.57497   -20377.453    4.3249991    4.3249991    4.3249991   -20377.453   -55019.615    44198.374   -50311.118    16953.418    19160.679   -2926.7647     80.90178 
   72300    2508.8091   -114.81418    2.2700232   -112.54416    6154.5376    4.3237088    4.3237088    4.3237088    6154.5376    21430.578    -17549.01    14582.045   -33661.684   -11585.567    183.57061    80.829393 
   72400    926.63411    -113.4035   0.83843802   -112.56506   -41790.162    4.3341143    4.3341143    4.3341143   -41790.162   -74657.185    11487.592   -62200.894   -901.50673    53488.288    6535.7485    81.414371 
   72500    1953.9484   -114.31761    1.7679736   -112.54964   -1349.2746    4.3167339    4.3167339    4.3167339   -1349.2746   -6082.4536    34639.665   -32605.036    22752.647    15373.927    1028.8707    80.438846 
   72600    1506.9242   -113.92065    1.3634966   -112.55716    5875.5191    4.3119988    4.3119988    4.3119988    5875.5191    17695.485   -26045.254    25976.326   -95770.016   -8933.8335   -5047.0805    80.174434 
   72700    1742.0497    -114.1332    1.5762432   -112.55696   -4777.4397    4.3230961    4.3230961    4.3230961   -4777.4397   -17241.351    12132.463    -9223.431   -3729.0766     40617.46    5616.4677    80.795033 
   72800    1345.6003   -113.76955    1.2175274   -112.55202    25319.051    4.3259091    4.3259091    4.3259091    25319.051    38592.641   -2102.3494    39466.863   -17784.821    20813.004    4879.9281    80.952854 
   72900     1324.296   -113.74497    1.1982509   -112.54672   -17138.394    4.3428774    4.3428774    4.3428774   -17138.394   -26871.473   -62694.189    38150.478   -72565.848   -11603.354    108.89413    81.909204 
   73000    2373.5911   -114.67473    2.1476752   -112.52705   -7033.1776     4.328212     4.328212     4.328212   -7033.1776     9291.311    10745.316   -41136.159    31521.734   -4558.5616   -5401.8377     81.08221 
   73100    823.54506   -113.29427   0.74516088   -112.54911    15186.133    4.3027212    4.3027212    4.3027212    15186.133    -24963.66    593.27972    69928.779   -102700.19    24412.365    16401.797    79.658041 
   73200    1834.0086   -114.22747    1.6594495   -112.56802   -2032.1184    4.3159867    4.3159867    4.3159867   -2032.1184   -34231.454   -14272.726    42407.825    -42877.53   -1878.5139   -3413.4211    80.397085 
   73300    2372.7511   -114.70789    2.1469151   -112.56097    14439.005    4.3254148    4.3254148    4.3254148    14439.005   -18365.261    55391.037      6291.24    2607.9711   -12239.837   -9866.9109     80.92511 
   73400    532.98725   -113.07323   0.48225806   -112.59097   -14049.897    4.3339851    4.3339851    4.3339851   -14049.897   -60624.372    -27896.16    46370.841   -108476.12    16652.426    10289.508    81.407095 
   73500    2124.7004   -114.47245    1.9224735   -112.54998   -8006.7613    4.3335327    4.3335327    4.3335327   -8006.7613   -15438.577   -2521.8933   -6059.8134    42397.649    11011.107   -6527.8025    81.381599 
   73600    1307.3623   -113.72832    1.1829288   -112.54539    2311.7343    4.3146101    4.3146101    4.3146101    2311.7343    -9194.268   -53973.667    70103.138    -59257.08   -4882.5163   -5210.3399    80.320178 
   73700    1520.2432   -113.92209     1.375548   -112.54654   -1413.4694    4.3167598    4.3167598    4.3167598   -1413.4694    7335.7276   -38308.393    26732.257   -56494.415    18136.721   -919.86306    80.440295 
   73800    2037.9183   -114.38295    1.8439513     -112.539   -19622.641    4.3289738    4.3289738    4.3289738   -19622.641   -21645.752    -6281.505   -30940.666     17571.62    32916.421    1931.0222    81.125031 
   73900    1129.5869   -113.58057    1.0220739   -112.55849    1171.7278    4.3200852    4.3200852    4.3200852    1171.7278    3537.7465   -87083.865    87061.302    -77537.66   -14600.728    2447.7037    80.626336 
   74000    2226.4453   -114.55862    2.0145345   -112.54408    10258.628     4.320632     4.320632     4.320632    10258.628    4946.2377   -9906.2711    35735.918    221.84397    16913.244   -1594.8699    80.656958 
   74100    1322.9253   -113.75205    1.1970106   -112.55503   -11106.801    4.3280137    4.3280137    4.3280137   -11106.801   -30143.113    1337.3641   -4514.6552   -35750.464    26180.319   -2095.2205    81.071068 
   74200     1193.918   -113.64436    1.0802821   -112.56408   -8615.8481    4.3286232    4.3286232    4.3286232   -8615.8481   -42779.209   -40042.315     56973.98   -94998.007   -12789.518     8587.017     81.10532 
   74300    2982.2367   -115.22779    2.6983905    -112.5294     7132.851     4.327145     4.327145     4.327145     7132.851    6054.5186    18720.113   -3376.0786    32816.205     2251.941   -1980.6403    81.022259 
   74400    906.42117   -113.38097   0.82014892   -112.56083   -5139.6856    4.3225791    4.3225791    4.3225791   -5139.6856   -43552.836   -13640.227    41774.006   -85584.906     28329.12     5945.119    80.766051 
   74500     2026.279   -114.38107    1.8334198   -112.54765    9900.7136    4.3244294    4.3244294    4.3244294    9900.7136   -9970.4742    10230.313    29442.302   -36093.138   -4412.3785   -6149.8016     80.86981 
   74600    2255.4102    -114.5779    2.0407426   -112.53716   -5905.6238    4.3325735    4.3325735    4.3325735   -5905.6238    13017.935   -34003.521    3268.7154    14996.337     2007.198    749.58735    81.327573 
   74700    506.97936   -113.02035   0.45872558   -112.56162   -12620.095    4.3296573    4.3296573    4.3296573   -12620.095   -46576.157   -45252.418    53968.289   -86709.295    14203.726   -36.886487     81.16346 
   74800    2588.0086   -114.87054    2.3416846   -112.52886    17248.479    4.3222182    4.3222182    4.3222182    17248.479    33757.032    9529.9578    8458.4484    13610.267    5057.1017   -5829.1877    80.745822 
   74900    934.85031   -113.39801   0.84587221   -112.55214    2494.7293    4.3287566    4.3287566    4.3287566    2494.7293    1010.7282   -40760.714    47234.173   -51609.164   -31354.736    1555.4956    81.112818 
   75000    1694.6791   -114.06171    1.5333813   -112.52833    -10995.14    4.3373295    4.3373295    4.3373295    -10995.14   -28512.357   -40073.825    35600.764    -28181.37    11064.916    6817.7965    81.595696 
   75100    1965.2596   -114.28546    1.7782081   -112.50725   -12417.349    4.3414039    4.3414039    4.3414039   -12417.349    17835.624   -21945.439   -33142.231     7539.327   -7502.0811    -30052.66    81.825859 
   75200    1158.1201   -113.56178    1.0478914   -112.51389   -15040.729    4.3409912    4.3409912    4.3409912   -15040.729   -60145.055   -38176.777    53199.647   -75144.435   -29209.694    1403.8574    81.802524 
   75300    2718.1708   -114.95824    2.4594581   -112.49878   -3491.1321    4.3266949    4.3266949    4.3266949   -3491.1321    3729.2016    -19521.48    5318.8821    4135.0136    14491.903    2283.4768     80.99698 
   75400    1442.1438   -113.84246     1.304882   -112.53757    7218.9899    4.3096552    4.3096552    4.3096552    7218.9899    12657.254    6512.3842    2487.3312   -12907.558   -16276.304   -52532.707    80.043777 
   75500    1324.2008   -113.76577    1.1981647    -112.5676   -2233.0448    4.3160853    4.3160853    4.3160853   -2233.0448   -65223.679   -12861.386    71385.931   -67510.996   -29845.451   -462.89071    80.402595 
   75600    2404.9992   -114.71769    2.1760938    -112.5416   -17431.246    4.3414571    4.3414571    4.3414571   -17431.246    667.23048   -26934.213   -26026.754    16955.576     21563.45   -12654.396     81.82887 
   75700     879.4875   -113.32191   0.79577877   -112.52613   -13474.535    4.3524282    4.3524282    4.3524282   -13474.535    17710.056   -41619.036   -16514.626   -30048.022   -21130.381   -59359.021    82.450796 
   75800    2099.6011   -114.38172    1.8997632   -112.48196   -7249.1815    4.3410351    4.3410351    4.3410351   -7249.1815   -9248.2045   -40801.925    28302.585   -24450.327   -12679.266    24658.774    81.805008 
   75900     1424.501   -113.77854    1.2889185   -112.48962   -20115.718    4.3277886    4.3277886    4.3277886   -20115.718    50793.573   -66077.655   -45063.072    13905.088    11902.063   -93856.508    81.058419 
   76000    1776.7076   -114.11414    1.6076024   -112.50653    3364.9769    4.3134315    4.3134315    4.3134315    3364.9769    1625.1876    3849.1472    4620.5958   -32445.062   -16077.011   -14157.063    80.254375 
   76100    1543.4172   -113.93047    1.3965163   -112.53395    13650.227    4.3169468    4.3169468    4.3169468    13650.227    22182.959    8602.8477    10164.874   -14875.936   -12002.636   -24796.463    80.450749 
   76200    1390.0144   -113.80818    1.2577143   -112.55047   -28049.224    4.3374802    4.3374802    4.3374802   -28049.224     28404.27   -59510.479   -53041.463    15861.898     2809.005   -92284.784      81.6042 
   76300    2318.5401   -114.62281    2.0978638   -112.52494    8729.4432    4.3385032    4.3385032    4.3385032    8729.4432   -31484.813     13102.04    44571.102   -18574.757   -3550.0046    30928.679    81.661953 
   76400    911.16281   -113.35871   0.82443926   -112.53427   -8026.3807    4.3385186    4.3385186    4.3385186   -8026.3807    42829.251   -32655.516   -34252.877    -17924.43   -22584.434   -94939.167    81.662824 
   76500    2585.3786   -114.83222    2.3393049   -112.49292   -2475.6342    4.3375606    4.3375606    4.3375606   -2475.6342   -5977.3156    23397.605   -24847.192    22954.842    7471.2422    2090.0906    81.608739 
   76600    1164.4291   -113.56229       1.0536   -112.50869      7502.63    4.3368845    4.3368845    4.3368845      7502.63    31877.662   -14685.795    5316.0231   -31926.515   -8907.9994   -35759.028    81.570584 
   76700    1227.7232   -113.62284    1.1108698   -112.51197   -11463.776    4.3435356    4.3435356    4.3435356   -11463.776    25486.642   -12484.495   -47393.474   -10520.873   -4552.2197   -57257.321    81.946454 
   76800    2721.5922   -114.95811    2.4625538   -112.49555    5701.6027    4.3311802    4.3311802    4.3311802    5701.6027    2730.1956    2342.6241    12031.988    12961.379    9171.5885    48682.619    81.249136 
   76900    730.66551   -113.20475   0.66112151   -112.54363    -5490.197    4.3168531    4.3168531    4.3168531    -5490.197    44853.494   -52200.309   -9123.7762   -41360.116   -18365.831    -85562.82    80.445511 
   77000    1593.8389   -114.01085    1.4421389   -112.56871   -4747.4031    4.3168272    4.3168272    4.3168272   -4747.4031    1752.3014   -15978.098   -16.412804   -15757.123    11591.678   -28645.848    80.444063 
   77100    2399.7634   -114.72831    2.1713563   -112.55695    13774.955    4.3255156    4.3255156    4.3255156    13774.955    28729.063    13110.313   -514.51148    12140.199    9239.7102    3416.5957    80.930766 
   77200    601.14413   -113.11237   0.54392784   -112.56844    8919.2045    4.3468747    4.3468747    4.3468747    8919.2045    54293.877   -35491.935    7955.6711   -42697.048   -13152.865   -75716.084    82.135588 
   77300    2540.9677   -114.79197    2.2991209   -112.49285   -25922.836    4.3583037    4.3583037    4.3583037   -25922.836   -42759.351   -17395.051   -17614.105    6069.7032    11777.429    20982.348    82.785155 
   77400    1105.8826   -113.50198    1.0006258   -112.50135   -11994.073    4.3349051    4.3349051    4.3349051   -11994.073    26926.422   -22836.755   -40071.886    24802.279    -7080.757   -77987.374    81.458947 
   77500    1751.5816   -114.08568    1.5848678   -112.50081    10765.724    4.3147092    4.3147092    4.3147092    10765.724    15556.196    18505.234   -1764.2585    -30163.71   -20609.505   -22179.111    80.325715 
   77600    2334.6813   -114.62968    2.1124687   -112.51722    3116.8871    4.3158659    4.3158659    4.3158659    3116.8871   -2106.8759   -16892.633     28350.17   -8628.9046   -3541.1555    10000.329    80.390334 
   77700    778.15642   -113.27742   0.70409228   -112.57333   -14534.986    4.3223635    4.3223635    4.3223635   -14534.986    67569.197   -82205.557   -28968.598    24032.476    8144.5739   -90668.191    80.753968 
   77800    2501.8742   -114.82193    2.2637483   -112.55818    3310.8263     4.336832     4.336832     4.336832    3310.8263   -9038.5334   -39854.131    58825.143   -1089.3988   -7601.2016    18880.051     81.56762 
   77900    1660.7661   -114.06737     1.502696   -112.56468   -5754.1864    4.3357858    4.3357858    4.3357858   -5754.1864    30317.016   -51217.513    3637.9376   -3478.9846    4035.6952   -68545.597    81.508607 
   78000    1052.9642   -113.50427   0.95274413   -112.55153    14313.718    4.3209241    4.3209241    4.3209241    14313.718    89011.069   -51855.658    5785.7426     17151.99    14401.698   -51994.331    80.673317 
   78100    2279.0365   -114.57628    2.0621201   -112.51416    12483.137    4.3294761    4.3294761    4.3294761    12483.137    35613.805   -3841.3762    5676.9834   -2117.0622     4495.519    32701.029    81.153271 
   78200    1027.0507   -113.45586   0.92929705   -112.52656   -13557.121    4.3358068    4.3358068    4.3358068   -13557.121      29586.7   -31926.991   -38331.073   -17884.126    2623.2312   -106957.66    81.509786 
   78300    2327.8701   -114.61901    2.1063058    -112.5127    3250.7169    4.3289465    4.3289465    4.3289465    3250.7169   -9065.2439     13240.72    5576.6742    15796.425    15634.482    24922.089    81.123496 
   78400    1242.6058   -113.65524    1.1243359   -112.53091   -2870.8043    4.3251995    4.3251995    4.3251995   -2870.8043    66308.639   -19006.074   -55914.978    5136.0803    3607.8447    -61963.73    80.913021 
   78500    1560.9444   -113.94521    1.4123753   -112.53283   -1276.4864    4.3234981    4.3234981    4.3234981   -1276.4864    50486.817    306.42763   -54622.704   -12416.157    3578.0555   -65842.407    80.817575 
   78600    2358.0375   -114.66183    2.1336019   -112.52822    5080.4682    4.3239922    4.3239922    4.3239922    5080.4682   -19577.764    28997.895    5821.2736    18222.171    25145.795    26342.118    80.845289 
   78700    656.10364   -113.15698   0.59365636   -112.56332   -15363.446    4.3302182    4.3302182    4.3302182   -15363.446    64403.812    -56192.89   -54301.261    16869.628    9905.3495   -106352.87    81.195011 
   78800     2599.829   -114.88049    2.3523799   -112.52811   -7012.9768    4.3393649    4.3393649    4.3393649   -7012.9768   -11065.852    1838.0352   -11811.113    -8366.255    1491.0652    12620.891    81.710621 
   78900    947.24897   -113.39326   0.85709077   -112.53617   -10644.985    4.3477065    4.3477065    4.3477065   -10644.985    4332.9944    968.64137   -37236.591    18049.295    31963.396   -56907.719    82.182745 
   79000    1599.8675   -113.94959    1.4475937   -112.50199   -7463.8246    4.3463488    4.3463488    4.3463488   -7463.8246   -3281.7902   -15396.725   -3712.9588    20287.863   -1226.8874   -52667.147    82.105782 
   79100    2402.5297   -114.65123    2.1738593   -112.47737   -12030.079    4.3417528    4.3417528    4.3417528   -12030.079   -29764.871    13273.782   -19599.147   -11258.485    1077.9574   -148.12183    81.845592 
   79200    582.57072   -113.04102   0.52712223    -112.5139   -29981.925    4.3331544    4.3331544    4.3331544   -29981.925   -4442.5031   -34372.196   -51131.075    21547.377    42287.519   -94377.485     81.36029 
   79300    2733.4289   -114.98559    2.4732639   -112.51233    21783.245    4.3136573    4.3136573    4.3136573    21783.245    13463.073    28918.126    22968.535    -192.2914   -2864.5225    25183.923    80.266978 
   79400    1662.1622   -114.05617    1.5039593   -112.55221   -1750.9759    4.3173761    4.3173761    4.3173761   -1750.9759    55125.587   -25177.958   -35200.557    554.90947    3268.1982   -61263.104    80.474754 
   79500    750.22498   -113.25246   0.67881933   -112.57364   -24739.932    4.3310456    4.3310456    4.3310456   -24739.932    31065.334   -39483.526   -65801.603    6590.5924    39193.741   -73257.532     81.24156 
   79600    2631.6339   -114.90916    2.3811577     -112.528   -7195.9977    4.3367151    4.3367151    4.3367151   -7195.9977   -17723.189   -24447.124     20582.32   -3215.7264   -6246.8063    33656.547    81.561023 
   79700    817.03412   -113.28203   0.73926964   -112.54276   -19563.861    4.3415026    4.3415026    4.3415026   -19563.861    64081.592   -74685.988   -48087.185    446.24961    4039.8742   -92932.372    81.831443 
   79800    2017.5114   -114.33895    1.8254867   -112.51346    2727.4216    4.3272071    4.3272071    4.3272071    2727.4216   -11938.425     16954.73    3165.9601    10158.192    43161.356    8156.4464    81.025749 
   79900    1703.9859   -114.05558    1.5418023   -112.51378    4765.0086    4.3173258    4.3173258    4.3173258    4765.0086    30415.288   -44612.439    28492.177   -2616.8204   -16117.436   -49228.957    80.471942 
   80000    994.64343   -113.44955   0.89997428   -112.54958   -27300.615    4.3266029    4.3266029    4.3266029   -27300.615     39819.18   -92034.899   -29686.127    7455.2711    2197.5407   -70044.316    80.991813 
   80100    2566.3474   -114.85509    2.3220851     -112.533    13412.751    4.3229097    4.3229097    4.3229097    13412.751   -5941.1969    17894.894    28284.557   -1037.4375     10226.93    42369.653    80.784581 
   80200    1345.5511   -113.77673    1.2174829   -112.55925   -10289.875    4.3275948    4.3275948    4.3275948   -10289.875    42267.274   -53521.699   -19615.198   -4556.4628   -3476.8321   -104511.05    81.047527 
   80300    1641.8093   -114.03387    1.4855436   -112.54832   -21112.304    4.3334129    4.3334129    4.3334129   -21112.304   -3236.4103   -23383.429   -36717.074   -9998.0276   -15660.418    3215.3548    81.374851 
   80400    1991.1757    -114.3377    1.8016576   -112.53604    13374.901    4.3169975    4.3169975    4.3169975    13374.901    12525.919    49840.568   -22241.783    2356.5083   -11723.354    20237.988    80.453585 
   80500    1367.1332   -113.79634    1.2370108   -112.55933   -580.84833    4.3133851    4.3133851    4.3133851   -580.84833    75234.597   -24917.933   -52059.209    9403.9991    11274.221   -115950.29    80.251783 
   80600    2597.8312   -114.88795    2.3505723   -112.53738    5306.7369     4.325114     4.325114     4.325114    5306.7369       -30893    66435.611     -19622.4   -9987.3344   -24859.221    26419.277    80.908224 
   80700    1091.0702   -113.54339   0.98722324   -112.55617   -21728.287     4.334923     4.334923     4.334923   -21728.287    25919.936   -26842.605   -64262.192    5164.1836   -16204.681   -47699.525    81.459954 
   80800    1670.6975   -114.05771    1.5116822   -112.54602   -14411.349    4.3286395    4.3286395    4.3286395   -14411.349    37837.112   -23828.878    -57242.28   -6879.9305    9443.9255   -46801.436    81.106236 
   80900    2236.0818   -114.55366    2.0232538    -112.5304    20529.005    4.3178226    4.3178226    4.3178226    20529.005    9475.4176    48816.803     3294.794   -10068.023    1769.3577    17512.458    80.499722 
   81000    782.45257   -113.25998   0.70797953     -112.552   -7593.0007     4.326674     4.326674     4.326674   -7593.0007    49535.735   -38722.738   -33591.998    7229.9309    -12723.75   -98642.784    80.995804 
   81100    2329.0992   -114.63411    2.1074179    -112.5267    3159.8614    4.3328601    4.3328601    4.3328601    3159.8614    19.891267    22113.722   -12654.028   -6980.1079    2062.4803    6865.2995    81.343713 
   81200    1148.0209   -113.58415    1.0387534    -112.5454    5103.8059    4.3310984    4.3310984    4.3310984    5103.8059      29890.7   -6286.4254   -8292.8575    4867.2584    27915.674    -42373.01    81.244536 
   81300    918.58869   -113.38755   0.83115835   -112.55639   -23442.167     4.335948     4.335948     4.335948   -23442.167    26066.769   -47279.102   -49114.168   -16183.567   -23087.702   -77950.265    81.517753 
   81400    2568.6447   -114.85019    2.3241637   -112.52603    2599.1934    4.3284194    4.3284194    4.3284194    2599.1934   -11125.581    25602.198   -6679.0365    302.62191     -8454.58    44519.732    81.093864 
   81500    895.92349   -113.37264    0.8106504   -112.56199   -2309.7781    4.3155918    4.3155918    4.3155918   -2309.7781    48362.727    6357.2444   -61649.305    681.19377    31200.187   -84870.845    80.375017 
   81600    1934.4371   -114.31985    1.7503193   -112.56953   -799.81892    4.3198848    4.3198848    4.3198848   -799.81892    15261.513    14077.586   -31738.555   -12356.126    13454.352   -47482.568    80.615116 
   81700    2671.6738   -114.97269    2.4173866    -112.5553    4528.2092     4.331125     4.331125     4.331125    4528.2092    -6790.318    19854.619    520.32617    9904.2475   -723.19973    8617.9737    81.246033 
   81800    756.12468    -113.2612    0.6841575   -112.57704   -6127.3357    4.3338958    4.3338958    4.3338958   -6127.3357    50950.945   -29269.489   -40063.463     5455.151    15592.125   -85783.037    81.402062 
   81900    2325.5937   -114.64471     2.104246   -112.54046    9526.7665    4.3349118    4.3349118    4.3349118    9526.7665   -26872.918    70354.604   -14901.387   -5226.5093    13288.358    36183.882    81.459321 
   82000     1402.063   -113.81226    1.2686161   -112.54364    3513.1476    4.3320687    4.3320687    4.3320687    3513.1476    35533.221   -29937.151    4943.3724    2676.6348   -23370.062   -53564.269    81.299148 
   82100    1215.4194   -113.64138     1.099737   -112.54165    10850.901    4.3240896    4.3240896    4.3240896    10850.901    64369.124   -8930.8376   -22885.583    8086.6991   -2954.3131   -57194.459    80.850749 
   82200    2402.3907   -114.69527    2.1737336   -112.52153    17148.809    4.3281531    4.3281531    4.3281531    17148.809    606.62147    20498.494     30341.31    7249.0636    2131.9025    38121.863    81.078898 
   82300    917.83535   -113.38212   0.83047672   -112.55164   -19055.095    4.3320343    4.3320343    4.3320343   -19055.095    31178.378    -60364.59   -27979.072   -10417.683   -19422.704    -95669.39    81.297215 
   82400    1681.4982   -114.07071    1.5214549   -112.54925     2654.116    4.3260196    4.3260196    4.3260196     2654.116   -485.80977    10508.497    -2060.339    27054.118   -7516.6249   -14946.721     80.95906 
   82500    2223.9316   -114.55525      2.01226   -112.54299    -13686.77    4.3295212    4.3295212    4.3295212    -13686.77   -4911.1958   -39709.516    3560.4023    19484.857    6196.4359   -9676.4143     81.15581 
   82600    1073.7245   -113.53252   0.97152851   -112.56099   -16077.785    4.3226199    4.3226199    4.3226199   -16077.785    37044.539   -36333.986   -48943.907    -27290.76    -11429.93    -101004.5    80.768337 
   82700    1967.7734   -114.32743    1.7804827   -112.54695    18387.021    4.3212027    4.3212027    4.3212027    18387.021    1937.6659    43191.583    10031.813    13520.809   -11730.592    23186.803    80.688923 
   82800    1635.9028   -114.03096    1.4801992   -112.55076   -2322.2453    4.3341598    4.3341598    4.3341598   -2322.2453    64845.004   -24524.604   -47287.136    26340.047    1227.0192   -53823.982    81.416937 
   82900    1406.0919   -113.80755    1.2722615   -112.53528   -1544.5831    4.3418753    4.3418753    4.3418753   -1544.5831     43216.07   -1605.3769   -46244.443   -11218.722    410.63122   -38314.724    81.852519 
   83000    1968.6014   -114.29126    1.7812319   -112.51003   -14979.317    4.3406846    4.3406846    4.3406846   -14979.317   -38435.474    8211.9328   -14714.409    678.43388    711.96838    7204.9622    81.785195 
   83100    899.93565   -113.35021   0.81428069   -112.53593   -12628.615     4.326685     4.326685     4.326685   -12628.615    62632.182    -50787.17   -49730.855    15662.797   -10102.022   -119650.28     80.99642 
   83200    2730.7783   -114.99599    2.4708656   -112.52512    26512.193    4.3146749    4.3146749    4.3146749    26512.193    20863.006     24632.65    34040.924    13037.116    4898.7704    24106.488    80.323797 
   83300    1563.5285   -113.97231    1.4147134    -112.5576    321.65328    4.3216971    4.3216971    4.3216971    321.65328    41959.375   -47723.362    6728.9461   -8877.2747   -7115.3669   -67850.476    80.716619 
   83400    1406.6294   -113.83398    1.2727478   -112.56123   -12346.488    4.3348981    4.3348981    4.3348981   -12346.488    16978.217   -46346.638   -7671.0436    1922.7586   -5853.2347   -70148.359    81.458553 
   83500    2163.9778   -114.49295    1.9580125   -112.53494   -3582.6447    4.3403033    4.3403033    4.3403033   -3582.6447    43889.643   -18604.118    -36033.46    12848.707    -4028.659     34435.64    81.763644 
   83600    709.05833   -113.18013   0.64157088   -112.53856     2096.095    4.3291844    4.3291844    4.3291844     2096.095    152214.05   -77153.587   -68772.179    5932.8396   -2138.4701   -82779.167    81.136871 
   83700    2387.8599   -114.65708    2.1605858    -112.4965    11458.362    4.3318682    4.3318682    4.3318682    11458.362    14714.336    27456.537   -7795.7879   -10665.513   -5586.6429    28345.949    81.287864 
   83800    1010.2068   -113.43937    0.9140563   -112.52531   -36918.214    4.3361608    4.3361608    4.3361608   -36918.214    38968.351   -66708.783   -83014.208    2266.8734    -6024.962   -92963.425    81.529755 
   83900    1769.6722   -114.13235    1.6012366   -112.53112    17918.205    4.3151362    4.3151362    4.3151362    17918.205    73022.546    2875.8216   -22143.751    11832.001   -4268.2732   -31646.645    80.349563 
   84000    2301.7816   -114.61192    2.0827004   -112.52922   -6047.2643    4.3236147    4.3236147    4.3236147   -6047.2643    15019.636    -13941.06   -19220.369   -5979.8467    6994.7982   -11763.077    80.824114 
   84100    725.51273   -113.21058   0.65645916   -112.55412   -38670.664    4.3359092    4.3359092    4.3359092   -38670.664    53328.512   -97702.876   -71637.626   -15774.964   -7808.6921   -116436.31    81.515563 
   84200    2954.4783   -115.18787    2.6732741   -112.51459    7846.5445    4.3343231    4.3343231    4.3343231    7846.5445    19582.227    4491.5882   -534.18169    10661.883    3897.2736    29652.167     81.42614 
   84300    1079.6863   -113.50576   0.97692286   -112.52884   -28821.148    4.3462394    4.3462394    4.3462394   -28821.148    79878.379   -98819.223   -67522.599    2319.3479    4070.2722    -114096.4    82.099582 
   84400    2274.6149   -114.55149    2.0581194   -112.49337    1980.2383    4.3296739    4.3296739    4.3296739    1980.2383    19102.405   -12682.209    -479.4804   -29057.366    4506.1938    9808.0406    81.164398 
   84500    1416.3302   -113.78941    1.2815253   -112.50789    15975.744    4.3168493    4.3168493    4.3168493    15975.744    60311.785   -7111.4341   -5273.1194   -15643.388    1518.9031    -62292.04    80.445298 
   84600    1790.6642   -114.14927    1.6202306   -112.52904   -4947.8104    4.3231239    4.3231239    4.3231239   -4947.8104    70912.361   -44794.657   -40961.135    18033.171   -5409.8154    -85153.07    80.796594 
   84700    2404.8285   -114.69638    2.1759393   -112.52044    15392.389    4.3318126    4.3318126    4.3318126    15392.389   -7608.9758    19306.348    34479.796   -7050.6435    3590.7362    16674.284    81.284732 
   84800    562.27788    -113.0544   0.50876084   -112.54564   -11888.717    4.3471926    4.3471926    4.3471926   -11888.717    45309.122   -39664.125    -41311.15   -29204.484   -800.34297   -106194.15    82.153611 
   84900    2830.6055   -115.05892    2.5611913   -112.49773   -3447.1641    4.3451615    4.3451615    4.3451615   -3447.1641   -5602.1292    9094.1762   -13833.539   -6822.2133   -8558.3414    35260.011    82.038511 
   85000     1218.248   -113.62942    1.1022964   -112.52713    8834.1455    4.3184846    4.3184846    4.3184846    8834.1455     72889.33   -30969.154   -15417.739    1047.5633    1398.3853   -92767.865    80.536755 
   85100    1612.3346   -113.98921    1.4588743   -112.53034    1893.1381     4.312792     4.312792     4.312792    1893.1381    27372.425   -35968.136    14275.125   -34307.077   -5493.7748   -41686.199    80.218687 
   85200    2225.3732   -114.53867    2.0135645   -112.52511    17773.497    4.3222825    4.3222825    4.3222825    17773.497    14583.373   -2698.4105     41435.53   -6960.6189    12236.339    -1159.131    80.749426 
   85300    1183.2916   -113.61559    1.0706671   -112.54492    17168.703     4.336488     4.336488     4.336488    17168.703    46752.696   -21075.068    25828.481    8499.1082    2954.3165   -92627.706    81.548213 
   85400    2442.3149   -114.72635    2.2098578   -112.51649   -5088.6243    4.3440647    4.3440647    4.3440647   -5088.6243   -18481.262    469.36984    2746.0192   -29311.831   -6940.1073     31305.37      81.9764 
   85500     1049.914   -113.49073   0.94998424   -112.54075    16432.599    4.3170268    4.3170268    4.3170268    16432.599     62901.85   -20228.045    6623.9911   -11712.369   -441.25682   -77589.373    80.455223 
   85600    1932.7691   -114.28011    1.7488101    -112.5313     25027.32    4.3073446    4.3073446    4.3073446     25027.32    48091.175    29035.868   -2045.0832    7237.8663    3427.3213   -48362.365      79.9151 
   85700    2179.4174    -114.5099    1.9719826   -112.53792    1754.6262    4.3266928    4.3266928    4.3266928    1754.6262   -14547.203   -2593.5803    22404.662   -8663.4409    3601.2017    14082.736    80.996863 
   85800    470.64242   -112.99107   0.42584715   -112.56523   -8992.1478    4.3356344    4.3356344    4.3356344   -8992.1478    27580.969   -18584.882   -35972.531   -22795.783   -23681.873    -103267.5    81.500068 
   85900    2741.1488    -115.0026    2.4802491   -112.52235    912.80122    4.3387703    4.3387703    4.3387703    912.80122   -4336.1841    3178.8887     3895.699    9439.1768    10480.796    30768.947    81.677035 
   86000    837.15089   -113.29363   0.75747172   -112.53615   -11350.338    4.3357263    4.3357263    4.3357263   -11350.338    50235.922   -47462.897   -36824.039   -9055.2921   -5678.4761   -75238.072    81.505248 
   86100    1494.2695   -113.87542    1.3520464   -112.52338    2337.0203    4.3288929    4.3288929    4.3288929    2337.0203     42450.15   -53370.196    17931.107   -18442.897   -11151.129   -41406.072    81.120484 
   86200    2474.1911   -114.73663    2.2387001   -112.49793   -4704.1835    4.3322254    4.3322254    4.3322254   -4704.1835    4590.9051   -17171.516   -1531.9391     9027.527    12452.801     -10901.9    81.307973 
   86300    962.15451   -113.40306   0.87057762   -112.53248   -525.40523    4.3284943    4.3284943    4.3284943   -525.40523    36751.175   -66833.547    28506.156    -13914.45   -3743.7041    -93287.43    81.098074 
   86400    2572.4151   -114.85067    2.3275752   -112.52309    22046.548     4.322549     4.322549     4.322549    22046.548    1390.4232    18566.747    46182.474    -25227.04   -7110.0676    36229.358    80.764365 
   86500    1575.6522   -113.97195    1.4256832   -112.54627    18201.623    4.3217916    4.3217916    4.3217916    18201.623    35412.636   -12090.462    31282.694    7141.8957    8281.0593   -70398.108    80.721919 
   86600    1700.2193   -114.08996    1.5383942   -112.55156    -21428.52     4.333336     4.333336     4.333336    -21428.52    -8000.533    -43987.28   -12297.748   -12678.969    4355.0488   -43203.434    81.370518 
   86700    2369.9012   -114.67591    2.1443364   -112.53158   -2722.2683    4.3313109    4.3313109    4.3313109   -2722.2683   -25146.743    3705.6256    13274.312   -20220.312   -1554.3527    37323.728    81.256493 
   86800    1253.0694   -113.67858    1.1338035   -112.54478   -5332.5321    4.3275839    4.3275839    4.3275839   -5332.5321    35911.773   -29120.493   -22788.877    20082.769    9354.2739   -84149.502    81.046913 
   86900    1701.8619   -114.07695    1.5398804   -112.53707   -22676.705    4.3346285    4.3346285    4.3346285   -22676.705   -41259.645    -41728.23    14957.761   -39994.527    3280.0833   -1029.4955    81.443353 
   87000    1683.3475   -114.06124    1.5231282   -112.53811    -14925.64    4.3279733    4.3279733    4.3279733    -14925.64   -20334.854   -35885.022    11442.955   -30034.045   -2472.2201    12808.334    81.068797 
   87100    1396.4667   -113.80711    1.2635524   -112.54356   -925.38705    4.3171216    4.3171216    4.3171216   -925.38705    46379.271   -32589.773   -16565.659     18203.62    1347.3039   -71913.888    80.460523 
   87200    1788.5117   -114.16429     1.618283   -112.54601   -6940.4779    4.3264194    4.3264194    4.3264194   -6940.4779    -52270.86    2681.4203    28768.006   -66676.319    269.81983    11101.723    80.981506 
   87300    1788.5952   -114.15838    1.6183585   -112.54003    -24866.21    4.3395012    4.3395012    4.3395012    -24866.21   -23171.323   -22853.987   -28573.322   -27847.932   -1237.0638   -24870.571    81.718322 
   87400    1768.6253   -114.13531    1.6002893   -112.53502    10637.016    4.3254618    4.3254618    4.3254618    10637.016    34977.732    31072.767    -34139.45    6227.1836    1017.9323   -56143.781    80.927745 
   87500    1785.6097   -114.15061    1.6156572   -112.53495    11132.291    4.3207494    4.3207494    4.3207494    11132.291   -49242.292    36391.176    46247.988   -80352.133   -2732.9769    19642.657    80.663534 
   87600    1986.2761   -114.33976    1.7972243   -112.54254   -3515.1554    4.3236448    4.3236448    4.3236448   -3515.1554    1110.1565    9104.1888   -20759.811    13113.655    6348.0041   -28164.466    80.825801 
   87700    1644.5056     -114.041    1.4879832   -112.55302     13089.67     4.318307     4.318307     4.318307     13089.67     42471.11    1434.9281   -4637.0278   -4007.4623    1368.3571   -52969.668    80.526816 
   87800    1707.0662   -114.10015    1.5445893   -112.55556    -6947.962    4.3304993    4.3304993    4.3304993    -6947.962   -15752.408   -31922.306    26830.828   -75642.668    7537.9058    20977.673    81.210825 
   87900    1907.6308   -114.27163    1.7260644   -112.54557   -11839.519    4.3314526    4.3314526    4.3314526   -11839.519    1972.4247   -23189.406   -14301.575    46461.771    8344.8888   -16110.604    81.264469 
   88000    1253.8772   -113.68601    1.1345345   -112.55147     7563.572    4.3170637    4.3170637    4.3170637     7563.572    69015.383   -57486.221    11161.554   -6634.8193   -7502.5158   -49698.447    80.457287 
   88100    1926.6061   -114.28738    1.7432337   -112.54414     11639.88    4.3180482    4.3180482    4.3180482     11639.88     14375.71   -17910.502    38454.433   -69690.025    9103.6825     10704.44    80.512341 
   88200     1558.401   -113.96113    1.4100739   -112.55105    6473.2287    4.3254893    4.3254893    4.3254893    6473.2287     15163.01    -24362.39    28619.066    50692.066   -805.56226   -22893.413    80.929292 
   88300    1257.1279   -113.69564    1.1374757   -112.55817   -5947.3325    4.3294891    4.3294891    4.3294891   -5947.3325    55122.715       -54273   -18691.713    1741.0493   -6407.8309     -35024.3    81.154006 
   88400    2785.9122   -115.05297    2.5207519   -112.53221    806.99836    4.3308917    4.3308917    4.3308917    806.99836   -6335.7412     12868.79   -4112.0534   -39491.492    2356.0621     19586.16    81.232905 
   88500    912.22097   -113.39477   0.82539671   -112.56937   -4716.5989    4.3212596    4.3212596    4.3212596   -4716.5989    16146.039   -35195.754    4899.9175        53605   -5082.4229    -38817.44    80.692112 
   88600    1437.4269   -113.87648    1.3006141   -112.57587    12008.555    4.3182532    4.3182532    4.3182532    12008.555    40004.894    12484.118   -16463.347    22174.369    1596.7862   -22687.801    80.523811 
   88700    2855.0777   -115.12933    2.5833343   -112.54599   -2354.4584    4.3346953    4.3346953    4.3346953   -2354.4584   -18772.831    9110.1382     2599.318   -27927.371   -6477.6718    17213.504    81.447116 
   88800    817.89221   -113.30009   0.74004606   -112.56005   -13330.257    4.3360121    4.3360121    4.3360121   -13330.257    14354.842   -57265.674     2920.062    40775.398    5880.0147   -53116.587    81.521366 
   88900    2230.7269   -114.55385    2.0184086   -112.53545    8745.6563    4.3306239    4.3306239    4.3306239    8745.6563    25065.196    -973.4798    2145.2522    8177.0827   -10257.081    -16751.97    81.217836 
   89000    1845.5246    -114.2084    1.6698694   -112.53853    -8092.239    4.3259686    4.3259686    4.3259686    -8092.239    7132.4443    -33678.57    2269.4089    -10206.45    17868.356     17217.96    80.956193 
   89100    915.99229   -113.38774   0.82880907   -112.55894    3803.6572    4.3116357    4.3116357    4.3116357    3803.6572    53903.331   -64322.855    21830.495    25899.351    12394.272   -57303.576    80.154183 
   89200    2160.7053   -114.50604    1.9550515   -112.55099    -357.8688    4.3185878    4.3185878    4.3185878    -357.8688    22992.766    -36419.82    12353.447    12054.325   -16743.171    2429.9506    80.542528 
   89300    899.94533   -113.38536   0.81428945   -112.57107   -14188.489    4.3310068    4.3310068    4.3310068   -14188.489    18416.156   -21886.311   -39095.311   -9001.4193   -2788.3689    44320.722    81.239381 
   89400    2049.8603   -114.40596    1.8547567   -112.55121   -1431.5437     4.331039     4.331039     4.331039   -1431.5437    1089.7576   -28463.987    23079.599    16046.242    9818.9216   -21313.847    81.241191 
   89500    1904.1617   -114.26982    1.7229256    -112.5469   -10255.815    4.3311334    4.3311334    4.3311334   -10255.815    3849.1712   -22931.248   -11685.368   -944.55529   -24750.372    19992.873    81.246502 
   89600    890.34033   -113.36917   0.80559864   -112.56357   -13572.354    4.3225817    4.3225817    4.3225817   -13572.354   -4263.7332    5137.3353   -41590.664    -8673.931   -20437.928    39223.129    80.766194 
   89700    2306.9248   -114.63689    2.0873541   -112.54954    22557.474     4.311968     4.311968     4.311968    22557.474    14838.908    14511.116      38322.4    6998.4037    12474.954   -23990.446    80.172717 
   89800    1343.1662   -113.78953     1.215325   -112.57421   -4962.8378    4.3246929    4.3246929    4.3246929   -4962.8378     30540.89    2466.7777   -47896.181   -4926.0881   -18375.012   -36809.731    80.884595 
   89900    1244.0132    -113.6984    1.1256093   -112.57279   -18113.534    4.3366299    4.3366299    4.3366299   -18113.534   -15573.203    12724.809    -51492.21   -6518.3259   -35815.773    42533.969    81.556218 
   90000    2354.2872    -114.6808    2.1302085   -112.55059    501.66189    4.3283887    4.3283887    4.3283887    501.66189   -11498.157    17535.242   -4532.0994   -16171.716    10209.566   -19557.167    81.092141 
   90100     1400.061   -113.82997    1.2668046   -112.56317    10661.489    4.3144798    4.3144798    4.3144798    10661.489    17811.728    49377.071   -35204.333   -5366.6448     2573.776   -37966.337    80.312902 
   90200    1666.9403    -114.0774    1.5082826   -112.56911   -6304.7561    4.3120904    4.3120904    4.3120904   -6304.7561   -548.30483     37063.88   -55429.843    7931.4366   -46138.652    45646.714    80.179543 
   90300    2060.0868   -114.43319    1.8640098   -112.56918    1566.6675    4.3212609    4.3212609    4.3212609    1566.6675   -19524.032    44934.345    -20710.31    -3076.389     31406.19    4651.1403    80.692184 
   90400    1476.5555   -113.90966    1.3360185   -112.57364   -26757.592    4.3338155    4.3338155    4.3338155   -26757.592   -28720.792    19883.542   -71435.528   -2207.9645    31372.388   -31303.534    81.397536 
   90500    2066.1105   -114.42298    1.8694602   -112.55352   -3506.0348    4.3318451    4.3318451    4.3318451   -3506.0348    22637.704    435.48181    -33591.29    8243.3331   -47502.085    17666.537    81.286562 
   90600    1567.1212   -113.97854    1.4179642   -112.56058   -5238.8533    4.3181211    4.3181211    4.3181211   -5238.8533   -31555.285    62635.093   -46796.368    6909.3179    77357.888    7291.4429     80.51642 
   90700    1672.8057    -114.0759    1.5135898   -112.56231    19686.943    4.3140716    4.3140716    4.3140716    19686.943    19429.025    34842.404    4789.4014   -7763.0731    30320.585   -12293.862    80.290109 
   90800    2315.1986   -114.64064    2.0948404    -112.5458   -15412.111    4.3356108    4.3356108    4.3356108   -15412.111    2806.7753   -24475.751   -24567.357   -21259.065   -2907.6727    12462.533    81.498737 
   90900     1096.489   -113.54441   0.99212633   -112.55229   -27045.559    4.3418728    4.3418728    4.3418728   -27045.559   -46039.802    26524.734   -61621.607    26161.076    98463.522    4214.8483    81.852376 
   91000    2388.4178   -114.68809    2.1610906     -112.527    3434.5117    4.3249746    4.3249746    4.3249746    3434.5117    19955.805   -35654.541    26002.271   -6167.1043    -22001.74   -9280.6903      80.9004 
   91100    1621.6337   -114.01624    1.4672883   -112.54896   -12982.686    4.3159342    4.3159342    4.3159342   -12982.686   -30649.596   -9234.2697    935.80756   -42243.431    48831.106   -253.56087     80.39415 
   91200    1711.8844   -114.11356     1.548949   -112.56461    2018.8719     4.312536     4.312536     4.312536    2018.8719     10496.82    35566.806    -40007.01    13962.504    81429.088    -481.7188    80.204401 
   91300    2066.5323   -114.43636    1.8698419   -112.56651   -7499.6772    4.3266359    4.3266359    4.3266359   -7499.6772   -291.36433   -47277.903    25070.236   -10757.983   -31022.433    5038.8013    80.993664 
   91400    1164.9071   -113.62994    1.0540324   -112.57591    -22318.34    4.3343529    4.3343529    4.3343529    -22318.34   -47332.388   -38280.691    18658.061   -37910.347    23972.913   -2838.5067    81.427818 
   91500    2243.6313   -114.57995    2.0300848   -112.54987    1654.1717      4.32683      4.32683      4.32683    1654.1717     5088.278    2405.1693   -2530.9322    11998.146    36593.031   -2384.5122    81.004564 
   91600    1266.1213   -113.71345    1.1456132   -112.56783   -25859.625    4.3213603    4.3213603    4.3213603   -25859.625    -46073.87   -55087.003    23581.997   -14245.636   -33299.406    3889.7516    80.697752 
   91700    991.41575   -113.48146    0.8970538   -112.58441    4140.4341    4.3085356    4.3085356    4.3085356    4140.4341   -6015.1041    -45408.71    63845.116    -38413.19   -9719.3958    4051.8425    79.981409 
   91800    2658.2995   -114.96977    2.4052852   -112.56449     14207.07    4.3227729    4.3227729    4.3227729     14207.07    76076.867   -35013.251    1557.5946    10574.816    14494.955   -4838.8963    80.776913 
   91900      1122.76   -113.59021    1.0158968   -112.57432   -16845.654    4.3402069    4.3402069    4.3402069   -16845.654   -1438.6304   -45192.044   -3906.2868    -26797.37   -23447.129   -7495.9118    81.758195 
   92000    1520.8345   -113.92381     1.376083   -112.54773   -4034.3856    4.3350118    4.3350118    4.3350118   -4034.3856   -5832.8642   -38027.238    31756.946   -13582.475   -15694.403    4055.8211    81.464958 
   92100    1851.2796   -114.20989    1.6750766   -112.53482   -9500.4078    4.3246247    4.3246247    4.3246247   -9500.4078    16190.248   -7061.2274   -37630.244    14187.217    31681.831   -11829.333    80.880767 
   92200    1130.8642   -113.57685    1.0232297   -112.55362   -1505.8386    4.3103851    4.3103851    4.3103851   -1505.8386   -31284.085    2294.7713    24471.798   -49255.754    23692.203   -10655.727    80.084452 
   92300     2171.595   -114.52703    1.9649047   -112.56213    15692.127    4.3129599    4.3129599    4.3129599    15692.127   -1234.7451    11780.463    36530.662   -40980.128   -12048.173    12965.258    80.228052 
   92400    1826.9547   -114.22748     1.653067   -112.57441   -134.71456    4.3260543    4.3260543    4.3260543   -134.71456    24233.323    19488.273   -44125.739    26000.575    16747.462    7218.1693    80.961006 
   92500    897.37063   -113.39511   0.81195981   -112.58315   -2844.2233    4.3319005    4.3319005    4.3319005   -2844.2233   -15459.751    22942.534   -16015.453   -38891.697    31398.016   -14756.292    81.289681 
   92600     2188.202   -114.53604    1.9799311    -112.5561   -11139.701    4.3316764    4.3316764    4.3316764   -11139.701    -17199.65    -4036.281   -12183.171   -28592.451   -19740.222     9772.478    81.277064 
   92700    1356.6592   -113.79223    1.2275338    -112.5647    11103.038    4.3138235    4.3138235    4.3138235    11103.038     23010.99     30456.54   -20158.418     30018.74   -9560.2404    3236.8519    80.276255 
   92800     1489.506   -113.91148    1.3477363   -112.56375    16002.556    4.3132576    4.3132576    4.3132576    16002.556    31320.137    37099.356   -20411.826   -11553.125    47776.845   -17883.325    80.244669 
   92900    1802.2375    -114.1854    1.6307024   -112.55469   -21886.726    4.3382562    4.3382562    4.3382562   -21886.726   -33025.692    23975.679   -56610.166   -13238.999   -44848.437    4678.6585    81.648009 
   93000    1440.8889   -113.85806    1.3037466   -112.55431   -7520.1719     4.332127     4.332127     4.332127   -7520.1719   -17734.242     31907.83   -36734.103    17829.424   -29652.056    11598.579    81.302434 
   93100    1865.4719   -114.22746    1.6879182   -112.53954    17842.823    4.3197003    4.3197003    4.3197003    17842.823    28011.487    29164.899   -3647.9164    4919.4236    38476.994   -29196.928    80.604788 
   93200    1621.5118   -114.01908     1.467178   -112.55191   -13235.232    4.3200408    4.3200408    4.3200408   -13235.232   -51019.647    72823.744   -61509.794     2360.966   -88093.008    378.18336    80.623854 
   93300     2218.406   -114.55885    2.0072604   -112.55159    15962.606    4.3139159    4.3139159    4.3139159    15962.606    17184.431    42028.007    -11324.62     1070.531   -20818.995   -7712.6428    80.281414 
   93400    1817.0073   -114.21505    1.6440664   -112.57098   -12087.454    4.3247239    4.3247239    4.3247239   -12087.454    5648.6364   -5403.1002   -36507.897    4423.1073   -10220.483   -32954.709    80.886338 
   93500    869.89442   -113.37569   0.78709875   -112.58859   -37941.437    4.3305234    4.3305234    4.3305234   -37941.437   -61732.441    41041.926   -93133.795    8059.1755   -95251.314   -5750.2198    81.212178 
   93600    2657.9618   -114.96746    2.4049797   -112.56248    17170.954    4.3122308    4.3122308    4.3122308    17170.954    40888.524    17472.877   -6848.5399   -3461.8331     37571.82    15949.474    80.187374 
   93700    1482.9235   -113.92496    1.3417803   -112.58318   -3310.4623    4.3151167    4.3151167    4.3151167   -3310.4623   -42245.736    56348.258   -24033.909    11137.053    -59838.96     6010.636    80.348472 
   93800    1174.3794   -113.64742    1.0626032   -112.58481   -15649.432    4.3271286    4.3271286    4.3271286   -15649.432   -55189.401    28352.558   -20111.454     10441.23    -81895.71       -13942    81.021337 
   93900    2569.6148   -114.87786    2.3250415   -112.55282    3750.8368    4.3270944    4.3270944    4.3270944    3750.8368    13758.102   -11516.425    9010.8337   -6125.8642    29817.343    3853.7856    81.019418 
   94000    1311.2324   -113.75101    1.1864307   -112.56458   -16826.011    4.3296476    4.3296476    4.3296476   -16826.011   -53312.473    59178.591   -56344.151    147.46483   -89597.354    15059.534    81.162919 
   94100    2039.6016   -114.39514    1.8454744   -112.54967    843.27412    4.3255086    4.3255086    4.3255086    843.27412   -20489.274    26998.114   -3979.0178   -3265.1087    -14477.71   -8552.9552    80.930374 
   94200    1964.9031   -114.32699    1.7778856    -112.5491    12335.578    4.3175151    4.3175151    4.3175151    12335.578    9100.1887    21571.468    6335.0783   -8563.8995   -12904.859   -13744.237    80.482527 
   94300    663.52014     -113.174   0.60036697   -112.57363   -6740.3145    4.3223023    4.3223023    4.3223023   -6740.3145    6980.5859    48797.434   -75998.963    3622.3042   -99116.642    20510.729    80.750537 
   94400    2374.6224   -114.69785    2.1486083   -112.54924   -7034.4847    4.3315555    4.3315555    4.3315555   -7034.4847    378.35466   -11276.747   -10205.061   -3546.3431    37125.263    15527.094    81.270262 
   94500    1252.3987   -113.69288    1.1331967   -112.55968   -5840.4653    4.3273509    4.3273509    4.3273509   -5840.4653   -73644.785    62246.337   -6122.9487    4548.2255   -69519.396   -4653.7947    81.033827 
   94600    1298.2496   -113.73045    1.1746835   -112.55576    11186.388    4.3245873    4.3245873    4.3245873    11186.388   -9146.1189    36274.971    6430.3118   -4281.4729     -52987.3    11685.853    80.878669 
   94700    2221.0185   -114.54639    2.0096242   -112.53676    4028.7241    4.3287531    4.3287531    4.3287531    4028.7241   -935.17527   -5347.1718    18368.519   -1091.9614    8308.2013    19771.473    81.112625 
   94800    1311.3157   -113.74386     1.186506   -112.55736   -7258.0471    4.3223288    4.3223288    4.3223288   -7258.0471   -55866.121    66783.358   -32691.378     6545.881   -97952.427   -8898.1751    80.752022 
   94900    2156.9946   -114.50108    1.9516941   -112.54939    19791.938    4.3153255    4.3153255    4.3153255    19791.938    17873.819    23996.483    17505.512   -9281.8008    10175.275    7862.1995     80.36014 
   95000    1181.5943   -113.64037    1.0691314   -112.57124    4930.3596    4.3271335    4.3271335    4.3271335    4930.3596    20406.881     20676.09   -26291.892    -4080.613   -42522.132    23578.091     81.02161 
   95100    1301.6082   -113.74669    1.1777224   -112.56896   -10923.013     4.339479     4.339479     4.339479   -10923.013   -24058.336    39417.275   -48127.976   -1916.5103   -84720.892   -10895.836    81.717066 
   95200    3094.5028   -115.32656    2.7999712   -112.52659    2160.9091    4.3341607    4.3341607    4.3341607    2160.9091    8379.2544   -7238.2641    5341.7371   -782.67567    26283.398    5162.5212    81.416986 
   95300    964.11174   -113.43772   0.87234857   -112.56537   -3087.4192    4.3236583    4.3236583    4.3236583   -3087.4192   -38237.172    56509.301   -27534.387   -7135.6996   -87367.397    17380.117    80.826558 
   95400    1352.4078    -113.7946     1.223687   -112.57091   -3468.1202    4.3156072    4.3156072    4.3156072   -3468.1202   -12858.584    25663.676   -23209.453   -6187.0862   -37262.171    6781.8078    80.375876 
   95500    2328.7569    -114.6666    2.1071082   -112.55949    18102.454    4.3127233    4.3127233    4.3127233    18102.454     11240.41    15747.054    27319.899    55.478869    9681.6787   -14489.129    80.214852 
   95600    1263.6256   -113.73083     1.143355   -112.58748   -18272.489    4.3253898    4.3253898    4.3253898   -18272.489   -61393.872    57276.803   -50700.397    5374.0562   -95245.842   -617.29743    80.923707 
   95700    2178.7778   -114.53991     1.971404   -112.56851   -497.57894    4.3249801    4.3249801    4.3249801   -497.57894   -5638.7829    11149.114   -7003.0674    861.62972    12705.869    36368.616    80.900713 
   95800    1568.6269   -113.99051    1.4193266   -112.57118    11534.573    4.3155316    4.3155316    4.3155316    11534.573    19295.689    19377.989   -4069.9594   -7362.7032   -36673.787    8423.2182    80.371654 
   95900    1396.0837    -113.8434    1.2632058   -112.58019   -21293.354    4.3214297    4.3214297    4.3214297   -21293.354    -42193.55    17896.357    -39582.87    9048.6422   -89786.599   -20946.793    80.701642 
   96000     2371.012   -114.70238    2.1453415   -112.55703    4880.1751    4.3195393    4.3195393    4.3195393    4880.1751    31624.944   -20768.668    3784.2484    1904.2107    33458.893    3679.6608    80.595779 
   96100    1074.6442   -113.54513   0.97236064   -112.57277    10.691954    4.3243721    4.3243721    4.3243721    10.691954     11484.21    18614.688   -30066.822   -11178.558   -56106.156    31752.406      80.8666 
   96200     1388.342   -113.81578     1.256201   -112.55958   -15767.503    4.3352925    4.3352925    4.3352925   -15767.503   -10407.016   -845.25112   -36050.242    898.23911    -38731.67    -20828.33    81.480786 
   96300    2022.0149   -114.37404    1.8295615   -112.54448   -540.97454    4.3248294    4.3248294    4.3248294   -540.97454    16221.732   -14221.811   -3622.8455    2077.3345    15959.074   -54922.296    80.892254 
   96400    1353.6506   -113.78595    1.2248115   -112.56114   -6047.4873    4.3114189    4.3114189    4.3114189   -6047.4873   -52075.189     59485.87   -25553.143   -2902.6773   -76718.396    15824.131    80.142089 
   96500    1379.0385   -113.81941    1.2477831   -112.57162   -6151.0296    4.3122532    4.3122532    4.3122532   -6151.0296    12591.628     2404.605   -33449.321   -9610.5379    -22124.59   -3206.5471    80.188626 
   96600    1453.8861    -113.8936    1.3155067    -112.5781   -8469.9535    4.3187562    4.3187562    4.3187562   -8469.9535    29381.163   -13338.145   -41452.878   -8965.2558    14124.648   -57777.294    80.551951 
   96700    1636.2071   -114.06019    1.4804746   -112.57971   -7315.6357    4.3229811    4.3229811    4.3229811   -7315.6357   -70950.607    77953.031   -28949.331    14297.568       -38615   -2507.1116    80.788585 
   96800    1716.7365   -114.12194    1.5533393    -112.5686   -4658.3306    4.3239713    4.3239713    4.3239713   -4658.3306    -17928.32     27317.12   -23363.792    -5373.063   -12375.988    12132.629    80.844117 
   96900    975.69634   -113.45855   0.88283055   -112.57572   -13477.316    4.3197317    4.3197317    4.3197317   -13477.316    18820.765    4410.8616   -63663.575   -5970.6769    16488.015   -19366.869     80.60655 
   97000    1725.5734   -114.13255    1.5613351   -112.57122    9088.6652    4.3152404    4.3152404    4.3152404    9088.6652   -14155.557    53274.834   -11853.281    19581.735    4916.8056   -21038.195    80.355385 
   97100    2184.4262   -114.54201    1.9765148    -112.5655    12051.252    4.3166125    4.3166125    4.3166125    12051.252    16697.428    31387.316   -11930.987   -7366.1639   -7471.0812    31733.848     80.43206 
   97200    531.98663   -113.07396   0.48135268   -112.59261   -30854.036    4.3226335    4.3226335    4.3226335   -30854.036    38539.112   -33189.241    -97911.98   -1452.5233    10620.182   -1493.7877      80.7691 
   97300    1808.8829   -114.20988    1.6367153   -112.57317   -4428.3924    4.3214747    4.3214747    4.3214747   -4428.3924    5752.0917     18689.19   -37726.459    6823.5403    16171.815   -30680.473     80.70416 
   97400    2033.0245   -114.40242    1.8395233    -112.5629   -8098.0462    4.3222664    4.3222664    4.3222664   -8098.0462   -28644.835    47600.573   -43249.877   -9500.6553   -39321.742    19290.639    80.748525 
   97500    881.73996   -113.37347   0.79781685   -112.57565   -4957.3415    4.3201306    4.3201306    4.3201306   -4957.3415    49051.481    2991.4888   -66914.994    14472.321   -8523.3396    659.09361     80.62888 
   97600    1860.5997   -114.24334    1.6835097   -112.55983    5584.6342    4.3175598    4.3175598    4.3175598    5584.6342    33185.235    20006.498    -36437.83   -7252.5697    3341.3184   -22110.229    80.485023 
   97700     1778.595   -114.17126    1.6093101   -112.56195    3398.7784     4.319477     4.319477     4.319477    3398.7784   -53104.077     82106.62   -18806.207    -5703.931   -67816.702    4136.0701    80.592288 
   97800    1599.6502   -114.01149    1.4473971   -112.56409    1031.4146    4.3230661    4.3230661    4.3230661    1031.4146    18263.338    16373.371   -31542.466    9323.8587    719.79073    17375.719    80.793354 
   97900    1425.8547   -113.85854    1.2901433    -112.5684   -1938.4836    4.3203153    4.3203153    4.3203153   -1938.4836    27821.161    22781.054   -56417.666   -10931.603   -12047.674   -14115.919    80.639224 
   98000    2075.1901   -114.43783    1.8776756   -112.56016    18688.709    4.3171346    4.3171346    4.3171346    18688.709   -21162.431    76159.813    1068.7444    5007.2647   -58438.747    -10493.19    80.461251 
   98100    1926.7653   -114.30568    1.7433777   -112.56231    -651.1794     4.321406     4.321406     4.321406    -651.1794    16686.828    22833.025   -41473.391    7323.5697    16595.839     38645.55    80.700311 
   98200    1045.5509   -113.52444    0.9460364    -112.5784   -2947.8372     4.320479     4.320479     4.320479   -2947.8372    43029.948    22245.709   -74119.169   -6474.1753   -427.58584   -16382.998    80.648386 
   98300    2567.9561   -114.88045    2.3235407   -112.55691    12321.581    4.3213591    4.3213591    4.3213591    12321.581   -3000.7374    50925.802   -10960.321    10323.451   -21007.318   -31629.419    80.697684 
   98400    1837.9337   -114.23341    1.6630011   -112.57041    -6560.645    4.3227669    4.3227669    4.3227669    -6560.645    5998.1622    29211.974   -54892.071   -5772.7245    26894.285    43905.295    80.776576 
   98500    822.82287   -113.33134   0.74450743   -112.58683   -20933.495     4.316307     4.316307     4.316307   -20933.495    57472.163   -25551.867    -94720.78   -6397.6994    16055.696    -26283.96    80.414985 
   98600    2171.1482   -114.53719    1.9645005   -112.57269   -215.35027    4.3151851    4.3151851    4.3151851   -215.35027    8030.0754    22134.387   -30810.513    3614.2074   -14592.745   -29254.304    80.352296 
   98700    1787.2957   -114.19075    1.6171827   -112.57356    1199.7866    4.3179667    4.3179667    4.3179667    1199.7866   -23564.063    61851.494   -34688.072   -11400.835   -9317.4733    8726.0207    80.507782 
   98800    1270.8616   -113.72571    1.1499023   -112.57581   -5811.6273    4.3202562    4.3202562    4.3202562   -5811.6273    62278.644   -21719.787   -57993.739    8735.5937    19964.495   -8316.6114    80.635914 
   98900    1279.9595   -113.72835    1.1581343   -112.57021   -25408.396    4.3269581    4.3269581    4.3269581   -25408.396   -1705.9959   -15887.984   -58631.208   -1638.9424   -31127.868   -17266.692    81.011759 
   99000     1780.634   -114.17183     1.611155   -112.56068   -9680.3602    4.3181234    4.3181234    4.3181234   -9680.3602   -38904.007     37346.17   -27483.244   -8534.8812   -53450.816    8793.3784     80.51655 
   99100    1597.7288   -114.00925    1.4456586   -112.56359    6463.5375    4.3120565    4.3120565    4.3120565    6463.5375    63128.953   -2669.3849   -41068.956    2704.0491    19560.757    4594.2898    80.177652 
   99200    1077.9738   -113.55716   0.97537336   -112.58179   -21338.694    4.3184271    4.3184271    4.3184271   -21338.694    20401.743   -2529.7164   -81888.109   -5490.5428   -20326.719   -22669.943    80.533536 
   99300    2654.6386   -114.96058    2.4019728   -112.55861    7128.1833    4.3202543    4.3202543    4.3202543    7128.1833   -12874.088    54658.119   -20399.481    2092.3106   -20790.033    519.96055    80.635808 
   99400    1362.6946   -113.81386    1.2329947   -112.58087   -18788.162      4.32631      4.32631      4.32631   -18788.162     24771.24    1491.3414   -82627.068     4527.491    36412.436    14626.833    80.975364 
   99500    1025.9244   -113.51762   0.92827796   -112.58934   -13674.063    4.3214772    4.3214772    4.3214772   -13674.063    63506.475   -7065.4811   -97463.183   -2881.6034    8426.6824    -28404.13    80.704299 
   99600    3057.6865   -115.32002     2.766659   -112.55336    16736.112     4.314094     4.314094     4.314094    16736.112   -12739.166    67749.761   -4802.2581    8092.6432   -14910.535   -11032.786     80.29136 
   99700     1569.265   -113.99382     1.419904   -112.57392   -5341.8405    4.3199923    4.3199923    4.3199923   -5341.8405   -9898.8363    50070.663   -56197.348   -1766.0313    3803.7701   -566.03251    80.621139 
   99800    1515.0799   -113.93464    1.3708762   -112.56377   -5887.2439    4.3249369    4.3249369    4.3249369   -5887.2439    49827.521   -9408.9931    -58080.26     5372.088    24531.525   -18722.145    80.898285 
   99900    1859.0372   -114.23544    1.6820959   -112.55334   -9143.4157    4.3271606    4.3271606    4.3271606   -9143.4157    -38304.41    40778.089   -29903.926    5745.4189   -60825.693    8600.2994    81.023133 
  100000    1651.3083   -114.05095    1.4941384   -112.55681   -5657.6356    4.3213038    4.3213038    4.3213038   -5657.6356   -34315.416    45833.325   -28490.816   -2635.0016   -32980.553   -10984.897    80.694586 
Loop time of 22.6298 on 1 procs for 100000 steps with 8 atoms

Pair  time (%) = 7.06947 (31.2396)
Kspce time (%) = 5.38993 (23.8178)
Neigh time (%) = 0.254575 (1.12495)
Comm  time (%) = 1.12455 (4.96932)
Outpt time (%) = 0.0264552 (0.116904)
Other time (%) = 8.76484 (38.7314)

Nlocal:    8 ave 8 max 8 min
Histogram: 1 0 0 0 0 0 0 0 0 0
Nghost:    2147 ave 2147 max 2147 min
Histogram: 1 0 0 0 0 0 0 0 0 0
Neighs:    2196 ave 2196 max 2196 min
Histogram: 1 0 0 0 0 0 0 0 0 0

Total # of neighbors = 2196
Ave neighs/atom = 274.5
Neighbor list builds = 3008
Dangerous builds = 0
unfix 20
unfix 21
print "seeds:988445"
seeds:988445
