LAMMPS (10 Feb 2015)
# ---- initialize simulations
clear
units metal
dimension 3
boundary p p p
atom_style charge
atom_modify map array
# ---- create atoms
read_data /Users/eugeneragasa/pyflamestk_git/pypospack/tests/tests_integration/workflow/WorkflowLammpsThermalExpansion/param_9544/MgO_NaCl_unit.npt.T600/lammps.structure
  triclinic box = (0 0 0) to (4.2565 4.2565 4.2565) with tilt (0 0 0)
  1 by 1 by 1 MPI processor grid
  reading atoms ...
  8 atoms
# ---- define interatomic potential
include potential.mod
mass 1 24.305
mass 2 15.999

group Mg type 1
4 atoms in group Mg
group O type 2
4 atoms in group O

set group Mg charge 1.64252902328
  4 settings made for charge
set group O charge -1.64252902328
  4 settings made for charge

variable R_cut equal 10.0

pair_style buck/coul/long ${R_cut}
pair_style buck/coul/long 10
pair_coeff 1 1 0.0 0.5 0.0 ${R_cut}
pair_coeff 1 1 0.0 0.5 0.0 10
pair_coeff 1 2 1425.65456865 0.277130619093 0.0 ${R_cut}
pair_coeff 1 2 1425.65456865 0.277130619093 0.0 10
pair_coeff 2 2 8710.58674493 0.211543782712 -4.62088168449 ${R_cut}
pair_coeff 2 2 8710.58674493 0.211543782712 -4.62088168449 10

kspace_style pppm 1.0e-5

neighbor 1.0 bin
neigh_modify every 1 delay 0 check yes
# ---- define settings
compute eng all pe/atom
compute eatoms all reduce sum c_eng
# ---- run minimization
reset_timestep 0
fix 1 all box/relax iso 0.0 vmax 0.001
thermo 10
thermo_style custom step pe lx ly lz xy xz yz press pxx pyy pzz pxy pxz pyz c_eatoms
min_style cg
minimize 1e-25 1e-25 5000 10000
PPPM initialization ...
  G vector (1/distance) = 0.352708
  grid = 8 8 8
  stencil order = 5
  estimated absolute RMS force accuracy = 3.89813e-05
  estimated relative force accuracy = 2.7071e-06
  using double precision FFTs
  3d grid and FFT values/proc = 3375 512
Neighbor list info ...
  1 neighbor list requests
  update every 1 steps, delay 0 steps, check yes
  master list distance cutoff = 11
Memory usage per processor = 4.06549 Mbytes
Step PotEng Lx Ly Lz Xy Xz Yz Press Pxx Pyy Pzz Pxy Pxz Pyz eatoms 
       0   -111.38871       4.2565       4.2565       4.2565            0            0            0   -14022.103   -14022.103   -14022.103   -14022.103 -1.0617953e-11 -7.0203049e-11 5.2505523e-12   -111.38871 
       6    -111.3915    4.2448057    4.2448057    4.2448057            0            0            0    11.870105    11.870105    11.870105    11.870105 -3.2023954e-10 4.899455e-11 2.2757866e-10    -111.3915 
Loop time of 0.0163212 on 1 procs for 6 steps with 8 atoms

Minimization stats:
  Stopping criterion = linesearch alpha is zero
  Energy initial, next-to-last, final = 
        -111.388714234     -111.391500014     -111.391500014
  Force two-norm initial, final = 2.0248 0.00171153
  Force max component initial, final = 2.0248 0.00170464
  Final line search alpha, max atom move = 0.00229153 3.90625e-06
  Iterations, force evaluations = 6 44

Pair  time (%) = 0.0045495 (27.8748)
Kspce time (%) = 0.00267053 (16.3623)
Neigh time (%) = 0 (0)
Comm  time (%) = 0.000502825 (3.08081)
Outpt time (%) = 0 (0)
Other time (%) = 0.00859833 (52.682)

Nlocal:    8 ave 8 max 8 min
Histogram: 1 0 0 0 0 0 0 0 0 0
Nghost:    2189 ave 2189 max 2189 min
Histogram: 1 0 0 0 0 0 0 0 0 0
Neighs:    2344 ave 2344 max 2344 min
Histogram: 1 0 0 0 0 0 0 0 0 0

Total # of neighbors = 2344
Ave neighs/atom = 293
Neighbor list builds = 0
Dangerous builds = 0
unfix 1
# ---- define output variables ----
variable natoms equal "count(all)"
variable tot_energy equal "c_eatoms"
variable length_x equal "lx"
variable length_y equal "ly"
variable length_z equal "lz"
variable tilt_xy equal "xy"
variable tilt_xz equal "xz"
variable tilt_yz equal "yz"
variable tot_press equal "press"
variable press_xx equal "pxx"
variable press_yy equal "pyy"
variable press_zz equal "pzz"
variable press_xy equal "pxy"
variable press_xz equal "pxz"
variable press_yz equal "pyz"

# ---- output ----
print "pypospack:output_section:begin"
pypospack:output_section:begin
print "tot_energy = ${tot_energy}"
tot_energy = -111.391500014071
print "num_atoms = ${natoms}"
num_atoms = 8
print "xx = ${length_x}"
xx = 4.24480566540602
print "yy = ${length_y}"
yy = 4.24480566540602
print "zz = ${length_z}"
zz = 4.24480566540602
print "xy = ${tilt_xy}"
xy = 0
print "xz = ${tilt_xz}"
xz = 0
print "yz = ${tilt_yz}"
yz = 0
print "tot_press = ${tot_press}"
tot_press = 11.8701047091937
print "pxx = ${press_xx}"
pxx = 11.8701047092997
print "pyy = ${press_yy}"
pyy = 11.8701047087814
print "pzz = ${press_zz}"
pzz = 11.8701047094999
print "pxy = ${press_xy}"
pxy = -3.20239539923879e-10
print "pxz = ${press_xz}"
pxz = 4.8994550277695e-11
print "pyz = ${press_yz}"
pyz = 2.27578662531736e-10
print "pypospack:output_section:done"
pypospack:output_section:done
print "pypospack:lammps_sim:done"
pypospack:lammps_sim:done
#------------------------------------------------------------------------------
# RUN THERMOSTAT
# running using an NPT Nose-Hoover style thermostat
#------------------------------------------------------------------------------
variable tempdamp equal 0.1
variable pressdamp equal 1.0
# set initial velocities
velocity all create 600 4035473 mom yes dist gaussian loop all
# fix for Nose-Hoover style thermostat
fix 20 all npt temp 600 600 0.1 aniso 0.0 0.0 1.0 drag 1.0 couple xyz
variable boxx equal lx
variable boxy equal ly
variable boxz equal lz
variable boxp equal press
variable boxt equal temp
# calculate averages every 10000 steps
reset_timestep 0
fix 21 all ave/time 10 10 100 v_boxx v_boxy v_boxz v_boxp v_boxt file lattice.out
thermo_style custom step temp pe ke etotal press lx ly lz press pxx pyy pzz pxy pxz pyz vol
thermo_modify flush yes
thermo 100
run 100000
PPPM initialization ...
  G vector (1/distance) = 0.352825
  grid = 8 8 8
  stencil order = 5
  estimated absolute RMS force accuracy = 3.87738e-05
  estimated relative force accuracy = 2.69269e-06
  using double precision FFTs
  3d grid and FFT values/proc = 3375 512
Memory usage per processor = 3.06549 Mbytes
Step Temp PotEng KinEng TotEng Press Lx Ly Lz Press Pxx Pyy Pzz Pxy Pxz Pyz Volume 
       0          600    -111.3915   0.54289261   -110.84861    7593.5677    4.2448057    4.2448057    4.2448057    7593.5677    11350.835    6521.1474    4908.7204   -3514.8634   -3118.5687   -321.55801    76.484501 
     100       206.21    -110.9598   0.18658315   -110.77322    4970.1561    4.2683576    4.2683576    4.2683576    4970.1561    25840.115   -3332.2097   -7597.4369   -3059.3749    1031.0172   -2485.8928     77.76468 
     200     525.8655   -111.10611   0.47581415    -110.6303   -12196.804    4.2685831    4.2685831    4.2685831   -12196.804   -10872.074    -17761.44   -7956.8967   -2813.4691    1463.9523   -591.35169    77.777007 
     300    529.50409   -110.97499   0.47910643   -110.49588     18683.76    4.2570728    4.2570728    4.2570728     18683.76     45762.87    12278.215   -1989.8039     4498.376    3012.0675   -735.11253     77.14952 
     400    769.81347   -111.09705   0.69654341   -110.40051   -5891.2656     4.278233     4.278233     4.278233   -5891.2656    1330.1516   -14396.223   -4607.7253   -4006.2528    2319.6089    104.31554    78.305686 
     500    441.97129   -110.73784   0.39990491   -110.33794   -2786.2776    4.2781948    4.2781948    4.2781948   -2786.2776     24992.28   -13590.337   -19760.775    -10102.83    5444.6209    1500.1851    78.303589 
     600     743.4646   -110.97639   0.67270239   -110.30369   -4471.3334    4.2653547    4.2653547    4.2653547   -4471.3334    4066.0189   -10399.191   -7080.8279   -4286.1871    2012.2876   -1566.4497    77.600669 
     700    557.01857   -110.80129   0.50400211   -110.29729    12551.576    4.2802096    4.2802096    4.2802096    12551.576    57081.405   -8182.6682   -11244.008    3423.0553   -2854.3216   -2127.8271     78.41427 
     800    914.94124   -111.12529   0.82785807   -110.29744   -16330.381    4.2744836    4.2744836    4.2744836   -16330.381   -16889.025   -11799.249   -20302.869   -7961.9423    3142.6023   -860.30944    78.099988 
     900    334.27434    -110.6087   0.30245845   -110.30624    18874.392    4.2658344    4.2658344    4.2658344    18874.392    62603.753    5519.5678   -11500.145   -5897.8104   -588.18969   -2894.3879     77.62685 
    1000    788.60409   -111.01965   0.71354555    -110.3061   -20993.514    4.2847384    4.2847384    4.2847384   -20993.514   -14059.284   -27975.382   -20945.875    5847.5315    9445.8447   -195.24296    78.663438 
    1100    636.68826   -110.87621   0.57608892   -110.30012    17804.038    4.2654778    4.2654778    4.2654778    17804.038    51895.605     14027.61   -12511.102     4701.868   -12119.931    3038.7759    77.607386 
    1200    671.64114   -110.91194   0.60771502   -110.30422   -16652.122    4.2765326    4.2765326    4.2765326   -16652.122   -9263.9349   -21230.014   -19462.417   -14765.294    5712.6671   -1909.0005    78.212356 
    1300    421.50457   -110.68882   0.38138619   -110.30744     2474.246    4.2737246    4.2737246    4.2737246     2474.246     39480.02   -12574.017   -19483.265   -9551.8886    4647.2347   -2481.3025    78.058393 
    1400    815.05018   -111.04611   0.73747453   -110.30864    887.25306    4.2723214    4.2723214    4.2723214    887.25306    13329.902   -5222.8712   -5445.2714    7786.6681    4297.5052    102.39941     77.98153 
    1500    541.03658   -110.79848   0.48954126   -110.30894   -4034.3865    4.2833795    4.2833795    4.2833795   -4034.3865    23446.753   -9105.1058   -26444.806   -421.92072    8716.0137    785.12609     78.58862 
    1600     585.3798   -110.83221   0.52966394   -110.30254    13320.387    4.2562011    4.2562011    4.2562011    13320.387     18542.64    20481.457    937.06499   -14682.909    -4401.328    6717.9008    77.102136 
    1700    540.65954   -110.79918   0.48920011   -110.30998   -2725.2753    4.2860395    4.2860395    4.2860395   -2725.2753      18155.8   -15663.117   -10668.509   -1129.1374    7572.2254    1353.8528    78.735125 
    1800     789.4767   -111.01418   0.71433511   -110.29985   -11262.756    4.2821129    4.2821129    4.2821129   -11262.756   -6381.9116   -16130.998    -11275.36    12167.755   -7990.7725    1365.3378    78.518924 
    1900    540.54224   -110.77909   0.48909398      -110.29    31331.501    4.2487961    4.2487961    4.2487961    31331.501    43076.017    37010.927    13907.559   -7262.2649    6749.3192     -1155.47    76.700407 
    2000    410.43614   -110.67183   0.37137124   -110.30046    -15468.22    4.2978048    4.2978048    4.2978048    -15468.22    4457.6385   -35055.087   -15807.211   -13331.771    9112.2105   -1401.1004    79.385293 
    2100    736.01008   -110.96777   0.66595739   -110.30181     1718.148    4.2675066    4.2675066    4.2675066     1718.148    6079.3131    1285.7883   -2210.6575    1133.8517   -3522.9784    2298.5334    77.718179 
    2200    677.54774   -110.91424   0.61305943   -110.30118    15947.789    4.2537629    4.2537629    4.2537629    15947.789    29947.011    4694.6022    13201.752    5266.9651   -1637.8445     2962.103    76.969709 
    2300    417.88923   -110.67616   0.37811496   -110.29805   -21611.609    4.2964946    4.2964946    4.2964946   -21611.609   -16481.326   -37870.535   -10482.966   -9168.5543    3311.3653    449.35295    79.312716 
    2400    605.62706   -110.84142   0.54798409   -110.29344    14790.777    4.2545249    4.2545249    4.2545249    14790.777    32880.901    4924.2789    6567.1501   -6813.8508    8090.2235   -2603.0385    77.011077 
    2500    723.02929   -110.95407    0.6542121   -110.29986   -10437.809    4.2734323    4.2734323    4.2734323   -10437.809   -1682.6865   -15763.506   -13867.234    9278.3463   -6631.6793   -5816.2671    78.042378 
    2600    542.00226   -110.78705   0.49041503   -110.29663   -21180.315    4.2874885    4.2874885    4.2874885   -21180.315   -22309.382   -35164.359   -6067.2039   -9934.6153     3173.435    1547.0543    78.815004 
    2700    564.10247   -110.80251   0.51041177    -110.2921    16242.561    4.2510835    4.2510835    4.2510835    16242.561    18949.996    5641.8653    24135.821   -16673.191    4581.2435   -2965.2615    76.824352 
    2800    568.53548   -110.81547   0.51442285   -110.30105   -11091.943    4.2839541    4.2839541    4.2839541   -11091.943    17882.573   -23615.535   -27542.868   -1335.9757    3956.0417   -3099.5932     78.62025 
    2900    740.61913   -110.96878   0.67012776   -110.29865   -6033.4646    4.2707569    4.2707569    4.2707569   -6033.4646   -17745.573    -9453.832    9099.0112    813.35606   -1507.6149    549.98151    77.895891 
    3000    293.35593   -110.56786   0.26543461   -110.30242    16281.147    4.2645189    4.2645189    4.2645189    16281.147    46081.364   -4492.0916    7254.1684   -13013.205    2865.2459   -9355.0357    77.555056 
    3100    709.67285   -110.94236   0.64212691   -110.30023   -26043.969    4.2822376    4.2822376    4.2822376   -26043.969   -40675.401    -13346.47   -24110.036   -6087.8902    9301.5791   -1385.0816    78.525783 
    3200     626.9994   -110.86337   0.56732223   -110.29604     24901.88     4.256774     4.256774     4.256774     24901.88    42656.681     13935.54     18113.42    9662.9707    -6908.971    1772.3284    77.133279 
    3300    594.78186   -110.84292   0.53817113   -110.30475   -20264.459    4.2833156    4.2833156    4.2833156   -20264.459   -13722.131   -29572.766    -17498.48   -11412.267   -1423.1181    248.39348    78.585104 
    3400    344.35161   -110.61545   0.31157657   -110.30387    5675.0227    4.2663138    4.2663138    4.2663138    5675.0227    903.32504    13727.671    2394.0716   -6150.0824   -1571.8252    1611.2612    77.653024 
    3500    821.39281   -111.04157   0.74321348   -110.29836    1550.6985    4.2642271    4.2642271    4.2642271    1550.6985   -924.12117    1875.3464    3700.8704   -381.00229    3698.7139   -4670.3588    77.539138 
    3600    616.88098    -110.8575   0.55816688   -110.29933   -19120.114    4.2874981    4.2874981    4.2874981   -19120.114   -7012.6322   -25350.055   -24997.656   -1045.1469   -2865.9468   -2294.7382    78.815531 
    3700    473.83107   -110.72331   0.42873231   -110.29458    23145.635    4.2476272    4.2476272    4.2476272    23145.635    5379.8826    47490.326    16566.696   -11759.261   -6719.7435   -1331.2964    76.637122 
    3800    528.65746   -110.78528   0.47834038   -110.30694   -8803.3599    4.2859084    4.2859084    4.2859084   -8803.3599    22550.113   -34184.733    -14775.46   -4858.7635    790.24948    5359.3751    78.727898 
    3900    881.08192   -111.10118   0.79722144   -110.30395   -7933.0941    4.2706767    4.2706767    4.2706767   -7933.0941   -11848.721   -7635.6924   -4314.8687    7229.0545    3580.6658    3471.3304    77.891502 
    4000    475.32534   -110.72621   0.43008435   -110.29613    39304.194    4.2427796    4.2427796    4.2427796    39304.194     61075.53     32259.96    24577.093   -12341.807    7838.7367   -2587.6009    76.375037 
    4100    569.33191   -110.80814   0.51514347     -110.293   -46682.383    4.3033511    4.3033511    4.3033511   -46682.383   -52224.251   -64036.632   -23786.266   -9899.0506   -5279.3526   -4331.4762    79.693029 
    4200    705.13738   -110.93038   0.63802312   -110.29235    30326.293    4.2441895    4.2441895    4.2441895    30326.293    23781.599    15682.697    51514.583    1143.1485    1144.1111   -3475.4869    76.451197 
    4300    791.10466   -111.02223   0.71580812   -110.30642    781.72189    4.2642326    4.2642326    4.2642326    781.72189    1029.8194    -8318.813    9634.1593   -3737.3491    2857.6613    5525.2599    77.539437 
    4400     372.4163   -110.63285   0.33697009   -110.29588   -35675.523    4.2953877    4.2953877    4.2953877   -35675.523   -47518.974    -54098.51   -5409.0857   -20480.926    1077.0275   -3662.7884    79.251427 
    4500    669.76355   -110.88048   0.60601614   -110.27446    42385.832    4.2305101    4.2305101    4.2305101    42385.832    33621.567    26583.043    66952.887    -3295.966   -6292.4548   -2027.8704    75.714352 
    4600    841.38725   -111.05475   0.76130486   -110.29345   -23549.575    4.2898108    4.2898108    4.2898108   -23549.575   -21721.688   -30760.445   -18166.592    5019.9416    4640.2615    511.39367    78.943142 
    4700    429.64683   -110.68465   0.38875348    -110.2959   -696.52695    4.2744983    4.2744983    4.2744983   -696.52695   -14167.316   -23354.412    35432.147   -20720.042    5813.2935   -3957.0866    78.100793 
    4800    556.77029   -110.78823   0.50377746   -110.28446    23146.126    4.2450357    4.2450357    4.2450357    23146.126    9692.9179    10416.641     49328.82   -13035.862   -1480.6596    4375.2974    76.496939 
    4900     778.0144   -110.99289   0.70396378   -110.28892   -17871.734    4.2867826    4.2867826    4.2867826   -17871.734   -18753.071   -26054.349   -8807.7823    2192.8079    815.59602   -4367.2195    78.776079 
    5000    585.93098   -110.82232   0.53016267   -110.29216    511.50573    4.2694748    4.2694748    4.2694748    511.50573   -1158.4119   -16440.495    19133.424    -16879.66    3988.0063    4443.1871    77.825759 
    5100    499.06602   -110.74722   0.45156542   -110.29565   -170.85531    4.2569328    4.2569328    4.2569328   -170.85531   -21057.937   -3043.8522    23589.224   -15370.512    -4055.179   -1831.0643    77.141911 
    5200    752.79424   -110.97963   0.68114405   -110.29849   -4087.1111    4.2714597    4.2714597    4.2714597   -4087.1111    10285.555   -4964.7744   -17582.113    5226.0613   -1793.6509   -3387.5762    77.934355 
    5300    720.69864   -110.94922   0.65210327   -110.29712   -14642.205    4.2797878    4.2797878    4.2797878   -14642.205   -29525.936   -18162.198    3761.5206   -6505.0832   -2646.8103    1884.3466    78.391093 
    5400     496.2123   -110.74639   0.44898332   -110.29741    7598.5148    4.2538358    4.2538358    4.2538358    7598.5148   -9068.7801    8410.3962    23453.928   -17789.889    8535.5345   -1106.8061    76.973664 
    5500    638.92252   -110.88352   0.57811052   -110.30541    5728.1031    4.2680121    4.2680121    4.2680121    5728.1031    4546.4756   -2861.9482    15499.782    2000.1376   -7286.9401   -4054.6335    77.745797 
    5600    747.58664   -110.97204    0.6764321    -110.2956    -17685.87    4.2859268    4.2859268    4.2859268    -17685.87   -28014.076   -18551.957   -6491.5785    6990.3667   -315.97489    -5994.484    78.728914 
    5700    512.54089   -110.75452   0.46375776   -110.29076    31417.155    4.2403087    4.2403087    4.2403087    31417.155    30217.015    22519.797    41514.654    -17199.39    10238.911     1975.722    76.241675 
    5800    612.19774   -110.86008   0.55392938   -110.30615   -17004.186    4.2809131    4.2809131    4.2809131   -17004.186   -30863.821   -29906.466    9757.7294   -12563.247   -5929.5898    770.52117    78.452941 
    5900    756.50549   -110.97735   0.68450206   -110.29285   -10988.397    4.2788631    4.2788631    4.2788631   -10988.397   -14328.697   -14082.091   -4554.4042    7263.8898   -4479.6738   -4483.3769    78.340292 
    6000    786.24514   -110.99213   0.71141113   -110.28072     22178.58    4.2365207    4.2365207    4.2365207     22178.58    11696.464    23625.336     31213.94   -15092.038    2098.0411   -720.38227    76.037529 
    6100    461.91374   -110.71347   0.41794925   -110.29552   -20076.965    4.2879342    4.2879342    4.2879342   -20076.965   -28344.488   -46599.151    14712.745    -18731.13    5717.8554    570.79142    78.839584 
    6200     753.7043   -110.97699   0.68196749   -110.29502     3573.484    4.2667223    4.2667223    4.2667223     3573.484    10424.707    1761.6925    -1465.947    1875.5695    93.991255    4850.1093    77.675337 
    6300    802.04586   -111.01352   0.72570795   -110.28781    26030.417    4.2434063    4.2434063    4.2434063    26030.417    38020.578    21829.049    18241.625    2350.6306   -3741.6595    1597.6288    76.408883 
    6400    397.98775    -110.6573   0.36010768   -110.29719   -10214.667    4.2868643    4.2868643    4.2868643   -10214.667   -4595.0649   -23150.449   -2898.4858    -15144.03    9410.1535   -2126.8391    78.780589 
    6500     611.4615   -110.84667   0.55326321   -110.29341    11920.573    4.2645134    4.2645134    4.2645134    11920.573    308.88048    11273.465    24179.375   -5176.8804    1788.9769   -275.50341    77.554757 
    6600    930.08236   -111.12886   0.84155806    -110.2873     13700.99    4.2537319    4.2537319    4.2537319     13700.99    26537.845    10014.462     4550.663    6079.8918   -4280.8017    -7262.434    76.968027 
    6700    509.53743   -110.75764   0.46104017    -110.2966   -6641.6249    4.2785429    4.2785429    4.2785429   -6641.6249   -19246.412   -8349.6299    7671.1676   -14113.415    5237.3041   -1950.4717    78.322707 
    6800    515.06243   -110.76503   0.46603931   -110.29899   -469.41728     4.265013     4.265013     4.265013   -469.41728   -880.80313   -4271.2681    3743.8193   -16411.364    2225.9581   -173.02854    77.582019 
    6900    730.14772   -110.95768     0.660653   -110.29702    9248.4483    4.2604123    4.2604123    4.2604123    9248.4483    20861.968   -3948.8952    10832.272    6781.3055   -1569.4323    2482.4703    77.331226 
    7000    683.78211    -110.9165   0.61870043    -110.2978      1401.66    4.2692719    4.2692719    4.2692719      1401.66     18558.48   -7906.6871   -6446.8132   -2645.7692   -1835.0668   -6.7364984    77.814665 
    7100    514.78625   -110.76712   0.46578942   -110.30133   -16749.946    4.2719486    4.2719486    4.2719486   -16749.946   -8060.4826   -22783.087   -19406.269     -19745.6    13747.158   -2716.0996    77.961119 
    7200      541.432   -110.79083   0.48989905   -110.30093   -1400.5088    4.2605567    4.2605567    4.2605567   -1400.5088   -3208.1013   -1057.1688    63.743591   -3375.1115    5280.8168    5606.0366    77.339086 
    7300     903.7915   -111.11545   0.81776955   -110.29768     1668.832    4.2619426    4.2619426    4.2619426     1668.832    8129.6977   -6788.7349    3665.5333    11903.012   -4499.1936    1083.8366    77.414583 
    7400    632.25408   -110.87199   0.57207678   -110.29991   -23327.574    4.2804792    4.2804792    4.2804792   -23327.574   -24704.676   -18611.494   -26666.552   -7536.7307    4626.5527    2917.0109     78.42909 
    7500     364.3638   -110.62906   0.32968402   -110.29937    9505.3936    4.2552335    4.2552335    4.2552335    9505.3936    22725.265    8131.5151   -2340.5999   -14818.143    6106.9831    1265.1593    77.049566 
    7600    721.31555   -110.95274   0.65266147   -110.30008    5690.1819    4.2634069    4.2634069    4.2634069    5690.1819    11057.056   -6393.0998     12406.59    3860.1954   -2343.6239   -2898.8913    77.494408 
    7700    609.65327   -110.84887   0.55162709   -110.29724     91.48372    4.2775315    4.2775315    4.2775315     91.48372     11848.51   -4025.2545   -7548.8038   -1121.6253   -5789.4471    24.763954    78.267171 
    7800    461.54696   -110.71525   0.41761739   -110.29763    4593.2257    4.2577542    4.2577542    4.2577542    4593.2257   -6354.1963   -1455.0778    21588.951   -16849.006    5659.2551   -4184.8478    77.186572 
    7900    488.02906   -110.74328   0.44157895    -110.3017   -93.473668     4.264909     4.264909     4.264909   -93.473668   -10950.404   -5177.3903    15847.374   -294.77139    7253.7493    3043.7326    77.576344 
    8000    630.87682   -110.86757    0.5708306   -110.29674   -1543.4862    4.2735762    4.2735762    4.2735762   -1543.4862   -12396.355   -398.89442    8164.7904    9175.4206    -4484.762   -6383.0133     78.05026 
    8100    595.46185    -110.8354    0.5387864   -110.29661   -4383.2149    4.2621039    4.2621039    4.2621039   -4383.2149   -9101.4287   -10825.946    6777.7304     -16714.4    805.70967   -2155.4533    77.423374 
    8200    441.22353    -110.6995   0.39922832   -110.30027   -1070.1391    4.2614638    4.2614638    4.2614638   -1070.1391   -10758.083    699.29925    6848.3661   -12307.969    8948.8824   -3941.1813    77.388496 
    8300     633.6528   -110.87268   0.57334237   -110.29934   -8311.6101    4.2759728    4.2759728    4.2759728   -8311.6101    2279.2015   -17906.173   -9307.8582    14524.058    4842.1494    486.52152    78.181646 
    8400      642.405   -110.87999   0.58126154   -110.29873    4294.9841    4.2616561    4.2616561    4.2616561    4294.9841    11652.632   -10280.608    11512.929    633.78943   -3013.3612    6448.9324    77.398976 
    8500     445.2277   -110.70307   0.40285138   -110.30022    10817.068    4.2566164    4.2566164    4.2566164    10817.068    8471.0417   -2356.3871    26336.549   -14352.495   -2003.0961   -2034.2028     77.12471 
    8600    546.00764   -110.79187   0.49403919   -110.29783   -17921.434    4.2822721    4.2822721    4.2822721   -17921.434   -1599.4241   -27852.786   -24312.092    1305.2469    2297.5708    4102.9877     78.52768 
    8700    590.29713   -110.82919   0.53411325   -110.29508    9876.8171    4.2579621    4.2579621    4.2579621    9876.8171   -2027.9289   -9637.9453    41296.326     12408.51   -116.50934    -1681.839    77.197882 
    8800    591.66483   -110.83426   0.53535077   -110.29891   -657.61357    4.2584169    4.2584169    4.2584169   -657.61357     6451.818   -11225.102    2800.4433   -9212.0203   -3344.1884    4003.3789    77.222618 
    8900    436.71384    -110.6944   0.39514786   -110.29925   -29299.046    4.2814608    4.2814608    4.2814608   -29299.046   -28238.266   -28535.821   -31123.051   -9801.5712    10692.939    443.18335    78.483057 
    9000    534.57651   -110.77846   0.48369606   -110.29476    3769.9131    4.2540252    4.2540252    4.2540252    3769.9131   -240.41917   -2150.9611     13701.12    17272.991    8307.9366   -2260.4722    76.983947 
    9100    599.17106   -110.83862   0.54214256   -110.29647     -4636.64    4.2675566    4.2675566    4.2675566     -4636.64   -1612.1236   -24094.632    11796.836   -2996.3726   -3922.7007    3094.0459    77.720907 
    9200    561.45284   -110.80615   0.50801433   -110.29814    -11924.37    4.2703052    4.2703052    4.2703052    -11924.37   -10302.486   -7914.1522    -17556.47    -12302.82     4485.742   -4570.3781    77.871177 
    9300    339.92545   -110.60704   0.30757169   -110.29947    7808.0859    4.2599576    4.2599576    4.2599576    7808.0859   -4908.4003    1082.7023    27249.956    12158.988    11869.418    3359.6804     77.30647 
    9400    659.56613   -110.89471   0.59678929   -110.29792   -2134.2251    4.2679206    4.2679206    4.2679206   -2134.2251    1409.0726   -15982.583    8170.8346    7369.1357    6309.5934     -4565.66    77.740797 
    9500    589.16827   -110.82979   0.53309183    -110.2967     19047.25    4.2600025    4.2600025    4.2600025     19047.25    2496.5544    22775.711    31869.486   -6077.3165   -12987.228    7.0212824    77.308914 
    9600    393.52773   -110.65683   0.35607216   -110.30076    -10485.21     4.272702     4.272702     4.272702    -10485.21   -22824.776    -12680.75    4049.8949   -5045.1438    7607.5351     4592.217    78.002373 
    9700    551.86517   -110.79884    0.4993392    -110.2995    519.60314    4.2567322    4.2567322    4.2567322    519.60314    2566.9594      10818.6    -11826.75    8136.4716    14157.649    547.69312    77.131003 
    9800    679.71405   -110.91749   0.61501955   -110.30247    11561.511    4.2607505    4.2607505    4.2607505    11561.511   -2597.3228     14308.05    22973.806   -828.68499    89.946296    386.36332    77.349641 
    9900     598.7081   -110.84218   0.54172367   -110.30046   -30281.841     4.279938     4.279938     4.279938   -30281.841   -32263.954   -32498.171     -26083.4   -12970.904   -793.19546   -5068.8239    78.399345 
   10000    301.48134   -110.57059   0.27278666   -110.29781     18878.17    4.2416612    4.2416612    4.2416612     18878.17    16128.798    35426.651      5079.06    4277.4067     19670.11    4136.4627    76.314652 
   10100    730.08821   -110.96562   0.66059916   -110.30502   -15091.979    4.2735128    4.2735128    4.2735128   -15091.979    -23160.45   -22997.064    881.57666    2599.6767    8029.8184    3131.5286    78.046785 
   10200    607.23311   -110.84944   0.54943728       -110.3   -9313.5024    4.2719029    4.2719029    4.2719029   -9313.5024   -1376.2541     -34432.7    7868.4473   -9474.8837   -9774.2086   -784.81017    77.958613 
   10300    390.90083   -110.64564   0.35369529   -110.29194    19281.552    4.2403807    4.2403807    4.2403807    19281.552    12634.046    18193.779     27016.83   -11626.614    13836.529   -88.115345    76.245557 
   10400    517.13246   -110.76458   0.46791232   -110.29667   -24296.715     4.281479     4.281479     4.281479   -24296.715   -35900.247   -31348.423    -5641.475    5619.8411     12597.34   -2651.8142     78.48406 
   10500    723.35428   -110.94747   0.65450615   -110.29296     8020.451    4.2575325    4.2575325    4.2575325     8020.451    19136.433   -17648.622    22573.542    1032.4798   -5885.2605   -1099.9644    77.174515 
   10600    513.78942   -110.76227   0.46488746   -110.29738    1893.5541    4.2528991    4.2528991    4.2528991    1893.5541   -2128.4096   -16600.877    24409.949   -15615.491    320.50673   -1599.5104    76.922826 
   10700    409.97515   -110.67079   0.37095413   -110.29983   -16681.467    4.2727117    4.2727117    4.2727117   -16681.467   -29520.441   -15365.883   -5158.0777    1659.8736      15094.2    1416.1895    78.002903 
   10800    677.99691   -110.90841   0.61346586   -110.29494    2627.7461    4.2616128    4.2616128    4.2616128    2627.7461    19496.828   -10838.499    -775.0906    1145.7393    10727.615   -254.74718    77.396617 
   10900    682.14002   -110.91407   0.61721463   -110.29685    -1779.685    4.2578824    4.2578824    4.2578824    -1779.685   -1421.5211   -24884.769    20967.235   -12699.805   -10474.053   -4537.7832    77.193544 
   11000    391.45936   -110.65824   0.35420066   -110.30404    5191.0704    4.2603127    4.2603127    4.2603127    5191.0704    13136.859   -5579.1805    8015.5323   -5180.8879    2912.2668    454.19836    77.325799 
   11100    525.52854   -110.77773   0.47550927   -110.30222   -13349.152    4.2753477    4.2753477    4.2753477   -13349.152   -11246.777   -18714.499   -10086.181    4608.3929    18283.837    2859.4531     78.14736 
   11200    775.64791   -110.99902   0.70182253    -110.2972     20715.22    4.2445855    4.2445855    4.2445855     20715.22     23735.34    12370.827    26039.493   -2231.3958   -4873.2811   -3013.0568    76.472602 
   11300    566.07082   -110.82112   0.51219277   -110.30893   -2311.0179    4.2658341    4.2658341    4.2658341   -2311.0179   -4016.9338   -17840.423    14924.303   -13360.366   -4219.6966   -4561.1147    77.626836 
   11400    482.85575   -110.74139   0.43689803   -110.30449    -24902.59    4.2749752    4.2749752    4.2749752    -24902.59   -41334.835   -23643.435   -9729.4995   -3189.9214    19351.064   -823.41339    78.126939 
   11500    663.88674   -110.89159   0.60069867    -110.2909    30808.851    4.2364962    4.2364962    4.2364962    30808.851    18093.902     29800.36    44532.291    9102.1703    15684.062   -489.34197    76.036208 
   11600    769.48796   -110.99425   0.69624888     -110.298   -15833.975    4.2775903    4.2775903    4.2775903   -15833.975   -19417.745   -27480.092   -604.08645   -7090.7867   -6301.1534   -2825.7997    78.270402 
   11700    462.44487   -110.71892   0.41842983   -110.30049   -1816.6361    4.2630358    4.2630358    4.2630358   -1816.6361   -15598.614   -15345.453    25494.159   -11659.208    6563.0356   -1726.4283    77.474174 
   11800    587.37828    -110.8259   0.53147221   -110.29442    10599.151     4.246632     4.246632     4.246632    10599.151    6315.5151    14077.721    11404.218    2394.8802    26544.754   -96.663238    76.583268 
   11900    769.24101   -110.99011   0.69602543   -110.29408   -13397.247    4.2757412    4.2757412    4.2757412   -13397.247   -8001.2616   -23060.523   -9129.9564   -2468.4087   -6251.2533     896.8651    78.168939 
   12000    631.64738   -110.86701   0.57152782   -110.29548    5409.2454    4.2586304    4.2586304    4.2586304    5409.2454    11018.298   -5897.3901    11106.828   -9340.7902    654.06088   -1447.0396    77.234238 
   12100    514.53509   -110.76497   0.46556216   -110.29941   -5030.2753    4.2562539    4.2562539    4.2562539   -5030.2753   -11531.911    6131.5792   -9690.4946   -457.48099    21372.936    -3646.962    77.105009 
   12200     740.9474   -110.96942   0.67042478     -110.299   -1956.3035    4.2626482    4.2626482    4.2626482   -1956.3035    607.19937   -2921.7343   -3554.3756    5604.4169    11544.964   -1300.0896    77.453041 
   12300     760.7347   -110.98654   0.68832875   -110.29821   -6784.3948    4.2702965    4.2702965    4.2702965   -6784.3948   -7030.6631   -20946.239    7623.7174    -5904.534   -4932.2903   -7750.7598    77.870703 
   12400    581.81533   -110.82804   0.52643874    -110.3016    449.22102    4.2537755    4.2537755    4.2537755    449.22102   -9331.2684    7739.6061    2939.3253   -9525.3569    10775.992    2046.6141    76.970393 
   12500    596.49454    -110.8442   0.53972079   -110.30448    13368.331    4.2547384    4.2547384    4.2547384    13368.331   -531.21174    10174.761    30461.445    4119.4176    24424.057    4697.8227    77.022675 
   12600    787.86723   -111.01014   0.71287882   -110.29726   -14597.513    4.2804068    4.2804068    4.2804068   -14597.513   -24367.525   -22401.488    2976.4738   -163.49357   -6053.5288   -3744.6736    78.425108 
   12700    723.26896   -110.94945   0.65442896   -110.29502    18143.222    4.2438026    4.2438026    4.2438026    18143.222    15730.427    12599.465    26099.775   -13845.072   -4661.1057   -4396.6189    76.430293 
   12800     463.6975     -110.727   0.41956325   -110.30744    997.02336      4.26372      4.26372      4.26372    997.02336   -17062.413    1711.3526     18342.13   -4943.0593     19786.59   -6061.9525    77.511479 
   12900    715.67641   -110.94436   0.64755905    -110.2968    -10314.58    4.2743194    4.2743194    4.2743194    -10314.58   -12926.375   -3517.1426   -14500.224     4341.505    17526.593    4611.5077     78.09099 
   13000    856.32141   -111.06377   0.77481761   -110.28895    23998.028    4.2409344    4.2409344    4.2409344    23998.028    25072.791    15485.858    31435.434   -9928.4184   -5356.8508    1685.7152    76.275431 
   13100    533.72644   -110.78497    0.4829269   -110.30205   -18498.113     4.274146     4.274146     4.274146   -18498.113    -22624.21   -21013.404   -11856.726   -9822.5822    10763.203   -9883.0712    78.081486 
   13200    555.93111   -110.80142   0.50301815    -110.2984   -5735.8181    4.2656997    4.2656997    4.2656997   -5735.8181    -5637.479    8374.4095   -19944.385    1564.6816    25664.998    2122.9738    77.619497 
   13300    901.29853   -111.10724   0.81551385   -110.29173    13619.112     4.248955     4.248955     4.248955    13619.112    5844.3573    16949.175    18063.803   -1610.0201   -1376.8936   -936.06838    76.709015 
   13400    692.86732   -110.92483   0.62692091   -110.29791   -6544.2067    4.2701006    4.2701006    4.2701006   -6544.2067    3963.8057   -14888.659   -8707.7663   -5653.6012   -1202.3001    3160.2414    77.859988 
   13500    447.45125   -110.70734   0.40486329   -110.30248   -8786.6928    4.2654229    4.2654229    4.2654229   -8786.6928   -24141.919    15096.571    -17314.73   -8021.7305    25953.309    2028.5172    77.604387 
   13600    671.21958   -110.90663   0.60733359    -110.2993    10695.849    4.2536096    4.2536096    4.2536096    10695.849    2335.7403    30448.005    -696.1976    5396.8962    10355.925   -725.23546    76.961386 
   13700    959.20027   -111.16444   0.86790457   -110.29654    -847.4489    4.2636541    4.2636541    4.2636541    -847.4489    5375.7143   -4944.5823   -2973.4786    2087.3852   -8184.4642    4693.6696    77.507886 
   13800    422.41028   -110.68643    0.3822057   -110.30422   -13274.931    4.2690115    4.2690115    4.2690115   -13274.931   -33557.366    19068.091   -25335.518   -1209.3465    24028.046   -5071.7725    77.800425 
   13900    488.86481   -110.74606   0.44233516   -110.30373    2594.9291    4.2489023    4.2489023    4.2489023    2594.9291   -11640.221    28175.668   -8750.6596   -4708.7522    29691.238   -501.42687    76.706159 
   14000    865.45238   -111.08597    0.7830795   -110.30289   -2837.5122    4.2678118    4.2678118    4.2678118   -2837.5122    597.18623   -7848.9942   -1260.7286    1047.2731   -7640.2197    717.76293    77.734854 
   14100    661.29761   -110.90059   0.59835598   -110.30223   -7337.7744    4.2663896    4.2663896    4.2663896   -7337.7744   -25603.835    10007.413    -6416.901    1573.9409    10234.753   -2868.5721    77.657166 
   14200     288.6258   -110.56177   0.26115469   -110.30061    10705.482    4.2486261    4.2486261    4.2486261    10705.482   -6276.4154    28716.362    9676.4986   -6597.9062    36245.091   -992.55899    76.691202 
   14300    683.75671   -110.91809   0.61867744   -110.29942   -10322.797    4.2733344    4.2733344    4.2733344   -10322.797   -13421.917   -19053.617    1507.1445    1700.5039    1793.6861   -7619.1657    78.037012 
   14400    808.62324   -111.02594    0.7316593   -110.29428    6336.0185    4.2595004    4.2595004    4.2595004    6336.0185    3653.9316    -1998.609    17352.733   -408.92796   -3356.8728    2588.9474     77.28158 
   14500    398.18084   -110.66138   0.36028239    -110.3011   -1909.4071    4.2553811    4.2553811    4.2553811   -1909.4071   -3035.8256    9445.1541    -12137.55    -1355.092     31733.56     4005.306    77.057582 
   14600    466.52355   -110.72345   0.42212031   -110.30133   -8803.9138    4.2686662    4.2686662    4.2686662   -8803.9138    -21118.23   -2229.8122   -3063.6998   -5490.1312    16414.205    -319.2314    77.781547 
   14700    916.14606   -111.12271    0.8289482   -110.29376    1447.2525     4.259553     4.259553     4.259553    1447.2525    298.84406   -5702.3436     9745.257   -3652.2439   -9596.6145    4417.7749    77.284445 
   14800    534.19567   -110.78325   0.48335147   -110.29989   -1760.5249    4.2595204    4.2595204    4.2595204   -1760.5249    -1159.557    4031.4753   -8153.4931    1128.2307    17341.259    764.06289    77.282669 
   14900    359.36339   -110.62893   0.32515954   -110.30377   -514.11042    4.2621819    4.2621819    4.2621819   -514.11042   -23756.559    9443.3025    12770.925   -10305.127    23111.651    1576.8374    77.427624 
   15000    659.30469   -110.89515   0.59655274   -110.29859    2586.5382    4.2655379    4.2655379    4.2655379    2586.5382   -9635.1584    14900.506    2494.2671   -3387.7508   -6194.6675   -1317.5234    77.610669 
   15100    683.79379   -110.91528   0.61871099   -110.29657    9568.2533    4.2541023    4.2541023    4.2541023    9568.2533    206.23473    1931.8098    26566.715    4204.5322    1603.9823   -3568.2296    76.988135 
   15200    306.33166   -110.58201   0.27717533   -110.30483    -2297.077    4.2643134    4.2643134    4.2643134    -2297.077   -7975.3411    10675.869   -9591.7594    2185.7224    31925.858    675.23738    77.543848 
   15300    500.98472   -110.75398   0.45330151   -110.30067   -5005.0804    4.2649853    4.2649853    4.2649853   -5005.0804   -6455.5746  -0.10388301   -8559.5627   -6847.5532    7336.4531   -6897.5709    77.580508 
   15400    724.63765   -110.95025   0.65566738   -110.29458    15627.988    4.2498709    4.2498709    4.2498709    15627.988    18832.276    6417.8428    21633.846   -7981.3293   -5072.6928    764.24996    76.758629 
   15500    422.04614   -110.68253   0.38187622   -110.30065   -15097.139    4.2712021    4.2712021    4.2712021   -15097.139   -7810.5647   -6625.0094   -30855.844    6705.9116    23699.881     2216.003    77.920253 
   15600    452.16618   -110.70847   0.40912946   -110.29934   -8814.7036    4.2589546    4.2589546    4.2589546   -8814.7036    475.63333   -8914.6358   -18005.108   -4818.7155    20684.232    1531.9897    77.251873 
   15700    687.16834   -110.91911   0.62176435   -110.29735    2327.3565    4.2538183    4.2538183    4.2538183    2327.3565    6614.3004   -12455.847    12823.616   -17056.809   -10345.771   -465.83985    76.972714 
   15800    622.50543   -110.86105     0.563256    -110.2978   -18109.546    4.2709833    4.2709833    4.2709833   -18109.546   -12599.805   -14594.554   -27134.278   -2385.1095    10570.486   -5701.2864     77.90828 
   15900    435.70795   -110.69354   0.39423771    -110.2993    -2395.808    4.2569973    4.2569973    4.2569973    -2395.808   -9721.3923    10342.121   -7808.1528   -658.74459    29560.959    3216.6759    77.145418 
   16000    654.11983   -110.88857   0.59186137   -110.29671   -2509.1429    4.2613815    4.2613815    4.2613815   -2509.1429    6107.7447   -20098.498    6463.3244   -4389.4171   -2409.3283    1742.1552    77.384011 
   16100    681.08035   -110.91326   0.61625581   -110.29701   -864.44903    4.2644654    4.2644654    4.2644654   -864.44903    7778.8019    240.38119    -10612.53    -3091.579     626.0238   -2711.0404    77.552139 
   16200    414.44445   -110.67702   0.37499805   -110.30202    10755.387    4.2559754    4.2559754    4.2559754    10755.387    3936.0563    28528.664   -198.55859    3040.6207      30105.8     214.5776    77.089875 
   16300    613.68577   -110.85517   0.55527578    -110.2999   -1631.2362    4.2659977    4.2659977    4.2659977   -1631.2362     9964.502   -7310.3729   -7547.8377    480.30291    11486.656   -489.12365    77.635769 
   16400    765.13491   -110.98761   0.69231014    -110.2953    7201.4915    4.2602791    4.2602791    4.2602791    7201.4915    4586.7474    14756.292    2261.4347    -5455.152   -8303.5958    751.21768     77.32397 
   16500    547.90792   -110.79636    0.4957586    -110.3006   -2266.2736    4.2597733    4.2597733    4.2597733   -2266.2736   -12204.212    11269.598   -5864.2066    1152.3103    25579.501   -1074.9579    77.296436 
   16600    512.84922   -110.76631   0.46403675   -110.30228   -3772.9513    4.2648279    4.2648279    4.2648279   -3772.9513   -4646.2888     13222.33   -19894.895    2194.5539    23155.085   -4191.1303    77.571919 
   16700     855.7318   -111.07069   0.77428412    -110.2964    6546.4901    4.2585918    4.2585918    4.2585918    6546.4901    10958.095    140.35677    8541.0181   -4426.9316   -10297.051    177.45338    77.232133 
   16800    677.70391   -110.91291   0.61320074   -110.29971   -4152.2179    4.2623965    4.2623965    4.2623965   -4152.2179    2492.0013     -9929.23   -5019.4249   -9526.0276     6847.234   -3153.0655    77.439323 
   16900    375.36258    -110.6431   0.33963595   -110.30347    223.95797    4.2618268    4.2618268    4.2618268    223.95797    5606.6918     14116.41   -19051.228   -1244.2855    29559.261   -1067.2124    77.408272 
   17000    895.60372   -111.10877   0.81036106   -110.29841    1235.7209    4.2573788    4.2573788    4.2573788    1235.7209    1997.8027    1807.2207   -97.860762    10045.353    4338.6125    3913.9798    77.166159 
   17100    814.06246   -111.03559   0.73658082   -110.29901   -3029.6314    4.2667128    4.2667128    4.2667128   -3029.6314    9457.9128   -7911.6137   -10635.193   -4542.5275   -4651.6347    4133.7588    77.674818 
   17200     570.4454   -110.81982   0.51615098   -110.30367   -8386.3816    4.2578565    4.2578565    4.2578565   -8386.3816   -18338.038    8546.0187   -15367.125   -9052.1195    30488.887   -288.82819    77.192137 
   17300    633.02424   -110.87654   0.57277364   -110.30377    5720.3062    4.2581668    4.2581668    4.2581668    5720.3062   -4649.1407    28389.999   -6579.9402    477.87366     19818.88   -1203.9906    77.209017 
   17400    958.02494   -111.16405    0.8668411    -110.2972   -6521.0519     4.270593     4.270593     4.270593   -6521.0519    7907.5707   -13149.346    -14321.38    3612.2664   -9651.9526    3927.3565    77.886922 
   17500    645.78325   -110.88499   0.58431826   -110.30067    11875.214    4.2506167    4.2506167    4.2506167    11875.214    14101.654    18802.546    2721.4415    764.68835    16527.521    2624.7738    76.799046 
   17600    398.74904   -110.66722   0.36079651   -110.30642    1563.8484    4.2673929    4.2673929    4.2673929    1563.8484    2372.6423    24497.668   -22178.765   -9408.3023     27707.55   -2607.5139    77.711964 
   17700    945.32721   -111.15087   0.85535193   -110.29552   -6544.6648    4.2687373    4.2687373    4.2687373   -6544.6648    4602.0251   -9573.4019   -14662.617    -2931.372   -7043.4518    784.93114    77.785434 
   17800    836.28418   -111.04953    0.7566875   -110.29285    17988.911    4.2459228    4.2459228    4.2459228    17988.911    17630.939    26790.087    9545.7078    2720.0979    1027.6662    2490.0799    76.544905 
   17900    439.84548   -110.70138   0.39798143    -110.3034   -15173.634    4.2720002    4.2720002    4.2720002   -15173.634   -17207.919    8380.1553   -36693.138   -1807.8761    29513.275     919.1501    77.963944 
   18000    650.77094   -110.89227   0.58883122   -110.30344    26.430155    4.2606397    4.2606397    4.2606397    26.430155    12669.113   -1718.4867   -10871.336   -4610.7692    10018.929   -3020.3117    77.343606 
   18100    860.58693   -111.07537   0.77867714   -110.29669    17298.291    4.2493833    4.2493833    4.2493833    17298.291    31061.541      12467.1    8366.2324   -807.46216   -8053.0403   -3677.6335    76.732211 
   18200    536.00124    -110.7868   0.48498519   -110.30181   -17648.494    4.2741559    4.2741559    4.2741559   -17648.494   -11869.746   -7008.7993   -34066.938    3196.5525    23717.806    1767.7466    78.082026 
   18300    388.19402   -110.65367   0.35124611   -110.30243    199.82883    4.2568975    4.2568975    4.2568975    199.82883   -4218.2673    3274.8658     1542.888    -9828.375    23693.954    -423.9516     77.13999 
   18400    786.05019   -111.00794   0.71123473   -110.29671    7392.9802     4.253521     4.253521     4.253521    7392.9802    5330.1423   -1447.5735    18296.372   -4115.7946   -10367.327   -5187.3197    76.956578 
   18500    699.02081    -110.9301   0.63248872   -110.29761   -9419.6198    4.2698897    4.2698897    4.2698897   -9419.6198   -13897.455   -14032.074   -329.33048    3513.6414    6599.4942    528.68871    77.848452 
   18600    365.66802   -110.63248   0.33086411   -110.30161      3456.99    4.2558832    4.2558832    4.2558832      3456.99    -10770.06    3042.8429    18098.187   -5347.6702    28924.021    -1581.249    77.084864 
   18700    553.56847    -110.8019   0.50088038   -110.30102    2088.9279    4.2594988    4.2594988    4.2594988    2088.9279    18482.622   -14491.572    2275.7328   -9722.3395    2597.9737   -369.78601    77.281494 
   18800    858.25135   -111.07322   0.77656386   -110.29665   -3881.3558    4.2639313    4.2639313    4.2639313   -3881.3558   -2761.5777    -14447.42    5564.9298   -5602.6401   -10618.194     14.94121    77.523005 
   18900    478.94311   -110.73461   0.43335779   -110.30125    2033.4019    4.2595161    4.2595161    4.2595161    2033.4019     7548.491    5061.8498   -6510.1352    2452.3629    19885.843   -1116.1574    77.282437 
   19000    440.10873   -110.70129   0.39821963   -110.30307   -10597.949    4.2623146    4.2623146    4.2623146   -10597.949   -18985.727   -8866.4843   -3941.6351   -7402.3434    23074.558    557.45803    77.434856 
   19100    588.39982   -110.83172   0.53239653   -110.29932    11706.673    4.2582754    4.2582754    4.2582754    11706.673     2939.844    4351.1958    27828.978   -7033.3128   -7631.2343    1045.6655     77.21492 
   19200      616.223   -110.85514   0.55757152   -110.29757   -5356.2725    4.2661278    4.2661278    4.2661278   -5356.2725   -14618.106   -11107.112    9656.4007    3610.6589    5692.3894    5046.5431     77.64287 
   19300    272.39668   -110.54835   0.24647024   -110.30188   -2591.0329    4.2588158    4.2588158    4.2588158   -2591.0329   -26035.628    4357.9212    13904.609   -6509.7984    29261.444     2365.638    77.244322 
   19400     458.0873   -110.71673   0.41448702   -110.30225     6734.885    4.2557318    4.2557318    4.2557318     6734.885   -11060.976    6442.9653    24822.666   -15637.021    8064.9795    2494.7065    77.076636 
   19500     728.2353   -110.95561    0.6589226   -110.29669   -10494.659    4.2708586    4.2708586    4.2708586   -10494.659   -6538.8123   -28719.029    3773.8634   -1781.1274   -2988.7852   -1894.7941    77.901457 
   19600    504.48741   -110.75676   0.45647081   -110.30029   -1796.7077    4.2536481    4.2536481    4.2536481   -1796.7077   -14141.605     17929.26   -9177.7785    4572.7478     23209.85   -2135.3643    76.963478 
   19700    338.06988    -110.6104   0.30589274    -110.3045   -6794.8812    4.2597801    4.2597801    4.2597801   -6794.8812   -18965.884   -6322.3188    4903.5594   -13008.228     14863.89   -686.90518    77.296805 
   19800    702.70027    -110.9332   0.63581797   -110.29738   -14755.037    4.2720131    4.2720131    4.2720131   -14755.037   -12951.963   -37485.801    6172.6541   -12404.794    -7237.374   -3239.7206    77.964647 
   19900    641.41784   -110.87491   0.58036834   -110.29454    17359.895    4.2470478    4.2470478    4.2470478    17359.895    12158.936    15897.325    24023.424    3491.2422    11124.908    567.80879    76.605763 
   20000     382.9813   -110.64995   0.34652953   -110.30342   -10755.052    4.2640554    4.2640554    4.2640554   -10755.052    -24301.71   -12123.041    4159.5947    -5620.792    22235.967    87.428272    77.529772 
   20100    457.28546   -110.71413   0.41376149   -110.30037    -14824.92    4.2708908    4.2708908    4.2708908    -14824.92   -22962.289   -35809.307    14296.834   -17110.469    -174.1603    3177.4498    77.903221 
   20200    770.14212   -110.98877   0.69684078   -110.29193    18242.685    4.2477625    4.2477625    4.2477625    18242.685    19802.302    7710.2096    27215.543     2381.862   -2451.3243    255.83757    76.644442 
   20300    600.39684   -110.84129   0.54325168   -110.29804   -10053.025    4.2673918    4.2673918    4.2673918   -10053.025   -4390.4862   -12251.199    -13517.39    3826.3134    21928.445    1197.8367    77.711902 
   20400    286.94231   -110.56258   0.25963143   -110.30295   -2930.4459    4.2620368    4.2620368    4.2620368   -2930.4459   -7769.6488   -13179.921    12158.232   -19510.165    12727.504    4619.7937    77.419716 
   20500    714.57065   -110.94394   0.64655854   -110.29738    4477.1731    4.2544642    4.2544642    4.2544642    4477.1731   -1485.8229    239.94082    14677.401   -14110.724   -5315.4922    1687.0587    77.007781 
   20600    738.25345   -110.96446   0.66798723   -110.29647    2203.7961    4.2662803    4.2662803    4.2662803    2203.7961    12812.932   -5072.1696    -1129.374    6537.7163    3758.3341    2303.5077    77.651197 
   20700    454.78014   -110.71332   0.41149463   -110.30183     3125.676     4.256065     4.256065     4.256065     3125.676   -16376.281    9835.1979    15918.111   -8491.6218    11840.735   -249.58115    77.094741 
   20800    443.00471   -110.70398   0.40083997   -110.30314   -6361.9122    4.2614517    4.2614517    4.2614517   -6361.9122   -21885.516   -9703.8389    12503.618   -25201.935    2635.9767   -1058.2374    77.387835 
   20900    772.24386   -110.99623   0.69874247   -110.29748    3154.0898    4.2612161    4.2612161    4.2612161    3154.0898   -321.66331   -4249.7767    14033.709    680.70154   -5121.0101    378.80826    77.375002 
   21000    660.95128   -110.89701   0.59804261   -110.29896    9888.7755    4.2560853    4.2560853    4.2560853    9888.7755    11210.514    13882.337     4573.476    3117.0295     13716.33     1186.674    77.095846 
   21100    317.34896   -110.59087   0.28714401   -110.30372   -9017.3301    4.2640104    4.2640104    4.2640104   -9017.3301   -17126.904   -12874.463    2949.3764   -21857.065    13113.273    3399.9075     77.52732 
   21200    569.63047   -110.81648   0.51541362   -110.30106    1652.1371    4.2553029    4.2553029    4.2553029    1652.1371   -1933.7881   -5323.1884    12213.388    -13752.49   -3553.3216   -3264.6174    77.053335 
   21300    865.07152   -111.08131   0.78273489   -110.29858    -594.8872    4.2614917    4.2614917    4.2614917    -594.8872    3287.3314    2230.9178   -7302.9108    9696.4519    5618.0617   -2620.4434    77.390017 
   21400    436.13411   -110.69917   0.39462331   -110.30454   -4073.9201    4.2620429    4.2620429    4.2620429   -4073.9201   -6811.4709   -4776.2683   -634.02097   -14258.058    15601.278   -344.43596    77.420048 
   21500    412.05573   -110.67686   0.37283668   -110.30403   -6345.4498    4.2536717    4.2536717    4.2536717   -6345.4498   -16979.763   -8586.9123    6530.3256   -31935.602    5468.2189    375.44712    76.964756 
   21600    778.83137   -111.00409   0.70470299   -110.29939   -8956.0794     4.266404     4.266404     4.266404   -8956.0794   -3980.0305   -8363.0321   -14525.176    509.51712   -6492.9697    1162.5364    77.657953 
   21700    730.60139   -110.96073   0.66106349   -110.29966    1448.0208    4.2581697    4.2581697    4.2581697    1448.0208    9616.7703    1026.9233   -6299.6311    2273.2521    3870.2632   -924.85266    77.209174 
   21800    330.38789   -110.60408    0.2989419   -110.30514     2848.396    4.2536616    4.2536616    4.2536616     2848.396   -1240.1259   -2048.5346    11833.848   -25486.004    12994.024    2073.0006     76.96421 
   21900    573.01301   -110.82159   0.51847421   -110.30311   -9538.6025    4.2686645    4.2686645    4.2686645   -9538.6025    533.49493    -15168.81   -13980.492   -13816.294   -399.18792   -484.77602    77.781453 
   22000    972.73408   -111.17577   0.88015024   -110.29562    5004.7666    4.2556842    4.2556842    4.2556842    5004.7666    19573.827   -240.84371   -4318.6829    8575.1107    2729.5377   -1532.9511    77.074049 
   22100    500.45813   -110.75635   0.45282504   -110.30353     8188.709    4.2570649    4.2570649    4.2570649     8188.709    8094.5961     2080.933    14390.598   -15715.022    8193.4189    3001.3319    77.149089 
   22200     496.3421   -110.75255   0.44910076   -110.30344   -9263.2212    4.2664374    4.2664374    4.2664374   -9263.2212   -1657.3701   -18180.704   -7951.5894   -20250.281    4940.3987    721.53591    77.659776 
   22300    842.79954   -111.06075   0.76258274   -110.29817    13197.348    4.2532707    4.2532707    4.2532707    13197.348    28643.504    254.25228    10694.288     6331.804   -947.25263   -2287.2754    76.942991 
   22400    760.82036   -110.98954   0.68840625   -110.30114    4998.7239    4.2612052    4.2612052    4.2612052    4998.7239    23860.639   -7764.1383   -1100.3294   -4076.3697   -519.22439    -2207.329    77.374408 
   22500    461.43669    -110.7222   0.41751762   -110.30468   -5727.3724    4.2649175    4.2649175    4.2649175   -5727.3724   -8846.1004   -11608.529    3272.5121   -28188.654    12727.607    1263.5212    77.576805 
   22600    650.51344   -110.89008   0.58859823   -110.30148    9319.4033    4.2536859    4.2536859    4.2536859    9319.4033    7749.6571    3215.7558    16992.797   -10304.745    2787.5538    190.95091    76.965527 
   22700    955.13422   -111.16171   0.86422551   -110.29749   -277.95285    4.2604019    4.2604019    4.2604019   -277.95285    7055.4718   -359.41082   -7529.9196    9351.6323   -6046.4673   -3059.1731    77.330659 
   22800    544.10036    -110.7953   0.49231344   -110.30298   -4879.6941    4.2633276    4.2633276    4.2633276   -4879.6941   -15129.102    343.38439    146.63579   -13630.265    6397.3752    -302.1455    77.490084 
   22900     534.2453   -110.78661   0.48339637   -110.30321    437.27612    4.2548943    4.2548943    4.2548943    437.27612   -3875.2731   -2296.3139    7483.4155   -24744.135      7334.41   -741.01585    77.031142 
   23000    836.19698   -111.05601    0.7566086   -110.29941    37.461866    4.2614435    4.2614435    4.2614435    37.461866    18505.659   -6053.9962   -12339.278    4868.2577    2999.6439   -2504.7215    77.387389 
   23100    796.83155   -111.01998   0.72098994   -110.29899   -8536.6031    4.2632886    4.2632886    4.2632886   -8536.6031    -1317.746   -13259.548   -11032.515   -2422.5011   -2717.7372   -2361.1896    77.487958 
   23200    461.05941   -110.71916   0.41717624   -110.30198   -5874.1445    4.2565688    4.2565688    4.2565688   -5874.1445   -10547.209   -14443.684    7368.4591   -27805.104    6960.9199    844.83356    77.122123 
   23300    711.22817   -110.94477    0.6435342   -110.30124   -6262.8021    4.2601282    4.2601282    4.2601282   -6262.8021   -10488.721   -390.72076   -7908.9647   -6249.6645     11429.91     3598.773    77.315753 
   23400    796.08726    -111.0182   0.72031649   -110.29788    1636.8499    4.2619042    4.2619042    4.2619042    1636.8499    15690.648   -3454.3555   -7325.7426    3183.2373   -4661.8568    464.41787     77.41249 
   23500    572.48598   -110.81901   0.51799735   -110.30101   -1195.4444    4.2574983    4.2574983    4.2574983   -1195.4444   -15510.859    536.52471    11388.002   -16209.442    5309.1877   -2053.1151    77.172659 
   23600     476.4898   -110.73403   0.43113798    -110.3029     -2053.42    4.2623502    4.2623502    4.2623502     -2053.42   -25103.043     13231.75    5711.0329   -14747.237    9380.1373    2848.9986    77.436799 
   23700    775.96046   -110.99946   0.70210533   -110.29736    4722.9923    4.2612685    4.2612685    4.2612685    4722.9923    3197.9873    7529.8274    3441.1621    6463.6025   -872.05394    1410.8858    77.377855 
   23800    666.02966   -110.90114   0.60263763    -110.2985    11412.193    4.2559771    4.2559771    4.2559771    11412.193    10943.401    2137.7187     21155.46    73.463776   -2008.1447   -2470.4204    77.089967 
   23900    514.63888   -110.76723   0.46565607   -110.30157   -4984.6212    4.2634233    4.2634233    4.2634233   -4984.6212   -22646.296    -7427.787     15120.22   -20864.275    2358.6966   -1438.8626      77.4953 
   24000    710.27434   -110.94113   0.64267115   -110.29846   -946.69652    4.2614132    4.2614132    4.2614132   -946.69652     -12060.2   -782.36562    10002.476      -4643.6    10728.117    1298.5967    77.385739 
   24100    781.85504   -111.00428   0.70743887   -110.29685    3659.4002    4.2581406    4.2581406    4.2581406    3659.4002    8473.4744   -4107.5264    6612.2525    6517.1144   -4990.1005   -1796.5128     77.20759 
   24200    539.25794   -110.78806   0.48793192   -110.30013    694.42942    4.2601239    4.2601239    4.2601239    694.42942    2473.9514   -4235.7004    3845.0373   -12868.376   -1860.8406   -3460.6402     77.31552 
   24300    639.43308    -110.8782   0.57857249   -110.29963   -7485.4849    4.2636359    4.2636359    4.2636359   -7485.4849   -24276.297    397.57664    1422.2657   -14839.448     12909.23   -2532.6474    77.506894 
   24400    783.74182   -111.00503   0.70914607   -110.29589   -5009.0293     4.260723     4.260723     4.260723   -5009.0293   -10887.437   -256.20475   -3883.4466    2288.4012   -222.53544    3520.0161    77.348143 
   24500    517.61368   -110.76745   0.46834773    -110.2991    4484.7416    4.2569691    4.2569691    4.2569691    4484.7416    5516.8347    607.37182    7330.0183     -3135.79   -1343.0828    3474.3695    77.143882 
   24600    483.35893   -110.73827   0.43735332   -110.30091   -5572.9211    4.2659311    4.2659311    4.2659311   -5572.9211   -13749.482   -18987.774    16018.492   -16944.387   -1060.0192   -6381.6135    77.632131 
   24700    704.10879   -110.93437   0.63709243   -110.29728    6482.2455    4.2546891    4.2546891    4.2546891    6482.2455   -13153.723    2943.9514    29656.508   -1307.4393    771.01882    7244.3243    77.019998 
   24800    564.80385   -110.81247   0.51104639   -110.30143   -2245.0008    4.2606327    4.2606327    4.2606327   -2245.0008   -13855.728   -11464.284     18585.01    7924.5306     2287.559    8791.8545     77.34323 
   24900     330.7517   -110.60198   0.29927109   -110.30271   -11894.287    4.2677194    4.2677194    4.2677194   -11894.287   -12599.736   -33146.523    10063.398   -17161.849   -7496.2071   -6745.6329    77.729801 
   25000    629.28744   -110.86645    0.5693925   -110.29706    14861.596    4.2499931    4.2499931    4.2499931    14861.596    7400.6959    4638.4872    32545.603   -10800.665    1967.3478   -4914.9437    76.765249 
   25100    798.07655   -111.01788   0.72211643   -110.29576   -15238.335    4.2685576    4.2685576    4.2685576   -15238.335   -23104.234   -13856.601   -8754.1701    9172.4529    2036.4089    2070.3225    77.775613 
   25200    368.36885   -110.63545   0.33330787   -110.30215    -7459.739    4.2579692    4.2579692    4.2579692    -7459.739   -10460.514   -11470.668   -448.03561   -8576.9044   -3493.9899   -1941.7353    77.198266 
   25300     447.5034   -110.70876   0.40491048   -110.30385    2670.5773    4.2545796    4.2545796    4.2545796    2670.5773    -3634.014   -5741.4623    17387.208   -16765.331    -109.8553   -11052.732    77.014052 
   25400    773.01295   -110.99638   0.69943836   -110.29694   -3308.3156     4.268111     4.268111     4.268111   -3308.3156   -9852.5522    1461.4895    -1533.884    1635.9423   -1600.4258   -412.52162    77.751202 
   25500    571.68821   -110.81504   0.51727551   -110.29776    10648.797    4.2508381    4.2508381    4.2508381    10648.797    -1002.059    11276.572    21671.877    2204.3733    3862.8641    8298.1756    76.811047 
   25600    247.01481   -110.52754   0.22350419   -110.30403   -15443.344    4.2684573    4.2684573    4.2684573   -15443.344   -29615.663   -19289.143    2574.7736   -14281.259   -2775.9089   -4871.2074    77.770132 
   25700    557.01585   -110.80329   0.50399965   -110.29929    8366.6704     4.256142     4.256142     4.256142    8366.6704    5568.4665     11644.38    7887.1648   -3524.5162   -9370.9023   -327.93111    77.098923 
   25800    696.35652   -110.92704   0.63007801   -110.29696    15209.295    4.2524014    4.2524014    4.2524014    15209.295    6002.2962    10136.479     29489.11    9650.9355    2124.6759    3373.9819    76.895822 
   25900    341.87202   -110.61098   0.30933299   -110.30165   -21648.836    4.2719323    4.2719323    4.2719323   -21648.836   -26686.306    -27487.65   -10772.553   -4194.3592   -2257.9368    1535.3965    77.960227 
   26000    390.65586   -110.65286   0.35347364   -110.29939     5091.734    4.2482582    4.2482582    4.2482582     5091.734    9023.5433    6833.8887   -582.23006   -11929.243   -4266.4967   -7229.3689    76.671278 
   26100    698.80919   -110.93115   0.63229724   -110.29886   -5420.4473    4.2649669    4.2649669    4.2649669   -5420.4473   -4771.2329   -6344.5728   -5145.5363    6905.4635   -612.13592   -3559.5756    77.579505 
   26200    487.33505   -110.74142   0.44095099   -110.30047   -2194.8029    4.2602751    4.2602751    4.2602751   -2194.8029   -5534.1877   -3168.3087    2118.0876    6805.9874    -737.8573    7727.0447    77.323756 
   26300    373.40232   -110.63751   0.33786226   -110.29965    -466.0692    4.2517407    4.2517407    4.2517407    -466.0692    1361.7374    449.97542   -3209.9204   -11029.767   -719.90572   -6089.3852    76.859989 
   26400    606.86516   -110.84554   0.54910435   -110.29644   -17380.464    4.2712501    4.2712501    4.2712501   -17380.464   -22438.144   -14016.284   -15686.962   -4761.0771   -5091.8988   -4854.7831    77.922884 
   26500    581.61869   -110.82161   0.52626081   -110.29535    14382.516     4.250802     4.250802     4.250802    14382.516    3911.6139     19538.11    19697.824    5548.2488    6360.4405    6889.9368    76.809093 
   26600    373.19035   -110.63976   0.33767047   -110.30209   -4920.2925    4.2600008    4.2600008    4.2600008   -4920.2925    -15574.06   -5660.1048     6473.287   -6195.7696    6391.3283    1028.2442    77.308817 
   26700    465.22165   -110.72176   0.42094233   -110.30082   -4637.8083    4.2626744    4.2626744    4.2626744   -4637.8083   -17164.758   -11605.766      14857.1   -14021.143   -4595.7186   -4005.7423    77.454468 
   26800    801.99574    -111.0215    0.7256626   -110.29584     1203.029    4.2561574    4.2561574    4.2561574     1203.029   -11046.875    16449.921   -1793.9594    6629.4711    1744.2768   -1569.2516    77.099762 
   26900    401.63478   -110.66582   0.36340759   -110.30241   -5810.0533    4.2637655    4.2637655    4.2637655   -5810.0533   -14279.644   -6521.5254    3371.0099    -224.3259    3055.8455    5553.7587    77.513961 
   27000    458.08673   -110.71676    0.4144865   -110.30228    1909.1598    4.2534626    4.2534626    4.2534626    1909.1598   -10573.534   -5461.7286    21762.742   -16326.993     2298.903    -1503.731    76.953405 
   27100    818.42169   -111.03921   0.74052514   -110.29868   -5749.2973    4.2646814    4.2646814    4.2646814   -5749.2973   -10251.445    3939.1198   -10935.567    -2231.822    903.97821   -3533.9791    77.563922 
   27200    766.70297   -110.99453   0.69372896    -110.3008    4769.9547    4.2549921    4.2549921    4.2549921    4769.9547   -1337.4637    5651.7741    9995.5536      5029.82   -416.87799    935.65729    77.036453 
   27300    318.78584   -110.59624   0.28844413    -110.3078    2459.4113    4.2584437    4.2584437    4.2584437    2459.4113   -14805.039    2280.8755    19902.397   -9610.4771    2333.5412    2602.7442    77.224077 
   27400    625.19657   -110.86919     0.565691    -110.3035   -10450.119    4.2668328    4.2668328    4.2668328   -10450.119    -14592.43   -7016.7157   -9741.2102   -7953.3349   -2373.9523    -3693.091    77.681371 
   27500    948.30109   -111.15259   0.85804276   -110.29455    17725.131    4.2471286    4.2471286    4.2471286    17725.131    17098.932    21169.643    14906.819    1778.6754   -103.61512   -3272.1713    76.610136 
   27600    561.96479    -110.8126   0.50847755   -110.30412   -14651.495    4.2681769    4.2681769    4.2681769   -14651.495   -27206.701    -12879.72   -3868.0655   -2049.6219    9570.7042    10487.874    77.754804 
   27700    354.77249   -110.62735   0.32100561   -110.30634   -1565.2448    4.2571202    4.2571202    4.2571202   -1565.2448   -7144.9738   -6386.0159    8835.2552   -4772.4403    2319.0218    631.51113    77.152099 
   27800    867.21701    -111.0849   0.78467618   -110.30022    6344.6509    4.2523636    4.2523636    4.2523636    6344.6509   -3367.1889    7253.5344    15147.607   -1198.4206   -7208.0903   -1750.6012    76.893775 
   27900    800.63529   -111.02336   0.72443164   -110.29893   -8182.5697    4.2684427    4.2684427    4.2684427   -8182.5697   -15980.073   -9576.5822    1008.9464    470.06242   -5609.5894    5658.1864    77.769334 
   28000     455.5315   -110.71433   0.41217447   -110.30216    5751.1755    4.2534814    4.2534814    4.2534814    5751.1755   -3492.7808   -7023.8613    27770.169   -7560.3214    6846.6752    2626.9947    76.954427 
   28100    620.25127   -110.86257   0.56121639   -110.30136   -3143.0026    4.2620253    4.2620253    4.2620253   -3143.0026   -17555.089   -7891.0761    16017.158   -2365.5519    3949.5937    604.22196    77.419091 
   28200     892.2805   -111.10373   0.80735414   -110.29637    4432.8655    4.2580417    4.2580417    4.2580417    4432.8655   -3809.9597    5910.7106    11197.846    5068.7541   -11969.982     -5257.29    77.202212 
   28300    645.05611   -110.88449   0.58366033   -110.30083   -553.41026    4.2597033    4.2597033    4.2597033   -553.41026   -4556.0518   -10373.066    13268.887   -5321.0431   -5226.1462    2083.3585    77.292626 
   28400    614.98238   -110.85785   0.55644898    -110.3014   -7461.9188    4.2612579    4.2612579    4.2612579   -7461.9188   -18661.883   -19931.665    16207.792   -9790.1346    1320.5697    6112.1193     77.37728 
   28500    820.17028   -111.03998    0.7421073   -110.29787    8416.1833    4.2548041    4.2548041    4.2548041    8416.1833   -2533.4051    15391.806    12390.149     2023.133   -8123.0443   -1479.6849    77.026243 
   28600    794.39824   -111.01697   0.71878823   -110.29818   -13218.835     4.267517     4.267517     4.267517   -13218.835   -21042.131   -10936.918   -7677.4563   -2272.9184   -6368.1587    3189.9562    77.718745 
   28700    517.90602   -110.76953   0.46861225   -110.30092    7169.8674    4.2527183    4.2527183    4.2527183    7169.8674   -1026.8905   -8876.0401    31412.533   -10800.339    711.14127    4850.7837     76.91302 
   28800    710.93371   -110.94424   0.64326776   -110.30097    2564.7118    4.2586836    4.2586836    4.2586836    2564.7118   -9856.9574   -1395.0174     18946.11   -1212.3244   -1351.4385     3849.577    77.237128 
   28900    762.69127    -110.9873   0.69009909    -110.2972   -1880.6599    4.2656621    4.2656621    4.2656621   -1880.6599   -13613.912   -1011.4942    8983.4263    1055.3659   -11325.117   -725.05502    77.617444 
   29000     513.3402   -110.76403     0.464481   -110.29955    6138.9498    4.2522827    4.2522827    4.2522827    6138.9498   -6592.7648    2387.3828    22622.231   -11883.404   -3114.5069    43.653389    76.889385 
   29100    493.04514   -110.74833    0.4461176   -110.30221    -5162.153    4.2616309    4.2616309    4.2616309    -5162.153    -7558.327   -16260.188    8332.0559    -1826.351    10043.091    9392.4144    77.397601 
   29200    775.55398   -110.99983   0.70173754   -110.29809    -647.1985    4.2607544    4.2607544    4.2607544    -647.1985   -5271.8332    546.78193    2783.4558    9828.8627    -5664.787   -901.58428    77.349852 
   29300    655.03367   -110.89221   0.59268823   -110.29953   -3022.7797    4.2569952    4.2569952    4.2569952   -3022.7797   -11868.015    8589.0833   -5789.4077   -3990.4609   -14556.986   -2976.4505    77.145302 
   29400    395.29345   -110.66143   0.35766982   -110.30376   -6563.3255     4.257211     4.257211     4.257211   -6563.3255   -6109.3615    -10243.54   -3337.0753   -8964.6909    -3622.353    4168.0466    77.157037 
   29500    574.16263   -110.82258   0.51951442   -110.30306   -2072.1953    4.2620448    4.2620448    4.2620448   -2072.1953   -8613.4355   -7894.4699     10291.32    4626.3648    4044.1719    5529.2106    77.420157 
   29600    816.08419   -111.03707   0.73841012   -110.29866    455.20772    4.2567896    4.2567896    4.2567896    455.20772   -3675.1003    8641.7915   -3601.0681    2587.1441    1800.8605   -2171.2372    77.134127 
   29700    439.01817   -110.70041   0.39723287   -110.30318    5848.6563    4.2546501    4.2546501    4.2546501    5848.6563    1691.6112   -1492.6395    17346.997   -9497.3143   -5863.3406    -3667.827    77.017879 
   29800     349.4767   -110.62054   0.31621386   -110.30433   -14474.238    4.2675784    4.2675784    4.2675784   -14474.238   -26436.385   -25088.756     8102.428   -5376.6867    1745.0417    3712.9138    77.722098 
   29900    630.50604   -110.86877   0.57049512   -110.29828    12357.721       4.2496       4.2496       4.2496    12357.721    15751.662    13728.737    7592.7648    5824.9118    9532.9662    2912.2383    76.743951 
   30000    630.61489   -110.87069   0.57059361   -110.30009   -4569.9224    4.2607384    4.2607384    4.2607384   -4569.9224   -10247.932    -5742.961    2281.1256   -5566.5747    37.442189   -3204.7903    77.348986 
   30100    322.26227   -110.59563   0.29158967   -110.30404   -15974.022    4.2637409    4.2637409    4.2637409   -15974.022   -23168.056   -24068.488   -685.51983   -17901.145   -2546.3301     610.3365    77.512618 
   30200     397.0807   -110.66096   0.35928696   -110.30168    5510.3995    4.2481793    4.2481793    4.2481793    5510.3995     198.2712    17818.689   -1485.7618    3090.9735    8011.7904     5351.666    76.667008 
   30300    657.34217   -110.89302   0.59477701   -110.29825   -13303.498    4.2666472    4.2666472    4.2666472   -13303.498   -16969.267   -2064.3332   -20876.894    4652.4563    9475.0496   -1020.3346    77.671231 
   30400    492.67433    -110.7455   0.44578209   -110.29972   -794.48754    4.2556361    4.2556361    4.2556361   -794.48754   -8652.8002   -6955.4019    13224.739   -14809.542   -3633.3859   -4133.5898    77.071438 
   30500    333.69221   -110.60345   0.30193172   -110.30151   -2839.9897    4.2571836    4.2571836    4.2571836   -2839.9897   -11949.194    6737.4016   -3308.1773   -10660.459   -145.43299    5962.1066    77.155544 
   30600    526.70425   -110.77641   0.47657307   -110.29984    -5027.188    4.2615765    4.2615765    4.2615765    -5027.188   -10775.611     1068.484   -5374.4371    6792.3936    13710.704    4129.1599    77.394634 
   30700    554.82527   -110.80134   0.50201757   -110.29932    14934.381    4.2513341    4.2513341    4.2513341    14934.381    8002.1439    13521.796    23279.203   -1631.2984    6770.2793   -3543.5486    76.837938 
   30800    452.78349   -110.71178   0.40968802   -110.30209   -3679.3421     4.263957     4.263957     4.263957   -3679.3421    -2883.938   -9496.1535    1342.0652   -15783.984   -4706.1728    2299.4976    77.524407 
   30900    396.72169   -110.66025   0.35896212   -110.30128    11649.519     4.253635     4.253635     4.253635    11649.519    10453.982    4402.2342     20092.34   -743.21016    2437.2428    3451.4638    76.962766 
   31000      506.709   -110.75877   0.45848096   -110.30028    5339.5275    4.2589473    4.2589473    4.2589473    5339.5275    8027.4992    9725.7121    -1734.629     4362.374    9908.0187    1417.7989    77.251481 
   31100    514.10731   -110.76306   0.46517509   -110.29789   -2501.0434    4.2621432    4.2621432    4.2621432   -2501.0434   -1135.7081   -1725.8125   -4641.6096   -13005.128    4437.5216    -537.7121    77.425517 
   31200    514.46004   -110.76307   0.46549426   -110.29758    3829.7902    4.2516597    4.2516597    4.2516597    3829.7902    3845.9857   -5169.9449     12813.33   -10140.043   -3235.1062   -371.56829    76.855597 
   31300     494.4283    -110.7478   0.44736911   -110.30043   -13495.447    4.2626678    4.2626678    4.2626678   -13495.447   -21402.277   -1114.7473   -17969.317     3603.303    12725.547    4012.1992    77.454107 
   31400    492.94828    -110.7469   0.44602996   -110.30087   -2277.8772    4.2566934    4.2566934    4.2566934   -2277.8772    -5439.667    11002.976   -12396.941   -164.75771     13252.32   -4531.5562    77.128897 
   31500    579.74331   -110.82446   0.52456393   -110.29989   -7605.6696    4.2584459    4.2584459    4.2584459   -7605.6696   -11204.157   -15556.716    3943.8637   -16175.152   -5012.1178    31.508705    77.224199 
   31600     518.0037   -110.76848   0.46870063   -110.29978   -9808.5406    4.2614225    4.2614225    4.2614225   -9808.5406   -10121.113   -12583.366   -6721.1424   -3659.1033    7322.1789    7903.1324    77.386249 
   31700    442.45871   -110.70075   0.40034594    -110.3004   -2227.6483    4.2564004    4.2564004    4.2564004   -2227.6483     -9344.62     12475.74   -9814.0647    7901.9731    16826.921   -288.65336    77.112967 
   31800    542.41963    -110.7905   0.49079268   -110.29971   -6959.6204    4.2609314    4.2609314    4.2609314   -6959.6204   -11109.333   -9254.2241   -515.30363   -12399.866   -1324.4927    169.35521    77.359495 
   31900    639.10926   -110.87704   0.57827949   -110.29876    1530.8184    4.2559555    4.2559555    4.2559555    1530.8184   -3074.8309   -10114.898    17782.184   -8566.8051   -2566.0658   -429.60062    77.088789 
   32000    614.43844   -110.85648   0.55595681   -110.30053   -5416.5505    4.2595037    4.2595037    4.2595037   -5416.5505   -15250.867    2189.7155   -3188.4998    3768.0392    13485.222    1397.6007    77.281757 
   32100    496.89405   -110.75207   0.44960018   -110.30247   -240.82319    4.2589712    4.2589712    4.2589712   -240.82319    -8743.364    7274.7141    746.18028   -2029.0573    5397.5689    2485.8374    77.252781 
   32200    711.32156   -110.94312   0.64361869    -110.2995    5301.0841      4.25527      4.25527      4.25527    5301.0841    -1237.042   -4670.3575    21810.652   -10416.556   -9066.9173   -1240.3878    77.051549 
   32300    725.65956    -110.9556   0.65659202   -110.29901    4119.9872    4.2608626    4.2608626    4.2608626    4119.9872    5725.5875      2605.98    4028.3941   -3121.5739    3569.5601     6922.306    77.355749 
   32400    550.27499   -110.79917   0.49790038   -110.30126    7951.4742    4.2571522    4.2571522    4.2571522    7951.4742    4963.3235    8725.5485    10165.551    8991.2373    11467.573    1986.1721    77.153836 
   32500    606.44406   -110.85003   0.54872333   -110.30131    4691.2058    4.2570206    4.2570206    4.2570206    4691.2058   -364.08476    3678.4184    10759.284   -5526.6772   -5637.1753   -3863.7176    77.146683 
   32600    797.18322   -111.02065   0.72130813   -110.29934    6598.5721    4.2567847    4.2567847    4.2567847    6598.5721    5589.3121    7260.7832    6945.6209   -7636.5382   -6631.4326    4459.0276    77.133858 
   32700    732.83924   -110.96437   0.66308834   -110.30128    544.61813    4.2597645    4.2597645    4.2597645    544.61813    -7256.936   -2850.1584    11740.949    5622.0264    11334.759    4456.9562    77.295955 
   32800    586.82913   -110.83417   0.53097533   -110.30319   -7238.9964    4.2590948    4.2590948    4.2590948   -7238.9964   -20384.072    1826.6225   -3159.5399    1977.4848    10808.452    1771.7202    77.259502 
   32900    715.44661   -110.94929   0.64735113   -110.30194    2926.7414    4.2536626    4.2536626    4.2536626    2926.7414   -7580.9571    12671.142    3690.0397   -7177.0639   -12510.184   -2765.3086    76.964264 
   33000    898.08214   -111.11171   0.81260359   -110.29911   -10958.848    4.2643761    4.2643761    4.2643761   -10958.848   -13907.807   -17555.552   -1413.1843   -2068.9178   -1039.7213   -2751.5259    77.547265 
   33100    601.84746   -110.84718   0.54456423   -110.30261   -4147.0596    4.2558582    4.2558582    4.2558582   -4147.0596   -13348.035     5.921401    900.93499    12827.136    18627.535    4427.1225    77.083502 
   33200    571.04871    -110.8207   0.51669688     -110.304   -1672.5523    4.2537274    4.2537274    4.2537274   -1672.5523   -11937.029    11557.427   -4638.0545    1392.1689   -8226.5407    1238.8152    76.967782 
   33300     885.5973   -111.09989   0.80130705   -110.29858   -11666.431    4.2668613    4.2668613    4.2668613   -11666.431   -14352.211   -16541.925   -4105.1577   -8582.3047   -12335.174    1308.9346    77.682924 
   33400    807.77455    -111.0301   0.73089139    -110.2992    4397.6907    4.2528005    4.2528005    4.2528005    4397.6907   -96.552695   -1179.8317    14469.457    8999.8491    10955.898    2182.9233    76.917477 
   33500    539.37289   -110.79215   0.48803593   -110.30412   -166.83854    4.2558234    4.2558234    4.2558234   -166.83854   -13197.493    11929.711     767.2662    7249.2589    4955.4931   -1616.2373    77.081614 
   33600    720.00024   -110.95307   0.65147135    -110.3016   -6875.1755    4.2660893    4.2660893    4.2660893   -6875.1755    -23073.27   -6658.3774    9106.1212   -3294.1337   -11549.813    725.76256    77.640767 
   33700    896.43904   -111.10809   0.81111688   -110.29697    12869.851    4.2517925    4.2517925    4.2517925    12869.851    12271.143    7995.7432    18342.666    4261.3978   -3843.4088   -3404.5572    76.862797 
   33800    621.39914   -110.86442     0.562255   -110.30216    6371.5441    4.2564127    4.2564127    4.2564127    6371.5441    2012.8375    4708.0183    12393.776     7152.039    12244.853   -254.06027    77.113638 
   33900    489.57969   -110.74657   0.44298199   -110.30358   -1145.0946    4.2639873    4.2639873    4.2639873   -1145.0946   -11355.709   -1339.4928     9259.918    2909.1639    355.44353    5247.5019    77.526056 
   34000    776.49165   -111.00174   0.70258597   -110.29915    11339.258    4.2524452    4.2524452    4.2524452    11339.258    11230.818    11749.224    11037.733   -2675.3692   -10867.083   -4367.2239    76.898203 
   34100    749.54876   -110.97857   0.67820747   -110.30037    2878.6422     4.257617     4.257617     4.257617    2878.6422    3758.1544   -5855.1585    10732.931    5676.0631    3544.9642   -4528.5984    77.179111 
   34200    445.19922   -110.70581   0.40282561   -110.30298   -5120.7837    4.2628246    4.2628246    4.2628246   -5120.7837   -8838.1251   -7928.4186    1404.1927    10671.504    12373.853    2780.0646    77.462656 
   34300    633.15118    -110.8739   0.57288849   -110.30101   -2591.8925    4.2532381    4.2532381    4.2532381   -2591.8925   -16401.952    11804.497   -3178.2224   -2028.6045    -7362.287    2051.8968    76.941221 
   34400    687.32138   -110.92169   0.62190283   -110.29979    99.437992    4.2570326    4.2570326    4.2570326    99.437992    2907.7592   -5763.6242     3154.179   -2715.0144   -11762.616   -6914.7491    77.147336 
   34500     578.8578   -110.82475    0.5237627   -110.30099   -13110.233    4.2631334    4.2631334    4.2631334   -13110.233    -8201.167    -22638.84   -8490.6926    5202.8459    9285.9002   -8636.1571    77.479494 
   34600     430.5309   -110.69172   0.38955341   -110.30217   -1483.6916    4.2541419    4.2541419    4.2541419   -1483.6916    251.97682    7378.5425   -12081.594    7946.1428    2977.5222    3462.7118    76.990283 
   34700    623.26771   -110.86457   0.56394572   -110.30063   -4050.9203    4.2563787    4.2563787    4.2563787   -4050.9203   -2914.2642   -172.53482    -9065.962   -1116.3139   -6460.6019   -3738.1015    77.111789 
   34800    581.95039   -110.82658   0.52656094   -110.30002   -9299.9048    4.2632337    4.2632337    4.2632337   -9299.9048     5666.003   -26387.752   -7177.9652   -555.80733   -3371.5271   -13319.245    77.484961 
   34900     458.4446   -110.71537   0.41481031   -110.30056    1159.2611    4.2540676    4.2540676    4.2540676    1159.2611      8363.81   -1545.2961   -3340.7305    8626.5165    8205.7652    148.02412     76.98625 
   35000    561.37348   -110.80888   0.50794252   -110.30093   -5855.2614    4.2579679    4.2579679    4.2579679   -5855.2614   -14298.233    2874.9871   -6142.5388    1605.4552    5128.0794    1314.1423    77.198198 
   35100    545.26561   -110.79431   0.49336778   -110.30095   -3226.9738    4.2616673    4.2616673    4.2616673   -3226.9738    6998.5684   -15153.099   -1526.3911   -4067.2066   -5972.7998   -11620.789    77.399586 
   35200    528.18862   -110.77843   0.47791616   -110.30051    4644.5401     4.252837     4.252837     4.252837    4644.5401    14757.769   -7636.0804     6811.932   -1666.3494    3258.8961    -6792.348    76.919457 
   35300      367.552   -110.63499   0.33256877   -110.30242    3433.8096    4.2607388    4.2607388    4.2607388    3433.8096    9097.0051   -1176.9673     2381.391    7941.1392    9809.2673    3127.9415    77.349008 
   35400    542.36118   -110.78944   0.49073979    -110.2987   -578.03734    4.2605939    4.2605939    4.2605939   -578.03734   -2532.4462   -5352.4627    6150.7969    1818.0647    1644.1091   -5281.7227    77.341116 
   35500    542.44074    -110.7881   0.49081178   -110.29729     4418.318    4.2548398    4.2548398    4.2548398     4418.318    16224.744    -4332.768    1362.9784    -5720.253   -4402.6942   -11586.226    77.028179 
   35600    466.83928   -110.72274   0.42240599   -110.30033   -693.85416    4.2575918    4.2575918    4.2575918   -693.85416   -7182.8525   -7369.6792    12470.969    992.48259    7071.9363    172.97395    77.177742 
   35700    469.66866   -110.72659   0.42496607   -110.30163   -4170.2755    4.2611918    4.2611918    4.2611918   -4170.2755   -4305.0557    -3303.032   -4902.7388    4779.6002     5786.695    2905.0887     77.37368 
   35800     590.8777   -110.83515   0.53463856   -110.30051    1433.1496    4.2561258    4.2561258    4.2561258    1433.1496    10850.174    4223.5126   -10774.238   -142.78546   -4093.9677   -7893.4286    77.098046 
   35900    538.63078   -110.78797   0.48736445    -110.3006    6811.5203    4.2543237    4.2543237    4.2543237    6811.5203    21269.473   -6594.4883    5759.5761   -6832.0411    363.53412   -5519.7581    77.000156 
   36000     299.8827   -110.57442   0.27134017   -110.30308   -8182.5466    4.2670172    4.2670172    4.2670172   -8182.5466     7759.069   -14823.645   -17483.064    3969.3975    5168.7971    5382.7328    77.691443 
   36100    533.26418   -110.78245   0.48250863   -110.29994    1640.2145    4.2520901    4.2520901    4.2520901    1640.2145    2031.6868    12161.491   -9272.5345    5543.2677    9453.7795    -1293.278    76.878937 
   36200    641.82745   -110.87984   0.58073896    -110.2991     4509.326    4.2553335    4.2553335    4.2553335     4509.326    14611.978   -4388.4764    3304.4764    -7230.432   -4698.7646   -7809.3954    77.054997 
   36300    423.14004   -110.68476     0.382866    -110.3019   -14401.502    4.2661126    4.2661126    4.2661126   -14401.502   -14146.791   -22246.137   -6811.5777   -4550.9045    3986.7898   -321.30377    77.642039 
   36400     275.9907   -110.55259   0.24972219   -110.30287     5835.401    4.2505502    4.2505502    4.2505502     5835.401    15982.997    10688.155   -9164.9489     7752.757    18086.928    3825.1367    76.795444 
   36500    701.87982   -110.93483   0.63507561   -110.29975   -5639.7583     4.259734     4.259734     4.259734   -5639.7583    8143.6665   -9497.7409     -15565.2    1900.6911    1171.5259   -387.13862    77.294294 
   36600    557.16104   -110.80328   0.50413101   -110.29915    679.22637    4.2619133    4.2619133    4.2619133    679.22637    18402.358   -12811.637   -3553.0426     -12535.5   -577.74796   -2565.8977    77.412987 
   36700    290.69319   -110.56568   0.26302531   -110.30266   -5076.9807    4.2574901    4.2574901    4.2574901   -5076.9807   -836.68221   -5134.6392   -9259.6207    444.74541     13614.98    2429.1154    77.172211 
   36800    549.48808    -110.7981   0.49718836   -110.30091   -2844.2168    4.2546176    4.2546176    4.2546176   -2844.2168    9511.6805   -4753.0934   -13291.237     12802.45    4599.6556    2769.3958    77.016115 
   36900    790.32996   -111.01357   0.71510715   -110.29846   -4265.4897    4.2608568    4.2608568    4.2608568   -4265.4897     10720.96   -8927.1882   -14590.241   -3859.7862   -3210.2956    -3323.444    77.355434 
   37000      405.277   -110.67068   0.36670315   -110.30398   -3556.2009    4.2602156    4.2602156    4.2602156   -3556.2009    9153.7288    -6493.168   -13329.163   -9143.6878   -1419.4076   -797.95222    77.320512 
   37100    342.69764   -110.61491   0.31008003   -110.30483    3437.3683    4.2536029    4.2536029    4.2536029    3437.3683    16609.865   -9542.0254    3244.2654    6962.8111    11111.193    6156.0886    76.961021 
   37200    689.75592    -110.9232   0.62410565   -110.29909   -7047.9626    4.2648082    4.2648082    4.2648082   -7047.9626    143.60858   -12190.209   -9097.2873    6921.0612    294.94921    5224.5678    77.570845 
   37300    655.99454   -110.89268   0.59355764   -110.29912    631.50878    4.2534398    4.2534398    4.2534398    631.50878   -2158.2169    3759.5969    293.14632   -13020.293   -6943.2753    -1794.655    76.952171 
   37400    365.74701   -110.63553   0.33093558   -110.30459   -4482.0768     4.256675     4.256675     4.256675   -4482.0768   -12284.156       -13451    12288.926   -5441.5672    9518.2635    1043.3264    77.127896 
   37500    535.89239   -110.78705    0.4848867   -110.30217   -5190.0477    4.2627709    4.2627709    4.2627709   -5190.0477   -2701.2872   -12034.522   -834.33393    9091.2126    11316.566    8627.9686    77.459731 
   37600    766.64349   -110.99087   0.69367514   -110.29719    8738.2413    4.2532848    4.2532848    4.2532848    8738.2413    15365.479    5272.3901    5576.8548   -1135.0883   -11061.974    2369.3872    76.943757 
   37700    527.51832   -110.77871   0.47730966    -110.3014   -1671.3241    4.2599513    4.2599513    4.2599513   -1671.3241    1707.3628   -12704.401    5983.0655   -10754.042   -8743.7951   -163.45933    77.306124 
   37800    446.14532    -110.7061   0.40368166   -110.30242    2280.7559    4.2591028    4.2591028    4.2591028    2280.7559    17322.646   -12094.082    1613.7039    2240.7448    11737.165    3280.2235    77.259942 
   37900    752.09443   -110.97968   0.68051084   -110.29917    6534.2156    4.2550868    4.2550868    4.2550868    6534.2156    16224.107   -2373.5188    5752.0588    5641.6682    4632.2975    1864.9417    77.041595 
   38000    738.97968   -110.96806   0.66864435   -110.29942   -772.44614    4.2604694    4.2604694    4.2604694   -772.44614    2245.4886   -10424.997    5862.1696   -5355.1767   -9436.6429   -1756.6723    77.334333 
   38100     545.4765   -110.79557    0.4935586   -110.30201    -4198.505    4.2587586    4.2587586    4.2587586    -4198.505   -8769.1948   -10405.613    6579.2927   -6688.2385   -1264.1833    1513.0655    77.241208 
   38200    686.82645   -110.92121     0.621455   -110.29975   -1671.9292    4.2570653    4.2570653    4.2570653   -1671.9292    129.71174   -12827.598    7682.0988    6382.0205    13066.955    7978.1951    77.149114 
   38300    756.32278   -110.98226   0.68433675   -110.29793   -3950.2291    4.2633483    4.2633483    4.2633483   -3950.2291   -707.77248   -19197.442     8054.527   -341.58137   -4020.7051    1594.6777    77.491212 
   38400    631.91255   -110.87176   0.57176776   -110.29999    3437.0978    4.2541798    4.2541798    4.2541798    3437.0978    3877.2745    -5934.463    12368.482    -11661.68   -15009.917   -4630.8404    76.992339 
   38500     551.0813   -110.80108   0.49862994   -110.30245    1836.6708    4.2585312    4.2585312    4.2585312    1836.6708    6839.6755   -11964.435    10634.772    1191.4793    8948.3427   -463.51257    77.228838 
   38600    720.25926   -110.95081   0.65170572   -110.29911   -8247.2288    4.2655093    4.2655093    4.2655093   -8247.2288    2696.2239   -23682.407   -3755.5031    6235.8153    366.74231     1508.873    77.609107 
   38700    731.24505   -110.95909   0.66164589   -110.29744    6633.2001     4.250317     4.250317     4.250317    6633.2001    10762.781   -2546.8795    11683.698   -6031.8999   -17802.835   -365.87722    76.782802 
   38800    686.31915   -110.92191   0.62099599   -110.30091   -7446.9503    4.2617512    4.2617512    4.2617512   -7446.9503   -13139.634   -6981.2359   -2219.9815   -3685.2152    5006.3985    2122.4077    77.404155 
   38900    717.93682   -110.94903   0.64960432   -110.29943   -7012.4321    4.2628402    4.2628402    4.2628402   -7012.4321   -1547.8075   -18417.756   -1071.7327    3322.2285    16308.487    5021.3542    77.463507 
   39000    818.81653   -111.03765    0.7408824   -110.29676    6474.8418    4.2516066    4.2516066    4.2516066    6474.8418    22200.473   -6242.0026    3466.0546     1712.895   -5911.6857   -2347.0635    76.852717 
   39100    725.31175   -110.95605   0.65627732   -110.29978   -1659.8396    4.2612637    4.2612637    4.2612637   -1659.8396    1098.7502   -3642.3688   -2435.9003    -2977.051    -19579.23   -5599.7631    77.377597 
   39200    653.30361   -110.89155   0.59112283   -110.30042    5948.0774    4.2592154    4.2592154    4.2592154    5948.0774    8331.5552   -7634.8195    17147.497    2443.5475    11672.418    3847.7253     77.26607 
   39300    773.54552   -110.99995   0.69992025   -110.30003    5693.0173    4.2531725    4.2531725    4.2531725    5693.0173    12636.897   -8976.0286    13418.184    6603.9841    12126.954    4107.6406    76.937663 
   39400    707.79309   -110.94222   0.64042606    -110.3018     5642.261    4.2569247    4.2569247    4.2569247     5642.261   -1334.9112    1750.6026    16511.091   -2752.8505   -21919.824   -3489.6796    77.141467 
   39500    676.21037   -110.91375   0.61184935    -110.3019   -8633.6715    4.2641842    4.2641842    4.2641842   -8633.6715   -23228.529   -9234.5791    6562.0937     136.5189   -10716.944   -1812.3954    77.536798 
   39600     729.3271   -110.96015   0.65991049   -110.30024    1954.4762    4.2509325    4.2509325    4.2509325    1954.4762   -9132.1072   -1390.7346    16386.271    2477.6259    20635.421    1148.7983    76.816168 
   39700    765.10757   -110.99339   0.69228541   -110.30111   -1189.1682    4.2557713    4.2557713    4.2557713   -1189.1682   -4870.4174   -133.47011     1436.383    1166.7058    3827.0236   -3839.0088     77.07878 
   39800    604.49763   -110.84872   0.54696216   -110.30176   -13102.893    4.2666933    4.2666933    4.2666933   -13102.893   -9030.8744   -13751.935   -16525.869   -1911.9772   -22740.933   -4811.4728     77.67375 
   39900    629.80677   -110.86932    0.5698624   -110.29946    8985.5009    4.2476199    4.2476199    4.2476199    8985.5009    8593.4229     8933.189    9429.8908   -3596.4076    4612.9413    3088.6563    76.636724 
   40000    679.93264   -110.91542   0.61521735    -110.3002   -1025.3042    4.2626581    4.2626581    4.2626581   -1025.3042    5814.5613   -9824.6728    934.19879    2214.4551    13682.222   -310.48365    77.453581 
   40100    640.51895   -110.87906   0.57955501   -110.29951   -2007.1694    4.2613938    4.2613938    4.2613938   -2007.1694    10262.401   -7978.5907   -8305.3181   -1136.5713   -19231.639    -9246.987    77.384681 
   40200    538.50422   -110.78677   0.48724993   -110.29952    5536.3475    4.2523311    4.2523311    4.2523311    5536.3475    7262.1662    7103.4547    2243.4216   -326.95782    -10374.11   -3514.1127     76.89201 
   40300    702.25283   -110.93394   0.63541312   -110.29853   -7392.7082    4.2616799    4.2616799    4.2616799   -7392.7082   -12063.763   -6197.8003   -3916.5609    1073.6675    17104.299    2026.6335    77.400273 
   40400    650.85481   -110.88672   0.58890711   -110.29781    6061.4112     4.257442     4.257442     4.257442    6061.4112    16548.009   -4318.5965    5954.8209    2166.6841     296.1935   -3529.7608    77.169598 
   40500    516.79567   -110.76767   0.46760758   -110.30006   -11465.795    4.2628811    4.2628811    4.2628811   -11465.795   -6035.0877   -6311.1474   -22051.151    1775.2782   -23268.978   -3277.5559    77.465736 
   40600    546.83126   -110.79459   0.49478441   -110.29981    6734.9338    4.2490275    4.2490275    4.2490275    6734.9338        10118    9842.4737    244.32732   -1451.1966     150.1519    1440.5607    76.712938 
   40700    649.20261   -110.88873   0.58741217   -110.30132   -4586.7879    4.2643803    4.2643803    4.2643803   -4586.7879    24.824733   -11436.504   -2348.6845    2590.5672    16289.503   -203.63497    77.547499 
   40800    415.05094   -110.67915   0.37554681   -110.30361   -7745.5991    4.2611944    4.2611944    4.2611944   -7745.5991   -6124.6282   -3150.1355   -13962.034    149.37886   -23051.016   -8820.5273    77.373821 
   40900    410.16913   -110.67092   0.37112965   -110.29979    12511.967    4.2421224    4.2421224    4.2421224    12511.967    13061.497    23288.918    1185.4851   -2069.8063   -25904.318   -2639.9125    76.339547 
   41000    689.78807   -110.92079   0.62413474   -110.29666   -23698.589    4.2746313    4.2746313    4.2746313   -23698.589   -22875.672    -15641.24   -32578.853    547.49026    16471.286    4621.4248    78.108086 
   41100    558.15852   -110.80482   0.50503356   -110.29979     5113.241    4.2489175    4.2489175    4.2489175     5113.241     7866.962    11744.278   -4271.5169   -65.075897    2188.5927   -6639.5775    76.706984 
   41200    306.62562   -110.58121   0.27744131   -110.30376    972.69476    4.2495588    4.2495588    4.2495588    972.69476    9072.2056    19451.993   -25606.114    1060.9794   -29270.256   -9999.7791    76.741721 
   41300    570.33314   -110.81503   0.51604941   -110.29898   -19592.998    4.2715186    4.2715186    4.2715186   -19592.998   -8848.4898   -8539.7446    -41390.76    -584.9299   -6944.1714     4408.545    77.937579 
   41400    782.68269   -111.00207   0.70818775   -110.29388    11329.409    4.2468628    4.2468628    4.2468628    11329.409    18138.992    13698.288    2150.9474   -577.98157    11030.825    2961.2064    76.595753 
   41500    387.07573   -110.65307   0.35023425   -110.30284   -994.09375    4.2560468    4.2560468    4.2560468   -994.09375    3376.7701    11400.511   -17759.562   -437.83363   -18363.952   -9770.9079    77.093751 
   41600    276.49791   -110.55569   0.25018112   -110.30551   -1151.1367    4.2615396    4.2615396    4.2615396   -1151.1367    3956.1922    9262.6812   -16672.283   -1071.0006    -22952.39   -2011.8148    77.392626 
   41700    754.40117   -110.98128   0.68259803   -110.29868    1899.8066     4.256757     4.256757     4.256757    1899.8066    10669.546    3486.2265   -8456.3526   -853.11809    5491.6143    7883.8559    77.132352 
   41800    667.65909   -110.90367   0.60411197   -110.29956    8222.4599    4.2521568    4.2521568    4.2521568    8222.4599    12407.363    10921.719    1338.2967   -2221.8994   -6239.7914   -1705.1365    76.882556 
   41900    280.09909   -110.56109   0.25343954   -110.30765   -1120.7766    4.2604033    4.2604033    4.2604033   -1120.7766   -1853.5394    13451.328   -14960.119    661.80999   -27079.956   -9198.2439    77.330736 
   42000    455.33876   -110.71731   0.41200008   -110.30531   -5058.4126    4.2595796    4.2595796    4.2595796   -5058.4126    8938.0502    3813.4148   -27926.703   -1803.6079   -5961.8183    254.79155    77.285888 
   42100    788.22604   -111.01094   0.71320349   -110.29773    11263.379    4.2472322    4.2472322    4.2472322    11263.379    17901.351    13216.461    2672.3256   -1582.9934    9534.3921    9204.9998    76.615744 
   42200    522.49938   -110.77584   0.47276842   -110.30307   -11990.834    4.2658059    4.2658059    4.2658059   -11990.834   -10282.418    2815.4389   -28505.523    2237.4511   -16766.753   -2746.2367    77.625297 
   42300    290.03513   -110.56621   0.26242988   -110.30378   -724.21105    4.2551969    4.2551969    4.2551969   -724.21105    4267.8375    13475.602   -19916.072   -781.34047   -23073.107   -9464.4751    77.047576 
   42400    652.04312   -110.88936   0.58998232   -110.29938     712.4185     4.251824     4.251824     4.251824     712.4185    13117.226    150.94449   -11130.915    1326.7092    5112.8268    5748.7996    76.864503 
   42500    653.61507   -110.88964   0.59140465   -110.29824   -9857.3195     4.263911     4.263911     4.263911   -9857.3195   -6385.6101   -1357.8512   -21828.497   -1071.6842   -110.66607    4300.4689    77.521899 
   42600    425.17864   -110.68622   0.38471057   -110.30151    519.76822    4.2520427    4.2520427    4.2520427    519.76822   -7168.8285    18459.988    -9731.855   -943.61692   -23278.141   -7983.4583    76.876367 
   42700    434.64604   -110.69628   0.39327687     -110.303   -4914.3015    4.2581622    4.2581622    4.2581622   -4914.3015    8467.7874   -11873.318   -11337.374    349.94228   -9722.1114   -3988.4926    77.208764 
   42800    712.72525   -110.94355   0.64488878   -110.29866    469.76143    4.2566348    4.2566348    4.2566348    469.76143    10181.495     -1602.25   -7169.9603   -2453.3738     6921.903      4017.07    77.125707 
   42900    539.33815   -110.78877   0.48800449   -110.30077   -296.01363    4.2571407    4.2571407    4.2571407   -296.01363    -10861.29    14672.356   -4699.1075    1657.0106   -8797.5246    1772.5139    77.153214 
   43000    339.15658   -110.61053     0.306876   -110.30365   -3404.6468    4.2580796    4.2580796    4.2580796   -3404.6468    3448.1038   -2256.5461   -11405.498   -6.1890992   -16699.423   -12431.327    77.204274 
   43100    621.63338   -110.86327   0.56246695    -110.3008    5221.3538    4.2527464    4.2527464    4.2527464    5221.3538    16020.844   -1630.7538    1273.9712    1147.0272    3186.5232   -5649.9517     76.91454 
   43200    720.89281   -110.95129   0.65227896   -110.29901   -6237.8528    4.2618517    4.2618517    4.2618517   -6237.8528   -11307.955   -2445.8142   -4959.7896     -71.9921     8300.815    8113.4081    77.409633 
   43300    427.17191   -110.69076   0.38651412   -110.30425   -2090.3145    4.2526451    4.2526451    4.2526451   -2090.3145   -8311.4662    15298.447   -13257.924   -2935.7353   -13882.409   -9029.5153    76.909043 
   43400     457.1234   -110.71947   0.41361486   -110.30585    -3078.747    4.2563033    4.2563033    4.2563033    -3078.747   -2572.8124   -4213.0981   -2450.3306    1140.8136   -13634.074   -19254.094    77.107693 
   43500    850.41433   -111.06834   0.76947276   -110.29886   -5758.6386     4.261733     4.261733     4.261733   -5758.6386    -10313.05   -8731.1952    1768.3294   -1479.1308    6268.5355   -2990.0104    77.403165 
   43600    739.34265   -110.96929   0.66897277   -110.30032       7200.3    4.2494556    4.2494556    4.2494556       7200.3   -7291.5039    14957.203    13935.201    -555.3425    2197.9813    4562.9308    76.736128 
   43700    382.88452   -110.65332   0.34644196   -110.30688    -5780.379    4.2611656    4.2611656    4.2611656    -5780.379   -18973.883   -191.87611    1824.6225    201.51731   -12461.601   -12937.433    77.372253 
   43800     692.3246   -110.92945   0.62642985   -110.30302    4455.6896    4.2557122    4.2557122    4.2557122    4455.6896   -5543.6582   -786.60341     19697.33    1124.0719   -8289.3212   -15865.273    77.075572 
   43900    975.20053   -111.18048   0.88238193    -110.2981    12807.845    4.2515821    4.2515821    4.2515821    12807.845      3235.22    2432.7069    32755.609    3266.6696    5518.3817    4967.6292    76.851389 
   44000    630.20046   -110.87486   0.57021862   -110.30464   -8600.2272      4.26369      4.26369      4.26369   -8600.2272   -25499.521    547.76279   -848.92381    -1933.486   -5767.0935   -215.20995    77.509846 
   44100    501.39092   -110.75869   0.45366904   -110.30502    4244.5645    4.2509184    4.2509184    4.2509184    4244.5645   -6246.1826    15228.787    3751.0887    597.50783   -8602.8455   -14475.104    76.815404 
   44200    892.80391   -111.10927   0.80782774   -110.30144   -1257.0758     4.257822     4.257822     4.257822   -1257.0758    1320.9405   -14062.899    8970.7313    3485.5541    1398.6688   -203.83582    77.190262 
   44300    841.52192   -111.06252   0.76142672    -110.3011   -2818.5656    4.2594551    4.2594551    4.2594551   -2818.5656    -13139.27   -60.467633    4744.0412    1978.0196     211.0621    8506.3118    77.279113 
   44400    601.82425   -110.84793   0.54454323   -110.30339    3607.0645    4.2500422    4.2500422    4.2500422    3607.0645    -5651.255    17712.351   -1239.9025   -1005.2515   -10863.762   -10534.501    76.767913 
   44500     684.8038   -110.92205   0.61962487   -110.30242   -7987.7793    4.2634813    4.2634813    4.2634813   -7987.7793   -10012.421   -17768.037    3817.1202     357.4415   -7199.3345    -13341.26    77.498465 
   44600     880.2841    -111.0952   0.79649955    -110.2987    5293.7525    4.2536942    4.2536942    4.2536942    5293.7525    557.26868   -4408.6322    19732.621    4739.7022    7175.2974    12703.709    76.965976 
   44700     744.6899   -110.97387   0.67381108   -110.30006    5031.8677    4.2530893    4.2530893    4.2530893    5031.8677   -4788.7523    5690.3825    14193.973    1376.4422   -4383.8911     9292.434    76.933146 
   44800     643.9194   -110.88401    0.5826318   -110.30138   -3657.4346    4.2632274    4.2632274    4.2632274   -3657.4346   -17982.522   -8602.4436    15612.662   -649.65229   -13682.699   -16240.431     77.48462 
   44900    779.18845   -111.00456   0.70502609   -110.29953    6117.8571     4.250742     4.250742     4.250742    6117.8571    2428.8326   -2427.3319    18352.071    2066.3897   -2471.2863   -326.61615     76.80584 
   45000    665.57771   -110.90352   0.60222869   -110.30129    3591.8538    4.2558121    4.2558121    4.2558121    3591.8538    261.08601   -11506.391    22020.866    416.95218    1448.4631    25092.708    77.080997 
   45100     715.5337    -110.9487   0.64742993   -110.30127   -9479.5461    4.2613488    4.2613488    4.2613488   -9479.5461   -16758.976   -7459.3602   -4220.3018   -187.31395   -9526.5816    1780.0495    77.382234 
   45200    713.96849   -110.94591   0.64601369    -110.2999    1168.7595    4.2513904    4.2513904    4.2513904    1168.7595    -7379.744    10214.135    671.88708   -1437.5383   -8004.2575    -11531.01    76.840992 
   45300    635.27669   -110.87666    0.5748117   -110.30185   -8457.8087    4.2585815    4.2585815    4.2585815   -8457.8087    1445.4363   -24758.831   -2060.0318    2715.2352    3180.9936    17393.603    77.231576 
   45400    593.70429   -110.83982   0.53719612   -110.30262   -5365.6448    4.2590447    4.2590447    4.2590447   -5365.6448   -4492.1663   -14934.461    3329.6931     2434.587    -5782.743    19655.724    77.256779 
   45500    783.19724   -111.00727   0.70865332   -110.29862    6131.4331    4.2504495    4.2504495    4.2504495    6131.4331   -4746.0774    16313.018    6827.3588   -3129.2809   -16757.604   -6250.5635    76.789985 
   45600    659.30374   -110.89716   0.59655188   -110.30061   -4659.4725    4.2618888    4.2618888    4.2618888   -4659.4725   -6337.0331   -19861.154    12219.769      605.521   -663.96446    2801.1482    77.411653 
   45700    482.62658   -110.74057   0.43669067   -110.30388    77.420384    4.2551847    4.2551847    4.2551847    77.420384    16660.216   -25643.626    9215.6711    3065.0492    4233.7406    26869.851    77.046915 
   45800     659.3349   -110.89846   0.59658008   -110.30188    10199.934    4.2510683    4.2510683    4.2510683    10199.934    9011.9326    4834.7551    16753.115    1172.1876   -7534.6761    5315.5893    76.823525 
   45900    814.28947   -111.03473   0.73678623   -110.29794    -7844.563    4.2653816    4.2653816    4.2653816    -7844.563   -17834.798   -12478.021      6779.13   -1558.5258   -9016.0966    -6909.085    77.602133 
   46000    485.89464   -110.74221   0.43964769   -110.30257    1738.7808    4.2497048    4.2497048    4.2497048    1738.7808    23316.622   -14106.369   -3993.9106    875.85401    614.76819    20147.502     76.74963 
   46100    399.75296   -110.66754   0.36170488   -110.30584    319.25168    4.2552084    4.2552084    4.2552084    319.25168    14290.804   -15699.252    2366.2024    5269.4964    3696.1556    17945.172    77.048202 
   46200    797.67348   -111.02109   0.72175173   -110.29934   -11896.267    4.2646269    4.2646269    4.2646269   -11896.267    -19080.21   -13944.966   -2663.6254    1400.9113   -7879.2982   -6481.3657    77.560949 
   46300    635.54032   -110.87416   0.57505024   -110.29911    9623.2014    4.2449273    4.2449273    4.2449273    9623.2014     16043.25     11524.26    1302.0933   -1400.7541   -2353.5449     6816.537    76.491077 
   46400    343.40227   -110.61708   0.31071759   -110.30637    -8711.298    4.2617136    4.2617136    4.2617136    -8711.298    10157.067   -29930.253   -6360.7084    2250.1187    2706.8783    27935.949    77.402109 
   46500    519.89904     -110.775   0.47041557   -110.30459   -1678.3883    4.2598253    4.2598253    4.2598253   -1678.3883   -1500.8068   -19133.386    15599.028    4034.8566   -2038.4383    221.38113    77.299265 
   46600    767.92653   -110.99175   0.69483606   -110.29691    17028.644    4.2429375    4.2429375    4.2429375    17028.644    16237.059    14528.499    20320.375   -555.64246   -4084.4846   -5979.3779     76.38356 
   46700    424.16725   -110.68686   0.38379544   -110.30306   -11887.154    4.2677996    4.2677996    4.2677996   -11887.154   -42.092568   -33004.921   -2614.4495   -1829.2629   -2106.6838    25673.278    77.734184 
   46800    388.72412    -110.6554   0.35172576   -110.30367   -1815.5917    4.2531994    4.2531994    4.2531994   -1815.5917    15800.125   -18801.535   -2445.3654    5679.0261    3487.8466    16733.466    76.939124 
   46900    628.44508   -110.86777   0.56863031   -110.29914    9332.0076    4.2461706    4.2461706    4.2461706    9332.0076    15896.298    1760.2001    10339.525    2316.5505    202.03584   -16852.733    76.558306 
   47000    601.95908   -110.84296   0.54466523   -110.29829   -20968.923    4.2687934    4.2687934    4.2687934   -20968.923   -9687.8017   -28800.033   -24418.933   -6921.3226    218.53121    8311.2373    77.788501 
   47100    399.66478   -110.66291   0.36162509   -110.30128    1001.2436    4.2480657    4.2480657    4.2480657    1001.2436    21383.801   -4925.6036   -13454.466   -366.59253    1998.7985    27648.403    76.660857 
   47200    506.05389   -110.75953   0.45788819   -110.30164    -1289.548     4.253398     4.253398     4.253398    -1289.548    9299.9183    -9524.148   -3644.4142    7131.8302    852.85519   -5548.7285    76.949899 
   47300    605.67658   -110.84746    0.5480289   -110.29943   -5873.2257    4.2622975    4.2622975    4.2622975   -5873.2257   -6481.1752   -10159.467    -979.0348   -1801.9457    1317.4743   -11148.744    77.433926 
   47400    513.05554   -110.76399   0.46422344   -110.29976    7008.6003    4.2500904    4.2500904    4.2500904    7008.6003    18420.676     8353.973   -5748.8479   -8480.8307   -2860.5308    19699.681    76.770523 
   47500    463.08449    -110.7202   0.41900857   -110.30119    243.50766    4.2577296    4.2577296    4.2577296    243.50766    6013.0514   -13522.219    8239.6907    2998.3591    618.94527    11301.836    77.185235 
   47600    554.31111    -110.8014   0.50155234   -110.29985    4229.9702    4.2555949    4.2555949    4.2555949    4229.9702    3435.5763     1065.413    8188.9212    5366.7023    4311.6473   -14246.245    77.069197 
   47700    556.36242   -110.80371   0.50340841    -110.3003   -546.50018    4.2551183    4.2551183    4.2551183   -546.50018    3943.3592    2244.3183    -7827.178   -8949.2174    1228.9327    2134.4907    77.043307 
   47800     540.1121   -110.78959   0.48870477   -110.30089   -2322.0563    4.2550426    4.2550426    4.2550426   -2322.0563    3612.3831     -10319.6   -258.95192   -7170.6417    674.60148    19584.568    77.039198 
   47900    556.74904   -110.80516   0.50375823   -110.30141   -1876.0781    4.2553049    4.2553049    4.2553049   -1876.0781    2666.5679   -2335.5347   -5959.2676    9499.6255   -18.169104   -2636.7616    77.053443 
   48000    500.52506   -110.75444   0.45288559   -110.30156   -7889.2398    4.2585324    4.2585324    4.2585324   -7889.2398   -6573.2402   -3369.6786   -13724.801    714.03903    7412.6979    -16605.21    77.228901 
   48100    594.35786    -110.8374   0.53778748   -110.29962   -3343.5746    4.2537912    4.2537912    4.2537912   -3343.5746   -3828.9785   -6201.6747 -0.070640642   -13199.142      1673.31    11296.765    76.971246 
   48200    654.06694   -110.89099   0.59181351   -110.29918    -3411.835    4.2567632    4.2567632    4.2567632    -3411.835   -2647.3743   -3243.5871   -4344.5434    651.26846    -4889.295    9531.1224    77.132687 
   48300    506.15711    -110.7596   0.45798159   -110.30161    119.81984    4.2560981    4.2560981    4.2560981    119.81984   -2512.2016   -3773.9403    6645.6014    9821.2323    3542.8453   -13669.013    77.096542 
   48400    513.37681    -110.7674   0.46451413   -110.30289    941.78557     4.254348     4.254348     4.254348    941.78557   -9874.4787   -2337.9065    15037.742   -7686.4276    5988.2363   -4337.0385    77.001472 
   48500    721.55245   -110.95301   0.65287582   -110.30013    3404.1693    4.2556795    4.2556795    4.2556795    3404.1693   -2163.6351    5683.3683    6692.7747   -9305.2804    2377.4873    7784.9529    77.073796 
   48600    674.72372    -110.9107    0.6105042   -110.30019    2130.0302    4.2579849    4.2579849    4.2579849    2130.0302   -2175.1547   -8067.2957    16632.541    10246.043    280.99597   -933.98334    77.199123 
   48700    437.06602   -110.69863   0.39546652   -110.30316   -2852.8345     4.256294     4.256294     4.256294   -2852.8345   -7553.7409   -6142.0703    5137.3076    3588.9927    3955.3522   -11804.597    77.107185 
   48800    578.13026   -110.82512   0.52310441   -110.30202    4252.7583    4.2525293    4.2525293    4.2525293    4252.7583    2673.1897    4431.7294    5653.3557   -15516.406    5007.0902   -1905.5187    76.902761 
   48900    847.35521   -111.06534    0.7667048   -110.29864    -5931.497    4.2603901    4.2603901    4.2603901    -5931.497   -12128.582   -11482.211    5816.3022    1172.0649   -3520.1216    5332.2476    77.330014 
   49000    547.46541   -110.79874    0.4953582   -110.30338   -2846.6219    4.2538657    4.2538657    4.2538657   -2846.6219    -7657.178   -4776.0318     3893.344    16814.931   -4874.6066   -8273.1981    76.975288 
   49100    425.27101   -110.69053   0.38479414   -110.30573   -3311.0536    4.2532083    4.2532083    4.2532083   -3311.0536   -8811.4734   -5257.6609    4135.9735   -8055.3132    6618.4809   -11123.291    76.939608 
   49200    714.79193    -110.9475   0.64675876   -110.30074   -7045.0249    4.2629616    4.2629616    4.2629616   -7045.0249   -16636.019   -12711.134     8212.078   -13789.547    4784.0522     1401.002    77.470127 
   49300     784.3778   -111.00828   0.70972152   -110.29855     6277.162    4.2501349    4.2501349    4.2501349     6277.162    -3816.859    -530.2105    23178.556    14061.517   -1320.9523   -89.374797    76.772937 
   49400    458.67671   -110.71912   0.41502033    -110.3041   -2864.3868    4.2567759    4.2567759    4.2567759   -2864.3868   -7733.9686   -12886.626    12027.434    10716.879    3284.7711   -8525.2703    77.133379 
   49500    516.91464   -110.77089   0.46771523   -110.30317   -5751.6671    4.2607409    4.2607409    4.2607409   -5751.6671   -10887.957   -12798.989    6431.9445   -10936.092     11421.46   -6658.6023    77.349121 
   49600    804.36555   -111.02611   0.72780685   -110.29831    9942.5966    4.2486611    4.2486611    4.2486611    9942.5966    8455.0606    2312.1177    19060.612   -62.630498    2279.5524    4672.1912    76.693096 
   49700    656.05222   -110.89463   0.59360983   -110.30102   -3394.8784    4.2603558    4.2603558    4.2603558   -3394.8784    202.55258   -15899.392    5512.2038    15499.508   -2795.8212   -177.19604     77.32815 
   49800    564.42597   -110.81262   0.51070448   -110.30192   -5818.7799     4.257706     4.257706     4.257706   -5818.7799   -5787.8139   -10515.008   -1153.5179   -4480.7493    6847.1486   -10577.204    77.183951 
   49900    688.14976   -110.92222   0.62265237   -110.29957     4670.493      4.25175      4.25175      4.25175     4670.493    7954.7092    2109.3176    3947.4524   -11267.493     2818.204    2951.9051    76.860493 
   50000    781.63098   -111.00589   0.70723614   -110.29865   -4121.7007    4.2600974    4.2600974    4.2600974   -4121.7007    -5040.275   -11760.368    4435.5413    13736.748   -3861.7016    9281.0953    77.314077 
   50100    674.72802   -110.91135   0.61050809   -110.30084    2542.4244    4.2542652    4.2542652    4.2542652    2542.4244   -3328.8384    128.12747    10827.984     11406.13   -1454.7576    -4347.546    76.996978 
   50200    661.12066   -110.89918   0.59819587   -110.30099    2067.1527    4.2556969    4.2556969    4.2556969    2067.1527    1498.5055   -909.30461    5612.2571   -9827.1349    7494.7055   -9995.2855    77.074737 
   50300    723.18485   -110.95407   0.65435285   -110.29972    1732.9288     4.258962     4.258962     4.258962    1732.9288   -1103.6921   -4198.1192    10500.598   -630.60761    6013.4089    7157.3469    77.252278 
   50400    665.56241   -110.90209   0.60221485   -110.29987    6923.3591    4.2549025    4.2549025    4.2549025    6923.3591    6513.6046   -3932.9458    18189.419    18407.685    -2117.826    8901.1915    77.031587 
   50500    674.93742   -110.91075   0.61069756   -110.30005    2223.9551    4.2564834    4.2564834    4.2564834    2223.9551    9167.4728   -8487.8167    5992.2091    3933.6795    6155.4022   -12184.397    77.117481 
   50600    698.94015   -110.93264   0.63241573   -110.30023    769.16892    4.2567431    4.2567431    4.2567431    769.16892    8641.7948    -3759.755   -2574.5331   -9193.5586    11683.219   -7007.9759    77.131597 
   50700    644.70153   -110.88449    0.5833395   -110.30115   -705.50785    4.2564337    4.2564337    4.2564337   -705.50785    11686.084   -14808.079    1005.4707    9598.8708    3617.0834    12799.096    77.114781 
   50800    652.02096   -110.89086   0.58996227   -110.30089   -3740.7004    4.2568567    4.2568567    4.2568567   -3740.7004     11612.39    -19169.27   -3665.2216    14173.396     139.5363     2542.676    77.137773 
   50900    708.56817   -110.94045   0.64112737   -110.29932   -4495.3603    4.2573931    4.2573931    4.2573931   -4495.3603    8739.2784   -7473.3106   -14752.049   -4956.3265    5500.7334   -13134.269    77.166936 
   51000    695.76668    -110.9286   0.62954431   -110.29906   -6650.7006    4.2565813    4.2565813    4.2565813   -6650.7006    3634.9761   -9762.0944   -13824.984    2890.1102    5326.4277    5679.5694    77.122802 
   51100    614.44223   -110.85675   0.55596025   -110.30079   -4701.2214     4.255473     4.255473     4.255473   -4701.2214    1279.5361   -14580.375   -802.82499    16028.625   -3863.8748    14206.955    77.062577 
   51200    634.25512   -110.87472   0.57388736   -110.30083   -2971.8129     4.256898     4.256898     4.256898   -2971.8129    5203.5924   -3169.8656   -10949.166    4351.9347    633.79915   -10408.885    77.140018 
   51300    662.85481   -110.89968   0.59976496   -110.29991    463.12191    4.2559273    4.2559273    4.2559273    463.12191    11221.919    438.75184   -10271.305   -8007.7057    9486.9817    -8681.152    77.087258 
   51400    582.68852   -110.82739   0.52722882   -110.30016     908.2003    4.2566187    4.2566187    4.2566187     908.2003    3149.8829    753.32761   -1178.6097    4281.0613    2949.6426    14903.374    77.124832 
   51500    518.75055   -110.77009    0.4693764   -110.30072    3355.1262    4.2558949    4.2558949    4.2558949    3355.1262    18378.454   -4867.5261   -3445.5493    11195.202   -2082.0852    5596.5246    77.085497 
   51600    541.28245   -110.78999   0.48976373   -110.30023     5594.166    4.2553901    4.2553901    4.2553901     5594.166     21475.97    1288.3427   -5981.8148   -2662.9105    2798.4856   -14475.012    77.058074 
   51700    542.31819   -110.79065   0.49070089   -110.29995    2662.4484    4.2564223    4.2564223    4.2564223    2662.4484    12478.962    7429.7417   -11921.358   -1002.3528    9853.1702    12.465467    77.114162 
   51800    481.46503   -110.73623   0.43563967   -110.30059    829.91067    4.2550647    4.2550647    4.2550647    829.91067    13321.366   -2244.5237   -8587.1104    9793.4645    3941.0401    15313.801    77.040397 
   51900    466.64149   -110.72333   0.42222703    -110.3011   -4534.2035     4.256899     4.256899     4.256899   -4534.2035   -1140.1001     -7135.69   -5326.8203    10340.776   -3906.3409   -7930.2043    77.140073 
   52000    480.40863   -110.73525   0.43468383   -110.30057   -2157.9321    4.2549327    4.2549327    4.2549327   -2157.9321    3923.1016    8079.9736   -18476.872   -2210.0137    8519.6835   -14672.779    77.033226 
   52100    526.32519   -110.77627   0.47623009   -110.30004   -6728.5347     4.255854     4.255854     4.255854   -6728.5347   -8028.7887    9280.1246    -21436.94     1332.318    9122.2341    8995.9551    77.083277 
   52200    444.41053   -110.70255   0.40211199   -110.30044   -9612.4143    4.2582478    4.2582478    4.2582478   -9612.4143   -12949.991   -6997.1967   -8890.0556     14106.34   -2152.8802    3628.1673    77.213423 
   52300    439.22919   -110.69821    0.3974238   -110.30078   -4062.7365    4.2534312    4.2534312    4.2534312   -4062.7365   -1237.3554    2209.4573   -13160.312    546.11412    1888.5714   -17261.337    76.951702 
   52400     501.6216   -110.75437   0.45387776   -110.30049   -4404.0488    4.2565647    4.2565647    4.2565647   -4404.0488   -751.72044    10981.081   -23441.507   -4401.4987    10585.123   -4974.0826    77.121897 
   52500    520.90976   -110.77142    0.4713301   -110.30009   -4160.3099    4.2569086    4.2569086    4.2569086   -4160.3099   -7202.1108    2719.6745   -7998.4934    7138.4218    4493.3877    11523.279    77.140596 
   52600    447.15318   -110.70606   0.40459359   -110.30146   -2594.5004     4.254908     4.254908     4.254908   -2594.5004    10587.709   -9955.4994   -8415.7111    8160.5012    -3061.224   -5857.8836    77.031886 
   52700    484.90179   -110.73928   0.43874933   -110.30053   -896.36448    4.2570803    4.2570803    4.2570803   -896.36448    9259.4615    51.083082   -11999.638    1113.0772    7804.2503    -13999.79    77.149927 
   52800    606.12238   -110.84748   0.54843227   -110.29905    1608.3596    4.2555904    4.2555904    4.2555904    1608.3596   -1753.7209    9851.9463   -3273.1466   -1450.1653    11781.434      3601.01    77.068954 
   52900     535.1507   -110.78498    0.4842156   -110.30077   -137.38573    4.2553076    4.2553076    4.2553076   -137.38573    10036.221   -4229.6667   -6218.7116    9175.6831   -1838.2109    3397.5426    77.053588 
   53000    476.16077   -110.73317   0.43084027   -110.30233    1274.2881    4.2560039    4.2560039    4.2560039    1274.2881    9357.5324   -3838.0907   -1696.5776    5066.8169    -462.0782   -14007.732     77.09142 
   53100    654.29825   -110.89218   0.59202281   -110.30016    3797.8318    4.2569821    4.2569821    4.2569821    3797.8318    1994.8016    13027.392   -3628.6981   -4115.9513    9348.5008   -7116.7339    77.144588 
   53200     646.1815   -110.88434    0.5846786   -110.29966    4502.4276    4.2553025    4.2553025    4.2553025    4502.4276    1064.3346    18888.845   -6445.8971    3502.7993    5445.1746    6993.7071    77.053313 
   53300    448.90589   -110.70873   0.40617948   -110.30255    -598.3168    4.2562504    4.2562504    4.2562504    -598.3168    633.57628   -1329.3763   -1099.1504    8161.1168   -4866.7342   -6571.0948    77.104817 
   53400    603.14207   -110.84721   0.54573562   -110.30147   -1915.4227    4.2574955    4.2574955    4.2574955   -1915.4227    6229.4981   -2342.5749   -9633.1914    4273.4801   -1126.8026   -14270.838    77.172502 
   53500    845.37403   -111.06321   0.76491218    -110.2983    4058.7175    4.2536286    4.2536286    4.2536286    4058.7175    8350.2084    11092.488    -7266.544   -5348.1845     6393.793     3080.101    76.962415 
   53600    595.50097   -110.84271   0.53882179   -110.30389   -5742.7184    4.2564081    4.2564081    4.2564081   -5742.7184   -4416.9942   -8870.2933   -3940.8676    6373.4706    1319.3909    4770.9205    77.113387 
   53700    464.52844   -110.72614   0.42031509   -110.30583   -8279.0983    4.2577472    4.2577472    4.2577472   -8279.0983    6394.5761   -19071.259   -12160.611    13195.721   -784.74248   -14778.585    77.186195 
   53800    903.51033   -111.11705   0.81751514   -110.29954   -387.47669     4.256876     4.256876     4.256876   -387.47669    12327.182   -305.86933   -13183.743   -2543.2738     4109.827   -8689.7963     77.13882 
   53900    893.25413   -111.10765    0.8082351   -110.29942     3049.559     4.254538     4.254538     4.254538     3049.559    4765.5497    6370.2291   -1987.1016    1658.2822    1323.3808    5871.1616    77.011793 
   54000    423.11915      -110.69    0.3828471   -110.30715    -3165.436    4.2560434    4.2560434    4.2560434    -3165.436     7055.329   -9266.1418   -7285.4952    9447.0228   -3218.1425   -4421.9418    77.093567 
   54100    622.69091   -110.87053   0.56342382   -110.30711   -3538.3197     4.257566     4.257566     4.257566   -3538.3197    12260.573   -6189.9187   -16685.614    4040.0562   -2924.6625   -13767.357    77.176338 
   54200     1089.642   -111.28498   0.98593101   -110.29905    9604.0644    4.2515356    4.2515356    4.2515356    9604.0644    15990.984    12401.762    419.44655    -1203.168    920.21395    380.49841    76.848863 
   54300    699.19009   -110.93871   0.63264188   -110.30607    -6056.827    4.2608326    4.2608326    4.2608326    -6056.827    7211.4629   -19730.416   -5651.5279    1364.2255    1441.9148   -839.80438    77.354113 
   54400    411.53048   -110.68064   0.37236143   -110.30828   -3974.8804     4.254369     4.254369     4.254369   -3974.8804    20831.405   -20564.211   -12191.835    7741.6724   -6006.7354   -11665.676    77.002613 
   54500    865.04431   -111.08578   0.78271027   -110.30307    5867.8584     4.251809     4.251809     4.251809    5867.8584    16350.499    3297.4142   -2044.3384   -1355.3849   -6672.1159   -2949.4075    76.863694 
   54600    911.92167   -111.12534   0.82512589   -110.30021    -581.7158     4.261366     4.261366     4.261366    -581.7158    10761.994   -4310.4719   -8196.6697   -4329.7239    2821.8382     3100.284    77.383168 
   54700    502.42359   -110.76003   0.45460343   -110.30543    4624.9571    4.2513655    4.2513655    4.2513655    4624.9571    25669.816   -10927.425   -867.51933    7083.8146    2100.5045   -4179.5398    76.839644 
   54800    496.53792   -110.75546   0.44927794   -110.30618    40.070538    4.2574745    4.2574745    4.2574745    40.070538    7217.5604    2033.7451   -9131.0939    8666.8499   -3750.0395   -8684.1491    77.171361 
   54900    877.18131   -111.09254   0.79369208   -110.29884    4674.9919    4.2568941    4.2568941    4.2568941    4674.9919    13972.066    11279.079    -11226.17   -2218.7645   -2427.4149    2123.0625    77.139806 
   55000    664.31133   -110.90222   0.60108285   -110.30114    932.23724    4.2543367    4.2543367    4.2543367    932.23724    8922.5593   -4021.5696    -2104.278    210.16028   -452.50236    4306.3544    77.000862 
   55100    431.92863   -110.69536    0.3908181   -110.30455   -5499.8915    4.2564991    4.2564991    4.2564991   -5499.8915    4644.8444    -19707.32    -1437.199    11583.004   -1748.0336   -6143.0788    77.118332 
   55200    730.35649   -110.96247    0.6608419   -110.30163    411.59554    4.2542092    4.2542092    4.2542092    411.59554    16850.218   -1493.6863   -14121.745    1164.2317   -1500.3645    -5196.128    76.993938 
   55300    760.82525   -110.98801   0.68841067    -110.2996   -7167.5136    4.2603378    4.2603378    4.2603378   -7167.5136   -4708.6497    592.57441   -17386.465   -1838.3824    5824.5458    2109.8764    77.327169 
   55400     420.7704   -110.68443    0.3807219   -110.30371   -1837.8898     4.251504     4.251504     4.251504   -1837.8898    4606.1049    -11165.66    1045.8856    8270.2795    3995.2475   -2476.1036    76.847153 
   55500     495.5033   -110.75282    0.4483418   -110.30448   -4029.0163    4.2588052    4.2588052    4.2588052   -4029.0163    14042.805     -11526.5   -14603.354    5117.5939   -5450.0881   -8239.4606    77.243745 
   55600    802.24663   -111.02384   0.72588961   -110.29795   -387.64441    4.2582968    4.2582968    4.2582968   -387.64441    7878.6656    11865.631    -20907.23   -456.41235    2580.5987   -655.64701    77.216085 
   55700    517.20455   -110.76937   0.46797755   -110.30139    5771.9188    4.2487076    4.2487076    4.2487076    5771.9188    9458.2959    12287.018   -4429.5577    1870.5283    6623.6739    2251.0758    76.695615 
   55800    228.49323   -110.51443   0.20674548   -110.30769   -10836.023    4.2619527    4.2619527    4.2619527   -10836.023    1707.9846   -20136.992   -14079.061    9187.8615     395.0614    -8669.471    77.415138 
   55900    673.81455   -110.91224   0.60968157   -110.30256    3746.7973    4.2534487    4.2534487    4.2534487    3746.7973    18598.877    1043.0679   -8401.5527    2250.1087    609.52849   -5080.8089    76.952651 
   56000    804.06767    -111.0266   0.72753732   -110.29907    2087.4339    4.2546943    4.2546943    4.2546943    2087.4339    9380.3131    11176.355   -14294.366   -5646.9145    1307.4306    5471.7013    77.020279 
   56100    263.92597   -110.54511   0.23880577   -110.30631   -9561.2243    4.2600383    4.2600383    4.2600383   -9561.2243    4132.7756   -19393.591   -13422.857    6761.7641    2992.2485   -2747.4818    77.310861 
   56200    331.77325   -110.60642   0.30019541   -110.30623   -269.34439    4.2535173    4.2535173    4.2535173   -269.34439     3726.448     -4221.07    -313.4112    7418.5034   -1088.3294   -7124.8182    76.956377 
   56300    810.12297   -111.03282   0.73301628    -110.2998    2309.3211    4.2546655    4.2546655    4.2546655    2309.3211    2545.2241    11761.053    -7378.314   -397.20642   -2530.3733    176.59369    77.018712 
   56400    564.56657   -110.81477    0.5108317   -110.30394    2446.2439    4.2543756    4.2543756    4.2543756    2446.2439    5502.7418    10225.048   -8389.0585    2018.2725     4262.918    3729.5946     77.00297 
   56500    144.44702    -110.4395    0.1306987    -110.3088   -8829.4144     4.260927     4.260927     4.260927   -8829.4144   -15541.048   -626.84964   -10320.346    12686.027    102.17949   -3421.0466    77.359258 
   56600    515.26765   -110.77013     0.466225   -110.30391    5427.2019    4.2504444    4.2504444    4.2504444    5427.2019    3129.0121    9134.6697     4017.924    2614.7292   -6659.6382   -2871.6217     76.78971 
   56700    713.63749   -110.94524    0.6457142   -110.29953    4173.9096    4.2561259    4.2561259    4.2561259    4173.9096    2948.3339    18988.782   -9415.3878   -2777.7103   -4603.9283    3464.8354    77.098048 
   56800    401.97555   -110.66769   0.36371592   -110.30397   -13175.896    4.2612191    4.2612191    4.2612191   -13175.896   -6523.1519   -16394.895   -16609.643    9725.3215    1301.2366   -194.93263    77.375167 
   56900    320.18541   -110.59334   0.28971049   -110.30363    5989.3283     4.246664     4.246664     4.246664    5989.3283    10373.216    224.10086    7370.6682       3589.8    638.00147   -5196.0181    76.584996 
   57000    665.81877   -110.90294   0.60244681    -110.3005   -4779.1048    4.2611644    4.2611644    4.2611644   -4779.1048   -9927.8123    10589.833   -14999.335   -5881.8759   -7096.6869    580.25673    77.372188 
   57100     581.8298   -110.82703   0.52645183   -110.30058   -4829.5408    4.2571472    4.2571472    4.2571472   -4829.5408   -4153.5092    6823.1168    -17158.23     2385.247   -1517.1759    6474.2914    77.153566 
   57200    315.36866   -110.58816   0.28535219    -110.3028   -2036.0898    4.2508774    4.2508774    4.2508774   -2036.0898   -411.12727   -2627.9088   -3069.2333    9932.0229    1523.2808   -2250.4925    76.813177 
   57300    574.48197   -110.82068   0.51980336   -110.30088    -9271.896    4.2603205    4.2603205    4.2603205    -9271.896   -15093.952    978.58612   -13700.322    8946.5797   -8286.9383   -5641.8471    77.326226 
   57400    731.45583   -110.96029   0.66183661   -110.29846     3714.181    4.2541519    4.2541519    4.2541519     3714.181    5155.8624    17439.158   -11452.478   -3721.8409   -5173.8578    5159.7225    76.990825 
   57500    442.12306   -110.70445   0.40004224   -110.30441   -3953.4642    4.2537373    4.2537373    4.2537373   -3953.4642     10558.88   -9702.4785   -12716.794    3547.1641    4104.0071    4317.1408    76.968317 
   57600    443.56553   -110.70696   0.40134742   -110.30561   -4378.9064    4.2571757    4.2571757    4.2571757   -4378.9064    3979.7773   -6690.8113   -10425.685    12448.986    1597.2106   -6146.2131    77.155117 
   57700    848.58957   -111.06681   0.76782167   -110.29899    1699.4508    4.2581883    4.2581883    4.2581883    1699.4508    4299.2996    9711.2305   -8912.1778   -1812.7848   -4195.9099   -1604.9889    77.210182 
   57800    721.42493   -110.95434   0.65276044   -110.30158    5197.6214    4.2518491    4.2518491    4.2518491    5197.6214    14846.738    8790.0909   -8043.9652   -207.87274   -2089.0117    3427.5861    76.865868 
   57900    331.47704   -110.60783   0.29992739    -110.3079   -2623.4503    4.2566862    4.2566862    4.2566862   -2623.4503    4119.0393    2785.8999    -14775.29    10148.164    3241.7074   -3891.6901    77.128501 
   58000    709.84055   -110.94713   0.64227865   -110.30485    -2712.491    4.2583034    4.2583034    4.2583034    -2712.491    3190.6823   -2282.0195   -9046.1357    5960.6077   -172.25519   -5983.4185    77.216445 
   58100    1045.2305   -111.24423   0.94574649   -110.29848     12302.11    4.2501303    4.2501303    4.2501303     12302.11    13054.586    22853.117    998.62623   -2605.7663    -1401.479    1954.9779    76.772686 
   58200    537.18114   -110.79423   0.48605279   -110.30818   -6188.2052    4.2596303    4.2596303    4.2596303   -6188.2052    5718.4953    -7979.344   -16303.767    3571.9175    3148.8023   -977.31163    77.288651 
   58300    392.63463   -110.66446   0.35526407    -110.3092     -2093.89    4.2561742    4.2561742    4.2561742     -2093.89    26039.482   -18224.105   -14097.047    11995.061     1907.449   -7229.2902    77.100677 
   58400    948.88008   -111.15964   0.85856664   -110.30108    10544.319    4.2519629    4.2519629    4.2519629    10544.319    24417.921      8789.12   -1574.0835   -510.90606   -1861.9415     616.5951     76.87204 
   58500    866.24834   -111.08572    0.7837997   -110.30193    4222.3897    4.2568093    4.2568093    4.2568093    4222.3897    25897.535   -5766.3207    -7464.045   -9599.3635    536.26144    739.94752    77.135194 
   58600    372.34218   -110.64534   0.33690303   -110.30844   -5223.6053    4.2577022    4.2577022    4.2577022   -5223.6053    24930.081   -24472.461   -16128.437    3988.6905    4544.1759   -4778.0814    77.183747 
   58700    613.37077   -110.85998   0.55499077   -110.30499   -1198.8785    4.2532532    4.2532532    4.2532532   -1198.8785    10505.866   -3473.5005   -10629.001     11446.77    4003.9453   -1933.9773    76.942041 
   58800    905.29535   -111.11846   0.81913026   -110.29933    2920.4279    4.2558663    4.2558663    4.2558663    2920.4279    8942.6152    6980.6909   -7162.0222   -3003.1595   -4768.6487    200.48946    77.083943 
   58900    595.17882   -110.84166   0.53853031   -110.30313   -9168.8375    4.2589746    4.2589746    4.2589746   -9168.8375    5375.1767   -22499.626   -10382.063   -3568.8503   -5220.1875    455.13477    77.252965 
   59000    430.38602   -110.69393   0.38942232   -110.30451    318.07436    4.2505383    4.2505383    4.2505383    318.07436    16975.924   -10526.497   -5495.2037    12706.163    3401.6704   -1374.4976    76.794799 
   59100    722.60629   -110.95521   0.65382936   -110.30138   -2841.7048    4.2593463    4.2593463    4.2593463   -2841.7048    11533.201   -2162.5012   -17895.814    4238.9279   -1335.4743    104.91725    77.273191 
   59200    653.08683   -110.89143   0.59092669   -110.30051    3777.8018    4.2557686    4.2557686    4.2557686    3777.8018    16286.888    1476.8181   -6430.3008   -8316.8759   -4543.3291   -940.37362    77.078635 
   59300    384.35035   -110.65083   0.34776828   -110.30306    2531.1082    4.2539593    4.2539593    4.2539593    2531.1082    21868.828   -9363.1862   -4912.3172    2836.4006    1603.0847   -4715.2817    76.980371 
   59400    603.96185   -110.84671   0.54647737   -110.30024   -5769.9244     4.259393     4.259393     4.259393   -5769.9244    12252.061   -13906.586   -15655.248    9851.7998   -1324.7129    359.72714    77.275731 
   59500    761.69376   -110.98635   0.68919652   -110.29716    5447.6607    4.2527102    4.2527102    4.2527102    5447.6607    7354.0092    16240.129   -7251.1562   -4223.6876   -6490.7076      1560.78     76.91258 
   59600    450.77586   -110.71086   0.40787147   -110.30299   -6478.1293    4.2579928    4.2579928    4.2579928   -6478.1293    1663.0731   -5172.1074   -15925.354   -4993.1631   -4507.1516   -2832.0521    77.199549 
   59700    372.39998   -110.64268   0.33695533   -110.30572    1140.4255    4.2541533    4.2541533    4.2541533    1140.4255    22838.593   -14427.452   -4989.8646    10273.227    2111.0435   -3132.6742    76.990901 
   59800    743.76664    -110.9736   0.67297569   -110.30062    2691.5805    4.2560312    4.2560312    4.2560312    2691.5805    9642.5985    4707.9448   -6275.8018    6882.1839    1176.9226   -568.78589    77.092903 
   59900     612.7214   -110.85536    0.5544032   -110.30096   -35.661484    4.2573029    4.2573029    4.2573029   -35.661484    15708.427    1114.2878     -16929.7   -8327.5635   -6566.3928   -2200.0602    77.162031 
   60000    208.53159   -110.49516   0.18868376   -110.30647   -4308.1778    4.2544318    4.2544318    4.2544318   -4308.1778    9969.2559   -12271.541   -10622.248   -3216.8123   -3701.2801   -3815.6339    77.006022 
   60100    515.40797   -110.77032   0.46635196   -110.30397   -4354.4435    4.2549834    4.2549834    4.2549834   -4354.4435   -5690.7167   -5568.3427   -1804.2711    10915.724    5256.6707    2098.8016    77.035977 
   60200    806.20723    -111.0279   0.72947324   -110.29843   -6377.5816      4.25829      4.25829      4.25829   -6377.5816   -7198.8195    1483.5434   -13417.469    1646.8557    262.81598    492.20834    77.215716 
   60300    416.25419   -110.68158   0.37663554   -110.30495   -6767.2832    4.2532523    4.2532523    4.2532523   -6767.2832   -4461.5953   -4642.0315   -11198.223   -11029.525   -4414.4847   -8905.1849    76.941995 
   60400    280.26077   -110.56082   0.25358583   -110.30723   -1191.4059    4.2531831    4.2531831    4.2531831   -1191.4059    4535.3169   -4100.4082   -4009.1263     5681.071   -1569.7783   -3310.1928    76.938239 
   60500    631.76666     -110.873   0.57163575   -110.30136   -8124.6865    4.2636145    4.2636145    4.2636145   -8124.6865   -4871.8658   -2570.9009   -16931.293     9255.184    5488.2185    3196.5645    77.505724 
   60600    625.08958    -110.8655   0.56559419   -110.29991    9446.9949    4.2461869    4.2461869    4.2461869    9446.9949    11919.629    18692.353   -2270.9969   -4528.9506    5126.7238    -2806.413    76.559186 
   60700    334.29835   -110.60864   0.30248017   -110.30616   -5716.9046    4.2584307    4.2584307    4.2584307   -5716.9046    6682.1943    -12205.77   -11627.138   -6369.4936   -4149.0955   -5464.7158    77.223368 
   60800    487.55709   -110.74356    0.4411519    -110.3024   -11007.421    4.2607893    4.2607893    4.2607893   -11007.421   -9031.2724   -7982.7495    -16008.24    4111.7454    7420.1921    1763.0038    77.351756 
   60900     686.9044   -110.91859   0.62152554   -110.29706    9605.5447    4.2445866    4.2445866    4.2445866    9605.5447   -1596.1984    30969.008   -556.17587    2244.4175    13841.132   -1162.3244    76.472662 
   61000    538.82438    -110.7885   0.48753962   -110.30096   -13013.722    4.2629985    4.2629985    4.2629985   -13013.722   -4314.6399   -15006.801   -19719.726   -3416.8253    187.30232   -8645.5329    77.472138 
   61100    453.13328   -110.71252   0.41000452   -110.30252    2234.2308     4.254114     4.254114     4.254114    2234.2308    17852.708   -2724.2286   -8425.7865   -737.86096   -1423.7246   -1365.7745    76.988766 
   61200    696.19566   -110.92892   0.62993246   -110.29898    5754.9241    4.2513458    4.2513458    4.2513458    5754.9241    1824.8665    20310.022   -4870.1165    2249.5751    9452.7201    4226.3529    76.838575 
   61300    658.01439   -110.89579   0.59538525   -110.30041    3648.3513    4.2574206    4.2574206    4.2574206    3648.3513    16199.273    7396.5236   -12650.743   -1869.9683    7182.9626   -6162.9022    77.168432 
   61400    467.39117   -110.72707   0.42290535   -110.30417    3016.7665    4.2560794    4.2560794    4.2560794    3016.7665    20331.616    1999.9456   -13281.262   -7775.8685   -4443.8104   -7095.8576    77.095523 
   61500    637.79954    -110.8797   0.57709443   -110.30261    1622.1674    4.2533746    4.2533746    4.2533746    1622.1674    9735.7222    229.19734   -5098.4173    52.882916    435.66076    5273.6018    76.948631 
   61600    899.68022   -111.11335   0.81404957    -110.2993    6190.5197    4.2522738    4.2522738    4.2522738    6190.5197    7856.2127    12299.466   -1584.1196    3945.0997    9116.1097    1990.6286    76.888904 
   61700    584.80462   -110.83331   0.52914351   -110.30416   -11351.171    4.2625946    4.2625946    4.2625946   -11351.171    -5002.128   -3302.7935   -25748.591    -9108.041    3130.2351     -12059.8    77.450118 
   61800    452.51925   -110.71524   0.40944892   -110.30579    294.21216    4.2486846    4.2486846    4.2486846    294.21216    18331.785   -8294.4726   -9154.6757   -5407.3093   -3332.5824   -2399.0662    76.694367 
   61900    845.01181   -111.06763   0.76458445   -110.30304    629.00631    4.2566296    4.2566296    4.2566296    629.00631    15088.626    -4709.564   -8492.0432    2555.2808    1514.4489    8713.8332    77.125427 
   62000    843.31805   -111.06352    0.7630519   -110.30047   -2621.0501    4.2602643    4.2602643    4.2602643   -2621.0501    8832.4381    181.17286   -16876.761    2837.7088    4973.2073   -8977.3248    77.323167 
   62100    381.61963   -110.65043   0.34529746   -110.30513    4822.9458    4.2478597    4.2478597    4.2478597    4822.9458    36250.539   -9611.1859   -12170.516   -3294.2334   -1714.2729   -11520.607    76.649708 
   62200    496.45561   -110.75586   0.44920347   -110.30665   -9889.5065    4.2610099    4.2610099    4.2610099   -9889.5065    19136.826   -25695.796    -23109.55   -5201.8146   -3922.1203    9917.1295     77.36377 
   62300    935.41206   -111.14488   0.84638049    -110.2985    4692.4124    4.2531846    4.2531846    4.2531846    4692.4124    17324.534     1659.514   -4906.8113    1110.4025   -1553.2298    3027.5014     76.93832 
   62400    607.28216    -110.8524   0.54948166   -110.30292   -4611.5381    4.2560778    4.2560778    4.2560778   -4611.5381     19675.56   -18474.639   -15035.535    -2489.258    1758.4041   -16673.769    77.095434 
   62500    330.94332   -110.60541   0.29944447   -110.30596   -9910.2008    4.2550847    4.2550847    4.2550847   -9910.2008    12556.846   -24222.779    -18064.67   -6431.8103   -1072.0961    1157.4035    77.041484 
   62600    632.75407   -110.87571   0.57252918   -110.30318   -3196.2216     4.256087     4.256087     4.256087   -3196.2216    736.94742    3080.4729   -13406.085   -2834.4432   -6508.2611    13139.958    77.095939 
   62700    753.04913   -110.98055   0.68137468   -110.29918   -5852.9707    4.2580729    4.2580729    4.2580729   -5852.9707    4578.6945   -9007.9711   -13129.635    2653.1769   -869.21268   -10449.239    77.203907 
   62800    410.10491   -110.67368   0.37107154   -110.30261    7805.2639    4.2468839    4.2468839    4.2468839    7805.2639    25833.106   -452.97353    -1964.341   -2296.7711    36.929538   -10969.127    76.596894 
   62900    343.60975   -110.61552   0.31090532   -110.30461   -10365.845    4.2648569    4.2648569    4.2648569   -10365.845    7015.6328   -13584.747    -24528.42   -7927.7901   -3721.1948    12310.042    77.573501 
   63000    641.04226   -110.87956   0.58002851   -110.29953    7813.9206    4.2508775    4.2508775    4.2508775    7813.9206    23627.875     4358.978   -4545.0915    4281.4586   -1916.6691    4992.3031    76.813186 
   63100    499.38725   -110.75274   0.45185608   -110.30089    11940.357    4.2501003    4.2501003    4.2501003    11940.357    30984.837    8071.3937   -3235.1582    1891.6796    2301.9324   -13695.223    76.771059 
   63200    344.60971   -110.61371   0.31181011    -110.3019   -11185.081    4.2653807    4.2653807    4.2653807   -11185.081    10534.376   -20089.689   -23999.929   -7304.5999    2578.1058    3319.3899    77.602086 
   63300     544.8601   -110.79073   0.49300087   -110.29773    8945.7715    4.2465989    4.2465989    4.2465989    8945.7715    17847.452    7121.7548    1868.1078   -5387.0949   -2699.2866    13662.556    76.581477 
   63400    639.17263    -110.8769   0.57833683   -110.29856     -5018.24    4.2580659    4.2580659    4.2580659     -5018.24   -4923.4941    4595.6345    -14726.86    2662.2457    1285.1472   -7489.5618    77.203523 
   63500    419.58373   -110.68113   0.37964817   -110.30148   -4440.7019    4.2572285    4.2572285    4.2572285   -4440.7019    7357.5026    -5757.025   -14922.583    376.61122    2356.3192   -6152.3218    77.157985 
   63600    439.79193   -110.69943   0.39793298    -110.3015   -323.93426    4.2520421    4.2520421    4.2520421   -323.93426    15312.224   -8547.2984   -7736.7289   -9686.5987   -1477.7722    16106.597    76.876335 
   63700    693.59428   -110.92581   0.62757868   -110.29824   -5101.7538     4.257733     4.257733     4.257733   -5101.7538    2932.8425   -3937.4172   -14300.687     2037.704   -2624.9643    4340.6956    77.185421 
   63800    533.74382   -110.78368   0.48294262   -110.30074    3454.1204    4.2535754    4.2535754    4.2535754    3454.1204    22891.737   -908.61124   -11620.765    9379.1998    135.69527   -12887.935     76.95953 
   63900    318.15403    -110.5926   0.28787245   -110.30473   -11481.912    4.2590656    4.2590656    4.2590656   -11481.912     10781.95   -23843.245   -21384.439   -6235.0192    2224.5324    9638.4287    77.257918 
   64000    584.90807    -110.8309   0.52923712   -110.30166    2586.2449    4.2493385    4.2493385    4.2493385    2586.2449    13980.872   -3053.0812   -3169.0563   -12054.412     -432.892    16346.618    76.729783 
   64100     805.4154   -111.02854   0.72875678   -110.29978    -5684.174    4.2591164    4.2591164    4.2591164    -5684.174    2401.5974     -6447.15   -13006.969    5415.6561    1325.7527   -9478.9122    77.260681 
   64200    473.34211   -110.73352   0.42828989   -110.30523   -9162.7551    4.2570862    4.2570862    4.2570862   -9162.7551    891.70292   -10860.207   -17519.762    5100.0815    3384.6841   -3169.2748    77.150249 
   64300    431.10965   -110.69439   0.39007707   -110.30431    4512.0871    4.2474324    4.2474324    4.2474324    4512.0871    11456.369    9270.7741   -7190.8819   -13000.821    438.38573    18558.312    76.626579 
   64400    845.24033   -111.06397   0.76479121   -110.29918   -9741.4108     4.263903     4.263903     4.263903   -9741.4108   -4623.0309    -9235.803   -15365.398   -3212.8872   -2544.8101    3439.8696    77.521459 
   64500    803.71997     -111.027   0.72722272   -110.29978    8940.0021    4.2496984    4.2496984    4.2496984    8940.0021     9841.074    15063.825     1915.107    8560.9466    203.23023   -11650.101    76.749285 
   64600    489.42193   -110.74833   0.44283925   -110.30549   -241.07019    4.2535883    4.2535883    4.2535883   -241.07019    18206.568   -2246.8664   -16682.912   -2379.7419    6127.3577    10945.486    76.960228 
   64700    617.43987   -110.86245   0.55867257   -110.30378   -2778.0854    4.2591176    4.2591176    4.2591176   -2778.0854    12613.662   -6502.0089    -14445.91   -8209.9553    1472.1151    16016.479    77.260746 
   64800    940.46272   -111.14869   0.85095044   -110.29774    10125.713    4.2503986    4.2503986    4.2503986    10125.713    10335.477     16816.39    3225.2738   -637.96105   -4770.4084   -8530.3946    76.787224 
   64900    729.55885   -110.96225   0.66012018   -110.30213   -2563.8732    4.2573397    4.2573397    4.2573397   -2563.8732     22096.66   -11733.007   -18055.273    5658.5307    561.85657   -3889.9035     77.16403 
   65000    531.84793   -110.78584   0.48122719   -110.30461    1656.4923     4.252901     4.252901     4.252901    1656.4923    20871.266   -4057.6614   -11844.128   -2305.1961    4549.5697    20307.739    76.922929 
   65100    786.42815   -111.01367   0.71157672   -110.30209   -2319.1498    4.2565789    4.2565789    4.2565789   -2319.1498    -2320.869    8113.9963   -12750.577   -5186.1008   -4726.1519    6591.2056    77.122671 
   65200    906.33466   -111.11978   0.82007065   -110.29971    3233.7085    4.2525338    4.2525338    4.2525338    3233.7085    13669.709    5750.8408   -9719.4242    2725.6632   -7892.0556   -11890.542    76.903006 
   65300     659.6963   -110.90054   0.59690707   -110.30363   -1345.9025    4.2548036    4.2548036    4.2548036   -1345.9025    11454.728    887.09966   -16379.535   -265.20791    1786.5633    10341.355    77.026212 
   65400    614.32573   -110.85964   0.55585483   -110.30379   -6550.6168    4.2585168    4.2585168    4.2585168   -6550.6168   -1422.9453    4278.7675   -22507.673   -5838.2241   -1112.2623    17167.674    77.228057 
   65500    866.54424   -111.08342   0.78406744   -110.29935    10683.196    4.2477834    4.2477834    4.2477834    10683.196    14216.176    21160.484   -3327.0722    628.10209   -8223.8881   -5490.5265    76.645576 
   65600    759.55406   -110.98813   0.68726047   -110.30087   -2894.4873    4.2593857    4.2593857    4.2593857   -2894.4873    1417.7185    8710.7444   -18811.925    2953.8638    -1775.853    2494.4754    77.275335 
   65700    560.15709   -110.81025   0.50684191   -110.30341   -22.815849    4.2543437    4.2543437    4.2543437   -22.815849    16713.671    4230.8016    -21012.92   -2693.5555    4414.2151    22816.734    77.001239 
   65800     668.9614   -110.90733   0.60529033   -110.30204    6751.4779    4.2503581    4.2503581    4.2503581    6751.4779    17374.795    12969.249    -10089.61   -3447.0244   -5724.2368    5666.3307    76.785034 
   65900    742.59809   -110.97107   0.67191836   -110.29915   -2057.9151    4.2598256    4.2598256    4.2598256   -2057.9151   -12243.753    22022.215   -15952.208    3750.4836   -11404.814   -6396.3119    77.299281 
   66000    526.86412   -110.77838   0.47671773   -110.30167    1047.3087    4.2515809    4.2515809    4.2515809    1047.3087    17922.636     4005.712   -18786.422    2954.4691    351.07222    17293.409    76.851322 
   66100    466.82613   -110.72589    0.4223941    -110.3035   -5044.0072    4.2543475    4.2543475    4.2543475   -5044.0072    15583.634   -6969.8839   -23745.772   -3399.9981    875.15285    19573.115    77.001446 
   66200     665.2737   -110.90176   0.60195362    -110.2998   -2740.9102    4.2563952    4.2563952    4.2563952   -2740.9102   -11676.852     17791.44   -14337.319   -2934.6335   -12516.077   -6008.7589    77.112689 
   66300    531.78079   -110.78213   0.48116643   -110.30097   -1660.7118    4.2532814    4.2532814    4.2532814   -1660.7118    6074.6582    5210.8065     -16267.6   -115.91906    -7552.782    4773.6198    76.943573 
   66400    333.36171   -110.60568   0.30163268   -110.30404   -6081.2093    4.2541966    4.2541966    4.2541966   -6081.2093    21410.522   -12045.169   -27608.981    2897.8481    3789.0741    26194.727    76.993254 
   66500    539.57509   -110.78971   0.48821888   -110.30149   -4901.6153    4.2565099    4.2565099    4.2565099   -4901.6153   -2322.1843    9057.7682    -21440.43   -2929.1133   -3893.5651    3159.8053     77.11892 
   66600    637.12914   -110.87559   0.57648783    -110.2991     339.8321    4.2542415    4.2542415    4.2542415     339.8321    1734.4402    12660.787   -13375.731   -658.99399   -10556.268   -2570.9785    76.995693 
   66700     359.4469   -110.62888   0.32523511   -110.30365    1410.5925    4.2513426    4.2513426    4.2513426    1410.5925    19377.809    5286.0578   -20432.089      5084.99   -2239.0267    23371.923    76.838398 
   66800    369.58622   -110.63899   0.33440938   -110.30458   -8984.7662    4.2590483    4.2590483    4.2590483   -8984.7662    4761.6061   -3739.1783   -27976.726   -299.61688    1427.8883    13227.042    77.256976 
   66900    719.82435   -110.95068    0.6513122   -110.29937    1837.3313    4.2519591    4.2519591    4.2519591    1837.3313     6821.778    8313.1074   -9622.8914    648.08432   -8104.3154    -12865.02    76.871833 
   67000     626.6271   -110.86862   0.56698537   -110.30164    697.98768    4.2538874    4.2538874    4.2538874    697.98768    5979.0753    7837.6308   -11722.743    1741.7918   -4351.2979    10316.802    76.976466 
   67100    351.97621   -110.62371   0.31847547   -110.30524   -9893.7345    4.2585042    4.2585042    4.2585042   -9893.7345     8283.982   -16460.013   -21505.173    1348.8033    5588.3675     24859.83     77.22737 
   67200    620.54442   -110.86395   0.56148163   -110.30246    3585.8904    4.2491291    4.2491291    4.2491291    3585.8904    19243.747   -2001.3425   -6484.7329   -522.35042    724.89765    -7009.292    76.718441 
   67300    909.68344   -111.12199   0.82310069   -110.29888   -2222.8896    4.2581426    4.2581426    4.2581426   -2222.8896   -2796.1528    460.41806    -4332.934   -4175.4297   -3966.7179   -8987.2519      77.2077 
   67400    583.43211   -110.83275   0.52790164   -110.30485    1751.6386    4.2540293    4.2540293    4.2540293    1751.6386     13078.63   -8104.9261    281.21229    2861.6377     -2849.35    21575.722    76.984168 
   67500    469.56839   -110.73141   0.42487535   -110.30654    2665.3134    4.2520385    4.2520385    4.2520385    2665.3134     24571.13   -6026.7066   -10548.483    3882.9456    4263.2556    12186.208    76.876139 
   67600    877.40536   -111.09495   0.79389481   -110.30106     1327.581    4.2581014    4.2581014    4.2581014     1327.581    5512.8756   -1169.1721   -360.96068   -345.87975    1669.3435   -13812.647    77.205458 
   67700    887.79516   -111.10321   0.80329572   -110.29992    9703.5958    4.2508196    4.2508196    4.2508196    9703.5958    13905.121    4550.6998    10654.966    1494.3968   -4741.5736    6921.3982    76.810047 
   67800    456.66684   -110.71981   0.41320175   -110.30661   -4382.8005    4.2567511    4.2567511    4.2567511   -4382.8005    12578.069   -11021.163   -14705.308     3737.032    -2001.329    25382.077     77.13203 
   67900    597.96158   -110.84645   0.54104821    -110.3054   -1294.0219    4.2542939    4.2542939    4.2542939   -1294.0219    8670.8207   -4001.6315    -8551.255    3421.8886    1920.0035   -2617.5852    76.998537 
   68000    917.21668    -111.1295   0.82991693   -110.29959    3486.6252    4.2526609    4.2526609    4.2526609    3486.6252    6151.6668    5167.5793   -859.37057    -1422.466    6528.1229    -11227.87    76.909903 
   68100    561.92355   -110.81218   0.50844024   -110.30374   -7303.4316    4.2574771    4.2574771    4.2574771   -7303.4316    3810.6551    -11606.48    -14114.47   -3831.3472    1430.8532    22855.336    77.171502 
   68200      338.194   -110.61237   0.30600504   -110.30637   -6670.0458     4.252842     4.252842     4.252842   -6670.0458    7472.2281   -15217.378   -12264.988    1620.7726   -564.39365    18715.163    76.919726 
   68300    656.64615    -110.8963   0.59414724   -110.30215   -3023.5824    4.2552915    4.2552915    4.2552915   -3023.5824     -2747.37    372.64527   -6696.0225    1758.0362    3952.6167   -13825.443    77.052715 
   68400    675.65115   -110.91128   0.61134336   -110.29994   -1573.0508    4.2545741    4.2545741    4.2545741   -1573.0508    2185.7012     270.7883    -7175.642   -638.01527   -794.37546     3462.399    77.013748 
   68500     250.1138   -110.53199   0.22630823   -110.30568   -5757.6872    4.2542692    4.2542692    4.2542692   -5757.6872     5159.315   -19436.222   -2996.1546    2169.0733   -623.70895    25347.209    76.997193 
   68600    380.44392   -110.64922   0.34423365   -110.30498   -5172.4733    4.2554946    4.2554946    4.2554946   -5172.4733   -5826.2168   -4283.6966   -5407.5065    6474.8994    844.79314    4742.2612    77.063747 
   68700     702.5127   -110.93475   0.63564825    -110.2991    4041.2833    4.2535825    4.2535825    4.2535825    4041.2833    -540.0239    13764.517   -1100.6434   -562.22517    1657.1579    -6586.612    76.959918 
   68800    418.06376   -110.68173   0.37827287   -110.30345   -1660.1294    4.2552972    4.2552972    4.2552972   -1660.1294    1162.9032   -5813.5588   -329.73256   -3817.1809    946.65434     15834.72    77.053025 
   68900    252.57147   -110.53444   0.22853197    -110.3059    -3736.629     4.254116     4.254116     4.254116    -3736.629   -2576.7184   -4095.8895   -4537.2791    5192.9607   -549.58244    16957.582    76.988878 
   69000    617.28595   -110.86015    0.5585333   -110.30162    2281.0505    4.2548751    4.2548751    4.2548751    2281.0505   -638.00625    5529.6143    1951.5435    4117.6332    3133.9725     -5471.62    77.030097 
   69100    706.36131   -110.93933   0.63913056    -110.3002    5481.4763     4.254067     4.254067     4.254067    5481.4763    7372.0661     13236.69   -4164.3273   -1514.8455     685.5726    2678.6929    76.986215 
   69200    356.88943   -110.62895   0.32292105   -110.30602   -1988.2118    4.2544337    4.2544337    4.2544337   -1988.2118    6465.2104   -446.09969   -11983.746   -901.47434   -1813.0096    21957.937    77.006127 
   69300    492.77242   -110.75118   0.44587084    -110.3053   -2248.9317    4.2553213    4.2553213    4.2553213   -2248.9317     6685.224   -14301.759    869.74036    5723.4213   -1298.0207    7917.5952    77.054332 
   69400    924.52905   -111.13567   0.83653331   -110.29914    5822.2238    4.2530814    4.2530814    4.2530814    5822.2238    8471.9809    9690.8451   -696.15473    4731.0172   -1101.8981   -6984.6646    76.932719 
   69500    679.76416   -110.91954    0.6150649   -110.30447   -3177.9615    4.2561483    4.2561483    4.2561483   -3177.9615    10456.216   -2751.1026   -17238.998   -1585.0425    2060.1346    11411.967    77.099269 
   69600    391.94035    -110.6628   0.35463586   -110.30817    -3275.336    4.2531104    4.2531104    4.2531104    -3275.336    19415.286   -22198.863   -7042.4314    1667.3983   -184.82211    18151.129    76.934294 
   69700    854.90866   -111.07731   0.77353932   -110.30377   -1731.7145    4.2552344    4.2552344    4.2552344   -1731.7145     5795.447   -10663.196   -327.39489    2434.4304    434.27967   -532.70427    77.049616 
   69800    988.03082   -111.19399   0.89399105   -110.29999    454.56931    4.2557178    4.2557178    4.2557178    454.56931    10988.303   -2671.0223   -6953.5725   -1611.9166    3307.6245    1810.8648    77.075874 
   69900    490.56388   -110.75106   0.44387251   -110.30719   -938.41004    4.2516039    4.2516039    4.2516039   -938.41004    29731.299   -16394.445   -16152.085   -265.56555    1395.5779    17214.902    76.852571 
   70000    489.50095   -110.75124   0.44291074   -110.30833   -8732.1003    4.2576649    4.2576649    4.2576649   -8732.1003    4089.3124    -18055.16   -12230.453    7762.8807   -936.78624     5937.508    77.181714 
   70100    910.60693   -111.12509   0.82393629   -110.30115    2749.8852    4.2530317    4.2530317    4.2530317    2749.8852    5655.8821    1633.4568    960.31682    4408.2109   -4052.0106   -4709.8017    76.930025 
   70200    711.66315   -110.94653   0.64392777   -110.30261    82.824602    4.2535068    4.2535068    4.2535068    82.824602     22661.51    -4325.151   -18087.886   -3731.3202   -1696.4228    10924.834    76.955809 
   70300     332.5871   -110.60768    0.3009318   -110.30675   -7211.1556    4.2573582    4.2573582    4.2573582   -7211.1556    12405.096   -12131.894   -21906.669    2912.7037   -1185.8111    14019.148    77.165038 
   70400    582.01683   -110.83008   0.52662106   -110.30346    2559.6698    4.2517819    4.2517819    4.2517819    2559.6698    6789.0421    3534.5473   -2644.5801    4179.8017   -1951.6671   -1926.7145    76.862223 
   70500    738.46769   -110.96751   0.66818108   -110.29933   -722.92653    4.2554658    4.2554658    4.2554658   -722.92653     8290.353    6356.8939   -16816.027    200.74831    1125.9158    1038.0558    77.062186 
   70600    382.48435   -110.64993   0.34607988   -110.30385   -1904.7353    4.2553493    4.2553493    4.2553493   -1904.7353    17962.983   -1087.3378   -22589.851   -1566.2228    956.32575     12430.26    77.055855 
   70700    369.32136   -110.63886   0.33416973   -110.30469    766.61289    4.2529557    4.2529557    4.2529557    766.61289    20884.661   -5336.7988   -13248.023    645.45344   -1871.5789    2381.1056      76.9259 
   70800    690.24807   -110.92397   0.62455096   -110.29942    484.20407    4.2546345    4.2546345    4.2546345    484.20407    4358.0153    8600.7369    -11506.14    4116.7052    410.35038   -4409.3569     77.01703 
   70900    480.97475   -110.73745   0.43519606   -110.30225   -3109.9614    4.2554894    4.2554894    4.2554894   -3109.9614    6222.5339    4008.6076   -19561.026   -785.61305    3319.7073     7781.377    77.063468 
   71000    225.14045   -110.50989   0.20371181   -110.30618   -5544.6584    4.2537462    4.2537462    4.2537462   -5544.6584    22231.912    -13333.91   -25531.978    881.97449     747.6997    8393.1657    76.968801 
   71100    541.12333   -110.79255   0.48961976   -110.30293   -114.95429    4.2540089    4.2540089    4.2540089   -114.95429    9119.5283    1457.2088     -10921.6    5060.2253   -703.32134   -3710.4557     76.98306 
   71200    712.99968   -110.94438   0.64513709   -110.29924   -1081.2416    4.2561997    4.2561997    4.2561997   -1081.2416   -2978.7282    10026.012   -10291.009   -1792.6178    888.94516   -293.82126    77.102064 
   71300    290.45653   -110.56925   0.26281117   -110.30643   -3938.4917    4.2522151    4.2522151    4.2522151   -3938.4917    12154.845    656.95003   -24627.271   -2919.7304    845.68962    10893.754    76.885718 
   71400    205.52031   -110.49467   0.18595909   -110.30871   -4919.9012    4.2560724    4.2560724    4.2560724   -4919.9012    5181.8497    1884.9758   -21826.529    2011.1517   -102.26297    1915.6161    77.095145 
   71500    758.88999   -110.98775   0.68665961   -110.30109    1008.9166    4.2550912    4.2550912    4.2550912    1008.9166    53.629399    11409.012   -8435.8912    1852.6275    659.54062   -5031.1214    77.041836 
   71600    676.70537   -110.91469   0.61229724   -110.30239    4861.1064    4.2513559    4.2513559    4.2513559    4861.1064    4760.7973    17542.257   -7719.7348   -337.13215    1299.4705    7373.4484    76.839122 
   71700    147.80341   -110.44382   0.13373563   -110.31008   -8964.1462    4.2583813    4.2583813    4.2583813   -8964.1462     1246.712   -1518.7517   -26620.399   -1627.1517    -1641.227     7950.904    77.220683 
   71800    448.23377   -110.71292   0.40557134   -110.30735   -1421.4579    4.2525976    4.2525976    4.2525976   -1421.4579    10391.463    3703.6174   -18359.454    2567.9753   -2331.1086   -6068.8665    76.906468 
   71900    883.63016   -111.09948   0.79952714   -110.29995    6092.6706    4.2531411    4.2531411    4.2531411    6092.6706    5122.1568    13657.224   -501.36928     644.0381   -650.87511   -3046.5907     76.93596 
   72000    554.90921   -110.80854   0.50209351   -110.30645   -5190.4034    4.2578299    4.2578299    4.2578299   -5190.4034    3396.9157   -4043.8254     -14924.3   -4275.5154    1574.9538    9219.4441    77.190687 
   72100    294.52236    -110.5747   0.26649002   -110.30821   -2403.8014    4.2519007    4.2519007    4.2519007   -2403.8014     22230.53   -8794.9078   -20647.026   -899.58776    1739.7373    1464.5444    76.868665 
   72200    719.82902   -110.95448   0.65131643   -110.30317    148.10679    4.2550023    4.2550023    4.2550023    148.10679    8688.7661    2946.5276   -11190.973   -840.88389   -1588.5153   -7064.1904    77.037007 
   72300    888.58418   -111.10424   0.80400964   -110.30023   -451.50199    4.2560053    4.2560053    4.2560053   -451.50199    2744.1593    1716.5407    -5815.206   -3273.8288   -1789.0815    849.49405    77.091499 
   72400    515.15652   -110.77189   0.46612445   -110.30577   -1487.0968    4.2530809    4.2530809    4.2530809   -1487.0968    15804.438    -13718.84   -6546.8885   -1617.3619    1010.6073    2715.8301    76.932695 
   72500    604.27384   -110.85148   0.54675967   -110.30472   -2665.9819    4.2546482    4.2546482    4.2546482   -2665.9819    13689.591   -3571.0553   -18116.481    3393.5677   -543.71203   -1235.6316    77.017776 
   72600    942.43567   -111.15239    0.8527356   -110.29966   -85.338122    4.2559639    4.2559639    4.2559639   -85.338122    1915.6453    8012.7274   -10184.387     413.4157   -3382.4809   -557.89782     77.08925 
   72700    704.58448   -110.94039   0.63752284   -110.30287    1568.0844    4.2533143    4.2533143    4.2533143    1568.0844    5126.4335   -4293.3157    3871.1354   -3273.5468   -1851.0265    2138.2472    76.945359 
   72800    564.83546   -110.81648     0.511075   -110.30541    -1053.203    4.2539584    4.2539584    4.2539584    -1053.203    18317.493   -8337.7948   -13139.308   -557.58115   -283.92702    1720.3053    76.980322 
   72900    873.53249   -111.09225   0.79039056   -110.30186    1020.0442    4.2568264    4.2568264    4.2568264    1020.0442    16845.695    2257.7603   -16043.323    743.74232    94.189261   -1257.4613    77.136126 
   73000    888.26335   -111.10418   0.80371935   -110.30046    5441.9802    4.2524376    4.2524376    4.2524376    5441.9802    10655.006    4718.0889    952.84623   -1966.0494    290.10477    1028.6335    76.897788 
   73100    463.81192   -110.72653   0.41966677   -110.30686   -3659.5406    4.2552378    4.2552378    4.2552378   -3659.5406    10361.408   -12040.132    -9299.897   -5446.9309    2641.6564    7229.1739    77.049797 
   73200     596.1601   -110.84609   0.53941818   -110.30668   -873.37153    4.2557768    4.2557768    4.2557768   -873.37153    22498.987   -8070.0812   -17049.021   -124.49668    718.22428    5191.6683    77.079079 
   73300    1009.2949   -111.21199   0.91323127   -110.29876    3206.6769    4.2533035    4.2533035    4.2533035    3206.6769    13206.748    4384.0824   -7970.7998    1008.3354    -4400.854   -3240.7019    76.944773 
   73400    605.61189   -110.85267   0.54797036    -110.3047   -4978.9822    4.2556361    4.2556361    4.2556361   -4978.9822    467.35971   -10353.975   -5050.3314   -4304.2039   -553.86263   -744.61608    77.071438 
   73500    287.98001   -110.56955   0.26057037   -110.30898   -3767.2983    4.2539322    4.2539322    4.2539322   -3767.2983    18247.363   -14658.242   -14891.016   -180.72309    2857.3024    8285.5927    76.978898 
   73600    705.16413   -110.94204   0.63804732   -110.30399   -830.06517    4.2561003    4.2561003    4.2561003   -830.06517    13933.051    1028.1028    -17451.35    1317.8684    2269.4984    5365.0174    77.096661 
   73700    749.90705   -110.97843   0.67853166    -110.2999    3559.7936    4.2530181    4.2530181    4.2530181    3559.7936    11906.818    3194.9804   -4422.4181   -3556.1555    50.793399   -1278.1921    76.929285 
   73800    253.13101   -110.53557   0.22903826   -110.30653   -2538.8387    4.2552924    4.2552924    4.2552924   -2538.8387    18270.909   -16913.005   -8974.4196   -3906.8737   -118.55454    2574.9429    77.052763 
   73900    331.82293   -110.60623   0.30024036   -110.30599   -4910.3702    4.2560517    4.2560517    4.2560517   -4910.3702    8221.3743    -7431.491   -15520.994    2598.4182    2719.9557    6232.2806    77.094019 
   74000    674.36005   -110.90985   0.61017514   -110.29968    6666.1871    4.2502473    4.2502473    4.2502473    6666.1871    14309.259      13906.9   -8217.5975    506.82151   -737.15817   -415.79478    76.779029 
   74100    429.52652   -110.69225   0.38864463    -110.3036     -9115.33     4.259061     4.259061     4.259061     -9115.33   -4047.7584   -9344.9457   -13953.286   -3363.3505   -2868.2033   -2793.6114    77.257666 
   74200    221.02856   -110.50623   0.19999129   -110.30624   -3812.9443    4.2514582    4.2514582    4.2514582   -3812.9443    1259.1888   -12144.396   -553.62575    1806.4598   -202.79114    7532.6932    76.844667 
   74300    570.05145   -110.81841   0.51579453   -110.30262   -1036.0674    4.2540347    4.2540347    4.2540347   -1036.0674    5745.0437    322.80962   -9176.0556    2725.3067   -2650.0896    7252.0484    76.984463 
   74400    645.11387   -110.88405   0.58371258   -110.30034   -6183.2744     4.258714     4.258714     4.258714   -6183.2744   -2009.7246    1448.7738   -17988.872    -513.7788   -2137.4899   -6189.7374    77.238781 
   74500    305.64244   -110.58161   0.27655171   -110.30506    1677.7183    4.2487131    4.2487131    4.2487131    1677.7183    11371.284    -9870.997    3532.8683   -2769.2454   -774.05947   -2734.2077    76.695912 
   74600    416.92223   -110.68284   0.37723999    -110.3056   -6332.0947    4.2586748    4.2586748    4.2586748   -6332.0947    8605.1116   -22703.413   -4897.9826   -549.32284    1451.7593    11225.363    77.236653 
   74700    835.57053   -111.05502   0.75604177   -110.29897    3263.5997    4.2533741    4.2533741    4.2533741    3263.5997    17247.047    152.31644   -7608.5648    573.20338    1582.6073     1228.589    76.948605 
   74800    610.23265   -110.85579   0.55215133   -110.30363   -1489.3462    4.2528695    4.2528695    4.2528695   -1489.3462    9837.6492   -10757.916   -3547.7719   -4345.6584   -1313.7614   -10775.295    76.921219 
   74900    376.35077   -110.64753   0.34053009     -110.307   -7216.9854    4.2569718    4.2569718    4.2569718   -7216.9854    5757.7984   -26207.355   -1201.3997   -1062.3483    298.40599    5518.6672    77.144028 
   75000    764.88516   -110.99398   0.69208417    -110.3019    1804.2328    4.2539012    4.2539012    4.2539012    1804.2328    14360.549   -10267.907    1320.0569    3372.2894   -960.87552    7335.7578    76.977213 
   75100    868.24476    -111.0857    0.7856061   -110.30009    1280.1136    4.2547718    4.2547718    4.2547718    1280.1136    13141.771   -9519.8559    218.42525   -196.23435   -1928.2912   -13887.642    77.024486 
   75200    573.36087   -110.82388   0.51878896   -110.30509    4170.7874    4.2514655    4.2514655    4.2514655    4170.7874    21088.073   -13070.414     4494.703   -2394.4794   -1473.0656   -8486.8335    76.845063 
   75300    602.34723   -110.84966   0.54501643   -110.30465   -3386.4581     4.259828     4.259828     4.259828   -3386.4581    3667.7505   -14562.212    735.08729    745.98911   -1415.1326     13152.02    77.299411 
   75400     840.7568   -111.06113   0.76073442   -110.30039     8286.998     4.250202     4.250202     4.250202     8286.998    15644.139   -5398.1767    14615.032     2847.066    2016.2454   -3382.4851    76.776571 
   75500    737.28125    -110.9694   0.66710757   -110.30229    5536.5804    4.2524695    4.2524695    4.2524695    5536.5804     23496.89   -4535.7635   -2351.3851   -890.82618    1920.9629   -23869.875    76.899517 
   75600    636.42619   -110.87799    0.5758518   -110.30213   -7055.5801     4.262125     4.262125     4.262125   -7055.5801     1829.446   -16125.313   -6870.8729   -230.49224   -924.94076    496.70634    77.424523 
   75700    738.79163   -110.96807   0.66847419   -110.29959    8481.1002    4.2459703    4.2459703    4.2459703    8481.1002    11370.021   -2581.2078    16654.487   -730.93588    1275.5053    12622.144    76.547475 
   75800    627.02032   -110.87005   0.56734116    -110.3027   -2746.1326    4.2563845    4.2563845    4.2563845   -2746.1326    11082.506   -8413.1037   -10907.801   -335.47897    2893.4368   -20139.951    77.112103 
   75900    667.53205   -110.90526   0.60399703   -110.30126   -6530.6664    4.2589759    4.2589759    4.2589759   -6530.6664    8196.2395   -14212.585   -13575.654    640.16945   -2969.1034   -20528.794    77.253033 
   76000     743.0209   -110.97077   0.67230092   -110.29847    3446.8222    4.2489539    4.2489539    4.2489539    3446.8222    3014.0203    -1934.318    9260.7643   -3499.1107   -4991.0572     13370.34    76.708951 
   76100    513.10511   -110.76687   0.46426829    -110.3026   -4078.3766    4.2551499    4.2551499    4.2551499   -4078.3766   -9.7268969   -10519.788   -1705.6149   -391.80655    2619.3713   -4041.3704    77.045025 
   76200    423.35646   -110.68806   0.38306182     -110.305   -3517.8129    4.2574746    4.2574746    4.2574746   -3517.8129    10342.015   -17130.482    -3764.972    606.80409    4586.8744   -30195.081    77.171367 
   76300    718.06267   -110.95013   0.64971819   -110.30041    3254.4311    4.2525019    4.2525019    4.2525019    3254.4311    4751.1078   -1003.4222    6015.6077    -2109.312   -1344.5074   -2417.4401    76.901276 
   76400    643.75762   -110.88356   0.58248543   -110.30108    5790.7411    4.2509177    4.2509177    4.2509177    5790.7411    3037.4563    3740.8334    10593.934   -101.52841   -2944.4822    9379.0697    76.815361 
   76500    211.83298   -110.49886   0.19167093   -110.30719   -9428.9259    4.2613084    4.2613084    4.2613084   -9428.9259    2623.6565   -21076.134   -9834.3006    972.46351    2740.9697    -25922.41    77.380033 
   76600     454.2609   -110.71627   0.41102481   -110.30525    223.22181    4.2503618    4.2503618    4.2503618    223.22181    10816.727   -3688.8815   -6458.1801    1875.8718    4296.0832   -22415.296    76.785231 
   76700      798.478    -111.0223   0.72247967   -110.29982    5366.4444    4.2507373    4.2507373    4.2507373    5366.4444    161.15338    12385.797     3552.383     685.3238   -3057.3869    9871.1216    76.805584 
   76800    437.23412   -110.70119   0.39561862   -110.30557   -12336.951    4.2625939    4.2625939    4.2625939   -12336.951   -160.35698   -13870.964   -22979.531   -798.62691   -3277.9787   -8750.3717    77.450079 
   76900    237.63521   -110.52178   0.21501733   -110.30676    1107.4994    4.2479211    4.2479211    4.2479211    1107.4994    21435.305   -8311.6932   -9801.1136    1558.2606    2233.5597   -29894.587    76.653032 
   77000    696.26997   -110.93244    0.6299997   -110.30244   -2205.8766    4.2558446    4.2558446    4.2558446   -2205.8766    -2963.865   -4726.2703    1072.5057    827.95755   -2998.2123   -2833.8499    77.082764 
   77100    799.41575   -111.02374   0.72332817   -110.30041   -2367.4448    4.2574897    4.2574897    4.2574897   -2367.4448     1759.967    442.46923   -9304.7706   -1655.9065   -7305.9072    1888.6103    77.172189 
   77200    442.67451    -110.7059    0.4005412   -110.30535     2497.561    4.2500393    4.2500393    4.2500393     2497.561    24304.099   -7495.3518   -9316.0645   -1038.2198    2367.4355   -27394.725    76.767755 
   77300    554.28886   -110.80647   0.50153221   -110.30493   -4930.1084    4.2567197    4.2567197    4.2567197   -4930.1084    7571.2577   -21651.504   -710.07859    1652.7519      4753.68   -14465.182    77.130324 
   77400     888.8227   -111.10417   0.80422546   -110.29994    4382.1518    4.2534212    4.2534212    4.2534212    4382.1518    3450.0219   -2550.2391    12246.673    4687.0046   -2795.0168    8879.1393     76.95116 
   77500    742.23296   -110.97396   0.67158798   -110.30237   -1316.2122     4.255422     4.255422     4.255422   -1316.2122    12785.192   -8554.9733   -8178.8555   -487.46647   -2720.8111   -13538.336    77.059806 
   77600    603.30304   -110.85039   0.54588127    -110.3045   -764.64234    4.2529729    4.2529729    4.2529729   -764.64234    19735.562   -14257.316   -7772.1734   -706.03404    4395.5867   -26866.986    76.926831 
   77700    794.02962   -111.02077   0.71845468   -110.30232     2240.851    4.2546581    4.2546581    4.2546581     2240.851    5991.6283   -7246.2177    7977.1424    3600.4869    2983.5453    1250.4589    77.018312 
   77800    889.94865   -111.10554   0.80524424   -110.30029   -1024.9687    4.2560477    4.2560477    4.2560477   -1024.9687    7455.9132   -9750.6032   -780.21627   -682.36435   -8370.3827    5776.3264    77.093803 
   77900    704.17995   -110.93966   0.63715681    -110.3025    4755.2159    4.2506592    4.2506592    4.2506592    4755.2159    24768.045    1637.5191   -12139.917    590.73387   -3820.2627   -20195.959    76.801349 
   78000     692.9773   -110.93048   0.62702042   -110.30345   -2898.8474     4.257359     4.257359     4.257359   -2898.8474    11499.548   -7368.7403   -12827.349    2626.8415    6665.1688   -15040.731    77.165082 
   78100    844.97826    -111.0653   0.76455409   -110.30074    3885.4067    4.2529085    4.2529085    4.2529085    3885.4067    10737.754   -5678.1452    6596.6109    961.31734    2750.9747    4632.1539    76.923338 
   78200    767.02469    -110.9953   0.69402006   -110.30128    3264.2992     4.253039     4.253039     4.253039    3264.2992    14545.351    2033.0986   -6785.5517    -1654.641   -3528.1266   -6960.8114     76.93042 
   78300    656.88141   -110.89701   0.59436011   -110.30265    -4509.009    4.2565544    4.2565544    4.2565544    -4509.009    14439.268   -3959.3378   -24006.957    438.80584    3675.0757   -17328.364    77.121338 
   78400    656.50595   -110.89609   0.59402038   -110.30207    1903.7018    4.2520586    4.2520586    4.2520586    1903.7018     5538.926    504.29554   -332.11626    4056.3064    8921.2194   -778.69681    76.877229 
   78500    712.04914    -110.9455   0.64427702   -110.30122   -3356.2919    4.2551433    4.2551433    4.2551433   -3356.2919   -4834.6341   -8709.5544    3475.3129   -2855.4432   -873.29729    1747.5194    77.044664 
   78600    663.21796   -110.90154   0.60009355   -110.30145   -2360.1358    4.2534672    4.2534672    4.2534672   -2360.1358    10689.237   -5357.9299   -12411.714   -3886.0134   -491.65728   -16181.236    76.953655 
   78700    591.08707    -110.8368     0.534828   -110.30198   -3875.3324    4.2546685    4.2546685    4.2546685   -3875.3324    2952.9097    337.44375   -14916.351    1246.3856    8720.1981   -11040.257    77.018876 
   78800    587.98298   -110.83384   0.53201936   -110.30182   -4780.6785    4.2544592    4.2544592    4.2544592   -4780.6785   -11167.026   -6515.2013    3340.1917     3939.542    3059.6411    6004.7067    77.007514 
   78900    544.12582   -110.79448   0.49233648   -110.30215   -29.717227    4.2525236    4.2525236    4.2525236   -29.717227    6445.8073   -10607.265    4072.3064     763.5007   -2402.0186   -3001.2247    76.902452 
   79000    604.26045   -110.84808   0.54674755   -110.30133   -3616.7831    4.2557713    4.2557713    4.2557713   -3616.7831    9666.1832   -3770.9966   -16745.536   -1522.5114    2819.9896   -14527.414    77.078784 
   79100    603.90342   -110.84685    0.5464245   -110.30042    1164.3584    4.2528324    4.2528324    4.2528324    1164.3584    828.10586    7334.4293     -4669.46     4708.796     7814.667    -3732.863    76.919209 
   79200     416.8553   -110.68001   0.37717943   -110.30283   -1693.3339    4.2542252    4.2542252    4.2542252   -1693.3339   -2733.7101   -12187.373    9841.0815    1567.8926    2317.9828     2474.226    76.994807 
   79300    405.04323    -110.6703   0.36649163   -110.30381   -1527.6148    4.2543941    4.2543941    4.2543941   -1527.6148    6465.3675   -4990.1471   -6058.0649   -5970.7663   -4524.6872   -8978.6028    77.003979 
   79400    619.26278   -110.86073   0.56032198   -110.30041    3034.0806    4.2531997    4.2531997    4.2531997    3034.0806    6954.1891    11701.308   -9553.2557    626.15039    430.28542   -8005.4995    76.939137 
   79500    548.18633   -110.79712   0.49601051   -110.30111   -142.43497      4.25419      4.25419      4.25419   -142.43497   -3002.8996   -4677.2357    7252.8304    5074.7065    2360.7859    3853.6128    76.992892 
   79600    228.53191   -110.51238   0.20678048    -110.3056   -1365.7567     4.253917     4.253917     4.253917   -1365.7567   -3203.6812   -7264.2827    6370.6939    -4105.651   -2160.1348   -1862.0176    76.978076 
   79700    423.93917   -110.68774   0.38358907   -110.30415   -3857.6534    4.2552772    4.2552772    4.2552772   -3857.6534    2749.4658   -6537.4815   -7784.9444   -4995.3831    -4236.934   -12155.966    77.051937 
   79800    680.13699   -110.91469   0.61540224   -110.29929    5359.9917    4.2518383    4.2518383    4.2518383    5359.9917    9111.3226     4676.746    2291.9064    3255.2346   -1489.3907     -3500.29     76.86528 
   79900    429.85841   -110.69319   0.38894493   -110.30425   -2351.2806    4.2551425    4.2551425    4.2551425   -2351.2806   -3476.9629   -12505.092    8928.2129    1598.0489    3477.8562    3773.7777    77.044623 
   80000    236.47038   -110.52071   0.21396337   -110.30675   -6327.3891    4.2549551    4.2549551    4.2549551   -6327.3891    929.30361   -24892.894    4981.4231   -4475.4382   -1407.0513   -4619.6598     77.03444 
   80100    585.27652   -110.83177    0.5295705    -110.3022     3581.332    4.2511516    4.2511516    4.2511516     3581.332    11474.957    260.73323   -991.69429   -2814.6944   -6378.4107   -7492.7993    76.828045 
   80200    719.82226   -110.95154   0.65131031   -110.30023   -4873.3749    4.2578462    4.2578462    4.2578462   -4873.3749   -1595.7499   -7902.9257    -5121.449    157.96717   -689.27707    1589.6561    77.191577 
   80300    350.58085   -110.62299   0.31721292   -110.30578   -2848.8848    4.2526314    4.2526314    4.2526314   -2848.8848    2962.0386   -25646.329    14137.636    95.782553    1230.0612    768.11714    76.908304 
   80400    445.61468   -110.70842   0.40320153   -110.30522    -1264.986    4.2518424    4.2518424    4.2518424    -1264.986    6349.7108   -16093.771    5949.1021   -1296.7024   -5153.5953   -5713.8414    76.865506 
   80500    836.05643   -111.05623   0.75648143   -110.29975   -5278.1668    4.2580607    4.2580607    4.2580607   -5278.1668     2209.784   -2753.3328   -15290.952    2472.6211   -6788.7032    104.21274    77.203244 
   80600    627.91396    -110.8716   0.56814975   -110.30345    2709.1666    4.2510031    4.2510031    4.2510031    2709.1666    9189.9715   -8641.6039     7579.132    2289.4449    2184.0462    3311.6686    76.819992 
   80700    447.84132   -110.71205   0.40521624   -110.30683   -3343.6611    4.2534815    4.2534815    4.2534815   -3343.6611    4119.7846   -26865.765    12714.997   -7422.9998    983.41403   -2142.4487    76.954433 
   80800    752.54087   -110.98357   0.68091479   -110.30265   -1850.1111    4.2576079    4.2576079    4.2576079   -1850.1111    9968.8918   -8900.9963   -6618.2288   -2970.4118    -5102.295    -2574.196    77.178615 
   80900      911.416   -111.12457   0.82466835    -110.2999    6434.9094    4.2508517    4.2508517    4.2508517    6434.9094    20035.052    2494.7559     -3225.08    3462.3549    286.99782    2349.4968    76.811784 
   81000    554.88057   -110.80815    0.5020676   -110.30608   -420.42766     4.253598     4.253598     4.253598   -420.42766    8661.6368   -14194.448    4271.5285   -3154.0474    5063.6192    2122.1561    76.960755 
   81100     571.8383    -110.8235   0.51741131   -110.30608   -2760.7844    4.2576438    4.2576438    4.2576438   -2760.7844    10523.116   -22263.463    3457.9934   -6210.0698   -1000.9881   -3139.8011    77.180568 
   81200    997.82531   -111.20293   0.90285331   -110.30008    7693.6953    4.2498933    4.2498933    4.2498933    7693.6953     22864.96   -1183.6234    1399.7494   -1631.5812   -3276.9293   -225.09338    76.759846 
   81300    820.34829   -111.04595   0.74226837   -110.30368    4829.1091    4.2532008    4.2532008    4.2532008    4829.1091     19563.92    4895.0927   -9971.6856   -416.15091    4266.1432    3687.1945    76.939199 
   81400    458.42274   -110.72245   0.41479053   -110.30766   -6593.7465    4.2594518    4.2594518    4.2594518   -6593.7465    9104.4427   -23602.653   -5283.0292   -3794.8883    3895.1701    692.66451    77.278935 
   81500    745.67901   -110.97901   0.67470604    -110.3043    5768.5985    4.2485892    4.2485892    4.2485892    5768.5985    16888.588   -10826.344    11243.551    371.51342   -1754.4816   -1005.4366    76.689204 
   81600    999.07735   -111.20391   0.90398619   -110.29993    3773.6192    4.2542535    4.2542535    4.2542535    3773.6192    20482.229    3795.2047   -12956.576    1056.8475    2039.7262    1653.4111    76.996343 
   81700    661.08937   -110.90277   0.59816756    -110.3046   -9377.4434    4.2594866    4.2594866    4.2594866   -9377.4434    12865.021   -19259.568   -21737.783   -5238.7263    6181.5913    3395.9868    77.280831 
   81800    481.70851     -110.742   0.43585998   -110.30614    1675.0927     4.246342     4.246342     4.246342    1675.0927    7406.3478   -14678.301    12297.232   -918.50337     2474.499   -1280.7868    76.567578 
   81900    820.67284   -111.04616   0.74256203    -110.3036   -5732.2506    4.2567711    4.2567711    4.2567711   -5732.2506    3638.6935    -13043.07    -7792.375    4102.0764   -2871.6959     1316.656     77.13312 
   82000    847.31971   -111.06726   0.76667268   -110.30059   -6435.0869    4.2583041    4.2583041    4.2583041   -6435.0869    18068.807   -9041.4004   -28332.668    1619.8226     -540.225    5173.2489    77.216485 
   82100    576.26625     -110.824   0.52141781   -110.30258    2419.5894    4.2463301    4.2463301    4.2463301    2419.5894    13482.991   -7035.8767    811.65391   -4352.6146     3037.032   -177.64586    76.566935 
   82200    584.21778   -110.83255   0.52861253   -110.30394   -8347.8467    4.2581312    4.2581312    4.2581312   -8347.8467   -3960.6872   -19146.219   -1936.6343   -3680.4154   -2513.4888   -1653.9495    77.207077 
   82300    725.54406   -110.95729   0.65648751   -110.30081    -1641.456    4.2564363    4.2564363    4.2564363    -1641.456    17021.455   -1777.1708   -20168.653    1560.9658   -6831.6516    1077.6804    77.114923 
   82400    671.75683   -110.90786    0.6078197   -110.30004    6702.4896     4.247162     4.247162     4.247162    6702.4896    24352.111    7115.5334   -11360.175   -1476.5953   -1426.5863    2856.1121    76.611945 
   82500    535.23825   -110.78728   0.48429482   -110.30299   -3377.1011    4.2574834    4.2574834    4.2574834   -3377.1011    7226.0704   -13772.962   -3584.4118   -4199.7771    3162.2514     913.9804    77.171845 
   82600    562.96623   -110.81109   0.50938367   -110.30171    -1303.914    4.2565856    4.2565856    4.2565856    -1303.914    7330.2607   -7363.5638   -3878.4389   -892.91807    -2475.278   -353.58282    77.123033 
   82700    604.20682   -110.84697   0.54669903   -110.30027    7275.4557    4.2478335    4.2478335    4.2478335    7275.4557    18412.552      13663.4   -10249.586    3413.5909    -6817.443    2311.9493    76.648287 
   82800    490.28059   -110.74603   0.44361618   -110.30242   -960.61233    4.2559986    4.2559986    4.2559986   -960.61233     16103.32   -5570.9498   -13414.207   -3991.1403   -326.39717    671.27573    77.091132 
   82900    462.94724   -110.72108   0.41888439    -110.3022   -7516.2226    4.2583626    4.2583626    4.2583626   -7516.2226   -7947.3481   -17434.122    2832.8022   -5477.0134    1536.2116   -1436.1404    77.219667 
   83000    560.23872   -110.80712   0.50691577    -110.3002    4854.4661    4.2472566    4.2472566    4.2472566    4854.4661     482.3519    6362.6451    7718.4013    3476.2691   -3563.6752    797.22196    76.617063 
   83100    525.21164   -110.77681   0.47522253   -110.30158   -685.65412    4.2551406    4.2551406    4.2551406   -685.65412        14277   -383.83287    -15950.13    -1110.641   -3538.7065    4454.5437    77.044519 
   83200    384.90328   -110.65154   0.34826858   -110.30327   -10479.504    4.2589408    4.2589408    4.2589408   -10479.504   -13774.222   -12775.734   -4888.5547   -4284.0707    2313.8586    2030.5592    77.251124 
   83300    460.83401   -110.71874    0.4169723   -110.30177     1273.037    4.2470438    4.2470438    4.2470438     1273.037   -16613.853   -320.15898    20753.123   -2924.7498    4119.0793   -1530.4896    76.605549 
   83400     632.3708   -110.87282   0.57218239   -110.30064    -2670.831    4.2562538    4.2562538    4.2562538    -2670.831    1937.1907   -1323.1157   -8626.5679    1959.6269     484.6781    2337.9938    77.105004 
   83500     501.1712   -110.75566   0.45347024   -110.30219   -3879.5849     4.257238     4.257238     4.257238   -3879.5849    1933.8588   -838.78071   -12733.833    866.35176   -566.58124     2575.088    77.158501 
   83600    421.10122   -110.68388   0.38102124   -110.30286     1130.293    4.2474896    4.2474896    4.2474896     1130.293   -10670.166   -2520.2209    16581.266   -9310.1973     4657.844    585.04539    76.629673 
   83700    591.15034   -110.83697   0.53488525   -110.30208   -4425.3002    4.2568721    4.2568721    4.2568721   -4425.3002   -9559.8662   -4548.5743    832.53978   -1982.1057    4078.5637    137.11856    77.138607 
   83800    673.68283   -110.91011   0.60956238   -110.30054    -2170.668    4.2559905    4.2559905    4.2559905    -2170.668    10081.252   -711.17189   -15882.084    2455.6017   -2309.6248   -1830.9686     77.09069 
   83900    513.59719   -110.76728   0.46471353   -110.30257    2745.4663    4.2490923    4.2490923    4.2490923    2745.4663    7969.9198   -691.24024    957.71946   -8723.3076   -859.20477   -1928.2068    76.716449 
   84000    593.21963   -110.83918   0.53675758   -110.30243    -4574.019    4.2557078    4.2557078    4.2557078    -4574.019   -10836.383   -6622.3305    3736.6563   -10321.713    4599.3992    696.42873    77.075329 
   84100    719.27372   -110.95115   0.65081398   -110.30033   -1957.4085    4.2558493    4.2558493    4.2558493   -1957.4085    218.89813    4579.2887   -10670.412    1366.3902    1493.8544    2191.4235    77.083019 
   84200    570.30926    -110.8184   0.51602781   -110.30237    1734.9084    4.2508791    4.2508791    4.2508791    1734.9084    16990.356    4596.9989   -16382.629    1147.7861   -3911.3009   -1483.6467    76.813269 
   84300    572.32085   -110.82156   0.51784794   -110.30372   -1510.5838      4.25383      4.25383      4.25383   -1510.5838    2311.7701   -651.41592   -6192.1054   -9656.4311    1657.6821   -1850.2418    76.973352 
   84400    780.56896   -111.00699    0.7062752   -110.30071    932.47337    4.2560998    4.2560998    4.2560998    932.47337   -3410.4149    7522.0067   -1314.1717   -5458.8648    3372.6242     63.26939    77.096633 
   84500    729.62904    -110.9617   0.66018369   -110.30152    2805.2257    4.2513373    4.2513373    4.2513373    2805.2257    16214.317    10833.333   -18631.973    4428.7614   -5748.0876    75.493224    76.838112 
   84600    444.23029   -110.70791    0.4019489   -110.30596   -1079.4194    4.2538871    4.2538871    4.2538871   -1079.4194    16641.289    5385.1175   -25264.665    -3458.727   -6780.7084    816.44114    76.976449 
   84700     665.9766   -110.90643   0.60258962   -110.30384   -2568.8164    4.2560816    4.2560816    4.2560816   -2568.8164    5473.2252   -4567.1416   -8612.5329   -14378.003    1407.9789   -12.479816    77.095644 
   84800    909.01555   -111.12175   0.82249637   -110.29925    5117.1855    4.2511393    4.2511393    4.2511393    5117.1855    10159.981    11233.671    -6042.096   -4859.7106     1170.862    -1329.812    76.827376 
   84900    596.60527   -110.84489   0.53982098   -110.30507   -3060.9304    4.2542145    4.2542145    4.2542145   -3060.9304    19615.695    622.15582   -29420.642     4275.429   -5247.6493    784.55492    76.994224 
   85000    404.29076   -110.67332   0.36581078   -110.30751   -5176.1478    4.2552379    4.2552379    4.2552379   -5176.1478    15967.216   -7337.7158   -24157.944   -9003.0648   -3886.7019    1455.3219    77.049805 
   85100    805.96031   -111.03148   0.72924983   -110.30223      793.743    4.2533372    4.2533372    4.2533372      793.743    3542.1317    5951.6141   -7112.5168    -11570.94    1607.1662     1261.958    76.946604 
   85200     874.7433   -111.09182   0.79148612   -110.30033    3318.2511    4.2525062    4.2525062    4.2525062    3318.2511    11725.888    12476.097   -14247.232      4616.68   -1014.8362   -149.62486    76.901507 
   85300     460.4394   -110.72329   0.41661525   -110.30667   -780.66783     4.254498     4.254498     4.254498   -780.66783    15169.113    10192.816   -27703.933   -1818.2836   -5049.1552   -1180.5241    77.009618 
   85400    508.38329   -110.76614   0.45999589   -110.30614   -3028.5419    4.2559618    4.2559618    4.2559618   -3028.5419    4169.0936    7480.7585   -20735.478   -12332.917    205.16051   -327.79024    77.089133 
   85500     858.2577   -111.07673    0.7765696   -110.30016    8962.7316    4.2494785    4.2494785    4.2494785    8962.7316     7570.159    23531.625   -4213.5892   -1865.7348    4254.7474      10.5016    76.737368 
   85600    689.93779   -110.92684   0.62427021   -110.30257    -852.7947    4.2564263    4.2564263    4.2564263    -852.7947    3377.3417    13496.715   -19432.441    6847.0629   -2065.0835   -1712.2723    77.114376 
   85700     453.6465   -110.71581   0.41046889   -110.30535   -5605.2708    4.2553299    4.2553299    4.2553299   -5605.2708    9696.3874   -2788.2732   -23723.926   -3995.9845   -5259.6441    -2894.072      77.0548 
   85800    664.37494   -110.90377    0.6011404   -110.30263    3267.9547    4.2486404    4.2486404    4.2486404    3267.9547    9999.3848    10462.281   -10657.802   -10282.829    6169.1258    567.70667    76.691974 
   85900    775.05005   -111.00136   0.70128157   -110.30008   -5925.9976    4.2589778    4.2589778    4.2589778   -5925.9976   -10025.147    6683.8184   -14436.664    6926.7161    10833.806    236.46365    77.253139 
   86000    567.82394   -110.81658   0.51377903    -110.3028   -1760.7546    4.2530436    4.2530436    4.2530436   -1760.7546    8927.3422   -3476.3396   -10733.266    9557.9174   -3390.6552   -1353.7012    76.930671 
   86100    570.10939   -110.81854   0.51584696    -110.3027   -1421.0955    4.2507679    4.2507679    4.2507679   -1421.0955    7773.1402    2216.9688   -14253.396    -7275.812   -3990.6451    867.82673    76.807244 
   86200    721.67648   -110.95383   0.65298805   -110.30084   -4578.3595     4.257262     4.257262     4.257262   -4578.3595   -14768.766    13126.269   -12092.582   -3597.3737    11477.409    282.66116    77.159809 
   86300    653.57539   -110.89279   0.59136874   -110.30142    3762.9117     4.252447     4.252447     4.252447    3762.9117    -4496.576    13895.917    1889.3938    9956.0924    8148.8833   -2015.9772    76.898299 
   86400    593.00322   -110.83872   0.53656178   -110.30216    257.94112    4.2534013    4.2534013    4.2534013    257.94112    3395.4588    5124.6238   -7746.2592    4415.2435   -5139.0905   -62.601756    76.950081 
   86500     634.2403   -110.87529   0.57387395   -110.30141    290.98859    4.2548747    4.2548747    4.2548747    290.98859   -4118.2136    16001.017   -11009.838   -3917.1357    4016.6019    2566.2028    77.030077 
   86600     653.5396   -110.89216   0.59133637   -110.30082    292.51575    4.2545006    4.2545006    4.2545006    292.51575   -13924.539    17541.895   -2739.8083    3292.1056     16417.19   -838.46541    77.009759 
   86700    588.52057   -110.83416   0.53250578   -110.30165    3046.6727    4.2520164    4.2520164    4.2520164    3046.6727   -2199.0659    9410.9817    1928.1023    11739.351    1663.3982   -1894.9968    76.874939 
   86800    584.41787   -110.83091   0.52879357   -110.30211     340.2686    4.2538055    4.2538055    4.2538055     340.2686    7398.3036    1305.8363   -7683.3341     1293.639   -6052.3337    1727.2224    76.972023 
   86900    559.82829   -110.80818    0.5065444   -110.30163   -5527.8961    4.2568655    4.2568655    4.2568655   -5527.8961   -5754.1093    5310.9397   -16140.519   -3502.0364    13759.114    2252.5282    77.138252 
   87000    520.31372   -110.77212   0.47079079   -110.30133    1138.6032     4.251005     4.251005     4.251005    1138.6032   -9662.6178    12322.296    756.13156    9931.8218     14617.84    1079.9275    76.820094 
   87100    531.32491   -110.78224   0.48075395   -110.30148   -3055.7998    4.2542218    4.2542218    4.2542218   -3055.7998     2527.619   -10542.594   -1152.4247    9159.0421   -3208.6384   -1736.6607    76.994621 
   87200    515.60409   -110.76769   0.46652942   -110.30116   -7732.3689    4.2564653    4.2564653    4.2564653   -7732.3689    3479.4753   -9852.1725    -16824.41   -3656.8547    2971.2818   -2292.8782    77.116495 
   87300    460.20046   -110.71785   0.41639905   -110.30145   -3552.1998    4.2513207    4.2513207    4.2513207   -3552.1998   -10033.724    9349.3012   -9972.1764     2737.084    17951.654   -111.63238     76.83721 
   87400    443.23712   -110.70296   0.40105026   -110.30191   -4277.3492    4.2542714    4.2542714    4.2542714   -4277.3492   -8820.5472   -6726.6175     2715.117    14802.236    6228.0016   -623.23234    76.997316 
   87500    457.88143    -110.7158   0.41430074    -110.3015   -3770.8905     4.255775     4.255775     4.255775   -3770.8905    11229.374    -16844.55   -5697.4949    5631.2993   -4829.8199    578.17187    77.078983 
   87600     477.9444   -110.73311   0.43245414   -110.30065   -1747.4213    4.2524801    4.2524801    4.2524801   -1747.4213    7523.9017    682.46018   -13448.626   -5156.2569    8907.7828    1348.4098    76.900096 
   87700    444.07018   -110.70312   0.40180403   -110.30131     702.7403    4.2531587    4.2531587    4.2531587     702.7403   -686.02343    1526.4912    1267.7531    8521.8446    11427.001    337.62497    76.936913 
   87800    370.59776   -110.63776   0.33532464   -110.30244    662.50032    4.2558699    4.2558699    4.2558699    662.50032    8807.4709   -10360.967    3540.9972    13428.783   -4101.5334   -1235.7133    77.084138 
   87900    467.55872   -110.72453   0.42305696   -110.30148    1008.2885    4.2525215    4.2525215    4.2525215    1008.2885    17275.899   -6384.1894   -7866.8445   -2930.4694     -3345.92     -1164.65    76.902337 
   88000    582.18685     -110.827   0.52677489   -110.30022    1214.2403    4.2524628    4.2524628    4.2524628    1214.2403    9994.5913   -2185.3603   -4166.5099   -1536.9372    7181.7762    788.80367    76.899155 
   88100    498.45811   -110.75338   0.45101537   -110.30236   -4840.4643    4.2571275    4.2571275    4.2571275   -4840.4643   -5330.6329   -11246.987    2056.2266    15717.259    5219.6543   -243.10502    77.152494 
   88200    418.65714   -110.68214   0.37880978   -110.30333   -817.16113    4.2521198    4.2521198    4.2521198   -817.16113     9799.267   -12449.094    198.34332    10088.079   -3208.3069   -35.298168    76.880551 
   88300    639.45192   -110.87987   0.57858953   -110.30128   -905.09937    4.2526294    4.2526294    4.2526294   -905.09937    18274.964   -9491.5197   -11498.743   -6595.1983   -3812.6443    255.18132    76.908193 
   88400    731.22728   -110.96195   0.66162981   -110.30032    -4491.017    4.2569721    4.2569721    4.2569721    -4491.017    3783.1391   -12554.304   -4701.8863    12186.902    3279.7832   -518.19147    77.144047 
   88500    561.65124   -110.81116   0.50819384   -110.30296   -261.48844    4.2522793    4.2522793    4.2522793   -261.48844    5793.7021   -14017.555    7439.3878        23600    1141.0108    2380.8325    76.889201 
   88600    622.23841   -110.86616   0.56301439   -110.30314   -1500.5519    4.2530909    4.2530909    4.2530909   -1500.5519    17570.012   -8795.4604   -13276.208   -4058.1317   -4576.6076   -518.04345    76.933237 
   88700    790.14061    -111.0157   0.71493583   -110.30077   -1790.8502    4.2557243    4.2557243    4.2557243   -1790.8502    12986.655   -2420.6878   -15938.518   -3616.0749   -3223.0242   -2669.0921     77.07623 
   88800    741.64647   -110.97276   0.67105731    -110.3017   -86.259706    4.2535377    4.2535377    4.2535377   -86.259706   -1572.2713   -5624.9162    6938.4084    22693.963   -24.662031   -373.15891    76.957484 
   88900     720.9439   -110.95449   0.65232519   -110.30216    471.34687    4.2523963    4.2523963    4.2523963    471.34687    582.68031    274.63486    556.72543    12214.168   -1662.4089   -1319.5877    76.895549 
   89000    794.91476   -111.02032   0.71925558   -110.30106   -622.90347    4.2555561    4.2555561    4.2555561   -622.90347    8762.8623    9487.6663   -20119.239   -9915.2382   -6387.0266   -3238.6123     77.06709 
   89100    674.66245   -110.91292   0.61044877   -110.30247   -1075.7733     4.254207     4.254207     4.254207   -1075.7733    -3647.479    5314.4222   -4894.2631    12869.829   -2578.1935   -1098.4993    76.993818 
   89200    657.95739   -110.89815   0.59533368   -110.30282     2855.075    4.2510039    4.2510039    4.2510039     2855.075    -4605.129    628.41774    12541.936    29818.369    3576.2539    1109.4533    76.820038 
   89300    821.70037   -111.04391   0.74349176   -110.30042   -1653.9368    4.2575093    4.2575093    4.2575093   -1653.9368    1430.9515    4645.4031   -11038.165   -2034.3135    -2354.258    -1121.631    77.173257 
   89400    663.29665   -110.90205   0.60016475   -110.30189   -359.86326    4.2523195    4.2523195    4.2523195   -359.86326    1495.7277    7738.1876   -10313.505   -544.33379   -5561.1319   -3829.4132    76.891379 
   89500    357.61032   -110.63007   0.32357334   -110.30649   -855.26309    4.2510863    4.2510863    4.2510863   -855.26309   -7234.1487   -5788.7213    10457.081    30758.206   -993.77151    126.66085    76.824505 
   89600    635.89649   -110.87962   0.57537251   -110.30424   -7448.8877    4.2592032    4.2592032    4.2592032   -7448.8877   -19141.755   -3934.7238    729.81574    13704.418    1581.4517    1446.9289    77.265404 
   89700    821.46327    -111.0418   0.74327723   -110.29852    5010.6088    4.2504431    4.2504431    4.2504431    5010.6088    304.73415    15965.179   -1238.0868   -10757.122   -531.88074    -3836.958    76.789636 
   89800    299.32718   -110.57728   0.27083752   -110.30644   -1956.2834    4.2534039    4.2534039    4.2534039   -1956.2834   -14768.709    4562.7509    4337.1075    18987.751   -2683.2637    -3498.161     76.95022 
   89900    218.87769   -110.50691   0.19804514   -110.30886   -7560.5391    4.2574692    4.2574692    4.2574692   -7560.5391   -27173.326   -307.20973    4798.9185    29412.658    1149.8206    498.67909    77.171073 
   90000    726.37182   -110.95868   0.65723649   -110.30145    6333.9876    4.2498376    4.2498376    4.2498376    6333.9876   -4036.8529    16787.005    6251.8104   -5922.7653     2137.212    879.29345    76.756827 
   90100    584.46841   -110.83173    0.5288393   -110.30289   -709.75735     4.255081     4.255081     4.255081   -709.75735   -16454.012    10583.892    3740.8484    2419.0274   -3515.2394   -869.40416    77.041282 
   90200    101.46765   -110.40079  0.091810058   -110.30898   -7339.6725    4.2556808    4.2556808    4.2556808   -7339.6725   -26879.132   -3278.7916     8138.906    34375.419   -3863.2571   -2248.4242    77.073866 
   90300    362.58329   -110.63424   0.32807298   -110.30617   -1957.3963    4.2511718    4.2511718    4.2511718   -1957.3963   -10731.488    1691.8428    3167.4569     10305.31    744.01756    2236.7318    76.829141 
   90400    697.14045   -110.93024   0.63078733   -110.29946   -1930.6078    4.2561053    4.2561053    4.2561053   -1930.6078   -9585.1693    8174.1765   -4380.8307   -7219.6959    1119.6226    4860.7077    77.096933 
   90500    371.64916   -110.64074   0.33627597   -110.30447   -787.88009    4.2542542    4.2542542    4.2542542   -787.88009   -17552.622    4680.5528    10508.429    23669.221   -2129.0999   -2720.8402    76.996379 
   90600    279.56003   -110.55813   0.25295179   -110.30518   -481.89025    4.2516382    4.2516382    4.2516382   -481.89025   -14411.063    4752.9513    8212.4408     21692.97   -2210.0418   -1803.8201    76.854428 
   90700    579.75277   -110.82575   0.52457249   -110.30118   -1660.2573    4.2555525    4.2555525    4.2555525   -1660.2573   -2325.7223    8594.6504     -11249.7    -9037.426    2211.1132    5167.9778    77.066895 
   90800    601.07377   -110.84478   0.54386418   -110.30092   -300.13055    4.2544034    4.2544034    4.2544034   -300.13055   -3972.0202    3900.4597   -828.83108    3498.3055    1104.6348    4758.1027    77.004484 
   90900    501.87782   -110.75679    0.4541096   -110.30268   -455.27482    4.2531986    4.2531986    4.2531986   -455.27482   -14574.136    833.47168     12374.84    27661.188   -1375.7945   -1198.4874     76.93908 
   91000    636.14144    -110.8767   0.57559414    -110.3011   -706.40005    4.2539102    4.2539102    4.2539102   -706.40005   -4108.9789    6753.1514   -4763.3727    4042.3101    993.16984    346.75045    76.977704 
   91100    644.06847   -110.88409   0.58276669   -110.30132   -2253.0536    4.2551324    4.2551324    4.2551324   -2253.0536    5605.7605    4106.9508   -16471.872   -8346.1368    1856.1618    8563.9132    77.044074 
   91200    592.24227   -110.83874   0.53587325   -110.30287   -1337.2794    4.2534946    4.2534946    4.2534946   -1337.2794   -6130.2424   -1296.4917    3414.8959    21334.855    273.54133    2618.2971    76.955146 
   91300    789.26344   -111.01501   0.71414215   -110.30086    1542.3437     4.253199     4.253199     4.253199    1542.3437   -5454.5303    4076.3881    6005.1733    19672.708   -1054.1924   -3365.3596    76.939101 
   91400    793.32707   -111.01907     0.717819   -110.30125   -2189.8143    4.2557424    4.2557424    4.2557424   -2189.8143    9891.4152    1323.2633   -17784.122   -7977.8998    1167.6007      5356.41    77.077213 
   91500    587.03687   -110.83582   0.53116329   -110.30466   -1375.1073    4.2524882    4.2524882    4.2524882   -1375.1073    12824.866   -6328.8121   -10621.376     1798.141    3556.4419    7374.1864    76.900531 
   91600    744.31576     -110.977   0.67347254   -110.30353   -1355.9628    4.2545652    4.2545652    4.2545652   -1355.9628    1238.5162   -7960.7653    2654.3608    20303.374    783.65851   -858.35088     77.01327 
   91700    968.09787   -111.17522    0.8759553   -110.29927    834.36589    4.2550661    4.2550661    4.2550661    834.36589    8153.3979    1948.0297     -7598.33    1451.1563    45.297376    1271.7745    77.040474 
   91800    686.21812   -110.92407   0.62090458   -110.30316    2627.1348    4.2525258    4.2525258    4.2525258    2627.1348    21574.724    1905.8105    -15599.13    -8702.035    81.195186     9461.629    76.902572 
   91900    562.86068   -110.81489   0.50928817    -110.3056   -2394.8263    4.2544897    4.2544897    4.2544897   -2394.8263    9077.1876   -7706.4392   -8555.2273    11221.842    46.272386    3889.3564    77.009169 
   92000    845.40702    -111.0668   0.76494203   -110.30186    2300.2444    4.2535688    4.2535688    4.2535688    2300.2444     3525.523    6815.2148   -3440.0047    11909.834    637.19274   -2616.4005    76.959173 
   92100    805.85759   -111.03012   0.72915688   -110.30096    37.172661     4.254671     4.254671     4.254671    37.172661    12363.385    507.98426   -12759.851   -5808.4431   -1402.4118    6698.5004    77.019011 
   92200    524.60135   -110.77895   0.47467032   -110.30428   -738.07071    4.2525596    4.2525596    4.2525596   -738.07071    19203.163    -9829.402   -11587.973   -838.33451    1458.5701    7797.6454    76.904406 
   92300     597.7986   -110.84441   0.54090073   -110.30351   -2836.7215    4.2551472    4.2551472    4.2551472   -2836.7215    4422.3535   -5286.4024   -7646.1154     12926.09    815.57265   -4125.7532    77.044876 
   92400    749.12857   -110.97757   0.67782728   -110.29974   -2237.6486    4.2548098    4.2548098    4.2548098   -2237.6486    1830.7772   -190.64722   -8353.0758    1544.5468   -4330.1654   -387.43753    77.026551 
   92500    530.30494   -110.78181   0.47983105   -110.30198    4410.7728    4.2502525    4.2502525    4.2502525    4410.7728    23110.509   -1274.0269   -8604.1637   -9748.4895   -1568.0683    9024.6286    76.779308 
   92600    434.22923   -110.69682   0.39289973   -110.30392   -4574.2251    4.2571249    4.2571249    4.2571249   -4574.2251    9437.5379   -8488.5647   -14671.648    5004.8333    1156.6428    1673.6894    77.152356 
   92700    582.58729   -110.82809   0.52713722   -110.30095    301.73344    4.2529782    4.2529782    4.2529782    301.73344   -57.294876    3508.8837   -2546.3885    8934.8017   -715.28805   -3986.0266    76.927119 
   92800    547.82788   -110.79642   0.49568618   -110.30074    1079.8786    4.2521111    4.2521111    4.2521111    1079.8786    5444.0835    6206.8917   -8411.3396   -6924.0153   -3435.8569    4867.5859    76.880078 
   92900    374.30538   -110.64129   0.33867937   -110.30261   -4417.3367    4.2568548    4.2568548    4.2568548   -4417.3367    9379.9579   -5406.7636   -17225.204   -2833.1452   -995.40988    6816.0961    77.137667 
   93000    457.47274   -110.71536   0.41393095   -110.30143   -696.42826    4.2516603    4.2516603    4.2516603   -696.42826     3444.933   -937.19086   -4597.0269    11066.681    2095.7715   -4322.6482    76.855626 
   93100    550.49057   -110.79827   0.49809543   -110.30017   -3761.5353    4.2536972    4.2536972    4.2536972   -3761.5353    -12530.09    6757.0747   -5511.5909    3404.7753   -3822.0864   -2633.9885    76.966142 
   93200     396.7897   -110.66129   0.35902366   -110.30226   -3614.1617    4.2549665    4.2549665    4.2549665   -3614.1617   -2147.8362    4469.4018   -13164.051   -8634.0106   -3900.7328    9819.3665    77.035063 
   93300    343.35793   -110.61367   0.31067747   -110.30299   -1865.6942    4.2534071    4.2534071    4.2534071   -1865.6942       7847.8   -2947.0137   -10497.869    2182.3141    1141.6461    980.03397    76.950398 
   93400    499.14866   -110.75225    0.4516402   -110.30061   -3008.4728     4.253581     4.253581     4.253581   -3008.4728   -7179.8542    4154.6347   -6000.1989    8446.4013   -3023.8905   -8749.1437    76.959831 
   93500    519.13289   -110.77026   0.46972235   -110.30054   -2529.7871    4.2539905    4.2539905    4.2539905   -2529.7871   -10753.241    8348.5449   -5184.6647   -8792.0989    -5558.181    2890.4524    76.982064 
   93600     337.9649   -110.60928   0.30579774   -110.30348   -4028.7726    4.2544223    4.2544223    4.2544223   -4028.7726    1883.3347   -4709.2093   -9260.4431   -8044.8779   -655.76721    4981.6728     77.00551 
   93700    406.74453   -110.67118   0.36803099   -110.30315   -915.81195    4.2521864    4.2521864    4.2521864   -915.81195    3173.5787    419.22616   -6340.2407    11587.591    1647.4821   -7306.5428     76.88416 
   93800    619.68428   -110.86072   0.56070336   -110.30001   -4376.9193     4.255129     4.255129     4.255129   -4376.9193   -12101.009    3176.0065   -4205.7554    5332.7243   -959.52691   -4836.9929     77.04389 
   93900    516.22117   -110.76879   0.46708776    -110.3017   -3567.0894    4.2544248    4.2544248    4.2544248   -3567.0894   -11141.201    457.99915   -18.066668   -14873.915   -2465.0355    6140.1065    77.005643 
   94000    384.35885    -110.6518   0.34777597   -110.30402   -80.011943     4.251761     4.251761     4.251761   -80.011943    2273.0029    983.41869   -3496.4574    -1014.747    218.33973   -385.34243    76.861088 
   94100    570.50605   -110.81839   0.51620586   -110.30218    -2263.792    4.2553098    4.2553098    4.2553098    -2263.792   -2784.4669     1318.656    -5325.565    14322.259    792.52737   -10768.358    77.053707 
   94200    714.79528   -110.94694   0.64676179   -110.30018    864.03619    4.2535223    4.2535223    4.2535223    864.03619   -9560.2296    6046.8606    6105.4775   -8633.4589   -2359.1043    1028.5772     76.95665 
   94300    538.62155   -110.79055    0.4873561   -110.30319    992.15058    4.2529655    4.2529655    4.2529655    992.15058   -1671.4049    3780.3342    867.52253   -15799.144   -944.22162    7093.8379    76.926431 
   94400    502.95398   -110.75877   0.45508333   -110.30369   -1076.4061    4.2554138    4.2554138    4.2554138   -1076.4061    8763.8662    -2133.109   -9859.9754    8410.6316    1082.6255   -7467.9662     77.05936 
   94500     716.4384   -110.94913   0.64824852   -110.30088    2488.0465    4.2522873    4.2522873    4.2522873    2488.0465    1774.1007    3905.7098     1784.329    8152.6189    1312.1518   -8006.2579    76.889633 
   94600     768.4418   -110.99605   0.69530229   -110.30075    83.390305    4.2535295    4.2535295    4.2535295    83.390305   -3900.7408   -149.97968    4300.8914   -15788.628    245.93745    3379.2018    76.957039 
   94700    625.23328   -110.86881   0.56572421   -110.30308   -2358.4155    4.2555518    4.2555518    4.2555518   -2358.4155     6221.154   -6687.8195   -6608.5811    -8182.995   -1417.2806   -335.79602    77.066857 
   94800    648.61971   -110.88936   0.58688474   -110.30248    1226.2157    4.2527106    4.2527106    4.2527106    1226.2157    9830.4963    3681.4424   -9833.2915    14563.114    2163.9363   -11110.889    76.912601 
   94900    801.49842   -111.02557   0.72521261   -110.30036   -50.099736    4.2541386    4.2541386    4.2541386   -50.099736   -775.72579    2147.1545   -1521.7279   -3465.6283    1062.9434   -3539.4682    76.990103 
   95000    816.12949    -111.0391   0.73845111   -110.30065    -357.6514    4.2540082    4.2540082    4.2540082    -357.6514   -144.50749   -2021.2823    1092.8356   -21063.603    -4551.128    5481.6653    76.983025 
   95100    715.21788   -110.94964   0.64714417   -110.30249   -335.57406    4.2530748    4.2530748    4.2530748   -335.57406    9558.9335    1144.0064   -11709.662    3787.7818   -1719.9903   -8251.5994     76.93236 
   95200    669.57083   -110.90937   0.60584176   -110.30353   -1461.1815    4.2544203    4.2544203    4.2544203   -1461.1815    7602.8776    1890.5456   -13876.968    10791.605    3720.6058   -11468.735    77.005398 
   95300    815.70948   -111.03925   0.73807108   -110.30118    1736.4825    4.2535802    4.2535802    4.2535802    1736.4825     1003.659    1868.7799    2337.0085   -12256.258      4047.27    3527.2172    76.959793 
   95400    860.46438   -111.07806   0.77856625   -110.29949    46.174878    4.2549931    4.2549931    4.2549931    46.174878    6426.1352   -554.52937   -5733.0812   -12038.913   -702.28076   -248.37643    77.036505 
   95500    665.39837   -110.90437   0.60206643   -110.30231   -1506.9823    4.2535761    4.2535761    4.2535761   -1506.9823    12272.522     603.9276   -17397.396    10210.784    67.954308   -11951.179    76.959566 
   95600    632.61858   -110.87634   0.57240659   -110.30394    447.72073    4.2523603    4.2523603    4.2523603    447.72073    913.08705     8241.333   -7811.2578    2602.2765    5099.7797    -6954.543    76.893596 
   95700    864.66881    -111.0837   0.78237051   -110.30133    2036.7093    4.2544762    4.2544762    4.2544762    2036.7093    148.62679    3425.2032     2536.298   -16443.755    39.769909    2366.2399    77.008436 
   95800    822.26765   -111.04521   0.74400505    -110.3012    2051.6846     4.253579     4.253579     4.253579    2051.6846    9056.6585    4611.3899   -7512.9946   -682.71555   -2289.7416    -3434.269    76.959723 
   95900     541.3805   -110.79439   0.48985246   -110.30454   -2806.6274    4.2546333    4.2546333    4.2546333   -2806.6274   -632.93532    9876.2697   -17663.216    10699.499    1193.0956   -11237.051    77.016968 
   96000    671.84518   -110.91097   0.60789964   -110.30307   -891.55834     4.254434     4.254434     4.254434   -891.55834   -2822.1639    3402.9908   -3255.5019    -3364.208    2239.8121    -395.6164    77.006141 
   96100    889.36615   -111.10386   0.80471718   -110.29914    5572.5123    4.2515969    4.2515969    4.2515969    5572.5123    7974.0096     5225.534    3517.9932   -10991.328   -157.61956    3697.9927     76.85219 
   96200    637.62843   -110.88024   0.57693961    -110.3033   -1323.8075    4.2543709    4.2543709    4.2543709   -1323.8075    6048.7635    5806.3617   -15826.548    3229.2399   -2890.8218    -6940.793    77.002717 
   96300     464.2435   -110.72589   0.42005727   -110.30584   -4908.7792    4.2553959    4.2553959    4.2553959   -4908.7792    529.09501     374.9433   -15630.376    13628.663    1862.5154   -7873.8535    77.058387 
   96400    778.51514   -111.00598   0.70441686   -110.30157    2795.9527    4.2518228    4.2518228    4.2518228    2795.9527    5218.4528    2914.0616    255.34364   -1803.7572    2205.2343    2991.7295    76.864441 
   96500    787.84641   -111.01298   0.71285999   -110.30012     1892.163    4.2547683    4.2547683    4.2547683     1892.163    10710.481    3602.9621   -8636.9539    -6074.698   -4557.7872    5177.8694    77.024298 
   96600    469.05238    -110.7291   0.42440845   -110.30469   -5233.6114    4.2545065    4.2545065    4.2545065   -5233.6114   -790.31821    326.22128   -15236.737     10395.68    -1767.111   -6721.6581    77.010081 
   96700    540.77142   -110.79386   0.48930134   -110.30456   -2033.1504    4.2520157    4.2520157    4.2520157   -2033.1504   -7606.7008    3370.3942   -1863.1446    11871.411    3739.5047   -4820.8904    76.874904 
   96800    823.47458   -111.04492   0.74509711   -110.29983   -1238.1553    4.2556823    4.2556823    4.2556823   -1238.1553    5113.4563   -3790.6115   -5037.3106   -461.20195     714.1453    10348.572    77.073944 
   96900    617.56479   -110.86109    0.5587856    -110.3023    2746.7191    4.2526216    4.2526216    4.2526216    2746.7191    8964.7823    2584.3612   -3308.9862   -3246.9023   -2527.3687    5217.7135    76.907769 
   97000    403.23977   -110.66997   0.36485982   -110.30511   -2243.4566      4.25337      4.25337      4.25337   -2243.4566   -7949.1649    770.44635    448.34872    12248.895    656.05252   -7284.0867    76.948382 
   97100    609.17091   -110.85366   0.55119064   -110.30247   -2649.6696    4.2556705    4.2556705    4.2556705   -2649.6696   -122.08945   -9244.8199    1417.9006    11043.615    2566.6261    578.16571    77.073305 
   97200    731.95546   -110.96185   0.66228868   -110.29956    4551.9139    4.2519112    4.2519112    4.2519112    4551.9139     14800.86   -8668.2118    7523.0936   -5649.9947   -1332.4634    10942.445    76.869236 
   97300     503.4255    -110.7582   0.45550997   -110.30269   -110.95781    4.2543051    4.2543051    4.2543051   -110.95781    1967.6814   -2789.3678    488.81298    4575.7126   -3471.3931    498.49952    76.999144 
   97400     453.3358    -110.7139   0.41018776   -110.30371   -3235.9204    4.2535862    4.2535862    4.2535862   -3235.9204   -7847.5077   -7087.1932    5226.9397     15444.61   -1210.3394   -6683.5865    76.960119 
   97500    614.30497   -110.85706   0.55583604   -110.30122   -2238.7643    4.2537054    4.2537054    4.2537054   -2238.7643    2642.1056   -18407.974    9049.5756    1888.9022    1916.6684    10613.711    76.966584 
   97600    615.29601   -110.85724   0.55673276    -110.3005   -3362.6615    4.2547435    4.2547435    4.2547435   -3362.6615    6621.9032   -15651.099   -1058.7883    -5670.495   -2055.6916    10836.981    77.022948 
   97700    492.40928   -110.74753   0.44554226   -110.30198    523.22031    4.2519235    4.2519235    4.2519235    523.22031   -4256.0998      286.327    5539.4337     7396.068   -4299.8713   -8435.2286    76.869904 
   97800    522.99195   -110.77469   0.47321411   -110.30147   -5722.0457    4.2550566    4.2550566    4.2550566   -5722.0457   -7933.5087   -16099.999    6867.3711    12434.055    400.90561    534.48453    77.039957 
   97900    519.68616   -110.77149   0.47022295   -110.30127   -3568.6373    4.2539801    4.2539801    4.2539801   -3568.6373    9155.7647   -23507.152    3645.4752   -5670.2411    1390.2778    16100.816    76.981497 
   98000    535.13521   -110.78545   0.48420158   -110.30124   -68.035703    4.2523645    4.2523645    4.2523645   -68.035703    7643.5984   -13209.333    5361.6275   -5410.7833     -1606.18     1437.345    76.893821 
   98100     535.7031   -110.78569   0.48471542   -110.30098    461.92465    4.2549392    4.2549392    4.2549392    461.92465   -1622.9268    -4172.212    7180.9127    11705.497   -3712.3415   -11244.033    77.033582 
   98200    513.99675   -110.76633   0.46507506   -110.30126   -215.34365    4.2531261    4.2531261    4.2531261   -215.34365    6787.3691   -14155.712    6722.3115    1055.2058    192.72561    9708.3669    76.935147 
   98300      455.978   -110.71476   0.41257848   -110.30218   -1215.9248    4.2532359    4.2532359    4.2532359   -1215.9248     12599.85    -25515.71    9268.0859   -10396.115     1447.603    16506.688    76.941101 
   98400    545.58537   -110.79493   0.49365711   -110.30127    -237.2471    4.2548384    4.2548384    4.2548384    -237.2471    6576.4363   -13007.345    5719.1674    1149.5486    -3006.695   -9890.1461    77.028103 
   98500    602.61215   -110.84553   0.54525614   -110.30027    2010.2298    4.2530696    4.2530696    4.2530696    2010.2298    4765.6064   -349.61145    1614.6944    6702.5837   -2719.1268   -6643.9943    76.932077 
   98600    500.99257   -110.75537    0.4533086   -110.30206   -1771.7048    4.2528573    4.2528573    4.2528573   -1771.7048    6726.5515   -19452.861    7411.1955   -4490.5854    135.08701      19269.5    76.920557 
   98700    482.57729   -110.73938   0.43664608   -110.30273   -6361.2336    4.2551125    4.2551125    4.2551125   -6361.2336     7511.692   -25240.776   -1354.6168   -9177.2571    1233.5355    4136.0944     77.04299 
   98800    628.70667   -110.86981     0.568867   -110.30095   -2340.2813    4.2538819    4.2538819    4.2538819   -2340.2813    5540.6396    -4984.076   -7577.4076     3416.796   -5155.1839    -18087.43    76.976165 
   98900    656.95128   -110.89496   0.59442333   -110.30054   -32.329062    4.2524947    4.2524947    4.2524947   -32.329062    4580.8212   -1234.4641   -3443.3443    2176.4232   -5461.6505    4964.2306    76.900888 
   99000    541.12154   -110.79228   0.48961814   -110.30266   -4960.4714    4.2544888    4.2544888    4.2544888   -4960.4714     8147.243    -20748.65   -2280.0069   -9798.9778    2240.5024    20267.168    77.009117 
   99100    572.64893   -110.82075   0.51814478   -110.30261   -3824.8493    4.2543374    4.2543374    4.2543374   -3824.8493     10574.78   -19106.065   -2943.2629   -4634.7797   -76.783271   -9978.9207    77.000896 
   99200     724.8469    -110.9563   0.65585671   -110.30044    1836.0656    4.2534283    4.2534283    4.2534283    1836.0656     7345.193    1699.4006   -3536.3967    2277.6773   -4185.8743   -16730.143    76.951544 
   99300    726.55525   -110.95827   0.65740246   -110.30087    3461.2393     4.252807     4.252807     4.252807    3461.2393    10222.258   -720.50698     881.9671   -3422.1219   -2226.3431    15355.659    76.917829 
   99400    586.62393   -110.83386   0.53078966   -110.30307    380.22717    4.2545897    4.2545897    4.2545897    380.22717    12056.364   -20020.167    9104.4844   -8526.1379    1520.5492    9626.2094    77.014596 
   99500    656.88383   -110.89697    0.5943623   -110.30261    -224.9003    4.2540203    4.2540203    4.2540203    -224.9003    10543.319   -11051.549   -166.47045   -973.05871   -897.62043   -20071.977    76.983684 
   99600    792.65292    -111.0178   0.71720902   -110.30059     6542.172     4.251799     4.251799     4.251799     6542.172    11802.929    9528.1233   -1704.5367      3529.09   -7878.9273   -6442.3772     76.86315 
   99700    740.71335   -110.97163   0.67021301   -110.30142   -1183.8571    4.2559898    4.2559898    4.2559898   -1183.8571    1314.1474   -8289.2234    3423.5048   -8022.6959   -2708.7344    16665.525    77.090656 
   99800    600.02612   -110.84617   0.54291624   -110.30325   -2073.5553    4.2528793    4.2528793    4.2528793   -2073.5553     6604.928   -14023.467    1197.8729    -9467.862    1019.2749   -4381.7199    76.921755 
   99900    715.62257   -110.94968   0.64751034   -110.30217     56.80734    4.2521478    4.2521478    4.2521478     56.80734    8612.5984   -1623.3354    -6818.841    1546.2909   -4183.6239   -21079.705     76.88207 
  100000    813.06382   -111.03597   0.73567723   -110.30029   -2931.4783    4.2569144    4.2569144    4.2569144   -2931.4783   -8890.5591    4515.5527   -4419.4283    1004.4685   -3539.6808    4399.5891    77.140908 
Loop time of 22.361 on 1 procs for 100000 steps with 8 atoms

Pair  time (%) = 7.34007 (32.8254)
Kspce time (%) = 5.30328 (23.7167)
Neigh time (%) = 0 (0)
Comm  time (%) = 1.06154 (4.74728)
Outpt time (%) = 0.0250776 (0.112149)
Other time (%) = 8.631 (38.5985)

Nlocal:    8 ave 8 max 8 min
Histogram: 1 0 0 0 0 0 0 0 0 0
Nghost:    2189 ave 2189 max 2189 min
Histogram: 1 0 0 0 0 0 0 0 0 0
Neighs:    2344 ave 2344 max 2344 min
Histogram: 1 0 0 0 0 0 0 0 0 0

Total # of neighbors = 2344
Ave neighs/atom = 293
Neighbor list builds = 0
Dangerous builds = 0
unfix 20
unfix 21
print "seeds:4035473"
seeds:4035473
