LAMMPS (10 Feb 2015)
# ---- initialize simulations
clear
units metal
dimension 3
boundary p p p
atom_style charge
atom_modify map array
# ---- create atoms
read_data /Users/eugeneragasa/pyflamestk_git/pypospack/tests/tests_integration/workflow/WorkflowLammpsThermalExpansion/param_2856/MgO_NaCl_unit.npt.T200/lammps.structure
  triclinic box = (0 0 0) to (4.2565 4.2565 4.2565) with tilt (0 0 0)
  1 by 1 by 1 MPI processor grid
  reading atoms ...
  8 atoms
# ---- define interatomic potential
include potential.mod
mass 1 24.305
mass 2 15.999

group Mg type 1
4 atoms in group Mg
group O type 2
4 atoms in group O

set group Mg charge 1.71287520642
  4 settings made for charge
set group O charge -1.71287520642
  4 settings made for charge

variable R_cut equal 10.0

pair_style buck/coul/long ${R_cut}
pair_style buck/coul/long 10
pair_coeff 1 1 0.0 0.5 0.0 ${R_cut}
pair_coeff 1 1 0.0 0.5 0.0 10
pair_coeff 1 2 1268.25800143 0.292150986054 0.0 ${R_cut}
pair_coeff 1 2 1268.25800143 0.292150986054 0.0 10
pair_coeff 2 2 34972.2762623 0.190168709461 15.9037418312 ${R_cut}
pair_coeff 2 2 34972.2762623 0.190168709461 15.9037418312 10

kspace_style pppm 1.0e-5

neighbor 1.0 bin
neigh_modify every 1 delay 0 check yes
# ---- define settings
compute eng all pe/atom
compute eatoms all reduce sum c_eng
# ---- run minimization
reset_timestep 0
fix 1 all box/relax iso 0.0 vmax 0.001
thermo 10
thermo_style custom step pe lx ly lz xy xz yz press pxx pyy pzz pxy pxz pyz c_eatoms
min_style cg
minimize 1e-25 1e-25 5000 10000
PPPM initialization ...
  G vector (1/distance) = 0.353245
  grid = 8 8 8
  stencil order = 5
  estimated absolute RMS force accuracy = 4.15075e-05
  estimated relative force accuracy = 2.88254e-06
  using double precision FFTs
  3d grid and FFT values/proc = 3375 512
Neighbor list info ...
  1 neighbor list requests
  update every 1 steps, delay 0 steps, check yes
  master list distance cutoff = 11
Memory usage per processor = 4.06549 Mbytes
Step PotEng Lx Ly Lz Xy Xz Yz Press Pxx Pyy Pzz Pxy Pxz Pyz eatoms 
       0    -118.2398       4.2565       4.2565       4.2565            0            0            0    92099.563    92099.563    92099.563    92099.563 -2.6648665e-10 1.3518399e-10 2.2028947e-10    -118.2398 
      10   -118.33067     4.299065     4.299065     4.299065            0            0            0    34673.493    34673.493    34673.493    34673.493 -1.1760899e-11 -1.3745134e-10 -5.0678772e-11   -118.33067 
      18   -118.34767    4.3277342    4.3277342    4.3277342            0            0            0    -4.391814    -4.391814    -4.391814    -4.391814 -1.1240186e-10 -1.6034703e-10 -8.891662e-11   -118.34767 
Loop time of 0.0137939 on 1 procs for 18 steps with 8 atoms

Minimization stats:
  Stopping criterion = linesearch alpha is zero
  Energy initial, next-to-last, final = 
        -118.239795936     -118.347671294     -118.347671294
  Force two-norm initial, final = 13.2992 0.00175014
  Force max component initial, final = 13.2992 0.000655584
  Final line search alpha, max atom move = 0.00390625 2.56088e-06
  Iterations, force evaluations = 18 35

Pair  time (%) = 0.0036273 (26.2963)
Kspce time (%) = 0.00215554 (15.6267)
Neigh time (%) = 0 (0)
Comm  time (%) = 0.000424623 (3.07833)
Outpt time (%) = 1.38283e-05 (0.100249)
Other time (%) = 0.00757265 (54.8984)

Nlocal:    8 ave 8 max 8 min
Histogram: 1 0 0 0 0 0 0 0 0 0
Nghost:    2189 ave 2189 max 2189 min
Histogram: 1 0 0 0 0 0 0 0 0 0
Neighs:    2344 ave 2344 max 2344 min
Histogram: 1 0 0 0 0 0 0 0 0 0

Total # of neighbors = 2344
Ave neighs/atom = 293
Neighbor list builds = 0
Dangerous builds = 0
unfix 1
# ---- define output variables ----
variable natoms equal "count(all)"
variable tot_energy equal "c_eatoms"
variable length_x equal "lx"
variable length_y equal "ly"
variable length_z equal "lz"
variable tilt_xy equal "xy"
variable tilt_xz equal "xz"
variable tilt_yz equal "yz"
variable tot_press equal "press"
variable press_xx equal "pxx"
variable press_yy equal "pyy"
variable press_zz equal "pzz"
variable press_xy equal "pxy"
variable press_xz equal "pxz"
variable press_yz equal "pyz"

# ---- output ----
print "pypospack:output_section:begin"
pypospack:output_section:begin
print "tot_energy = ${tot_energy}"
tot_energy = -118.347671293792
print "num_atoms = ${natoms}"
num_atoms = 8
print "xx = ${length_x}"
xx = 4.32773421076983
print "yy = ${length_y}"
yy = 4.32773421076983
print "zz = ${length_z}"
zz = 4.32773421076983
print "xy = ${tilt_xy}"
xy = 0
print "xz = ${tilt_xz}"
xz = 0
print "yz = ${tilt_yz}"
yz = 0
print "tot_press = ${tot_press}"
tot_press = -4.39181402043263
print "pxx = ${press_xx}"
pxx = -4.39181402021402
print "pyy = ${press_yy}"
pyy = -4.39181402042068
print "pzz = ${press_zz}"
pzz = -4.39181402066319
print "pxy = ${press_xy}"
pxy = -1.12401857084108e-10
print "pxz = ${press_xz}"
pxz = -1.60347032595802e-10
print "pyz = ${press_yz}"
pyz = -8.89166196817966e-11
print "pypospack:output_section:done"
pypospack:output_section:done
print "pypospack:lammps_sim:done"
pypospack:lammps_sim:done
#------------------------------------------------------------------------------
# RUN THERMOSTAT
# running using an NPT Nose-Hoover style thermostat
#------------------------------------------------------------------------------
variable tempdamp equal 0.1
variable pressdamp equal 1.0
# set initial velocities
velocity all create 200 3475957 mom yes dist gaussian loop all
# fix for Nose-Hoover style thermostat
fix 20 all npt temp 200 200 0.1 aniso 0.0 0.0 1.0 drag 1.0 couple xyz
variable boxx equal lx
variable boxy equal ly
variable boxz equal lz
variable boxp equal press
variable boxt equal temp
# calculate averages every 10000 steps
reset_timestep 0
fix 21 all ave/time 10 10 100 v_boxx v_boxy v_boxz v_boxp v_boxt file lattice.out
thermo_style custom step temp pe ke etotal press lx ly lz press pxx pyy pzz pxy pxz pyz vol
thermo_modify flush yes
thermo 100
run 100000
PPPM initialization ...
  G vector (1/distance) = 0.352508
  grid = 8 8 8
  stencil order = 5
  estimated absolute RMS force accuracy = 4.29555e-05
  estimated relative force accuracy = 2.9831e-06
  using double precision FFTs
  3d grid and FFT values/proc = 3375 512
Memory usage per processor = 3.06549 Mbytes
Step Temp PotEng KinEng TotEng Press Lx Ly Lz Press Pxx Pyy Pzz Pxy Pxz Pyz Volume 
       0          200   -118.34768    0.1809642   -118.16672    2378.2897    4.3277342    4.3277342    4.3277342    2378.2897    2739.6799    1339.8062     3055.383   -1002.6944    578.24566   -493.02666    81.055361 
     100    118.81777   -118.24728   0.10750881   -118.13977    2887.1406    4.3332363    4.3332363    4.3332363    2887.1406   -298.96286    618.80204    8341.5828    538.22421    120.03283     527.9247    81.364905 
     200    199.08061   -118.27223   0.18013232    -118.0921   -4974.7407    4.3370594    4.3370594    4.3370594   -4974.7407   -6308.6277   -7797.9718   -817.62267    425.94666   -1190.7897    737.35042    81.580453 
     300    180.97583   -118.21281   0.16375073   -118.04906    3801.0459    4.3328738    4.3328738    4.3328738    3801.0459    1035.8241   -1594.9252    11962.239     825.6498    814.13797    953.20065    81.344484 
     400    260.63759   -118.25195   0.23583037   -118.01612    4386.5868      4.33344      4.33344      4.33344    4386.5868    2638.5061    1072.5911    9448.6631     -141.496    2106.0035    528.34079    81.376381 
     500    252.73781   -118.22468   0.22868248     -117.996   -2732.3125    4.3358139    4.3358139    4.3358139   -2732.3125   -2193.9366   -6657.4755    654.47467    -1660.463     481.1568    2355.5777    81.510188 
     600    216.06131   -118.18118   0.19549681   -117.98569   -7341.0923    4.3409276    4.3409276    4.3409276   -7341.0923   -4986.0653   -10549.103    -6488.109    1859.4634   -1879.9642    2075.9071    81.798929 
     700    328.95072   -118.28072   0.29764152   -117.98308   -317.31721    4.3356652    4.3356652    4.3356652   -317.31721   -2799.3344   -5151.2233    6998.6061    188.17086   -1047.8305   -1493.8476    81.501803 
     800    262.48037   -118.22195   0.23749775   -117.98446    9880.3018    4.3282146    4.3282146    4.3282146    9880.3018    8785.1416    5391.5184    15464.245    2167.7634    2273.1097   -461.07004    81.082356 
     900    228.77583   -118.19218   0.20700118   -117.98518   -6762.9136    4.3427475    4.3427475    4.3427475   -6762.9136   -9528.5509   -15870.292    5110.1021    354.69847    -400.1322    1513.4517    81.901852 
    1000     227.1646   -118.19179   0.20554331   -117.98624   -2480.6583    4.3410382    4.3410382    4.3410382   -2480.6583   -7267.9073   -5846.7195    5672.6517   -1379.0536   -812.45192    2224.2784    81.805186 
    1100    303.14358    -118.2581   0.27429068   -117.98381    11662.489    4.3257202    4.3257202    4.3257202    11662.489     11501.98    8910.2683     14575.22    1746.8517   -1918.8703   -483.45032    80.942248 
    1200    256.24141   -118.21703   0.23185261   -117.98518    640.77405    4.3375835    4.3375835    4.3375835    640.77405   -1180.6271    -2933.023    6035.9722    177.99729    1825.4099    701.99384    81.610029 
    1300    218.49893   -118.18286   0.19770243   -117.98515   -10114.063    4.3446819    4.3446819    4.3446819   -10114.063   -10249.011   -9338.8184   -10754.359    766.47366    40.335012    -109.5305    82.011349 
    1400    236.55727   -118.20013   0.21404198   -117.98609    5061.1535    4.3312546    4.3312546    4.3312546    5061.1535    2158.1668    481.00301    12544.291   -1958.4285   -2544.1739    1421.4219    81.253326 
    1500    272.39524   -118.23098   0.24646893   -117.98451    7299.3409    4.3318778    4.3318778    4.3318778    7299.3409    4452.8664    3668.8699    13776.286   -207.22191   -1406.9997   -1281.5232    81.288403 
    1600    187.26197   -118.15484   0.16943856   -117.98541   -4241.0997    4.3418099    4.3418099    4.3418099   -4241.0997   -8041.3249    -8133.773    3451.7989    1701.3209   -1507.2203    880.40467    81.848816 
    1700    267.20252   -118.22779   0.24177046   -117.98602   -7309.4663    4.3390123    4.3390123    4.3390123   -7309.4663   -7892.8496   -10687.518   -3348.0317    110.38217    2651.2593    1049.1165    81.690707 
    1800     231.1516   -118.19428   0.20915082   -117.98513    9031.7056    4.3312611    4.3312611    4.3312611    9031.7056    5392.9424    3023.5195    18678.655    1188.3211   -967.12303   -277.41642    81.253689 
    1900    298.70797   -118.25586   0.27027725   -117.98558   -782.42752     4.335348     4.335348     4.335348   -782.42752    392.25795   -3217.3976    477.85708   -1418.6456   -1575.4998    1156.4825    81.483917 
    2000    174.98113   -118.14367    0.1583266   -117.98535   -3551.4873    4.3411956    4.3411956    4.3411956   -3551.4873   -8249.7568    -12378.41    9973.7047    696.52659   -1242.0874   -603.77809    81.814083 
    2100     213.7373    -118.1788     0.193394   -117.98541    1147.8096    4.3353702    4.3353702    4.3353702    1147.8096   -465.97185   -5133.1148    9042.5155    454.05584    680.23879    1978.7459    81.485168 
    2200    237.90103   -118.20008   0.21525785   -117.98482    4280.7492    4.3322678    4.3322678    4.3322678    4280.7492    715.42986   -878.20243     13005.02    590.99638    1600.3097   -3013.4649    81.310358 
    2300    221.15775   -118.18529   0.20010818   -117.98518   -2551.7698    4.3385659    4.3385659    4.3385659   -2551.7698    -1717.137   -6283.7789     345.6065    1801.5683   -2870.4781    556.33271    81.665497 
    2400    246.33293    -118.2084   0.22288721   -117.98551   -7453.9037    4.3386138    4.3386138    4.3386138   -7453.9037    -7585.727   -9398.6347   -5377.3494   -1952.3229   -1058.0211    2196.2456    81.668202 
    2500    196.15451   -118.16305   0.17748472   -117.98556    1746.4038     4.334484     4.334484     4.334484    1746.4038   -2052.0738    1718.6603    5572.6249     1180.022    783.00541    837.99107    81.435206 
    2600    234.20083   -118.19759   0.21190983   -117.98568    3288.9861    4.3343532    4.3343532    4.3343532    3288.9861    503.48471   -4067.3486    13430.822    1651.7455    1837.8424    724.73392    81.427835 
    2700    225.82273   -118.19076   0.20432915   -117.98643    422.96246    4.3366582    4.3366582    4.3366582    422.96246   -3891.5047    576.61731    4583.7748    568.93401   -2108.1823   -1099.7162    81.557816 
    2800    157.23429   -118.12909   0.14226889   -117.98682    1769.3977    4.3383535    4.3383535    4.3383535    1769.3977    -4522.144   -5704.9518    15535.289   -617.43944   -1979.6981    2169.0807    81.653502 
    2900    273.41387   -118.23278   0.24739061   -117.98539   -748.29101    4.3348167    4.3348167    4.3348167   -748.29101   -2884.9667   -3674.3038    4314.3976    -1669.547     1337.469   -1252.9303    81.453963 
    3000    203.01991   -118.16891   0.18369668   -117.98521    4565.5068    4.3344358    4.3344358    4.3344358    4565.5068    4679.4714    3652.0799    5364.9692     1528.737    2812.6774    283.86849    81.432492 
    3100    230.47949   -118.19353   0.20854269   -117.98498   -3652.3173    4.3387973    4.3387973    4.3387973   -3652.3173   -8854.0599   -9725.1498    7622.2577   -136.97129    -430.1948    171.04764    81.678563 
    3200    174.85927   -118.14409   0.15821634   -117.98587   -1422.7142    4.3364088    4.3364088    4.3364088   -1422.7142   -4080.2241    -5625.751    5437.8323    588.49373   -1560.4269    3090.0304    81.543743 
    3300    184.81797   -118.15276   0.16722719   -117.98553    1479.4841    4.3351325    4.3351325    4.3351325    1479.4841   -1008.5518   -4702.2259     10149.23    267.97794    1140.1517    1154.4893    81.471764 
    3400    252.64262   -118.21346   0.22859636   -117.98487   -2824.0567    4.3367491    4.3367491    4.3367491   -2824.0567   -4613.0464    -6009.726    2150.6022   -715.20766    1501.9341   -220.15611    81.562946 
    3500    161.54774   -118.13144   0.14617179   -117.98526   -694.93177    4.3362963    4.3362963    4.3362963   -694.93177    -1620.466   -8145.7783     7681.449    1110.1894   -696.78827    2948.8344    81.537397 
    3600    259.93175   -118.22059   0.23519171    -117.9854    -7323.396    4.3385724    4.3385724    4.3385724    -7323.396   -8942.5058   -8504.9142   -4522.7679    90.721585   -2371.8471   -38.246347    81.665861 
    3700    175.02512   -118.14487   0.15836641    -117.9865     3926.552    4.3346724    4.3346724    4.3346724     3926.552    1396.0792   -3826.1355    14209.712    2093.3381    2208.4064    187.00526    81.445826 
    3800    203.88623   -118.17072   0.18448054   -117.98624     4454.417    4.3333005    4.3333005    4.3333005     4454.417    688.50813   -1688.4914    14363.234   -439.69746    1879.8913   -930.51332    81.368518 
    3900    164.09384   -118.13437   0.14847555   -117.98589    -1277.241    4.3395155    4.3395155    4.3395155    -1277.241   -9591.0508   -7204.3247    12963.653   -1004.1479    470.42026    2987.8667    81.719129 
    4000    211.69878   -118.17675    0.1915495    -117.9852   -4486.0446    4.3373989    4.3373989    4.3373989   -4486.0446   -6445.9022   -5624.9593   -1387.2723    2058.6644   -2255.7703    323.97976    81.599614 
    4100    209.93523   -118.17522    0.1899538   -117.98527    4072.4285    4.3324857    4.3324857    4.3324857    4072.4285    2161.3958    1197.9263    8857.9635    -25.90108   -1288.7988    84.489697    81.322629 
    4200    207.35165   -118.17314   0.18761613   -117.98552   -480.19426    4.3371638    4.3371638    4.3371638   -480.19426   -5986.5748    277.03079    4268.9613    322.17374     1783.074    49.463131    81.586347 
    4300    171.38139   -118.14042   0.15506948   -117.98535   -6537.1395    4.3391835    4.3391835    4.3391835   -6537.1395   -11017.058   -9378.6678     784.3071   -872.56016   -12.029013    333.91288    81.700375 
    4400    179.80443    -118.1483   0.16269083   -117.98561    256.36503    4.3361207    4.3361207    4.3361207    256.36503   -1583.5301   -2325.7266    4678.3518    427.56277    1338.2918    867.48047     81.52749 
    4500    136.83209   -118.10874   0.12380855   -117.98493    9594.9134    4.3329627    4.3329627    4.3329627    9594.9134    3365.3306    3998.9827    21420.427    1178.8655   -909.25614   -1373.0991    81.349493 
    4600    242.69301   -118.20481   0.21959374   -117.98522   -6169.7016    4.3373466    4.3373466    4.3373466   -6169.7016   -7290.5863   -8953.3363    -2265.182   -440.29731    714.11834     3232.079    81.596661 
    4700    152.83842   -118.12458   0.13829141   -117.98629   -4656.8417    4.3417414    4.3417414    4.3417414   -4656.8417   -7421.3012   -8134.3907    1585.1668    1629.1837    32.771366    196.71433    81.844942 
    4800    232.35115   -118.19533    0.2102362   -117.98509    3198.9361     4.333047     4.333047     4.333047    3198.9361    1781.3015   -1861.3699    9676.8766   -845.20205   -894.25186   -215.71532    81.354239 
    4900    168.66652   -118.13801   0.15261301   -117.98539    5768.3294    4.3320056    4.3320056    4.3320056    5768.3294    1940.3579    18.298567    15346.332   -10.820357   -896.55232   -110.53512    81.295599 
    5000    161.76567   -118.13137   0.14636898     -117.985   -8378.8868    4.3434582    4.3434582    4.3434582   -8378.8868   -14035.974   -14479.672    3378.9858    408.84593    -318.3403     1287.133    81.942071 
    5100    183.61197   -118.15177   0.16613597   -117.98563   -3994.3169    4.3373672    4.3373672    4.3373672   -3994.3169   -8395.4043   -6554.1524    2966.6059     763.8528    2321.0067    745.21041    81.597823 
    5200    151.23213     -118.122   0.13683801   -117.98517    8824.8634    4.3295918    4.3295918    4.3295918    8824.8634    9743.1113    2729.1778    14002.301    2093.3121    1900.5008    -3470.427    81.159779 
    5300    241.86391    -118.2045   0.21884355   -117.98566   -8212.4208     4.339845     4.339845     4.339845   -8212.4208   -11974.532   -8293.6074   -4369.1234   -1581.9893   -882.50758    743.63261    81.737743 
    5400    138.65688   -118.11034   0.12545966   -117.98488   -6655.4832    4.3411882    4.3411882    4.3411882   -6655.4832   -9982.8249   -7544.4689   -2439.1557    1830.1635   -1684.1478    1391.5012    81.813663 
    5500    191.17919   -118.15827   0.17298295   -117.98529    4738.8817    4.3327936    4.3327936    4.3327936    4738.8817    972.70601   -2431.0491    15674.988    1243.6586   -710.91253    1500.3518    81.339968 
    5600    161.53772   -118.13226   0.14616272   -117.98609    7798.1079     4.332494     4.332494     4.332494    7798.1079    1693.4126     3391.757    18309.154   -195.74133   -199.87978    -886.3912      81.3231 
    5700    171.09412    -118.1403   0.15480956   -117.98549    -5495.869    4.3408454    4.3408454    4.3408454    -5495.869   -12575.588   -6393.8617     2481.843    56.467794    781.55672    69.100131    81.794284 
    5800    222.29982   -118.18654   0.20114155    -117.9854   -6034.9556     4.340603     4.340603     4.340603   -6034.9556   -12074.939   -10998.531    4968.6026   -1362.9314    496.04041    823.42247     81.78058 
    5900    193.33509   -118.15927   0.17493366   -117.98433    7728.2216    4.3303698    4.3303698    4.3303698    7728.2216    9171.9725    6169.4731    7843.2191    1040.4742    2014.2556   -604.30449    81.203539 
    6000     183.8979   -118.15198   0.16639469   -117.98558   -219.54809     4.335618     4.335618     4.335618   -219.54809   -7623.6546   -2748.3605    9713.3708   -141.28206   -730.73071   -663.02487    81.499142 
    6100    179.28272    -118.1475   0.16221877   -117.98528   -10111.349     4.344817     4.344817     4.344817   -10111.349   -11074.672   -16050.679   -3208.6956    837.53305   -1744.7929    1459.8563       82.019 
    6200    130.31208   -118.10429   0.11790911   -117.98638    5742.4212    4.3337362    4.3337362    4.3337362    5742.4212   -1243.9144    279.18369    18191.994    1097.9669    -716.0293    1682.0507    81.393069 
    6300    203.81957   -118.16886   0.18442023   -117.98444    5956.0879     4.330669     4.330669     4.330669    5956.0879    7576.8929   -34.675406    10326.046   -489.64002    816.14324   -1000.2005    81.220374 
    6400    153.90705   -118.12422   0.13925833   -117.98496   -6237.6756    4.3423934    4.3423934    4.3423934   -6237.6756   -12239.799   -10467.214     3993.986    1000.0578    1154.1743    1488.5022    81.881819 
    6500    254.40337   -118.21502   0.23018952   -117.98483   -10385.645    4.3415413    4.3415413    4.3415413   -10385.645   -15104.364   -10974.741   -5077.8289    -379.9973   -1241.6794    916.87229    81.833629 
    6600    159.25335   -118.12885   0.14409578   -117.98476     9771.471    4.3305133    4.3305133    4.3305133     9771.471    6711.8709    1729.9904    20872.552    1588.6629    1334.9638   -100.05291    81.211614 
    6700    175.87748    -118.1451   0.15913764   -117.98597    1816.5823    4.3345449    4.3345449    4.3345449    1816.5823   -5355.1873   -3654.4389    14459.373   -591.58887    594.40884   -1742.8992    81.438643 
    6800    150.71761   -118.12074   0.13637246   -117.98437   -8645.7469    4.3449135    4.3449135    4.3449135   -8645.7469   -15328.839   -14016.111    3407.7089   -841.49443    476.13108   -922.16516    82.024466 
    6900    213.55724   -118.17877   0.19323108   -117.98554   -1512.0803    4.3363161    4.3363161    4.3363161   -1512.0803   -7277.8101   -4192.0552    6933.6243    2144.5939   -2659.1105    1411.1512    81.538513 
    7000    148.30912   -118.11982   0.13419321   -117.98562    9273.3574    4.3281347    4.3281347    4.3281347    9273.3574    11409.778    2941.3063    13468.988   -571.09487   -35.018524    178.25019    81.077863 
    7100    208.17535   -118.17386   0.18836143    -117.9855   -10738.476    4.3433967    4.3433967    4.3433967   -10738.476   -15975.629   -7444.1575   -8795.6405    673.89461    2428.2063     1158.655    81.938592 
    7200    162.37866   -118.13186   0.14692363   -117.98493   -6357.6247    4.3424449    4.3424449    4.3424449   -6357.6247   -14990.321   -9356.1856    5273.6323   -263.57968    1732.2265   -214.24158    81.884735 
    7300    171.42574   -118.13913   0.15510961   -117.98402    9515.4816    4.3288587    4.3288587    4.3288587    9515.4816    5840.3339     5077.757    17628.354    52.186793      1287.38   -1123.0471    81.118559 
    7400    131.43905   -118.10406   0.11892882   -117.98513    4921.1331    4.3362834    4.3362834    4.3362834    4921.1331   -4989.5343    1540.8227    18212.111    325.44852   -1400.0319   -2855.8736    81.536669 
    7500     167.9243   -118.13669   0.15194143   -117.98474   -7746.9746    4.3431183    4.3431183    4.3431183   -7746.9746   -12457.344   -11934.028    1150.4482   -1044.6467   -901.34511    43.877039    81.922838 
    7600    222.85802   -118.18753   0.20164662   -117.98588   -1891.7665    4.3362755    4.3362755    4.3362755   -1891.7665   -7688.6128    -2213.254    4226.5673    992.44245    671.14394    1438.1245    81.536224 
    7700    155.19087   -118.12514   0.14041996   -117.98472    9116.6433    4.3322217    4.3322217    4.3322217    9116.6433    6788.8197    2571.4658    17989.645   -720.59337    1980.3435   -49.460393    81.307766 
    7800    183.65352   -118.15179   0.16617357   -117.98562   -5166.0811    4.3389639    4.3389639    4.3389639   -5166.0811   -7764.8066   -10772.604    3039.1676   -69.085056    442.22102   -875.88773     81.68797 
    7900    116.85816   -118.09172   0.10573572   -117.98598   -5815.8919    4.3423256    4.3423256    4.3423256   -5815.8919    -17164.96   -10502.463    10219.747   -407.99283    1023.2956    -325.5347    81.877986 
    8000    176.29652   -118.14492   0.15951679    -117.9854    3077.0016    4.3338651    4.3338651    4.3338651    3077.0016    -2291.236   -3169.9776    14692.218    454.13153   -455.20501    674.28458    81.400331 
    8100    148.61536   -118.11993    0.1344703   -117.98546    3297.9032    4.3329988    4.3329988    4.3329988    3297.9032    162.92925    -1064.969    10795.749    1206.7129     1942.311   -3147.1645    81.351529 
    8200    188.39197   -118.15522   0.17046102   -117.98476   -11853.192    4.3432449    4.3432449    4.3432449   -11853.192   -17059.503   -12123.699   -6376.3754   -1130.5128   -593.37566   -1402.4638    81.930002 
    8300    158.43759   -118.12833   0.14335766   -117.98498     -2559.37    4.3382514    4.3382514    4.3382514     -2559.37   -12029.346   -2985.4418    7336.6782    1054.3691   -1414.1579    716.74313    81.647735 
    8400     174.8973   -118.14313   0.15825075   -117.98488    6714.4765    4.3318131    4.3318131    4.3318131    6714.4765    2537.8953    2434.5472    15170.987   -724.14106    820.65577    2107.8586    81.284762 
    8500     107.2083   -118.08335  0.097004326   -117.98635    2337.1529     4.338159     4.338159     4.338159    2337.1529    -5146.471   -6039.6806     18197.61   -1340.0974    2188.3663    449.13641    81.642518 
    8600    151.45691   -118.12285   0.13704139   -117.98581   -5723.0795    4.3407319    4.3407319    4.3407319   -5723.0795   -13883.451   -4426.9397    1141.1525   -156.02151    2211.7642   -5.8047008     81.78787 
    8700    160.92413   -118.13088   0.14560754   -117.98527    2779.1165    4.3354075    4.3354075    4.3354075    2779.1165   -2413.5854   -4027.7673    14778.702   -524.63493   -1870.5004   -356.13939    81.487273 
    8800    241.06408   -118.20289   0.21811985   -117.98477   -40.852875     4.334423     4.334423     4.334423   -40.852875   -1070.8179   -138.11272     1086.372    774.19652   -264.67299   -1548.2016    81.431769 
    8900     114.9553   -118.09056   0.10401397   -117.98655   -2665.5898    4.3391423    4.3391423    4.3391423   -2665.5898   -7380.7106   -6303.7759    5687.7172   -565.84121    -1138.067   -1572.6957    81.698049 
    9000    175.01064   -118.14425   0.15835331   -117.98589   -5444.0789    4.3397845    4.3397845    4.3397845   -5444.0789   -13179.154   -9465.0299    6311.9474    580.95873    1341.2897    46.004663    81.734329 
    9100    133.38611   -118.10598   0.12069056   -117.98529    5632.3572    4.3342761    4.3342761    4.3342761    5632.3572   -4418.1011    288.09672    21027.076    873.76803   -438.00349    3247.1125     81.42349 
    9200    155.70954   -118.12587   0.14088927   -117.98498    875.19846    4.3369341    4.3369341    4.3369341    875.19846    940.06444   -3585.9026    5271.4335   -706.67886    450.03469    146.47989    81.573385 
    9300    159.01781   -118.12893   0.14388265   -117.98505   -4518.7403    4.3392997    4.3392997    4.3392997   -4518.7403   -12670.476   -6740.1416    5854.3966   -619.73715    1192.9306    370.57003    81.706939 
    9400    161.68312    -118.1315   0.14629428   -117.98521   -516.56165    4.3365598    4.3365598    4.3365598   -516.56165   -5949.4148   -199.35507    4599.0849   -1762.2262   -494.56247    288.08754    81.552262 
    9500    179.98861   -118.14809   0.16285748   -117.98523     739.5208    4.3376764    4.3376764    4.3376764     739.5208   -5123.2793   -3880.4766    11222.318   -492.48762   -764.83269   -1263.4855    81.615273 
    9600    104.86052   -118.08064  0.094880001   -117.98576    2785.7942     4.336333     4.336333     4.336333    2785.7942   -3434.3686   -3208.7546    15000.506   -587.79642   -1647.9025   -1379.4695    81.539469 
    9700    132.74535   -118.10548   0.12011078   -117.98537   -1661.5044    4.3369541    4.3369541    4.3369541   -1661.5044   -12199.544   -4946.3179    12161.349    325.06784    551.93485   -1874.7782     81.57451 
    9800    223.74121   -118.18762   0.20244574   -117.98517   -6513.5107    4.3403807    4.3403807    4.3403807   -6513.5107   -13873.514   -7828.6785    2161.6605    1296.4371     246.7377    556.80618    81.768015 
    9900    143.65319   -118.11657   0.12998043   -117.98659    1514.6398    4.3350744    4.3350744    4.3350744    1514.6398    1766.5962   -2842.3627    5619.6857   -1063.9362    2027.5005    608.99143    81.468491 
   10000    214.88167   -118.18046   0.19442945   -117.98603   -3774.0586    4.3354217    4.3354217    4.3354217   -3774.0586   -7904.7991    -3349.084   -68.292668   -33.010994   -129.04176    -171.2148    81.488069 
   10100    111.45326   -118.08713   0.10084525   -117.98629   -354.87834     4.340098     4.340098     4.340098   -354.87834   -7662.3197   -5354.9573    11952.642   -183.03104    1058.3688    421.22818    81.752041 
   10200     179.2935   -118.14703   0.16222853    -117.9848   -976.87894    4.3376228    4.3376228    4.3376228   -976.87894   -7976.1974   -5121.3936    10166.954   -347.20259   -1224.8967   -1447.5356     81.61225 
   10300    120.53886    -118.0945   0.10906609   -117.98543    7111.3075    4.3347973    4.3347973    4.3347973    7111.3075    2583.2949    2889.5026    15861.125   -940.20133   -294.11429   -2880.6562    81.452869 
   10400    134.04181   -118.10714   0.12128384   -117.98586    2417.8044    4.3360804    4.3360804    4.3360804    2417.8044   -5555.6379    300.41465    12508.637   -1600.5339   -294.84617   -719.27985     81.52522 
   10500     215.7074    -118.1799   0.19517659   -117.98473   -8042.9081    4.3399782    4.3399782    4.3399782   -8042.9081   -16008.522   -3841.9037   -4278.2989    740.55232    974.15277     305.3837    81.745271 
   10600     142.3901   -118.11447   0.12883755   -117.98563    561.23102    4.3395789    4.3395789    4.3395789    561.23102   -4508.3321   -2419.5444    8611.5696    491.95552    2240.0737    1060.8117    81.722712 
   10700    175.84404    -118.1438   0.15910738    -117.9847    3698.0432    4.3322281    4.3322281    4.3322281    3698.0432    -1441.783    326.72171    12209.191    305.15624    47.993103   -304.78051    81.308127 
   10800    99.824709   -118.07674  0.090323494   -117.98641   -521.89982    4.3370752    4.3370752    4.3370752   -521.89982   -9663.2566   -5754.2833    13851.841    269.77221    642.63208    373.92572    81.581343 
   10900    190.42577   -118.15808   0.17230124   -117.98578   -10566.987    4.3450271    4.3450271    4.3450271   -10566.987   -18523.581   -11983.971   -1193.4085   -788.41809   -1978.5173    251.02064    82.030896 
   11000    172.95022   -118.14211   0.15648899   -117.98563    2943.1098    4.3331792    4.3331792    4.3331792    2943.1098    3705.9021   -905.62717    6029.0545   -405.28555    2046.9588   -2834.4009    81.361685 
   11100    173.35707   -118.14187   0.15685712   -117.98501     3377.555    4.3318183    4.3318183    4.3318183     3377.555   -878.26836    2056.6702    8954.2631   -717.89161    873.92829   -1742.0916    81.285055 
   11200    137.50838   -118.11035   0.12442047   -117.98593   -7012.6856    4.3440678    4.3440678    4.3440678   -7012.6856   -18113.773   -9564.2933    6640.0097    411.63377    1058.0489   -12.942488    81.976579 
   11300    197.42531   -118.16396   0.17863457   -117.98532   -2527.6513    4.3389653    4.3389653    4.3389653   -2527.6513   -6489.9316   -3258.3482    2165.3258   -696.75424   -198.65768    2495.7366    81.688048 
   11400    98.451765   -118.07443  0.089081226   -117.98535    14461.861    4.3302825    4.3302825    4.3302825    14461.861    4471.2071    6312.3039    32602.074   -1509.8504    403.26385    522.80581     81.19863 
   11500    183.81434   -118.15217   0.16631908   -117.98586   -2618.7752     4.337044     4.337044     4.337044   -2618.7752   -7013.8747   -869.22906    26.778199    533.42624    1199.0878   -749.46974    81.579583 
   11600    148.87353   -118.11867    0.1347039   -117.98396   -8278.9965    4.3432318    4.3432318    4.3432318   -8278.9965   -15906.067   -8720.3117   -210.61088    410.83689   -1894.6978    558.87752     81.92926 
   11700    253.78425    -118.2147   0.22962933   -117.98507   -1785.3578    4.3369007    4.3369007    4.3369007   -1785.3578   -2158.9174   -3231.9481    34.792205    136.62644    -477.3021   -602.47071    81.571496 
   11800     119.2652   -118.09442   0.10791366    -117.9865    9891.8011    4.3296781    4.3296781    4.3296781    9891.8011    6533.8181    4994.0471    18147.538   -569.06248    338.30439   -2192.1195     81.16463 
   11900    161.54346   -118.13329   0.14616792   -117.98712   -8099.6933    4.3411106    4.3411106    4.3411106   -8099.6933   -15120.798   -10267.991    1089.7092   -269.88713    2331.0061   -1320.4247    81.809275 
   12000    170.19745   -118.13934   0.15399823   -117.98534   -6860.0662    4.3447823    4.3447823    4.3447823   -6860.0662     -15704.6    -10098.68    5223.0815    908.38439   -733.89368     1590.334    82.017032 
   12100    216.88086   -118.18096   0.19623836   -117.98472    7951.6104    4.3305187    4.3305187    4.3305187    7951.6104    6400.4489     5993.827    11460.555    -403.3327   -506.25004    2122.2714    81.211914 
   12200    152.99166   -118.12439   0.13843007   -117.98596    4552.8051    4.3332796    4.3332796    4.3332796    4552.8051   -2872.5918    2162.5219    14368.485    129.94327   -464.23058    678.23943    81.367346 
   12300    203.16332   -118.16876   0.18382644   -117.98493   -12223.484    4.3454591    4.3454591    4.3454591   -12223.484   -18494.965   -10364.115    -7811.372   -11.673598    1428.7254   -1828.2004    82.055367 
   12400    172.71891   -118.14232    0.1562797   -117.98604    2319.9933     4.337904     4.337904     4.337904    2319.9933   -5667.5866   -1891.8958    14519.462   -851.81976   -1258.3438   -359.20679    81.628121 
   12500    173.31089    -118.1412   0.15681533   -117.98438    10405.074    4.3297986    4.3297986    4.3297986    10405.074    7674.5321    3782.4268    19758.263    63.214098   -1217.2652   -1557.9383    81.171407 
   12600    149.54516    -118.1211   0.13531161   -117.98579    -3970.887    4.3386326    4.3386326    4.3386326    -3970.887   -11963.965   -4622.1793    4673.4837    858.25674    1924.4185   -899.72554     81.66926 
   12700    232.23867    -118.1947   0.21013443   -117.98456   -12012.484    4.3446942    4.3446942    4.3446942   -12012.484   -13916.846   -13899.642   -8220.9643    351.85949    820.61567   -463.65517    82.012047 
   12800    215.54878   -118.18068   0.19503306   -117.98565    4919.5951     4.333605     4.333605     4.333605    4919.5951    1903.7885   -149.26202    13004.259    -1390.785    -577.3138    872.60406    81.385674 
   12900    204.40764   -118.17072   0.18495233   -117.98576    4781.1628     4.331132     4.331132     4.331132    4781.1628    3784.7679    2866.8804    7691.8401   -837.61875   -3134.2867    -96.51729    81.246422 
   13000    166.03835   -118.13602   0.15023499   -117.98578   -5942.1518    4.3429266    4.3429266    4.3429266   -5942.1518   -11778.177   -10313.851    4265.5729    815.22464     1052.246   -1662.7894    81.911988 
   13100     210.3058   -118.17575   0.19028911   -117.98546   -2480.2698    4.3402762    4.3402762    4.3402762   -2480.2698   -12345.737   -6167.8913    11072.819   -363.22509    1090.7578    -399.0701    81.762113 
   13200    198.80953   -118.16577   0.17988704   -117.98588    9636.0353    4.3311548    4.3311548    4.3311548    9636.0353    10561.197    4005.1315    14341.778   -228.11172    1454.0892   -1808.7031    81.247706 
   13300    200.10736   -118.16746   0.18106134   -117.98639    117.48964    4.3368279    4.3368279    4.3368279    117.48964   -7693.4434   -1043.3827    9089.2951    263.05429   -1695.1214    399.72688    81.567392 
   13400    206.48931   -118.17218   0.18683587   -117.98534   -8412.0637    4.3415033    4.3415033    4.3415033   -8412.0637   -11419.083   -9068.2454   -4748.8628    732.39496    1034.7391   -585.37383    81.831482 
   13500    207.31029   -118.17333   0.18757871   -117.98575    -15.92265    4.3380009    4.3380009    4.3380009    -15.92265    -5641.406   -2879.6023    8473.2403    728.28103    2368.1803    1415.1945    81.633591 
   13600    221.34908   -118.18494    0.2002813   -117.98465    4109.0602    4.3329868    4.3329868    4.3329868    4109.0602    1421.8802    -2445.686    13350.986   -201.77073    723.92105    857.52428    81.350853 
   13700    167.18859   -118.13763   0.15127575   -117.98635   -761.46344    4.3368875    4.3368875    4.3368875   -761.46344    -7134.413   -2547.6006    7397.6232    598.10219    347.97585   -2550.2823     81.57075 
   13800     251.0468   -118.21276   0.22715242    -117.9856   -8260.2576    4.3429669    4.3429669    4.3429669   -8260.2576   -14948.551   -11698.163    1865.9408   -1095.5835    -744.2705    305.24969    81.914266 
   13900    204.45392   -118.17019   0.18499421    -117.9852    4434.9198    4.3349689    4.3349689    4.3349689    4434.9198     3446.128   -1629.1151    11487.746   -1111.4285    1801.2164   -1590.1683    81.462543 
   14000    273.28742   -118.23198    0.2472762    -117.9847    892.29025    4.3334726    4.3334726    4.3334726    892.29025   -1917.1436      128.301    4465.7133    1237.7417     1904.099   -530.58418    81.378218 
   14100    118.26614   -118.09362   0.10700969   -117.98661    2329.0681    4.3401564    4.3401564    4.3401564    2329.0681   -5768.2062   -4664.4947    17419.905    463.00737    635.18415    688.75241    81.755341 
   14200    266.74775   -118.22781   0.24135897   -117.98646   -3888.6519     4.337361     4.337361     4.337361   -3888.6519   -7063.7145   -5250.1641    647.92293    32.563915   -3041.4257    1390.5861    81.597472 
   14300    169.98827   -118.14085   0.15380896   -117.98704    5524.8846    4.3361051    4.3361051    4.3361051    5524.8846    2772.6633   -2481.8931    16283.884   -440.87725    1298.3265    1263.0055    81.526612 
   14400    261.68029    -118.2222   0.23677383   -117.98543   -2762.4451     4.336517     4.336517     4.336517   -2762.4451   -2111.3198   -3359.9704   -2816.0451    363.50081    1462.6987   -1966.1934    81.549851 
   14500    186.96142   -118.15454   0.16916662   -117.98537     -1579.79    4.3361875    4.3361875    4.3361875     -1579.79   -7048.0351    -3793.666    6102.3311    382.27901     2256.264   -1852.2008    81.531258 
   14600    252.39717   -118.21383   0.22837426   -117.98545   -5292.1988     4.341043     4.341043     4.341043   -5292.1988   -5370.1587   -9560.2294   -946.20836    -1522.793   -1546.2243    1763.0236    81.805455 
   14700    228.96804   -118.19358   0.20717509   -117.98641    2073.2122    4.3354378    4.3354378    4.3354378    2073.2122   -1008.0961   -5582.7838    12810.517    431.08948   -545.28714    10.313343    81.488982 
   14800    190.46569   -118.15875   0.17233736   -117.98642    4637.4786    4.3335558    4.3335558    4.3335558    4637.4786   -1775.3514    2323.7561    13364.031    213.96462    2602.3733   -1149.7022    81.382906 
   14900     220.2498   -118.18486   0.19928665   -117.98557   -2256.8859    4.3402534    4.3402534    4.3402534   -2256.8859   -8770.4486   -7448.4312    9448.2219    372.42176    -536.5642    362.07257    81.760822 
   15000     266.4552   -118.22613   0.24109427   -117.98504   -3579.0654    4.3388492    4.3388492    4.3388492   -3579.0654   -4465.8552   -4481.4512   -1789.8898    662.18246   -171.15126    1569.5556    81.681493 
   15100    186.49242   -118.15525   0.16874226    -117.9865    4788.5558    4.3352301    4.3352301    4.3352301    4788.5558   -149.17796    -2267.659    16782.504    227.52814   -924.54661   -48.165543    81.477269 
   15200    242.62618   -118.20591   0.21953326   -117.98638    403.27471    4.3352008    4.3352008    4.3352008    403.27471    -5580.165    3847.9942     2941.995    652.07027    3903.6014   -3160.8191    81.475616 
   15300    165.69758   -118.13618   0.14992665   -117.98626   -1605.1989    4.3389071    4.3389071    4.3389071   -1605.1989   -7028.0245   -8276.6301    10489.058   -1780.9936   -360.47114    628.25227    81.684761 
   15400    260.54405   -118.22138   0.23574573   -117.98564   -7028.1147     4.341711     4.341711     4.341711   -7028.1147   -6697.0797   -10465.863    -3921.402    303.10355   -1489.1953    2287.8829    81.843225 
   15500    216.02097   -118.18027   0.19546032   -117.98481    5167.0017    4.3323427    4.3323427    4.3323427    5167.0017   -310.36285    1982.6618    13828.706    435.46466    223.43433    329.08371    81.314575 
   15600    239.31015   -118.20239   0.21653286   -117.98586    545.61171    4.3345375    4.3345375    4.3345375    545.61171   -239.52934   -22.885531      1899.25   -1288.1848     1391.704    155.86176    81.438222 
   15700    232.01661   -118.19562   0.20993351   -117.98568   -7852.8301    4.3449415    4.3449415    4.3449415   -7852.8301   -14081.303    -13411.26    3934.0736    477.62045    374.66551   -452.03577     82.02605 
   15800    191.99376   -118.15993   0.17371999   -117.98621    3965.8402    4.3362017    4.3362017    4.3362017    3965.8402    5299.7275   -3899.6343    10497.427   -49.277831   -1591.2371    1180.6697    81.532061 
   15900    213.11508   -118.17741     0.192831   -117.98458    9843.1183     4.330133     4.330133     4.330133    9843.1183     2322.243    7743.1433    19463.969    959.59918     2185.194   -623.42412    81.190218 
   16000    232.23987    -118.1959   0.21013552   -117.98576   -3847.4505    4.3403971    4.3403971    4.3403971   -3847.4505   -7802.6442   -6985.9541    3246.2469   -650.36141    2487.9905   -1118.0826    81.768944 
   16100    172.27576   -118.14252   0.15587873   -117.98664   -5418.4554    4.3422358    4.3422358    4.3422358   -5418.4554   -3907.9205    -9940.156   -2407.2897   -582.11701   -270.63556    3517.5432    81.872907 
   16200    304.00814   -118.26137   0.27507295    -117.9863   -1742.5523    4.3345052    4.3345052    4.3345052   -1742.5523   -2203.9323    -5462.556    2438.8315    1081.8861    -3096.721    569.90583    81.436405 
   16300    152.22383   -118.12421   0.13773532   -117.98647    8681.5138    4.3321973    4.3321973    4.3321973    8681.5138    4153.5666    6025.2916    15865.683    -668.0822    1216.5806    1069.2836    81.306391 
   16400    247.59516   -118.20859    0.2240293   -117.98456   -10967.777    4.3429289    4.3429289    4.3429289   -10967.777   -14584.621    -13752.97   -4565.7394    368.21569    2663.5949    194.54565     81.91212 
   16500    167.57079   -118.13755   0.15162158   -117.98593   -1967.4731    4.3414871    4.3414871    4.3414871   -1967.4731   -2462.1214   -11319.844    7879.5466   -408.04981    1406.8826    172.57165    81.830565 
   16600    245.75611   -118.20689   0.22236529   -117.98453    8344.1262    4.3296684    4.3296684    4.3296684    8344.1262    4193.5063    6968.8843    13869.988    267.83928   -399.56737    142.83787    81.164085 
   16700    218.82918   -118.18373   0.19800124   -117.98572    1688.2969    4.3367485    4.3367485    4.3367485    1688.2969    -2299.676    1658.5207     5706.046    136.36396   -110.75064   -1245.1806    81.562912 
   16800    163.13069   -118.13236   0.14760407   -117.98476   -6613.9232    4.3455139    4.3455139    4.3455139   -6613.9232   -9371.2825   -14017.105    3546.6184   -573.92076    1150.8068     3021.209     82.05847 
   16900    249.39814   -118.21086   0.22566068    -117.9852   -123.70541    4.3355483    4.3355483    4.3355483   -123.70541   -753.33481   -4464.0225    4846.2411    1222.8229   -828.61534    705.52082    81.495213 
   17000    154.86314   -118.12527   0.14012342   -117.98514    11821.623     4.331393     4.331393     4.331393    11821.623    5373.2952    4523.5295    25568.045   -1643.8127    519.34423    695.99338    81.261115 
   17100    221.83345   -118.18785   0.20071956   -117.98713   -7465.5209    4.3403913    4.3403913    4.3403913   -7465.5209   -9199.0981   -9995.2533   -3202.2113   -549.84016   -362.23215   -590.96292    81.768617 
   17200    196.61795   -118.16444   0.17790406   -117.98653   -9712.8642    4.3432243    4.3432243    4.3432243   -9712.8642   -5636.7013   -14731.652   -8770.2388    506.26356    2119.0675    1602.1738    81.928832 
   17300    248.40727   -118.20958   0.22476411   -117.98482    2914.3244    4.3337743    4.3337743    4.3337743    2914.3244    3331.6395   -4863.3763     10274.71   -758.86754     501.1104    164.83404    81.395216 
   17400    172.30018   -118.14163   0.15590082   -117.98573      7327.14    4.3325405    4.3325405    4.3325405      7327.14    2670.6284    5261.4676    14049.324    199.14056      334.227   -1738.1391    81.325715 
   17500    200.54485   -118.16631    0.1814572   -117.98485    -8163.972     4.344449     4.344449     4.344449    -8163.972   -7584.8201   -14453.293   -2453.8025   -1275.8879   -818.48646    2286.2701     81.99816 
   17600    143.68881   -118.11624   0.13001266   -117.98623    2029.2355    4.3393416    4.3393416    4.3393416    2029.2355   -1343.8373   -8024.9846    15456.528    1603.2941   -1360.8818    1758.1752    81.709305 
   17700    249.40673    -118.2101   0.22566845   -117.98443    7121.9723    4.3302998    4.3302998    4.3302998    7121.9723    7300.2892    3390.7065    10674.921    879.93198    2063.6736    1027.0991    81.199602 
   17800    172.37451   -118.14107   0.15596808    -117.9851     1828.487    4.3390884    4.3390884    4.3390884     1828.487   -1058.0317    -2098.266    8641.7587    -414.0632    779.90144   -2172.5579    81.695001 
   17900    271.41077    -118.2302   0.24557816   -117.98462   -12274.815    4.3436423    4.3436423    4.3436423   -12274.815   -10803.582   -17073.883   -8946.9797    138.36877   -108.90097    761.42835    81.952492 
   18000    137.59089   -118.11149   0.12449513     -117.987     4766.397    4.3350788    4.3350788    4.3350788     4766.397    3828.1466   -7345.0077    17816.052   -1062.3931   -321.15184    413.85472    81.468735 
   18100    240.40356   -118.20359    0.2175222   -117.98606    1700.4468    4.3351515    4.3351515    4.3351515    1700.4468   -1882.7625   -1272.0178    8256.1206    252.67996    1134.2616    533.43115    81.472839 
   18200    167.65002   -118.13771   0.15169326   -117.98602   -2403.2223    4.3399506    4.3399506    4.3399506   -2403.2223   -3208.2957   -9855.6192     5854.248   -1213.1924     968.0365   -117.39344    81.743713 
   18300    204.03813   -118.17004   0.18461799   -117.98542   -5266.7923    4.3409958    4.3409958    4.3409958   -5266.7923   -3120.6505   -9853.7219   -2826.0044      465.941   -2922.9926    2727.2637    81.802786 
   18400    209.82009   -118.17457   0.18984962   -117.98472    2978.4804    4.3352597    4.3352597    4.3352597    2978.4804     2093.016   -6038.8246     12881.25    17.381202   -112.49218    1314.2769    81.478939 
   18500    189.91741   -118.15722   0.17184126   -117.98538    5276.8786    4.3344442    4.3344442    4.3344442    5276.8786    5192.9929    3297.2331    7340.4099   -907.43801    2681.9605   -2473.7468    81.432965 
   18600    208.82027   -118.17426   0.18894497   -117.98532   -3156.2609     4.342001     4.342001     4.342001   -3156.2609   -8674.8086    -11893.07    11099.096     1876.702    1772.7456    375.62357    81.859623 
   18700    145.34007   -118.11746   0.13150675   -117.98596    1312.3096    4.3384921    4.3384921    4.3384921    1312.3096    1745.5547    -10904.15    13095.524   -381.72208   -1933.1624   -168.93917    81.661329 
   18800     226.9499   -118.19038   0.20534904   -117.98503    1441.7542    4.3334147    4.3334147    4.3334147    1441.7542   -111.41684   -5199.6987    9636.3781    -379.8849   -2945.2758    2639.7717    81.374952 
   18900     251.9076   -118.21313   0.22793129    -117.9852    -2857.444    4.3392785    4.3392785    4.3392785    -2857.444   -1188.7308   -6308.5974    -1075.004   -1235.5938    1594.0769   -791.92188    81.705741 
   19000    177.72508     -118.148   0.16080938   -117.98719   -3034.1464    4.3388306    4.3388306    4.3388306   -3034.1464   -2301.8854   -12314.429    5513.8755   -849.26157    1137.0721     2960.463    81.680442 
   19100    210.77152   -118.17774    0.1907105   -117.98703   -4396.7003    4.3378585    4.3378585    4.3378585   -4396.7003   -1287.3169   -12872.054     969.2697    1364.7594   -1089.5142    2292.5063    81.625554 
   19200    137.19569   -118.11041   0.12413755   -117.98627    5539.7094    4.3372765    4.3372765    4.3372765    5539.7094    2508.2683   -3656.2094    17767.069    50.823733    759.38701   -1247.2669    81.592704 
   19300    220.67798   -118.18463   0.19967407   -117.98495    1746.2875    4.3358985    4.3358985    4.3358985    1746.2875   -1585.0488   -2553.8781    9377.7894    1150.8091     1764.715    315.95089    81.514958 
   19400    170.70201   -118.13969   0.15445477   -117.98524   -1356.2958    4.3403675    4.3403675    4.3403675   -1356.2958    -512.7145   -11184.213    7628.0404    108.10837    906.26649   -380.36496    81.767272 
   19500    213.01451   -118.17832   0.19274001   -117.98558   -2925.0207    4.3387808    4.3387808    4.3387808   -2925.0207   -6093.7435   -7897.5803    5216.2619    38.064447   -1929.8614    2413.9331    81.677633 
   19600    210.69989   -118.17627   0.19064569   -117.98563    4133.8297    4.3339957    4.3339957    4.3339957    4133.8297    2662.8526   -140.90229    9879.5388   -17.476119    -2354.053    338.59567    81.407687 
   19700    183.21898   -118.15104   0.16578038   -117.98526    1424.1519    4.3395272    4.3395272    4.3395272    1424.1519   -4962.3844     -8527.75     17762.59   -1229.1797    1313.3662    2101.5163    81.719792 
   19800    175.50247    -118.1439   0.15879833    -117.9851   -4200.0645    4.3400924    4.3400924    4.3400924   -4200.0645   -4933.1761   -12865.275    5198.2571   -478.06713    64.322903    1688.0889    81.751727 
   19900    192.94809   -118.16023   0.17458348   -117.98565   -1053.9422    4.3364051    4.3364051    4.3364051   -1053.9422   -2.5647148   -11660.626    8501.3641   -2156.5768    1061.2121   -783.69188    81.543536 
   20000    195.42593   -118.16304   0.17682549   -117.98621    3497.2438    4.3365699    4.3365699    4.3365699    3497.2438    1873.5256    -590.1187    9208.3246    243.27149    9.9505341     -537.549    81.552835 
   20100    230.61642   -118.19484   0.20866658   -117.98617   -3993.2312    4.3378497    4.3378497    4.3378497   -3993.2312    864.43911   -10298.097   -2546.0361    1411.1336   -481.33031    946.06893    81.625055 
   20200    153.37479   -118.12486   0.13877673   -117.98608   -3675.7184    4.3404961    4.3404961    4.3404961   -3675.7184   -4811.8048   -13270.846     7055.496    155.57294   -756.83615    1896.7614    81.774542 
   20300    153.61334   -118.12478   0.13899258   -117.98578     4763.088     4.336726     4.336726     4.336726     4763.088    931.25546   -5611.4325    18969.441    619.58607   -2416.3285    253.43269    81.561643 
   20400    219.00086   -118.18343   0.19815658   -117.98527    5141.0679    4.3342676    4.3342676    4.3342676    5141.0679    2242.2235   -357.18253    13538.163   -918.67987    866.58966    2051.3483    81.423011 
   20500    158.20562   -118.12901   0.14314777   -117.98586   -2195.9742    4.3410913    4.3410913    4.3410913   -2195.9742   -4944.5002   -12734.926    11091.504    310.45208    515.76336    1463.6755    81.808187 
   20600    241.25488    -118.2037   0.21829249    -117.9854   -8652.0308    4.3402197    4.3402197    4.3402197   -8652.0308   -4640.2816   -13878.086   -7437.7249   -337.04602     1286.646    538.74094    81.758918 
   20700    161.39779   -118.13101   0.14603611   -117.98497    6530.2756    4.3341881    4.3341881    4.3341881    6530.2756    3472.5358   -979.69827    17097.989   -502.29552   -803.33832   -3362.9209    81.418533 
   20800    239.51928   -118.20164   0.21672207   -117.98491   -1676.7191    4.3376463    4.3376463    4.3376463   -1676.7191   -1291.1512   -9271.3826    5532.3765   -229.37593   -1792.6309   -215.74963    81.613578 
   20900    118.03676   -118.09365   0.10680214   -117.98684   -2993.2192    4.3413736    4.3413736    4.3413736   -2993.2192   -4577.0818   -15667.215    11264.639   -645.04348   -1792.3763    1550.7204    81.824146 
   21000    171.72658   -118.14236   0.15538182   -117.98698   -438.85672    4.3382719    4.3382719    4.3382719   -438.85672   -3493.5625   -10531.977     12708.97     701.0439   -1118.3577    473.91805    81.648896 
   21100    206.61692   -118.17251   0.18695133   -117.98556    5102.8237    4.3337867    4.3337867    4.3337867    5102.8237    5824.7817   -2122.4974    11606.187    459.42566    1029.2754    1273.1751    81.395913 
   21200    239.04191    -118.2014   0.21629014   -117.98511   -5022.3443    4.3402499    4.3402499    4.3402499   -5022.3443     -5023.15   -8465.9998   -1577.8831    416.25636   -537.25895    853.08469    81.760629 
   21300    129.56444   -118.10297   0.11723263   -117.98573   -2179.2786    4.3414357    4.3414357    4.3414357   -2179.2786   -6209.3837   -13324.286    12995.834   -801.77822    1886.6573    960.20392    81.827657 
   21400    228.91329   -118.19281   0.20712556   -117.98568    2203.6823     4.333916     4.333916     4.333916    2203.6823    1111.1246   -5069.9767    10569.899   -996.14688    1062.2844   -2744.4248    81.403197 
   21500    132.39541   -118.10588   0.11979415   -117.98609    7408.6319    4.3369541    4.3369541    4.3369541    7408.6319    1890.0724   -1555.4213    21891.245    409.32115    86.198472   -1285.0182    81.574509 
   21600    215.26589   -118.18033    0.1947771   -117.98555   -7557.6126    4.3416087    4.3416087    4.3416087   -7557.6126   -5012.5342   -15520.263   -2140.0408   -687.59696   -2787.4126    1052.0271     81.83744 
   21700    145.21999   -118.11722    0.1313981   -117.98582   -1292.3069    4.3371863    4.3371863    4.3371863   -1292.3069    1256.3125   -11329.302    6196.0686    178.10848    -1410.182    1844.1151    81.587615 
   21800    252.83678   -118.21358   0.22877203    -117.9848   -708.03132    4.3363124    4.3363124    4.3363124   -708.03132    6130.6451   -7419.0378   -835.70118   -399.44626    756.56338    790.64746    81.538307 
   21900    176.65394   -118.14706   0.15984019   -117.98722    699.87981    4.3373922    4.3373922    4.3373922    699.87981    -2641.746   -8745.5102    13486.896    635.88259    3620.3989    845.79152    81.599237 
   22000    142.37486   -118.11619   0.12882377   -117.98736    -2510.579    4.3407279    4.3407279    4.3407279    -2510.579   -902.42241   -15644.184    9014.8698    1149.5124   -1665.3839    1127.8369    81.787643 
   22100    172.10754    -118.1416   0.15572652   -117.98588    1467.2466    4.3373428    4.3373428    4.3373428    1467.2466   -5596.4494   -10094.865    20093.054   -272.70886    -415.4939   -1651.7211    81.596445 
   22200    218.21309   -118.18235   0.19744379    -117.9849    1879.5901    4.3349783    4.3349783    4.3349783    1879.5901    3496.1008   -3402.8772    5545.5466    554.66338   -542.97542   -1718.5164     81.46307 
   22300    195.60463   -118.16227   0.17698718   -117.98528   -3926.3303     4.341757     4.341757     4.341757   -3926.3303   -7570.4024   -11047.675    6839.0865   -269.90841   -927.70932   -554.50764    81.845826 
   22400    195.07491   -118.16216   0.17650788   -117.98565   -3913.6844    4.3389182    4.3389182    4.3389182   -3913.6844   -3892.9435    -8226.557    378.44733    -140.7751   -943.44897    2162.0538    81.685392 
   22500    127.58631   -118.10142   0.11544278   -117.98597    4966.9403     4.334513     4.334513     4.334513    4966.9403    3308.1877   -5135.2616    16727.895   -312.69284   -2755.8689    1293.7255    81.436842 
   22600    194.71406   -118.16125   0.17618137   -117.98507   -1214.9621     4.340533     4.340533     4.340533   -1214.9621   -4156.3977   -8702.5473    9214.0588   -689.07459    3808.7538     1684.463    81.776625 
   22700    102.31032   -118.07789  0.092572531   -117.98532    1647.1856    4.3390848    4.3390848    4.3390848    1647.1856    1177.3344   -8301.6149    12065.837   -396.34493   -97.357708    479.76222    81.694798 
   22800    263.26695   -118.22367   0.23820947   -117.98546   -5964.9398    4.3370805    4.3370805    4.3370805   -5964.9398   -4564.5528   -12101.504   -1228.7629   -699.71675   -1061.9862   -1223.8376    81.581645 
   22900    168.71024   -118.13925   0.15265257    -117.9866    2534.1746    4.3384686    4.3384686    4.3384686    2534.1746    7433.8578   -8714.0442    8882.7102    947.69079   -2832.2012   -1452.5973    81.659998 
   23000    249.81982   -118.21195   0.22604222   -117.98591   -3421.7196    4.3380449    4.3380449    4.3380449   -3421.7196   -5191.0659     -7942.33    2868.2371    378.05154    349.36506    115.01599    81.636075 
   23100    127.85819   -118.10188   0.11568878   -117.98619    2336.8509    4.3387924    4.3387924    4.3387924    2336.8509    1270.3752   -11004.225    16744.402    615.71273   -288.97708    1509.1139    81.678284 
   23200     169.3451   -118.13887   0.15322701   -117.98564    2377.3196    4.3369027    4.3369027    4.3369027    2377.3196    1270.5237   -8049.7741    13911.209    84.163083    -1239.246    910.92035    81.571612 
   23300    173.62777   -118.14278   0.15710206   -117.98568    1726.4247    4.3367697    4.3367697    4.3367697    1726.4247   -190.03742   -5602.4287     10971.74   -254.20374   -785.61043    1826.3442    81.564105 
   23400    182.30978   -118.15061   0.16495772   -117.98565   -2806.8501    4.3407826    4.3407826    4.3407826   -2806.8501    -2205.586   -7376.5615    1161.5972    1176.4176    688.09901    1219.8926    81.790734 
   23500     204.5044   -118.17017   0.18503988   -117.98513   -4078.2299    4.3375482    4.3375482    4.3375482   -4078.2299   -4126.4523   -7122.8047    -985.4328   -773.12357   -471.82383   -629.24358    81.608041 
   23600    145.08454   -118.11637   0.13127554    -117.9851    643.33277    4.3363428    4.3363428    4.3363428    643.33277    1034.8934   -6709.5136    7604.6184   -69.621639   -3598.6335   -2931.0775    81.540021 
   23700    174.78088    -118.1433   0.15814541   -117.98515   -1439.9263    4.3401338    4.3401338    4.3401338   -1439.9263    -5837.192   -11719.457     13236.87    268.22926    40.968192   -1030.4144    81.754065 
   23800    162.51644   -118.13352   0.14704829   -117.98647    529.02652    4.3377782    4.3377782    4.3377782    529.02652   -1414.9267   -7474.3961    10476.402    618.28421   -284.71263     1442.069    81.621019 
   23900    187.48848    -118.1561   0.16964351   -117.98646   -531.43851    4.3371577    4.3371577    4.3371577   -531.43851   -4459.2587   -8636.1793    11501.122    813.48763    1790.7777    429.17886       81.586 
   24000    216.44133   -118.18139   0.19584066   -117.98555   -2428.6298    4.3390589    4.3390589    4.3390589   -2428.6298    1390.4775   -12360.127    3683.7598   -198.03498   -1592.5242    303.03038    81.693337 
   24100    227.66653   -118.19109   0.20599746   -117.98509   -2495.9379    4.3389719    4.3389719    4.3389719   -2495.9379     -2962.82   -5543.4951    1018.5013    354.20689    1653.5301    1941.2249    81.688424 
   24200    141.22413   -118.11352   0.12778256   -117.98573    3107.3963     4.337782     4.337782     4.337782    3107.3963   -2657.9545   -5244.4382    17224.582   -1037.3541   -792.55645    142.93233    81.621238 
   24300    172.78201   -118.14261   0.15633679   -117.98627    666.21882    4.3366129    4.3366129    4.3366129    666.21882    416.25825   -7627.1285    9209.5267   -271.49595    698.71699   -2340.5899     81.55526 
   24400    124.01369   -118.09858   0.11221019   -117.98637    2386.1166    4.3389536    4.3389536    4.3389536    2386.1166    969.01422   -6477.6799    12667.016     700.4229    1030.6091   -2501.3053    81.687387 
   24500    238.11992   -118.20077   0.21545591   -117.98531   -4108.0575    4.3387947    4.3387947    4.3387947   -4108.0575   -5479.2005   -6874.0261    29.054272    332.36225   -1661.0601    924.92146    81.678415 
   24600    151.84728   -118.12288   0.13739461   -117.98548    1146.8209    4.3362151    4.3362151    4.3362151    1146.8209    4661.6205   -5075.6157    3854.4579     668.6554    2192.3037    2691.0666    81.532819 
   24700    218.30436   -118.18333   0.19752637   -117.98581   -4386.7109    4.3390294    4.3390294    4.3390294   -4386.7109   -2340.0135    -11998.22    1178.1006    159.10243   -2137.7379   -681.08862    81.691672 
   24800    173.56442   -118.14384   0.15704474    -117.9868    382.66633    4.3376437    4.3376437    4.3376437    382.66633   -387.61231   -11794.907    13330.519    1789.8727    1526.1193    1015.6033    81.613429 
   24900    159.90702   -118.13135   0.14468723   -117.98666    2612.7541    4.3372275    4.3372275    4.3372275    2612.7541    275.84629    -6410.241    13972.657    122.14719   -2068.7427    579.97699     81.58994 
   25000    181.06066   -118.14947   0.16382749   -117.98564   -1223.0337    4.3386374    4.3386374    4.3386374   -1223.0337    -7308.594   -11105.975    14745.468   -831.09564    179.40203   -60.663472    81.669534 
   25100    203.21188   -118.16947   0.18387038    -117.9856   -2983.1699    4.3365097    4.3365097    4.3365097   -2983.1699    2023.7675   -9038.6389   -1934.6384    761.45495    -13.16818   -3004.6856    81.549437 
   25200    195.39246   -118.16283   0.17679521   -117.98603   -3206.5027    4.3396606    4.3396606    4.3396606   -3206.5027   -6970.4618   -10271.495    7622.4491    -272.8085    617.69181   -1057.1535    81.727328 
   25300    193.00489    -118.1606   0.17463488   -117.98596   -1988.5934    4.3390177    4.3390177    4.3390177   -1988.5934   -3131.9762   -3331.7582    497.95417    1073.7112    -1387.219    1635.0225    81.691008 
   25400     121.0153    -118.0956   0.10949719    -117.9861    3396.7375    4.3347434    4.3347434    4.3347434    3396.7375   -2045.3102    -5965.245    18200.768    589.32364   -3385.2488    1007.1432    81.449829 
   25500    172.96985   -118.14187   0.15650676   -117.98536    -1569.802    4.3400408    4.3400408    4.3400408    -1569.802    1492.0412   -10850.907    4649.4597    1129.6969    692.58821    775.32581    81.748811 
   25600    168.54509   -118.13742   0.15250314   -117.98492    480.24157    4.3392016    4.3392016    4.3392016    480.24157   -7159.4878   -4340.1721    12940.385    593.47719   -1013.4086     369.8355    81.701395 
   25700    235.66353   -118.19867   0.21323332   -117.98543   -681.96318    4.3360846    4.3360846    4.3360846   -681.96318    1726.7468   -5201.0509    1428.4146   -959.51894   -1257.2962   -344.57944    81.525454 
   25800    181.91129   -118.15077   0.16459716   -117.98617    368.74891    4.3386434    4.3386434    4.3386434    368.74891   -1321.1739   -8047.9279    10475.349    603.61058   -546.36152   -2355.5432    81.669873 
   25900    204.08004   -118.17006   0.18465591    -117.9854    -1147.729    4.3379817    4.3379817    4.3379817    -1147.729   -2641.7707   -10659.497    9858.0802    147.12661    1381.1521   -408.16534     81.63251 
   26000    137.64828   -118.11019   0.12454706   -117.98564    3402.2924    4.3383286    4.3383286    4.3383286    3402.2924   -2979.7759   -5769.0296    18955.683   -481.05136   -480.17316   -580.18208    81.652095 
   26100    238.91981   -118.20195   0.21617966   -117.98577   -3888.9406    4.3380976    4.3380976    4.3380976   -3888.9406   -5848.0872   -7904.9143    2086.1798   -319.02649   -2530.6281    2073.0089    81.639054 
   26200    102.88394   -118.08026  0.093091555   -117.98717    2881.9287    4.3347354    4.3347354    4.3347354    2881.9287    4340.9694   -7038.7923    11343.609    1279.4143   -2936.0979   -1324.0412     81.44938 
   26300      270.302    -118.2301   0.24457493   -117.98552    -10484.49     4.341883     4.341883     4.341883    -10484.49   -8860.1091   -13867.275   -8726.0871    1703.7535    1703.2654    983.29869     81.85295 
   26400    122.10252    -118.0963   0.11048093   -117.98582    2022.0611    4.3388425    4.3388425    4.3388425    2022.0611   -817.97234   -3008.6213    9892.7771    106.41877    200.67885   -368.57615    81.681116 
   26500    211.81794   -118.17655   0.19165733   -117.98489   -69.727404    4.3336578    4.3336578    4.3336578   -69.727404   -2505.8535   -4381.2793    6677.9506    1584.3896   -2349.1993   -3407.0463    81.388648 
   26600    91.229817   -118.06871  0.082546655   -117.98617    3166.9246     4.339194     4.339194     4.339194    3166.9246   -83.253225   -12029.609    21613.636     512.0799    1320.8361   -1086.3868    81.700968 
   26700    233.20756   -118.19678    0.2110111   -117.98577   -5144.8679    4.3410118    4.3410118    4.3410118   -5144.8679   -9009.6958   -8560.9142    2136.0063    -800.7055    687.94175   -1377.9109    81.803691 
   26800     204.1868   -118.17071   0.18475251   -117.98595    2138.4944    4.3359287    4.3359287    4.3359287    2138.4944   -2950.5623   -800.79483     10166.84    509.32268   -394.99495    2643.3337    81.516666 
   26900    221.37892   -118.18548    0.2003083   -117.98517   -273.04458    4.3362864    4.3362864    4.3362864   -273.04458   -398.94503   -8473.5841    8053.3954    690.10288   -3031.9007   -867.83439    81.536839 
   27000    166.56556   -118.13648   0.15071202   -117.98577   -2528.8009    4.3403114    4.3403114    4.3403114   -2528.8009    -4745.491   -8914.8207    6073.9091    449.12353   -151.19595    1372.8257    81.764101 
   27100    212.07608   -118.17758    0.1918909   -117.98569   -2869.7746    4.3404883    4.3404883    4.3404883   -2869.7746   -7747.5977   -7940.2518    7078.5257   -805.23164    3041.1019    -841.2912      81.7741 
   27200    130.13894   -118.10383   0.11775245   -117.98608     7103.432    4.3340548    4.3340548    4.3340548     7103.432    2199.8601   -213.70064    19324.137    582.10881    679.04092   -1495.7493    81.411022 
   27300    169.91446   -118.13943   0.15374217   -117.98569    -427.7653    4.3370709    4.3370709    4.3370709    -427.7653   -51.253665   -4664.9743     3432.932    1810.4677    454.22891   -1795.2161    81.581102 
   27400     204.8012   -118.17023   0.18530843   -117.98492   -6211.9419    4.3425359    4.3425359    4.3425359   -6211.9419   -5820.8183   -15183.954    2368.9467    270.23882   -637.35798   -217.10357    81.889883 
   27500     200.2433   -118.16621   0.18118435   -117.98502    1373.2293     4.336792     4.336792     4.336792    1373.2293   -997.53264    963.49026    4153.7304    103.24777     2.690943    2668.4461    81.565361 
   27600    187.07019   -118.15504   0.16926504   -117.98577    3031.5251    4.3350387    4.3350387    4.3350387    3031.5251   -3457.5817   -6195.9037    18748.061    530.80132   -1227.1933     165.4509    81.466478 
   27700    128.77715   -118.10365   0.11652027   -117.98713   -345.55434    4.3390405    4.3390405    4.3390405   -345.55434    -2717.804   -11737.796    13418.937    203.48927   -1464.0502    566.23414    81.692298 
   27800    239.54034   -118.20252   0.21674113   -117.98578   -6924.0147    4.3406066    4.3406066    4.3406066   -6924.0147   -10715.996   -13065.166    3009.1182   -273.86531      1165.58   -1039.1575    81.780787 
   27900    177.03616   -118.14552   0.16018604   -117.98533    2608.9409    4.3365441    4.3365441    4.3365441    2608.9409   -3952.7956   -1236.5949    13016.213    1003.7929    1187.1966    875.18795    81.551376 
   28000    217.45657   -118.18332   0.19675928   -117.98656   -2932.0553    4.3349097    4.3349097    4.3349097   -2932.0553   -3610.5693   -7175.2873    1989.6907    790.81506    210.01186   -3462.8404    81.459206 
   28100    168.09137   -118.13902    0.1520926   -117.98693   -5352.4656    4.3413893    4.3413893    4.3413893   -5352.4656   -3784.9988   -13403.272    1130.8742   -786.73806   -707.77195     327.1303    81.825033 
   28200    171.65281   -118.14174   0.15531507   -117.98643    249.34948    4.3399116    4.3399116    4.3399116    249.34948     -8661.12   -3885.2692    13294.438    81.973426   -2305.9614    294.96137     81.74151 
   28300    146.06623   -118.11792   0.13216379   -117.98575    7357.0343    4.3331207    4.3331207    4.3331207    7357.0343    2188.5193    907.36744    18975.216    2012.6391   -2093.0917    730.12014    81.358393 
   28400    185.90921   -118.15335   0.16821456   -117.98514   -744.58462    4.3390378    4.3390378    4.3390378   -744.58462   -2508.8748   -7124.1214    7399.2423    1127.4618   -182.52151   -13.718717    81.692145 
   28500    212.42748   -118.17737   0.19220884   -117.98516   -3646.2085    4.3407122    4.3407122    4.3407122   -3646.2085   -6012.1903   -8755.3682     3828.933   -321.77216    1446.0085   -1830.1321    81.786757 
   28600    216.81947   -118.18226   0.19618281   -117.98608    1300.6393    4.3362351    4.3362351    4.3362351    1300.6393   -2611.7092   -504.14167    7017.7687   -190.51177    1704.7203    993.55663    81.533948 
   28700    186.12593   -118.15447   0.16841066   -117.98606    1673.4744     4.338019     4.338019     4.338019    1673.4744   -7600.5811   -2278.7677    14899.772     253.5549    321.41362   -1744.4968    81.634616 
   28800    167.09224   -118.13705   0.15118857   -117.98586   -1203.6125    4.3383996    4.3383996    4.3383996   -1203.6125   -3440.6061   -9183.8718    9013.6405    538.75846    1134.8171    485.13199    81.656105 
   28900     165.8734   -118.13558   0.15008573   -117.98549   -811.11205    4.3389578    4.3389578    4.3389578   -811.11205   -7283.4406    -9264.812    14114.916   -351.97455   -683.77267   -785.07404    81.687625 
   29000    210.94909   -118.17675   0.19087117   -117.98588   -1140.3578    4.3386262    4.3386262    4.3386262   -1140.3578   -5478.5036    287.48991    1769.9402    148.09324   -2290.7322    1771.8602    81.668898 
   29100    199.41445   -118.16684   0.18043439   -117.98641   -1618.4203    4.3354729    4.3354729    4.3354729   -1618.4203    -1669.278   -7182.2241    3996.2411    351.10495    -574.0841   -1279.9972    81.490957 
   29200    173.90823   -118.14349   0.15735582   -117.98613   -2557.5398    4.3395799    4.3395799    4.3395799   -2557.5398   -1583.7594   -9095.9734    3007.1135    -400.8978    2204.6631     -1585.53     81.72277 
   29300    163.67819   -118.13361   0.14809946   -117.98551    1025.8141    4.3396599    4.3396599    4.3396599    1025.8141   -6278.6197   -9894.0506    19250.113    1994.6126    3178.6107    202.26643    81.727287 
   29400     175.8231   -118.14409   0.15908843     -117.985    3880.3736     4.335286     4.335286     4.335286    3880.3736   -1934.1842    1750.6718    11824.633    1499.6002   -466.25258    -941.6271    81.480419 
   29500    179.88948   -118.14827   0.16276778   -117.98551   -138.82465    4.3382249    4.3382249    4.3382249   -138.82465   -5468.7332   -10905.325    15957.584   -752.45578    414.63271    205.52504     81.64624 
   29600    199.35333    -118.1664   0.18037909   -117.98602   -3367.9163    4.3390272    4.3390272    4.3390272   -3367.9163   -3174.1396   -5575.7423   -1353.8669   -889.84035    803.56234   -416.65559    81.691546 
   29700    216.84029   -118.18196   0.19620165   -117.98576   -2711.6213    4.3384921    4.3384921    4.3384921   -2711.6213   -9916.0999   -1861.1174    3642.3534    135.50122    71.932581   -733.31425    81.661327 
   29800    228.02539   -118.19146   0.20632217   -117.98514   -1787.2649    4.3382069    4.3382069    4.3382069   -1787.2649   -6501.4581   -3739.3888    4879.0521    1423.7902   -1670.3024    12.136273    81.645226 
   29900    93.606487   -118.07123  0.084697116   -117.98653    5559.5738    4.3363435    4.3363435    4.3363435    5559.5738   -3231.4953    25.225779    19884.991   -286.38792    724.99562   -777.19736    81.540059 
   30000    217.57747    -118.1831   0.19686867   -117.98623   -4214.1785     4.340033     4.340033     4.340033   -4214.1785     -6317.94   -12103.033    5778.4372    186.04469    4213.0482   -325.70039    81.748367 
   30100    132.85964   -118.10657   0.12021419   -117.98636    3504.1063    4.3393685    4.3393685    4.3393685    3504.1063    -4147.644    2940.6194    11719.343    516.09181    479.09294    945.17712    81.710826 
   30200     272.6563   -118.23164   0.24670515   -117.98493   -2199.5363    4.3360558    4.3360558    4.3360558   -2199.5363   -1000.3493   -3661.4233   -1936.8361    395.13282   -514.04329   -1532.2168    81.523834 
   30300    131.63154   -118.10466   0.11910298   -117.98555    2798.5042    4.3380799    4.3380799    4.3380799    2798.5042    2755.2841   -6508.1885    12148.417    1210.0006   -1494.6982    1260.2792    81.638056 
   30400    231.73441   -118.19444   0.20967817   -117.98476   -5014.0089    4.3406365    4.3406365    4.3406365   -5014.0089   -9452.8009   -8392.2161    2802.9902   -894.27325    398.59814   -903.77215    81.782477 
   30500    135.41906   -118.10823   0.12253001    -117.9857    5183.2847    4.3375245    4.3375245    4.3375245    5183.2847   -3678.1656   -495.90796    19723.928   -306.34756   -1981.5049   -709.82934    81.606699 
   30600    185.19598   -118.15299   0.16756922   -117.98542    1624.4299    4.3359261    4.3359261    4.3359261    1624.4299   -4298.8507   -6253.9627    15426.103   -1270.2217   -831.80646    -1079.802    81.516519 
   30700    181.24168   -118.14946   0.16399128   -117.98547   -4299.2107    4.3389814    4.3389814    4.3389814   -4299.2107   -5971.2463   -7793.0603    866.67445    427.47553    1610.3785   -1549.1904    81.688959 
   30800    251.91552   -118.21275   0.22793846   -117.98481   -8385.8202    4.3416308    4.3416308    4.3416308   -8385.8202   -11286.534   -7613.6991   -6257.2273    2625.0441    2093.5576    1967.6033    81.838691 
   30900    177.95886   -118.14715   0.16102091   -117.98613      2898.96     4.335832     4.335832     4.335832      2898.96   -3890.3667   -288.45973    12875.706   -97.280842   -617.34733   -1073.3084    81.511211 
   31000     191.7389   -118.16058   0.17348939   -117.98709    1197.9097    4.3356613    4.3356613    4.3356613    1197.9097   -424.36027    -4221.558    8239.6473    379.28366   -2573.3386   -178.05835    81.501581 
   31100    124.12069   -118.09906   0.11230701   -117.98675    214.27541    4.3418085    4.3418085    4.3418085    214.27541   -6819.5131   -9564.8395    17027.179   -654.39336   -402.86372   -1244.5825    81.848739 
   31200     203.6088   -118.16967   0.18422952   -117.98544    50.934308    4.3386194    4.3386194    4.3386194    50.934308   -5399.7906   -2411.3681    7963.9616    883.42123   -1291.4004   -435.73187    81.668517 
   31300    193.38278   -118.15992    0.1749768   -117.98495    4977.7451     4.334963     4.334963     4.334963    4977.7451    557.31143    4114.2906    10261.633    168.60173    694.22959   -871.33832    81.462208 
   31400    211.30078   -118.17633   0.19118939   -117.98514    -2546.587     4.339285     4.339285     4.339285    -2546.587   -4244.8996   -4927.8872    1533.0259   -1728.9381    410.38826   -131.32287    81.706108 
   31500    208.92449   -118.17419   0.18903927   -117.98515   -5034.6491     4.340875     4.340875     4.340875   -5034.6491   -8546.5246   -7678.5257    1121.1029    646.11822    2453.4779    989.12317    81.795958 
   31600    142.63677   -118.11475   0.12906074   -117.98569    5120.1454    4.3378503    4.3378503    4.3378503    5120.1454   -7655.7386    5707.4445     17308.73   -477.47272    1552.3356    1458.6725     81.62509 
   31700    208.91522   -118.17371   0.18903088   -117.98468    918.12194    4.3359985    4.3359985    4.3359985    918.12194   -4433.8923   -6890.9297    14079.188     1603.648     437.7044   -434.50426      81.5206 
   31800    139.19417   -118.11128   0.12594581   -117.98533   -833.41652    4.3392828    4.3392828    4.3392828   -833.41652   -4281.2716   -5349.7117    7130.7337    1106.0993    458.73447   -750.75049    81.705985 
   31900    256.13474   -118.21769    0.2317561   -117.98593   -7124.0684    4.3417649    4.3417649    4.3417649   -7124.0684   -10180.651   -11735.522    543.96811    -398.5872   -1695.2387   -1068.9858    81.846273 
   32000    197.05294   -118.16454   0.17829764   -117.98624     2640.532      4.33517      4.33517      4.33517     2640.532    1496.8672    2601.7039    3823.0249   -233.99382    1005.8294   -1019.7768    81.473878 
   32100    194.73052   -118.16265   0.17619627   -117.98646   -189.23919    4.3369985    4.3369985    4.3369985   -189.23919   -3712.4633   -7189.2564    10334.002   -2197.1661    2829.2614    1099.5763    81.577019 
   32200    117.55495   -118.09266   0.10636619   -117.98629    769.77256     4.341668     4.341668     4.341668    769.77256    -6530.225   -7806.7664    16646.309    1453.0395    2930.7195    684.31207    81.840795 
   32300    191.72429   -118.15898   0.17347617   -117.98551     1585.348    4.3374719    4.3374719    4.3374719     1585.348   -4591.2425   -1846.5207    11193.807   -172.36174   -841.30294    3811.5189    81.603732 
   32400    186.27477    -118.1539   0.16854532   -117.98535    2917.9663    4.3364097    4.3364097    4.3364097    2917.9663   -5082.1264   -350.81956    14186.845   -637.10199    31.138046   -1.0903003    81.543796 
   32500    218.34639   -118.18299    0.1975644   -117.98542   -4455.4747    4.3391367    4.3391367    4.3391367   -4455.4747   -4088.2399   -4715.0191   -4563.1652    1079.7839    1352.6878   -530.47447    81.697731 
   32600    209.16004   -118.17414    0.1892524   -117.98489    -4471.596    4.3401596    4.3401596    4.3401596    -4471.596   -7996.8168   -10655.946     5237.975   -173.44615    375.92724   -1200.4884    81.755523 
   32700    208.73137   -118.17399   0.18886453   -117.98513    635.67656    4.3380023    4.3380023    4.3380023    635.67656   -5969.6416    296.85767    7579.8136    1956.8543   -1707.9246   -1552.3652    81.633674 
   32800    152.34423   -118.12399   0.13784426   -117.98614    4304.3986    4.3362011    4.3362011    4.3362011    4304.3986    -3773.282   -4205.1796    20891.657   -445.54168    1106.7795    1230.3271    81.532029 
   32900    158.67649   -118.13009   0.14357382   -117.98652   -87.376015    4.3399137    4.3399137    4.3399137   -87.376015   -4129.2833   -6150.2056    10017.361    186.25335    3916.4016    815.47155    81.741627 
   33000    209.22912   -118.17466    0.1893149   -117.98535   -1797.3801    4.3398976    4.3398976    4.3398976   -1797.3801    -6109.195   -5918.9666    6636.0213   -282.38534    2003.9703    2585.6806    81.740718 
   33100    221.24204    -118.1851   0.20018445   -117.98492    225.29612    4.3372594    4.3372594    4.3372594    225.29612    -3438.962    4246.3104      -131.46   -1817.0405   -1463.1531   -371.17752    81.591741 
   33200    166.03515   -118.13581   0.15023209   -117.98558    1224.3638     4.338187     4.338187     4.338187    1224.3638   -3017.1934   -4934.7484    11625.033    728.46646   -1643.1065   -846.53483    81.644099 
   33300    192.83364   -118.16002   0.17447993   -117.98554   -1401.3084    4.3384724    4.3384724    4.3384724   -1401.3084   -6706.3099   -3892.6239    6395.0085   -733.66329    1903.8392   -1753.4472    81.660212 
   33400    152.45037   -118.12372    0.1379403   -117.98578    1047.5074    4.3393329    4.3393329    4.3393329    1047.5074   -7139.2946    -7955.827    18237.644    1012.2605   -640.73125   -789.99415    81.708812 
   33500    203.12067   -118.16949   0.18378785    -117.9857   -1541.1622     4.338511     4.338511     4.338511   -1541.1622   -6612.7593   -2898.2866    4887.5592    -752.0943    222.76784     14.39082    81.662396 
   33600    190.74736   -118.15782   0.17259222   -117.98523   -1220.4494    4.3362727    4.3362727    4.3362727   -1220.4494   -4652.9527   -6586.1112    7577.7157    389.80814    1714.0382   -89.115188    81.536066 
   33700    247.27426   -118.20831   0.22373895   -117.98457   -6870.5173    4.3406357    4.3406357    4.3406357   -6870.5173    -5599.334   -9109.0708   -5903.1472    2108.5047    1818.8063     1965.514     81.78243 
   33800    190.13477   -118.15793   0.17203794   -117.98589   -1297.3381    4.3396234    4.3396234    4.3396234   -1297.3381   -7030.9355   -5524.0641    8662.9853   -1817.1085   -258.80132    368.52664    81.725227 
   33900    158.21412   -118.12955   0.14315546    -117.9864    4607.2041    4.3351104    4.3351104    4.3351104    4607.2041   -2358.7289     1530.004    14650.337    895.40292   -1997.0532   -2310.5991    81.470518 
   34000    140.81209    -118.1135   0.12740974   -117.98609    3997.9165    4.3378315    4.3378315    4.3378315    3997.9165   -1324.7727   -4613.4623    17931.984   -363.96194   -480.39741   -1844.4564    81.624032 
   34100    225.64944   -118.18935   0.20417235   -117.98518   -3798.4185    4.3400581    4.3400581    4.3400581   -3798.4185   -8177.3011   -7923.4469    4705.4927   -696.22716    165.88303    -1241.911    81.749785 
   34200    174.36279   -118.14358   0.15776712   -117.98582    174.41782    4.3385824    4.3385824    4.3385824    174.41782   -6560.5041    987.29757      6096.46    496.28444    2286.5767    114.55363    81.666426 
   34300    255.39033   -118.21631   0.23108253   -117.98523   -2488.8317    4.3368159    4.3368159    4.3368159   -2488.8317   -4643.6629   -6173.6598    3350.8277   -581.77077     410.9929    1940.5689    81.566712 
   34400    155.54643   -118.12691   0.14074168   -117.98617    1491.6741    4.3371418    4.3371418    4.3371418    1491.6741    -3276.803   -1183.2655    8935.0908    2279.4985    1485.4456    46.352732    81.585102 
   34500     205.5533   -118.17104   0.18598895   -117.98505   -5650.3726    4.3416346    4.3416346    4.3416346   -5650.3726   -12117.031   -13835.811    9001.7246   -1013.2975   -297.69159    1930.9562    81.838905 
   34600    127.22523    -118.1007   0.11511606   -117.98558    3067.0951    4.3383262    4.3383262    4.3383262    3067.0951   -3800.9013   -793.95772    13796.144    116.66728   -540.71027   -1871.9418     81.65196 
   34700    231.91744   -118.19495   0.20984377   -117.98511    1311.6952     4.334182     4.334182     4.334182    1311.6952    264.84335   -2233.5867     5903.829    650.60404    299.51409    -2330.698     81.41819 
   34800    192.89276    -118.1606   0.17453343   -117.98606   -2125.4079    4.3402966    4.3402966    4.3402966   -2125.4079   -6396.7576   -5531.9676    5552.5015   -1412.7809   -861.14044    590.77744    81.763263 
   34900    208.65018   -118.17444   0.18879107   -117.98565   -5040.6057    4.3417575    4.3417575    4.3417575   -5040.6057   -6018.9627   -9121.8441    18.989663    511.20742    1366.4769   -419.46008    81.845853 
   35000    187.36695   -118.15501   0.16953355   -117.98547    4163.9754    4.3349368    4.3349368    4.3349368    4163.9754    -4421.572    2683.0467    14230.451   -1408.6172    2157.1334     1357.726     81.46073 
   35100    149.97999   -118.12145   0.13570504   -117.98575    5637.2118    4.3352079    4.3352079    4.3352079    5637.2118    -1189.625   -3172.5074    21273.768     1421.569    2464.5188    -350.2696    81.476017 
   35200    202.96626   -118.16931   0.18364814   -117.98566   -6538.0504    4.3417293    4.3417293    4.3417293   -6538.0504   -9954.8861   -10691.864    1032.5984   -52.159498   -2432.5509    1048.8002     81.84426 
   35300    189.14709    -118.1571   0.17114427   -117.98596   -3516.4551    4.3402712    4.3402712    4.3402712   -3516.4551   -10291.794   -3926.3669    3668.7961    -192.2541   -1290.7578    1465.3115    81.761828 
   35400    238.82935   -118.20076   0.21609781   -117.98466    671.98664    4.3336275    4.3336275    4.3336275    671.98664   -1988.2766    1533.4085    2470.8281    2649.7473    926.87268   -1822.7848    81.386944 
   35500    156.66711   -118.12701   0.14175569   -117.98525    563.79262    4.3376885    4.3376885    4.3376885    563.79262   -2195.6364   -2616.4636    6503.4779   -1464.7665    1658.0298    -9.673571    81.615959 
   35600    187.82472   -118.15498   0.16994775   -117.98503   -6175.6298    4.3428309    4.3428309    4.3428309   -6175.6298   -12431.016   -10444.281    4348.4078      58.1925    1016.5464     719.0763    81.906575 
   35700    149.91574   -118.12194   0.13564691   -117.98629    4092.0299    4.3361582    4.3361582    4.3361582    4092.0299    -4307.397    1697.6863      14885.8   -515.76022     877.1802    1988.3223    81.529606 
   35800    210.10903   -118.17585   0.19011106   -117.98574    4354.6949     4.334819     4.334819     4.334819    4354.6949   -672.17662   -269.34117    14005.603    157.47229    2356.5203    760.89798     81.45409 
   35900    174.90811   -118.14399   0.15826054   -117.98573   -1533.5879     4.340188     4.340188     4.340188   -1533.5879   -7537.4889   -3923.8625    6860.5877    902.82456   -812.31036    -692.3388    81.757126 
   36000    269.56049   -118.22868     0.243904   -117.98478   -10003.371    4.3413529    4.3413529    4.3413529   -10003.371   -12397.345   -12432.621   -5180.1469   -1665.7912   -955.56831    893.99232    81.822977 
   36100    122.21886   -118.09677   0.11058619   -117.98618    7191.9545     4.336541     4.336541     4.336541    7191.9545   -3557.3832    4020.0914    21113.155    2136.6902   -1033.4507   -121.44211    81.551203 
   36200    245.80634   -118.20837   0.22241074   -117.98595   -363.32073    4.3348025    4.3348025    4.3348025   -363.32073   -5200.4185    -4067.178    8177.6344    -865.4465    3730.3058    715.72434    81.453164 
   36300    99.276341   -118.07607   0.08982732   -117.98624   -893.87664    4.3405334    4.3405334    4.3405334   -893.87664   -8270.4177   -6078.9801    11667.768    -445.6652    1418.5176    1624.1591    81.776648 
   36400    242.94257   -118.20505   0.21981954   -117.98523   -7117.4005    4.3419338    4.3419338    4.3419338   -7117.4005   -8053.4763   -8098.7493   -5199.9759    542.42384   -196.26248    193.92025    81.855827 
   36500    184.28125   -118.15124   0.16674155    -117.9845    5251.2727    4.3329859    4.3329859    4.3329859    5251.2727   -3180.8149    5978.8004    12955.832   -1293.7473    2255.0527    496.19556      81.3508 
   36600    205.78857   -118.17133   0.18620182   -117.98513   -1335.0939    4.3375984    4.3375984    4.3375984   -1335.0939    643.77247   -4059.0221   -590.03201    531.80215    575.74417   -488.00532     81.61087 
   36700    178.41066   -118.14769   0.16142971   -117.98626    -4352.344    4.3426104    4.3426104    4.3426104    -4352.344   -12039.592   -11539.741    10522.301   -1506.0973    -1464.925    902.73627    81.894099 
   36800    150.33928   -118.12248   0.13603014   -117.98645    5538.3236    4.3355006    4.3355006    4.3355006    5538.3236   -3823.3096    3907.0219    16531.259    1751.4329   -2083.3666    790.49608    81.492521 
   36900     221.7659   -118.18596   0.20065844    -117.9853    2578.6458    4.3359881    4.3359881    4.3359881    2578.6458   -4105.5134   -3484.1581    15325.609    874.62887    1628.5712    60.658101    81.520016 
   37000    210.71266   -118.17629   0.19065724   -117.98563   -3783.9339    4.3396583    4.3396583    4.3396583   -3783.9339   -8750.1634   -1596.7061   -1004.9324   -1103.1098     2147.274     1489.889    81.727196 
   37100    184.76296   -118.15343   0.16717741   -117.98625   -3811.5576    4.3390565    4.3390565    4.3390565   -3811.5576   -9215.5239   -7300.2526    5081.1037    1203.8939    1076.8371    868.77863    81.693201 
   37200    228.74859   -118.19276   0.20697654   -117.98578   -2177.2896    4.3390751    4.3390751    4.3390751   -2177.2896   -9477.9093   -189.45479    3135.4954   -1132.1478   -1793.1216   -1335.9789    81.694251 
   37300    133.57719    -118.1067   0.12086345   -117.98584    4568.3821    4.3356596    4.3356596    4.3356596    4568.3821   -3444.4351   -613.58349    17763.165    282.93009    264.15599   -990.46799    81.501488 
   37400    176.03331    -118.1445   0.15927864   -117.98522   -2167.9801    4.3383045    4.3383045    4.3383045   -2167.9801   -6039.1104    -5868.721     5403.891   -937.40633   -166.79784    293.43587    81.650734 
   37500    172.82253   -118.14145   0.15637345   -117.98507   -2613.2089    4.3417363    4.3417363    4.3417363   -2613.2089   -9611.2931    -9153.112    10924.779   -441.66725   -957.50388    1544.6743    81.844658 
   37600     234.5744   -118.19727   0.21224784   -117.98502   -690.12015    4.3364199    4.3364199    4.3364199   -690.12015   -4251.5569    1637.9053    543.29121    983.59735    488.42793   -99.919734    81.544369 
   37700    209.45397   -118.17542   0.18951836    -117.9859    366.77922    4.3366784    4.3366784    4.3366784    366.77922   -3893.3435   -5190.6778    10184.359   -1541.2246    970.13559   -386.00302    81.558955 
   37800    155.30683   -118.12676   0.14052488   -117.98624    161.05831    4.3401393    4.3401393    4.3401393    161.05831    -6435.227    -5789.714    12708.116      1761.71    1865.2359    1482.7854    81.754377 
   37900    191.09983   -118.15832   0.17291114   -117.98541   -928.03054    4.3389396    4.3389396    4.3389396   -928.03054   -10108.279   -3894.6333    11218.821    166.54894   -501.83492   -1424.5747    81.686598 
   38000    201.58915   -118.16793    0.1824021   -117.98553    884.16843    4.3373805    4.3373805    4.3373805    884.16843   -8535.8006   -61.855647    11250.162   -547.62842   -228.75237   -1207.9045    81.598575 
   38100    152.57965   -118.12485   0.13805728   -117.98679    2982.7027    4.3359354    4.3359354    4.3359354    2982.7027    1993.6728   -985.72266     7940.158   -77.779772   -2040.6138   -517.52028    81.517039 
   38200    252.04284   -118.21398   0.22805366   -117.98593   -7737.1641    4.3401978    4.3401978    4.3401978   -7737.1641   -11177.345   -5645.0321   -6389.1155   -1209.0236    577.63909    3280.2892    81.757682 
   38300    141.49684   -118.11425   0.12802931   -117.98622    776.37194     4.340603     4.340603     4.340603    776.37194   -5940.8915    -2172.422    10442.429    942.58246    1630.0405    1392.0177    81.780583 
   38400    221.46704   -118.18543   0.20038803   -117.98504    2430.0932    4.3347133    4.3347133    4.3347133    2430.0932   -2819.6754   -1981.2066    12091.162   -1435.6694    1188.4174   -882.84562    81.448136 
   38500    112.96453   -118.08802   0.10221268   -117.98581    6023.3871    4.3368196    4.3368196    4.3368196    6023.3871   -2808.9491    75.430432     20803.68    690.63611    418.13495    844.44705    81.566919 
   38600    223.79129   -118.18836   0.20249106   -117.98587   -6685.2923    4.3417302    4.3417302    4.3417302   -6685.2923   -9708.2766   -12941.115    2593.5147    1066.7539   -152.98153     -676.229    81.844309 
   38700    216.42108   -118.18188   0.19582235   -117.98606   -2524.8653    4.3386797    4.3386797    4.3386797   -2524.8653    -10251.99     1525.026    1152.3684   -264.34652     1499.314      168.649    81.671922 
   38800    196.89433   -118.16351   0.17815413   -117.98536    2843.5114    4.3355875    4.3355875    4.3355875    2843.5114   -2922.8012    -2241.157    13694.492    1409.2243   -1002.3657    -1012.364     81.49742 
   38900    191.45817   -118.15905   0.17323538   -117.98581   -2306.1725    4.3384076    4.3384076    4.3384076   -2306.1725   -8404.7868   -5045.1165    6531.3858   -768.57272   -1983.1159    3568.3157    81.656554 
   39000    133.13838    -118.1069    0.1204664   -117.98643   -2906.7544    4.3421179    4.3421179    4.3421179   -2906.7544   -13206.663   -6731.3268    11217.727    230.55473    940.35422    3632.3899    81.866236 
   39100    185.65251   -118.15435   0.16798229   -117.98637    1242.9331    4.3373651    4.3373651    4.3373651    1242.9331   -8282.0536   -1660.0887    13670.942   -1268.7806    3626.7121   -163.88808    81.597707 
   39200     183.5363   -118.15163    0.1660675   -117.98557    3795.3289    4.3338823    4.3338823    4.3338823    3795.3289    1082.2726    624.44153    9679.2725    -1459.206    1065.2237    1394.2051    81.401298 
   39300    218.98194   -118.18331   0.19813946   -117.98517   -7611.2535    4.3425585    4.3425585    4.3425585   -7611.2535   -8147.3693   -11370.406   -3315.9853    1061.5539   -1387.8986    133.21106    81.891162 
   39400    183.66616    -118.1513     0.166185   -117.98511   -2250.7874    4.3407582    4.3407582    4.3407582   -2250.7874   -11118.044   -5493.5969     9859.279   -1250.5843   -1036.7012   -84.006256    81.789353 
   39500    194.63851   -118.16124   0.17611302   -117.98513    6613.5937    4.3338533    4.3338533    4.3338533    6613.5937    210.65682    244.24909    19385.875    1213.7958    834.82823   -630.54557    81.399666 
   39600    148.67867   -118.12082   0.13452759   -117.98629    3723.2812    4.3379232    4.3379232    4.3379232    3723.2812   -2937.6499   -3480.2375    17587.731    311.08807   -374.16637    1800.7456    81.629205 
   39700    213.67896   -118.17894   0.19334121    -117.9856   -7049.6402    4.3417447    4.3417447    4.3417447   -7049.6402   -13676.737   -5883.1439   -1589.0402    265.31628   -1068.9761    3559.0726    81.845133 
   39800    169.97762    -118.1396   0.15379932    -117.9858    1503.1258    4.3384107    4.3384107    4.3384107    1503.1258   -4324.3736    1837.8419    6995.9092    221.06075    917.36531     991.2638    81.656728 
   39900    265.51517   -118.22512   0.24024371   -117.98488   -480.36468     4.335366     4.335366     4.335366   -480.36468   -5287.8283     3611.604    235.13026   -1354.9658    1467.3707   -1719.7625    81.484932 
   40000    127.29991   -118.10199   0.11518364   -117.98681    924.81073    4.3385818    4.3385818    4.3385818    924.81073   -4282.6163   -2634.1084    9691.1568    224.57979    107.45895    116.00056    81.666391 
   40100    180.95905   -118.15022   0.16373555   -117.98648   -5227.5475    4.3431459    4.3431459    4.3431459   -5227.5475   -13008.907   -10093.229    7419.4937   -1507.9732   -2127.0545   -18.329794      81.9244 
   40200    157.96815   -118.12882   0.14293291   -117.98588    4830.7092     4.336333     4.336333     4.336333    4830.7092   -6897.8082    1574.0509    19815.885    293.34622   -651.06545    326.30988    81.539468 
   40300    218.62849   -118.18277   0.19781965   -117.98495    1792.5081    4.3351857    4.3351857    4.3351857    1792.5081     697.4106   -3716.7576    8396.8712    575.11774   -436.33913    2347.5041    81.474765 
   40400    199.51657   -118.16553   0.18052679   -117.98501   -5623.2774    4.3426205    4.3426205    4.3426205   -5623.2774   -12745.097   -6806.2891    2681.5539   -58.812257    586.06666    1807.7097    81.894668 
   40500    213.45778   -118.17848   0.19314108   -117.98534   -3567.4339    4.3399363    4.3399363    4.3399363   -3567.4339   -11153.619   -4827.9478    5279.2647    766.44954    667.29033    596.88631    81.742903 
   40600    178.21342   -118.14647   0.16125125   -117.98522     5196.671    4.3348674    4.3348674    4.3348674     5196.671   -6891.3705    1284.7707    21196.613   -1085.7776    432.71404    -2851.865    81.456818 
   40700    153.00036    -118.1239   0.13843794   -117.98546    1735.6066     4.338584     4.338584     4.338584    1735.6066   -6848.9833   -2244.9133    14300.717    605.61413    594.45412    -144.5442    81.666519 
   40800    162.86504   -118.13256   0.14736371    -117.9852   -4078.5422    4.3410586    4.3410586    4.3410586   -4078.5422   -12556.141   -9207.1605    9527.6745   -907.81256   -859.41619    374.19384    81.806339 
   40900    244.49154    -118.2069   0.22122108   -117.98568   -4164.0733     4.338121     4.338121     4.338121   -4164.0733   -10736.127    250.88006    -2006.973   -1605.9092   -940.88999   -323.27204    81.640373 
   41000    196.46266   -118.16455   0.17776354   -117.98678    2021.5846    4.3356746    4.3356746    4.3356746    2021.5846    -1601.558   -2217.0876    9883.3995    279.83399   -1154.4585    578.22085    81.502333 
   41100    183.69743   -118.15319    0.1662133   -117.98698   -1186.1513    4.3391156    4.3391156    4.3391156   -1186.1513   -5821.4285   -1730.2017    3993.1763    -1322.642    263.53359    2061.4489    81.696542 
   41200    165.31129   -118.13592   0.14957713   -117.98635    88.675615    4.3399335    4.3399335    4.3399335    88.675615   -9163.8233   -8522.5326    17952.383    287.90062    1922.8022    1762.9592    81.742748 
   41300    180.91207   -118.14952   0.16369304   -117.98583    3794.8571    4.3367213    4.3367213    4.3367213    3794.8571   -3472.1189    1655.7299     13200.96  -0.22396147    1161.8898   -2774.8634    81.561373 
   41400    196.51038   -118.16327   0.17780673   -117.98546    2636.7653    4.3370206    4.3370206    4.3370206    2636.7653   -5322.4057   -100.83993    13333.542    415.25021   -1416.8365   -857.84294    81.578261 
   41500    218.08889    -118.1829   0.19733141   -117.98557   -2632.8682    4.3392565    4.3392565    4.3392565   -2632.8682   -5774.7304   -3599.1548    1475.2807    40.847693   -594.19251    1238.3601    81.704497 
   41600    185.00276   -118.15324   0.16739439   -117.98585   -2095.3558    4.3397479    4.3397479    4.3397479   -2095.3558   -12111.461   -844.15537    6669.5494   -905.35051   -752.91949    1428.0652    81.732261 
   41700    202.03528   -118.16822   0.18280577   -117.98542   -11.071008    4.3375226    4.3375226    4.3375226   -11.071008    -9025.599   -4120.3105    13112.696    560.78337    506.91578    -265.0379    81.606596 
   41800    113.79036   -118.08895   0.10295991   -117.98599    5285.4749    4.3366165    4.3366165    4.3366165    5285.4749   -5115.5903    2002.1751     18969.84   -1111.8339   -7.9078057    130.70285    81.555463 
   41900    251.20078   -118.21302   0.22729174   -117.98573    -7102.233    4.3404534    4.3404534    4.3404534    -7102.233   -11882.048   -10083.608    658.95699   -310.15539    556.56976      1933.17    81.772125 
   42000    148.57699   -118.12133   0.13443559    -117.9869   -13.919682    4.3389885    4.3389885    4.3389885   -13.919682   -10487.879    576.10679    9870.0136   -742.69196    2082.3825   -1327.2412    81.689361 
   42100    258.14562   -118.21944   0.23357558   -117.98587   -3155.2057    4.3365558    4.3365558    4.3365558   -3155.2057   -6347.1652   -3194.6267    76.174645   -421.74908   -460.76274   -1609.0509    81.552038 
   42200    147.75047   -118.12013   0.13368773   -117.98644    2862.1853    4.3381697    4.3381697    4.3381697    2862.1853   -5001.5669     -1567.34    15155.463    736.69097   -2112.0706    1344.6142    81.643123 
   42300     165.3998   -118.13571   0.14965721   -117.98605    233.27147    4.3387939    4.3387939    4.3387939    233.27147   -10698.886   -4447.3149    15846.016   -769.04478   -1339.1611    1874.5853    81.678372 
   42400     189.1615   -118.15717    0.1711573   -117.98601   -59.964943    4.3383539    4.3383539    4.3383539   -59.964943   -9290.9474   -2675.2048    11786.257    683.04522    579.81466   -581.91026    81.653521 
   42500    196.65933   -118.16359   0.17794149   -117.98564    540.31398    4.3380198    4.3380198    4.3380198    540.31398   -6770.0706    -1380.648    9771.6605   -704.05246    552.03031   -810.05666    81.634658 
   42600    236.07096   -118.19903   0.21360197   -117.98542   -3014.9536    4.3369652    4.3369652    4.3369652   -3014.9536   -7768.3745   -1354.5305    78.044347   -928.00078   -92.285512    576.99198    81.575137 
   42700    176.39274   -118.14513   0.15960386   -117.98553   -2100.5953    4.3401668    4.3401668    4.3401668   -2100.5953   -10705.469   -5405.9767    9809.6604    548.15028    1140.6435    1229.9457    81.755929 
   42800    180.74363   -118.14918   0.16354063   -117.98564    414.03446    4.3386299    4.3386299    4.3386299    414.03446   -8960.9782   -2792.9701    12996.052   -1106.2522    -36.11991   -1713.9683    81.669111 
   42900    186.34453   -118.15515   0.16860844   -117.98655    3184.0432     4.335001     4.335001     4.335001    3184.0432   -4338.5503    -244.7577    14135.437    72.229092   -1975.4172    997.37377     81.46435 
   43000    176.25151   -118.14627   0.15947607    -117.9868   -342.56697    4.3399247    4.3399247    4.3399247   -342.56697   -6891.6439   -4256.4916    10120.435   -170.86647   -1680.8477    851.11684    81.742247 
   43100    215.36703   -118.18062   0.19486862   -117.98575   -3226.5173     4.339894     4.339894     4.339894   -3226.5173   -9595.8108   -2345.9622     2262.221    596.79884     980.8361   -36.488815    81.740515 
   43200    234.53269   -118.19754   0.21221011   -117.98533   -507.42359     4.336393     4.336393     4.336393   -507.42359   -5084.3475   -1591.4548    5153.5316    894.77071    1230.1577    -1401.535    81.542851 
   43300     108.1951   -118.08396  0.097897202   -117.98606    6528.9434    4.3375243    4.3375243    4.3375243    6528.9434    -3448.901    849.44514    22186.286    -685.5899    300.26851   -542.81047    81.606692 
   43400    238.00154   -118.20112   0.21534879   -117.98577   -3954.0968    4.3386378    4.3386378    4.3386378   -3954.0968   -9041.3718   -8247.9014    5426.9829    85.587278    -205.2665    1581.6938    81.669553 
   43500    130.87494   -118.10486    0.1184184   -117.98644    2409.9337    4.3387248    4.3387248    4.3387248    2409.9337   -9891.9951    1489.8921    15631.904   -1252.6325   -176.32913   -1230.1674     81.67447 
   43600    290.88946   -118.24877    0.2632029   -117.98557   -6310.3296    4.3381533    4.3381533    4.3381533   -6310.3296   -8093.9938   -7011.5847   -3825.4102    249.01303   -396.33893    646.28152    81.642199 
   43700    138.76718   -118.11184   0.12555946   -117.98628    2618.7937    4.3364828    4.3364828    4.3364828    2618.7937   -7639.2188    4991.4037    10504.196   -427.28401   -2747.9471    1509.7364    81.547919 
   43800     237.8003   -118.20098   0.21516671   -117.98581    -5154.048    4.3402124    4.3402124    4.3402124    -5154.048   -12653.358    -7060.192    4251.4062   -337.63317   -596.60963   -1038.8948    81.758506 
   43900    167.41891   -118.13823   0.15148415   -117.98675    602.17574    4.3388536    4.3388536    4.3388536    602.17574    -10558.64   -1838.5539    14203.721    877.24933    1396.8175   -2343.1337    81.681742 
   44000     140.8276   -118.11416   0.12742378   -117.98673    5192.0353    4.3357255    4.3357255    4.3357255    5192.0353   -4394.7042    2759.2542    17211.556   -920.50513    1455.4563   -1050.4147    81.505202 
   44100    229.43725   -118.19326   0.20759965   -117.98566   -2300.0298    4.3387877    4.3387877    4.3387877   -2300.0298   -9067.0696   -5613.0841    7780.0644     1275.664    240.50677    1619.0486    81.678021 
   44200    220.70744   -118.18493   0.19970073   -117.98523   -4008.2825    4.3402061    4.3402061    4.3402061   -4008.2825   -7978.1984   -636.65006   -3409.9991    156.28231   -1127.3961  -0.64508499    81.758151 
   44300     191.3762   -118.15921   0.17316121   -117.98605   -206.68808    4.3378619    4.3378619    4.3378619   -206.68808   -7934.1933   -7250.3059    14564.435   -908.38902   -496.91539   -1880.8228    81.625745 
   44400    164.28338   -118.13532   0.14864706   -117.98668    3043.8268    4.3366276    4.3366276    4.3366276    3043.8268   -5108.0178    1561.5507    12677.948    347.63382   -1121.5817    958.35961    81.556089 
   44500    170.46007   -118.14022   0.15423586   -117.98599    181.81157    4.3393918    4.3393918    4.3393918    181.81157   -7126.5612   -7555.2866    15227.283   -656.00162    276.35986   -627.89897    81.712139 
   44600    228.64709   -118.19219   0.20688469    -117.9853   -3562.2269    4.3400516    4.3400516    4.3400516   -3562.2269   -11048.987   -2504.1123    2866.4188    1210.4338   -1048.8058   -2171.1395     81.74942 
   44700    181.80059   -118.14967     0.164497   -117.98517    1023.3887     4.336562     4.336562     4.336562    1023.3887   -5457.8086    -1542.846    10070.821   -18.610021    1594.5631    -582.4747    81.552387 
   44800    249.93325   -118.21118   0.22614486   -117.98503   -3094.5292    4.3385772    4.3385772    4.3385772   -3094.5292   -6367.4602   -2620.0225   -296.10492    -212.5789    1621.0164    1317.6688    81.666135 
   44900    183.52838   -118.15224   0.16606034   -117.98618    641.29981    4.3398834    4.3398834    4.3398834    641.29981   -9823.0223   -3875.9057    15622.827    604.79253   -301.86389    1703.5602    81.739913 
   45000    161.66259   -118.13297   0.14627571   -117.98669    2492.2516    4.3371854    4.3371854    4.3371854    2492.2516   -4289.9921   -4870.3371    16637.084   -6.1077131   -2049.6788   -2679.4387    81.587563 
   45100    165.48052   -118.13599   0.14973026   -117.98626    1808.8076    4.3380967    4.3380967    4.3380967    1808.8076   -5969.5845   -2131.7995    13527.807    1024.5284   -2566.0795   -551.23151    81.639004 
   45200    261.20789   -118.22187   0.23634638   -117.98552   -3756.6517    4.3388146    4.3388146    4.3388146   -3756.6517   -5693.8277   -4373.6483   -1202.4792   -528.27833    794.57261    42.565248     81.67954 
   45300    175.84152   -118.14607    0.1591051   -117.98697    196.74665    4.3380551    4.3380551    4.3380551    196.74665   -3792.6448   -3318.6592     7701.544   -87.767716    885.93635    -1552.677    81.636652 
   45400    227.17112   -118.19218   0.20554921   -117.98663   -4533.3475    4.3398571    4.3398571    4.3398571   -4533.3475   -9254.9062   -5244.6915    899.55519   -243.63438    133.37151   -2047.4432    81.738431 
   45500     105.5617   -118.08232  0.095514443   -117.98681    5561.2607     4.336744     4.336744     4.336744    5561.2607   -5280.2078   -1389.7327    23353.723    -346.9898   -703.56685    965.72404    81.562658 
   45600    252.86207   -118.21406   0.22879492   -117.98527   -2235.2021    4.3385804    4.3385804    4.3385804   -2235.2021    -9787.257   -4606.6639    7688.3144    1106.4282      1627.99    2178.4311    81.666311 
   45700    161.30389    -118.1314   0.14595115   -117.98545    953.78988    4.3399895    4.3399895    4.3399895    953.78988   -7626.8332   -3679.9952    14168.198   -1066.7337   -1050.9186   -1690.8879    81.745913 
   45800    260.74217   -118.22161   0.23592499   -117.98569   -5858.6821    4.3373223    4.3373223    4.3373223   -5858.6821    -9726.358   -5835.0462   -2014.6421    366.44727   -3066.7087   -1624.0883    81.595287 
   45900     196.6288   -118.16445   0.17791387   -117.98654   -519.50867     4.339501     4.339501     4.339501   -519.50867   -7681.8257   -3469.5302      9592.83    444.01841   -1332.8984   -646.30695    81.718308 
   46000    203.31882   -118.17009   0.18396714   -117.98612    1180.7302     4.338737     4.338737     4.338737    1180.7302   -4713.0204   -6901.0066    15156.218    465.57876    2115.6449   -195.99174    81.675159 
   46100    124.71985   -118.09905   0.11284915    -117.9862    3320.3631    4.3366466    4.3366466    4.3366466    3320.3631   -5251.6409   -2139.2438    17351.974     1509.623    2196.5678   -3147.7032    81.557161 
   46200    226.77739   -118.19134   0.20519295   -117.98614   -5318.8591    4.3408495    4.3408495    4.3408495   -5318.8591   -6359.1115   -9971.8027      374.337   -930.52657    50.007709    294.42214    81.794514 
   46300    173.10577   -118.14352   0.15662974   -117.98689    2951.9403     4.337016     4.337016     4.337016    2951.9403     -902.442    79.755062    9678.5078    169.19823   -1010.3218    127.12208    81.578005 
   46400     263.7566   -118.22467   0.23865252   -117.98602   -3133.3604    4.3369318    4.3369318    4.3369318   -3133.3604   -2741.6948   -3810.7352   -2847.6512    34.743654   -49.222213   -1322.6045     81.57325 
   46500    137.03563   -118.11031   0.12399272   -117.98632   -258.11113    4.3412547    4.3412547    4.3412547   -258.11113   -7670.6498   -7516.6508    14412.967    61.351426    660.00546   -2794.3247    81.817423 
   46600    198.28221   -118.16465   0.17940991   -117.98524    948.69554    4.3376604    4.3376604    4.3376604    948.69554   -8485.0938    403.11161    10928.069    644.47227   -3140.4593    109.13545    81.614371 
   46700    202.59905   -118.16814   0.18331588   -117.98482    4232.3051    4.3360796    4.3360796    4.3360796    4232.3051   -4343.6686   -4129.9038    21170.488   -853.24078    622.09717    444.68969    81.525173 
   46800    196.54434   -118.16381   0.17783745   -117.98597   -1373.1908    4.3399716    4.3399716    4.3399716   -1373.1908   -7432.3913    68.029368    3244.7895    370.69635    1661.0617   -1865.7495    81.744897 
   46900    244.88727   -118.20777   0.22157915   -117.98619   -6702.8161    4.3396449    4.3396449    4.3396449   -6702.8161    -9255.996   -9508.3996   -1344.0527    55.657663    2035.8716    -1301.462    81.726439 
   47000    173.07052    -118.1428   0.15659784    -117.9862    2883.4199    4.3374974    4.3374974    4.3374974    2883.4199   -3915.7955    899.57488     11666.48    946.17998   -1198.9998   -184.31899    81.605171 
   47100    189.21133   -118.15709   0.17120239   -117.98588    2157.8128    4.3377103    4.3377103    4.3377103    2157.8128   -2698.6419   -5697.1951    14869.275    289.40565   -2804.6988    827.64915    81.617186 
   47200    151.14316   -118.12362   0.13675751   -117.98686   -1133.9057    4.3395696    4.3395696    4.3395696   -1133.9057   -5099.6852   -6708.3233    8406.2913   -948.26202   -1699.1494   -3221.6455    81.722188 
   47300    149.49638   -118.12226   0.13526747     -117.987   -507.66302    4.3391459    4.3391459    4.3391459   -507.66302   -8892.2852   -5443.2504    12812.546    717.04203   -1258.8742    800.04778    81.698254 
   47400    268.35843    -118.2282   0.24281635   -117.98539   -1773.7563    4.3372204    4.3372204    4.3372204   -1773.7563   -1987.6399   -2473.4785   -860.15055   -75.505596   -202.49265    85.860342    81.589537 
   47500    194.42392   -118.16157   0.17591885   -117.98565    699.34134    4.3377049    4.3377049    4.3377049    699.34134   -4586.1242   -3127.8679    9812.0161    847.46594   -338.41273   -1752.8144    81.616884 
   47600    188.84474   -118.15625   0.17087069   -117.98537   -3707.4365    4.3400915    4.3400915    4.3400915   -3707.4365   -11794.672   -6986.1456    7658.5085    209.87345    1627.3899   -1034.1689    81.751673 
   47700    186.17443   -118.15408   0.16845454   -117.98562    1455.6473    4.3387549    4.3387549    4.3387549    1455.6473   -9453.6722   -2854.2835    16674.897   -522.50149        108.2    471.04676     81.67617 
   47800    207.92739   -118.17364   0.18813708   -117.98551    4351.7522    4.3358867    4.3358867    4.3358867    4351.7522    -2709.073    52.543952    15711.786    801.57059   -600.10045    568.82863    81.514293 
   47900    212.07361   -118.17796   0.19188866   -117.98607   -2615.5912    4.3383802    4.3383802    4.3383802   -2615.5912   -5409.0106   -3809.3235    1371.5604   -189.30933   -3165.1769   -2198.4679    81.655008 
   48000    164.65501   -118.13494   0.14898331   -117.98596   -2652.3298    4.3409634    4.3409634    4.3409634   -2652.3298   -5803.9128   -4712.8327    2559.7561    387.89649   -767.70042   -722.39925    81.800956 
   48100    236.11969   -118.19932   0.21364606   -117.98567     604.8793    4.3367606    4.3367606    4.3367606     604.8793   -3382.1606   -910.34765    6107.1462   -524.11706     437.2173    1062.2435     81.56359 
   48200    176.63093   -118.14652   0.15981938    -117.9867    4758.7487    4.3358922    4.3358922    4.3358922    4758.7487    1898.6846   -1846.1612    14223.723   -649.74969    1633.3629   -801.77448    81.514606 
   48300    121.84446   -118.09755   0.11024743    -117.9873    310.43009    4.3407043    4.3407043    4.3407043    310.43009   -7050.0066   -3645.0437    11626.341    472.08511    841.67708    -2910.299    81.786307 
   48400    209.00935   -118.17484   0.18911605   -117.98573   -3406.9817    4.3387955    4.3387955    4.3387955   -3406.9817   -10296.458    -7988.851    8064.3635    413.10744    -830.2205    317.14026    81.678461 
   48500     234.5326   -118.19709   0.21221002   -117.98488    1680.5031    4.3365498    4.3365498    4.3365498    1680.5031   -3961.5216    2751.6302    6251.4006    758.58063    1578.0767     221.2192    81.551697 
   48600    218.12125   -118.18259   0.19736069   -117.98523   -1423.0861    4.3382164    4.3382164    4.3382164   -1423.0861   -6144.3931   -7671.1495    9546.2844   -884.91033   -2871.2532   -1070.6661     81.64576 
   48700    161.54245   -118.13232     0.146167   -117.98615   -3844.9013    4.3391196    4.3391196    4.3391196   -3844.9013   -10583.854   -3970.4435    3019.5938    323.43116   -387.95147   -3632.1301    81.696763 
   48800    186.48397   -118.15496   0.16873462   -117.98622    -794.0981    4.3396346    4.3396346    4.3396346    -794.0981   -12058.565   -7432.8983    17109.169    414.14657   -479.47993    825.76963    81.725859 
   48900    227.09803   -118.19068   0.20548307    -117.9852    1805.0524    4.3361473    4.3361473    4.3361473    1805.0524   -860.24547   -1140.5692    7415.9717   -109.82936    2748.8805   -334.84712    81.528994 
   49000    125.01002   -118.09891    0.1131117    -117.9858    1653.3079    4.3371525    4.3371525    4.3371525    1653.3079    -3600.215    -4435.047    12995.186    328.03281     2330.352   -4104.2825    81.585707 
   49100    244.72879   -118.20708   0.22143575   -117.98565   -8148.6399    4.3417188    4.3417188    4.3417188   -8148.6399   -9573.2515   -8525.7423   -6346.9258   -535.08582   -1200.1512   -1467.6594    81.843668 
   49200    175.26732   -118.14541   0.15858555   -117.98682    4350.9578    4.3363854    4.3363854    4.3363854    4350.9578   -3634.3257    1399.4866    15287.713     593.5904   -475.92335    382.36694    81.542424 
   49300    203.99892   -118.17122   0.18458251   -117.98664    3505.6442    4.3352579    4.3352579    4.3352579    3505.6442    963.41725   -4277.7266    13831.242    691.76856   -1048.0228    247.83821    81.478834 
   49400    112.42199   -118.08845   0.10172178   -117.98673    1327.0697    4.3404971    4.3404971    4.3404971    1327.0697   -8895.3233   -1455.5249    14332.057    184.87596    -126.6058     -3664.25    81.774599 
   49500    251.09676   -118.21226   0.22719763   -117.98507   -5362.8851    4.3388982    4.3388982    4.3388982   -5362.8851   -9610.4871   -6998.2114    520.04309    -23.78343   -1782.4662   -97.307085     81.68426 
   49600    205.30177   -118.17085   0.18576136   -117.98509    2680.6845    4.3363897    4.3363897    4.3363897    2680.6845   -6294.5609    1446.0141      12890.6   -1100.0379    2040.9207    -725.3963    81.542669 
   49700    221.32631   -118.18577   0.20026069   -117.98551   -2503.4077    4.3380853    4.3380853    4.3380853   -2503.4077    -3401.325   -5697.6077    1588.7094   -269.47802    2059.6875   -1666.9544    81.638357 
   49800    129.65646   -118.10363   0.11731589   -117.98632   -1435.5897    4.3389638    4.3389638    4.3389638   -1435.5897   -7284.7901   -5297.2033    8275.2244    324.29748    420.13163   -3847.3072    81.687963 
   49900    220.98305   -118.18524   0.19995011   -117.98529   -2916.6772    4.3393082    4.3393082    4.3393082   -2916.6772   -10086.118   -6842.0609    8178.1473    421.74484    -2453.198    9.2539984     81.70742 
   50000    140.16962   -118.11203   0.12682842    -117.9852    5659.4242    4.3362833    4.3362833    4.3362833    5659.4242    1764.5896   -1266.8729    16480.556   -244.82383    -2487.972    76.584541    81.536666 
   50100    230.96996   -118.19481   0.20898647   -117.98583   -4322.0497    4.3377482    4.3377482    4.3377482   -4322.0497   -2435.5151   -7956.6665   -2573.9677    129.96297    79.254019   -2660.0896    81.619326 
   50200    130.54872   -118.10531   0.11812323   -117.98718   -1.0955012    4.3405415    4.3405415    4.3405415   -1.0955012   -7861.7181     -4487.45    12345.882    968.38894    803.13574   -588.50992    81.777104 
   50300    263.82309   -118.22477   0.23871268   -117.98606   -2368.4238    4.3373598    4.3373598    4.3373598   -2368.4238   -5881.3863   -4433.9543    3210.0694    174.33652    465.26138    157.58266    81.597408 
   50400    123.42905   -118.09769   0.11168119     -117.986    5796.9544    4.3362097    4.3362097    4.3362097    5796.9544   -731.30085   -3238.9311    21361.095    507.62567   -634.87662    291.50772    81.532511 
   50500    198.55017   -118.16508   0.17965237   -117.98543   -4138.8268    4.3393854    4.3393854    4.3393854   -4138.8268   -10489.961    -7374.334     5447.815    -770.6807    1563.6586   -3487.8688    81.711778 
   50600     178.9023   -118.14749   0.16187456   -117.98562   -2245.1222    4.3390251    4.3390251    4.3390251   -2245.1222   -8365.7189   -4012.7894    5643.1418   -438.50763   -1476.2897     1499.548     81.69143 
   50700    239.47237   -118.20182   0.21667964   -117.98514   -2475.6132    4.3377592    4.3377592    4.3377592   -2475.6132   -7600.4558   -4147.9348    4321.5512    121.14855   -277.55219    481.83776    81.619947 
   50800     177.9599   -118.14698   0.16102185   -117.98596   -226.62579    4.3368604    4.3368604    4.3368604   -226.62579   -455.89457   -5713.6449    5489.6621    209.53512   -2230.5757   -1480.1047    81.569224 
   50900    121.76845     -118.096   0.11017865   -117.98582     286.1005    4.3392996    4.3392996    4.3392996     286.1005   -4414.5615   -1916.1533    7189.0163    810.22545    1095.3669   -1845.0992    81.706931 
   51000    197.79763   -118.16402   0.17897145   -117.98505   -1253.1725    4.3392206    4.3392206    4.3392206   -1253.1725   -8258.3023   -8664.4975    13163.282   -572.02792    3227.3022    71.444383    81.702473 
   51100    167.58287   -118.13772    0.1516325   -117.98609    4621.6142    4.3357666    4.3357666    4.3357666    4621.6142     2371.736    2041.5015    9451.6051    232.85382    535.57993    450.94763     81.50752 
   51200    181.73076   -118.15132   0.16443381   -117.98689   -382.60013    4.3387242    4.3387242    4.3387242   -382.60013   -1485.2114   -9019.7786    9357.1896    91.609039   -900.41581   -2278.2147    81.674435 
   51300    183.82087   -118.15253   0.16632499    -117.9862   -2353.4313    4.3395834    4.3395834    4.3395834   -2353.4313   -9054.4149   -2127.0862    4121.2072    148.11836   -3181.5351    898.16848    81.722967 
   51400    235.96642   -118.19869   0.21350737   -117.98518   -2316.0922    4.3377848    4.3377848    4.3377848   -2316.0922   -8223.0592   -6782.7501    8057.5327   -360.17162    1518.7338   -74.422729    81.621397 
   51500    127.45938   -118.10081   0.11532793   -117.98548    4097.3588    4.3377948    4.3377948    4.3377948    4097.3588   -1848.7155   -4134.5514    18275.343   -947.95779   -608.59679    601.88226    81.621957 
   51600    207.88888   -118.17368   0.18810223   -117.98558   -4746.6226    4.3380835    4.3380835    4.3380835   -4746.6226   -9379.8306   -8136.1497    3276.1125    870.62599    872.58988   -3995.5934    81.638256 
   51700    139.51455   -118.11188    0.1262357   -117.98564    -1396.895    4.3395382    4.3395382    4.3395382    -1396.895   -6413.9779   -4283.4776    6506.7705    -8.605213    740.70387    533.67011    81.720414 
   51800    254.39216   -118.21503   0.23017937   -117.98485   -5074.6321    4.3392227    4.3392227    4.3392227   -5074.6321   -4497.9246   -7746.6286   -2979.3433    1080.0498    1147.4455    1079.9611    81.702588 
   51900    99.838887   -118.07612  0.090336323   -117.98579     5590.052    4.3352072    4.3352072    4.3352072     5590.052     5414.753   -3126.9796    14482.383    594.47567    984.47129   -3066.8967    81.475978 
   52000    194.84327   -118.16197   0.17629828   -117.98567    -4386.094    4.3402878    4.3402878    4.3402878    -4386.094   -5907.3452   -7443.3174    192.38047   -460.18533   -3182.4221   -415.46463    81.762766 
   52100    140.81755   -118.11418   0.12741468   -117.98676    1144.4683     4.339738     4.339738     4.339738    1144.4683   -7813.9041   -6046.5876    17293.897    632.31143   -1282.3816    830.69728    81.731698 
   52200    183.43587   -118.15295   0.16597663   -117.98697    3268.7402    4.3352911    4.3352911    4.3352911    3268.7402   -340.64686   -1401.6644    11548.532   -1110.5754    564.62607    183.14707    81.480709 
   52300    201.32831   -118.16816   0.18216608   -117.98599   -1937.3943    4.3394525    4.3394525    4.3394525   -1937.3943   -6912.7084   -5566.5499    6667.0755    558.53907    2026.9029   -2746.4923    81.715572 
   52400    218.95856   -118.18335   0.19811831   -117.98523   -5879.5089    4.3405434    4.3405434    4.3405434   -5879.5089     -12650.2   -4996.7074      8.38066   -616.13054    464.45082   -334.34089    81.777213 
   52500    171.08566   -118.14035    0.1548019   -117.98555    706.52019    4.3376783    4.3376783    4.3376783    706.52019   -8466.3493   -4251.9234    14837.833    -764.4882    357.02383    1634.3103    81.615382 
   52600    172.72445   -118.14212   0.15628471   -117.98583    2181.4211    4.3379162    4.3379162    4.3379162    2181.4211    161.26285   -2010.1467    8393.1472    1185.6844   -1655.9114    45.729085    81.628811 
   52700    127.10712   -118.10117   0.11500919   -117.98616    776.12475    4.3378546    4.3378546    4.3378546    776.12475    -3826.635   -8258.1776    14413.187   -149.73755   -550.20066   -2070.3935    81.625334 
   52800    187.67428   -118.15517   0.16981163   -117.98536    -4636.088    4.3410313    4.3410313    4.3410313    -4636.088   -4730.2088   -4227.5334   -4950.5218     1368.751   -1827.9567    359.94988    81.804794 
   52900    164.84805    -118.1341   0.14915798   -117.98494    2079.8332     4.338349     4.338349     4.338349    2079.8332    49.160927   -6661.1963    12851.535   -595.26388    832.71007    364.02919    81.653246 
   53000    199.42364   -118.16521    0.1804427   -117.98477    715.26592    4.3352443    4.3352443    4.3352443    715.26592    2271.5407   -1930.5505    1804.8076    118.91752     1539.239   -3489.9805     81.47807 
   53100    135.20645    -118.1082   0.12233764   -117.98586   -2412.2858    4.3419186    4.3419186    4.3419186   -2412.2858   -12523.982   -11491.194    16778.319    286.57029      1981.49   -1089.8314    81.854963 
   53200    184.88939   -118.15365   0.16729181   -117.98636   -2087.5765    4.3400661    4.3400661    4.3400661   -2087.5765   -10200.317   -3989.2169    7926.8044   -799.03516   -21.104551    1885.2961    81.750237 
   53300    191.98082   -118.15919   0.17370828   -117.98548    2709.2181    4.3343488    4.3343488    4.3343488    2709.2181   -3597.1069   -3034.3048    14759.066    1277.8393   -2869.6023    1071.9521    81.427588 
   53400    225.02796   -118.18861   0.20361003     -117.985   -5449.5016    4.3403486    4.3403486    4.3403486   -5449.5016   -8744.8804   -5507.5586   -2096.0657    -591.1539   -514.91157   -2149.8084    81.766202 
   53500    160.02065   -118.13119   0.14479004    -117.9864   -4689.2692    4.3417566    4.3417566    4.3417566   -4689.2692   -10658.629   -8684.1378    5274.9589    676.71758   -922.02985    339.20075    81.845802 
   53600    188.96577   -118.15717    0.1709802   -117.98619    861.79535    4.3365549    4.3365549    4.3365549    861.79535   -2021.5358   -2306.4119    6913.3338    848.73785    3096.3428    164.93415    81.551989 
   53700     100.2517   -118.07711  0.090709845    -117.9864     7414.213    4.3369846    4.3369846    4.3369846     7414.213    5071.4548   -3556.4634    20727.647    45.320241    111.36992   -1329.1344    81.576234 
   53800    168.40172   -118.13806   0.15237341   -117.98569   -2565.0244    4.3406358    4.3406358    4.3406358   -2565.0244   -5379.3108   -6525.1429    4209.3805    1332.9695    2438.4957   -1474.1885    81.782434 
   53900    166.88476   -118.13638   0.15100084   -117.98537   -1728.2658    4.3399395    4.3399395    4.3399395   -1728.2658   -6343.4198   -6123.4846    7282.1071   -1591.0921   -944.52873    415.99696    81.743083 
   54000    229.52052   -118.19265   0.20767499   -117.98498    3.1570363    4.3371659    4.3371659    4.3371659    3.1570363   -1585.8923   -1395.9922    2991.3555    64.131417   -1639.2442    1246.8843    81.586461 
   54100    186.59284   -118.15508   0.16883313   -117.98625   -66.511077     4.337981     4.337981     4.337981   -66.511077   -6244.4285   -2794.5111    8839.4064   -386.31424   -3267.4738   -1721.6296     81.63247 
   54200    172.97467   -118.14254   0.15651112   -117.98603   -4849.6982    4.3417929    4.3417929    4.3417929   -4849.6982    -14975.31   -9512.6109    9938.8262   -506.83971   -1133.2837   -409.65502    81.847855 
   54300     152.1441   -118.12344   0.13766318   -117.98577    719.40517     4.339188     4.339188     4.339188    719.40517   -6146.7342   -3015.1179    11320.068    868.33445    2999.7207    171.58454    81.700629 
   54400    170.75748   -118.13977   0.15450496   -117.98527    3796.7364    4.3356831    4.3356831    4.3356831    3796.7364    1928.9416   -3071.9137    12533.181   -691.28189    1239.3772   -925.40054    81.502811 
   54500    167.98121   -118.13866   0.15199293   -117.98667    -2268.149    4.3396706    4.3396706    4.3396706    -2268.149   -2588.7349    -5161.994     946.2819    1207.3762    207.10407   -2508.5283     81.72789 
   54600    199.93545   -118.16725    0.1809058   -117.98635   -6122.9107    4.3418182    4.3418182    4.3418182   -6122.9107   -4253.7665   -11071.203    -3043.763    7.4638249    -2434.223    803.55894     81.84929 
   54700    138.05338   -118.11083    0.1249136   -117.98592    4952.1362    4.3363509    4.3363509    4.3363509    4952.1362    44.263659   -865.87161    15678.016    346.32503   -760.11722    1237.2933    81.540481 
   54800    152.56773   -118.12354   0.13804649   -117.98549    3644.4213    4.3370168    4.3370168    4.3370168    3644.4213   -2176.2244   -6911.7773    20021.266     1176.421   -3198.8985    -1241.249    81.578051 
   54900     162.0905    -118.1316   0.14666289   -117.98494   -1813.6835    4.3415957    4.3415957    4.3415957   -1813.6835   -8947.9473   -6336.4645    9843.3614   -1083.9291   -160.87858   -891.01687    81.836705 
   55000    224.95927   -118.18826   0.20354787   -117.98471   -4762.4749    4.3391745    4.3391745    4.3391745   -4762.4749   -13291.912   -8786.9596    7791.4469    403.93677    958.24973    775.08026    81.699867 
   55100    190.93082   -118.15848   0.17275822   -117.98572   -100.10531    4.3371672    4.3371672    4.3371672   -100.10531   -1064.7155   -524.24396    1288.6436   -129.09726    3388.6954    846.99779    81.586534 
   55200    209.82885   -118.17558   0.18985755   -117.98572   -3296.7213    4.3399662    4.3399662    4.3399662   -3296.7213   -7913.3059   -7858.6619    5881.8039    506.24377   -67.279508   -1070.9415    81.744594 
   55300    135.00018   -118.10805     0.122151    -117.9859   -667.60867    4.3399486    4.3399486    4.3399486   -667.60867    -6653.055   -4333.2811    8983.5101    880.04739   -2972.5356    1313.7326      81.7436 
   55400    112.74312   -118.08834   0.10201234   -117.98632    2864.1049    4.3386925    4.3386925    4.3386925    2864.1049    -2110.763   -9020.2811    19723.359    -571.5662   -2715.1321    1433.2394    81.672643 
   55500    143.47949   -118.11597   0.12982326   -117.98615    3108.3266    4.3384468    4.3384468    4.3384468    3108.3266    222.50621   -1808.4452    10910.919    1032.1883   -1308.5742    194.99946    81.658769 
   55600     179.2164   -118.14752   0.16215876   -117.98536   -1604.5621    4.3386451    4.3386451    4.3386451   -1604.5621   -2245.0511   -6941.6955    4373.0602   -331.83599    594.34727   -1088.6647    81.669969 
   55700    236.36243   -118.19883   0.21386569   -117.98496   -6264.1193    4.3408677    4.3408677    4.3408677   -6264.1193   -9078.0808   -6856.1777   -2858.0994   0.85915742    54.497544    773.78936    81.795545 
   55800     153.7426   -118.12459   0.13910954   -117.98548     1903.816    4.3387205    4.3387205    4.3387205     1903.816   -4197.8401   -4685.7722     14595.06    78.572756    3118.9458    897.46161    81.674226 
   55900    195.04954   -118.16157   0.17648492   -117.98509    768.53609    4.3371898    4.3371898    4.3371898    768.53609   -6262.9103   -3754.0646    12322.583   -914.37321   -639.64303   -1683.8305    81.587811 
   56000    126.84102   -118.10066   0.11476842   -117.98589    2041.8501    4.3399922    4.3399922    4.3399922    2041.8501   -7375.2699    -6831.227    20332.047    213.47699   -647.65118    1196.4936    81.746065 
   56100    181.93848   -118.15062   0.16462176     -117.986   -2605.6829    4.3395751    4.3395751    4.3395751   -2605.6829    -3685.867   -6794.8023    2663.6207    -850.2842   -3369.5961    1298.9933    81.722494 
   56200    167.22301   -118.13682   0.15130689   -117.98552   -128.05514    4.3378928    4.3378928    4.3378928   -128.05514    -1563.886    -4049.059    5228.7795    851.93548   -1283.5422    1682.7014    81.627492 
   56300    227.42515    -118.1907   0.20577906   -117.98493   -2920.3805    4.3390972    4.3390972    4.3390972   -2920.3805    1277.1842    -6034.396   -4003.9296    588.79171    726.22113   -1298.6243    81.695501 
   56400    113.41895   -118.08942   0.10262385   -117.98679    1595.7367    4.3385197    4.3385197    4.3385197    1595.7367   -5832.7807   -4569.2881    15189.279   -343.88243    2635.3431   -187.94895    81.662888 
   56500    171.91363   -118.14212   0.15555107   -117.98657   -3140.3965    4.3399326    4.3399326    4.3399326   -3140.3965   -9447.5348   -9509.1846    9535.5298    730.95636    1263.2677    1088.7868    81.742696 
   56600    109.13522   -118.08482  0.098747838   -117.98607    4761.3988    4.3385412    4.3385412    4.3385412    4761.3988   -3133.5696   -2883.9335    20301.699   -134.63874   -1446.2568   -1404.5835    81.664102 
   56700    266.83098   -118.22624   0.24143428   -117.98481   -5000.1055    4.3376794    4.3376794    4.3376794   -5000.1055   -10383.475   -5725.2572    1108.4151    81.695041   -1683.1113    232.86015    81.615446 
   56800    138.94068    -118.1113   0.12571645   -117.98558   -1890.9246    4.3405304    4.3405304    4.3405304   -1890.9246   -7770.4219   -3592.2889    5689.9371    -25.50181   -3633.4406    1446.8109    81.776479 
   56900    245.22574   -118.20695    0.2218854   -117.98506   -6193.1284    4.3400573    4.3400573    4.3400573   -6193.1284   -6824.1529   -10854.035   -901.19757   -203.53555    1509.0974    534.69597    81.749743 
   57000    102.68712    -118.0791   0.09291346   -117.98618    7228.4692    4.3367552    4.3367552    4.3367552    7228.4692      1415.91    2767.3789    17502.119    632.97818   -1358.3058   -690.80127    81.563291 
   57100    161.60441   -118.13189   0.14622307   -117.98567    494.83085    4.3388344    4.3388344    4.3388344    494.83085   -5232.8209    -8584.066    15301.379   -256.12083    2813.3662   -507.86503    81.680659 
   57200    97.010367   -118.07372  0.087777018   -117.98595    1062.7302    4.3397034    4.3397034    4.3397034    1062.7302   -4487.1678    -4133.563    11808.921     955.1854    1156.3801    1040.3819    81.729746 
   57300    243.93869   -118.20619   0.22072085   -117.98547   -4658.6291    4.3394429    4.3394429    4.3394429   -4658.6291   -5158.5792   -6344.8157   -2472.4924    597.07739    1069.6036   -147.94576    81.715028 
   57400    182.73784   -118.15154   0.16534504    -117.9862    2432.8609    4.3369331    4.3369331    4.3369331    2432.8609   -3969.1673    616.97329    10650.777    248.89362   -3312.0309   -346.36893    81.573326 
   57500     212.4487   -118.17829   0.19222805   -117.98607   -4604.6254    4.3387413    4.3387413    4.3387413   -4604.6254   -7951.7972   -6052.7428    190.66373   -465.26294   -1354.9065    2258.0135      81.6754 
   57600    118.69072   -118.09314   0.10739385   -117.98575   -1374.8732    4.3419311    4.3419311    4.3419311   -1374.8732   -13993.129   -7139.1092    17007.618   -586.25042    1429.5483    2137.5212    81.855671 
   57700    196.24014   -118.16255    0.1775622   -117.98499    1864.4148    4.3369762    4.3369762    4.3369762    1864.4148   -3071.3055   -4165.2556    12829.805   -75.024614    888.82749   -826.84273    81.575761 
   57800    145.41661   -118.11681     0.131576   -117.98524    4333.6709    4.3362661    4.3362661    4.3362661    4333.6709   -2307.8625   -399.37968    15708.255    -1400.987    3519.8792    200.37112    81.535696 
   57900     191.8803   -118.15912   0.17361733    -117.9855   -7306.9949    4.3419426    4.3419426    4.3419426   -7306.9949   -10399.113   -9703.3881    -1818.484    176.85207   -1138.7359    571.81291    81.856325 
   58000    170.90537   -118.14036   0.15463877   -117.98572   -2077.3612    4.3394705    4.3394705    4.3394705   -2077.3612   -2955.4067   -5757.6239    2480.9469    565.47957    2656.8228    1512.4615     81.71659 
   58100    164.81301   -118.13407   0.14912627   -117.98495    5293.7404    4.3361197    4.3361197    4.3361197    5293.7404    1653.3575   -34.482387    14262.346    593.94133   -2987.5468   -655.00226    81.527434 
   58200    147.67906   -118.11883   0.13362312   -117.98521    127.00634    4.3384772    4.3384772    4.3384772    127.00634   -9590.7329   -4380.4257    14352.178    1280.2922   -2155.5429    1624.5856    81.660488 
   58300    155.39826   -118.12657   0.14060761   -117.98596   -4451.3458    4.3409709    4.3409709    4.3409709   -4451.3458   -11318.898   -6733.9692    4698.8295    515.42456   -695.05786    3512.1555    81.801381 
   58400    201.39499   -118.16839   0.18222642   -117.98616   -543.14051    4.3389007    4.3389007    4.3389007   -543.14051   -8257.2498   -4256.5914     10884.42    102.08007    1893.2438   -411.32744    81.684402 
   58500    211.89717   -118.17705   0.19172901   -117.98532    1482.9939     4.335514     4.335514     4.335514    1482.9939   -2837.3531    4120.5394    3165.7954   -732.02184    3160.6566   -891.12002    81.493277 
   58600    190.22153   -118.15778   0.17211644   -117.98566   -5475.2163    4.3400028    4.3400028    4.3400028   -5475.2163   -11010.257   -9518.4979    4103.1059   -756.15787   -1839.3823    206.42473    81.746661 
   58700    120.52024   -118.09511   0.10904925   -117.98606   -808.57192    4.3415669    4.3415669    4.3415669   -808.57192   -8133.7957   -5232.6665    10940.747    -411.9422    417.25558    865.30505    81.835079 
   58800    201.54607   -118.16781   0.18236312   -117.98544    3859.4837    4.3353502    4.3353502    4.3353502    3859.4837    836.71135   -3274.6037    14016.343    22.478269    -3875.325    136.82193    81.484039 
   58900    117.92314   -118.09264   0.10669933   -117.98594     5165.658    4.3369101    4.3369101    4.3369101     5165.658   -1915.9683    1160.1592    16252.783    569.76588   -318.54808    273.24408    81.572028 
   59000    213.51629   -118.17843   0.19319402   -117.98524   -9383.3363      4.34232      4.34232      4.34232   -9383.3363   -11674.432   -10990.507   -5485.0703    176.90622   -1126.9021    2702.0899     81.87767 
   59100    147.06954   -118.11834   0.13307161   -117.98527    1227.5348    4.3381726    4.3381726    4.3381726    1227.5348   -7212.6138   -18.220164    10913.438    1297.3569    909.76156    387.72855    81.643287 
   59200    238.05926   -118.20009   0.21540102   -117.98469    1444.8428    4.3359034    4.3359034    4.3359034    1444.8428   -3110.0259    447.86019    6996.6941    -248.2602    1465.4423   -1484.4038    81.515239 
   59300    130.43866   -118.10485   0.11802364   -117.98683    865.33747    4.3387889    4.3387889    4.3387889    865.33747   -13152.999   -3363.4258    19112.437    -696.0111    -241.2153   -677.25238    81.678088 
   59400     163.5611   -118.13495   0.14799353   -117.98695   -4384.4338    4.3409651    4.3409651    4.3409651   -4384.4338   -14246.839   -5701.7758    6795.3132   -45.319167   -460.13458    412.39586    81.801051 
   59500    211.02085    -118.1767    0.1909361   -117.98577    509.98072     4.337684     4.337684     4.337684    509.98072   -6562.9605    -3978.529    12071.432   -1385.6984   -2974.2378    103.16962    81.615702 
   59600    210.06724   -118.17515   0.19007326   -117.98507    1116.6947    4.3363777    4.3363777    4.3363777    1116.6947   -2217.0405    886.26074    4680.8638    450.59696   -267.05727     496.1062    81.541988 
   59700    135.44382   -118.10815   0.12255242    -117.9856   -2954.2243    4.3407451    4.3407451    4.3407451   -2954.2243   -10022.811   -7757.1773    8917.3154    106.33848   -1214.7392    1822.4265    81.788612 
   59800     184.9408   -118.15281   0.16733832   -117.98548   -3661.9034     4.340045     4.340045     4.340045   -3661.9034   -5296.0071   -6706.3447    1016.6415    1116.9167    2530.8766    1941.2185    81.749045 
   59900    127.77208   -118.10098   0.11561086   -117.98537    6640.4081    4.3358116    4.3358116    4.3358116    6640.4081   -152.22388    1296.4817    18776.966    1030.8705   -332.85303   -1553.0336    81.510059 
   60000     184.0843   -118.15166   0.16656334   -117.98509   -1355.8564     4.338784     4.338784     4.338784   -1355.8564   -5616.0955   -932.14705    2480.6732    400.07429    495.71879   -242.53779     81.67781 
   60100    139.93707    -118.1117     0.126618   -117.98509   -3759.4746    4.3406426    4.3406426    4.3406426   -3759.4746   -10592.485   -6395.6001    5709.6614    750.07786    -93.41319    2234.3017    81.782819 
   60200    248.53144   -118.20957   0.22487647    -117.9847   -4280.5486    4.3385247    4.3385247    4.3385247   -4280.5486   -9776.9438   -277.41567   -2787.2864   -615.41394   -2427.9334    1457.8901    81.663166 
   60300    174.45383   -118.14404   0.15784949   -117.98619     3611.252    4.3366797    4.3366797    4.3366797     3611.252   -4033.0048   -2046.0211    16912.782   -488.85272    -1244.325    1113.0295     81.55903 
   60400    165.62035   -118.13648   0.14985677   -117.98662   -956.29053    4.3389155    4.3389155    4.3389155   -956.29053   -10224.301   -1773.1185    9128.5478   -1155.9793   -1121.0255    1487.3105     81.68524 
   60500    177.52933   -118.14665   0.16063227   -117.98602   -2405.6443    4.3399904    4.3399904    4.3399904   -2405.6443   -10518.462   -7136.9004     10438.43   -23.628952    3332.8979    2243.9167    81.745963 
   60600    187.67924   -118.15513   0.16981612   -117.98532    2309.8144    4.3371196    4.3371196    4.3371196    2309.8144   -2362.4409   -409.81881    9701.7029    410.34827    132.42761    -2015.838    81.583849 
   60700    166.21141   -118.13604   0.15039157   -117.98565    1764.2269    4.3376114    4.3376114    4.3376114    1764.2269   -1424.3099   -862.38086    7579.3715   -204.15978   -346.10208    485.53142    81.611607 
   60800    170.85263   -118.14015   0.15459105   -117.98556   -3520.6081    4.3399467    4.3399467    4.3399467   -3520.6081   -9355.9509   -2706.5494    1500.6761    1315.3713   -2256.3906    1998.2704    81.743491 
   60900    139.33167    -118.1116   0.12607022   -117.98553   -105.67749    4.3382303    4.3382303    4.3382303   -105.67749   -4605.1926   -2719.6114    7007.7716    190.11328   -322.82204    3187.2579    81.646543 
   61000    179.50994    -118.1475   0.16242436   -117.98507   -218.57419    4.3382338    4.3382338    4.3382338   -218.57419   -6423.2026   -3885.9998    9653.4799    310.14864   -545.75554    1350.7647    81.646741 
   61100    139.03746   -118.11081   0.12580402   -117.98501    620.02205    4.3382192    4.3382192    4.3382192    620.02205   -9169.3673    2085.6999    8943.7336    504.53862   -2778.9233   -78.174113    81.645919 
   61200     226.9034   -118.19013   0.20530697   -117.98482   -6883.1659    4.3387077    4.3387077    4.3387077   -6883.1659    -11101.84    -9678.768    131.10982   -395.69809     1652.718    4546.5887    81.673503 
   61300    182.94502    -118.1513    0.1655325   -117.98576   -2443.1991    4.3403243    4.3403243    4.3403243   -2443.1991   -10997.118   -2875.0661    6542.5867    654.99685    928.72553    -1435.522    81.764829 
   61400    213.28438   -118.17864   0.19298419   -117.98565    -281.4126    4.3372325    4.3372325    4.3372325    -281.4126   -4763.1394   -3973.3457    7892.2474   -967.22485    831.01212   -129.71341    81.590221 
   61500     158.7791   -118.12937   0.14366667   -117.98571    1198.8712    4.3369984    4.3369984    4.3369984    1198.8712   -5906.5352    303.20435    9199.9446   -26.858465   -1762.6915    948.81123    81.577009 
   61600    112.29063   -118.08735   0.10160292   -117.98575    1421.3603    4.3402713    4.3402713    4.3402713    1421.3603   -7298.1178   -4792.3347    16354.533    677.08911   -1800.6576    2796.0949    81.761837 
   61700    220.31968   -118.18494   0.19934987   -117.98559   -2022.6247    4.3380746    4.3380746    4.3380746   -2022.6247   -4033.0541   -1066.5446   -968.27531    810.56271   -744.42796    1003.8495    81.637753 
   61800    109.17405   -118.08524  0.098782979   -117.98646    5821.6997    4.3365355    4.3365355    4.3365355    5821.6997    1282.7679    3679.7331    12502.598    984.03239   -222.18011   -1786.0918    81.550894 
   61900    240.62868    -118.2031   0.21772588   -117.98537   -5456.8881    4.3390752    4.3390752    4.3390752   -5456.8881   -8161.4853   -2921.9491   -5287.2298   -149.58605      824.787    1425.1185     81.69426 
   62000    117.91914   -118.09223   0.10669572   -117.98553    726.69936    4.3390681    4.3390681    4.3390681    726.69936   -8066.8523    434.03547    9812.9149    387.16817    936.89921   -826.06156    81.693856 
   62100    240.44662   -118.20246   0.21756116   -117.98489   -3135.7662    4.3388459    4.3388459    4.3388459   -3135.7662   -6612.2785   -6079.0613    3284.0412   -832.60983   -512.05626    489.38287    81.681307 
   62200    128.09309   -118.10167   0.11590132   -117.98576    5026.2824    4.3365053    4.3365053    4.3365053    5026.2824   -7203.2991    5890.1867     16391.96   -104.85859   -871.80194   -553.24092    81.549191 
   62300    201.06696   -118.16746   0.18192962   -117.98553   -3437.9249    4.3382731    4.3382731    4.3382731   -3437.9249   -9708.3932   -4083.2057    3477.8243   -12.089466   -1622.5248    2513.9125    81.648963 
   62400    196.50404    -118.1629   0.17780099    -117.9851   -4359.2663    4.3416127    4.3416127    4.3416127   -4359.2663   -10270.966    -5631.402    2824.5691   -562.39344   -650.32394    -343.7816    81.837668 
   62500    190.43533   -118.15725   0.17230988   -117.98494    1124.0938    4.3373462    4.3373462    4.3373462    1124.0938   -714.54882   -36.309055    4123.1393    733.65518   -1528.2304   -544.93107     81.59664 
   62600    134.49139   -118.10727   0.12169063   -117.98558    4088.9433    4.3355526    4.3355526    4.3355526    4088.9433   -2570.0416    601.84441    14235.027    364.55698    96.054319   -56.027302    81.495454 
   62700    171.40474   -118.14117   0.15509061   -117.98608   -4499.9498    4.3412556    4.3412556    4.3412556   -4499.9498    -8244.726    -9271.843    4016.7196    1427.8057    2667.5812    1154.6147    81.817473 
   62800     146.1136   -118.11842   0.13220666   -117.98621    -922.3691    4.3395595    4.3395595    4.3395595    -922.3691   -6382.9223   -4654.8802    8270.6952    493.39764   -1508.7156   -466.08641    81.721613 
   62900    197.44169   -118.16409   0.17864939   -117.98545    1580.9173    4.3356868    4.3356868    4.3356868    1580.9173   -916.77177    2002.4582    3657.0653   -1257.6794   -1427.4688   -1474.8121    81.503022 
   63000    197.57003   -118.16402   0.17876551   -117.98525   -2867.6434    4.3382506    4.3382506    4.3382506   -2867.6434   -9152.3055    -4877.119    5426.4944   -459.41366   -1599.8353    3382.4805    81.647689 
   63100    202.92748   -118.16813   0.18361305   -117.98452   -6929.2156    4.3416315    4.3416315    4.3416315   -6929.2156   -13102.865   -4026.5172   -3658.2648   -348.33294   -153.27359    -828.0302    81.838731 
   63200    183.03274   -118.15081   0.16561187    -117.9852    1465.3232    4.3386258    4.3386258    4.3386258    1465.3232   -5330.2491   -2288.5033    12014.722    420.72735   -361.07724    493.98636    81.668875 
   63300    151.08751   -118.12214   0.13670716   -117.98544    7574.2352    4.3342839    4.3342839    4.3342839    7574.2352   -588.76156    5320.5255    17990.942    278.81917   -495.80166   -232.65874    81.423933 
   63400    183.60196   -118.15136   0.16612691   -117.98523   -2025.9424     4.339412     4.339412     4.339412   -2025.9424   -7818.5031   -201.07304     1941.749    574.21785    1673.9444    2410.9568    81.713284 
   63500    166.55603   -118.13567    0.1507034   -117.98496   -2587.0117    4.3422519    4.3422519    4.3422519   -2587.0117    -7227.807   -5453.3145    4920.0864     444.2592    284.55808    35.641847    81.873819 
   63600    216.32742   -118.18116    0.1957376   -117.98542    2084.4668    4.3351134    4.3351134    4.3351134    2084.4668    2313.4856    3851.6792     88.23558    179.62763   -1988.1838   -648.38759    81.470688 
   63700     149.0906   -118.12143   0.13490031   -117.98653    2607.0308    4.3366857    4.3366857    4.3366857    2607.0308   -6277.6033    5044.2743    9054.4213    650.89952   -3691.2212     2727.056    81.559364 
   63800     181.9262   -118.15094   0.16461065   -117.98633    -6952.811    4.3422769    4.3422769    4.3422769    -6952.811   -11987.088   -11067.025    2195.6798    -612.0743   -416.69522    1840.5253    81.875234 
   63900    158.07072   -118.12925   0.14302571   -117.98623   -632.50557    4.3389527    4.3389527    4.3389527   -632.50557   -10046.553   -1651.3673     9800.404   -724.62075   -425.46807    1697.4594    81.687336 
   64000    215.91046   -118.18021   0.19536032   -117.98485    1104.3336    4.3363686    4.3363686    4.3363686    1104.3336   -3765.1798    538.40433    6539.7762   -532.55634    79.776718    -2220.952    81.541477 
   64100    176.98541   -118.14546   0.16014012   -117.98532   -2207.0677    4.3382786    4.3382786    4.3382786   -2207.0677   -9257.6432   -4323.8841    6960.3242    292.32907    777.80174    4486.0265    81.649269 
   64200    230.17096   -118.19291   0.20826352   -117.98464   -8289.1575    4.3417455    4.3417455    4.3417455   -8289.1575   -9998.0586    -7504.807   -7364.6069     858.7085      512.197    1545.6857    81.845179 
   64300    157.72318   -118.12809   0.14271125   -117.98538    2990.5621    4.3390806    4.3390806    4.3390806    2990.5621   -1335.6829   -4718.0066    15025.376   -211.66394   -1258.1666    -400.4517    81.694561 
   64400    146.88718   -118.11805    0.1329066   -117.98514    6516.9509     4.334485     4.334485     4.334485    6516.9509    4520.7188    3448.4521    11581.682   -568.96725   -2534.9473    883.39397    81.435264 
   64500    144.16065   -118.11548   0.13043958   -117.98504   -269.58099     4.339697     4.339697     4.339697   -269.58099   -5233.1335   -7383.7345    11808.125   -587.25952   -347.50106    692.81057    81.729385 
   64600    207.61936   -118.17347   0.18785836   -117.98561     -4500.04    4.3421312    4.3421312    4.3421312     -4500.04   -8506.7092   -1408.0243   -3585.3865   -64.866762   -1207.7428    1122.9227    81.866992 
   64700    188.96248   -118.15711   0.17097723   -117.98613    2885.2442     4.335157     4.335157     4.335157    2885.2442     4403.267    122.44761    4130.0179    359.53572    1805.7842   -1487.6968    81.473149 
   64800     222.6429    -118.1868   0.20145198   -117.98535   -2000.1953    4.3376107    4.3376107    4.3376107   -2000.1953   -9338.4168    6106.5097   -2768.6788    641.70163   -731.00003   -86.213262    81.611566 
   64900    190.42801   -118.15753   0.17230327   -117.98523   -4489.1782    4.3421081    4.3421081    4.3421081   -4489.1782    -9784.958   -5422.4066      1739.83    115.94005    2329.4591    541.19987    81.865685 
   65000    178.31154   -118.14651   0.16134003   -117.98517    1255.6845    4.3380233    4.3380233    4.3380233    1255.6845   -4340.2316   -2556.3168    10663.602   -3.5314939   -2744.8172    687.56481    81.634857 
   65100    142.86441   -118.11484   0.12926672   -117.98558    6019.0086    4.3369223    4.3369223    4.3369223    6019.0086    469.10753     5997.276    11590.642    755.00804    -2556.795   -267.64986    81.572715 
   65200    169.22635   -118.13851   0.15311956   -117.98539    429.39446    4.3387914    4.3387914    4.3387914    429.39446   -2982.8637   -4262.8682    8533.9153    875.46298   -430.99393    717.80579    81.678228 
   65300    231.90075   -118.19446   0.20982867   -117.98463   -5183.5091    4.3404878    4.3404878    4.3404878   -5183.5091   -6709.6358   -3439.5678   -5401.3238   -101.83558   -653.05187    -941.1527    81.774073 
   65400    180.29035   -118.14803    0.1631305   -117.98489    1134.2633    4.3395464    4.3395464    4.3395464    1134.2633    -929.2518   -3929.8872     8261.929   -1133.7234    1931.4266   -595.30698    81.720877 
   65500    208.25686   -118.17319   0.18843519   -117.98476    405.92568    4.3362195    4.3362195    4.3362195    405.92568   -4730.2089    1516.0641    4431.9219   -524.23347   -706.50249    176.77909    81.533064 
   65600    172.82258   -118.14191    0.1563735   -117.98553   -2216.9787    4.3397204    4.3397204    4.3397204   -2216.9787   -9399.8977   -7598.5314    10347.493    379.02383    3362.5734    1078.5072    81.730705 
   65700     178.0325   -118.14691   0.16108755   -117.98582    -2409.203    4.3412084    4.3412084    4.3412084    -2409.203   -11993.957   -4583.4539    9349.8018    723.57473   -2199.6533    -37.48641    81.814807 
   65800    173.97662   -118.14289    0.1574177   -117.98547     1825.476    4.3363115    4.3363115    4.3363115     1825.476    1411.5591   -356.13615    4421.0051    168.00933   -2133.1579    -1405.389    81.538256 
   65900      221.704   -118.18537   0.20060244   -117.98477   -2715.7903     4.338238     4.338238     4.338238   -2715.7903   -3622.7837   -1450.8376   -3073.7498   -810.85266   -1246.1478    2199.3905    81.646982 
   66000    194.34398   -118.16134   0.17584652    -117.9855   -2212.2555    4.3404386    4.3404386    4.3404386   -2212.2555     -7377.85   -2908.2218    3649.3053   -349.56227    618.08799   -1492.6562    81.771288 
   66100    209.08905   -118.17459   0.18918816    -117.9854   -9.6765241    4.3381341    4.3381341    4.3381341   -9.6765241    2069.9234   -3955.8701    1856.9171    236.91701    1874.8237   -214.67118    81.641116 
   66200    122.49582   -118.09657   0.11083679   -117.98573    6513.5504    4.3378054    4.3378054    4.3378054    6513.5504   -1190.6016    937.91462    19793.338    836.83039   -1610.4496   -1147.9785    81.622558 
   66300    207.70908   -118.17296   0.18793954   -117.98502    1152.6162    4.3377414    4.3377414    4.3377414    1152.6162   -5918.6203   -28.788709    9405.2575    120.35225    2046.3329    2096.2163    81.618945 
   66400    188.26141   -118.15523   0.17034288   -117.98489    644.75421    4.3389271    4.3389271    4.3389271    644.75421     -8010.09   -2071.1447    12015.497   -121.74569   -868.78264    2329.9928    81.685892 
   66500     238.6976   -118.20153   0.21597861   -117.98555   -4024.8957    4.3398428    4.3398428    4.3398428   -4024.8957   -7017.5184   -1797.6059   -3259.5627    797.88227   -1159.6463   -1787.1338    81.737619 
   66600    200.65993   -118.16751   0.18156132   -117.98595   -675.60563     4.337503     4.337503     4.337503   -675.60563   -5424.7327    3213.9541     183.9617    409.23711   -3521.4458      420.136    81.605485 
   66700    197.70815   -118.16437   0.17889049   -117.98548   -1364.6604    4.3386418    4.3386418    4.3386418   -1364.6604    -8889.291   -3303.4333    8098.7432    2203.7978    438.66803   -1600.2848    81.669781 
   66800     170.0825   -118.13899   0.15389422    -117.9851   -1654.8647    4.3404586    4.3404586    4.3404586   -1654.8647   -8087.0267   -5481.6224     8604.055    -22.42296     1393.992    1298.7595    81.772423 
   66900    140.19402   -118.11249    0.1268505   -117.98564    2220.7347    4.3387737    4.3387737    4.3387737    2220.7347     -2175.86   -2601.3762     11439.44   -726.32584    768.60913   -1741.0527    81.677231 
   67000    184.62883   -118.15248   0.16705605   -117.98542    1174.9738    4.3373948    4.3373948    4.3373948    1174.9738   -2355.7522   -2270.8086    8151.4821    471.76519    726.90615    1769.2381    81.599379 
   67100    228.58458   -118.19172   0.20682813   -117.98489   -3031.3642    4.3386972    4.3386972    4.3386972   -3031.3642    -6295.162   -4673.5331    1874.6025   -21.225022   -1347.4638    2523.8333    81.672911 
   67200    230.73114   -118.19375   0.20877038   -117.98498   -4089.7908    4.3409909    4.3409909    4.3409909   -4089.7908   -7308.5089   -2785.8022   -2175.0613    1169.1586   -994.88516   -490.40577    81.802508 
   67300    178.72654   -118.14669   0.16171553   -117.98497    2227.7941    4.3383838    4.3383838    4.3383838    2227.7941    452.52335   -2398.9102     8629.769   -1156.7722   -2941.9435    201.13542     81.65521 
   67400    198.18337   -118.16418   0.17932047   -117.98486    3128.5969     4.336247     4.336247     4.336247    3128.5969   -6933.5126     1681.578    14637.725   -319.29761    1005.1954   -2551.1311    81.534617 
   67500    176.05058   -118.14475   0.15929427   -117.98546     344.2945    4.3405755    4.3405755    4.3405755     344.2945    -6118.846   -4686.9752    11838.705     414.5158    354.66457    633.41296    81.779029 
   67600    186.66301   -118.15457   0.16889662   -117.98567   -1199.3451    4.3398638    4.3398638    4.3398638   -1199.3451   -1288.3193   -5975.4874    3665.7714    784.28326    423.51745   -255.58016     81.73881 
   67700    192.08656   -118.15941   0.17380396    -117.9856    1940.1477    4.3366464    4.3366464    4.3366464    1940.1477   -1151.9868    5176.0818    1796.3483    1076.9435    218.61141    110.86284    81.557151 
   67800    259.56228   -118.21957   0.23485741   -117.98471   -3032.7578    4.3382177    4.3382177    4.3382177   -3032.7578   -2762.5619   -4852.3859   -1483.3256    -793.9217   -58.975297    429.07805    81.645836 
   67900    157.24322   -118.12839   0.14227697   -117.98611   -482.36738    4.3395234    4.3395234    4.3395234   -482.36738   -9954.9097   -801.14887    9308.9564      1504.19   -1893.5249   -106.89811    81.719576 
   68000    199.63047     -118.167   0.18062984   -117.98637    -1303.699    4.3397081    4.3397081    4.3397081    -1303.699   -4257.8443   -3430.1383    3776.8857   -87.751726   -4035.7499   -699.99798     81.73001 
   68100    141.22215    -118.1132   0.12778077   -117.98542    5980.6669    4.3366932    4.3366932    4.3366932    5980.6669   -7525.4652    1882.2522    23585.214    1448.0012    522.87581   -1213.3882    81.559789 
   68200    233.43948   -118.19554   0.21122094   -117.98432   -2573.3548    4.3376175    4.3376175    4.3376175   -2573.3548   -8348.5687   -3497.8486    4126.3528    2150.5557    1217.6146   -1070.4662    81.611953 
   68300    216.53259   -118.18028   0.19592324   -117.98436   -5071.5304     4.342191     4.342191     4.342191   -5071.5304   -10867.405   -6831.5951    2484.4088   -1277.3984    972.13819   -543.96241    81.870372 
   68400    203.08663    -118.1687   0.18375706   -117.98494   -236.55877    4.3382198    4.3382198    4.3382198   -236.55877   -480.97178    116.54238   -345.24692    1284.9881   -1934.5656    1186.7496     81.64595 
   68500    222.00365   -118.18602   0.20087357   -117.98515    564.45817    4.3353948    4.3353948    4.3353948    564.45817   -2685.1503   -3670.8649    8049.3898    304.39827   -851.36796    329.98031    81.486553 
   68600    160.10029   -118.13069   0.14486211   -117.98582    359.76806    4.3408709    4.3408709    4.3408709    359.76806   -8625.9414   -2913.8268    12619.072    1221.3238   -953.67163    265.65568    81.795724 
   68700     173.3216   -118.14236   0.15682503   -117.98553    -751.6502    4.3406095    4.3406095    4.3406095    -751.6502   -890.83005   -8430.1742    7066.0536    392.03867   -3864.8824   -2381.4465    81.780949 
   68800    203.08116   -118.16952    0.1837521   -117.98576    2479.1493     4.336167     4.336167     4.336167    2479.1493   -2828.1937    152.43571    10113.206   -1227.4481   -1090.0415   -677.43531    81.530104 
   68900    207.46646   -118.17357   0.18772001   -117.98585     1647.922    4.3378997    4.3378997    4.3378997     1647.922   -1801.2654   -286.19704    7031.2284    714.56874    1885.2859   -683.88671    81.627881 
   69000    279.60462   -118.23814   0.25299214   -117.98515   -6875.4173    4.3407887    4.3407887    4.3407887   -6875.4173   -8454.1885   -7013.3124   -5158.7511   -664.10466    898.06457   -1026.8667    81.791078 
   69100    172.11496   -118.14124   0.15573324   -117.98551    1801.8296     4.339421     4.339421     4.339421    1801.8296   -1862.4353   -1858.4695    9126.3936    1579.2499   -1074.1602     409.5843    81.713792 
   69200    180.33936    -118.1477   0.16317485   -117.98452    5603.1265    4.3360895    4.3360895    4.3360895    5603.1265    411.61945    1919.3494    14478.411    216.70355   -1483.6143    -5.929507    81.525735 
   69300    205.32811   -118.17034   0.18578519   -117.98455    847.92852     4.337682     4.337682     4.337682    847.92852   -6181.5878   -4891.9089    13617.282    162.24554   -1209.1377    1634.8487    81.615591 
   69400    179.76045   -118.14799   0.16265103   -117.98534   -1959.6844    4.3417616    4.3417616    4.3417616   -1959.6844   -6236.9598   -4018.8025    4376.7091    1611.7984   -2492.5824    -1295.172    81.846086 
   69500    216.12194    -118.1811   0.19555168   -117.98555   -1388.3351    4.3379824    4.3379824    4.3379824   -1388.3351    139.34626   -2325.7592   -1978.5924   -137.71734   -2481.2853   -493.37963    81.632547 
   69600    201.76633   -118.16767   0.18256241   -117.98511    1185.1331    4.3355048    4.3355048    4.3355048    1185.1331   -3412.7559    1341.5478    5626.6075     3043.404     1167.483    450.13598     81.49276 
   69700    258.45391    -118.2186   0.23385453   -117.98475     -6305.36    4.3411328    4.3411328    4.3411328     -6305.36   -10799.829   -7476.1744   -640.07615    -512.4051    1566.7393     -120.153    81.810529 
   69800    155.63783   -118.12695   0.14082438   -117.98612    296.41956    4.3401855    4.3401855    4.3401855    296.41956   -5188.0944   -5231.0425    11308.396   -51.198955   -740.09252    65.915683    81.756985 
   69900    180.12702   -118.14915   0.16298272   -117.98617    3523.6993    4.3359822    4.3359822    4.3359822    3523.6993   -3822.0524   -370.58233    14763.733    1805.0197    -1714.063   -1030.8426    81.519682 
   70000    219.00264   -118.18331   0.19815819   -117.98516    496.91499     4.338179     4.338179     4.338179    496.91499   -5769.5567   -5676.3264    12936.628    174.77086   -737.28118    2144.3687     81.64365 
   70100    228.16797   -118.19116   0.20645118   -117.98471   -3409.6695    4.3412021    4.3412021    4.3412021   -3409.6695   -3515.0961   -2987.5471   -3726.3653    2193.3108   -2168.9072    888.43981    81.814447 
   70200     203.6357   -118.16919   0.18425386   -117.98493    540.29942    4.3381288    4.3381288    4.3381288    540.29942    1496.4443   -6255.9472    6380.4012   -472.79619   -299.99941   -513.61449    81.640816 
   70300     204.5651   -118.17023    0.1850948   -117.98514    2701.7299    4.3369258    4.3369258    4.3369258    2701.7299    1331.9121    1270.4042    5502.8734    1343.5344    1872.0362   -909.16994    81.572916 
   70400    192.58297   -118.15921   0.17425312   -117.98496    698.40315    4.3397815    4.3397815    4.3397815    698.40315   -3671.5092   -4105.9411    9872.6597    672.34269     2685.441   -997.41025    81.734157 
   70500    193.72202    -118.1602   0.17528376   -117.98492   -945.00562     4.339516     4.339516     4.339516   -945.00562   -7294.1691   -4572.2159    9031.3682   -8.5709788   -716.10552    1314.8162    81.719156 
   70600    172.51722   -118.14115   0.15609721   -117.98505    1526.9806    4.3378777    4.3378777    4.3378777    1526.9806   -232.70087   -222.88945    5036.5323    1315.2211   -3449.3462   -683.22538    81.626641 
   70700    267.98282   -118.22688   0.24247648   -117.98441    -3207.688     4.338677     4.338677     4.338677    -3207.688   -8310.1479   -925.88488   -387.03109   -1435.4708   -174.20148   -1180.1247    81.671768 
   70800    221.69708   -118.18653   0.20059617   -117.98594   -1927.5265    4.3389415    4.3389415    4.3389415   -1927.5265   -6711.8414   -2968.6461    3897.9079    1210.0195   -1957.9019    1127.6128    81.686706 
   70900    206.29276   -118.17282   0.18665802   -117.98616   -1534.3075    4.3393409    4.3393409    4.3393409   -1534.3075   -704.43865   -1018.8487    -2879.635    149.34872   -922.28818    987.81766    81.709267 
   71000     164.7673   -118.13503   0.14908492   -117.98595    3835.4302    4.3379788    4.3379788    4.3379788    3835.4302   -2252.7142    -3985.923    17744.928    1297.3652    163.19643    1104.5796    81.632345 
   71100    181.53737   -118.14946   0.16425883    -117.9852    3482.1293    4.3374512    4.3374512    4.3374512    3482.1293   -1732.5545   -115.33487    12294.277    1897.7721    3667.0444   -1825.5958    81.602562 
   71200    217.10136   -118.18132   0.19643787   -117.98488   -1831.1357    4.3404533    4.3404533    4.3404533   -1831.1357   -6841.1107   -4675.0801    6022.7837   -1091.9458    203.87477   -2518.3072     81.77212 
   71300    185.48071   -118.15308   0.16782684   -117.98525    277.96616    4.3385139    4.3385139    4.3385139    277.96616   -1761.9292   -2296.6617    4892.4893    3126.6483   -2027.9289    355.23258    81.662555 
   71400    250.66131   -118.21157   0.22680362   -117.98477   -2775.3874    4.3375383    4.3375383    4.3375383   -2775.3874   -8928.6612    2113.5854   -1511.0864    358.91335   -1540.1235    87.364084    81.607478 
   71500    221.80065   -118.18547   0.20068989   -117.98478   -3303.5224    4.3411953    4.3411953    4.3411953   -3303.5224    -8754.199   -5276.3594    4119.9913    201.85484   -888.72929    1295.1117    81.814066 
   71600    180.27939   -118.14796   0.16312058   -117.98484   -366.91746     4.338814     4.338814     4.338814   -366.91746   -7665.8768    173.41656    6391.7079    1046.9157    617.31966    617.04963    81.679504 
   71700    153.34684   -118.12424   0.13875145   -117.98549    3232.0404    4.3371472    4.3371472    4.3371472    3232.0404   -2339.0773   -4964.7371    16999.936   -823.07899   -605.08856    976.32166    81.585405 
   71800     193.3469   -118.16065   0.17494434    -117.9857   -24.329692    4.3409106    4.3409106    4.3409106   -24.329692   -4971.3008   -399.10774    5297.4194    2091.3442    3306.0443    278.87521    81.797969 
   71900    232.41752   -118.19563   0.21029626   -117.98534   -2082.1366    4.3385149    4.3385149    4.3385149   -2082.1366   -6600.3706   -3938.8482     4292.809   -388.58113   -337.99106   -1625.5763    81.662616 
   72000    205.09028   -118.17075      0.18557   -117.98518    95.497167    4.3379633    4.3379633    4.3379633    95.497167      2007.72     273.0243   -1994.2528    1477.4289   -2077.0206     -551.163    81.631471 
   72100    190.83539   -118.15779   0.17267187   -117.98512     766.7388     4.340635     4.340635     4.340635     766.7388   -6201.1813    1006.7594    7494.6383    559.13721   -2516.2605    217.83775    81.782389 
   72200    229.34822   -118.19219   0.20751909   -117.98467    290.41604    4.3378785    4.3378785    4.3378785    290.41604   -7839.5456   -164.50502    8875.2987   -114.08367   -881.22081    2970.7386    81.626684 
   72300    151.43764    -118.1225   0.13702396   -117.98548    3838.4173    4.3384041    4.3384041    4.3384041    3838.4173   -7887.7825    4036.5165    15366.518    2005.8717    313.60237    2202.2911     81.65636 
   72400     179.5062   -118.14799   0.16242098   -117.98557    595.11053    4.3397361    4.3397361    4.3397361    595.11053   -4524.2866   -2617.3494    8926.9677   -775.48191   -731.52637   -67.429524    81.731592 
   72500    226.67531   -118.19011   0.20510058     -117.985   -1526.8942    4.3377972    4.3377972    4.3377972   -1526.8942   -8356.1096    1508.2729     2267.154    1310.2483    2698.8851   -572.35209    81.622096 
   72600    267.92888   -118.22723   0.24242768    -117.9848    -4926.022    4.3399493    4.3399493    4.3399493    -4926.022   -7602.9611   -3641.4629   -3533.6421   -887.21581    200.80799   -881.83569    81.743638 
   72700    176.09859   -118.14575    0.1593377   -117.98641   -127.68761    4.3384574    4.3384574    4.3384574   -127.68761   -5374.0775   -2188.2184     7179.233   -126.40021   -823.98398    187.49343    81.659366 
   72800    179.83565   -118.14908   0.16271907   -117.98636    167.43478    4.3381985    4.3381985    4.3381985    167.43478   -4078.8284   -1253.9617    5835.0944    2775.2062   -2940.4379    213.26971    81.644747 
   72900    169.06992   -118.13851   0.15297802   -117.98553    1929.0175    4.3404377    4.3404377    4.3404377    1929.0175   -9069.7582   -979.88979      15836.7      -559.27    -416.7989    1028.9323    81.771237 
   73000    184.12137   -118.15155   0.16659688   -117.98495     1316.137    4.3374562    4.3374562    4.3374562     1316.137   -8824.0146    3633.4115     9139.014    2198.0152   -1137.7673    3480.0003    81.602848 
   73100    178.30325   -118.14642   0.16133253   -117.98509   -658.36598    4.3387276    4.3387276    4.3387276   -658.36598   -7221.5912    1495.3072     3751.186    773.11497   -971.96268    1719.7284    81.674627 
   73200    244.95121   -118.20638   0.22163701   -117.98475    -3672.868    4.3411753    4.3411753    4.3411753    -3672.868   -8955.3286   -1308.8591   -754.41641     466.7417    1737.9139   -798.57574    81.812933 
   73300    229.52433   -118.19237   0.20767843   -117.98469    53.562396    4.3372037    4.3372037    4.3372037    53.562396   -6943.5173    2977.9213    4126.2831    1822.8205    437.40297   -2299.8777    81.588597 
   73400    181.40269   -118.14945   0.16413696   -117.98531   -239.29327    4.3382756    4.3382756    4.3382756   -239.29327   -11096.641   -3826.3793    14205.141   -1871.9186    -208.6134   -370.54367    81.649102 
   73500    164.17801   -118.13411   0.14855171   -117.98556   -550.15707    4.3410509    4.3410509    4.3410509   -550.15707   -5902.7095   -2630.3846    6882.6229    846.87909   -2919.4337    1868.3294    81.805904 
   73600    180.55961   -118.14842   0.16337413   -117.98505    2832.8497    4.3378509    4.3378509    4.3378509    2832.8497   -4005.1609    1494.6694    11009.041   -609.81836    872.43554    918.93507    81.625128 
   73700    224.28562   -118.18797   0.20293834   -117.98503    -576.6021    4.3377821    4.3377821    4.3377821    -576.6021   -8298.9509    2214.3735     4354.771    758.04703   -771.31209    1295.3106    81.621244 
   73800    174.89924   -118.14402   0.15825251   -117.98577   -1530.6273    4.3395856    4.3395856    4.3395856   -1530.6273     -4553.83    4238.1012   -4276.1532     2300.679   -1801.8096   -59.019192    81.723091 
   73900    210.70739   -118.17592   0.19065248   -117.98527   -2152.4259    4.3398598    4.3398598    4.3398598   -2152.4259   -3370.3413   -1769.7839   -1317.1524    -74.35456    520.16745   -154.15879    81.738581 
   74000    179.28017   -118.14726   0.16221647   -117.98505    4227.0876    4.3377493    4.3377493    4.3377493    4227.0876   -6675.6692    5817.9555    13538.976    2057.4915    1226.2736   -1545.2378     81.61939 
   74100    200.73606   -118.16673   0.18163021    -117.9851    965.81281    4.3373491    4.3373491    4.3373491    965.81281   -2603.8221   -4761.9512    10263.212   -1162.0527     425.1075    -1908.693    81.596802 
   74200    151.62448   -118.12268   0.13719302   -117.98549   -837.71798    4.3401272    4.3401272    4.3401272   -837.71798   -10572.651   -2019.4068    10078.904    740.85377   -2740.6066    1421.0744    81.753694 
   74300    229.23304   -118.19216   0.20741488   -117.98474   -2345.2085    4.3400479    4.3400479    4.3400479   -2345.2085    -2499.317    -4986.878    450.56937    89.685376   -309.53795    1041.2368    81.749213 
   74400    238.42557    -118.1998   0.21573246   -117.98407    646.72818    4.3367697    4.3367697    4.3367697    646.72818   -6183.4023    2642.9434    5480.6434   -1559.1518    404.02876    2279.8307    81.564108 
   74500    213.12833   -118.17739   0.19284299   -117.98455   -3640.0926    4.3386974    4.3386974    4.3386974   -3640.0926   -9692.5519   -156.12255   -1071.6033    2380.1716   -1071.4885    703.87507    81.672922 
   74600    140.34145   -118.11274   0.12698389   -117.98575   -872.27624    4.3410955    4.3410955    4.3410955   -872.27624   -5982.0743   -4833.3029    8198.5485   -128.56783   -730.22661    -1548.572    81.808422 
   74700    191.49751    -118.1588   0.17327097   -117.98553    3274.6883    4.3381069    4.3381069    4.3381069    3274.6883   -5436.2492     5265.573     9994.741    2287.4769    1194.4086   -1043.1877    81.639576 
   74800    176.86403   -118.14524   0.16003029   -117.98521    3306.2666    4.3359371    4.3359371    4.3359371    3306.2666   -3387.4215   -2732.5803    16038.801    498.41019    1389.9424   -1914.8686    81.517136 
   74900    174.59626   -118.14354   0.15797837   -117.98556   -4118.1362    4.3403525    4.3403525    4.3403525   -4118.1362    -12330.95    100.55968     -124.018   -1028.2263   -1613.4488    527.94596    81.766424 
   75000    233.42403   -118.19646   0.21120697   -117.98525   -4742.1974    4.3410386    4.3410386    4.3410386   -4742.1974   -776.88778   -8878.2286   -4571.4757     883.1556   -816.26071    1489.7735    81.805205 
   75100    230.90466   -118.19388   0.20892739   -117.98496    2432.4151    4.3359643    4.3359643    4.3359643    2432.4151   -3864.4935    3223.9218    7937.8171    -2454.974   -700.05561    381.81451     81.51867 
   75200    213.51116   -118.17872   0.19318939   -117.98553   -1009.9943    4.3377617    4.3377617    4.3377617   -1009.9943   -5047.1924   -2878.6706    4895.8799    1279.8092   -989.22685    2189.0792    81.620089 
   75300    135.18584   -118.10808   0.12231899   -117.98576   -180.83262    4.3415063    4.3415063    4.3415063   -180.83262    -4236.328   -5641.9766    9335.8068   -709.18677   -697.72661   -733.96962    81.831651 
   75400    201.82366   -118.16741   0.18261429    -117.9848    2767.1468    4.3377858    4.3377858    4.3377858    2767.1468   -2149.2711     1620.052    8830.6595    889.44331    871.56047   -672.10104    81.621451 
   75500    192.63861    -118.1587   0.17430346   -117.98439    4778.2343    4.3361396    4.3361396    4.3361396    4778.2343    2191.8709    1553.1966    10589.635    1883.4292    1347.3474   -883.23925    81.528557 
   75600    212.13416   -118.17707   0.19194345   -117.98512   -4270.1803    4.3396848    4.3396848    4.3396848   -4270.1803   -7527.8504   -2584.7141   -2697.9764   -271.61647    -1636.472   -287.79732    81.728692 
   75700    203.89156   -118.17004   0.18448537   -117.98555   -3573.3103    4.3395919    4.3395919    4.3395919   -3573.3103   -4479.0343     -4084.18   -2156.7165    2328.3166   -1202.6095     1403.583    81.723443 
   75800    218.58939   -118.18309   0.19778428   -117.98531    1111.8343    4.3383962    4.3383962    4.3383962    1111.8343   -657.28018   -612.79256    4605.5756   -2617.9034    705.86539   -555.63881    81.655914 
   75900    194.99655   -118.16164   0.17643697    -117.9852    958.90941    4.3370161    4.3370161    4.3370161    958.90941    -8552.561   -1709.0477    13138.337    943.14299   -501.81922    1455.1508    81.578011 
   76000    170.73754   -118.14001   0.15448692   -117.98552   -2067.1634     4.338896     4.338896     4.338896   -2067.1634   -8119.1653   -3599.5858    5517.2608    503.65644   -1636.3984   -448.61244    81.684137 
   76100    187.94206   -118.15528   0.17005393   -117.98522   -791.39643    4.3410299    4.3410299    4.3410299   -791.39643   -4136.6377    -5797.973    7560.4214    9.9151048    309.83073    282.23413    81.804714 
   76200    241.21152   -118.20252   0.21825326   -117.98426    753.49885    4.3364668    4.3364668    4.3364668    753.49885   -2883.9745     3526.042    1618.4291    1826.5305    2627.2675   -1247.3614    81.547017 
   76300    206.96151   -118.17218   0.18726313   -117.98492   -1145.5307    4.3368084    4.3368084    4.3368084   -1145.5307   -3735.0897   -4335.5079    4634.0056   -1691.4618    -494.1803   -746.80819    81.566287 
   76400    188.26706   -118.15549   0.17034799   -117.98514   -3488.4702    4.3417445    4.3417445    4.3417445   -3488.4702   -6194.1313   -2785.3892   -1485.8899    2107.1439   -2046.8598    2551.7512     81.84512 
   76500    199.21843   -118.16541   0.18025702   -117.98515    2155.6119    4.3379194    4.3379194    4.3379194    2155.6119    1362.2323   -4966.8645    10071.468   -1041.6271    -1091.449    199.27375    81.628995 
   76600    184.85957   -118.15232   0.16726483   -117.98506    4739.5103    4.3359718    4.3359718    4.3359718    4739.5103   -3331.4402    2833.5022    14716.469     -424.618    286.01739    1748.0359    81.519092 
   76700    200.10878   -118.16637   0.18106263   -117.98531   -2353.8202    4.3400383    4.3400383    4.3400383   -2353.8202   -1788.8534   -7381.0151    2108.4078    341.81579   -872.33595   -439.92921    81.748666 
   76800    188.40945   -118.15541   0.17047683   -117.98493   -357.33056    4.3390169    4.3390169    4.3390169   -357.33056   -4526.2917   -1636.3117    5090.6117   -1574.4576     -1810.36   -969.11011    81.690965 
   76900    271.38721   -118.22986   0.24555685    -117.9843   -943.93356    4.3376172    4.3376172    4.3376172   -943.93356    1535.3991   -634.82232   -3732.3774    2679.3652    1645.1641    450.40102    81.611931 
   77000    185.86229   -118.15353   0.16817211   -117.98536    1122.2367    4.3379625    4.3379625    4.3379625    1122.2367   -2687.9502   -3269.9418    9324.6021   -1.2077587   -252.46368   -929.86764    81.631428 
   77100    190.92277   -118.15837   0.17275094   -117.98562   -2180.5118    4.3385583    4.3385583    4.3385583   -2180.5118   -8951.7652    70.827268    2339.4025    2184.7625   -1398.2179    227.68157    81.665065 
   77200    162.36854   -118.13254   0.14691447   -117.98563    3076.9126    4.3389194    4.3389194    4.3389194    3076.9126    1351.5734   -6232.9406    14112.105   -494.37332   -2238.6896     1031.923    81.685459 
   77300    221.27887   -118.18492   0.20021778    -117.9847    617.36997    4.3378975    4.3378975    4.3378975    617.36997    -6480.076    2633.1143    5699.0717   -1205.3802    175.08951     161.7543    81.627758 
   77400    195.83654   -118.16213   0.17719702   -117.98494   -2170.3362     4.337652     4.337652     4.337652   -2170.3362   -5441.3004   -5331.6186    4261.9104    3072.6413    85.024856    926.64066    81.613898 
   77500    215.02622   -118.17968   0.19456024   -117.98512   -3842.5521    4.3399621    4.3399621    4.3399621   -3842.5521   -7006.6308   -2262.6712   -2258.3544   -799.10185   -1229.3432    220.56418    81.744363 
   77600    239.11579   -118.20133   0.21635699   -117.98498   -1035.0401    4.3379897    4.3379897    4.3379897   -1035.0401    831.44687     -2582.54   -1354.0273    1543.0143    1983.5232   -1031.7373    81.632963 
   77700    182.02002   -118.15027   0.16469554   -117.98557    1760.7545    4.3370979    4.3370979    4.3370979    1760.7545   -6369.9219   -132.28346    11784.469   -883.82696   -101.79669    1008.6076    81.582623 
   77800    187.55305   -118.15528   0.16970194   -117.98558   -1362.1191    4.3396544    4.3396544    4.3396544   -1362.1191   -1986.2891   -6181.9589    4081.8906    460.74514   -1003.6063   -1168.2629    81.726975 
   77900    153.64437   -118.12445   0.13902065   -117.98543    4618.2423    4.3377731    4.3377731    4.3377731    4618.2423    1237.3294    489.52908    12127.869    2011.9203   -2136.1463    1227.2926    81.620736 
   78000    257.18961   -118.21727   0.23271056   -117.98456   -207.49173    4.3375898    4.3375898    4.3375898   -207.49173   -2003.4072   -1475.6518    2856.5838     -1545.85    824.69119   -114.09694    81.610384 
   78100    181.64776    -118.1494   0.16435871   -117.98504    216.59063     4.339397     4.339397     4.339397    216.59063    1386.3097   -1957.3115    1220.7737    1045.3578    82.359279   -542.67255    81.712435 
   78200     244.3689   -118.20596   0.22111012   -117.98485   -3402.5288    4.3382275    4.3382275    4.3382275   -3402.5288   -8246.5432   -1697.0786   -263.96477   -1933.6267   -1748.8866    431.07225    81.646385 
   78300     172.3746   -118.14131   0.15596816   -117.98535    4177.9711    4.3371303    4.3371303    4.3371303    4177.9711    3986.1125    577.37151    7970.4292    1047.3595    912.77902   -1652.2463    81.584454 
   78400     222.4085   -118.18642   0.20123989   -117.98518   -1430.9064    4.3393353    4.3393353    4.3393353   -1430.9064   -8571.3582   -2258.5325    6537.1714    2044.7401    1079.5374    1574.7221    81.708949 
   78500    157.54544   -118.12823   0.14255043   -117.98568   -270.85018    4.3383702    4.3383702    4.3383702   -270.85018   -6801.2126    -2990.478    8979.1401    442.01695    543.39382   -936.02829    81.654445 
   78600     197.8848   -118.16425   0.17905032    -117.9852   -284.73173    4.3376677    4.3376677    4.3376677   -284.73173   -5097.7033    1288.9738    2954.5343    886.27996   -4209.4062    1707.6761    81.614784 
   78700    244.94756   -118.20633    0.2216337    -117.9847   -2216.3022    4.3387608    4.3387608    4.3387608   -2216.3022   -1249.3096   -4782.2264   -617.37065   -1880.5058    453.63128   -925.67073      81.6765 
   78800    190.60973   -118.15737   0.17246769    -117.9849   -1773.1707    4.3386441    4.3386441    4.3386441   -1773.1707   -6575.6448    1299.9059   -43.773283    2505.3599    2414.2183   -1163.6381    81.669912 
   78900    227.87077   -118.19134   0.20618226   -117.98516   -4034.4911    4.3386221    4.3386221    4.3386221   -4034.4911   -8175.5444   -7784.9746    3857.0456    1212.2873   -265.50465    1508.4546    81.668668 
   79000    131.88823   -118.10519   0.11933524   -117.98585    6339.2548    4.3372852    4.3372852    4.3372852    6339.2548    5634.7328     2868.208    10514.824   -156.31093   -802.45942   -1910.5371    81.593198 
   79100     256.5867   -118.21723   0.23216504   -117.98506    -1668.779    4.3377257    4.3377257    4.3377257    -1668.779   -7336.0021   -5058.5305    7388.1955    927.36056    115.99971    1610.4016    81.618061 
   79200    132.99683   -118.10611   0.12033832   -117.98577     1676.657    4.3396868    4.3396868    4.3396868     1676.657    348.60606   -2213.6807    6895.0457   -380.10127    657.04719    -2131.502    81.728806 
   79300    265.61883   -118.22522    0.2403375   -117.98488   -3803.0828     4.338444     4.338444     4.338444   -3803.0828   -3838.0613   -3596.5167   -3974.6703    1892.3491   -2225.3372    540.07984    81.658611 
   79400    191.33748   -118.15812   0.17312617   -117.98499    4066.5582    4.3361515    4.3361515    4.3361515    4066.5582     3775.413    1917.7497    6506.5118    352.57023   -1466.2041    597.36537    81.529228 
   79500    224.34437   -118.18765    0.2029915   -117.98466   -3006.1093     4.339995     4.339995     4.339995   -3006.1093   -3616.1392   -2217.8071   -3184.3817   -817.35274   -116.47134    -2113.001     81.74622 
   79600    166.46424   -118.13577   0.15062034   -117.98515   -1241.0598     4.339666     4.339666     4.339666   -1241.0598   -8048.4333   -5362.2438    9687.4977   -222.75791    864.89989    833.79507    81.727635 
   79700    163.73315   -118.13347    0.1481492   -117.98532    4182.0535    4.3361722    4.3361722    4.3361722    4182.0535   -1385.2708    5520.1031    8411.3283   -1275.5489   -491.52014   -956.52021    81.530399 
   79800    228.50917   -118.19173    0.2067599   -117.98497   -257.26624    4.3380408    4.3380408    4.3380408   -257.26624   -3681.4841   -3535.1352    6444.8205    2266.5781   -743.16655    1267.9066    81.635844 
   79900    176.18789   -118.14479   0.15941851   -117.98537   -2699.1622    4.3403197    4.3403197    4.3403197   -2699.1622   -9335.5234   -215.91782    1453.9547    1756.6177    446.62272   -176.87445    81.764569 
   80000    262.04423   -118.22224   0.23710312   -117.98514   -6560.4283    4.3386578    4.3386578    4.3386578   -6560.4283   -9855.5319   -2994.5582   -6831.1948   -781.44231   -2764.8275   -250.53513    81.670685 
   80100    153.77866   -118.12476   0.13914216   -117.98562    5042.7293    4.3366343    4.3366343    4.3366343    5042.7293    1744.0344    2780.6924    10603.461   -132.58356    -859.5276   -821.26003    81.556466 
   80200    245.33339   -118.20696   0.22198281   -117.98497     -2993.76    4.3383658    4.3383658    4.3383658     -2993.76   -5968.6508   -3603.8325    591.20339   -10.248399    2519.9743   -696.98256    81.654195 
   80300    124.57368   -118.09835   0.11271688   -117.98563    952.14247    4.3399431    4.3399431    4.3399431    952.14247   -7430.9539   -1668.8927    11956.274    1908.9934     1923.743   -550.07453    81.743291 
   80400    226.53625   -118.18996   0.20497476   -117.98499   -1454.5173    4.3382797    4.3382797    4.3382797   -1454.5173   -1352.8161   -5865.6636    2854.9278    22.305241   -1880.5864    429.97059    81.649336 
   80500    165.50742   -118.13472   0.14975459   -117.98497    5408.7682    4.3355182    4.3355182    4.3355182    5408.7682    4766.6818    3192.6093    8267.0136    -295.8063    115.93071    808.35068    81.493513 
   80600    261.00828    -118.2209   0.23616578   -117.98474   -5797.3514    4.3399928    4.3399928    4.3399928   -5797.3514   -7434.7059   -5414.9471   -4542.4011    1165.6399     1408.861    217.81255    81.746097 
   80700    194.10359   -118.16113   0.17562901    -117.9855   -2983.2393     4.340516     4.340516     4.340516   -2983.2393   -3345.3525   -4633.5132   -970.85211   -390.59235    -853.2383     1342.174    81.775667 
   80800    181.29272   -118.14952   0.16403746   -117.98548    3681.1913    4.3360242    4.3360242    4.3360242    3681.1913    -941.9626     2175.337    9810.1994    1971.2808   -2906.5993   -908.51599     81.52205 
   80900    194.87472   -118.16146   0.17632674   -117.98514    2709.1839    4.3370859    4.3370859    4.3370859    2709.1839   -1127.5768     746.1444    8508.9841   -677.68186   -407.11031    417.58236    81.581947 
   81000     162.0817    -118.1319   0.14665493   -117.98525   -600.83537     4.340501     4.340501     4.340501   -600.83537   -7417.2974   -2965.1005    8579.8918   -966.08208    3000.9421   -1670.4754    81.774818 
   81100    233.92678   -118.19691   0.21166187   -117.98525   -4258.7495    4.3396562    4.3396562    4.3396562   -4258.7495   -8760.5316    -3351.305   -664.41199     225.2066    441.47969    1239.7278     81.72708 
   81200     170.1875   -118.13899   0.15398922     -117.985    4796.4812    4.3359301    4.3359301    4.3359301    4796.4812    2474.9388    6772.9704    5141.5345   -354.36542   -3313.6725    334.53113     81.51674 
   81300    274.50897   -118.23292   0.24838148   -117.98454   -4771.3246    4.3382113    4.3382113    4.3382113   -4771.3246   -8477.7237    -6195.739    359.48886     3492.881   -272.71924   -3.5842627    81.645473 
   81400    133.81362   -118.10636   0.12107738   -117.98528   -1205.0096    4.3413435    4.3413435    4.3413435   -1205.0096   -9740.7009    1808.5793    4317.0929   -573.56684    744.58688    1654.0612    81.822442 
   81500    231.35011   -118.19419   0.20933044   -117.98486   -3158.7464    4.3382487    4.3382487    4.3382487   -3158.7464   -8914.8854   -6625.7808    6064.4268   -566.30038   -1604.1511   -1786.1391    81.647584 
   81600    119.99934   -118.09397   0.10857793   -117.98539    7593.6104     4.334877     4.334877     4.334877    7593.6104    2752.6141    5085.7518    14942.465     1235.927   -580.45732    2064.1592    81.457362 
   81700    263.00473   -118.22281    0.2379722   -117.98484   -7170.5535    4.3405599    4.3405599    4.3405599   -7170.5535   -10906.047   -7322.5791   -3283.0347   -431.66967    1824.3826   -2407.9162    81.778147 
   81800    178.12662    -118.1464   0.16117271   -117.98523   -3810.2971    4.3409923    4.3409923    4.3409923   -3810.2971    -5851.462   -4517.7787   -1061.6507    1888.9641    121.65261    2245.4396    81.802588 
   81900    221.69139   -118.18522   0.20059103   -117.98463    538.04654    4.3363067    4.3363067    4.3363067    538.04654     4396.847   -1417.4922   -1365.2152   -1347.1164   -851.06321    1312.0878    81.537984 
   82000    198.33964   -118.16436   0.17946187    -117.9849    3242.6774    4.3366257    4.3366257    4.3366257    3242.6774    170.30534   -95.009214    9652.7361    1463.0124   -673.15471   -65.406989    81.555982 
   82100    168.32162   -118.13782   0.15230094   -117.98552   -195.36075    4.3399925    4.3399925    4.3399925   -195.36075   -2960.0049   -3059.5058    5433.4285    757.72819   -962.27218    2127.1813    81.746079 
   82200    208.89684   -118.17467   0.18901425   -117.98565   -2400.6053     4.340126     4.340126     4.340126   -2400.6053   -5241.2991   -7258.0711    5297.5543    114.93068     -1460.93   -2427.5854    81.753622 
   82300    143.57281   -118.11525   0.12990769   -117.98534    7552.8846    4.3356942    4.3356942    4.3356942    7552.8846    4792.0281    7058.8966    10807.729    2361.0381   -138.68351    1949.1933    81.503437 
   82400    293.25763   -118.25006   0.26534566   -117.98472   -4176.5036     4.336991     4.336991     4.336991   -4176.5036   -4972.6054   -3663.6634    -3893.242   -2563.1692    1322.2543    -1515.634    81.576592 
   82500    154.99456   -118.12557   0.14024233   -117.98533   -2776.2172    4.3424534    4.3424534    4.3424534   -2776.2172    -7218.383   -1183.8288    73.560123    672.75513    1349.2207   -328.80788    81.885215 
   82600      260.954   -118.22081   0.23611667   -117.98469   -5409.5523    4.3391481    4.3391481    4.3391481   -5409.5523   -7486.7914   -3358.6041   -5383.2613   -671.67538   -4082.4872    192.08838    81.698373 
   82700    114.60787   -118.08902   0.10369961   -117.98532    9058.0551     4.333705     4.333705     4.333705    9058.0551    3366.1883    5412.9796    18394.997    1622.6431    -2136.122   -405.98126    81.391309 
   82800    237.29646   -118.19942   0.21471082   -117.98471   -4964.3137    4.3403487    4.3403487    4.3403487   -4964.3137   -10517.265   -6278.9475    1903.2713    2320.0246    2240.8295    1961.7468    81.766212 
   82900    145.15015   -118.11658   0.13133491   -117.98524   -2327.4921    4.3418334    4.3418334    4.3418334   -2327.4921   -9586.7106   -2611.0187     5215.253   -2212.8423   -1492.7416   -599.08456     81.85015 
   83000     223.3437   -118.18705   0.20208607   -117.98497    -184.1724    4.3363117    4.3363117    4.3363117    -184.1724    1193.4951     -3096.96    1350.9477    2691.8118   -2899.5136    583.10854    81.538266 
   83100    232.92584   -118.19536    0.2107562   -117.98461    470.14403    4.3368397    4.3368397    4.3368397    470.14403   -1380.6469    752.84072    2038.2383    -112.4093    67.587106   -903.53109    81.568057 
   83200    204.10253    -118.1697   0.18467626   -117.98502   -3903.4996     4.340971     4.340971     4.340971   -3903.4996   -6970.2242    -5703.716    963.44146    650.97232      3240.45    -49.95427    81.801386 
   83300    219.77621   -118.18392   0.19885813   -117.98507   -3524.8272    4.3404178    4.3404178    4.3404178   -3524.8272   -6377.0605   -6683.4768    2486.0558   -271.79435    -464.0369   -1259.5163    81.770118 
   83400    141.75221   -118.11427   0.12826038   -117.98601     7540.595    4.3363121    4.3363121    4.3363121     7540.595    7689.9966    151.58777    14780.201   -1012.0168   -3336.8095    -294.9572     81.53829 
   83500    232.12317   -118.19582   0.21002992   -117.98579    1119.2136    4.3356893    4.3356893    4.3356893    1119.2136   -3943.9493   -252.62401    7554.2142    2181.2074   -1529.4964   -97.284366     81.50316 
   83600    168.80316   -118.13826   0.15273665   -117.98552   -2391.6516    4.3425171    4.3425171    4.3425171   -2391.6516   -517.01498   -5694.5764   -963.36342    -401.9361    250.58533    216.85294     81.88882 
   83700    253.84653   -118.21447   0.22968567   -117.98479   -4500.9419    4.3404749    4.3404749    4.3404749   -4500.9419   -1480.3285   -4803.8038   -7218.6934    2181.3038     227.8078    -378.3663    81.773344 
   83800    176.00666   -118.14388   0.15925452   -117.98463    7171.1659    4.3332254    4.3332254    4.3332254    7171.1659    5037.4327    7312.1194    9163.9455     487.2272   -2517.5456    -567.2412    81.364293 
   83900    244.99813   -118.20612   0.22167946   -117.98444   -3399.7961    4.3401498    4.3401498    4.3401498   -3399.7961   -3972.0128   -7631.6455    1404.2698   -1054.0332    1745.4335   -1054.4715    81.754969 
   84000    160.35639      -118.13   0.14509383    -117.9849    -2680.885    4.3430663    4.3430663    4.3430663    -2680.885   -12688.365   -1624.6829    6270.3926    892.13076   -1598.8593    -1434.922    81.919896 
   84100    187.02412   -118.15443   0.16922336   -117.98521    2822.1468    4.3359874    4.3359874    4.3359874    2822.1468    3127.1124   -2784.9211    8124.2492   -303.11621   -1567.0209    61.822137    81.519976 
   84200      210.997   -118.17525   0.19091452   -117.98434    2843.0361     4.336046     4.336046     4.336046    2843.0361   -3041.7626    783.52796    10787.343     1949.049   -763.97725   -736.83873    81.523277 
   84300    236.44944   -118.19893   0.21394442   -117.98498    -6401.804    4.3417015    4.3417015    4.3417015    -6401.804   -3022.6438   -8437.6118   -7745.1563   -878.94426    193.07932    995.28621    81.842688 
   84400    210.86361    -118.1765   0.19079382   -117.98571   -5176.5521    4.3417326    4.3417326    4.3417326   -5176.5521    -5273.995   -6579.9959   -3675.6653   -148.24108    131.65503   -201.22131    81.844444 
   84500    212.78519   -118.17772   0.19253251   -117.98519    3112.1306    4.3360051    4.3360051    4.3360051    3112.1306    7838.6949   -4319.6847    5817.3817    1871.1899    1427.5411   -813.64751    81.520975 
   84600    201.29256   -118.16708   0.18213374   -117.98495    2536.3326     4.336794     4.336794     4.336794    2536.3326   -1185.5979   -915.94254    9710.5384   -153.42148    4415.9542    429.59254    81.565476 
   84700     188.3696   -118.15501   0.17044077   -117.98457   -4511.1067    4.3432102    4.3432102    4.3432102   -4511.1067   -9860.3857   -9134.0576    5461.1232     720.1331    -818.9701   -3473.2384    81.928035 
   84800    175.24043   -118.14419   0.15856123   -117.98563    1003.9935    4.3401561    4.3401561    4.3401561    1003.9935    7130.7276   -4422.4149    303.66771   -1047.3477   -1758.2638   -478.93748    81.755325 
   84900    231.70827   -118.19424   0.20965451   -117.98458    5310.3837    4.3333875    4.3333875    4.3333875    5310.3837    831.97784     5862.096    9237.0773   -373.40963   -2285.6414    -1293.268    81.373422 
   85000    237.85546   -118.19987   0.21521661   -117.98465   -2775.1089    4.3405367    4.3405367    4.3405367   -2775.1089    3059.3584   -4964.6666   -6420.0185    -272.8135    2681.1214    336.03753    81.776836 
   85100    201.68855   -118.16702   0.18249204   -117.98453   -4794.3522     4.343973     4.343973     4.343973   -4794.3522   -5990.7535   -7421.4749    -970.8283    73.843063    836.34442    1600.1375    81.971209 
   85200    217.97439   -118.18181   0.19722781   -117.98458    3544.2386    4.3356076    4.3356076    4.3356076    3544.2386    3398.6453   -146.72194    7380.7923    1226.2734   -1835.4884   -33.010684    81.498553 
   85300    164.08304   -118.13348   0.14846579   -117.98501    7529.9596    4.3356211    4.3356211    4.3356211    7529.9596    488.41252    629.59538    21471.871    183.77071     1705.039    1035.9076    81.499317 
   85400    239.09206   -118.20154   0.21633552    -117.9852   -6215.2879    4.3427671    4.3427671    4.3427671   -6215.2879   -10669.276   -9731.7871    1755.1992   -268.58626    785.66998   -2041.1551    81.902965 
   85500    181.52136   -118.14981   0.16424434   -117.98556   -1984.4496    4.3411882    4.3411882    4.3411882   -1984.4496   -5147.2461   -772.13189   -33.970895    986.80788    1026.6305   -1736.7926    81.813663 
   85600    277.22161   -118.23509   0.25083593   -117.98425   -494.56898    4.3357182    4.3357182    4.3357182   -494.56898   -343.40112   -2101.2993    960.99348    1057.9471   -4071.8639   -754.42453    81.504793 
   85700    196.89163   -118.16401   0.17815168   -117.98586    1112.5341    4.3379148    4.3379148    4.3379148    1112.5341   -1156.6792     2910.223    1584.0584   -143.46983    2729.8492    680.10291    81.628735 
   85800    233.78448   -118.19692   0.21153311   -117.98539   -7725.7388    4.3435895    4.3435895    4.3435895   -7725.7388   -11180.809   -10860.202   -1136.2055   -981.58383    1784.6332    1802.8537    81.949503 
   85900    128.25284   -118.10226   0.11604586   -117.98621    4730.6269    4.3390666    4.3390666    4.3390666    4730.6269    2616.2797   -3909.3615    15484.962    414.59406    1068.2645    503.59767    81.693774 
   86000    202.19659   -118.16767   0.18295172   -117.98471    6149.9647    4.3348406    4.3348406    4.3348406    6149.9647    3833.1409   -1184.7235    15801.477    630.10848    1173.0402    1688.2791    81.455311 
   86100    225.30082   -118.18822   0.20385692   -117.98437   -1707.8245    4.3402609    4.3402609    4.3402609   -1707.8245   -4490.9929    -5397.862    4765.3815   -745.32294   -1230.8188   -141.36872    81.761248 
   86200     248.1693   -118.20861    0.2245488   -117.98406   -7055.0159    4.3434959    4.3434959    4.3434959   -7055.0159   -2740.3686   -12086.131   -6338.5481    201.33667     1823.858   -815.85218    81.944208 
   86300    250.77399   -118.21143   0.22690558   -117.98453    305.29501    4.3377492    4.3377492    4.3377492    305.29501     4835.718   -4704.2134    784.38035    438.53003   -2490.4588   -1056.3144    81.619384 
   86400    234.05162   -118.19691   0.21177482   -117.98514    3640.8991    4.3357969    4.3357969    4.3357969    3640.8991   -1083.7563    502.93811    11503.516   -539.73919    1311.2568   -387.11078    81.509232 
   86500    204.13312   -118.16978   0.18470394   -117.98507   -2057.8224    4.3419343    4.3419343    4.3419343   -2057.8224    122.56469   -10804.091    4508.0587     184.3223    -989.1576     1679.906    81.855853 
   86600    130.76445   -118.10435   0.11831842   -117.98603    1964.2622    4.3417843    4.3417843    4.3417843    1964.2622   -4838.6325   -4392.5993    15124.018    263.17475    1875.0668    1577.1839    81.847371 
   86700    234.98063   -118.19843   0.21261541   -117.98582    3070.1158    4.3349714    4.3349714    4.3349714    3070.1158     2748.307    269.15008    6192.8905    265.28577   -456.94909    1443.7103    81.462684 
   86800    185.19039   -118.15323   0.16756416   -117.98566    2871.6559    4.3377585    4.3377585    4.3377585    2871.6559    1186.1705    2820.3496    4608.4475   -1343.4113    544.50246    1431.3863    81.619907 
   86900    294.24851   -118.25094   0.26624223   -117.98469   -11893.954    4.3445639    4.3445639    4.3445639   -11893.954   -13107.118   -8774.3025   -13800.442    -232.4639   -58.556588   -1171.3493    82.004669 
   87000    162.31909   -118.13267   0.14686973    -117.9858    2241.9088    4.3386901    4.3386901    4.3386901    2241.9088    2177.2233   -1605.7893    6154.2924    1712.8063   -4280.9712   -1505.6991    81.672506 
   87100    268.53834   -118.22752   0.24297913   -117.98454    2113.4566    4.3353179    4.3353179    4.3353179    2113.4566   -1702.7807   -3256.9042    11300.055    481.82112    2741.3254   -1136.8523    81.482219 
   87200    133.94202   -118.10724   0.12119356   -117.98605    3510.4998    4.3403485    4.3403485    4.3403485    3510.4998    -1827.021    -3232.599    15591.119    271.15657   -235.10266    238.32893    81.766197 
   87300    228.06227   -118.19169   0.20635554   -117.98533   -5462.8848    4.3427605    4.3427605    4.3427605   -5462.8848   -6973.7418   -13384.659    3969.7467   -337.84062    809.39632    1675.5307    81.902588 
   87400    218.73894   -118.18301   0.19791959   -117.98509    2981.9105    4.3373156    4.3373156    4.3373156    2981.9105     6557.567   -3329.5187    5717.6832    720.05581   -2814.8995    495.13889    81.594911 
   87500    281.21871   -118.23878    0.2544526   -117.98433   -320.50665    4.3364899    4.3364899    4.3364899   -320.50665   -640.00585   -348.46857    26.954458    99.501172    795.81442    1178.4579    81.548319 
   87600    213.99032   -118.17891   0.19362294   -117.98529   -4483.9179    4.3427616    4.3427616    4.3427616   -4483.9179   -5576.4689   -7610.8739   -264.41083   -633.24922    799.82141   -808.46235    81.902653 
   87700    174.03005   -118.14341   0.15746604   -117.98595    113.15846    4.3415596    4.3415596    4.3415596    113.15846    1688.7418   -7253.6471    5904.3806    1312.4071   -1406.8545   -2506.2201    81.834666 
   87800    187.84003   -118.15503    0.1699616   -117.98506    6672.4604    4.3352142    4.3352142    4.3352142    6672.4604   -2925.9493   -949.99139    23893.322   -527.95686    -26.71944   -1911.8906     81.47637 
   87900    156.90488   -118.12725   0.14197083   -117.98528    4373.8304    4.3389832    4.3389832    4.3389832    4373.8304    3082.6609   -1366.7555    11405.586   -562.10459   -307.27345   -1756.8589    81.689064 
   88000    255.83743   -118.21655   0.23148708   -117.98506    -7847.405     4.343551     4.343551     4.343551    -7847.405   -9356.1726   -12778.517   -1407.5258    943.03987     2255.408    1139.5202    81.947326 
   88100    215.17803   -118.17989    0.1946976   -117.98519   -445.42864    4.3385955    4.3385955    4.3385955   -445.42864    522.25745    -1256.405   -602.13842    429.16284   -4335.8563    629.14002    81.667164 
   88200    306.00081   -118.26152   0.27687596   -117.98464   -1836.6854    4.3373915    4.3373915    4.3373915   -1836.6854    -1118.324   -7053.7089    2661.9767   -250.38809    819.63324    1549.4936    81.599194 
   88300    159.46291   -118.13054   0.14428539   -117.98625    2582.7324    4.3398954    4.3398954    4.3398954    2582.7324   -3510.2464   -3119.5933    14378.037   -1336.1286   -268.70859    570.07723    81.740596 
   88400    197.98244   -118.16479   0.17913868   -117.98565   -2691.0391    4.3417188    4.3417188    4.3417188   -2691.0391    -7961.026   -8859.2933    8747.2019    954.38191    2194.3646   -1498.4795    81.843664 
   88500    174.20757   -118.14398   0.15762667   -117.98635    4607.1193    4.3384852    4.3384852    4.3384852    4607.1193    738.83688   -4234.6658    17317.187    1089.7664   -126.59969   -1861.9162    81.660938 
   88600    238.67094   -118.20176   0.21595449   -117.98581    1699.5111    4.3364652    4.3364652    4.3364652    1699.5111   -509.83958    1900.7528    3707.6202    504.44591    1494.7007   -1498.3482    81.546929 
   88700    212.59483   -118.17792   0.19236027   -117.98556   -4636.1698    4.3419349    4.3419349    4.3419349   -4636.1698   -6740.6444   -2595.7652   -4572.0997    1008.8799    3442.0804   -453.02741    81.855886 
   88800    238.10483   -118.20046   0.21544225   -117.98502   -4943.7806    4.3424188    4.3424188    4.3424188   -4943.7806   -2260.0711   -9384.8834   -3186.3872    516.10226   -2301.3406    1707.0059    81.883261 
   88900    182.76126   -118.15032   0.16536623   -117.98495    5974.8799    4.3358331    4.3358331    4.3358331    5974.8799    968.54864   -1251.4948    18207.586    311.39504    1542.1552    2110.4491     81.51127 
   89000    195.94505   -118.16268    0.1772952   -117.98539    1807.1851    4.3386643    4.3386643    4.3386643    1807.1851   -2145.6518   -5675.5512    13242.758   -668.53884   -1509.4726    1694.0389    81.671049 
   89100    175.97834   -118.14464    0.1592289   -117.98541   -2712.9164    4.3430647    4.3430647    4.3430647   -2712.9164   -7056.9972   -13562.767    12481.015    727.10699    3432.0996   -283.60881    81.919801 
   89200    231.83645   -118.19455   0.20977049   -117.98478   -1060.4851    4.3394403    4.3394403    4.3394403   -1060.4851    5650.2885   -8108.0786   -723.66504    84.613618    1070.2718   -1593.6977    81.714882 
   89300    279.07084   -118.23659   0.25250916   -117.98409    -533.2162     4.337503     4.337503     4.337503    -533.2162   -1279.7994   -5945.3815    5625.5323   -1353.3534    1131.2283   -294.65551    81.605486 
   89400     202.4827   -118.16847    0.1832106   -117.98526   -780.54815    4.3401834    4.3401834    4.3401834   -780.54815    7443.4606   -6508.3733   -3276.7317    1016.8303   -419.81121   -772.04137    81.756867 
   89500    200.84979   -118.16778   0.18173311   -117.98605   -2678.1009    4.3420405    4.3420405    4.3420405   -2678.1009   -7208.8933   -9998.5742    9173.1648    2398.8223   -2508.3025    699.26075    81.861858 
   89600    156.58739     -118.128   0.14168356   -117.98632    5847.2868    4.3382551    4.3382551    4.3382551    5847.2868    3945.8049   -1906.4919    15502.548    452.29969    287.55393    1353.3037    81.647946 
   89700     206.9533   -118.17274    0.1872557   -117.98549    3114.0195    4.3362827    4.3362827    4.3362827    3114.0195   -585.70551   -3701.7356      13629.5   -409.21203   -1024.4528     2653.861    81.536633 
   89800    205.05623   -118.17101   0.18553919   -117.98547    -4363.192    4.3423437    4.3423437    4.3423437    -4363.192   -9492.9477   -2807.3948   -789.23361   -268.92852    3883.7145    1365.1721    81.879008 
   89900    215.63315   -118.18094   0.19510941   -117.98583   -3140.4729    4.3415033    4.3415033    4.3415033   -3140.4729    1265.1545   -8524.8114   -2161.7617    30.190786    -2458.601   -1474.4558    81.831481 
   90000    272.39397   -118.23149   0.24646779   -117.98502   -13.486134     4.335838     4.335838     4.335838   -13.486134   -1001.3809   -1608.8159    2569.7384   -61.285044    2883.1619    -866.4431    81.511547 
   90100    158.69268   -118.12963   0.14358847   -117.98604    1946.6062    4.3398924    4.3398924    4.3398924    1946.6062    1734.3495   -6280.3706     10385.84    276.27969   -1516.6935   -1666.3151    81.740426 
   90200    183.40871   -118.15156   0.16595206    -117.9856   -2342.0597    4.3423578    4.3423578    4.3423578   -2342.0597   -11158.292   -11005.465    15137.578    1281.8535   -2631.1163    482.39507    81.879808 
   90300    185.26079   -118.15289   0.16762785   -117.98527    4425.2933    4.3376843    4.3376843    4.3376843    4425.2933     6139.921   -7787.7182    14923.677    339.97621   -1749.9708    481.22486    81.615719 
   90400    264.06577    -118.2237   0.23893226   -117.98477   -911.50031    4.3383237    4.3383237    4.3383237   -911.50031   -4799.9092   -6173.5818      8238.99    225.29594   -206.79715     1675.391     81.65182 
   90500    236.31024   -118.19958   0.21381847   -117.98577   -5612.5955    4.3410612    4.3410612    4.3410612   -5612.5955   -5283.0976   -9702.3858   -1852.3029    2724.8093    3269.2097    595.46391    81.806483 
   90600    194.27774   -118.16188   0.17578658    -117.9861   -1302.3175    4.3410771    4.3410771    4.3410771   -1302.3175   -3155.5747   -8362.2032    7610.8255     1219.583   -2153.1704   -945.96193    81.807382 
   90700    237.36558   -118.20016   0.21477337   -117.98538    1630.6231    4.3382389    4.3382389    4.3382389    1630.6231   -3192.5378   -6070.3069    14154.714   -331.39789    937.68348   -1520.2152    81.647028 
   90800    130.93477   -118.10498   0.11847253   -117.98651    5962.8166    4.3370619    4.3370619    4.3370619    5962.8166    1336.2477   -4875.6256    21427.828   -428.72591   -2359.1177   -1782.7081    81.580595 
   90900    189.76651   -118.15829   0.17170472   -117.98659   -3016.4196    4.3422353    4.3422353    4.3422353   -3016.4196   -5004.6405   -9886.7083      5842.09    581.23535   -542.35266   -335.35688    81.872876 
   91000    227.27105   -118.19142   0.20563962   -117.98578   -1529.0311    4.3403761    4.3403761    4.3403761   -1529.0311   -90.120012   -4932.7311    435.75773     677.9673   -4143.7053    183.56814    81.767756 
   91100    251.81817   -118.21273   0.22785037   -117.98488    762.27306    4.3362027    4.3362027    4.3362027    762.27306    5086.2524   -4549.1904    1749.7572   -1171.5616   -108.72375    2371.6699    81.532117 
   91200    199.38283   -118.16586   0.18040577   -117.98545   -2127.6822    4.3407171    4.3407171    4.3407171   -2127.6822   -4457.5324   -10395.781    8470.2667    1051.4559    3362.7044    1549.6385    81.787029 
   91300    172.53904   -118.14164   0.15611695   -117.98552   -1039.6257    4.3416924    4.3416924    4.3416924   -1039.6257   -6913.8265   -6303.0993    10098.049   -187.45045   -8.5533316    30.891904    81.842171 
   91400    213.88585   -118.17896   0.19352842   -117.98543    3673.6201    4.3375293    4.3375293    4.3375293    3673.6201    855.09375   -6517.4001    16683.167    591.18747   -350.44951   -571.04794    81.606975 
   91500    232.11609   -118.19514   0.21002352   -117.98512    649.22703    4.3380387    4.3380387    4.3380387    649.22703   -2828.1581   -4634.4316    9410.2708    1986.5944   -2971.1658    -1104.595    81.635727 
   91600     208.8331   -118.17457   0.18895658   -117.98562   -4485.1643    4.3408794    4.3408794    4.3408794   -4485.1643   -4399.8388   -6836.6088   -2219.0452    724.34324    2404.9569    -1019.387    81.796209 
   91700    256.23968   -118.21724   0.23185105   -117.98539   -4261.5009    4.3416382    4.3416382    4.3416382   -4261.5009   -5965.2307   -6663.2223   -156.04986    436.53521   -683.49849   -367.15513     81.83911 
   91800    182.49111   -118.15121    0.1651218   -117.98609    6515.2375    4.3370031    4.3370031    4.3370031    6515.2375    3894.7765   -4242.2424    19893.178   -2245.8556    2161.0166    2274.0386    81.577273 
   91900    150.15316   -118.12284   0.13586173   -117.98698    3740.0963    4.3374344    4.3374344    4.3374344    3740.0963   -4054.6989   -3585.2567    18860.244    1207.6302    955.25743    901.96145    81.601616 
   92000     197.8101    -118.1654   0.17898274   -117.98642   -4406.1376    4.3429041    4.3429041    4.3429041   -4406.1376   -8948.5621   -12897.074    8627.2234    2044.8014    2083.8779    532.15432    81.910715 
   92100    217.92175   -118.18315   0.19718018   -117.98597     873.3295    4.3393407    4.3393407    4.3393407     873.3295    1759.4194   -2946.6338    3807.2029   -981.96212    740.22353   -1722.9875    81.709254 
   92200    291.89652   -118.24916    0.2641141   -117.98505   -1673.2179    4.3360116    4.3360116    4.3360116   -1673.2179   -2354.1222   -6085.5339    3420.0025    2003.2754   -2360.3856   -179.18753    81.521339 
   92300    164.97451   -118.13562   0.14927241   -117.98634   -1015.1258    4.3407549    4.3407549    4.3407549   -1015.1258   -2506.9669   -10144.999    9606.5885    585.89354    844.69674   -326.74885    81.789169 
   92400    222.77239   -118.18704   0.20156914   -117.98547   -2755.9968    4.3413841    4.3413841    4.3413841   -2755.9968   -7365.8456   -10497.698    9595.5528    1426.8849   -1525.2462   -2369.7154    81.824739 
   92500    176.04205   -118.14477   0.15928655   -117.98549    6438.8861    4.3374106    4.3374106    4.3374106    6438.8861    1048.1193    -3201.965    21470.504    999.30351    3505.6948    1692.3601    81.600273 
   92600    233.34645   -118.19654   0.21113677   -117.98541   -520.74132      4.33788      4.33788      4.33788   -520.74132   -1348.6003   -7140.5798    6926.9562    75.219959    775.38952     402.6926    81.626771 
   92700     217.3589   -118.18235    0.1966709   -117.98568   -4213.2839    4.3408525    4.3408525    4.3408525   -4213.2839   -2818.6649   -7109.7731   -2711.4137    584.45886    1414.4873    1124.3402    81.794686 
   92800    241.12334    -118.2038   0.21817346   -117.98562   -2345.6575    4.3410798    4.3410798    4.3410798   -2345.6575   -5408.4635   -5203.2412    3574.7321    -2893.799   -535.37117   -1390.5695    81.807538 
   92900    199.73969    -118.1666   0.18072867   -117.98587     3747.592    4.3375285    4.3375285    4.3375285     3747.592    1731.0708   -4206.5824    13718.288    1492.3738   -2384.9227   -830.13768    81.606925 
   93000    165.29008   -118.13611   0.14955794   -117.98655    2463.1383    4.3378986    4.3378986    4.3378986    2463.1383   -4890.7173   -4532.7152    16812.847    1723.8761    1235.3758     477.1851    81.627819 
   93100    185.10738   -118.15373   0.16748905   -117.98625   -1688.5296    4.3413817    4.3413817    4.3413817   -1688.5296   -10380.818    -7550.815    12866.044    389.23653   -3082.4002   -816.28423    81.824607 
   93200    256.68776   -118.21781   0.23225648   -117.98556   -2370.9398     4.340566     4.340566     4.340566   -2370.9398   -2937.1344   -3808.5087   -367.17621    393.02551    1744.2339    1081.6268    81.778492 
   93300    269.22109   -118.22887    0.2435969   -117.98528   -716.43003    4.3375066    4.3375066    4.3375066   -716.43003   -3588.2012   -4340.0576    5778.9687   -1247.3699    453.90039    543.43107     81.60569 
   93400    178.31475   -118.14759   0.16134293   -117.98625    1595.0418    4.3384171    4.3384171    4.3384171    1595.0418   -4513.7682    -1347.269    10646.163    2225.5722    1354.8547    1680.6956    81.657094 
   93500    230.74883   -118.19426   0.20878639   -117.98547   -2482.0786    4.3417956    4.3417956    4.3417956   -2482.0786   -9620.4623   -9479.0674    11653.294   -321.83886   -1844.6034   -967.76987    81.848008 
   93600    151.82954   -118.12317   0.13737855   -117.98579    6055.3333    4.3394634    4.3394634    4.3394634    6055.3333     1832.824   -1830.5895    18163.765    306.06188     -2779.09   -568.41476    81.716187 
   93700    239.54058   -118.20205   0.21674135   -117.98531   -122.38898    4.3359348    4.3359348    4.3359348   -122.38898   -4742.6121   -3013.7896    7389.2348    1806.8273    1695.8027    224.23814    81.517009 
   93800    187.46946   -118.15509   0.16962631   -117.98547   -1528.0468    4.3402761    4.3402761    4.3402761   -1528.0468    2409.2944   -7222.5891    229.15406   -1548.0967   -178.81369    1710.7467    81.762105 
   93900    284.97906    -118.2433   0.25785504   -117.98545   -6412.1545    4.3422385    4.3422385    4.3422385   -6412.1545   -7566.9846   -7296.4347   -4373.0442    2098.3604    903.97068    589.93542    81.873062 
   94000    190.67629    -118.1591   0.17252792   -117.98658    3409.5475    4.3369662    4.3369662    4.3369662    3409.5475    1560.4983   -4556.9113    13225.056    1263.7866   -711.85305    851.19872    81.575191 
   94100    176.14369   -118.14574   0.15937851   -117.98636    2616.4225    4.3381367    4.3381367    4.3381367    2616.4225   -2119.0746    -5177.043    15145.385    1092.5295    3157.0642    678.88348    81.641261 
   94200    193.82178   -118.16124   0.17537402   -117.98587   -860.47463    4.3407719    4.3407719    4.3407719   -860.47463   -8196.5215   -7549.7658    13164.863   -834.20589   -926.55848   -1045.5175    81.790129 
   94300    258.69221   -118.21949   0.23407015   -117.98542   -3099.9231    4.3406896    4.3406896    4.3406896   -3099.9231   -4372.8317   -4682.2162   -244.72134   -1775.1773   -1378.5257     374.5956    81.785479 
   94400    230.53445   -118.19437   0.20859241   -117.98578    655.07508    4.3388973    4.3388973    4.3388973    655.07508   -1962.4497   -4257.1832    8184.8582    2713.3997   -849.43728   -412.14674    81.684211 
   94500    229.90675   -118.19406   0.20802446   -117.98603    -543.1377     4.337245     4.337245     4.337245    -543.1377   -3163.1734   -1377.9789    2911.7392   -175.00081    3053.7374    1636.9692    81.590926 
   94600    176.44279   -118.14544   0.15964914   -117.98579   -372.25544    4.3415426    4.3415426    4.3415426   -372.25544   -9823.1592   -6090.3888    14796.782    672.08162    4166.9291   -7.8195523    81.833703 
   94700    198.63386   -118.16522   0.17972809   -117.98549    501.21665     4.341583     4.341583     4.341583    501.21665   -3754.2679   -5369.2405    10627.158   -293.88042   -612.60502    543.33306    81.835986 
   94800    190.53959   -118.15761   0.17240422   -117.98521    3334.6552    4.3352716    4.3352716    4.3352716    3334.6552   -4046.5841   -1414.7931    15465.343   -418.43091    3689.0717   -284.46734    81.479606 
   94900    239.90511   -118.20241   0.21707118   -117.98534   -4031.0683    4.3402164    4.3402164    4.3402164   -4031.0683   -5467.2886    -607.8008   -6018.1154     1624.342    116.70166    -1306.195    81.758733 
   95000    267.11359   -118.22741   0.24168999   -117.98572   -6202.8129    4.3426514    4.3426514    4.3426514   -6202.8129   -12621.836   -8970.2785    2983.6762    319.27324   -230.75934   -217.81694    81.896417 
   95100    195.30602   -118.16255   0.17671699   -117.98583    2928.2445      4.33756      4.33756      4.33756    2928.2445    821.89164    1287.1746    6675.6672    2215.9148   -798.63872    93.333765    81.608705 
   95200    191.35327   -118.15876   0.17314046   -117.98562    3230.5911    4.3378018    4.3378018    4.3378018    3230.5911   -8188.2705   -2998.6582    20878.702   -1094.8613    675.83203    2667.6443    81.622354 
   95300    193.82487   -118.16181   0.17537682   -117.98643    761.51845    4.3398702    4.3398702    4.3398702    761.51845    264.36883   -6655.1982    8675.3847   -1303.2679    3891.3037    59.648255    81.739168 
   95400    214.15871   -118.18008   0.19377531   -117.98631   -457.24298      4.34074      4.34074      4.34074   -457.24298    -4199.549   -4303.3548    7131.1748    2188.3918   -745.92948   -288.90285    81.788328 
   95500    270.87046   -118.23071   0.24508928   -117.98562   -2097.9445    4.3395266    4.3395266    4.3395266   -2097.9445    2826.0208   -8816.2174   -303.63698    320.77583    1244.2232   -357.58464    81.719754 
   95600    192.24067   -118.15988    0.1739434   -117.98594     1849.336    4.3370932    4.3370932    4.3370932     1849.336    3604.1906   -222.25862    2166.0759    453.13521   -2705.4926    935.15238    81.582362 
   95700     227.0227   -118.19062   0.20541491    -117.9852   -3861.9434    4.3414225    4.3414225    4.3414225   -3861.9434   -8471.6478   -11505.127    8390.9447   -1391.6815    914.53804   -110.38086    81.826909 
   95800    166.95798   -118.13686   0.15106709    -117.9858      1598.14    4.3417843    4.3417843    4.3417843      1598.14   -3863.8761   -4241.8267    12900.123    643.74949   -1681.0266     538.4294     81.84737 
   95900    213.80332   -118.17946   0.19345374     -117.986    2496.0509    4.3363898    4.3363898    4.3363898    2496.0509   -3646.9399   -3335.2468    14470.339    2026.3473    905.14423    2571.3657    81.542672 
   96000    229.24778     -118.193   0.20742821   -117.98557   -1846.6636    4.3393554    4.3393554    4.3393554   -1846.6636   -5674.5754   -1324.9923     1459.577   -87.240881    1420.6919    1950.0186    81.710083 
   96100      235.359   -118.19774   0.21295777   -117.98478   -4865.5341    4.3428361    4.3428361    4.3428361   -4865.5341   -12257.092   -3540.2726    1200.7622    1620.4499   -1715.8941   -295.84146     81.90687 
   96200    257.87051    -118.2181   0.23332666   -117.98477   -1167.7825    4.3389959    4.3389959    4.3389959   -1167.7825   -823.06623   -4821.9019    2141.6207   -1378.0841    717.12092   -1837.3394    81.689777 
   96300    161.51908   -118.13247   0.14614586   -117.98632    5317.5387    4.3372587    4.3372587    4.3372587    5317.5387     -6147.29   -336.48407     22436.39   -911.83765   -2815.2089     57.05029      81.5917 
   96400    171.73275   -118.14215    0.1553874   -117.98676    851.36382     4.339421     4.339421     4.339421    851.36382    -3738.897   -2957.4762    9250.4646    684.79948   -195.86672   -495.37406    81.713789 
   96500    217.25663   -118.18213   0.19657837   -117.98555   -2905.8957    4.3418451    4.3418451    4.3418451   -2905.8957   -9980.3013   -10398.373    11660.987    1225.9508   -1418.7745    1466.8296    81.850808 
   96600    252.84707   -118.21385   0.22878134   -117.98507   -1716.5844    4.3389512    4.3389512    4.3389512   -1716.5844    704.50413   -2106.1334   -3748.1239    1346.1522    1320.7779   -718.07077    81.687255 
   96700    219.45136   -118.18416    0.1985642    -117.9856   -297.36165    4.3369087    4.3369087    4.3369087   -297.36165   -5530.7928   -904.13578    5542.8436    -1082.052    2500.7253    2012.3806    81.571948 
   96800    225.57855   -118.18965   0.20410821   -117.98554   -4053.4539    4.3415554    4.3415554    4.3415554   -4053.4539   -5258.6799   -9383.9767    2482.2948     1647.082     -65.1645   -200.58989    81.834427 
   96900    163.15701   -118.13363   0.14762789     -117.986    3111.8785     4.340625     4.340625     4.340625    3111.8785   -5248.0487   -4584.5748    19168.259    2108.9136    704.44697   -1948.8586    81.781825 
   97000    232.60192   -118.19619   0.21046311   -117.98573    2952.8807    4.3371147    4.3371147    4.3371147    2952.8807    141.03297   -3069.0788    11786.688   -269.70482   -326.38049   -1125.1724    81.583576 
   97100    144.17119   -118.11621   0.13044912   -117.98576    5037.8096    4.3385435    4.3385435    4.3385435    5037.8096    2064.4992    525.80734    12523.122   -196.92599     897.4191   -1757.8444    81.664231 
   97200     312.6544   -118.26779   0.28289627    -117.9849   -8159.2072    4.3418019    4.3418019    4.3418019   -8159.2072    -8028.409   -8428.8526   -8020.3601   -1561.5124   -1714.3891     1892.008    81.848366 
   97300    185.35052   -118.15386   0.16770904   -117.98615    2414.5326    4.3404488    4.3404488    4.3404488    2414.5326    1674.6743   -1225.1532    6794.0767   -383.45813    2807.4709    139.73086    81.771867 
   97400    238.81668   -118.20159   0.21608635   -117.98551    1008.2527     4.337467     4.337467     4.337467    1008.2527   -1457.0246      -5765.2    10246.983    579.41096    1968.2316    2847.0064    81.603457 
   97500    129.08763    -118.1028    0.1168012     -117.986    4465.0708    4.3385229    4.3385229    4.3385229    4465.0708   -5075.9048   -1274.4272    19745.544    1488.7628    2464.8056    108.88918    81.663066 
   97600    242.99548   -118.20493   0.21986742   -117.98506    -4692.687    4.3427019    4.3427019    4.3427019    -4692.687   -11299.608   -9556.0768    6777.6241    2283.4108   -699.60403   -579.64902    81.899275 
   97700    213.79723   -118.17876   0.19344823   -117.98532    3.7644144    4.3391702    4.3391702    4.3391702    3.7644144   -1330.2119   -5101.3267    6442.8318   -1162.2997    430.18507    40.796315    81.699625 
   97800    273.64417   -118.23259   0.24759899   -117.98499   -3382.8301    4.3376633    4.3376633    4.3376633   -3382.8301   -8523.8735    1357.8177   -2982.4344   -15.247256    3508.7496   -1217.7446    81.614534 
   97900    184.07925   -118.15244   0.16655877   -117.98588   -688.71875    4.3407902    4.3407902    4.3407902   -688.71875   -6941.1796   -4980.7564    9855.7797    1671.9515   -1287.3291    1775.3319    81.791165 
   98000    221.91749   -118.18593   0.20079561   -117.98513   -1869.6926    4.3412902    4.3412902    4.3412902   -1869.6926   -10279.798   -6713.8884    11384.608    333.57318    1132.5025    1067.0097    81.819431 
   98100    121.81175   -118.09606   0.11021783   -117.98584    6828.0451    4.3382882    4.3382882    4.3382882    6828.0451   -702.61405   -1207.1097    22393.859   -319.51431    814.62161    3910.6594    81.649814 
   98200    223.50027   -118.18824   0.20222774   -117.98601    -589.2334      4.33777      4.33777      4.33777    -589.2334   -7576.4162   -1363.1938    7171.9098   -373.19428    3633.0948    1200.8243    81.620556 
   98300    217.07016   -118.18239   0.19640965   -117.98598   -2971.9936    4.3410611    4.3410611    4.3410611   -2971.9936   -2924.1138   -8515.0247    2523.1578    1013.7074    -687.1024    511.58116    81.806478 
   98400    265.88915   -118.22574   0.24058209   -117.98516   -4546.2067    4.3420287    4.3420287    4.3420287   -4546.2067   -5547.1205   -2852.8343   -5238.6655    432.80961   -2044.3969   -1384.5064    81.861193 
   98500    220.25361   -118.18472   0.19929009   -117.98543    952.00672    4.3374678    4.3374678    4.3374678    952.00672   -1872.9065   -6387.0559    11115.983    1467.9556   -283.55593   -425.55245    81.603499 
   98600    152.04097   -118.12356   0.13756986   -117.98599     3991.368    4.3385568    4.3385568    4.3385568     3991.368    210.87833   -3075.9875    14839.213    1873.4261   -76.910874    1046.5777    81.664983 
   98700    216.90009   -118.18127   0.19625576   -117.98501   -1318.9818    4.3420951    4.3420951    4.3420951   -1318.9818   -11474.127   -8644.0679    16161.249   -1512.5694    1303.0169    -234.3265    81.864951 
   98800    197.76127   -118.16421   0.17893855   -117.98527    1420.1173     4.340027     4.340027     4.340027    1420.1173    1964.3249    -3899.333    6195.3601   -665.63183    -831.2309    3385.3519    81.748032 
   98900    252.80341   -118.21375   0.22874184     -117.985   -1422.2096     4.338551     4.338551     4.338551   -1422.2096   -2144.4381   -2454.1423    331.95161    994.78275    1137.9057   -646.82451    81.664651 
   99000    218.85343   -118.18305   0.19802318   -117.98503    62.350857    4.3392754    4.3392754    4.3392754    62.350857   -5337.0457    1690.2988    3833.7994    1355.4233   -144.85881   -224.01431    81.705564 
   99100    223.74232    -118.1879   0.20244675   -117.98546   -1479.8561    4.3416039    4.3416039    4.3416039   -1479.8561   -5616.1856   -6634.2925    7810.9098    399.77935    174.00823   -3589.2944    81.837167 
   99200    152.43211   -118.12472   0.13792378    -117.9868    3053.6279    4.3402637    4.3402637    4.3402637    3053.6279   -4481.5302   -4280.3642    17922.778   -1810.9534    -2342.383   -1806.3656    81.761405 
   99300    169.05852   -118.13925    0.1529677   -117.98629    3433.5167    4.3366801    4.3366801    4.3366801    3433.5167   -6581.9077   -1290.6472    18173.105    1444.5194   -24.449362   -676.22213    81.559053 
   99400    216.39568   -118.18119   0.19579936   -117.98539   -1591.6909    4.3405126    4.3405126    4.3405126   -1591.6909   -5584.4964   -6763.2383    7572.6621    766.85243    664.70821   -869.72077    81.775472 
   99500    305.21763   -118.26131   0.27616733   -117.98514   -9330.0605    4.3429522    4.3429522    4.3429522   -9330.0605   -11797.951   -9528.9902   -6663.2398    372.41267    2500.6387    2103.6704    81.913434 
   99600    194.52353   -118.16215   0.17600898   -117.98614   -544.11867    4.3382304    4.3382304    4.3382304   -544.11867   -2268.8152    -3810.643    4447.1022    1554.8411     414.8274   -510.05607    81.646551 
   99700    204.39033   -118.17102   0.18493667   -117.98608      1288.04    4.3383778    4.3383778    4.3383778      1288.04    -8981.143   -1436.8118    14282.075    -564.8921   -1743.2311    999.17601    81.654873 
   99800      171.061   -118.14085   0.15477958   -117.98607    2550.6245    4.3406993    4.3406993    4.3406993    2550.6245   -5139.4693   -8344.9499    21136.293   -182.22011    42.167872   -3658.7235    81.786026 
   99900    173.00021   -118.14231   0.15653423   -117.98578    844.46518    4.3407256    4.3407256    4.3407256    844.46518    -7010.466    2257.6792    7286.1824    261.86744   -1177.2152   -764.05426    81.787509 
  100000    231.09067   -118.19453   0.20909569   -117.98544   -1107.8488    4.3392041    4.3392041    4.3392041   -1107.8488   -3206.8137    -6436.556    6319.8233    2405.3701    579.15229   -779.83296     81.70154 
Loop time of 22.3016 on 1 procs for 100000 steps with 8 atoms

Pair  time (%) = 6.69711 (30.0298)
Kspce time (%) = 5.73502 (25.7158)
Neigh time (%) = 0 (0)
Comm  time (%) = 1.09806 (4.9237)
Outpt time (%) = 0.0318899 (0.142994)
Other time (%) = 8.73949 (39.1878)

Nlocal:    8 ave 8 max 8 min
Histogram: 1 0 0 0 0 0 0 0 0 0
Nghost:    2189 ave 2189 max 2189 min
Histogram: 1 0 0 0 0 0 0 0 0 0
Neighs:    2056 ave 2056 max 2056 min
Histogram: 1 0 0 0 0 0 0 0 0 0

Total # of neighbors = 2056
Ave neighs/atom = 257
Neighbor list builds = 0
Dangerous builds = 0
unfix 20
unfix 21
print "seeds:3475957"
seeds:3475957
