LAMMPS (10 Feb 2015)
# ---- initialize simulations
clear
units metal
dimension 3
boundary p p p
atom_style charge
atom_modify map array
# ---- create atoms
read_data /Users/eugeneragasa/pyflamestk_git/pypospack/tests/tests_integration/workflow/WorkflowLammpsThermalExpansion/param_6993/MgO_NaCl_unit.npt.T1500/lammps.structure
  triclinic box = (0 0 0) to (4.2565 4.2565 4.2565) with tilt (0 0 0)
  1 by 1 by 1 MPI processor grid
  reading atoms ...
  8 atoms
# ---- define interatomic potential
include potential.mod
mass 1 24.305
mass 2 15.999

group Mg type 1
4 atoms in group Mg
group O type 2
4 atoms in group O

set group Mg charge 1.61814101446
  4 settings made for charge
set group O charge -1.61814101446
  4 settings made for charge

variable R_cut equal 10.0

pair_style buck/coul/long ${R_cut}
pair_style buck/coul/long 10
pair_coeff 1 1 0.0 0.5 0.0 ${R_cut}
pair_coeff 1 1 0.0 0.5 0.0 10
pair_coeff 1 2 1169.10574889 0.285525631363 0.0 ${R_cut}
pair_coeff 1 2 1169.10574889 0.285525631363 0.0 10
pair_coeff 2 2 5328.19415446 0.197938803692 16.6059399876 ${R_cut}
pair_coeff 2 2 5328.19415446 0.197938803692 16.6059399876 10

kspace_style pppm 1.0e-5

neighbor 1.0 bin
neigh_modify every 1 delay 0 check yes
# ---- define settings
compute eng all pe/atom
compute eatoms all reduce sum c_eng
# ---- run minimization
reset_timestep 0
fix 1 all box/relax iso 0.0 vmax 0.001
thermo 10
thermo_style custom step pe lx ly lz xy xz yz press pxx pyy pzz pxy pxz pyz c_eatoms
min_style cg
minimize 1e-25 1e-25 5000 10000
PPPM initialization ...
  G vector (1/distance) = 0.352506
  grid = 8 8 8
  stencil order = 5
  estimated absolute RMS force accuracy = 3.81426e-05
  estimated relative force accuracy = 2.64886e-06
  using double precision FFTs
  3d grid and FFT values/proc = 3375 512
Neighbor list info ...
  1 neighbor list requests
  update every 1 steps, delay 0 steps, check yes
  master list distance cutoff = 11
Memory usage per processor = 4.06549 Mbytes
Step PotEng Lx Ly Lz Xy Xz Yz Press Pxx Pyy Pzz Pxy Pxz Pyz eatoms 
       0   -108.09373       4.2565       4.2565       4.2565            0            0            0    -32837.55    -32837.55    -32837.55    -32837.55 6.8800808e-12 1.9793426e-10 1.5308399e-10   -108.09373 
       9   -108.11055     4.226584     4.226584     4.226584            0            0            0    13.792758    13.792758    13.792758    13.792758 -4.4920118e-11 -8.154534e-11 2.0970287e-11   -108.11055 
Loop time of 0.0107069 on 1 procs for 9 steps with 8 atoms

Minimization stats:
  Stopping criterion = linesearch alpha is zero
  Energy initial, next-to-last, final = 
         -108.09372829     -108.110551709     -108.110551709
  Force two-norm initial, final = 4.74176 0.0024943
  Force max component initial, final = 4.74176 0.00196378
  Final line search alpha, max atom move = 0.00390625 7.67103e-06
  Iterations, force evaluations = 9 28

Pair  time (%) = 0.0027864 (26.0243)
Kspce time (%) = 0.00190377 (17.7808)
Neigh time (%) = 0 (0)
Comm  time (%) = 0.000482321 (4.50477)
Outpt time (%) = 0 (0)
Other time (%) = 0.00553441 (51.6901)

Nlocal:    8 ave 8 max 8 min
Histogram: 1 0 0 0 0 0 0 0 0 0
Nghost:    2189 ave 2189 max 2189 min
Histogram: 1 0 0 0 0 0 0 0 0 0
Neighs:    2344 ave 2344 max 2344 min
Histogram: 1 0 0 0 0 0 0 0 0 0

Total # of neighbors = 2344
Ave neighs/atom = 293
Neighbor list builds = 0
Dangerous builds = 0
unfix 1
# ---- define output variables ----
variable natoms equal "count(all)"
variable tot_energy equal "c_eatoms"
variable length_x equal "lx"
variable length_y equal "ly"
variable length_z equal "lz"
variable tilt_xy equal "xy"
variable tilt_xz equal "xz"
variable tilt_yz equal "yz"
variable tot_press equal "press"
variable press_xx equal "pxx"
variable press_yy equal "pyy"
variable press_zz equal "pzz"
variable press_xy equal "pxy"
variable press_xz equal "pxz"
variable press_yz equal "pyz"

# ---- output ----
print "pypospack:output_section:begin"
pypospack:output_section:begin
print "tot_energy = ${tot_energy}"
tot_energy = -108.110551708828
print "num_atoms = ${natoms}"
num_atoms = 8
print "xx = ${length_x}"
xx = 4.22658398474032
print "yy = ${length_y}"
yy = 4.22658398474032
print "zz = ${length_z}"
zz = 4.22658398474032
print "xy = ${tilt_xy}"
xy = 0
print "xz = ${tilt_xz}"
xz = 0
print "yz = ${tilt_yz}"
yz = 0
print "tot_press = ${tot_press}"
tot_press = 13.7927584127517
print "pxx = ${press_xx}"
pxx = 13.7927584125475
print "pyy = ${press_yy}"
pyy = 13.7927584121258
print "pzz = ${press_zz}"
pzz = 13.7927584135819
print "pxy = ${press_xy}"
pxy = -4.49201179574407e-11
print "pxz = ${press_xz}"
pxz = -8.15453399591787e-11
print "pyz = ${press_yz}"
pyz = 2.09702873442201e-11
print "pypospack:output_section:done"
pypospack:output_section:done
print "pypospack:lammps_sim:done"
pypospack:lammps_sim:done
#------------------------------------------------------------------------------
# RUN THERMOSTAT
# running using an NPT Nose-Hoover style thermostat
#------------------------------------------------------------------------------
variable tempdamp equal 0.1
variable pressdamp equal 1.0
# set initial velocities
velocity all create 1500 9790062 mom yes dist gaussian loop all
# fix for Nose-Hoover style thermostat
fix 20 all npt temp 1500 1500 0.1 aniso 0.0 0.0 1.0 drag 1.0 couple xyz
variable boxx equal lx
variable boxy equal ly
variable boxz equal lz
variable boxp equal press
variable boxt equal temp
# calculate averages every 10000 steps
reset_timestep 0
fix 21 all ave/time 10 10 100 v_boxx v_boxy v_boxz v_boxp v_boxt file lattice.out
thermo_style custom step temp pe ke etotal press lx ly lz press pxx pyy pzz pxy pxz pyz vol
thermo_modify flush yes
thermo 100
run 100000
PPPM initialization ...
  G vector (1/distance) = 0.352801
  grid = 8 8 8
  stencil order = 5
  estimated absolute RMS force accuracy = 3.76353e-05
  estimated relative force accuracy = 2.61363e-06
  using double precision FFTs
  3d grid and FFT values/proc = 3375 512
Memory usage per processor = 3.06549 Mbytes
Step Temp PotEng KinEng TotEng Press Lx Ly Lz Press Pxx Pyy Pzz Pxy Pxz Pyz Volume 
       0         1500   -108.11055    1.3572315   -106.75332    19214.268     4.226584     4.226584     4.226584    19214.268    29429.744    7044.6325    21168.427   -5489.5622   -5328.8995    8334.7149    75.503748 
     100    530.59255   -107.06872   0.48009129   -106.58863     30348.23    4.2612355    4.2612355    4.2612355     30348.23    67834.197   -13148.173    36358.667    3274.4897    8384.1001    2469.4162    77.376059 
     200    753.12937    -106.8966   0.68144728   -106.21515   -26397.772    4.3152121    4.3152121    4.3152121   -26397.772    -77057.61   -57405.011    55269.306    6418.6928    16933.374    4914.3251    80.353805 
     300    1143.6624   -106.92535    1.0348098   -105.89054     7137.885    4.3065743    4.3065743    4.3065743     7137.885     11652.51   -61632.408    71393.553   -6812.1735   -8115.4387    4676.1931    79.872234 
     400     1107.006   -106.62845    1.0016423   -105.62681    48853.778    4.2746114    4.2746114    4.2746114    48853.778    61679.022   -32372.291     117254.6    4726.6941    22594.305    688.58539    78.106992 
     500    936.82127   -106.34176   0.84765558    -105.4941    7586.3247    4.2997036    4.2997036    4.2997036    7586.3247    26524.615   -54393.507    50627.866    1755.3777    21282.324     -1278.47    79.490561 
     600    1877.1596   -107.08409    1.6984935    -105.3856   -25462.787    4.3277147    4.3277147    4.3277147   -25462.787   -1462.2415   -62920.686   -12005.433   -9476.8603   -30257.792   -3072.8342    81.054265 
     700    1598.0696   -106.77607     1.445967   -105.33011   -27783.219     4.327663     4.327663     4.327663   -27783.219   -35261.543   -12164.554   -35923.562    7072.1348    10211.654    7476.9221    81.051361 
     800    1166.4344   -106.37834    1.0554144   -105.32293    3262.1575    4.3094861    4.3094861    4.3094861    3262.1575    64960.675    -19449.54   -35724.662    1816.0389    7270.7979     9277.674    80.034358 
     900    2093.9729   -107.23104    1.8946707   -105.33637   -6370.7595    4.3001666    4.3001666    4.3001666   -6370.7595   -1035.1191   -20088.093    2010.9335   -5018.4818   -12250.768     7076.189    79.516239 
    1000    1376.6527   -106.60938    1.2456243   -105.36375   -9798.8745    4.3067091    4.3067091    4.3067091   -9798.8745     23536.25   -54802.598    1869.7245   -20603.705    20198.339    8233.8495    79.879735 
    1100    1999.0064   -107.17039     1.808743   -105.36165   -9434.3156    4.3179753    4.3179753    4.3179753   -9434.3156    25643.259   -61458.629    7512.4231    1423.9569    10701.589    17414.378    80.508264 
    1200    1683.0233   -106.85883    1.5228348   -105.33599   -34251.497    4.3203477    4.3203477    4.3203477   -34251.497   -10899.113   -44885.105   -46970.273   -10312.538    9118.6269    12538.442    80.641037 
    1300     1119.045   -106.33072    1.0125355   -105.31819    7714.1839    4.2990743    4.2990743    4.2990743    7714.1839   -19276.083    27684.119    14734.516   -20056.759    20802.366   -15460.957    79.455663 
    1400    1858.4971   -107.01112    1.6816072   -105.32951    18550.259    4.2938691    4.2938691    4.2938691    18550.259    21926.255    9879.1353    23845.386    1544.4117   -19219.159   -7206.6666    79.167405 
    1500    1598.7148   -106.79048    1.4465508   -105.34393   -12617.527    4.3082881    4.3082881    4.3082881   -12617.527   -16461.414     20312.26   -41703.428   -7795.3942    20909.351    12282.729    79.967626 
    1600    1143.8815   -106.37635     1.035008   -105.34135    30362.875    4.3086243    4.3086243    4.3086243    30362.875    44359.517   -12212.111     58941.22   -8274.0457     13995.58   -1232.4212    79.986348 
    1700    1876.9333     -107.036    1.6982887   -105.33771   -18392.017    4.3068413    4.3068413    4.3068413   -18392.017   -15538.879   -3828.7796   -35808.393    4633.2537    2366.0298    3218.3909    79.887091 
    1800    1253.6178   -106.47848    1.1342997   -105.34418   -276.50658    4.2957195    4.2957195    4.2957195   -276.50658    6779.4917    31223.725   -38832.737   -6495.1759    15018.694    2994.6119    79.269798 
    1900    1553.9688   -106.76299    1.4060636   -105.35693    9877.9707    4.2876269    4.2876269    4.2876269    9877.9707    79171.465   -57254.786    7717.2336   -15174.276   -6053.6921    26002.195    78.822638 
    2000    1837.6108   -107.04638    1.6627089   -105.38367   -16393.529    4.3110849    4.3110849    4.3110849   -16393.529   -25399.469   -356.97864   -23424.139    13768.896    16151.761   -964.84259    80.123469 
    2100    1553.1497   -106.76452    1.4053225    -105.3592   -14148.848    4.3149461    4.3149461    4.3149461   -14148.848    24282.461   -49832.887   -16896.117    1384.5547    23781.493    12245.861    80.338944 
    2200    1240.8678   -106.46686    1.1227633    -105.3441    9606.1091    4.3060869    4.3060869    4.3060869    9606.1091    76002.606   -30742.809    -16441.47   -13890.337    -17982.26     12395.32    79.845117 
    2300    1792.5351   -106.96902    1.6219234    -105.3471   -38586.654    4.3068653    4.3068653    4.3068653   -38586.654   -51208.967   -41838.221   -22712.775    22634.904    28095.659   -1765.9146    79.888426 
    2400    1348.8202   -106.56918    1.2204409   -105.34874    42902.007    4.2822683    4.2822683    4.2822683    42902.007    49685.877    13656.977    65363.167   -2456.2179    10699.267   -1431.8878    78.527473 
    2500    1604.4132   -106.83159    1.4517068   -105.37988    3760.0809    4.2869712    4.2869712    4.2869712    3760.0809    27843.527    3753.9211   -20317.205    14343.451   -11998.145    647.32088    78.786482 
    2600    1147.1678   -106.42069    1.0379815   -105.38271   -33107.949    4.3252162    4.3252162    4.3252162   -33107.949   -54860.062   -42971.916   -1491.8675   -5654.4538    22345.282    5518.6542    80.913961 
    2700    1870.3299   -107.02982    1.6923138   -105.33751   -10515.742    4.3078012    4.3078012    4.3078012   -10515.742   -13510.716   -56.793377   -17979.717   -17898.415   -25424.353   -6823.7899    79.940519 
    2800    1554.0468    -106.7222    1.4061342   -105.31607    9810.4682    4.2715009    4.2715009    4.2715009    9810.4682    -12415.61    23258.423    18588.591    25001.095    1410.6136   -3126.0922     77.93661 
    2900    1246.1846   -106.49425     1.127574   -105.36668   -8348.5391     4.286218     4.286218     4.286218   -8348.5391   -31815.291    23532.488   -16762.814    3520.5947    6519.6623   -9865.6202     78.74496 
    3000     1607.693   -106.82354    1.4546744   -105.36886   -28788.347    4.3150926    4.3150926    4.3150926   -28788.347   -45167.585    766.95659   -41964.413    5029.5117   -44242.401   -16104.884    80.347128 
    3100    1225.2222   -106.45345    1.1086068   -105.34485    10625.386     4.323403     4.323403     4.323403    10625.386     7772.952    32486.657   -8383.4522     15976.48    16790.687   -9260.8415    80.812245 
    3200     1321.876   -106.52438    1.1960612   -105.32832    -26250.83    4.3105645    4.3105645    4.3105645    -26250.83   -24844.486   -5895.1211   -48012.883   -26326.187   -19133.077   -3504.7759    80.094455 
    3300    1447.8628   -106.62929    1.3100567   -105.31924    38682.527    4.2802435    4.2802435    4.2802435    38682.527     28493.22    79693.611    7860.7508   -11789.515   -12600.022   -1474.4203    78.416133 
    3400    1784.9586    -106.9649    1.6150681   -105.34984    5094.0602     4.284869     4.284869     4.284869    5094.0602    8827.5251   -18702.048    25156.703    11375.482    11007.053   -10721.554    78.670632 
    3500    917.23558   -106.20697   0.82993403   -105.37703   -10804.456    4.3190167    4.3190167    4.3190167   -10804.456    -1604.709   -8404.1581     -22404.5   -24166.355   -32418.321    5448.4371    80.566529 
    3600    2014.8928   -107.14696    1.8231174   -105.32384   -7381.4363    4.3184693    4.3184693    4.3184693   -7381.4363   -17093.573    32860.348   -37911.084   -18883.631    11773.734    1269.0942    80.535897 
    3700      1353.75   -106.54584    1.2249015   -105.32094   -16027.152    4.2927009    4.2927009    4.2927009   -16027.152   -21893.736    44786.955   -70974.674   -960.11692   -31667.995   -30149.403    79.102803 
    3800    1691.4901   -106.87244    1.5304958   -105.34194    8271.3093    4.2905074    4.2905074    4.2905074    8271.3093    35.333588    35752.615   -10974.021   -26748.234     3283.783   -1071.4107    78.981605 
    3900    1654.9586   -106.85705    1.4974414   -105.35961   -24126.416    4.3135271    4.3135271    4.3135271   -24126.416    12170.329   -31539.105   -53010.472   -5835.2859   -12051.509    4991.7782    80.259713 
    4000    1152.8255   -106.39738    1.0431007   -105.35428   -31647.812    4.3205688    4.3205688    4.3205688   -31647.812   -51229.967    36388.943   -80102.412   -9644.5418   -12077.771   -21510.621    80.653415 
    4100    2011.3585   -107.15147    1.8199195   -105.33155   -771.23055    4.2910711    4.2910711    4.2910711   -771.23055   -27107.862    1201.3173    23592.853    11812.351    17660.611    12353.638    79.012741 
    4200    1462.8751      -106.67    1.3236401   -105.34636    13894.712     4.269065     4.269065     4.269065    13894.712    30765.564    53819.795   -42901.224   -402.55113   -26010.631   -2405.3008    77.803351 
    4300    1216.2197   -106.49115    1.1004611   -105.39068   -4195.1403    4.2875101    4.2875101    4.2875101   -4195.1403   -10214.772    10135.038   -12505.687   -1955.4157   -2623.3923   -31877.688    78.816198 
    4400    1920.1706   -107.11375    1.7374107   -105.37634   -29060.011    4.3157346    4.3157346    4.3157346   -29060.011   -39198.875    4712.1437   -52693.303    19357.549    3780.7517    17968.253    80.382995 
    4500    1502.0371   -106.70507    1.3590748   -105.34599   -45086.577    4.3245334    4.3245334    4.3245334   -45086.577   -29647.398   -32089.288   -73523.045    4944.9379    -15647.62   -2999.4772    80.875644 
    4600    1301.9544   -106.49718    1.1780357   -105.31914    39690.501    4.3026937    4.3026937    4.3026937    39690.501    84507.569    62051.796   -27487.863   -10183.808   -1123.0034   -3330.8135    79.656511 
    4700    1794.8485   -106.95439    1.6240166   -105.33037    816.88716    4.2969255    4.2969255    4.2969255    816.88716    33395.567   -35306.522    4361.6169    9886.3699   -33166.706    11083.584    79.336579 
    4800    1308.1262   -106.54269    1.1836201   -105.35907    5115.9681    4.3208588    4.3208588    4.3208588    5115.9681    13373.561    21893.114   -19918.771   -10468.719   -4923.9454   -26105.802    80.669657 
    4900    1612.9917   -106.80036    1.4594688   -105.34089   -4344.3004    4.3145299    4.3145299    4.3145299   -4344.3004    7143.4166    16245.617   -36421.935   -3347.7044   -12415.905   -2923.7766    80.315702 
    5000    1197.5411   -106.40381    1.0835603   -105.32025    34814.315    4.2901637    4.2901637    4.2901637    34814.315    88355.814    29982.307   -13895.177   -2162.2761   -6473.9585    2845.1093     78.96263 
    5100     2164.378    -107.2835    1.9583747   -105.32512   -22963.035     4.310638     4.310638     4.310638   -22963.035   -22694.053   -6147.1133    -40047.94   -8687.5095    -3598.342   -1933.7215    80.098551 
    5200    1509.5163   -106.69909    1.3658421   -105.33325   -41993.761    4.3124877    4.3124877    4.3124877   -41993.761   -11949.519   -25893.963   -88137.802   -16045.413   -14960.355    10597.763    80.201707 
    5300    1601.2991   -106.77981    1.4488891   -105.33092    19588.822    4.2840217    4.2840217    4.2840217    19588.822    39751.814    62208.332   -43193.679    32445.082   -7039.5277   -9984.4874    78.623975 
    5400    2043.5866    -107.1994    1.8490801   -105.35032    18009.835    4.2848643    4.2848643    4.2848643    18009.835    62157.754    18261.395   -26389.643     1314.689   -1325.2513    7809.2344    78.670372 
    5500    792.76414   -106.10903   0.71730966   -105.39172     5694.899    4.3147712    4.3147712    4.3147712     5694.899    37562.019    56848.372   -77325.695   -14228.113   -7980.8492    12063.484    80.329179 
    5600    1807.2782   -106.98256    1.6352633   -105.34729   -1042.2103    4.3292146    4.3292146    4.3292146   -1042.2103     10338.04    19608.926   -33073.597   -16300.711    7326.2011   -19739.674    81.138566 
    5700    809.27065   -106.04594   0.73224509    -105.3137    5541.9107    4.3198381    4.3198381    4.3198381    5541.9107   -58186.989    67777.899    7034.8212    -9403.987   -34546.978   -8368.7457    80.612502 
    5800    1412.8144   -106.56155    1.2783441    -105.2832    29609.477    4.2978201    4.2978201    4.2978201    29609.477    18831.539    65636.079    4360.8126   -10618.304   -6583.8617   -11321.683    79.386141 
    5900    1701.5688   -106.85451    1.5396152   -105.31489    24361.165    4.2998882    4.2998882    4.2998882    24361.165    30865.936    79638.772   -37421.212    -23935.21    -15103.92    -30334.87    79.500801 
    6000    1379.7997   -106.59677    1.2484718   -105.34829   -8451.8514    4.3332645    4.3332645    4.3332645   -8451.8514      29570.1    7487.7494   -62413.403   -18767.294   -1986.9783    2032.0714    81.366492 
    6100    1827.6053   -106.95079    1.6536556   -105.29713    -40527.83    4.3533893    4.3533893    4.3533893    -40527.83    37269.693   -80070.663    -78782.52    2964.7503    9490.1847   -6707.7352    82.505427 
    6200    1849.5086   -106.91988    1.6734743   -105.24641   -55064.089    4.3369958    4.3369958    4.3369958   -55064.089    -23500.28   -63862.675   -77829.314     18177.69   -2736.2485    21397.082    81.576863 
    6300    2151.2244   -107.15553     1.946473   -105.20906   -15845.729    4.3059471    4.3059471    4.3059471   -15845.729   -7983.4548    -28863.05   -10690.682    12984.993    19537.478      21680.4     79.83734 
    6400    1659.8764   -106.74057     1.501891   -105.23868   -2522.6838    4.3069121    4.3069121    4.3069121   -2522.6838   -41308.912    20861.944    12878.916     3610.038   -2699.8629   -15324.308    79.891032 
    6500    1561.8648   -106.70578    1.4132081   -105.29257    -28985.91    4.3390678    4.3390678    4.3390678    -28985.91   -40707.031   -27279.267   -18971.432   -11336.894     27185.79    9391.8767     81.69384 
    6600    1289.6157   -106.45227    1.1668714    -105.2854    -20836.56    4.3416873    4.3416873    4.3416873    -20836.56   -49059.645   -22808.078    9358.0441   -2072.3212   -33553.818     270.4455    81.841883 
    6700    1264.4388   -106.42002    1.1440908   -105.27593    17319.857    4.2931174    4.2931174    4.2931174    17319.857   -22764.821     35236.25    39488.143    18223.367     351.2684    3398.3093    79.125834 
    6800    1456.0189   -106.61257    1.3174365   -105.29513    14289.985    4.2644735    4.2644735    4.2644735    14289.985    10018.391    14602.346    18249.218   -22117.226     16742.27    7357.4183    77.552584 
    6900    1249.0927   -106.49526    1.1302054   -105.36505    6985.6613    4.2923105    4.2923105    4.2923105    6985.6613   -56728.872    82365.593   -4679.7372     3177.372   -55547.813   -9252.3968    79.081227 
    7000    1803.5816   -106.98047    1.6319186   -105.34855    -57118.46    4.3213534    4.3213534    4.3213534    -57118.46   -59993.786   -29392.301   -81969.294    4850.4692    25233.875   -4441.8757    80.697367 
    7100     1437.843   -106.63829    1.3009905    -105.3373   -2469.5591    4.3053573    4.3053573    4.3053573   -2469.5591    -16670.61    49698.011   -40436.078   -11775.657    9407.3867   -7601.1688    79.804542 
    7200    1709.5471   -106.87602    1.5468341   -105.32919    30756.894    4.2814497    4.2814497    4.2814497    30756.894    17688.962    70379.223    4202.4961   -10109.219    4232.9433   -18046.347    78.482446 
    7300    1475.1634   -106.69249    1.3347589   -105.35773    6486.1499    4.3083166    4.3083166    4.3083166    6486.1499      23511.9    23476.528   -27529.979    1264.0797    8102.0004    9489.5045    79.969213 
    7400    1948.6662    -107.0848    1.7631941    -105.3216   -59033.718    4.3327761    4.3327761    4.3327761   -59033.718   -52275.225   -41723.684   -83102.245   -8457.0443   -16677.019   -4041.9035    81.338981 
    7500    1709.9975   -106.84026    1.5472417   -105.29302   -18708.375    4.3067679    4.3067679    4.3067679   -18708.375   -58760.847     53522.58   -50886.859      207.945    32728.026   -3305.3895    79.883004 
    7600    1354.8477    -106.5079    1.2258947     -105.282    30860.236    4.2853885    4.2853885    4.2853885    30860.236     76403.71   -5143.1353    21320.133    1805.9886   -20276.549    9619.4305    78.699251 
    7700    1584.6609   -106.76038    1.4338345   -105.32654   -34159.899    4.2989596    4.2989596    4.2989596   -34159.899   -62784.323   -14934.387   -24760.987   -10897.064    31119.314    923.65996    79.449305 
    7800    1549.2415   -106.74278    1.4017863   -105.34099    6203.1394    4.3080819    4.3080819    4.3080819    6203.1394    13491.908    21153.632   -16036.122    -3479.944    17963.266   -3201.5901    79.956145 
    7900    1380.2653   -106.58098     1.248893   -105.33209   -21629.634    4.3086348    4.3086348    4.3086348   -21629.634   -39502.237    11185.753   -36572.419   -1365.0019   -13771.268    16032.636    79.986933 
    8000    1380.4972   -106.57952    1.2491029   -105.33042    -28242.33    4.2883914    4.2883914    4.2883914    -28242.33   -27455.739    700.66824   -57971.919   -4292.3831    23074.896   -14743.275    78.864806 
    8100     2050.431   -107.17666    1.8552731   -105.32139    34297.743    4.2692068    4.2692068    4.2692068    34297.743     66133.27    18989.668    17770.292    4400.2676    2594.6998   -11630.959    77.811103 
    8200    830.18425   -106.12019   0.75116816   -105.36902    2029.0676    4.3057951    4.3057951    4.3057951    2029.0676    -30573.68    83075.527   -46414.644   -15495.881   -714.48355    9290.1045    79.828885 
    8300    1476.5792   -106.66972    1.3360399   -105.33368   -41095.465    4.3156249    4.3156249    4.3156249   -41095.465   -13988.566   -7170.4604   -102127.37    8372.0793   -2685.6914   -38914.258    80.376864 
    8400     1842.815   -106.97299    1.6674177   -105.30557   -8789.9668    4.2840753    4.2840753    4.2840753   -8789.9668    26208.534     -6475.41   -46103.025    5770.6266   -3101.4912   -12043.223    78.626922 
    8500     1222.805   -106.43072    1.1064197    -105.3243    3417.3603       4.2843       4.2843       4.2843    3417.3603    -23586.13    48012.119   -14173.908   -13170.347     7163.901   -6544.7816    78.639297 
    8600    1797.3838   -106.95137    1.6263106   -105.32506    7700.8303    4.2948693    4.2948693    4.2948693    7700.8303    76905.574   -8485.7473   -45317.336   -16420.759    5169.3538   -12411.326    79.222737 
    8700    1469.5713   -106.67006     1.329699   -105.34036   -31444.336    4.3050696    4.3050696    4.3050696   -31444.336   -15281.527   -16156.315   -62895.167    23043.202   -2126.6934    7797.8065     79.78854 
    8800    1935.3711   -107.07988    1.7511644   -105.32871    -22428.47      4.30429      4.30429      4.30429    -22428.47    3977.9252   -37427.278   -33836.055   -4463.8497    8356.2312    -10065.77    79.745201 
    8900    1728.7036   -106.89126    1.5641673   -105.32709    12488.982    4.2910557    4.2910557    4.2910557    12488.982    72576.797   -3623.0868   -31486.766     1438.389   -8612.2248   -4367.7905    79.011893 
    9000    1333.6562   -106.57212    1.2067202    -105.3654   -26729.055    4.2913743    4.2913743    4.2913743   -26729.055   -2878.0346    4661.9095   -81971.039   -12694.231    7363.0639    6657.2555    79.029493 
    9100    2122.1364   -107.27944    1.9201536   -105.35929    5479.7898    4.2979239    4.2979239    4.2979239    5479.7898    77674.462   -21359.659   -39875.434    8470.6047    -9307.233    1498.8624    79.391897 
    9200    1600.4057   -106.80789    1.4480807   -105.35981   -36738.161    4.2928017    4.2928017    4.2928017   -36738.161   -34114.506    977.89546   -77077.872   -9304.1579    2003.7554    6273.6743     79.10838 
    9300    1462.2379   -106.68356    1.3230636   -105.36049   -10275.996    4.2862862    4.2862862    4.2862862   -10275.996    13882.059   -14628.121   -30081.926   -299.40712    4216.5595    4597.9666    78.748717 
    9400    1646.8922   -106.84625    1.4901427    -105.3561    17837.337    4.2940326    4.2940326    4.2940326    17837.337    41590.823    18679.848   -6758.6596    1164.5071    3111.1684    1849.8269    79.176446 
    9500    1160.6212    -106.4074    1.0501545   -105.35725   -28670.258    4.3095445    4.3095445    4.3095445   -28670.258    -43266.59    44803.332   -87547.517    5424.9128   -745.37193    4449.9276    80.037607 
    9600    2139.6654   -107.25464    1.9360142   -105.31863   -44191.656    4.3138487    4.3138487    4.3138487   -44191.656   -33509.252   -32220.501   -66845.215     2616.946   -4025.8346   -17202.273    80.277665 
    9700    1604.5431   -106.75999    1.4518243   -105.30816    1140.8313    4.2964181    4.2964181    4.2964181    1140.8313    4981.9076    32322.652   -33882.065   -9953.5428   -1388.0486   -23223.226    79.308477 
    9800    1183.2774   -106.38954    1.0706542   -105.31889    33218.227    4.2933773    4.2933773    4.2933773    33218.227   -7696.2137    54924.378    52426.517   -9186.0478   -8826.2916    2517.1805    79.140202 
    9900    1969.8976   -107.09016    1.7824048   -105.30775     5619.828     4.302072     4.302072     4.302072     5619.828    18498.152   -18717.719    17079.052    18475.808    7062.3243   -20299.908    79.621989 
   10000    1510.4182   -106.68558    1.3666582   -105.31892   -7700.1901    4.2939763    4.2939763    4.2939763   -7700.1901   -9322.3387     5549.732   -19327.964    1052.5837   -8853.4552   -5098.3128    79.173334 
   10100    1734.6765   -106.89116    1.5695717   -105.32159   -3655.6243    4.3019751    4.3019751    4.3019751   -3655.6243    7399.8793   -13220.726   -5146.0261    2706.7412   -9198.5878    10267.246    79.616606 
   10200     1727.067   -106.89403    1.5626865   -105.33134   -31351.489    4.3049906    4.3049906    4.3049906   -31351.489   -24637.224   -56269.647   -13147.595    2784.1893   -2555.9327    118.85183    79.784147 
   10300    1576.9674   -106.75605    1.4268733   -105.32917   -4576.1605    4.2929524    4.2929524    4.2929524   -4576.1605   -23227.457    14677.905   -5178.9301   -8908.7857   -1069.3298   -8124.8002    79.116711 
   10400    1509.4753   -106.69487     1.365805   -105.32907     -3401.23    4.2983046    4.2983046    4.2983046     -3401.23    3590.7277     -3361.82   -10432.598    37083.786   -4084.8939   -8882.8108    79.412995 
   10500    1242.1446   -106.44756    1.1239186   -105.32364   -13175.149    4.3050983    4.3050983    4.3050983   -13175.149    3659.4616   -7344.8854   -35840.023    5472.2789    5183.5486    1488.8006     79.79014 
   10600    1477.4453   -106.65324    1.3368236   -105.31641   -2082.1014    4.2978995    4.2978995    4.2978995   -2082.1014   -20542.221    36489.882   -22193.966    816.46668    12528.158   -1155.1579    79.390544 
   10700    1340.3901   -106.53847    1.2128132   -105.32566    14547.217    4.2812585    4.2812585    4.2812585    14547.217    35276.175   -20477.511    28842.988    51354.608     2467.657   -5842.3087    78.471933 
   10800    1641.6776   -106.83727    1.4854244   -105.35185    15279.155    4.2864109    4.2864109    4.2864109    15279.155    48638.704    34547.704   -37348.944   -10218.796   -9967.0366   -13889.196     78.75559 
   10900    1280.5598   -106.51966    1.1586774   -105.36099   -25639.673    4.3022251    4.3022251    4.3022251   -25639.673    1283.9251    -48005.19   -30197.753    35356.518   -4197.7043    24009.805    79.630492 
   11000     1295.955   -106.51437    1.1726073   -105.34176    9774.8579    4.2953529    4.2953529    4.2953529    9774.8579    13813.313   -17907.606    33418.867    28572.781    12781.946   -12455.487    79.249505 
   11100    1583.1181   -106.77168    1.4324386   -105.33924    -7475.199    4.3023963    4.3023963    4.3023963    -7475.199   -24834.111    50682.135   -48273.621   -1148.2535   -35750.072    3179.1165    79.639999 
   11200    1715.8078   -106.87283     1.552499   -105.32033    -47292.18    4.3031985    4.3031985    4.3031985    -47292.18   -75540.151   -48075.963   -18260.427    41134.901   -5048.0061    5022.2845    79.684551 
   11300    1650.0535   -106.79174    1.4930031   -105.29874    21037.434    4.2844894    4.2844894    4.2844894    21037.434    6776.7727   -4358.6583    60694.188   -16092.311    1644.4198   -8927.9275    78.649729 
   11400    1085.2253   -106.31012   0.98193466   -105.32818    9193.2332    4.2973957    4.2973957    4.2973957    9193.2332   -21649.313    38956.829    10272.183    26114.441   -17401.812   -2198.6561    79.362625 
   11500    1978.6896   -107.11107      1.79036   -105.32071   -38526.219    4.3155976    4.3155976    4.3155976   -38526.219   -26462.507   -54308.286   -34807.866   -1695.3863   -7695.8433   -5782.7413    80.375341 
   11600    1468.5297   -106.66409    1.3287566   -105.33534    15441.433    4.2836465    4.2836465    4.2836465    15441.433    -26332.58    10123.464    62533.416    -5109.049   -11043.426   -10968.129    78.603318 
   11700    1140.1991     -106.375    1.0316761   -105.34333    22174.616    4.2607169    4.2607169    4.2607169    22174.616   -29941.933    54732.648    41733.132    38049.279   -5170.4037   -6240.9757    77.347815 
   11800    1804.1112   -107.00207    1.6323977   -105.36967    6018.7614     4.284232     4.284232     4.284232    6018.7614   -21492.537   -12908.193    52457.014   -29038.691   -5776.5203     11325.36    78.635554 
   11900    1478.7668   -106.70368    1.3380193   -105.36567    289.22481    4.2970233    4.2970233    4.2970233    289.22481   -14257.551      14360.2    765.02492    30604.803   -5396.9575    -16850.43    79.341995 
   12000    1558.4347   -106.76786    1.4101045   -105.35776   -34244.046    4.3053781    4.3053781    4.3053781   -34244.046   -24328.941   -33493.165   -44910.034    4415.2641    3312.4273    13489.383    79.805696 
   12100    1169.8036   -106.39492    1.0584629   -105.33645   -18503.729    4.3005009    4.3005009    4.3005009   -18503.729   -48626.043   -1364.4939    -5520.651    424.32738    952.16989    29193.912    79.534786 
   12200    1835.7303   -106.98178    1.6610073   -105.32077    9291.0438    4.2769451    4.2769451    4.2769451    9291.0438    -44328.09    30373.556    41827.666    27910.751   -15727.969    341.54055    78.234987 
   12300    1887.0079   -107.05501    1.7074044    -105.3476   -3413.7636    4.2813839    4.2813839    4.2813839   -3413.7636   -1761.7831   -1132.9959   -7346.5118   -10377.402    9368.8625    16576.437    78.478831 
   12400    1299.0113    -106.5334    1.1753727   -105.35803   -21379.645    4.2962574    4.2962574    4.2962574   -21379.645   -14976.636   -51561.364    2399.0647    36168.484    4886.6568    31315.778    79.299579 
   12500    1419.7874   -106.62578    1.2846534   -105.34113    9457.0608    4.3044408    4.3044408    4.3044408    9457.0608   -44284.231    60967.826    11687.587   -8785.6167   -23866.511   -20126.426    79.753586 
   12600    1586.7666   -106.77356    1.4357398   -105.33782   -33782.177    4.3034879    4.3034879    4.3034879   -33782.177   -7675.8432   -38995.994   -54674.694    9031.3875    2534.4602    55371.939     79.70063 
   12700    1147.8762   -106.37501    1.0386225   -105.33639    8245.8544     4.279934     4.279934     4.279934    8245.8544   -20456.354    60225.229   -15031.311    20266.034    1666.3613    16070.733    78.399124 
   12800    1869.0797   -107.03851    1.6911826   -105.34733    6051.8813    4.2787137    4.2787137    4.2787137    6051.8813   -35684.306    90986.916   -37146.966   -4373.0721    -8670.807   -500.33309    78.332087 
   12900    1570.5684   -106.80257    1.4210833   -105.38148   -12291.437    4.3079567    4.3079567    4.3079567   -12291.437    8495.6765   -10644.359   -34725.628    10463.412    3945.8004    21186.927    79.949174 
   13000    746.64087   -106.02906   0.67557635   -105.35348   -11159.723    4.3260299    4.3260299    4.3260299   -11159.723   -29497.518   -7715.4267    3733.7766    11365.385   -27754.401   -5303.3455    80.959638 
   13100    1802.3412   -106.94492    1.6307962   -105.31412   -10813.263    4.2967494    4.2967494    4.2967494   -10813.263    16559.073    -21032.27   -27966.591   -15771.546   -6486.6262    11716.301    79.326823 
   13200     1198.368   -106.39373    1.0843086   -105.30942     46768.99    4.2669699    4.2669699    4.2669699     46768.99    69241.621    36306.633    34758.715    21224.139    9923.2987    15672.446    77.688858 
   13300    1485.6503   -106.69323    1.3442476   -105.34898    12962.867    4.2772096    4.2772096    4.2772096    12962.867   -8839.4431   -28961.687    76689.731   -3409.1692   -18498.427    2189.9516    78.249505 
   13400    1486.8738    -106.7092    1.3453547   -105.36384   -6189.8287    4.3189164    4.3189164    4.3189164   -6189.8287   -36239.264   -8407.8129    26077.591    1832.3894   -2728.8771    4634.6171    80.560913 
   13500    1372.4231   -106.56981    1.2417973   -105.32801   -22333.274    4.3224472    4.3224472    4.3224472   -22333.274   -39597.542   -56427.279    29024.999    22623.019    14430.656    2674.3176    80.758658 
   13600    1539.2916   -106.69253    1.3927833   -105.29974    20091.367    4.2720278    4.2720278    4.2720278    20091.367     6797.384    32932.019    20544.699   -15558.186   -12351.948   -17402.005    77.965454 
   13700    1209.2338   -106.41735    1.0941402   -105.32321    34204.533    4.2623348    4.2623348    4.2623348    34204.533    33247.122    35915.059    33451.419    38829.759     7385.868      12671.3    77.435959 
   13800    1296.4084   -106.53635    1.1730176   -105.36333    3495.2882    4.3027047    4.3027047    4.3027047    3495.2882    11258.699   -46762.866    45990.031    11279.543   -19042.897    10936.535    79.657123 
   13900    1558.3189   -106.74529    1.4099997   -105.33529    -24792.55    4.3248619    4.3248619    4.3248619    -24792.55   -2534.2716   -61184.347    -10659.03   -20499.505   -5205.9406    -11802.23    80.894081 
   14000    1735.3838   -106.88271    1.5702117   -105.31249   -32019.271    4.3065161    4.3065161    4.3065161   -32019.271     -48059.7   -45384.253   -2613.8595    14108.562    14838.805   -873.21661    79.868998 
   14100    1537.5366    -106.6914    1.3911954    -105.3002     28383.87    4.2776673    4.2776673    4.2776673     28383.87    45740.214   -41385.765    80797.161   -28029.102   -12442.388    14375.398    78.274626 
   14200    1634.4015    -106.8173    1.4788408   -105.33846   -11827.911    4.2933078    4.2933078    4.2933078   -11827.911   -6071.5548   -9644.0776   -19768.102   -4819.7429   -107.15174   -2885.7341    79.136362 
   14300    1547.2172   -106.72657    1.3999546   -105.32662   -27302.553    4.3091525    4.3091525    4.3091525   -27302.553   -64782.017    8695.1613   -25820.803   -704.58137    45298.554    16114.639    80.015772 
   14400    1218.4655   -106.41864    1.1024932   -105.31615    25670.704    4.2880423    4.2880423    4.2880423    25670.704    79464.079   -12192.388    9740.4226   -30333.137    -2641.863   -9215.5997    78.845547 
   14500    1830.3684   -106.98185    1.6561558   -105.32569   -5786.2213    4.2783736    4.2783736    4.2783736   -5786.2213   -3421.4248    15920.197   -29857.437    22.274147    18027.897   -9333.9425    78.313404 
   14600    1504.4301   -106.71233      1.36124   -105.35109   -4019.0176     4.284287     4.284287     4.284287   -4019.0176     557.4397     21152.61   -33767.102   -12263.776    20574.216    13590.216    78.638583 
   14700    1090.7609   -106.35003   0.98694343   -105.36309    4691.1595    4.2883835    4.2883835    4.2883835    4691.1595    84894.007   -41938.114   -28882.415   -23862.661   -10356.904   -17248.594     78.86437 
   14800     1864.823   -107.03976     1.687331   -105.35242   -28403.841     4.298963     4.298963     4.298963   -28403.841   -47581.821     652.1847   -38281.888    5158.1144    22558.454   -1311.2488     79.44949 
   14900    1220.4542   -106.44837    1.1042926   -105.34407    1819.3575    4.2936594    4.2936594    4.2936594    1819.3575    89209.974   -13828.158   -69923.743   -9844.4559   -15581.954    7963.9514    79.155803 
   15000    1237.8169    -106.4608    1.1200028    -105.3408    5963.3896    4.2686151    4.2686151    4.2686151    5963.3896   -3254.6614    36346.088   -15201.258    -2044.477   -1461.5501   -8429.8837    77.778757 
   15100    1518.6081   -106.72792    1.3740685   -105.35386    40390.873    4.2711992    4.2711992    4.2711992    40390.873    122687.36    24235.276   -25750.018    14059.597    11612.085    17868.527    77.920095 
   15200    1409.6831   -106.65365    1.2755109   -105.37813   -21097.672    4.2984948    4.2984948    4.2984948   -21097.672    8162.8167   -28818.526   -42637.306    113.83582   -9827.3599   -13671.868    79.423533 
   15300    1370.1467   -106.60286    1.2397375   -105.36312     2607.253    4.3044477    4.3044477    4.3044477     2607.253    49747.063   -12833.213   -29092.091    -32853.29   -1412.8344   -925.80811    79.753968 
   15400    1545.7776   -106.74531    1.3986521   -105.34666    15349.776    4.2842108    4.2842108    4.2842108    15349.776    54068.671    20993.513   -29012.856     13635.41    2616.3909    35784.457    78.634386 
   15500    1479.2016   -106.67841    1.3384127   -105.33999    26166.257    4.2648778    4.2648778    4.2648778    26166.257    88697.845   -1507.1897   -8691.8845   -9287.6465   -634.08171   -24686.211    77.574639 
   15600    1519.7823   -106.73408     1.375131   -105.35895    6857.7271    4.2750128    4.2750128    4.2750128    6857.7271    37528.354    12839.967    -29795.14   -25694.683    3226.2892    39393.267       78.129 
   15700    1621.4923    -106.8213    1.4671603   -105.35414   -6958.9043    4.3011998    4.3011998    4.3011998   -6958.9043    45473.396   -21471.443   -44878.665    1627.2616    15502.073    6828.9181    79.573571 
   15800    1486.8109   -106.67311    1.3452978   -105.32782   -24736.578     4.308458     4.308458     4.308458   -24736.578    42216.351   -53173.868   -63252.217   -4294.1843    5681.4933    4293.0726     79.97709 
   15900    1331.9785    -106.5386    1.2052021    -105.3334   -27858.087    4.2801359    4.2801359    4.2801359   -27858.087    28927.598   -50768.106   -61733.753   -12835.252    283.32037    62383.751     78.41022 
   16000    2187.0974   -107.31011    1.9789317   -105.33118    38368.392    4.2610703    4.2610703    4.2610703    38368.392    69075.308    24725.531    21304.337     2502.782    13903.816   -10580.726    77.367059 
   16100    701.88771   -106.01759   0.63508275   -105.38251    -29898.08    4.2939334    4.2939334    4.2939334    -29898.08    46949.032   -52138.309   -84504.963    -1363.089   -11540.978     59553.67    79.170959 
   16200    1384.8125   -106.59793    1.2530075   -105.34492   -15945.605    4.3027221    4.3027221    4.3027221   -15945.605    33765.418   -43094.276   -38507.956   -26947.897   -8787.3374   -7700.9116    79.658089 
   16300    1919.6766   -107.05755    1.7369637   -105.32059   -22935.436    4.2894612    4.2894612    4.2894612   -22935.436    22022.281   -48170.997   -42657.591    1643.9299   -2336.5399    41310.504    78.923842 
   16400     1389.272   -106.58439    1.2570425   -105.32735    9604.2028     4.284615     4.284615     4.284615    9604.2028    84093.381   -30919.904   -24360.869    11562.613   -9846.7862    17468.449    78.656642 
   16500    1582.0882   -106.78076    1.4315067   -105.34926   -3568.9517    4.2838817    4.2838817    4.2838817   -3568.9517    27972.359   -51629.876    12950.663   -28216.767   -2236.4409     7018.715    78.616267 
   16600    1651.6219   -106.85822    1.4944222    -105.3638   -12652.005    4.2915306    4.2915306    4.2915306   -12652.005    55372.548   -48983.883    -44344.68    7163.1335   -11680.487    32552.458    79.038129 
   16700    1592.0491   -106.78469    1.4405195   -105.34417    4937.4867    4.2976519    4.2976519    4.2976519    4937.4867   -20111.052   -46359.179    81282.691   -6179.9852   -4053.5888   -6469.0778    79.376819 
   16800    1501.2881   -106.69737    1.3583971   -105.33898   -24227.691    4.3084826    4.3084826    4.3084826   -24227.691    43719.959   -71697.456   -44705.577   -9841.8337   -2981.3267    37422.439    79.978461 
   16900    1969.4541   -107.11291    1.7820035    -105.3309   -12475.396    4.2854955    4.2854955    4.2854955   -12475.396   -29981.188   -27607.929     20162.93    18880.566    13589.247   -18818.062    78.705147 
   17000    1448.5907   -106.63267    1.3107154   -105.32195    26426.445    4.2578343    4.2578343    4.2578343    26426.445    50356.425   -13369.223    42292.134   -15247.806   -1387.0329    8007.5947    77.190928 
   17100    1607.7332   -106.80877    1.4547108   -105.35406   -4240.9938    4.2885766    4.2885766    4.2885766   -4240.9938    35409.018   -51048.061    2916.0622    10336.859    5541.3019    14523.223    78.875026 
   17200    1446.2408   -106.64664    1.3085891   -105.33805   -40347.173    4.3016132    4.3016132    4.3016132   -40347.173   -39878.983    -59557.65   -21604.886    35414.687    14026.807   -20332.978    79.596517 
   17300    1579.4238   -106.75641    1.4290958   -105.32732    34064.478     4.280719     4.280719     4.280719    34064.478    40272.573   -10397.493    72318.354   -35325.008   -790.40392    14056.089    78.442272 
   17400    1494.8283   -106.69335    1.3525521    -105.3408    21092.042    4.2762704    4.2762704    4.2762704    21092.042    953.01604   -28747.744    91070.855    30627.011     11519.72   -3329.9736    78.197971 
   17500    1504.0916   -106.71932    1.3609337   -105.35839   -20538.099    4.2775054    4.2775054    4.2775054   -20538.099   -51111.906   -43250.491    32748.099   -13800.715   -941.07381   -24201.551     78.26574 
   17600    1912.9422   -107.08813    1.7308703   -105.35726    9553.2822    4.2873233    4.2873233    4.2873233    9553.2822   -609.99669    8476.1877    20793.656   -13380.189   -2647.3386    1460.7418    78.805896 
   17700    1122.2085   -106.37616    1.0153978   -105.36076   -26113.652    4.3050899    4.3050899    4.3050899   -26113.652    -52986.05   -45051.184    19696.278    10757.977    3344.8846    -26365.82    79.789668 
   17800    1215.1517   -106.44073    1.0994948   -105.34124    -24865.52    4.2933315    4.2933315    4.2933315    -24865.52   -53518.137    -29673.35    8594.9272   -50250.031    4003.0436   -909.11353    79.137671 
   17900    1948.6247   -107.08205    1.7631566   -105.31889    4111.5147     4.264193     4.264193     4.264193    4111.5147    18941.725   -28014.568    21407.388    26184.566   -10027.985    17739.014    77.537277 
   18000    1206.7514   -106.44972     1.091894   -105.35782    6417.1462    4.2761964    4.2761964    4.2761964    6417.1462    32546.978   -47149.432    33853.892   -9038.3632    9583.0623   -23093.255    78.193913 
   18100    1587.0624    -106.7921    1.4360074   -105.35609    -15566.98    4.3102552    4.3102552    4.3102552    -15566.98    27602.425   -22027.736    -52275.63   -33631.568    -7550.336    20318.236    80.077216 
   18200    1596.8738   -106.76011     1.444885   -105.31522   -40184.145    4.3301421    4.3301421    4.3301421   -40184.145   -44697.396   -25673.648    -50181.39    25646.458    6575.4564    13724.646    81.190731 
   18300    1574.3594   -106.71097    1.4245135   -105.28646   -37421.665    4.3074219    4.3074219    4.3074219   -37421.665   -22753.022   -30510.868   -59001.106   -7373.4032    1196.8989   -9808.8968    79.919401 
   18400    1485.0911   -106.62824    1.3437416    -105.2845     22527.07    4.2612593    4.2612593    4.2612593     22527.07    46437.665    42455.971   -21312.425    21031.901   -4561.9886    71204.898    77.377358 
   18500    1890.4302   -107.03938     1.710501   -105.32888    30647.412    4.2593506    4.2593506    4.2593506    30647.412    10471.443    44526.778    36944.016    5077.6903    -585.0067   -22481.249    77.273425 
   18600    875.40216   -106.17641   0.79208227   -105.38433   -32434.429    4.2919198    4.2919198    4.2919198   -32434.429   -5459.8409    -29039.97   -62803.475   -16520.833   -10476.545    29963.662    79.059631 
   18700    1611.0726   -106.83529    1.4577323   -105.37756   -15814.237    4.2888143    4.2888143    4.2888143   -15814.237    -7074.406   -17103.311   -23264.995    1898.9506    -4887.234    27278.097    78.888142 
   18800    2070.0238   -107.22808     1.873001   -105.35508    11997.737    4.2839886    4.2839886    4.2839886    11997.737   -20529.766    49160.204    7362.7731    1426.4533    13107.057   -8510.7069    78.622149 
   18900    743.75868   -106.04032   0.67296848   -105.36736   -29226.181    4.2856977    4.2856977    4.2856977   -29226.181    32339.918   -66993.383   -53025.078    -3290.078   -7754.0542    62829.419    78.716289 
   19000    1380.5991   -106.60701     1.249195   -105.35782    21178.466    4.2746099    4.2746099    4.2746099    21178.466   -1272.9655    69827.951   -5019.5864    3492.8532    7490.0972   -12570.048    78.106913 
   19100    1696.1135   -106.90806    1.5346791   -105.37338     31835.57    4.2758259    4.2758259    4.2758259     31835.57     36148.15     32952.21    26406.351    10804.378     16910.68    21280.464    78.173589 
   19200    1289.0629   -106.54678    1.1663712   -105.38041    7741.9147    4.2883432    4.2883432    4.2883432    7741.9147    36839.477    9973.6983   -23587.432   -8121.7039    3009.8087    3217.0161    78.862151 
   19300    1294.6399   -106.52916    1.1714174   -105.35774   -23568.773     4.296517     4.296517     4.296517   -23568.773   -4389.5601   -32043.855   -34272.904    3133.4709    899.49655   -24424.142    79.313957 
   19400    2168.5994   -107.27983    1.9621943   -105.31763   -2992.7007    4.2868999    4.2868999    4.2868999   -2992.7007    7547.2692    117.38396   -16642.755    18636.157   -5679.4597    15669.632    78.782549 
   19500    973.87616   -106.20629   0.88118361    -105.3251    6609.7989    4.2870842    4.2870842    4.2870842    6609.7989   -15255.053    41924.839   -6840.3892   -31154.779    17496.339   -971.32487    78.792712 
   19600    1278.0674   -106.49016    1.1564223   -105.33374   -1025.2204     4.294769     4.294769     4.294769   -1025.2204    39474.599   -29854.483   -12695.777    10639.886     309.8363   -14853.151    79.217191 
   19700    2219.0467   -107.33674    2.0078401    -105.3289   -8912.6826    4.2752564    4.2752564    4.2752564   -8912.6826   -15237.511   -44071.144    32570.607   -14202.578   -14710.863    5749.0505    78.142354 
   19800    1491.4888   -106.69082    1.3495304   -105.34129    21193.277    4.2563804    4.2563804    4.2563804    21193.277     14848.98    31737.731    16993.119   -25322.849    4992.2905   -12291.807    77.111881 
   19900    1251.4182   -106.51151    1.1323095    -105.3792   -6243.5064     4.284593     4.284593     4.284593   -6243.5064    12206.258   -22848.303   -8088.4741    20676.016    -7477.809   -12552.757    78.655432 
   20000    1633.9299   -106.82875    1.4784141   -105.35033   -35421.861    4.3042353    4.3042353    4.3042353   -35421.861   -54294.948   -57911.557    5940.9229   -38508.613   -7160.8658    68.450995    79.742161 
   20100     1778.828   -106.94162    1.6095209    -105.3321   -24627.309    4.2848339    4.2848339    4.2848339   -24627.309   -34341.285   -28169.103   -11371.539    7667.8257    5748.6912   -2779.7514    78.668702 
   20200    774.56017   -106.04783   0.70083832     -105.347   -13339.449    4.2633107    4.2633107    4.2633107   -13339.449   -19952.566   -32869.026    12803.245    32229.159   -10924.621   -7585.7781    77.489159 
   20300    1717.1459   -106.91627    1.5537097   -105.36256     13453.89    4.2631162    4.2631162    4.2631162     13453.89    18388.257   -26095.853    48069.268   -29291.147   -25259.782    7017.7634    77.478554 
   20400    1580.6298   -106.81085    1.4301871   -105.38066    869.28324    4.2882809    4.2882809    4.2882809    869.28324    8621.6888   -29280.544    23266.705     21885.44    8926.9153   -10848.411    78.858714 
   20500    1041.0464   -106.31539   0.94196065   -105.37343   -29591.396    4.2955843    4.2955843    4.2955843   -29591.396   -29853.339   -94528.633    35607.786    31571.342   -7847.3178   -6964.2223    79.262313 
   20600    2034.4578    -107.1788    1.8408202   -105.33798    17172.679    4.2741006    4.2741006    4.2741006    17172.679   -4058.8736   -3975.5791     59552.49    -10944.02   -7685.5383    -3413.256    78.078995 
   20700    1134.6917   -106.37811    1.0266929   -105.35141    15545.542    4.2696408    4.2696408    4.2696408    15545.542    6868.5048   -10297.374    50065.496    15538.908   -11583.367   -6933.3552    77.834838 
   20800    1276.3795   -106.51553     1.154895   -105.36063   -24285.589     4.289608     4.289608     4.289608   -24285.589   -29476.333    -32747.88   -10632.553    25717.618    -8667.907   -9317.6684     78.93195 
   20900    2011.5945   -107.15435     1.820133   -105.33422    12514.801    4.2935419    4.2935419    4.2935419    12514.801   -38132.091    49531.794      26144.7   -13568.267    9071.4504    6002.6755    79.149307 
   21000    1183.2714   -106.41634    1.0706488   -105.34569   -20496.724    4.2857922    4.2857922    4.2857922   -20496.724    5096.5805   -54893.541   -11693.211    8677.8324    2402.1303   -9635.7056    78.721493 
   21100    1629.3212   -106.80967    1.4742441   -105.33542    12575.444    4.2678712    4.2678712    4.2678712    12575.444    19769.456    23774.184   -5817.3078   -3468.9847    3264.3031    5535.4037    77.738098 
   21200    1502.8977    -106.7168    1.3598534   -105.35695   -7800.0857    4.2758821    4.2758821    4.2758821   -7800.0857   -38552.667    2406.6316    12745.778   -38316.938    2674.2639   -2459.2614    78.176672 
   21300    1172.1801   -106.42933    1.0606132   -105.36871   -41398.156    4.2938712    4.2938712    4.2938712   -41398.156   -26841.547   -64836.028   -32516.893    12123.547   -7247.4614   -6890.4526     79.16752 
   21400    1862.1424   -107.02085    1.6849056   -105.33594    3323.5973    4.2875724    4.2875724    4.2875724    3323.5973   -37569.726    54480.778   -6940.2596   -10253.123    4639.9131    7940.0064    78.819629 
   21500    1246.5251   -106.46969    1.1278821   -105.34181   -27269.929    4.2865105    4.2865105    4.2865105   -27269.929   -57996.212   -57769.569    33955.992   -45087.183    2431.5439    7353.0471    78.761084 
   21600    1636.7727    -106.8155    1.4809864   -105.33452    9775.1169    4.2746366    4.2746366    4.2746366    9775.1169   -34912.128    34800.669    29436.809    42732.222   -7939.0465   -3223.0031    78.108375 
   21700    1590.6882   -106.78931    1.4392882   -105.35002   -3600.3467    4.2707977    4.2707977    4.2707977   -3600.3467   -31252.007    20019.216     431.7506   -39600.922    -8861.157    245.74902    77.898125 
   21800    1423.0522   -106.65409    1.2876075   -105.36649   -33848.734      4.28244      4.28244      4.28244   -33848.734    -38129.96   -39249.407   -24166.834   -6797.3938    742.95213     15915.96    78.536918 
   21900    1648.8068   -106.84924     1.491875   -105.35736    -23969.32    4.2855212    4.2855212    4.2855212    -23969.32   -61006.139    25993.454   -36895.276    12574.982   -17534.092   -783.76216    78.706561 
   22000    1127.2482   -106.38486    1.0199579    -105.3649   -5299.5797      4.27999      4.27999      4.27999   -5299.5797   -67699.002    32326.639    19473.624    -72787.82   -3244.5726    7264.2328    78.402203 
   22100    1620.1132   -106.82248    1.4659124   -105.35657    17873.915    4.2630836    4.2630836    4.2630836    17873.915     7098.864    11294.252    35228.628    9818.1598    9332.8505   -4288.2109    77.476778 
   22200    1063.5053   -106.34396   0.96228195   -105.38168   -10513.465    4.2816355    4.2816355    4.2816355   -10513.465   -58249.965    14703.143    12006.428   -23102.813   -15437.311    4935.5151    78.492664 
   22300    1757.6382   -106.92828     1.590348   -105.33793   -37916.964    4.3050185    4.3050185    4.3050185   -37916.964   -72095.966   -57662.211    16007.284   -39239.433    6482.7032   -13334.747    79.785703 
   22400      1227.36   -106.45288    1.1105411   -105.34234    12538.619    4.2684841    4.2684841    4.2684841    12538.619    7609.5279    31298.324   -1291.9934    31822.467   -7307.2256    6659.6724    77.771594 
   22500    1276.6325   -106.49829    1.1551239   -105.34317    21507.185    4.2499343    4.2499343    4.2499343    21507.185   -1625.9535    41866.996    24280.512   -31943.503   -19346.455   -2354.1453    76.762064 
   22600    2036.3441   -107.19969    1.8425269   -105.35716   -4535.0667    4.2787493    4.2787493    4.2787493   -4535.0667   -8781.1402   -15623.523    10799.463   -2081.6082    11739.174   -10192.714    78.334042 
   22700    1132.3334   -106.39428     1.024559   -105.36972   -25872.953    4.2917271    4.2917271    4.2917271   -25872.953   -42715.296    2788.1594   -37691.722    17688.537   -22026.906    1243.7387    79.048986 
   22800    1470.0716   -106.68118    1.3301516   -105.35103   -3669.3684    4.2888194    4.2888194    4.2888194   -3669.3684   -7589.7099   -127.17819    -3291.217   -13628.388   -3739.4785    17898.073    78.888423 
   22900    1298.5593   -106.51906    1.1749638   -105.34409     1029.763    4.2739878    4.2739878    4.2739878     1029.763    -1893.026   -9627.2539    14609.569    31189.729    9254.2407   -13491.452    78.072816 
   23000     1517.255   -106.71263    1.3728442   -105.33979     11555.22    4.2685436    4.2685436    4.2685436     11555.22   -25832.028    20790.961    39706.728   -6641.9748   -27904.208    1309.6847    77.774846 
   23100    1904.9672   -107.05946    1.7236543   -105.33581   -5873.1382    4.2989279    4.2989279    4.2989279   -5873.1382   -8954.2153   -29397.518    20732.319    14421.971    22279.021     1544.656    79.447546 
   23200    741.86242    -106.0044   0.67125271   -105.33314   -23198.817    4.2993785    4.2993785    4.2993785   -23198.817   -52610.455   -5416.4506   -11569.546    44214.017   -11463.188   -3063.5942    79.472533 
   23300    1684.3568   -106.83279    1.5240414   -105.30875    20309.087    4.2678531    4.2678531    4.2678531    20309.087    21183.574   -6726.3223    46470.011    -20549.94   -8274.7609     11436.78    77.737108 
   23400    1562.2983   -106.74888    1.4136004   -105.33528   -4123.8636    4.2673554    4.2673554    4.2673554   -4123.8636   -10639.298    -40647.14    38914.848    53171.591    15445.806    1912.6922    77.709919 
   23500      1281.31   -106.51314    1.1593562   -105.35379   -7338.0646    4.2785858    4.2785858    4.2785858   -7338.0646   -23705.087   -9743.7512    11434.645    8917.8589   -23682.908   -3124.9381    78.325061 
   23600     1513.808   -106.72032    1.3697253   -105.35059   -7384.0161    4.2824162    4.2824162    4.2824162   -7384.0161    20035.658    -42501.31    313.60425    1325.7846    452.18922    13088.315    78.535611 
   23700    1493.4383   -106.70087    1.3512943   -105.34958   -29573.748    4.2878463    4.2878463    4.2878463   -29573.748   -40439.123   -70977.475    22695.356    45865.179    2545.9327    7190.0998    78.834736 
   23800    1514.6229   -106.71567    1.3704627   -105.34521    14693.808    4.2664174    4.2664174    4.2664174    14693.808    36087.829    17481.254   -9487.6589    6120.3622   -29126.775   -2386.2818    77.658686 
   23900    1134.7034   -106.38372    1.0267035   -105.35701    24720.309    4.2521836    4.2521836    4.2521836    24720.309    21093.316    33691.226    19376.386    27730.626   -371.84695    22080.107    76.884007 
   24000    1473.4256   -106.71359    1.3331865    -105.3804   -9432.3064    4.2877307    4.2877307    4.2877307   -9432.3064   -30642.667   -28015.931    30361.679    28969.744    3647.5691    3650.4555    78.828361 
   24100    1620.4739   -106.80751    1.4662388   -105.34127   -369.17582    4.2939246    4.2939246    4.2939246   -369.17582    2213.2157    4121.4257   -7442.1689   -11887.482   -15393.253    8636.9796    79.170474 
   24200    1124.4513   -106.34332    1.0174272   -105.32589    27893.957    4.2697821    4.2697821    4.2697821    27893.957    26590.935     38010.57    19080.366    25037.679    10242.216    18237.137    77.842566 
   24300    2051.6481    -107.1787    1.8563743   -105.32232    8100.3674    4.2783525    4.2783525    4.2783525    8100.3674    -11060.69    28960.079    6401.7137     4559.563    4835.4734   -11097.132    78.312246 
   24400    1225.8314   -106.44981     1.109158   -105.34065   -2498.1044    4.2799536    4.2799536    4.2799536   -2498.1044    44419.333   -23527.708   -28385.938   -13733.819   -8073.2069    32702.197      78.4002 
   24500    1379.1822    -106.5955    1.2479131   -105.34759      9610.15    4.2711675    4.2711675    4.2711675      9610.15   -3652.7829    27679.013    4804.2202     23316.26    14105.317    12753.026    77.918361 
   24600    1653.7125   -106.85311    1.4963138    -105.3568    15084.453    4.2774436    4.2774436    4.2774436    15084.453    37329.675    17522.978   -9599.2944    5729.9931    18173.714    6984.1892    78.262348 
   24700    1634.8787   -106.83511    1.4792726   -105.35584   -8445.5921    4.2906529    4.2906529    4.2906529   -8445.5921    21743.795   -22853.895   -24226.676    9550.7679   -17970.947    30784.316    78.989641 
   24800    1511.0525   -106.69981     1.367232   -105.33258    4022.8231    4.2899382    4.2899382    4.2899382    4022.8231   -18369.196    29347.729    1089.9361    33137.415    15538.546     3994.899    78.950177 
   24900     1102.439   -106.32931   0.99751001    -105.3318    4276.1586    4.2824415    4.2824415    4.2824415    4276.1586    59069.066   -23110.314   -23130.277    6942.0752    5223.3735    36299.849    78.537003 
   25000     1518.345   -106.69728    1.3738304   -105.32345    23713.071    4.2802875    4.2802875    4.2802875    23713.071    55035.989   -27274.774    43377.997    14927.018   -14471.401    1606.1436    78.418554 
   25100    1345.7819   -106.54938    1.2176918   -105.33169     27285.49    4.2811496    4.2811496    4.2811496     27285.49    25860.114   -4809.1319    60805.487    13291.871    18018.544    21616.837    78.465947 
   25200    1405.4537   -106.61022    1.2716841   -105.33853   -15476.962    4.3011234    4.3011234    4.3011234   -15476.962    16927.006    -57104.11   -6253.7831   -20693.961   -7505.7869    27337.611    79.569332 
   25300    2044.6272   -107.15425    1.8500217   -105.30423   -33805.465    4.2999486    4.2999486    4.2999486   -33805.465   -37814.579   -51905.034   -11696.782   -20186.776    -3543.776   -8485.0577    79.504148 
   25400    1269.3752   -106.44827    1.1485573   -105.29971    3994.0844    4.2721116    4.2721116    4.2721116    3994.0844     47510.87   -30137.741   -5390.8758   -1921.1317    17412.323    51431.311    77.970044 
   25500    1838.4488   -106.96865    1.6634671   -105.30518    23925.847    4.2747468    4.2747468    4.2747468    23925.847    -258.5862    5550.2384     66485.89   -17769.767    10951.562   -19178.185    78.114417 
   25600    1310.3584   -106.51159    1.1856398   -105.32595   -38959.691    4.2910097    4.2910097    4.2910097   -38959.691   -9668.6911   -41803.726   -65406.657   -1748.3238   -5488.6217    49553.356    79.009352 
   25700    1646.9366     -106.802    1.4901828   -105.31181   -2339.0218    4.2857967    4.2857967    4.2857967   -2339.0218    26512.817     20660.73   -54190.613    6334.3657    3177.7656    28391.393    78.721744 
   25800    1745.8969   -106.89509    1.5797242   -105.31537    2807.8699    4.2817413    4.2817413    4.2817413    2807.8699   -16288.582   -2759.2126    27471.404    3318.3745   -6258.4535   -3171.0938    78.498484 
   25900    1134.9769   -106.36746    1.0269509   -105.34051   -23945.513    4.2839188    4.2839188    4.2839188   -23945.513    7164.0491   -28765.263   -50235.325    12128.385   -6784.2547    54516.676    78.618306 
   26000    2053.6148   -107.18457    1.8581539   -105.32642    13044.433    4.2747359    4.2747359    4.2747359    13044.433   -15900.251    6515.3338    48518.217    11130.199    -695.9312   -31291.022    78.113816 
   26100    1060.8106   -106.30792   0.95984372   -105.34808    7878.6155    4.2812765    4.2812765    4.2812765    7878.6155    11548.542   -5648.7797    17736.084   -6549.8937   -13461.944    26053.932    78.472921 
   26200    1901.2219   -107.04496    1.7202655    -105.3247   -9985.1656    4.2952771    4.2952771    4.2952771   -9985.1656    14753.993   -19791.888   -24917.601    7097.7869   -4811.7165    12631.677    79.245311 
   26300    1486.9903    -106.6621    1.3454601   -105.31664    17799.964      4.28958      4.28958      4.28958    17799.964    77148.971   -28980.424    5231.3454   -3655.9368    10577.145   -14071.347    78.930399 
   26400    910.49134   -106.14504    0.8238317   -105.32121    20390.987    4.2806578    4.2806578    4.2806578    20390.987    100876.39   -27423.146   -12280.284   -19311.901   -7759.5346     46729.79    78.438906 
   26500    2045.1052   -107.16043    1.8504541   -105.30997     6356.258    4.2784627    4.2784627    4.2784627     6356.258    32670.353    3181.2897   -16782.869   -5931.5713   -11433.938   -20550.695      78.3183 
   26600    807.17041   -106.07382   0.73034475   -105.34348   -4170.8289    4.2826308    4.2826308    4.2826308   -4170.8289    74356.493   -29903.086   -56965.893   -17705.605    5534.7344    54992.633    78.547417 
   26700    1807.9186   -106.96437    1.6358428   -105.32852    606.64069    4.2877142    4.2877142    4.2877142    606.64069    18272.842   -10110.474   -6342.4462   -10415.492    4853.6093   -596.82431    78.827452 
   26800    1518.7103   -106.69945     1.374161   -105.32529   -35545.454    4.2974006    4.2974006    4.2974006   -35545.454   -4475.5836   -43762.847   -58397.932    10821.911    2739.5997    27867.667      79.3629 
   26900    1292.4921   -106.49807     1.169474   -105.32859   -16302.554    4.2791936    4.2791936    4.2791936   -16302.554    23834.018   -51283.891   -21457.789   -16585.102    13049.998    27085.128    78.358445 
   27000    2160.4197   -107.26338    1.9547932   -105.30858    15412.745    4.2629327    4.2629327    4.2629327    15412.745    16327.679    21051.116    8859.4407    1989.6541    1237.5585   -2668.6964    77.468548 
   27100     982.8155   -106.23889   0.88927212   -105.34962   -22293.586    4.2836075    4.2836075    4.2836075   -22293.586     47486.15   -57893.823   -56473.083    18315.605    3144.7738    60654.335    78.601171 
   27200    1851.6221   -107.00113    1.6753866   -105.32574    11378.867    4.2920468    4.2920468    4.2920468    11378.867    14243.626     23731.23   -3838.2549   -3163.1007    5075.3557   -17188.483    79.066651 
   27300    1434.2257   -106.62392    1.2977176    -105.3262    12307.465    4.2815038    4.2815038    4.2815038    12307.465    32793.101    22162.385    -18033.09    4484.9969    2410.0361    50993.359    78.485421 
   27400     1407.965   -106.60192    1.2739564   -105.32796    8643.4085    4.2827354    4.2827354    4.2827354    8643.4085    30668.426   -12162.135    7423.9344    10863.555   -3278.1713     7184.794    78.553174 
   27500    1525.6691   -106.70229    1.3804575   -105.32184    29543.431    4.2813802    4.2813802    4.2813802    29543.431    21055.942    68513.151   -938.80085   -731.46713    3470.0496   -5380.0065    78.478623 
   27600    1304.4572    -106.5194    1.1803003    -105.3391   -4884.8071    4.2736631    4.2736631    4.2736631   -4884.8071    47225.234   -26988.528   -34891.127    9269.2002   -13265.364    66769.656    78.055022 
   27700    1956.4499   -107.10275     1.770237   -105.33251    26430.922    4.2801095    4.2801095    4.2801095    26430.922   -14553.671    36892.426    56954.012    536.90473   -9256.9058   -28735.118    78.408769 
   27800      1259.64   -106.48456    1.1397487   -105.34481   -5947.2383    4.2885269    4.2885269    4.2885269   -5947.2383    1326.9449    31562.433   -50731.093     536.0697    5669.1305    56283.024    78.872283 
   27900    1576.8222   -106.76689    1.4267418   -105.34015   -12072.239    4.2831555    4.2831555    4.2831555   -12072.239   -20690.788    1880.0973   -17406.027    18134.046   -12011.604    22441.381    78.576293 
   28000    1579.9129   -106.76011    1.4295384   -105.33057    1683.3745    4.2853234    4.2853234    4.2853234    1683.3745    20475.808    8192.0838   -23617.768    12733.192    6532.1129     8090.457    78.695663 
   28100    954.66341    -106.1996   0.86379952    -105.3358   -11208.845    4.2927326    4.2927326    4.2927326   -11208.845    36529.001   -23788.928   -46366.608    4726.7165    548.50581    57072.273    79.104558 
   28200    1667.3093   -106.81686    1.5086165   -105.30825    5166.6081     4.278704     4.278704     4.278704    5166.6081   -12714.976    22747.882     5466.918     19439.61   -25792.781   -15722.438    78.331553 
   28300    1145.1367   -106.35903    1.0361438   -105.32289    1054.3314    4.2732664    4.2732664    4.2732664    1054.3314    35825.734    12990.642   -45653.382   -8575.5294    6330.8525    51347.619    78.033288 
   28400    2001.2995   -107.14718    1.8108179   -105.33636   -32474.257     4.291178     4.291178     4.291178   -32474.257   -24799.213   -29891.772   -42731.785   -11036.462      15590.4    1196.5637    79.018649 
   28500    1939.8232    -107.0888    1.7551928    -105.3336    -21539.19    4.2851898    4.2851898    4.2851898    -21539.19   -40952.603    11723.511   -35388.478    13138.499   -2884.2155    16055.402    78.688306 
   28600    822.72734   -106.09085   0.74442098   -105.34643    25981.934    4.2711499    4.2711499    4.2711499    25981.934    8588.8847    65457.929    3898.9883   -13024.936    7298.3031    54212.371    77.917398 
   28700    2009.5941   -107.16026     1.818323   -105.34194    5135.7818    4.2773764    4.2773764    4.2773764    5135.7818    2973.3313    24898.201   -12464.186   -9117.2184    13547.013   -23925.365    78.258658 
   28800     1188.718   -106.42583     1.075577   -105.35026    3522.6631    4.2873808    4.2873808    4.2873808    3522.6631    75871.011    761.88185   -66064.903   -10952.604   -5440.5086    56845.554    78.809065 
   28900     1929.774   -107.06916    1.7461001   -105.32306   -8139.8277    4.2973285    4.2973285    4.2973285   -8139.8277    8442.0188   -357.77165    -32503.73   -18204.962    13405.718   -14447.292    79.358902 
   29000    974.85776    -106.2214   0.88207179   -105.33932    7882.3371     4.278126     4.278126     4.278126    7882.3371    78754.973   -49290.361   -5817.6003    2651.5682    -5366.578    44681.843    78.299812 
   29100    1363.8105   -106.58066    1.2340044   -105.34666    15926.062    4.2583862    4.2583862    4.2583862    15926.062    55076.044    29015.236   -36313.093   -6436.2494    -2438.069    27328.792    77.220947 
   29200    1589.7395   -106.80002    1.4384297   -105.36159    9650.5258     4.277752     4.277752     4.277752    9650.5258    17550.128     -2984.33     14385.78    1926.8688    1963.0631    1934.7258    78.279275 
   29300    1030.4102   -106.28709    0.9323368   -105.35475   -16500.088    4.2944232    4.2944232    4.2944232   -16500.088    46727.467   -41344.912   -54882.819    934.73682   -21221.619    69329.513    79.198054 
   29400    1806.0989   -106.95204    1.6341962   -105.31784     7056.782    4.2915896    4.2915896    4.2915896     7056.782   -9244.8123    7967.3159    22447.843   -3426.4331    6915.0343   -14130.724    79.041385 
   29500    1135.5995   -106.35805    1.0275143   -105.33053    -32543.28    4.2850997    4.2850997    4.2850997    -32543.28   -18664.341   -75027.771   -3937.7274   -4286.2548    13485.642    49385.059     78.68334 
   29600    1882.4047   -107.03958    1.7032394   -105.33634    16192.699    4.2625597    4.2625597    4.2625597    16192.699    18059.317   -11693.247    42212.028   -307.92382   -3512.5608    25967.489    77.448219 
   29700    1523.3807   -106.73988    1.3783869    -105.3615    42513.188    4.2621441    4.2621441    4.2621441    42513.188    11390.826    21722.463    94426.276    7882.8171    1069.3536   -10284.584    77.425566 
   29800     1016.895   -106.30021   0.92010798    -105.3801   -27417.945    4.2962678    4.2962678    4.2962678   -27417.945   -18358.826   -53511.927   -10383.081    308.56989        18091      64453.5    79.300152 
   29900    1963.5525   -107.10534    1.7766636   -105.32868    3444.1667    4.2988664    4.2988664    4.2988664    3444.1667   -12089.467   -42314.818    64736.785    6852.8546    5194.4521   -21174.818    79.444136 
   30000    1241.1918   -106.46404    1.1230564   -105.34098   -3703.6607    4.2692649    4.2692649    4.2692649   -3703.6607    49381.982   -26571.274    -33921.69   -14265.024    18712.292     26639.11    77.814283 
   30100     1509.949   -106.70411    1.3662336   -105.33788    36799.421    4.2635613    4.2635613    4.2635613    36799.421    36596.707    17236.824    56564.734   -11091.934    10624.356     14795.46    77.502825 
   30200    1490.1641    -106.6931    1.3483318   -105.34477   -13733.586    4.2935564    4.2935564    4.2935564   -13733.586    17174.836   -50594.791   -7780.8018   -3971.4162   -9964.0162   -6259.2796    79.150107 
   30300    1458.8094   -106.64873    1.3199614   -105.32877   -33029.139    4.2909841    4.2909841    4.2909841   -33029.139    5147.6489   -40308.646   -63926.419   -8763.9187    9870.8105    49512.266    79.007936 
   30400    1900.9381   -107.02051    1.7200087    -105.3005    21774.474     4.272565     4.272565     4.272565    21774.474   -2488.6392    32188.331    35623.731    9458.1507   -10165.768   -26945.031    77.994868 
   30500    817.30504   -106.07191   0.73951478   -105.33239   -22641.537    4.2841559    4.2841559    4.2841559   -22641.537    31200.206   -72801.543   -26323.273    5475.5342    100.86121    50312.707     78.63136 
   30600    2200.5039   -107.30419    1.9910622   -105.31313   -6246.8836    4.2780591    4.2780591    4.2780591   -6246.8836    8435.5327    15.714212   -27191.898   -2863.9301    10771.663    18084.406     78.29614 
   30700    1277.5176   -106.49608    1.1559247   -105.34016   -7491.8421    4.2820512    4.2820512    4.2820512   -7491.8421   -22952.292   -10035.014     10511.78    7557.5609   -10010.076   -12341.138     78.51553 
   30800    1058.5067   -106.31339   0.95775913   -105.35563   -50349.245    4.2900484    4.2900484    4.2900484   -50349.245   -3863.5852   -82928.339   -64255.811    770.95012    2729.2156    56072.499    78.956264 
   30900    1889.3861    -107.0514    1.7095563   -105.34184    27736.351     4.254963     4.254963     4.254963    27736.351    13723.752    60630.864    8854.4373    2318.1031     13301.26    772.14863    77.034874 
   31000    1410.1616   -106.64301    1.2759439   -105.36707    1880.2728    4.2592052    4.2592052    4.2592052    1880.2728    37157.382    -20193.14   -11323.423    3822.9529    1562.0968    13024.711    77.265515 
   31100    1588.9473   -106.79778    1.4377129   -105.36006   -23888.248    4.2908817    4.2908817    4.2908817   -23888.248    7642.8921   -50144.423   -29163.213   -210.81225     9377.055    26014.328    79.002281 
   31200    1661.5985   -106.85276    1.5034492   -105.34931    2852.6092    4.2718745    4.2718745    4.2718745    2852.6092   -26267.332    23200.755    11624.404   -809.27801    13587.775   -22.227214    77.957061 
   31300    1208.7341   -106.44956     1.093688   -105.35587     13534.32    4.2685003    4.2685003    4.2685003     13534.32    44048.736   -7861.1752    4415.4002    20053.446   -13410.312    18266.466     77.77248 
   31400    1770.6341    -106.9387    1.6021069    -105.3366   -25231.529     4.288612     4.288612     4.288612   -25231.529   -39086.917   -19341.509   -17266.161   -16828.356   -2637.1697    5043.1804    78.876977 
   31500    1281.5131   -106.48836      1.15954   -105.32882    7629.3148    4.2749001    4.2749001    4.2749001    7629.3148   -26150.883    19577.373    29461.455   -17851.262    15587.449    8184.3092     78.12282 
   31600    1574.7449   -106.76018    1.4248623   -105.33532    14597.251    4.2807865    4.2807865    4.2807865    14597.251    9122.2023    27451.213    7218.3366    17746.267   -21929.498     8482.189    78.445981 
   31700    1329.5589   -106.53764    1.2030129   -105.33463   -23696.065    4.2961112    4.2961112    4.2961112   -23696.065    -77869.08   -50551.329    57332.214    -33965.85   -5722.5405   -13948.621    79.291481 
   31800     1530.313     -106.711    1.3846594   -105.32634    4274.3448    4.2770426    4.2770426    4.2770426    4274.3448   -2288.6911   -22303.804     37415.53   -377.44127    9840.5918    25274.096    78.240342 
   31900    1402.9952   -106.59833    1.2694596   -105.32887   -4929.2368     4.271508     4.271508     4.271508   -4929.2368    -18001.39    5370.0521   -2156.3722    -17457.14   -13069.672    9351.0484    77.936997 
   32000    1341.5427   -106.55425     1.213856    -105.3404   -18777.886    4.2724224    4.2724224    4.2724224   -18777.886   -48837.766   -35555.166    28059.274     -40766.4    -15087.16   -2491.7022    77.987059 
   32100    1903.8064   -107.06874    1.7226041   -105.34614      6155.93    4.2673295    4.2673295    4.2673295      6155.93    27495.825   -8935.8114   -92.224141    21561.546    17286.054    32150.227    77.708504 
   32200    1002.1183    -106.2727   0.90673767   -105.36597   -10747.716    4.2735731    4.2735731    4.2735731   -10747.716   -34394.241    11036.866   -8885.7718   -47604.871   -14196.033   -199.39516     78.05009 
   32300    1822.8987   -107.00429    1.6493971   -105.35489   -13790.654    4.2757409    4.2757409    4.2757409   -13790.654   -23642.425   -49669.391    31939.852   -10237.996   -15770.172     183.0473    78.168926 
   32400    1171.5439   -106.42093    1.0600376   -105.36089   -1698.4404     4.271563     4.271563     4.271563   -1698.4404    -1060.542   -23365.833    19331.053   -2422.5597    24521.898    12590.057    77.940007 
   32500    1523.6457   -106.73223    1.3786266    -105.3536    -2203.228    4.2664529    4.2664529    4.2664529    -2203.228   -4535.1335   -5356.4383    3281.8877   -38768.228   -2347.9301    3915.2387    77.660622 
   32600    1652.4206   -106.84857    1.4951449   -105.35342    26925.158    4.2733298    4.2733298    4.2733298    26925.158     28646.68    3325.6237    48803.169    18634.295   -15928.093   -753.40618     78.03676 
   32700    991.35061   -106.26167   0.89699486   -105.36468    868.29357    4.2748966    4.2748966    4.2748966    868.29357    11589.356   -17256.223    8271.7481   -23373.855    22728.159    25131.516    78.122626 
   32800    1998.7953    -107.1468     1.808552   -105.33824    8097.8858    4.2786004    4.2786004    4.2786004    8097.8858    17799.709    28553.126   -22059.178   -2542.3506    6381.3444   -2431.5223    78.325862 
   32900    1283.2624   -106.49414    1.1611228   -105.33302   -38665.595    4.3010001    4.3010001    4.3010001   -38665.595   -2656.1431   -54006.589   -59334.052    8017.8673    5210.4789     -13052.2    79.562491 
   33000     1050.452   -106.27513   0.95047101   -105.32465   -24098.702    4.2861123    4.2861123    4.2861123   -24098.702   -30673.056   -37875.185   -3747.8636   -39167.277     21062.07    31817.745    78.739136 
   33100    1859.5439   -106.98459    1.6825544   -105.30204    34809.946    4.2550397    4.2550397    4.2550397    34809.946    52482.581    37958.589    13988.669    14860.478   -4886.7616   -17908.875    77.039038 
   33200    1357.6824   -106.57281    1.2284596   -105.34435   -11719.594    4.2640962    4.2640962    4.2640962   -11719.594    28831.921   -16804.561   -47186.142   -5755.2851    19575.875   -760.85894    77.531997 
   33300    1325.9686   -106.55648    1.1997642   -105.35671    -9578.541    4.2757918    4.2757918    4.2757918    -9578.541     -2623.32    4478.4417   -30590.745   -28923.475    13641.714    13327.461    78.171717 
   33400     1766.101   -106.94821    1.5980053    -105.3502     4391.024    4.2868675    4.2868675    4.2868675     4391.024    26281.169    14004.176   -27112.273    29520.736   -19715.279   -3166.4883     78.78076 
   33500    1301.4086    -106.5133    1.1775419   -105.33576   -9501.8274    4.2865866    4.2865866    4.2865866   -9501.8274    14762.889   -43057.917   -210.45451   -25285.006    14275.537    8589.5594    78.765278 
   33600    1302.7835    -106.5038    1.1787859   -105.32501    25704.802    4.2579894    4.2579894    4.2579894    25704.802    24847.664     40592.83    11673.911    -808.3504   -18508.178   -6950.0905    77.199366 
   33700    1826.5734   -106.98784     1.652722   -105.33512    21670.873    4.2561046    4.2561046    4.2561046    21670.873    54222.324    10437.722    352.57319    13634.641   -18821.648    9416.9691    77.096893 
   33800    1343.8778   -106.57688    1.2159689   -105.36091   -19446.185    4.2803096    4.2803096    4.2803096   -19446.185     -11912.5   -47943.154    1517.0975   -39445.895    14934.877    4351.5434    78.419765 
   33900    1351.3158   -106.58377     1.222699   -105.36107   -13815.539    4.2804122    4.2804122    4.2804122   -13815.539   -15627.407     19118.75   -44937.961    16032.644   -38712.865    246.42787    78.425406 
   34000    2112.5852   -107.25626    1.9115114   -105.34475   -4463.5985    4.2695643    4.2695643    4.2695643   -4463.5985   -20415.254   -4345.1319     11369.59   -16479.875   -7609.0666   -2392.9521    77.830654 
   34100    1073.4212   -106.33048   0.97125405   -105.35923    8508.9695    4.2714622    4.2714622    4.2714622    8508.9695    23217.645   -8434.4268     10743.69   -36051.314    3545.8967    4982.9965    77.934491 
   34200    1611.5871   -106.80406    1.4581978   -105.34586   -1082.2428    4.2855602    4.2855602    4.2855602   -1082.2428    941.53998    11679.664   -15867.932    21803.779   -12779.517   -9590.4143     78.70871 
   34300    1632.6296   -106.81927    1.4772375   -105.34203    6852.4953    4.2765712    4.2765712    4.2765712    6852.4953    7490.5745   -18616.136    31683.047   -47708.512    2768.5146   -7962.7847    78.214471 
   34400    1618.8874   -106.80829    1.4648034   -105.34349     25235.79     4.264683     4.264683     4.264683     25235.79    41737.456     37264.25   -3294.3372     3864.008   -5677.2112   -8153.6083    77.564014 
   34500    994.60362   -106.26275   0.89993826   -105.36281   -1625.2149     4.273187     4.273187     4.273187   -1625.2149    21128.014   -9869.6969   -16133.962   -7074.9544   -10097.127   -15277.846    78.028938 
   34600    1321.9459   -106.56477    1.1961244   -105.36864     944.3497    4.2696156    4.2696156    4.2696156     944.3497    4325.5625   -55368.131    53875.618   -45606.619    14914.499    6546.1606    77.833457 
   34700    2108.6856    -107.2598    1.9079831   -105.35182    16023.189     4.273482     4.273482     4.273482    16023.189    51747.276   -2569.2807   -1108.4295    15905.981    2462.6781   -7125.5886    78.045098 
   34800    1003.0479   -106.26482   0.90757878   -105.35724   -27159.339     4.294355     4.294355     4.294355   -27159.339   -10976.249   -19520.256    -50981.51     -42691.4   -7353.2838   -1044.2271    79.194284 
   34900    1800.2383   -106.95403    1.6288934   -105.32514     6772.286    4.2840723    4.2840723    4.2840723     6772.286    35686.136    30.579633   -15399.858    9937.6528    2056.5085    13320.993    78.626761 
   35000    1527.9827   -106.70858    1.3825509   -105.32603     27786.65    4.2570538    4.2570538    4.2570538     27786.65   -12655.796    13823.102    82192.643   -14255.446   -6128.0478    -10612.36    77.148486 
   35100    1110.5791   -106.36321    1.0048754   -105.35834    5918.2612    4.2663607    4.2663607    4.2663607    5918.2612    449.73712    6329.9063     10975.14   -34853.232   -20663.568   -2092.4155    77.655587 
   35200    1798.0141   -106.96599    1.6268809   -105.33911    8347.6532    4.2836687    4.2836687    4.2836687    8347.6532     12344.89   -28.019858    12726.089    10828.597   -7432.8906    19173.812    78.604537 
   35300    1042.4365   -106.28944   0.94321844   -105.34622    2245.4138    4.2823084    4.2823084    4.2823084    2245.4138     -16068.8   -20947.252    43752.293   -58986.278    -18997.05   -19516.751     78.52968 
   35400    1756.4467   -106.91435    1.5892699   -105.32508    4904.7103    4.2774134    4.2774134    4.2774134    4904.7103   -566.85682    22112.399   -6831.4112    7513.7242   -12468.286    18795.853    78.260689 
   35500    1459.9339   -106.65483    1.3209788   -105.33386    6402.6892    4.2741687    4.2741687    4.2741687    6402.6892    20558.335    8378.8865   -9729.1543   -19798.558    3849.3919    27565.964    78.082729 
   35600    1184.0571   -106.41748    1.0713598   -105.34612      13992.2    4.2733264    4.2733264    4.2733264      13992.2    11408.444   -30624.286    61192.443   -45305.736     -35924.1   -19359.794    78.036576 
   35700    1707.1254   -106.88422    1.5446429   -105.33957    28578.989    4.2715362    4.2715362    4.2715362    28578.989    18546.624    21575.455    45614.888    12367.265    1139.0015    34674.279    77.938543 
   35800    1560.3776   -106.76158    1.4118624   -105.34972   -6061.9586    4.2697974    4.2697974    4.2697974   -6061.9586   -8901.1642   -16336.431    7051.7193   -51581.601   -268.16456    10056.313    77.843401 
   35900    1642.0232   -106.83149    1.4857371   -105.34575    21390.126    4.2763745    4.2763745    4.2763745    21390.126     9696.178    7178.6975    47295.503   -10964.248   -24575.387   -1478.0808    78.203682 
   36000    1239.2728   -106.46231      1.12132   -105.34099    15048.662    4.2886466    4.2886466    4.2886466    15048.662   -14851.423    5177.2211    54820.186   -10053.813   -6713.8385    31640.706    78.878886 
   36100    1253.9811   -106.47343    1.1346284    -105.3388   -26150.729    4.2811821    4.2811821    4.2811821   -26150.729   -80445.641    -424.0693    2417.5242   -49077.771   -26112.676    -5518.813    78.467732 
   36200    2084.7727     -107.203    1.8863462   -105.31665    46820.452    4.2520502    4.2520502    4.2520502    46820.452    21527.526    52801.392    66132.439    19682.337   -8021.8697    8588.3809    76.876772 
   36300    1009.7208   -106.27891   0.91361661   -105.36529    1586.7714    4.2650129    4.2650129    4.2650129    1586.7714   -40559.463   -24199.494    69519.271   -67728.901   -3928.5053    20943.235    77.582013 
   36400    1916.0387   -107.07099    1.7336721   -105.33732   -22179.725    4.2892599    4.2892599    4.2892599   -22179.725   -60134.254   -12867.783    6462.8618   -3773.8464   -9575.5834   -16804.022    78.912735 
   36500    1644.8365   -106.81586    1.4882826   -105.32758    11253.152    4.2717156    4.2717156    4.2717156    11253.152   -18698.801    874.70069    51583.555   -16734.283    11635.936    12463.877    77.948362 
   36600     1245.492   -106.46968    1.1269473   -105.34273    11021.054    4.2680036    4.2680036    4.2680036    11021.054   -32761.002    4336.9379    61487.227   -42809.164   -3774.3416    22408.679    77.745334 
   36700    2093.1581   -107.22199    1.8939335   -105.32805    13555.824    4.2729949    4.2729949    4.2729949    13555.824   -1308.5284    36107.519    5868.4814    10130.469    17988.536   -4435.1457    78.018413 
   36800    977.75356   -106.23625   0.88469197   -105.35155    40165.135    4.2693561    4.2693561    4.2693561    40165.135    11689.707    54817.517    53988.181   -52156.978   -4364.4649   -3394.3507    77.819268 
   36900    1883.2527   -107.04873    1.7040066   -105.34473   -13920.674    4.2900247    4.2900247    4.2900247   -13920.674   -8717.3822    14139.489   -47184.129    4650.3383    23123.493    19465.228    78.954952 
   37000    1489.7523   -106.69195    1.3479592   -105.34399   -1566.9511     4.273303     4.273303     4.273303   -1566.9511   -38822.895    15206.044    18915.998   -6585.6165    23957.909   -5757.3563    78.035291 
   37100    1689.8498   -106.85346    1.5290116   -105.32445    28622.965    4.2405575    4.2405575    4.2405575    28622.965    5132.6719    24334.414    56401.809   -33932.392   -4958.9943   -4187.7308    76.255095 
   37200    1590.9432   -106.79753    1.4395188   -105.35802    13077.808    4.2656805    4.2656805    4.2656805    13077.808   -2502.4706    70058.414   -28322.518    9691.2268    50922.916    7908.7012    77.618453 
   37300    1569.6931   -106.76344    1.4202913   -105.34315   -12940.921    4.2870233    4.2870233    4.2870233   -12940.921   -43647.553    43.032015    4781.7591   -9469.4136   -10263.144   -14901.973    78.789351 
   37400    1224.9232   -106.44118    1.1083362   -105.33284    27893.063     4.278504     4.278504     4.278504    27893.063   -15893.842    92316.353    7256.6792   -8776.0328    25815.405    13388.947    78.320568 
   37500    1679.6852   -106.83375    1.5198145   -105.31393   -5211.8945    4.2806536    4.2806536    4.2806536   -5211.8945   -11384.235   -2189.0611   -2062.3874    20955.758    28078.622   -5378.1947    78.438676 
   37600    1174.5521   -106.39393    1.0627594   -105.33117   -15144.254    4.2644211    4.2644211    4.2644211   -15144.254   -33797.862   -16278.478    4643.5786   -13945.647   -16619.447   -12340.853     77.54972 
   37700    1822.1235   -106.98221    1.6486956   -105.33352    40727.592    4.2558628    4.2558628    4.2558628    40727.592    7226.7168    112424.89    2531.1698   -2689.5545      26142.9    6414.6541    77.083753 
   37800    1298.6576   -106.52943    1.1750527   -105.35437   -28011.881    4.2839052    4.2839052    4.2839052   -28011.881   -9060.3632   -55130.866   -19844.413   -6184.2607   -4266.3104    6569.0556    78.617561 
   37900    856.61905   -106.12763   0.77508692   -105.35254   -2216.1642    4.2782436    4.2782436    4.2782436   -2216.1642   -54495.758    28214.971    19632.294   -17391.262   -3562.0436   -1642.7509    78.306268 
   38000    2150.3841   -107.27511    1.9457128    -105.3294    22691.972     4.263301     4.263301     4.263301    22691.972    38240.644    21542.133    8293.1396   -2115.8996    2.5459969   -4118.4909    77.488633 
   38100    1013.8914   -106.26743   0.91739021   -105.35004   -6376.7961    4.2738373    4.2738373    4.2738373   -6376.7961   -16321.324     -35336.6    32527.536   -16840.959   -8789.7879    8643.5389    78.064568 
   38200    1661.3795   -106.83223     1.503251   -105.32898    17351.133    4.2761743    4.2761743    4.2761743    17351.133   -16785.512    24660.161    44178.751   -13140.623   -1138.6147   -13676.384      78.1927 
   38300    1343.1382   -106.54181    1.2152997   -105.32651    3278.4663    4.2770521    4.2770521    4.2770521    3278.4663    10955.213   -15058.201    13938.387   -5721.9155    7894.0414    2222.4754     78.24086 
   38400    1492.7191   -106.67834    1.3506436    -105.3277    -22898.35    4.2809006    4.2809006    4.2809006    -22898.35   -51783.673   -52853.483    35942.105   -19378.158    7178.8355    13802.928    78.452256 
   38500    1882.2063   -107.02577    1.7030598   -105.32271    18668.387    4.2630162    4.2630162    4.2630162    18668.387    17415.447   -3292.9076    41882.622   -5207.6525    4879.4062   -17325.211      77.4731 
   38600     1241.938   -106.47381    1.1237316   -105.35008    5788.8653    4.2677493    4.2677493    4.2677493    5788.8653    10920.323   -37001.942    43448.215    922.81464    11881.295    15269.492    77.731438 
   38700    1969.5395   -107.10892    1.7820807   -105.32684     -26501.2    4.2853858    4.2853858    4.2853858     -26501.2   -52562.434   -35138.428    8197.2625   -11386.551   -2542.7735   -10100.576      78.6991 
   38800    979.40324    -106.2136   0.88618463   -105.32741    9618.7731     4.269956     4.269956     4.269956    9618.7731    29867.165   -35712.556    34701.711    8810.7912   -17994.007   -14712.147    77.852074 
   38900    1741.7466   -106.90635    1.5759689   -105.33038   -7962.5616    4.2706736    4.2706736    4.2706736   -7962.5616   -11836.833   -57557.731    45506.879    20259.465    11233.935    21921.058    77.891335 
   39000    1373.8199   -106.58168    1.2430611   -105.33862   -5709.2016    4.2765946    4.2765946    4.2765946   -5709.2016   -34798.057   -31872.043    49542.495   -4850.0255   -11811.525   -30211.923    78.215759 
   39100    1076.9515   -106.33283   0.97444834   -105.35838   -20349.463    4.2681176    4.2681176    4.2681176   -20349.463    7588.0133   -56645.516   -11990.886    -1177.766   -6634.7201   -38424.994    77.751566 
   39200    2109.7165   -107.26637    1.9089158   -105.35745   -8018.5662    4.2638261    4.2638261    4.2638261   -8018.5662   -23109.113     -28172.3    27225.715     4086.953    16889.583    30948.135    77.517265 
   39300    1362.6074   -106.59965    1.2329158   -105.36674    11346.006      4.26392      4.26392      4.26392    11346.006    15047.271    6155.3765    12835.372   -3086.8712    15880.277   -51458.297    77.522389 
   39400    1564.8457   -106.78111    1.4159053   -105.36521   -11933.174    4.2776197    4.2776197    4.2776197   -11933.174    417.76232   -16017.327   -20199.958   -926.84003   -13048.185   -6671.4079    78.272015 
   39500       1448.1   -106.66951    1.3102713   -105.35924   -9549.6287    4.2866582    4.2866582    4.2866582   -9549.6287   -36673.715   -2116.6451    10141.474    -350.7635     39935.67    22030.939    78.769226 
   39600    1532.0953   -106.74512    1.3862721   -105.35884   -7461.6634    4.2688742    4.2688742    4.2688742   -7461.6634    13530.961   -36785.598    869.64717   -3188.5132    18702.189   -53854.355    77.792921 
   39700      1680.61   -106.87014    1.5206513   -105.34948    26515.434    4.2394444    4.2394444    4.2394444    26515.434    16771.472    22701.179    40073.651    -3959.973   -14950.398    2915.1049    76.195062 
   39800     871.7094   -106.17921   0.78874098   -105.39047   -7477.4083    4.2556304    4.2556304    4.2556304   -7477.4083   -24815.575    44088.928   -41705.578     1065.455    69724.276    19475.285    77.071124 
   39900     2274.207   -107.41863    2.0577502   -105.36088   -10221.848    4.2828926    4.2828926    4.2828926   -10221.848   -27309.246    -41202.08    37845.783   -7987.0436   -9057.0317   -15635.759    78.561822 
   40000    1234.7669   -106.48622    1.1172431   -105.36897   -19388.408    4.2830262    4.2830262    4.2830262   -19388.408   -54577.294    3004.3532   -6592.2838    2134.3146    35060.648    4729.2392    78.569175 
   40100    993.97655    -106.2612   0.89937088   -105.36182    4116.1046    4.2651123    4.2651123    4.2651123    4116.1046   -19105.839    52506.839   -21052.686    9699.2719    22536.254    11994.172    77.587436 
   40200     2263.274   -107.38222    2.0478579   -105.33436    32963.303     4.255277     4.255277     4.255277    32963.303   -296.62947    25905.669     73280.87   -7761.3696    471.12513   -6399.8331    77.051926 
   40300    910.31546   -106.19414   0.82367256   -105.37047   -31693.963    4.2802096    4.2802096    4.2802096   -31693.963   -44649.371    14271.292   -64703.809     11131.43    67866.569    20157.047    78.414273 
   40400    1902.7296   -107.06481    1.7216297   -105.34319   -25843.118    4.2819664    4.2819664    4.2819664   -25843.118   -18164.532   -32146.404   -27218.418     10043.26   -19252.962    20650.516    78.510866 
   40500    1652.3267   -106.83676      1.49506    -105.3417    31496.745    4.2588739    4.2588739    4.2588739    31496.745    17802.354    12767.148    63920.733   -8033.2731    34918.676   -23609.975    77.247486 
   40600    1147.8766   -106.39999    1.0386229   -105.36136    24046.815    4.2616609    4.2616609    4.2616609    24046.815    2104.4802    14360.896    55675.068    10326.491    38499.071    16717.942    77.399235 
   40700    1880.6568   -107.04756    1.7016578    -105.3459     1462.807    4.2792736    4.2792736    4.2792736     1462.807   -6964.6935   -33924.046    45277.161   -10446.101   -17780.106    17192.074     78.36284 
   40800    1119.5344   -106.36942    1.0129783   -105.35644    -23753.18    4.2755717    4.2755717    4.2755717    -23753.18   -19836.811   -24151.636   -27271.094   -4776.3107    44914.011   -46974.611    78.159647 
   40900    1691.1564   -106.87621    1.5301939   -105.34602   -11235.934    4.2620799    4.2620799    4.2620799   -11235.934   -15288.482    360.51653   -18779.835    11980.132    22839.999    22989.638    77.422065 
   41000    1926.1165   -107.09107    1.7427907   -105.34828    684.95139     4.265732     4.265732     4.265732    684.95139   -15132.517   -8213.6769    25401.048    -19719.37    393.77577    -7560.866    77.621264 
   41100    1115.1392   -106.37517    1.0090013   -105.36617   -36114.052    4.2806772    4.2806772    4.2806772   -36114.052    -48443.19   -16224.834   -43674.133    7757.0353    48290.956   -24586.992    78.439975 
   41200    2162.0529   -107.29609    1.9562709   -105.33981   -10851.645    4.2867965    4.2867965    4.2867965   -10851.645   -31816.922   -11384.494     10646.48    6175.7567    21054.452    20775.307    78.776847 
   41300    1392.9506   -106.59937    1.2603709     -105.339   -13156.897    4.2802502    4.2802502    4.2802502   -13156.897   -30968.865   -42711.032    34209.205   -27334.057    6678.6509   -25484.456    78.416502 
   41400    911.96092   -106.16695    0.8251614   -105.34179    15228.396    4.2584274    4.2584274    4.2584274    15228.396    -20003.68    39100.624    26588.244     2102.494    49732.021   -23918.347    77.223189 
   41500    2127.7259   -107.25949    1.9252111   -105.33428    29265.657    4.2699385    4.2699385    4.2699385    29265.657    51940.765   -13616.282    49472.489    -3399.106   -22282.129    6007.9731     77.85112 
   41600     820.8903    -106.0899    0.7427588   -105.34714   -33625.416    4.3017959    4.3017959    4.3017959   -33625.416   -36187.468   -72332.968    7644.1886     3498.688    34402.465   -31432.902    79.606662 
   41700    1478.4379   -106.68332    1.3377217    -105.3456   -13853.218    4.2773078    4.2773078    4.2773078   -13853.218   -36259.705    -13207.47    7907.5194       198.36    31259.322    6854.8982    78.254893 
   41800    1894.8097   -107.03252    1.7144636   -105.31805    44211.808     4.238966     4.238966     4.238966    44211.808    37103.606    5713.2159    89818.604    -202.4786   -22284.066    11169.478     76.16927 
   41900     1097.292    -106.3561    0.9928529   -105.36325   -24569.638    4.2563695    4.2563695    4.2563695   -24569.638   -27053.211    3471.9678    -50127.67    6533.5681    62399.438   -40382.831     77.11129 
   42000    1395.4702   -106.62152    1.2626508   -105.35887   -17961.199    4.2733995    4.2733995    4.2733995   -17961.199   -10302.387   -4597.7241   -38983.485     1660.935    15362.516    28249.795    78.040578 
   42100    1976.3999   -107.13621    1.7882882   -105.34793    -1149.784    4.2761017    4.2761017    4.2761017    -1149.784   -14497.144     -15726.2    26773.992    5247.4545    2129.0849   -872.44099    78.188713 
   42200    1094.7692   -106.35525    0.9905702   -105.36468   -5343.3154     4.270569     4.270569     4.270569   -5343.3154   -8827.3332    7445.8922   -14648.505    2567.9727    42871.745   -24518.699    77.885609 
   42300    1439.5228   -106.65432    1.3025104   -105.35181    30002.888    4.2603407    4.2603407    4.2603407    30002.888    26091.614   -31936.824    95853.875    6382.5692   -9211.3665     49408.36    77.327327 
   42400    1950.7092    -107.1177    1.7650427   -105.35266   -5481.5395     4.263729     4.263729     4.263729   -5481.5395    4952.5918   -17584.076   -3813.1341   -360.34866    13443.048   -13721.869    77.511971 
   42500    972.20467   -106.25061   0.87967121   -105.37094    2897.0318    4.2665682    4.2665682    4.2665682    2897.0318    6373.0143    -18224.08    20542.161    2925.4805    26986.285   -15812.179    77.666918 
   42600    2213.1447   -107.36464    2.0024998   -105.36214   -6899.5003     4.269605     4.269605     4.269605   -6899.5003    18762.452   -45531.757    6070.8042    7003.6187   -1348.3056    28484.194    77.832878 
   42700    1212.5731   -106.47318    1.0971616   -105.37602    21023.438    4.2622591    4.2622591    4.2622591    21023.438    51717.993    16614.128   -5261.8063   -7273.8138     20690.74   -26300.824    77.431831 
   42800    1299.8334   -106.55411    1.1761166   -105.37799   -7004.1585    4.2784945    4.2784945    4.2784945   -7004.1585    14634.998   -25824.085   -9823.3886    8588.4916    7008.3691   -16699.548    78.320047 
   42900    2182.5513   -107.32313    1.9748183   -105.34831    6957.3617    4.2741249    4.2741249    4.2741249    6957.3617    26242.796   -44220.376    38849.665   -1743.7976    5967.8791     8074.655    78.080326 
   43000    560.87854   -105.87273   0.50749469   -105.36524    23593.332    4.2522784    4.2522784    4.2522784    23593.332    65319.169    29398.981   -23938.154   -6942.8484     28462.65   -19165.916     76.88915 
   43100     1691.056   -106.90058     1.530103   -105.37048    1748.8288    4.2630133    4.2630133    4.2630133    1748.8288    28649.711   -14102.035   -9301.1897    6287.4067    4890.7469   -9268.6429    77.472947 
   43200      1849.47   -107.03356    1.6734394   -105.36012    13673.984     4.270408     4.270408     4.270408    13673.984    69752.636   -32072.422    3341.7396   -12860.752    1520.6276    22639.426    77.876803 
   43300    1015.2389   -106.28449   0.91860945   -105.36588   -20795.128    4.2727862    4.2727862    4.2727862   -20795.128   -13710.788    6417.2988   -55091.894   -4867.7645    33441.748   -35775.941    78.006986 
   43400    1963.0901   -107.12029    1.7762452   -105.34404    4970.6481    4.2675964    4.2675964    4.2675964    4970.6481    30545.332   -15953.918    320.53082    16739.863   -27060.799    15865.002    77.723085 
   43500    1326.2784   -106.55152    1.2000446   -105.35147   -9536.1587    4.2623754    4.2623754    4.2623754   -9536.1587    56008.379   -42595.015    -42021.84   -9878.3533    24976.474    26937.281    77.438172 
   43600    1333.8141    -106.5627     1.206863   -105.35584   -242.50077    4.2596622    4.2596622    4.2596622   -242.50077    26355.877   -5135.9978   -21947.382    9092.5419    32444.962    -39219.66    77.290386 
   43700    1788.9613   -106.97621    1.6186898   -105.35752   -3422.7173    4.2637458    4.2637458    4.2637458   -3422.7173    8280.4267   -18384.056    -164.5229    5303.9793   -28766.678      42224.4    77.512888 
   43800    1241.6358   -106.48607    1.1234582   -105.36261   -6100.2289    4.2661453    4.2661453    4.2661453   -6100.2289    48369.394   -33523.003   -33147.078   -3275.2445    29787.346   -4868.5725    77.643825 
   43900    1489.4085    -106.7129    1.3476481   -105.36526    3710.6701    4.2591341    4.2591341    4.2591341    3710.6701    16292.547    -2055.032   -3105.5044    7587.2043    15209.355   -41320.283    77.261645 
   44000    2007.6077   -107.16799    1.8165257   -105.35146    14992.729    4.2697135    4.2697135    4.2697135    14992.729    44143.205   -12778.045    13613.027    2594.5458   -16033.784    32744.148    77.838813 
   44100    1039.6855   -106.31267   0.94072925   -105.37194   -31995.962    4.2713892    4.2713892    4.2713892   -31995.962   -6174.4817   -30790.449   -59022.955    5074.5392     41023.26   -40519.595    77.930495 
   44200    1344.4639   -106.58201    1.2164992   -105.36551    16430.997    4.2540093    4.2540093    4.2540093    16430.997    30990.784    6.7319679    18295.475    -84.74271     19.48065   -14078.383    76.983082 
   44300    2080.9599   -107.24111    1.8828962   -105.35822    1263.6483    4.2643597    4.2643597    4.2643597    1263.6483   -13765.921   -18123.632    35680.498    16175.718    -10164.39    -7419.694    77.546371 
   44400    990.47163   -106.26795   0.89619955   -105.37175    -20452.45    4.2791646    4.2791646    4.2791646    -20452.45   -4441.6619   -14433.858    -42481.83   -6549.3374    47006.754   -39629.745    78.356851 
   44500    2172.8474   -107.29777     1.966038   -105.33173   -16528.587    4.2765287    4.2765287    4.2765287   -16528.587   -40155.339    4648.1388    -14078.56    13561.063   -7966.3986    10942.708    78.212143 
   44600    1208.6787   -106.43317    1.0936379   -105.33953   -7333.3735    4.2688615    4.2688615    4.2688615   -7333.3735      28572.3   -24677.319   -25895.101   -815.62364   -2973.1386   -37327.235    77.792227 
   44700    1295.4955   -106.52565    1.1721916   -105.35346   -17599.197    4.2600648    4.2600648    4.2600648   -17599.197   -18357.219    2527.6997   -36968.073    5631.5142    69236.678   -9367.7163    77.312306 
   44800    2429.9624   -107.55317    2.1986811   -105.35449    13855.594    4.2549256    4.2549256    4.2549256    13855.594    36607.178    14846.317    -9886.712     -7284.88   -13864.233    5295.6123    77.032839 
   44900     1310.846   -106.57024     1.186081   -105.38415   -21161.966    4.2662101    4.2662101    4.2662101   -21161.966    26321.289   -36558.792   -53248.395   -2483.3301    29177.216   -49881.729    77.647364 
   45000    1126.2168   -106.39905    1.0190246   -105.38003   -15856.182    4.2695549    4.2695549    4.2695549   -15856.182    12661.533    315.51846   -60545.597    3375.4578    50981.468     20046.92    77.830138 
   45100    1910.6454   -107.08734    1.7287922   -105.35855   -5692.7118    4.2703549    4.2703549    4.2703549   -5692.7118    63172.467   -40275.916   -39974.686   -13942.121   -25169.598   -3175.2677    77.873899 
   45200    1266.1631   -106.50641    1.1456509   -105.36076    -6225.474    4.2675205    4.2675205    4.2675205    -6225.474    41864.258   -11376.064   -49164.615    4439.5765    41536.596   -30170.357    77.718934 
   45300    1322.1372   -106.56459    1.1962975   -105.36829   -16898.587    4.2553029    4.2553029    4.2553029   -16898.587   -34404.752    21862.356   -38153.367   -3938.3342    46317.881    27392.579    77.053334 
   45400    1675.4431    -106.8747    1.5159762   -105.35873    23032.681    4.2518702    4.2518702    4.2518702    23032.681    76246.682   -6860.6181   -288.01996    5102.0752   -31855.858   -5321.7442     76.86701 
   45500    1024.7344   -106.30648   0.92720123   -105.37928   -29560.932    4.2765041    4.2765041    4.2765041   -29560.932   -25385.298    13030.674   -76328.171    4615.1594    70417.466   -10543.765    78.210792 
   45600    1999.6163   -107.15233    1.8092948   -105.34304   -20867.022    4.2886487    4.2886487    4.2886487   -20867.022   -32503.723   -5869.5104   -24227.833   -6711.8657    4476.3075    20068.972    78.879004 
   45700    1539.3906   -106.73894     1.392873   -105.34606    10961.604    4.2628941    4.2628941    4.2628941    10961.604   -8119.9781    33117.314    7887.4754   -1614.0019     19647.62   -11529.845    77.466445 
   45800    1078.8767   -106.32788   0.97619031   -105.35169    9797.3066    4.2479542    4.2479542    4.2479542    9797.3066   -1782.8951    29761.559    1413.2562   -838.39416    47955.436   -14937.175     76.65482 
   45900    2129.2465   -107.27524     1.926587   -105.34866    16223.885    4.2589901    4.2589901    4.2589901    16223.885    9631.3757    10149.938    28890.341    7691.6151   -16075.016    5563.6472    77.253808 
   46000    1025.8778   -106.30172   0.92823579   -105.37349    6233.9118    4.2729704    4.2729704    4.2729704    6233.9118   -3283.1847    57952.946   -35968.026    -10722.76    63354.349   -9293.1939    78.017073 
   46100    1645.0812   -106.83716     1.488504   -105.34865   -22948.813    4.2909648    4.2909648    4.2909648   -22948.813    -8993.145   -27382.021   -32471.273   -7528.4514   -18494.911   -4021.8286     79.00687 
   46200    1526.0337    -106.7139    1.3807873   -105.33311   -23138.558     4.279662     4.279662     4.279662   -23138.558   -15239.485   -18020.631    -36155.56    16382.754    29400.425    19404.662    78.384177 
   46300    1412.3862    -106.6085    1.2779567   -105.33054    6172.5496    4.2416644    4.2416644    4.2416644    6172.5496    7194.5568     56082.96   -44759.868    153.38789    50766.421   -31506.643    76.314825 
   46400    1706.0284   -106.88447    1.5436503   -105.34082    35117.458    4.2384653    4.2384653    4.2384653    35117.458     90661.22    11824.445    2866.7097   -3875.3911   -16820.788   -12537.419    76.142284 
   46500    1259.6051   -106.51036    1.1397172   -105.37064   -12348.252    4.2701045    4.2701045    4.2701045   -12348.252    15877.402   -5828.2353   -47093.921    3188.7433    30538.269    18318.571    77.860199 
   46600    1287.6581   -106.51783    1.1651001   -105.35273   -27910.256    4.2888488    4.2888488    4.2888488   -27910.256    335.82473   -24061.442   -60005.151   -7839.1188    24880.947   -52900.023    78.890046 
   46700    2259.3658   -107.37066    2.0443217   -105.32634   -135.49142    4.2722574    4.2722574    4.2722574   -135.49142      10502.7   -24586.883    13677.708   -3894.4017   -1383.6134    20319.133    77.978025 
   46800    928.09944   -106.18781   0.83976388   -105.34804   -7353.7131    4.2542834    4.2542834    4.2542834   -7353.7131    50996.237   -26530.661   -46526.715    20935.105     51068.02   -35974.469    76.997965 
   46900    1627.1077   -106.83151    1.4722413   -105.35926   -9709.8353    4.2547713    4.2547713    4.2547713   -9709.8353    19162.687   -15113.789   -33178.404   -12343.763   -11576.684   -36957.751     77.02446 
   47000    1959.1155   -107.12994    1.7726489   -105.35729   -7436.9044    4.2637898    4.2637898    4.2637898   -7436.9044   -27220.419    17630.624   -12720.918    19155.108    -7901.841    17443.922    77.515288 
   47100    713.54704   -106.02082   0.64563235   -105.37518   -16698.795    4.2708872    4.2708872    4.2708872   -16698.795    22484.524   -54765.969    -17814.94    22091.333    35710.765   -59392.994    77.903022 
   47200     2056.527   -107.20965    1.8607888   -105.34886   -1443.1627    4.2695545    4.2695545    4.2695545   -1443.1627    14192.655   -17709.949   -812.19392    -12500.89   -15573.731     1677.407    77.830119 
   47300    1570.5003   -106.77592    1.4210217   -105.35489    6243.2112    4.2567537    4.2567537    4.2567537    6243.2112    4064.7437   -10248.905    24913.795    5486.2443    3077.0309   -18518.347    77.132174 
   47400    891.98194   -106.17613     0.807084   -105.36905    4632.3938    4.2604911    4.2604911    4.2604911    4632.3938    47485.888   -41390.479    7801.7728    18310.015    23973.781   -51788.919    77.335518 
   47500    2124.6518    -107.2712    1.9224296   -105.34877     19923.64    4.2633335    4.2633335    4.2633335     19923.64    50048.342   -22244.299    31966.876   -13763.927   -7418.2623    26622.356    77.490403 
   47600    1294.9688    -106.5377    1.1717149   -105.36598   -1383.9439    4.2605927    4.2605927    4.2605927   -1383.9439    31267.808   -39357.693     3938.053    10043.491    6997.2133   -55658.557    77.341049 
   47700    1496.5895   -106.71622    1.3541456   -105.36207    2339.5315    4.2672565    4.2672565    4.2672565    2339.5315    48815.559   -19262.634    -22534.33   -1252.3682    14579.648    3278.0218    77.704516 
   47800    1758.2407   -106.93973    1.5908931   -105.34883    10537.302    4.2679106    4.2679106    4.2679106    10537.302     61887.64   -17772.248   -12503.487   -12683.867   -17639.892    11935.828    77.740254 
   47900    1566.5575   -106.76353    1.4174541   -105.34607    10248.821     4.262866     4.262866     4.262866    10248.821    42429.401    10645.649   -22328.586    4932.0828    14710.678   -45464.857    77.464916 
   48000    1186.5998   -106.42545    1.0736604   -105.35179    5385.4646    4.2660676    4.2660676    4.2660676    5385.4646    40595.649      22982.7   -47421.955   -5920.8279    19824.756    32069.265    77.639584 
   48100    1777.3906    -106.9503    1.6082204   -105.34208   -6688.0812    4.2641797    4.2641797    4.2641797   -6688.0812    19227.711   -15748.619   -23543.336   -11041.005   -29431.966   -16305.548    77.536552 
   48200    1391.4476    -106.6068    1.2590111   -105.34779    6140.1994    4.2588231    4.2588231    4.2588231    6140.1994     44156.97    1290.4512   -27026.823    3654.2346    47380.149   -13302.332    77.244722 
   48300    1613.2251   -106.81923    1.4596799   -105.35955   -25063.661    4.2689949    4.2689949    4.2689949   -25063.661   -9601.7491   -21273.245   -44315.988   -5735.9244    47423.231    25009.472    77.799521 
   48400    1989.1694   -107.14503    1.7998423   -105.34518   -4096.9495    4.2787922    4.2787922    4.2787922   -4096.9495    34691.911   -29930.692   -17052.067   -12153.846   -24651.395   -22279.085    78.336393 
   48500    1246.1038   -106.47366    1.1275009   -105.34616   -17329.906    4.2736797    4.2736797    4.2736797   -17329.906   -14443.361    22059.758   -59606.115    1522.8313    70222.071    6249.4266    78.055934 
   48600    1883.7536   -107.03754    1.7044599   -105.33308    -3956.062    4.2677287    4.2677287    4.2677287    -3956.062    19227.612   -15531.315   -15564.483    10709.822   -5812.7383    19912.553    77.730311 
   48700    1631.7009    -106.8178    1.4763973    -105.3414    3236.1887    4.2608824    4.2608824    4.2608824    3236.1887    25085.662    17702.712   -33079.808   -7989.2436      20481.6   -10030.181    77.356825 
   48800    979.21948   -106.25355   0.88601836   -105.36754   -8176.4882     4.258399     4.258399     4.258399   -8176.4882    5809.5857    32623.861   -62962.911   -5957.6615    63112.824    10820.887    77.221646 
   48900    1751.2382   -106.95149    1.5845571   -105.36694    14477.469     4.262131     4.262131     4.262131    14477.469    58657.674   -24090.437    8865.1684    30348.499    -26883.58    13799.787    77.424851 
   49000    1691.1379   -106.90041    1.5301771   -105.37023   -2097.9041     4.264594     4.264594     4.264594   -2097.9041    13238.409    6438.5489   -25970.671   -18671.451    44177.498   -8657.3573    77.559158 
   49100    1049.1214   -106.32716    0.9492671   -105.37789   -29099.676    4.2682251    4.2682251    4.2682251   -29099.676   -47500.981   -38797.585   -1000.4624    -4495.678    25687.637    24716.903    77.757438 
   49200    1628.4154   -106.84097    1.4734244   -105.36754   -12833.483     4.260177     4.260177     4.260177   -12833.483   -21259.624    -48325.59    31084.764    35295.105   -17586.127    16867.256    77.318415 
   49300    1735.3238   -106.93664    1.5701574   -105.36648    8444.4472    4.2565271    4.2565271    4.2565271    8444.4472    14661.024    3876.9806    6795.3369    -9169.702    36238.892   -3180.3817    77.119856 
   49400     1065.122    -106.3393   0.96374477   -105.37556   -9354.8881    4.2689812    4.2689812    4.2689812   -9354.8881    16656.882   -70149.592    25428.045   -2786.1074    23142.192    23323.944     77.79877 
   49500    1599.1307   -106.79535    1.4469271   -105.34843   -17699.395    4.2825815    4.2825815    4.2825815   -17699.395   -21543.686   -4887.0245   -26667.474    21057.896   -27331.059   -3676.0232    78.544704 
   49600     1036.517   -106.28134   0.93786233   -105.34348   -28387.088    4.2767447    4.2767447    4.2767447   -28387.088     -20641.5    14377.775   -78897.538   -11044.905    15927.573     12765.42    78.223991 
   49700    1830.7665   -106.98271     1.656516    -105.3262    34822.298    4.2424735    4.2424735    4.2424735    34822.298    61248.503   -13281.261    56499.651   -19145.307    16161.409    746.89106    76.358506 
   49800    1174.5606   -106.42723    1.0627671   -105.36446    18416.633    4.2511227    4.2511227    4.2511227    18416.633    55901.299    42890.349   -43541.748    13758.351   -51749.244    -14748.07    76.826478 
   49900    1458.4084   -106.67828    1.3195985   -105.35868   -19405.447    4.2823576    4.2823576    4.2823576   -19405.447   -4150.7795    755.26748   -54820.829   -13532.383    4525.0993    5740.7037    78.532388 
   50000    1447.7475   -106.65629    1.3099523   -105.34634   -15289.897    4.2786265    4.2786265    4.2786265   -15289.897   -26479.905       -51567    32177.213   -35908.124   -5397.6146   -16956.448    78.327294 
   50100    1339.7338   -106.55127    1.2122193   -105.33905   -7202.9014    4.2628754    4.2628754    4.2628754   -7202.9014   -12365.767    6706.4178   -15949.355    13028.084   -53841.804   -21774.767    77.465427 
   50200    2269.3253   -107.38613    2.0533332   -105.33279    1995.9132    4.2633093    4.2633093    4.2633093    1995.9132   -27670.737    9227.1336    24431.343   -22776.785    12435.844    6161.2366    77.489084 
   50300     942.7966    -106.2067   0.85306218   -105.35364   -5281.6969     4.272236     4.272236     4.272236   -5281.6969   -36619.762   -32671.874    53446.545   -25339.285   -26018.737   -37328.266    77.976851 
   50400    1718.7721   -106.89643    1.5551811   -105.34125    3595.1468     4.272245     4.272245     4.272245    3595.1468    19402.244    3103.7407   -11720.545    10250.749   -35762.165   -7256.2581    77.977345 
   50500    1764.0852   -106.93942    1.5961813   -105.34324    7421.0065    4.2627227    4.2627227    4.2627227    7421.0065    5939.0045    15812.897    511.11817   -36544.844    13717.406     2534.194    77.457104 
   50600    904.28443   -106.17646   0.81821556   -105.35825   -7255.2102    4.2494573    4.2494573    4.2494573   -7255.2102   -15656.921    24670.614   -30779.323   -15858.287   -54075.584   -31046.371    76.736224 
   50700    2001.2281   -107.16703    1.8107533   -105.35628    23053.155    4.2582975    4.2582975    4.2582975    23053.155    78551.275   -473.31882   -8918.4919    6734.1059   -8497.2312    8503.0484    77.216122 
   50800    1412.2868   -106.64332    1.2778667   -105.36545   -2231.3756    4.2708871    4.2708871    4.2708871   -2231.3756   -11575.512   -4424.5045      9305.89   -27316.477   -13166.725   -4643.6292    77.903017 
   50900      984.204    -106.2558   0.89052847   -105.36528     2771.744    4.2626861    4.2626861    4.2626861     2771.744     7992.766    42369.121   -42046.655   -4715.3591   -63993.697   -23617.373    77.455106 
   51000    2198.9882   -107.32818    1.9896908   -105.33849     18808.82    4.2620706    4.2620706    4.2620706     18808.82    27891.279    5576.9163    22958.266    1204.2084    32786.289    19530.591     77.42156 
   51100    818.40244   -106.09379   0.74050773   -105.35328   -3377.8128    4.2752514    4.2752514    4.2752514   -3377.8128    9154.0685    16568.618   -35856.125   -38782.924   -30346.098   -17414.724    78.142083 
   51200    1706.9591   -106.86908    1.5444924   -105.32458    10680.464    4.2892648    4.2892648    4.2892648    10680.464     4222.828    57139.013   -29320.449   -2188.2058   -2387.8654   -9128.3011    78.913002 
   51300    1465.7613   -106.65587    1.3262516   -105.32962    -21744.42    4.2779198    4.2779198    4.2779198    -21744.42   -64899.986   -11258.582    10925.307   -29675.966    1514.4654    1203.2259     78.28849 
   51400    917.31015     -106.165    0.8300015     -105.335    18332.689    4.2436783    4.2436783    4.2436783    18332.689    19993.904    48089.511   -13085.349   -25473.231   -32470.894   -24990.529    76.423576 
   51500    1822.6859   -106.99494    1.6492045   -105.34574    19805.854    4.2467051    4.2467051    4.2467051    19805.854    50246.187    27872.817   -18701.441   -2971.5683    23565.701   -1780.8752    76.587223 
   51600    1043.5275   -106.31846   0.94420564   -105.37425   -10511.276      4.27358      4.27358      4.27358   -10511.276    -30681.23    14652.664   -15505.263   -39074.633   -24863.773    4691.3291    78.050467 
   51700    1719.3845   -106.90931    1.5557352   -105.35357    386.64544    4.2896331    4.2896331    4.2896331    386.64544    27926.876    5080.5506    -31847.49   -19028.734   -6065.1106   -5963.9274    78.933336 
   51800    1268.4847   -106.48734    1.1477516   -105.33959    4554.8489    4.2853861    4.2853861    4.2853861    4554.8489    42211.312    18437.789   -46984.554   -19563.595    23637.088     14430.03    78.699118 
   51900    988.18439   -106.21609      0.89413   -105.32196    14490.201    4.2694873    4.2694873    4.2694873    14490.201    25330.865    14462.031     3677.705    -37382.72   -53200.607   -5602.5167     77.82644 
   52000    1908.8893   -107.03828    1.7272031   -105.31107   -2950.9403    4.2635366    4.2635366    4.2635366   -2950.9403    3239.0702    6128.0806   -18219.972    1736.9637    54465.045    1843.2711    77.501478 
   52100    1474.0798   -106.66505    1.3337783   -105.33127   -15549.718     4.264954     4.264954     4.264954   -15549.718   -29497.649    10385.424   -27536.929   -12107.353    10794.438   -4749.4893    77.578802 
   52200    1533.2643   -106.72873    1.3873297    -105.3414   -11065.042    4.2683748    4.2683748    4.2683748   -11065.042   -15928.853   -8645.3552   -8620.9178   -23974.296   -38425.358    2124.3522     77.76562 
   52300    1830.3328   -106.99611    1.6561236   -105.33998   -9371.2943    4.2652641    4.2652641    4.2652641   -9371.2943   -36041.701    47729.296   -39801.478    7222.6803    65180.816   -7104.3065     77.59572 
   52400    1332.1356   -106.55477    1.2053443   -105.34942   -12167.915    4.2620806    4.2620806    4.2620806   -12167.915    -39050.75    50499.906   -47952.903   -15115.084   -50751.874    6732.8051    77.422104 
   52500    1257.5985   -106.49231    1.1379015    -105.3544   -15504.397    4.2681672    4.2681672    4.2681672   -15504.397   -43197.602    8383.0823   -11698.672   -36887.065    8292.0131    2870.6154    77.754274 
   52600    1714.9501   -106.89509    1.5517229   -105.34337   -9922.8574    4.2685087    4.2685087    4.2685087   -9922.8574   -57971.732    68027.731   -39824.571   -2325.1704   -4090.0959   -7942.0282    77.772937 
   52700      1264.68   -106.48728     1.144309   -105.34297   -3417.5713     4.265619     4.265619     4.265619   -3417.5713   -41382.741    46504.217    -15374.19   -8789.6345   -44449.976    4720.5025    77.615093 
   52800    1636.0138   -106.81641    1.4802997   -105.33611    -16853.13    4.2653593    4.2653593    4.2653593    -16853.13   -51911.218   -18991.863     20343.69   -67983.159    15235.555   -10931.229    77.600917 
   52900    1570.1589   -106.75931    1.4207127    -105.3386   -19726.221    4.2663388    4.2663388    4.2663388   -19726.221   -64560.182    66831.966   -61450.445    13090.611   -49156.403    4014.4434     77.65439 
   53000    1292.2857    -106.5158    1.1692873   -105.34651   -21061.098    4.2671793    4.2671793    4.2671793   -21061.098       -39778   -32316.935    8911.6417   -42710.743   -4688.2113    2459.8468    77.700296 
   53100    1297.6406   -106.52757    1.1741325   -105.35344    24403.191    4.2532375    4.2532375    4.2532375    24403.191    22787.111   -9580.9968    60003.459   -50762.769    3136.4085   -282.90343    76.941188 
   53200    1679.8802   -106.87879    1.5199909   -105.35879     21085.69    4.2617201    4.2617201    4.2617201     21085.69    29253.663    50235.331   -16231.923   -914.82942    -27382.29    5644.7026     77.40246 
   53300    909.51695   -106.18557   0.82295005   -105.36262   -25250.758    4.2876462    4.2876462    4.2876462   -25250.758   -13158.841   -63261.786    668.35345   -76723.783    10289.748   -682.17039    78.823701 
   53400    2106.5698   -107.23162    1.9060686   -105.32555   -11705.263    4.2776799    4.2776799    4.2776799   -11705.263   -2609.5601   -4472.4819   -28033.747    16936.017       -14915   -7297.4528    78.275321 
   53500    1165.2193   -106.38548    1.0543149   -105.33117   -4735.6782    4.2537659    4.2537659    4.2537659   -4735.6782   -17704.171   -9534.5864    13031.723   -55203.524   -20758.995    538.14679     76.96987 
   53600    1242.2053   -106.47497    1.1239735     -105.351   -20318.543    4.2503406    4.2503406    4.2503406   -20318.543   -37469.224   -42718.539    19232.134   -63280.373    14971.385    2195.9185    76.784084 
   53700    2127.9102   -107.27554    1.9253779   -105.35016    17339.925    4.2564195    4.2564195    4.2564195    17339.925   -12190.256    41364.776    22845.255    23277.633    7324.3556   -2421.3678    77.114007 
   53800    794.43833   -106.09602   0.71882449   -105.37719    -21927.82    4.2699232    4.2699232    4.2699232    -21927.82   -76810.541   -31100.371    42127.451   -99143.944   -12815.467    732.16514    77.850283 
   53900    1976.9802   -107.13861    1.7888132    -105.3498   -4892.6649    4.2763696    4.2763696    4.2763696   -4892.6649   -17453.917    33661.939   -30886.016    8547.4773    14611.499    562.82384    78.203412 
   54000    1506.1272   -106.71241    1.3627756   -105.34964   -9534.6909    4.2679259    4.2679259    4.2679259   -9534.6909   -48330.344    10206.609    9519.6625   -42901.925    13636.099    10817.973    77.741087 
   54100    1169.4141   -106.41504    1.0581104   -105.35693    3243.8833    4.2470263    4.2470263    4.2470263    3243.8833     -14145.5    -29500.57     53377.72   -64871.575   -10893.136    2793.7582    76.604601 
   54200    1707.0912   -106.89323     1.544612   -105.34862    49561.883    4.2426626    4.2426626    4.2426626    49561.883    38362.865    80916.477    29406.309    25540.172     15117.91    7031.2877    76.368718 
   54300    863.75976   -106.16174   0.78154798    -105.3802   -22497.497     4.275889     4.275889     4.275889   -22497.497   -51979.444   -39804.392    24291.344    -99615.71    11208.148   -3627.9509    78.177046 
   54400    2431.0457   -107.53305    2.1996612   -105.33338   -11676.838    4.2833201    4.2833201    4.2833201   -11676.838    14319.804   -22362.561   -26987.758     20164.14   -9849.1831   -4787.3117    78.585349 
   54500    1072.4909   -106.31834   0.97041226   -105.34793    4636.8174    4.2542487    4.2542487    4.2542487    4636.8174   -37604.936    9897.6239    41617.765   -75823.051    9468.7186    4847.9352    76.996079 
   54600    1427.5064   -106.64378    1.2916378   -105.35214    20630.255    4.2552326    4.2552326    4.2552326    20630.255   -17512.264    47483.128    31919.903   -49362.556   -2199.5139   -4723.5646    77.049514 
   54700    1725.8479   -106.89789    1.5615835   -105.33631   -9622.0077    4.2850254    4.2850254    4.2850254   -9622.0077    -35610.23     21571.24   -14827.033   -8741.7221    180.38687    4000.9581    78.679248 
   54800     708.9101   -105.98448   0.64143676   -105.34305   -45325.583    4.2895805    4.2895805    4.2895805   -45325.583   -68564.122   -50042.566   -17370.062   -86956.036    20137.174   -656.68191     78.93043 
   54900    2325.2396   -107.41652    2.1039257    -105.3126    13501.975     4.258148     4.258148     4.258148    13501.975    60838.459   -5924.3974   -14408.136    20622.574    13642.822    1306.1168    77.207992 
   55000    976.70447   -106.21116   0.88374273   -105.32742    27355.671    4.2390978    4.2390978    4.2390978    27355.671   -2667.6191   -7386.4025    92121.036   -96940.934   -6694.5044    5620.3234    76.176375 
   55100    1839.3195   -107.00408    1.6642549   -105.33983    2346.8319    4.2699289    4.2699289    4.2699289    2346.8319    40430.057    905.38829   -34294.949    11773.594    21262.774    4617.8011    77.850593 
   55200    974.45485   -106.21235   0.88170723   -105.33065   -35209.364     4.292271     4.292271     4.292271   -35209.364   -53087.027   -58856.295    6315.2303   -75421.789     9795.393   -2832.1939    79.079042 
   55300    1901.2467   -107.02515     1.720288   -105.30486    12274.797    4.2694085    4.2694085    4.2694085    12274.797   -17155.125    14411.157    39568.359   -24007.538   -6017.1572   -929.61809    77.822132 
   55400    1586.0673   -106.74075     1.435107   -105.30564   -17450.489    4.2584709    4.2584709    4.2584709   -17450.489   -14153.041   -38846.428    648.00223   -38353.362    17032.203   -7698.5507    77.225556 
   55500     1021.621   -106.25763   0.92438415   -105.33325   -11871.865    4.2569799    4.2569799    4.2569799   -11871.865   -43157.483    -22527.28    30069.167   -84478.491    958.69377   -22991.336    77.144473 
   55600    2215.9103   -107.32295    2.0050022   -105.31795   -15341.753    4.2746835    4.2746835    4.2746835   -15341.753   -41469.946   -7665.8849    3110.5726    11004.866   -6858.2367   -957.75631    78.110947 
   55700    818.83206   -106.06422   0.74089646   -105.32333    -51972.84     4.286672     4.286672     4.286672    -51972.84    -108014.9   -71945.393    24041.775   -96214.402    9638.9371   -2808.7511    78.769984 
   55800    2271.5388   -107.35219     2.055336   -105.29686    24019.286    4.2567137    4.2567137    4.2567137    24019.286     21859.96    44783.406    5414.4925    30738.259   -1064.1709   -18487.147    77.129997 
   55900    1062.2982   -106.28735   0.96118978   -105.32616    -6191.252     4.247012     4.247012     4.247012    -6191.252   -61371.364   -19083.144    61880.752   -82292.586   -9516.4255    6765.6691    76.603828 
   56000    1638.8449   -106.82352    1.4828613   -105.34066    5146.0524    4.2609619    4.2609619    4.2609619    5146.0524   -13075.841    20194.844    8319.1548   -4175.0162    9177.8293     8031.562    77.361157 
   56100    1662.6908   -106.85132    1.5044375   -105.34688   -8676.1944    4.2680931    4.2680931    4.2680931   -8676.1944   -47662.286    28031.973   -6398.2692   -28566.157   -11274.754    -3742.872    77.750226 
   56200    790.00587   -106.08143   0.71481392   -105.36662   -24564.713     4.264622     4.264622     4.264622   -24564.713   -91634.389   -10567.493    28507.744   -63169.954   -19230.445   -212.76544    77.560685 
   56300     2332.138   -107.45418    2.1101675   -105.34401    18493.952     4.247973     4.247973     4.247973    18493.952    27185.019    23582.751    4714.0864    36741.663    15821.449     18818.39    76.655837 
   56400      1242.63   -106.49307    1.1243578   -105.36871    7516.4312    4.2485139    4.2485139    4.2485139    7516.4312   -34570.085    11254.402    45864.976   -80337.074   -16915.022   -4147.1627    76.685126 
   56500    1568.2447   -106.78482    1.4189808   -105.36584   -17099.479    4.2689442    4.2689442    4.2689442   -17099.479   -33831.672   -195.09858   -17271.667   -4460.9621   -14016.069    8018.5244    77.796745 
   56600    1971.3163   -107.13622    1.7836884   -105.35254   -8371.8974    4.2623987    4.2623987    4.2623987   -8371.8974   -549.49206   -20353.176   -4213.0242   -1573.5426    12421.455     18046.65    77.439439 
   56700    867.31609   -106.14699   0.78476583   -105.36223    17673.155    4.2469811    4.2469811    4.2469811    17673.155   -34757.017    45277.006    42499.476   -70107.075   -19992.871   -2266.8222    76.602152 
   56800    2002.4628   -107.16166    1.8118704   -105.34979    5778.7604    4.2594455    4.2594455    4.2594455    5778.7604    24218.003    14816.357   -21698.078     28801.34   -4375.0838    9493.2786    77.278589 
   56900    1260.9636   -106.49775    1.1409463   -105.35681   -9822.0377    4.2619021    4.2619021    4.2619021   -9822.0377   -19485.324   -25548.201    15567.412   -53077.657    7615.1343    6618.7296     77.41238 
   57000    1344.7315   -106.57321    1.2167413   -105.35646    2745.9996    4.2552888    4.2552888    4.2552888    2745.9996   -9323.4129    28422.784   -10861.373   -17002.934   -32500.063    -5722.218    77.052567 
   57100    1757.7354    -106.9424     1.590436   -105.35197   -4848.3922    4.2569439    4.2569439    4.2569439   -4848.3922    -17553.07    39183.248   -36175.355   -4641.0056    11986.551    9603.5847    77.142515 
   57200     1072.261   -106.33853   0.97020426   -105.36832   -9355.4257    4.2561102    4.2561102    4.2561102   -9355.4257   -21369.183   -31037.447    24340.353   -64183.384    2215.5059    5098.8675    77.097199 
   57300    2180.5809   -107.31508    1.9730355   -105.34204    5530.1093    4.2647359    4.2647359    4.2647359    5530.1093    25302.699    14848.023   -23560.394    24221.415   -17825.203     6359.976    77.566899 
   57400    1071.9288   -106.33569   0.96990368   -105.36579   -14758.866    4.2607899    4.2607899    4.2607899   -14758.866   -25760.837   -34261.652     15745.89   -73567.009    19353.058   -4333.5715    77.351787 
   57500    1213.2773   -106.45651    1.0977988   -105.35871    17943.376    4.2502033    4.2502033    4.2502033    17943.376    26763.303   -20651.031    47717.854   -13091.308   -1770.7583    3813.6145    76.776644 
   57600    2043.7709   -107.19301    1.8492468   -105.34376    -3793.664    4.2653259    4.2653259    4.2653259    -3793.664   -5497.9161   -4870.6518    -1012.424    2237.4806    3152.8031     10671.71    77.599096 
   57700     930.5818   -106.20046   0.84200997   -105.35845   -24228.553    4.2692297    4.2692297    4.2692297   -24228.553    -58120.62   -16957.508    2392.4704   -82458.924    11427.584    -11789.33    77.812358 
   57800    2092.2708   -107.22819    1.8931306   -105.33506    10376.557    4.2546506    4.2546506    4.2546506    10376.557    10471.397    27620.238   -6961.9644    22809.502    10453.243    14655.509    77.017903 
   57900     1283.012   -106.51498    1.1608962   -105.35408   -2167.1649    4.2530498    4.2530498    4.2530498   -2167.1649   -45235.938   -3648.7537    42383.197   -63784.365   -9074.1164   -3478.9834    76.931003 
   58000     1491.755   -106.70181    1.3497713   -105.35203   -13655.862    4.2628292    4.2628292    4.2628292   -13655.862    -43030.88    10832.001    -8768.706   -16513.728     16428.52   -4968.9625    77.462907 
   58100    1557.1269   -106.75343    1.4089211   -105.34451    518.02532    4.2603965    4.2603965    4.2603965    518.02532    9400.5027    6554.9808   -14401.407   -11650.367    28129.459    23233.894    77.330365 
   58200    1389.7462    -106.6125    1.2574716   -105.35503   -12748.157    4.2591345    4.2591345    4.2591345   -12748.157   -41246.086   -27193.835    30195.449    -65522.51   -21798.161   -1155.7656    77.261666 
   58300    1734.1395   -106.90707    1.5690858   -105.33798    570.39342    4.2670679    4.2670679    4.2670679    570.39342   -6593.2808     41249.02   -32944.559    31620.432    30589.575    6310.8588    77.694209 
   58400    1240.5664   -106.47435    1.1224905   -105.35186   -26792.326    4.2594867    4.2594867    4.2594867   -26792.326   -43530.275   -50740.665    13893.962   -65740.849    27921.432     4008.198    77.280834 
   58500    1502.3692   -106.71211    1.3593752   -105.35274    21606.124    4.2472201    4.2472201    4.2472201    21606.124    2714.0014    12739.568    49364.802   -13756.358   -39837.083     1253.788    76.615089 
   58600     1744.749   -106.93574    1.5786855   -105.35705   -5635.3316    4.2524091    4.2524091    4.2524091   -5635.3316    -18081.49     14264.79   -13089.295   -2551.5504    11826.999    11862.771    76.896242 
   58700    1167.9655   -106.42448    1.0567998   -105.36768   -1666.9593    4.2648869    4.2648869    4.2648869   -1666.9593   -13931.488   -32942.474    41873.084   -55704.058    24625.452   -6329.1687    77.575135 
   58800    1810.0796   -106.98741     1.637798   -105.34961   -12235.881    4.2666962    4.2666962    4.2666962   -12235.881   -35364.165    11729.675   -13073.152    17996.736   -54408.563    5755.5732    77.673908 
   58900    1459.3442   -106.66762    1.3204453   -105.34718   -113.64232    4.2594609    4.2594609    4.2594609   -113.64232   -576.53108    5857.0517   -5621.4476    -32426.44     28842.69   -6333.7939     77.27943 
   59000     1370.063   -106.58788    1.2396618   -105.34822    899.79877     4.253257     4.253257     4.253257    899.79877   -23240.434    7854.8518    18084.978   -21044.479     8502.389   -5497.6209    76.942252 
   59100    1692.8088   -106.87909     1.531689    -105.3474    18616.644    4.2507724    4.2507724    4.2507724    18616.644   -534.77409    32974.839    23409.867    9760.0401   -49554.706    11839.658    76.807487 
   59200    1465.0447   -106.68713    1.3256032   -105.36153    10780.468    4.2608639    4.2608639    4.2608639    10780.468    1462.7277    9954.7796    20923.897   -39567.671    46097.883   -5367.2953    77.355817 
   59300    1436.8084   -106.65639    1.3000544   -105.35633   -7060.1627    4.2671443    4.2671443    4.2671443   -7060.1627   -36627.947    31583.375   -16135.916     4380.015   -16703.965   -2388.5334    77.698386 
   59400     1546.215   -106.74167    1.3990478   -105.34262    27801.076    4.2550756    4.2550756    4.2550756    27801.076   -3514.8379    32904.608     54013.46   -14334.519   -17936.687    9778.2827    77.040985 
   59500    1360.9886   -106.58156    1.2314511   -105.35011   -1639.2685    4.2575982    4.2575982    4.2575982   -1639.2685   -33563.203    18459.294    10186.104   -36991.701    36816.464    1252.8134     77.17809 
   59600    1516.3523   -106.71353    1.3720274    -105.3415   -2320.4479    4.2619831    4.2619831    4.2619831   -2320.4479   -7023.1874    8204.2417    -8142.398    27295.111   -31554.295    3278.0357    77.416793 
   59700    1439.5267   -106.65141     1.302514    -105.3489    5305.4923    4.2516374    4.2516374    4.2516374    5305.4923   -233.92118    16277.602   -127.20426   -34367.038    11047.691    7164.1522    76.854388 
   59800    1426.5167   -106.64814    1.2907423    -105.3574     3723.836      4.25464      4.25464      4.25464     3723.836   -11974.532   -384.36279    23530.403    895.01556    13483.821     4646.258    77.017327 
   59900    1551.4676   -106.76348    1.4038005   -105.35968   -2518.7976    4.2557216    4.2557216    4.2557216   -2518.7976   -17963.291   -452.16356    10859.062    34189.997   -25360.394      824.454    77.076083 
   60000    1472.1118   -106.69117    1.3319977   -105.35917    14184.452    4.2568652    4.2568652    4.2568652    14184.452    5282.7414    32120.629    5149.9864   -38003.091    27321.466    17753.575    77.138237 
   60100    1361.5564   -106.58233    1.2319649   -105.35037   -15986.146    4.2730807    4.2730807    4.2730807   -15986.146   -59345.038   -28518.708    39905.307    48784.976   -3513.0815   -3310.0447    78.023113 
   60200    1655.4392   -106.82869    1.4978762   -105.33081   -25948.924    4.2718036    4.2718036    4.2718036   -25948.924   -40647.713    -14991.78   -22207.279    1712.4371   -13149.386    15594.729    77.953179 
   60300    1292.9597    -106.4981    1.1698971    -105.3282   -11070.216    4.2555265    4.2555265    4.2555265   -11070.216   -13196.898   -33160.906    13147.157    2143.1017    11050.744    24236.553    77.065484 
   60400    1330.7585   -106.55409    1.2040983      -105.35    2958.0888    4.2512348    4.2512348    4.2512348    2958.0888   -61424.887   -29173.495    99472.649    61764.932    900.96475   -7839.1071    76.832553 
   60500    2369.9714   -107.48593    2.1443999   -105.34153    11392.673    4.2586159    4.2586159    4.2586159    11392.673   -2705.0034    19869.203    17013.821   -14592.734   -4788.4793    21223.062    77.233447 
   60600    574.69264   -105.89214   0.51999397   -105.37215   -2857.2179    4.2723816    4.2723816    4.2723816   -2857.2179    -50808.41   -30763.636    73000.392     65926.64    9455.0375    21201.105    77.984828 
   60700    2211.4288   -107.33617    2.0009472   -105.33523    -2390.409    4.2769376    4.2769376    4.2769376    -2390.409   -38839.002    964.13243    30703.643   -28736.453    2802.1718   -5790.1302    78.234578 
   60800    1198.7503   -106.43202    1.0846545   -105.34736    20100.693    4.2489714    4.2489714    4.2489714    20100.693   -24795.663    7352.4885    77745.253    60570.652   -13000.443    4761.9525    76.709899 
   60900    1499.0127   -106.70327    1.3563382   -105.34693    15375.288    4.2426493    4.2426493    4.2426493    15375.288     -5799.54   -5337.7032    57263.106    35385.045    24123.614    18865.268    76.367998 
   61000    2093.5102   -107.23022    1.8942521   -105.33597   -13273.972    4.2698533    4.2698533    4.2698533   -13273.972   -45119.382   -3637.5054    8934.9713    17045.706   -2111.8023    428.95328    77.846459 
   61100    949.82463   -106.20118   0.85942129   -105.34175   -13555.989    4.2776278    4.2776278    4.2776278   -13555.989   -64681.755   -36177.854    60191.642    66654.427   -17524.795    8211.3003     78.27246 
   61200    2106.4259   -107.22118    1.9059384   -105.31524    9233.8258    4.2673816    4.2673816    4.2673816    9233.8258   -8092.3661    15705.049    20088.794   -18233.605    15402.981    22587.898     77.71135 
   61300    1063.8126   -106.30353   0.96255999   -105.34097    -22002.12    4.2530375    4.2530375    4.2530375    -22002.12   -74310.172   -35427.295    43731.106    82636.439   -10253.185   -1930.2099    76.930336 
   61400     1514.175   -106.71551    1.3700573   -105.34546    14133.005    4.2442998    4.2442998    4.2442998    14133.005   -15038.512    33292.931    24144.595   -4008.9932   -18109.233    5699.1799    76.457161 
   61500    1719.0685     -106.908    1.5554493   -105.35255    3714.8505     4.260109     4.260109     4.260109    3714.8505   -28626.612   -21132.592    60903.755    40104.993    10484.894    13614.239    77.314711 
   61600    1271.9235   -106.50172    1.1508631   -105.35086   -17565.778    4.2723174    4.2723174    4.2723174   -17565.778   -67527.893    -29961.66     44792.22    43165.113   -15984.914   -5907.5208     77.98131 
   61700    1709.4519   -106.87755     1.546748    -105.3308     8640.698    4.2651592    4.2651592    4.2651592     8640.698   -23360.058    41612.898    7669.2541   -21082.036   -19530.843    363.81396    77.589998 
   61800    1011.9063   -106.25664   0.91559409   -105.34104    16096.276    4.2532485    4.2532485    4.2532485    16096.276   -21113.662   -23189.925    92592.415     72504.08     17062.26    8473.7128    76.941789 
   61900    1917.2286   -107.06057    1.7347487   -105.32582    37795.215    4.2538606    4.2538606    4.2538606    37795.215    29330.727    43899.365    40155.554   -23959.258    -38180.48    19446.658    76.975014 
   62000    1042.0059   -106.28826   0.94282881   -105.34543   -2655.7474    4.2740144    4.2740144    4.2740144   -2655.7474   -30018.525   -19583.017      41634.3    61264.592    6108.9975   -3358.4682    78.074269 
   62100    1634.4815   -106.80891    1.4789132   -105.32999   -13808.344    4.2717162    4.2717162    4.2717162   -13808.344   -17391.873   -32417.802    8384.6418    20090.519    6675.9201    8229.1854    77.948394 
   62200    1595.4073   -106.76738    1.4435581   -105.32382    10655.795    4.2470063    4.2470063    4.2470063    10655.795    -10967.67     20014.36    22920.695    15176.109   -28058.667    22944.145    76.603516 
   62300    1336.9615   -106.55142    1.2097108   -105.34171    4214.8747    4.2515632    4.2515632    4.2515632    4214.8747   -15096.632   -18220.074    45961.329    58131.459    16060.245   -13170.504    76.850363 
   62400    2022.6073   -107.15764    1.8300976   -105.32754    -22697.28    4.2732231    4.2732231    4.2732231    -22697.28     740.7254   -21226.424   -47606.143   -14072.135   -11596.469    22359.688    78.030918 
   62500    921.84716   -106.17184   0.83410668   -105.33773   -25183.397     4.273562     4.273562     4.273562   -25183.397   -25917.392   -44859.767    -4773.031    72848.554   -17315.815    16217.663    78.049483 
   62600    2465.2442   -107.54732    2.2306047   -105.31671   -3419.1521    4.2647344    4.2647344    4.2647344   -3419.1521    7688.6467   -17859.612   -86.490961   -4841.1206    10466.218   -10234.755    77.566818 
   62700    1198.6501   -106.43523    1.0845638   -105.35067   -6739.3845    4.2483198    4.2483198    4.2483198   -6739.3845    7255.1735    -19085.48    -8387.847    40484.593   -14300.302    30774.093    76.674615 
   62800    917.06051   -106.19951   0.82977562   -105.36974    16755.403    4.2414694    4.2414694    4.2414694    16755.403    7018.5495    28434.184    14813.476    52521.568   -18561.854    10494.119      76.3043 
   62900    2369.7228    -107.4906     2.144175   -105.34643   -1454.5407    4.2695494    4.2695494    4.2695494   -1454.5407   -2562.5632    2726.3791   -4527.4378   -8717.0043    1903.4607   -8877.3383     77.82984 
   63000    642.61115    -105.9354   0.58144807   -105.35396   -30603.082    4.2789253    4.2789253    4.2789253   -30603.082   -45616.604   -48472.796    2280.1537    84460.511   -16748.474    23206.851    78.343704 
   63100    2424.8722   -107.49919    2.1940753   -105.30511    11885.154    4.2671614    4.2671614    4.2671614    11885.154   -6898.8798    44628.414   -2074.0717   -21026.324    3360.0366    4052.2576    77.699319 
   63200    1220.7147   -106.43687    1.1045283   -105.33234   -17884.837    4.2594911    4.2594911    4.2594911   -17884.837   -53988.831   -21540.099     21874.42     68198.73    2719.1657   -999.00775    77.281075 
   63300     1004.633    -106.2593   0.90901304   -105.35028   -3500.7881    4.2462937    4.2462937    4.2462937   -3500.7881   -15764.897   -8625.0067    13887.539    40586.477   -29595.819    26000.277    76.564967 
   63400    2041.8562   -107.19651    1.8475144   -105.34899    27963.836    4.2479071    4.2479071    4.2479071    27963.836    59369.749    10837.417    13684.341   -21267.811   -3324.8161    5702.7328    76.652275 
   63500    971.31346   -106.25163   0.87886483   -105.37277   -6788.0056    4.2646539    4.2646539    4.2646539   -6788.0056   -6080.3572   -21316.316    7032.6561    54274.481    3319.5508    2766.8572    77.562424 
   63600    1727.8821     -106.911     1.563424   -105.34758    2541.1148    4.2674383    4.2674383    4.2674383    2541.1148    64485.423   -15081.157   -41780.922   -8359.1054   -13228.881    19409.872    77.714447 
   63700    1248.2303   -106.46887     1.129425   -105.33944   -4965.0723    4.2598783    4.2598783    4.2598783   -4965.0723    186.48542   -63652.878    48571.176    21048.436    7459.8055   -11562.737    77.302148 
   63800    1112.9936   -106.34976      1.00706    -105.3427   -11019.567     4.257667     4.257667     4.257667   -11019.567   -2036.4115   -42929.461    11907.172    36118.524    81.201895      19698.7     77.18183 
   63900    2474.7508   -107.56688    2.2392065   -105.32767    16697.454     4.253733     4.253733     4.253733    16697.454     63550.19   -10102.208   -3355.6212   -12234.832    10088.031    7111.7927    76.968083 
   64000    663.09769   -105.97402   0.59998473   -105.37403   -25141.573    4.2546498    4.2546498    4.2546498   -25141.573   -65300.089   -94434.478    84309.847     56256.62    1726.7464   -13213.434    77.017859 
   64100    2089.8876   -107.24593    1.8909742   -105.35496      13197.7    4.2580617    4.2580617    4.2580617      13197.7    36926.684   -14916.317    17582.732   -18436.922    2386.1838    7530.7992    77.203298 
   64200    1407.5419   -106.63135    1.2735734   -105.35778   -16159.721    4.2677309    4.2677309    4.2677309   -16159.721    30548.777   -44827.422   -34200.518    31538.474   -14822.654       -14544    77.730434 
   64300    721.42801   -106.02204   0.65276322   -105.36928    -7518.355    4.2491738    4.2491738    4.2491738    -7518.355    17048.434   -71986.574    32383.074    22897.382   -2632.6698   -10078.518    76.720867 
   64400    2039.0446   -107.19798    1.8449704   -105.35301    24168.702    4.2427277    4.2427277    4.2427277    24168.702    68152.015    1519.2823    2834.8103   -31993.165     8272.663    7216.4154    76.372231 
   64500    1030.6141   -106.30749    0.9325213   -105.37497   -29160.575    4.2642212    4.2642212    4.2642212   -29160.575   -11751.738   -57074.267    -18655.72    49793.642   -21596.183   -5740.5569    77.538818 
   64600    1686.5549   -106.88084    1.5260303    -105.3548   -13778.212     4.267577     4.267577     4.267577   -13778.212   -9163.5063   -52762.122    20590.994    29378.588    5734.7875   -12020.385    77.722024 
   64700      1868.81   -107.03194    1.6909386     -105.341   -12351.366    4.2667508    4.2667508    4.2667508   -12351.366   -2557.5191   -23337.123   -11159.456   -19771.653   -17006.584    12365.615     77.67689 
   64800    931.41219   -106.19627   0.84276132   -105.35351   -24088.276    4.2645868    4.2645868    4.2645868   -24088.276   -48328.947   -74730.348    50794.467    72820.682   -19718.734   -8586.7736    77.558763 
   64900    2371.6354   -107.47213    2.1459056   -105.32622    12503.306    4.2582623    4.2582623    4.2582623    12503.306     13669.09      4257.03    19583.797   -12050.854    3517.5065   -5005.3772    77.214207 
   65000    1109.6645   -106.35015    1.0040478    -105.3461   -35945.656    4.2659908    4.2659908    4.2659908   -35945.656   -43789.163   -29545.299   -34502.506    43662.791   -25421.148    30552.296    77.635392 
   65100    1014.6493   -106.28132   0.91807603   -105.36325   -13684.914    4.2580998    4.2580998    4.2580998   -13684.914    -3826.918   -34599.311   -2628.5122    47417.954   -14246.218   -11466.946    77.205371 
   65200    2214.8394   -107.35514    2.0040332   -105.35111    21448.053    4.2476677    4.2476677    4.2476677    21448.053    29165.708    25803.332    9375.1197   -42281.927    6955.1147   -3316.9355    76.639316 
   65300    1207.6578   -106.47416    1.0927142   -105.38145   -11238.596    4.2509207    4.2509207    4.2509207   -11238.596   -21250.221   -27328.401    14862.836    67857.194   -17777.547    17481.077    76.815529 
   65400    1435.4939   -106.68033    1.2988651   -105.38147    4768.9307    4.2517367    4.2517367    4.2517367    4768.9307    28206.201    -23985.51    10086.102    16487.035   -9193.5949   -1749.1742     76.85977 
   65500    1769.1865   -106.97462    1.6007971   -105.37383    11975.528    4.2549205    4.2549205    4.2549205    11975.528    15169.202   -2665.4832    23422.866   -39937.228   -418.73688   -14670.429    77.032562 
   65600    1160.3844   -106.42626    1.0499402   -105.37632    385.24383     4.260562     4.260562     4.260562    385.24383    9531.4427    -35680.26    27304.549    69336.064   -19977.149    4137.2846    77.339376 
   65700    1894.3826   -107.07031    1.7140772   -105.35623   -3013.8214    4.2595609    4.2595609    4.2595609   -3013.8214    23370.496   -22786.303   -9625.6569   -6745.9286   -9831.4921    22050.497    77.284875 
   65800    1813.1354   -106.99643     1.640563   -105.35587    1391.5794    4.2542481    4.2542481    4.2542481    1391.5794    11296.168   -2991.5299   -4129.9002   -9816.7348    810.31961   -29480.244    76.996047 
   65900    1168.1789   -106.42579    1.0569928    -105.3688   -2822.2729    4.2508836    4.2508836    4.2508836   -2822.2729    20448.407   -40084.835    11169.609    50172.917   -7973.8496    7284.0446    76.813513 
   66000    1619.4591   -106.83363    1.4653206   -105.36831     5944.007    4.2533925    4.2533925    4.2533925     5944.007    46908.537   -14814.196   -14262.321     332.4548   -3076.9889     50580.18      76.9496 
   66100    1917.3944   -107.09501    1.7348988   -105.36011   -4460.5477      4.26912      4.26912      4.26912   -4460.5477    13869.607   -34360.093    7108.8436    5109.7314    3581.9258   -43268.789     77.80636 
   66200    577.01723   -105.88746   0.52209732   -105.36536   -29933.478     4.278108     4.278108     4.278108   -29933.478    32549.062   -104672.46   -17677.033    37541.705   -5864.7923    62798.014    78.298822 
   66300     2199.206   -107.33403    1.9898878   -105.34415    4361.6051    4.2611271    4.2611271    4.2611271    4361.6051    15198.081   -18886.076     16772.81   -6502.3253     1566.621    266.70911    77.370154 
   66400    1949.9974   -107.12114    1.7643986   -105.35674    21991.224    4.2387649    4.2387649    4.2387649    21991.224    59583.673   -10417.669    16807.667    6963.8252    6468.4349    25056.557    76.158429 
   66500    1019.7967   -106.30971   0.92273345   -105.38698   -7263.6515    4.2417931    4.2417931    4.2417931   -7263.6515    26291.499   -48055.558   -26.895177    39628.215   -801.79588    53642.019     76.32177 
   66600    1540.5085   -106.78458    1.3938845   -105.39069   -12458.165    4.2579356    4.2579356    4.2579356   -12458.165   -27851.938   -29718.192    20195.634    -15513.13   -13597.186   -30533.917    77.196441 
   66700    1741.1246   -106.94918    1.5754061   -105.37378   -13690.636    4.2718241    4.2718241    4.2718241   -13690.636    21739.114   -37351.198   -25459.824    -10087.54    3074.1604    17697.779    77.954303 
   66800    1249.3047   -106.49221    1.1303972   -105.36181   -19035.204    4.2691391    4.2691391    4.2691391   -19035.204   -38726.061   -43065.625    24686.075    49029.856    7600.1547    17862.949      77.8074 
   66900    1582.6178   -106.77917    1.4319858   -105.34718    1362.7288    4.2508668    4.2508668    4.2508668    1362.7288   -4847.9006   -21634.649    30570.736   -22958.989   -4763.0479   -29534.142    76.812605 
   67000    1747.5844   -106.93251    1.5812511   -105.35126    12274.153    4.2421997    4.2421997    4.2421997    12274.153    21389.028   -228.93743    15662.369     696.6362    11737.897   -2493.4671    76.343724 
   67100    1266.9841   -106.52481    1.1463939   -105.37841   -363.37177    4.2475526    4.2475526    4.2475526   -363.37177   -43707.228   -12306.114    54923.227    65083.211    10204.304    21749.228    76.633082 
   67200    1363.8132   -106.61858    1.2340068   -105.38458   -6850.7134    4.2589944    4.2589944    4.2589944   -6850.7134   -7118.0627   -36189.255    22755.178   -15658.475   -5742.3772   -30432.293    77.254042 
   67300    1752.6604   -106.96179     1.585844   -105.37595   -2523.7365    4.2639946    4.2639946    4.2639946   -2523.7365    -20565.87   -13692.474    26687.135   -4596.5198    17837.341   -17247.394    77.526459 
   67400    1718.4316   -106.92478     1.554873    -105.3699    10656.691    4.2550236    4.2550236    4.2550236    10656.691   -34707.683   -2694.9144    69372.671    31047.894    5067.3778    5646.5184    77.038164 
   67500    915.25676   -106.20546   0.82814355   -105.37732   -854.32648    4.2458028    4.2458028    4.2458028   -854.32648    58155.582    -58827.55   -1891.0121   -12168.546    -16763.57   -47611.811    76.538415 
   67600    1756.8939   -106.97052    1.5896746   -105.38084    12772.714    4.2483083    4.2483083    4.2483083    12772.714    36962.101   -35001.852    36357.892   -8967.6425    5193.8228    36507.101    76.673993 
   67700    2371.3566   -107.52213    2.1456533   -105.37648      13724.2    4.2526896    4.2526896    4.2526896      13724.2    16111.291    -5053.782    30115.092    9280.4198   -4216.4496   -13936.321    76.911462 
   67800     902.2089   -106.21843   0.81633757    -105.4021   -7293.9518    4.2520478    4.2520478    4.2520478   -7293.9518    64400.463   -64799.601   -21482.718   -6512.9865   -5667.5237   -21114.048    76.876645 
   67900    925.27794    -106.2363   0.83721092   -105.39909   -3020.7873    4.2514165    4.2514165    4.2514165   -3020.7873    45841.192   -40051.923   -14851.631   -10753.837    10078.794    55993.276    76.842406 
   68000    2022.3352    -107.2057    1.8298514   -105.37585     2116.123    4.2564924    4.2564924    4.2564924     2116.123   -30590.377   -2144.5814    39083.327    19514.462    16686.886   -17279.271    77.117967 
   68100    1622.0739   -106.84642    1.4676865   -105.37874   -3425.6853    4.2513554    4.2513554    4.2513554   -3425.6853    25340.581   -49191.584    13573.947   -8011.6006   -11028.336    35945.594    76.839096 
   68200     1109.435   -106.38621    1.0038401   -105.38237    1139.5718    4.2486011    4.2486011    4.2486011    1139.5718    32624.397   -28375.017   -830.66492   -66.993575    7290.3673    22706.797    76.689846 
   68300    1631.7236   -106.84928    1.4764178   -105.37286    121.04087    4.2629873    4.2629873    4.2629873    121.04087    3021.5488   -13247.295    10588.869    28396.458    18622.979   -18103.922    77.471526 
   68400    1887.0854   -107.06252    1.7074745   -105.35504   -13044.489    4.2630898    4.2630898    4.2630898   -13044.489    13016.063   -47838.518   -4311.0132   -14414.636   -4344.6879    37245.514    77.477113 
   68500    919.75714   -106.19688   0.83221559   -105.36466   -15442.712    4.2573732    4.2573732    4.2573732   -15442.712   -27272.224   -17541.934   -1513.9766   -8356.2262    4326.1983    6990.4555    77.165853 
   68600     1616.647   -106.83347    1.4627762    -105.3707   -17884.651    4.2542042    4.2542042    4.2542042   -17884.651    5962.9855   -33123.972   -26492.966    18363.393    16541.469   -47656.326    76.993663 
   68700    2005.6939   -107.18532     1.814794   -105.37053    18529.774    4.2341148    4.2341148    4.2341148    18529.774     31669.59   -21314.579     45234.31   -24868.993    -5813.931   -10702.143     75.90806 
   68800    1332.9474   -106.60003    1.2060788   -105.39395   -10013.574    4.2468241    4.2468241    4.2468241   -10013.574   -19832.267    -29744.92    19536.465   -14327.913    2643.6461    3856.0974    76.593659 
   68900    862.15241   -106.16029   0.78009362   -105.38019   -42867.987    4.2734122    4.2734122    4.2734122   -42867.987    31070.583   -92099.914   -67574.629    23054.786    16876.214    -56624.19    78.041276 
   69000    2145.0942    -107.2875    1.9409263   -105.34658    9307.6174    4.2592551    4.2592551    4.2592551    9307.6174    21511.874   -13907.103    20318.081   -30351.666   -14501.515    31412.185    77.268228 
   69100    1455.8675   -106.66436    1.3172995   -105.34706   -1603.9237    4.2525044    4.2525044    4.2525044   -1603.9237    10402.002   -35459.519    20245.746    15131.997    4840.1678    -59697.38    76.901412 
   69200    1263.4562   -106.49537    1.1432017   -105.35217   -19292.362     4.255698     4.255698     4.255698   -19292.362    24473.394   -55035.473   -27315.009    8150.3095    5517.0277    4105.2913    77.074801 
   69300    1983.3452   -107.14721    1.7945724   -105.35264    16191.788    4.2487292    4.2487292    4.2487292    16191.788    32954.961     12941.76    2678.6415   -5038.1441   -10532.411    41178.659    76.696784 
   69400    1683.9658   -106.89655    1.5236876   -105.37287    -3068.922    4.2508515    4.2508515    4.2508515    -3068.922      9438.46   -33459.962    14814.736    16331.109   -7024.2067    -41659.17    76.811774 
   69500    990.50087   -106.28816     0.896226   -105.39193    -16303.52    4.2494127    4.2494127    4.2494127    -16303.52    29889.464   -61949.543    -16850.48    18045.741     13572.31      44647.3    76.733804 
   69600    1489.0523   -106.73561    1.3473258   -105.38829    8076.9998    4.2492821    4.2492821    4.2492821    8076.9998   -19651.413    12491.414    31390.999   -5793.3948    -33126.35    12365.728    76.726731 
   69700    1899.9573   -107.09192    1.7191213    -105.3728   -5299.7377    4.2582682    4.2582682    4.2582682   -5299.7377   -34904.163   -21226.455    40231.405    5764.7674    -21849.83       1051.4     77.21453 
   69800    1345.2418   -106.59532    1.2172031   -105.37811    -12146.95      4.25378      4.25378      4.25378    -12146.95    14978.259   -61366.366    9947.2574    15746.128    8877.6482    65848.958    76.970638 
   69900    1256.6477   -106.50987    1.1370412   -105.37283   -622.99293    4.2462007    4.2462007    4.2462007   -622.99293   -27853.641    33506.905   -7522.2433    -10983.25    -34445.19   -11259.811    76.559935 
   70000    1554.9454   -106.77647    1.4069473   -105.36952   -11002.766    4.2559665    4.2559665    4.2559665   -11002.766   -28594.252    -23711.97    19297.924    12578.499    2263.5955    5941.5936     77.08939 
   70100    1738.9461   -106.93618    1.5734349   -105.36274   -18562.111    4.2641587    4.2641587    4.2641587   -18562.111   -13006.744    -55446.93     12767.34    26873.604   -4275.7498    40439.046     77.53541 
   70200     1600.268   -106.81183    1.4479561   -105.36387   -7718.9166    4.2530321    4.2530321    4.2530321   -7718.9166   -30319.809    43306.501   -36143.442   -13035.945   -43419.467   -8519.9242    76.930044 
   70300    1351.4669   -106.59365    1.2228357   -105.37081   -7099.6418     4.246587     4.246587     4.246587   -7099.6418    -42669.93    7433.4129    13937.591    18831.841    29124.208    2899.4621    76.580832 
   70400    1387.7628   -106.63309    1.2556769   -105.37741   -23602.663    4.2506714    4.2506714    4.2506714   -23602.663   -55642.513   -36970.578    21805.104    18916.995   -13027.135    17623.086    76.802013 
   70500    1699.9472   -106.91076     1.538148   -105.37261   -14220.152    4.2554132    4.2554132    4.2554132   -14220.152   -54351.122    28494.958   -16804.294   -17563.076   -25082.736    2655.5327    77.059326 
   70600    1373.5862   -106.61286    1.2428497   -105.37001   -25833.814    4.2670205    4.2670205    4.2670205   -25833.814   -79514.411    6787.6057   -4774.6375    20530.786    63700.118    7830.5648    77.691622 
   70700    1893.9498    -107.0607    1.7136856   -105.34701   -18045.512    4.2644298    4.2644298    4.2644298   -18045.512   -50610.786    -57541.45      54015.7   -9658.4403   -18312.932    4551.0555    77.550196 
   70800    1007.6232   -106.26584   0.91171863   -105.35412   -14638.782    4.2485581    4.2485581    4.2485581   -14638.782   -85000.108    51108.504   -10024.743   -23535.346    38357.817    7449.6107    76.687518 
   70900     1618.238   -106.81873    1.4642157   -105.35451    1490.2905    4.2439319    4.2439319    4.2439319    1490.2905   -55592.867    53776.709    6287.0292    15871.752      27276.9   -9156.9384    76.437281 
   71000    1615.6301   -106.82202     1.461856   -105.36016    1707.4555    4.2560067    4.2560067    4.2560067    1707.4555   -16529.583   -41955.927    63607.876   -35564.401    4093.3861     68.76698    77.091573 
   71100    968.13447   -106.25123   0.87598842   -105.37524   -28269.365     4.265208     4.265208     4.265208   -28269.365   -68420.591    18050.817   -34438.322   -6345.8995    53853.822    4219.7457    77.592659 
   71200    1995.5791   -107.16864    1.8056419     -105.363   -2607.6733    4.2519579    4.2519579    4.2519579   -2607.6733   -31144.602    10398.765    12922.817    17984.546   -42886.815    -6580.789     76.87177 
   71300    1673.8466   -106.88082    1.5145316   -105.36629    5541.2501     4.241303     4.241303     4.241303    5541.2501      12766.3   -5298.2935    9155.7435   -15990.314    27043.249   -124.79804    76.295319 
   71400    1067.5393   -106.34929   0.96593197   -105.38336   -8188.3016    4.2444851    4.2444851    4.2444851   -8188.3016   -28395.539     37467.31   -33636.676   -12183.339     58082.33    7922.1205    76.467177 
   71500    1964.1245   -107.14808    1.7771811    -105.3709    10026.924    4.2535578    4.2535578    4.2535578    10026.924   -11909.185     28619.53    13370.427    15491.595   -51768.962   -1578.1771    76.958575 
   71600    1052.7309   -106.32917   0.95253304   -105.37663   -22389.125    4.2670862    4.2670862    4.2670862   -22389.125   -32558.355    33870.156   -68479.175    10450.781    67728.124   -2018.1572    77.695211 
   71700     1901.091   -107.07144    1.7201471   -105.35129    -15357.75    4.2630141    4.2630141    4.2630141    -15357.75   -13091.966    -9688.041   -23293.242   -22953.848    18353.317    8591.9406     77.47299 
   71800    1572.3831   -106.75973    1.4227253   -105.33701    15545.011    4.2530043    4.2530043    4.2530043    15545.011    -16886.82    34832.789    28689.064    15312.035    18415.159   -12443.116    76.928536 
   71900    917.55138    -106.1764   0.83021977   -105.34618   -7250.1667    4.2596868    4.2596868    4.2596868   -7250.1667   -43221.523     30054.73   -8583.7071   -47.312044    65385.054    1692.8848    77.291726 
   72000    1847.5262   -107.00669    1.6716806   -105.33501    3302.8366    4.2577128    4.2577128    4.2577128    3302.8366   -2745.0919   -28605.474    41259.076   -28694.881    -14099.91     16609.61    77.184321 
   72100    1186.8921   -106.43039    1.0739249   -105.35647   -3189.8197    4.2505276    4.2505276    4.2505276   -3189.8197   -28473.496    11335.063    7568.9731    43975.871    51187.933   -9705.2355     76.79422 
   72200    1542.0387   -106.76138     1.395269   -105.36612   -5843.8869    4.2501917    4.2501917    4.2501917   -5843.8869   -20952.843    9357.6822   -5936.5001    5541.8474    33607.233    5557.9827    76.776014 
   72300    2113.9421     -107.273    1.9127393   -105.36026    13694.436    4.2527843    4.2527843    4.2527843    13694.436    21052.491   -20873.917    40904.735   -10763.533   -6538.3288    19281.296      76.9166 
   72400    535.04788   -105.87172   0.48412256    -105.3876   -20942.441    4.2624866    4.2624866    4.2624866   -20942.441   -44688.454     9888.507   -28027.376    47302.226    70846.888   -9553.4084    77.444232 
   72500     1989.395   -107.15639    1.8000464   -105.35634    7469.2596    4.2591211    4.2591211    4.2591211    7469.2596    3662.7224    12465.972     6279.084   -5024.8366   -19240.187    2660.5651    77.260937 
   72600     1522.614   -106.73522    1.3776931   -105.35752   -3094.0044    4.2559667    4.2559667    4.2559667   -3094.0044   -1822.2771    6866.4202   -14326.156    6575.7793    35092.364    4109.3243    77.089401 
   72700    801.74528   -106.10047   0.72543598   -105.37503   -29585.715    4.2507938    4.2507938    4.2507938   -29585.715   -56792.666   -12790.036   -19174.441    53810.737    50938.961   -4067.0475    76.808648 
   72800    2410.6621   -107.53374    2.1812177   -105.35252    25669.158     4.238882     4.238882     4.238882    25669.158    44563.569    686.02542     31757.88    -6631.838   -29651.033    4473.8974    76.164744 
   72900     860.2358   -106.16527   0.77835943   -105.38691   -31107.847    4.2617131    4.2617131    4.2617131   -31107.847     -61935.1   -18075.742   -13312.699    9507.9833    64531.768   -1765.2989    77.402078 
   73000    1111.0586     -106.386    1.0053092   -105.38069   -30398.425    4.2665099    4.2665099    4.2665099   -30398.425   -55590.745   -66686.814    31082.284    46990.688    10211.681   -4743.8474    77.663733 
   73100    2340.8399   -107.46946    2.1180412   -105.35141    31424.851    4.2474789    4.2474789    4.2474789    31424.851    63329.295   -635.68639    31580.946   -23871.524   -18912.347    8548.7985    76.629091 
   73200    981.26719   -106.26804   0.88787117   -105.38017    -12289.75    4.2453106    4.2453106    4.2453106    -12289.75   -32121.003    2754.1054   -7502.3514    51979.772    61136.088   -3310.0978    76.511796 
   73300    1583.2631   -106.81413    1.4325698   -105.38156    6302.7744    4.2481127    4.2481127    4.2481127    6302.7744    3797.2865   -27026.932    42137.969     38525.11    9942.8134   -1149.4703    76.663404 
   73400    2137.2802   -107.30657     1.933856   -105.37271    4642.5096    4.2588227    4.2588227    4.2588227    4642.5096   -19528.738    5137.1981    28319.069   -22030.259   -11383.683    5512.0375    77.244696 
   73500    371.01277   -105.72902   0.33570015   -105.39332   -42241.155    4.2650007    4.2650007    4.2650007   -42241.155    -100175.5   -31474.635    4926.6718     85844.74    40771.516   -4606.9072     77.58135 
   73600    1984.3253   -107.17167    1.7954592   -105.37622    3232.6197    4.2473785    4.2473785    4.2473785    3232.6197   -11670.459   -271.98885    21640.307    4342.9839   -3159.0528    11264.936    76.623661 
   73700    1936.6318   -107.12572    1.7523052   -105.37341    26398.957    4.2350429    4.2350429    4.2350429    26398.957    7939.1449     18543.96    52713.765    362.23389    9066.0191   -7678.5592    75.957985 
   73800    874.10771   -106.19158   0.79091103   -105.40067   -8545.7344    4.2496951    4.2496951    4.2496951   -8545.7344   -23085.774   -23509.269     20957.84     81454.83     35523.36   -3846.9798    76.749106 
   73900    2023.8537     -107.201    1.8312254   -105.36978   -2773.9974     4.265788     4.265788     4.265788   -2773.9974    4228.0611   -10543.694   -2006.3595   -34781.307   -5108.2665    6207.8909    77.624321 
   74000    1483.2679   -106.71315     1.342092   -105.37106   -1650.7133     4.258696     4.258696     4.258696   -1650.7133    7586.9731   -20181.364    7642.2511    11299.872    901.31691   -13123.773    77.237802 
   74100    760.81208   -106.06838   0.68839876   -105.37998   -3255.2768    4.2468822    4.2468822    4.2468822   -3255.2768   -25862.873    5715.2574    10381.785    49543.536    45627.916    368.80158    76.596803 
   74200    2317.7935   -107.45406    2.0971882   -105.35687    24389.511    4.2444406    4.2444406    4.2444406    24389.511    67849.488    12104.123   -6785.0758   -16780.881   -8284.6717   -3672.4553     76.46477 
   74300    1301.2544   -106.55823    1.1774023   -105.38083    1795.7537    4.2590973    4.2590973    4.2590973    1795.7537    3246.0748   -9094.6347    11235.821    38833.049    18076.244    -12160.58     77.25964 
   74400    1521.3479   -106.73667    1.3765476   -105.36012   -21725.559    4.2692937    4.2692937    4.2692937   -21725.559    -42963.35    7685.5221    -29898.85    10524.026    31240.734   -2071.1157    77.815858 
   74500    1922.5475   -107.09238    1.7395614   -105.35282    10415.948    4.2478294    4.2478294    4.2478294    10415.948    24082.308    40447.903   -33282.367   -5726.4009   -30116.725   -3806.6543    76.648064 
   74600    893.45271   -106.18218   0.80841479   -105.37376    -2610.244    4.2340363    4.2340363    4.2340363    -2610.244   -14365.631   -850.45621    7385.3555     49542.28     27143.68   -15613.989    75.903837 
   74700    1646.0375   -106.86707    1.4893693    -105.3777   -1104.9059    4.2476528    4.2476528    4.2476528   -1104.9059   -29058.253    40453.947   -14710.412   -4377.1597    30986.451   -1754.0635    76.638508 
   74800    1930.7879   -107.11745    1.7470174   -105.37044    3767.5785      4.26321      4.26321      4.26321    3767.5785    1563.9931   -9917.6366    19656.379    6445.4536   -18135.794    2504.9878    77.483667 
   74900    912.14444   -106.19724   0.82532746   -105.37191   -20653.986    4.2702309    4.2702309    4.2702309   -20653.986   -36131.671    -36885.78    11055.491    58144.709    27190.918   -22204.617    77.867111 
   75000    2199.2677    -107.3372    1.9899436   -105.34725    9650.8838     4.247356     4.247356     4.247356    9650.8838   -12820.398     28970.94    12802.109   -50993.916    8582.8871    8910.3754    76.622445 
   75100    1340.0993   -106.56925      1.21255    -105.3567    17074.017    4.2330173    4.2330173    4.2330173    17074.017    10702.425   -24981.531    65501.156    52466.851   -4492.0749   -6416.1696    75.849047 
   75200    1206.5607   -106.46669    1.0917215   -105.37496     -9591.76    4.2467528    4.2467528    4.2467528     -9591.76   -14833.639   -15110.925    1169.2841     39977.98    21216.049   -25335.874    76.589802 
   75300    1641.2867   -106.85435    1.4850707   -105.36928    356.06604    4.2596918    4.2596918    4.2596918    356.06604   -804.60261    14199.951   -12327.151   -38963.007     6781.406    14651.745    77.291997 
   75400    1418.8276    -106.6539     1.283785   -105.37011   -18192.038    4.2589648    4.2589648    4.2589648   -18192.038   -22715.972   -63969.328    32109.184    56429.475   -7767.1642   -15663.042    77.252429 
   75500    1516.9055   -106.73903     1.372528    -105.3665    -1992.514    4.2442475    4.2442475    4.2442475    -1992.514   -1426.9107    7638.2936   -12188.925    3665.4339    31747.003   -12230.216    76.454333 
   75600    1423.7412   -106.65679     1.288231   -105.36856    4753.1569     4.240812     4.240812     4.240812    4753.1569    6729.2841    6091.5278    1438.6587   -5805.5226    7551.3919    8710.2387    76.268826 
   75700    1609.7008   -106.82886    1.4564912   -105.37237   -5362.2223    4.2541841    4.2541841    4.2541841   -5362.2223   -32395.625   -20421.924    36730.882    46991.398   -21666.584   -2846.4233    76.992574 
   75800    1615.7867   -106.82926    1.4619977   -105.36726    -16286.23    4.2626247    4.2626247    4.2626247    -16286.23    -36906.54    18658.276   -30610.427   -7251.0771    63367.716   -688.46648     77.45176 
   75900    1512.8199   -106.72945    1.3688313   -105.36062    999.90212    4.2571642    4.2571642    4.2571642    999.90212    7924.6527    1311.7906    -6236.737    12348.657   -7771.3823    12327.502    77.154491 
   76000    1050.1583   -106.31467   0.95020526   -105.36446    10385.486    4.2493561    4.2493561    4.2493561    10385.486   -3387.6566    20948.464     13595.65      23188.2    10438.655    24247.076    76.730738 
   76100    1737.6416   -106.93515    1.5722547   -105.36289    2867.4608    4.2564722    4.2564722    4.2564722    2867.4608   -17366.203    34209.658   -8241.0724   -9268.6129    57303.221   -4156.4801    77.116871 
   76200    2067.3029   -107.22222    1.8705391   -105.35168    -12785.06    4.2646241    4.2646241    4.2646241    -12785.06    8330.1895   -45502.492   -1182.8775    8398.7989   -25215.628    13057.565    77.560797 
   76300    816.16015   -106.11613   0.73847885   -105.37765   -5959.6991    4.2468247    4.2468247    4.2468247   -5959.6991   -22916.637    16773.193   -11735.652    19144.497     55585.46    16719.563    76.593691 
   76400    1489.7818   -106.71757    1.3479859   -105.36958    27770.259    4.2393276    4.2393276    4.2393276    27770.259    5207.5408    27004.214    51099.022       -29674    11562.411    1347.2842    76.188766 
   76500    1890.0754   -107.07212      1.71018   -105.36194   -11149.774    4.2615722    4.2615722    4.2615722   -11149.774   -5880.0133   -29732.948    2163.6379   -18334.842    775.45046    11837.586      77.3944 
   76600    1084.3065   -106.35265    0.9811033   -105.37155   -23171.207     4.262516     4.262516     4.262516   -23171.207   -39681.976    6194.6928   -36026.337    18922.958    59330.167    4370.2294    77.445834 
   76700    1752.0237   -106.94061    1.5852678   -105.35534    13069.672    4.2474498    4.2474498    4.2474498    13069.672    9442.3921   -26125.051    55891.676   -30396.414   -19817.693    4953.7542    76.627516 
   76800     1589.718   -106.79553    1.4384103   -105.35712   -14013.986    4.2530619    4.2530619    4.2530619   -14013.986   -45688.095    19579.202   -15933.064   -2328.1856    50952.729   -213.09178    76.931663 
   76900    1622.6555    -106.8264    1.4682128   -105.35818   -13593.386    4.2566524    4.2566524    4.2566524   -13593.386   -22743.115   -8270.9904   -9766.0516    4626.4235    24180.715    5504.2233    77.126665 
   77000    1420.5381    -106.6481    1.2853327   -105.36276   -12719.749    4.2557779    4.2557779    4.2557779   -12719.749   -12010.407   -44652.711    18503.871   -14468.947   -5703.8798   -8201.8808    77.079138 
   77100    1061.3568   -106.33439   0.96033795   -105.37406   -21508.931    4.2566767    4.2566767    4.2566767   -21508.931   -32478.764    13885.357   -45933.385   -1780.5809    72336.414   -5255.4614    77.127988 
   77200    2621.6252   -107.71854    2.3721016   -105.34644    7906.6258    4.2521599    4.2521599    4.2521599    7906.6258     16018.01   -9118.1098    16819.977   -2006.1849   -19661.005    6739.2942    76.882724 
   77300    796.82406   -106.10131   0.72098315   -105.38033   -14824.937    4.2606841    4.2606841    4.2606841   -14824.937   -27560.222    9782.6108   -26697.198   -9899.8877    64740.808    -7816.832    77.346026 
   77400    1257.2693   -106.50789    1.1376037   -105.37029   -24337.361    4.2656374    4.2656374    4.2656374   -24337.361   -35870.908   -20798.163   -16343.011    2055.0097    17216.032    520.64011    77.616096 
   77500    2122.4003   -107.27205    1.9203924   -105.35165    16998.598    4.2476735    4.2476735    4.2476735    16998.598    12414.599    40583.961   -2002.7655    3286.6115   -4328.1932    9022.3659    76.639629 
   77600    1219.8542   -106.47081    1.1037497   -105.36706   -9315.7541    4.2483972    4.2483972    4.2483972   -9315.7541   -44893.819    54589.312   -37642.756   -5119.8628    76007.991   -3200.6048    76.678808 
   77700    1510.7075   -106.72643    1.3669199   -105.35951   -7483.3431     4.252714     4.252714     4.252714   -7483.3431   -28182.305   -25470.851    31203.126   -8259.2182   -21570.329    700.52073    76.912785 
   77800    945.09434   -106.23249   0.85514122   -105.37735    388.66813    4.2502427    4.2502427    4.2502427    388.66813   -26351.469    26057.069    1460.4048    13526.276    36123.096    4755.4015    76.778777 
   77900    1773.7546   -106.97858    1.6049305   -105.37365    -16123.76    4.2632195    4.2632195    4.2632195    -16123.76   -24654.776   -10743.321   -12973.184   -13359.767    22942.519    2038.7613    77.484184 
   78000    1693.3254   -106.90257    1.5321564   -105.37041   -9323.1601    4.2536429    4.2536429    4.2536429   -9323.1601    -35568.73   -52508.946    60108.196   -26262.225   -7165.9476   -9236.7892    76.963192 
   78100    1387.3456   -106.62618    1.2552995   -105.37088    3437.2675     4.236012     4.236012     4.236012    3437.2675    8272.8114    17980.674   -15941.683    24208.668    61662.471    4287.2639    76.010141 
   78200    1842.0574   -107.04138    1.6667323   -105.37464   -3091.6319    4.2486625    4.2486625    4.2486625   -3091.6319    24563.996   -9040.4863   -24798.405   -20415.169   -934.15172   -2136.8327    76.693171 
   78300    1494.3119   -106.73037    1.3520848   -105.37829   -1142.4649    4.2555656    4.2555656    4.2555656   -1142.4649    14072.695   -34565.711    17065.621   -7710.6497     8510.673   -9131.6344    77.067605 
   78400    855.22708   -106.15892   0.77382743   -105.38509   -672.71412    4.2582739    4.2582739    4.2582739   -672.71412   -1443.4623   -6840.1798    6265.4997    34861.117    49758.408    2494.5113    77.214841 
   78500    2073.2801   -107.23249    1.8759474   -105.35654   -3070.0633    4.2610465    4.2610465    4.2610465   -3070.0633    21323.354   -2248.8816   -28284.662   -6190.7093   -46197.628   -2756.6693    77.365765 
   78600    1378.7261   -106.61445    1.2475003   -105.36695   -2915.5087     4.242283     4.242283     4.242283   -2915.5087   -12858.226    34180.734   -30069.034    14504.866    58031.153   -173.79633     76.34822 
   78700    1231.4088   -106.48712    1.1142045   -105.37292    5891.9269     4.241832     4.241832     4.241832    5891.9269   -42282.454     25250.42    34707.815    31753.158    24948.357    2850.7567    76.323872 
   78800    1956.7028   -107.12934    1.7704658   -105.35887   -16182.983     4.258202     4.258202     4.258202   -16182.983   -36574.789    11136.159   -23110.318   -4056.4636   -44920.836   -4234.7171    77.210929 
   78900    917.08813   -106.20745   0.82980061   -105.37765   -11185.308    4.2538249    4.2538249    4.2538249   -11185.308   -60005.881    59503.524   -33053.566      6192.01     70585.15    141.53895    76.973073 
   79000    1592.2185   -106.81572    1.4406728   -105.37505   -1856.3205    4.2526995    4.2526995    4.2526995   -1856.3205    -35461.89   -13470.744    43363.672    41842.605    3168.1721    5169.9995    76.911995 
   79100    2247.1745   -107.39748    2.0332907   -105.36419    9703.3358     4.248571     4.248571     4.248571    9703.3358   -3362.0278    12435.177    20036.858   -8541.1045    5757.7826    3736.6386    76.688218 
   79200    900.87603     -106.201   0.81513157   -105.38587    14994.449    4.2397144    4.2397144    4.2397144    14994.449   -32318.536    48823.207    28478.675    28582.179    52131.545   -6541.5085     76.20962 
   79300    1331.0757   -106.59129    1.2043852   -105.38691   -2576.1891    4.2549127    4.2549127    4.2549127   -2576.1891   -9159.9485   -20301.306    21732.687    30684.707    -19463.28    17410.601    77.032141 
   79400    2001.8249   -107.16075    1.8112933   -105.34946    4.6617136    4.2719864    4.2719864    4.2719864    4.6617136   -6832.3539    4936.1184    1910.2206   -15486.883    8669.6256    8250.4801    77.963187 
   79500    988.30623    -106.2398   0.89424025   -105.34556    -9323.011    4.2728286    4.2728286    4.2728286    -9323.011   -10795.167     -42632.7    25458.833    58282.242     34465.47   -21515.001    78.009309 
   79600    2103.8643     -107.235    1.9036206   -105.33138    448.92142    4.2530752    4.2530752    4.2530752    448.92142    11623.242   -5413.9495   -4862.5281   -4769.5969   -33294.449     18295.31    76.932381 
   79700    1312.3453   -106.53609    1.1874376   -105.34865    17045.279    4.2273908    4.2273908    4.2273908    17045.279    36096.733    -478.7904    15517.894    25689.371   -5861.9591   -643.40618    75.546996 
   79800    882.31426   -106.18776   0.79833649   -105.38943    -4925.307    4.2378155    4.2378155    4.2378155    -4925.307    3616.3495   -44195.099    25802.828    63300.906    36729.834   -26223.645     76.10727 
   79900      2350.46   -107.49646    2.1267456   -105.36971    6620.5509    4.2581776    4.2581776    4.2581776    6620.5509    22466.343    2245.6107   -4850.3008   -23244.672    -17782.22    7942.3077    77.209602 
   80000    993.26874   -106.28399   0.89873043   -105.38525   -7112.3642     4.268884     4.268884     4.268884   -7112.3642   -27253.109   -2024.5325    7940.5491    53882.962    8114.6869   -5852.4617    77.793452 
   80100    1394.8075   -106.61677    1.2620512   -105.35471   -18879.105    4.2716435    4.2716435    4.2716435   -18879.105   -34594.289   -2170.0243       -19873     9991.549    16474.524   -22345.337    77.944418 
   80200     2026.347   -107.16103    1.8334813   -105.32755    12438.028    4.2480933    4.2480933    4.2480933    12438.028    3772.8323    18627.458    14913.793    2670.4511    -10027.97    9502.6446    76.662352 
   80300     853.0114   -106.11985   0.77182264   -105.34803    12731.682    4.2408877    4.2408877    4.2408877    12731.682   -24072.874    36153.918    26114.001    65365.017      19723.4   -11010.904    76.272911 
   80400    2025.6501   -107.17695    1.8328508    -105.3441    669.99785    4.2538069    4.2538069    4.2538069    669.99785    2012.1088     35928.68   -35930.795   -23583.828    8757.9519     482.3064    76.972094 
   80500    1156.3326    -106.4102    1.0462741   -105.36393    5467.9392    4.2528314    4.2528314    4.2528314    5467.9392   -36095.286    7324.4517    45174.652    66944.944   -3285.9129    13882.194    76.919152 
   80600    1782.4797   -106.96746    1.6128251   -105.35464   -942.75411    4.2556411    4.2556411    4.2556411   -942.75411   -38098.634    26421.984    8848.3875   -1102.7011    14283.703   -6233.5564     77.07171 
   80700    1657.4233    -106.8532    1.4996715   -105.35353   -14689.705    4.2543144    4.2543144    4.2543144   -14689.705    -35385.45    10259.226   -18942.892    21621.046     14509.17    3917.2772     76.99965 
   80800    983.50664    -106.2574   0.88989748    -105.3675   -15394.569    4.2451495    4.2451495    4.2451495   -15394.569    -32247.57   -40566.898    26630.762    76722.233   -7067.3037    15970.704    76.503088 
   80900    2047.6916   -107.21437    1.8527944   -105.36157     4816.006    4.2457249    4.2457249    4.2457249     4816.006    9637.0881    1650.4826    3160.4472    -65588.06    8338.5713    1884.0531    76.534204 
   81000    1183.5117   -106.44974    1.0708663   -105.37887    4766.1832    4.2429486    4.2429486    4.2429486    4766.1832   -21053.997   -10273.949    45626.495    56038.572     15906.36   -5863.8675    76.384163 
   81100    1274.2903   -106.53822    1.1530047   -105.38522      2414.81    4.2531073    4.2531073    4.2531073      2414.81    36068.155    -37420.07    8596.3444    33003.712   -8044.3985    29624.719    76.934126 
   81200     1947.317   -107.12235    1.7619734   -105.36038     10552.52    4.2593863    4.2593863    4.2593863     10552.52    23008.097   -9905.0659    18554.529   -18009.156    6371.6077    235.70605    77.275371 
   81300    987.26292   -106.26006   0.89329624   -105.36676    15929.067    4.2499819    4.2499819    4.2499819    15929.067    22308.813    -35686.09    61164.479    62678.793    18170.281    -2856.591    76.764645 
   81400    1655.1641   -106.85024    1.4976273   -105.35261    13091.463    4.2523897    4.2523897    4.2523897    13091.463    48510.562    1884.7831   -11120.957   -17016.537    -8160.837    51583.365     76.89519 
   81500    1792.2031   -106.96486     1.621623   -105.34324     13041.99    4.2524371    4.2524371    4.2524371     13041.99    7466.2164    11695.692    19964.063    33663.004   -2053.5216   -9524.6765     76.89776 
   81600    1144.8299   -106.39666    1.0358661   -105.36079    4620.8875    4.2500025    4.2500025    4.2500025    4620.8875    12883.545   -4618.2257    5597.3437    47505.236    14118.338   -1737.9075    76.765763 
   81700    1906.7255   -107.07895    1.7252453   -105.35371    1673.6119    4.2549815    4.2549815    4.2549815    1673.6119    6018.1845    4819.9019   -5817.2507   -26982.074   -478.72808    27107.407    77.035878 
   81800     1111.443   -106.37481     1.005657   -105.36915    -6239.938    4.2508768    4.2508768    4.2508768    -6239.938    -30830.44     -39696.8    51807.426    21809.861    3435.4156   -12322.254    76.813144 
   81900     1624.594   -106.83812    1.4699668   -105.36815    2399.5112    4.2530184    4.2530184    4.2530184    2399.5112   -8810.1693    18714.254    -2705.551     29570.14    12007.354   -20448.613    76.929301 
   82000    2213.8475   -107.35312    2.0031358   -105.34998     620.0409    4.2614483    4.2614483    4.2614483     620.0409   -24171.432    27238.223   -1206.6689   -6256.2171    1522.2799    23403.739    77.387653 
   82100    611.16868    -105.9203   0.55299827    -105.3673   -14063.199    4.2561621    4.2561621    4.2561621   -14063.199   -47454.279   -31804.414    37069.095    33719.398   -5178.7291   -28643.407    77.100016 
   82200    1720.0218   -106.90158    1.5563119   -105.34527    5868.7128     4.250287     4.250287     4.250287    5868.7128    15957.228    14594.814   -12945.904   -2768.8764    7730.9011   -1690.3568    76.781178 
   82300    1411.6259    -106.6312    1.2772688   -105.35393   -4271.5985    4.2519647    4.2519647    4.2519647   -4271.5985    21829.708   -20532.944    -14111.56    13346.889   -180.81342    51335.169    76.872136 
   82400    1707.7124   -106.89719    1.5451741   -105.35201    1857.1154    4.2543483    4.2543483    4.2543483    1857.1154   -17882.438   -6782.1182    30235.902    30742.735   -2080.4223   -25878.389     77.00149 
   82500    1234.0733   -106.47512    1.1166155   -105.35851   -5765.2192    4.2586521    4.2586521    4.2586521   -5765.2192    43345.041   -19687.221   -40953.478   -7523.3657    5126.6426      64264.8    77.235414 
   82600    1828.5024   -106.99883    1.6544674   -105.34437   -6096.8469    4.2542443    4.2542443    4.2542443   -6096.8469   -753.23372   -4937.3562   -12599.951    15719.337      7583.14    2196.8095    76.995844 
   82700    1373.6448   -106.59495    1.2429027   -105.35205   -8054.1126    4.2489352    4.2489352    4.2489352   -8054.1126   -16739.128   -17974.882    10551.672    11562.597     2510.845    18409.836    76.707942 
   82800    1226.9798   -106.47296    1.1101971   -105.36276   -11716.704    4.2492041    4.2492041    4.2492041   -11716.704    26992.005   -29759.521   -32382.597    -11637.95    4698.6588    52018.991    76.722507 
   82900    1559.3274   -106.77398    1.4109122   -105.36307   -13794.304    4.2535286    4.2535286    4.2535286   -13794.304   -19258.281     8539.376   -30664.008    12668.194    11585.504   -54579.415    76.956991 
   83000    1766.0214   -106.95658    1.5979332   -105.35865   -17789.067    4.2588677    4.2588677    4.2588677   -17789.067   -10973.867   -25830.285   -16563.047    198.85989   -5324.9874    38417.858    77.247144 
   83100    1717.6045   -106.90892    1.5541246   -105.35479   -7130.4391    4.2539277    4.2539277    4.2539277   -7130.4391    36244.546   -22645.074   -34990.789   -3490.1767     6490.781   -19486.384    76.978654 
   83200    792.53167   -106.09042   0.71709931   -105.37332   -25643.318    4.2498592    4.2498592    4.2498592   -25643.318    1138.9131    2624.8408   -80693.708    10473.398    1090.4314   -52153.737    76.757997 
   83300    2212.7129   -107.36504    2.0021091   -105.36294    7287.2915    4.2466563    4.2466563    4.2466563    7287.2915    15636.364    20179.728   -13954.218    17202.705   -5898.1022    19742.674     76.58458 
   83400    1597.4151   -106.82082    1.4453748   -105.37544   -957.29052    4.2516086    4.2516086    4.2516086   -957.29052    56171.348    -21033.71   -38009.509   -13283.124    9810.8018    -55107.36    76.852824 
   83500    912.45473   -106.20773   0.82560821   -105.38212   -18259.672    4.2545597    4.2545597    4.2545597   -18259.672   -25061.969    16605.664   -46322.709    8525.1976    1381.5597    -23450.25    77.012968 
   83600    1737.5537   -106.93601    1.5721751   -105.36384    6548.9775    4.2505942    4.2505942    4.2505942    6548.9775    24132.645   -6114.2214    1628.5088    718.64613   -5822.5374    43989.961    76.797827 
   83700    1579.6617   -106.79253    1.4293111   -105.36322   -3699.0191    4.2556307    4.2556307    4.2556307   -3699.0191    16739.863     -12416.9    -15420.02   -18852.822    12010.906   -12031.422    77.071144 
   83800    1351.7056   -106.58516    1.2230516    -105.3621    -3472.189    4.2575976    4.2575976    4.2575976    -3472.189   -15542.264    37803.328   -32677.631    8542.1577    18728.578   -14673.066    77.178057 
   83900    1342.3816   -106.57654    1.2146151   -105.36192   -184.02945    4.2471568    4.2471568    4.2471568   -184.02945    51296.536    -36994.43   -14854.195   -14142.282   -9751.2945    70444.997    76.611663 
   84000    1703.0972   -106.90301    1.5409981   -105.36201    18528.718     4.246942     4.246942     4.246942    18528.718    8330.0168    32078.989    15177.147   -28014.408    13114.165   -7307.4084    76.600041 
   84100    1544.1946   -106.76475    1.3972197   -105.36753    -10105.64    4.2539134    4.2539134    4.2539134    -10105.64    3265.2799      9701.13   -43283.328    8287.9344    22274.631    33900.846    76.977879 
   84200    1205.1435   -106.46287    1.0904392   -105.37244    9365.9657    4.2521893    4.2521893    4.2521893    9365.9657    45527.626    14450.578   -31880.308   -7213.9709   -16490.481    52409.706    76.884319 
   84300    1951.3263   -107.11631     1.765601    -105.3507    7875.9672    4.2548682    4.2548682    4.2548682    7875.9672   -11632.554    21311.469    13948.987   -10317.121   -4477.3334    -27457.24    77.029725 
   84400     1018.331   -106.28122   0.92140728   -105.35981   -9960.2764    4.2528832    4.2528832    4.2528832   -9960.2764    34749.142   -7909.2586   -56720.713     6462.026    25020.214    75184.645    76.921966 
   84500    1865.3432   -107.03148    1.6878017   -105.34368    16785.839    4.2524416    4.2524416    4.2524416    16785.839    4393.4199    21210.474    24753.623   -9794.9401   -12074.775   -10361.408    76.898005 
   84600    1325.3628   -106.54769    1.1992161   -105.34848   -14001.797    4.2672837    4.2672837    4.2672837   -14001.797    4190.4861   -31263.187    -14932.69   -20994.835   -7271.8061    2190.7387    77.706002 
   84700    1682.2839   -106.85519    1.5221658   -105.33302   -8354.3484    4.2641474    4.2641474    4.2641474   -8354.3484    15851.996    1335.5232   -42250.564    572.62199    21010.245    33526.139     77.53479 
   84800    1329.5804   -106.53836    1.2030323   -105.33533    5118.4698      4.24898      4.24898      4.24898    5118.4698   -10231.819    -21731.39    47318.618   -63051.332    7514.3374   -17940.699    76.710369 
   84900    1468.2846   -106.67514    1.3285347   -105.34661    6510.1698    4.2470929    4.2470929    4.2470929    6510.1698    59827.485   -29013.998   -11282.978    1695.9137   -4827.7526      10565.3    76.608205 
   85000    1380.5289   -106.59642    1.2491315   -105.34729    5297.1928    4.2589921    4.2589921    4.2589921    5297.1928    15453.496    14290.241   -13852.158   -34938.054    24978.463     12990.28    77.253919 
   85100    1006.6015   -106.26306   0.91079416   -105.35227   -16400.813    4.2701968    4.2701968    4.2701968   -16400.813   -12892.162   -37305.367     995.0892   -50473.068    4236.2912   -12654.351    77.865247 
   85200    1881.5788   -107.04304     1.702492   -105.34055    3740.5556    4.2594433    4.2594433    4.2594433    3740.5556     62639.04    -23705.24   -27712.134    30835.646   -683.10529    25761.169    77.278471 
   85300     1113.229   -106.35753     1.007273   -105.35026     15658.92      4.24555      4.24555      4.24555     15658.92    10815.685   -18868.469    55029.545    -91108.21    10894.983    569.75759    76.524742 
   85400    1790.9218   -106.97151    1.6204637   -105.35105     16583.72    4.2510806    4.2510806    4.2510806     16583.72    48809.867    472.42143    468.87097   -4953.1581    17244.254   -5045.3943    76.824193 
   85500    1381.9713   -106.60597    1.2504367   -105.35554   -13017.764    4.2633343    4.2633343    4.2633343   -13017.764   -17984.113   -25415.328    4346.1496   -43961.181   -2837.1396    4939.7204    77.490448 
   85600    1022.1336   -106.28427   0.92484796   -105.35943   -13724.659    4.2584794    4.2584794    4.2584794   -13724.659    -48076.85   -11739.696     18642.57   -71060.633   -10605.677   -3711.7323    77.226019 
   85700    1920.7269   -107.07457    1.7379141   -105.33666    8873.4361    4.2488071    4.2488071    4.2488071    8873.4361    8753.2165    43615.471   -25748.379    19072.945      20242.5    326.49633    76.701004 
   85800    906.90081   -106.17321   0.82058291   -105.35263   -15315.235    4.2521507    4.2521507    4.2521507   -15315.235   -54714.813   -16701.754    25470.862   -104157.07   -2280.1769    3501.7047    76.882225 
   85900    1875.6111   -107.03312    1.6970923   -105.33603    21175.911     4.252965     4.252965     4.252965    21175.911     10176.74    60305.057   -6954.0651    17958.492     -14312.5   -3074.5423    76.926403 
   86000    1102.5772   -106.34929   0.99763501   -105.35166   -8108.5828     4.260361     4.260361     4.260361   -8108.5828   -39392.328   -3625.6668    18692.247   -38134.206    24456.323   -10747.592    77.328434 
   86100    1677.1486    -106.8552    1.5175193   -105.33768   -9642.9137    4.2600482    4.2600482    4.2600482   -9642.9137   -23127.575   -8792.8396    2991.6735   -45996.218   -22241.839   -15277.212      77.3114 
   86200    1488.2709   -106.68335    1.3466188   -105.33673    18564.049    4.2454457    4.2454457    4.2454457    18564.049   -2681.6564    75089.465   -16715.662    18965.584   -41451.437    3419.5709    76.519102 
   86300    1520.0577   -106.71864    1.3753802   -105.34326   -5921.5148     4.249913     4.249913     4.249913   -5921.5148   -41713.334   -4717.1728    28665.962   -58469.629    36298.174   -12120.424    76.760909 
   86400    1577.4847   -106.76918    1.4273413   -105.34183    1659.5882    4.2558462    4.2558462    4.2558462    1659.5882   -4764.6547    46295.509    -36552.09    764.60504    -60135.91   -3675.6141    77.082852 
   86500    1673.8192   -106.84898    1.5145068   -105.33447   -1325.2374    4.2618403    4.2618403    4.2618403   -1325.2374   -27648.872    24723.886   -1050.7263   -22401.026    -2144.878    -992.2849    77.409013 
   86600    1451.3481   -106.64636    1.3132103   -105.33315   -22518.513    4.2613213    4.2613213    4.2613213   -22518.513   -54576.736   -729.21673   -12249.585   -46191.722    74.365445   -6270.4889    77.380733 
   86700    1492.5932   -106.68662    1.3505297   -105.33609   -5833.6919    4.2462025    4.2462025    4.2462025   -5833.6919   -23421.607    30962.613   -25042.081    13916.293   -71167.026    356.44118     76.56003 
   86800    1798.2536   -106.96511    1.6270976   -105.33801    7112.4077     4.241691     4.241691     4.241691    7112.4077   -26229.577   -34038.749    81605.549   -50742.313    28423.933   -7126.5553    76.316259 
   86900    1053.5377   -106.31231   0.95326308   -105.35905   -2017.6814    4.2487301    4.2487301    4.2487301   -2017.6814   -51092.717    55350.769   -10311.097   -6736.7643   -52059.704   -1341.1661    76.696834 
   87000    1749.9193   -106.93424    1.5833637   -105.35088   -11836.238    4.2667866    4.2667866    4.2667866   -11836.238   -49168.524   -10598.339    24258.148   -4761.0933     -23156.2   -3822.1331    77.678848 
   87100    1711.6161   -106.89266    1.5487063   -105.34396   -23649.317    4.2638462    4.2638462    4.2638462   -23649.317    -54262.53   -45959.898    29274.478   -40556.165    1278.9581   -5738.0729    77.518365 
   87200    1114.9941   -106.35579    1.0088701   -105.34692    8976.6074    4.2377507    4.2377507    4.2377507    8976.6074   -27335.029    66599.345   -12334.493    11717.457   -80719.284    8248.4161    76.103778 
   87300    1946.2483   -107.10205    1.7610063   -105.34105    15730.675    4.2423131    4.2423131    4.2423131    15730.675    25949.562    -33179.07    54421.532    5787.0717    23414.548   -5087.3018    76.349844 
   87400     821.4847   -106.10418   0.74329662   -105.36088   -13919.667    4.2601277    4.2601277    4.2601277   -13919.667   -18974.375   -19409.435   -3375.1914   -12269.729   -71393.741    480.89486    77.315728 
   87500    1792.1564   -106.96369    1.6215808   -105.34211   -6488.2619    4.2749746    4.2749746    4.2749746   -6488.2619    7671.7619   -7209.5086   -19927.039    5240.4676   -34692.127    8006.7033    78.126904 
   87600    1626.8828   -106.80454    1.4720377    -105.3325   -22982.954    4.2709869    4.2709869    4.2709869   -22982.954   -28258.904   -14135.294   -26554.664   -11223.325   -11481.078   -10846.082    77.908477 
   87700     880.2142   -106.13166   0.79643631   -105.33522     14124.12    4.2439208    4.2439208    4.2439208     14124.12   -23118.533    69925.117   -4434.2245   -10937.815   -80650.403    -1199.649    76.436681 
   87800    2287.1946   -107.37933    2.0695018   -105.30983    9152.4751    4.2497411    4.2497411    4.2497411    9152.4751     4457.525    12087.374    10912.526   -827.69565    38064.508   -8809.6074    76.751595 
   87900    801.93275   -106.06467   0.72560561   -105.33906   -30439.394    4.2616863    4.2616863    4.2616863   -30439.394   -74706.061    24255.344   -40867.466   -4831.2542   -96507.408    2585.4674    77.400622 
   88000    2333.1791   -107.42999    2.1111095   -105.31888    23290.163    4.2595872    4.2595872    4.2595872    23290.163     12309.82   -13379.354    70940.024   -7487.4732    10463.818   -6244.7736    77.286305 
   88100    927.47655   -106.18811   0.83920028   -105.34891   -19105.192    4.2595224    4.2595224    4.2595224   -19105.192    -76829.15    36318.991   -16805.419    3227.5573   -41052.144   -4748.6193    77.282775 
   88200     1316.188   -106.53906    1.1909146   -105.34814    184.71239    4.2490205    4.2490205    4.2490205    184.71239   -54928.122    48289.642    7192.6172   -3642.0574   -57585.781    3387.8905    76.712563 
   88300    1981.9279   -107.12752      1.79329   -105.33423    9085.7923    4.2512574    4.2512574    4.2512574    9085.7923    11821.548   -7654.1117     23089.94   -1193.5558    101.73446   -2719.1183     76.83378 
   88400    505.40332   -105.82154   0.45729955   -105.36424   -39433.587    4.2567295    4.2567295    4.2567295   -39433.587   -86366.413    47149.861    -79084.21    7450.8155   -77469.146    8946.9127    77.130858 
   88500    2344.2726   -107.45416    2.1211471   -105.33301    24937.478    4.2518727    4.2518727    4.2518727    24937.478    29260.058    22536.979    23015.396   -1852.5035    36311.955   -978.79566    76.867144 
   88600    956.61916   -106.22116   0.86556912   -105.35559   -29792.312    4.2650125    4.2650125    4.2650125   -29792.312   -35104.187    23207.321    -77480.07     -8721.72   -95093.141   -5810.5514    77.581991 
   88700     1865.286    -107.0233    1.6877499   -105.33555   -5698.4719    4.2596199    4.2596199    4.2596199   -5698.4719    3460.9533    15418.769   -35975.138    8005.0147   -11037.889    7703.9417    77.288082 
   88800    1594.5035   -106.78295    1.4427403   -105.34021    25564.383    4.2418869    4.2418869    4.2418869    25564.383    20364.088    63622.931    -7293.871   -1156.0631    -28550.47   -5339.3084    76.326836 
   88900    675.93292   -105.97647   0.61159831   -105.36487   -19288.769    4.2559426    4.2559426    4.2559426   -19288.769   -54821.087    61143.366   -64188.586    1564.2506   -89366.821     8795.862    77.088091 
   89000    2405.0955   -107.49716    2.1761809   -105.32098    13984.188    4.2623249    4.2623249    4.2623249    13984.188   -298.40846   -673.96922    42924.942    745.14487    23879.949   -1239.2043    77.435417 
   89100    547.14476   -105.84886   0.49506808   -105.35379   -7933.0384    4.2573141    4.2573141    4.2573141   -7933.0384   -36892.769    17623.343   -4529.6896   -10366.008   -92187.009   -6689.6834    77.162641 
   89200    2045.9394   -107.18717    1.8512089   -105.33596    12738.538    4.2480543    4.2480543    4.2480543    12738.538    14819.814   -18587.349    41983.148   -10203.317    7529.3944    9403.0335     76.66024 
   89300    1365.9115   -106.58627    1.2359054   -105.35036     8390.554    4.2395334    4.2395334    4.2395334     8390.554    -50745.27    45216.843    30700.089    3585.6279   -45332.518   -3697.0655    76.199863 
   89400     989.7294   -106.26896   0.89552796   -105.37343    -16893.89    4.2561815    4.2561815    4.2561815    -16893.89   -46236.305    18630.057   -23075.422    644.56216   -36879.702   -11102.719    77.101072 
   89500    2544.1074   -107.63826    2.3019618    -105.3363    4540.0354    4.2605655    4.2605655    4.2605655    4540.0354    -17888.93   -6357.5509    37866.587    -206.6953     8696.192    6446.3849    77.339566 
   89600    728.77889   -106.01917   0.65941446   -105.35976   -11726.878    4.2538284    4.2538284    4.2538284   -11726.878   -82482.325    79204.735   -31903.044   -871.95964    -86290.82     4221.239    76.973265 
   89700    2143.2087   -107.27143    1.9392203   -105.33221    7812.4087    4.2540678    4.2540678    4.2540678    7812.4087   -5998.1072    13473.519    15961.814    1746.2948    51603.669   -5287.6438    76.986262 
   89800    1162.5901   -106.40436     1.051936   -105.35242   -5131.1978    4.2440396    4.2440396    4.2440396   -5131.1978   -16199.912    14078.115   -13271.797    3162.8793   -81225.806    11005.239    76.443096 
   89900    1208.5237    -106.4557    1.0934976    -105.3622   -2506.1582    4.2451101    4.2451101    4.2451101   -2506.1582   -1522.0422    21305.093   -27301.525    3399.1929   -34392.578   -3945.6041    76.500958 
   90000    1996.7385   -107.14928     1.806691   -105.34259    2160.2483    4.2579573    4.2579573    4.2579573    2160.2483    6174.4265    7431.2567   -7124.9382    2796.0886    1386.4427    2847.6888    77.197617 
   90100    621.46261   -105.92437   0.56231243   -105.36205   -19781.053    4.2592587    4.2592587    4.2592587   -19781.053   -1109.2288    22330.028   -80563.957   -624.61844   -98736.143     11762.83    77.268425 
   90200     2369.963   -107.47593    2.1443924   -105.33153    8708.8537    4.2539613    4.2539613    4.2539613    8708.8537    43095.061   -15750.141   -1218.3592    5067.3669    32525.004   -12595.917    76.980478 
   90300    1106.2443   -106.35195    1.0009531     -105.351   -8150.6442    4.2450378    4.2450378    4.2450378   -8150.6442   -43247.516    59097.068   -40301.485    446.81163   -92503.587    4492.3182    76.497049 
   90400    1485.0154   -106.69394    1.3436732   -105.35027    4948.4459     4.243393     4.243393     4.243393    4948.4459    31776.613   -2872.4441   -14058.831   -4841.8639   -20061.907    20243.316    76.408164 
   90500    1935.9208   -107.09571    1.7516618   -105.34404   -10778.568    4.2605251    4.2605251    4.2605251   -10778.568   -28573.225    -3168.682    -593.7964   -2983.4781   -23266.293   -12887.827     77.33737 
   90600    928.13876    -106.1911   0.83979946    -105.3513   -15652.927    4.2604722    4.2604722    4.2604722   -15652.927   -28897.663    27309.494   -45370.612    2584.8935    -80636.94    11918.618    77.334487 
   90700    1965.4159    -107.1062    1.7783496   -105.32785    17074.336    4.2477152    4.2477152    4.2477152    17074.336    51463.859   -19655.438    19414.588   -4927.1251    26152.497    31270.147    76.641886 
   90800     1102.943   -106.34279   0.99796604   -105.34482   -17743.984    4.2498501    4.2498501    4.2498501   -17743.984    -71894.69    48761.679   -30098.942    -7307.464   -103413.48   -15032.905    76.757502 
   90900    1815.7999   -106.98102    1.6429739   -105.33804    4037.8436    4.2485982    4.2485982    4.2485982    4037.8436    31168.009    -3328.262   -15726.217    2589.1481    6842.8947    28057.989    76.689691 
   91000    1325.5531   -106.54909    1.1993883    -105.3497    2715.1728    4.2482811    4.2482811    4.2482811    2715.1728   -308.21478    18664.079   -10210.346    -4566.603   -39349.967    21969.044     76.67252 
   91100    1501.4748   -106.70991     1.358566   -105.35134   -20655.146    4.2595553    4.2595553    4.2595553   -20655.146    -26114.85    15620.796   -51471.385   -2968.6333   -74050.729   -7815.1814    77.284569 
   91200    1900.6127   -107.05401    1.7197143    -105.3343   -2448.0382    4.2554878    4.2554878    4.2554878   -2448.0382    52492.254   -48153.341   -11683.027    5350.5172    22146.144    36185.763    77.063378 
   91300    630.04194   -105.92564   0.57007519   -105.35556   -22333.913     4.247878     4.247878     4.247878   -22333.913   -44201.341    27001.725   -49802.123   -4855.0845    -99395.07    17169.983    76.650695 
   91400    2363.3433   -107.46621    2.1384027   -105.32781    15856.906    4.2483894    4.2483894    4.2483894    15856.906    35956.231   -14301.247    25915.735   -1349.5155    17836.254   -6926.1011    76.678382 
   91500    803.41153    -106.0891   0.72694364   -105.36216    -8524.347    4.2557501    4.2557501    4.2557501    -8524.347   -16171.327    5228.5814   -14630.295    4788.5826    -57963.46    19974.935     77.07763 
   91600    1799.7582   -106.97919     1.628459   -105.35073   -6314.5424    4.2640947    4.2640947    4.2640947   -6314.5424    -11267.89    498.12638   -8173.8641    4911.7861   -38788.387     2632.351    77.531915 
   91700    2057.9903   -107.20753    1.8621129   -105.34542    21360.909    4.2491541    4.2491541    4.2491541    21360.909    14923.341    14949.415    34209.973   -2291.4339   -1821.3287   -5579.7149    76.719799 
   91800     617.1044   -105.92502   0.55836903   -105.36665   -11719.905    4.2407995    4.2407995    4.2407995   -11719.905   -11758.348    34018.575   -57419.942    1291.2241    -94013.25    25582.909    76.268153 
   91900     2311.233   -107.43087    2.0912522   -105.33962    20042.807     4.252767     4.252767     4.252767    20042.807    56887.685   -5942.6985    9183.4341    1872.2386    24779.243    2546.6922    76.915662 
   92000    748.50176   -106.04198   0.67726012   -105.36472   -57.178029    4.2610474    4.2610474    4.2610474   -57.178029     17480.96    42834.915   -60487.409   -10729.173   -68933.544   -783.18325    77.365812 
   92100    1791.8452   -106.95921    1.6212991   -105.33791   -2472.7687    4.2635523    4.2635523    4.2635523   -2472.7687    46885.965   -6730.0782   -47574.193    2260.0845   -2447.4555    28991.001    77.502333 
   92200     1604.972   -106.78248    1.4522124   -105.33027    16501.009    4.2503831    4.2503831    4.2503831    16501.009    41079.792    42974.404    -34551.17   -6117.5617   -47773.085   -13194.801    76.786388 
   92300    1107.9144   -106.34179    1.0024643   -105.33933    -11023.46    4.2527261    4.2527261    4.2527261    -11023.46   -4651.0305    36653.081    -65072.43   -261.48594   -42481.121    13030.233     76.91344 
   92400    2193.7613   -107.30398    1.9849613   -105.31902   -2323.8716    4.2599896    4.2599896    4.2599896   -2323.8716    14289.673    2110.7656   -23372.053    7885.3288    20489.967    19268.891    77.308209 
   92500    882.53753    -106.1407   0.79853851   -105.34216   -9444.1712    4.2519873    4.2519873    4.2519873   -9444.1712    -34629.61    52581.127    -46284.03   -7786.5346   -102509.92    -17501.63    76.873364 
   92600    2080.4991   -107.20676    1.8824793   -105.32429   -3945.0602    4.2523965    4.2523965    4.2523965   -3945.0602    9748.9207   -16074.741   -5509.3599    12587.988    52033.326     12188.31    76.895557 
   92700    827.49386   -106.08982   0.74873383   -105.34109   -39233.678    4.2599235    4.2599235    4.2599235   -39233.678    -74014.97    10977.164   -54663.227    -3878.734   -89801.048    483.99104    77.304612 
   92800    1952.2043   -107.09559    1.7663955    -105.3292   -5222.1369    4.2507344    4.2507344    4.2507344   -5222.1369   -11669.721   -7090.8686    3094.1785    3221.0396   -21671.251   -2114.6487    76.805427 
   92900    1430.1426   -106.63693    1.2940231   -105.34291   -9221.7441    4.2559149    4.2559149    4.2559149   -9221.7441   -60048.226    59560.935   -27177.941   -3192.9942   -21652.049    2044.7178    77.086583 
   93000    1132.8282    -106.3709    1.0250067   -105.34589   -21902.049    4.2688325    4.2688325    4.2688325   -21902.049   -90229.324    82654.626   -58131.449   -12505.492   -57058.927    2772.5846    77.790638 
   93100    2397.6443   -107.47594     2.169439    -105.3065    9098.3631    4.2646449    4.2646449    4.2646449    9098.3631    3522.8137    2487.4894    21284.786    -3823.824    1980.5944    -5810.452    77.561935 
   93200    926.00134   -106.16575   0.83786547   -105.32788   -22056.248    4.2616743    4.2616743    4.2616743   -22056.248   -66895.174    34607.503   -33881.073   -2558.4355    -91525.91   -214.71715    77.399967 
   93300     2176.741   -107.27835     1.969561   -105.30879    6610.7257    4.2540972    4.2540972    4.2540972    6610.7257    15283.369   -5426.2444    9975.0529   -9957.0003    53455.995    4758.3479    76.987858 
   93400    949.69927   -106.19283   0.85930785   -105.33352   -5441.3631    4.2531796    4.2531796    4.2531796   -5441.3631   -41169.397     72410.38   -47565.072    1937.9823   -100630.26    -3237.286    76.938048 
   93500     2017.434    -107.1408    1.8254167   -105.31538   -272.77506     4.263457     4.263457     4.263457   -272.77506    14917.573    -2735.207   -13000.691    494.62615     23351.05   -434.07481     77.49714 
   93600    876.02768   -106.12403   0.79264826   -105.33138   -24128.309     4.264913     4.264913     4.264913   -24128.309   -3924.1148    13290.646   -81751.457   -2094.0225   -44821.624    1997.9971    77.576563 
   93700    1815.7619   -106.96949    1.6429395   -105.32655    5702.1424    4.2528647    4.2528647    4.2528647    5702.1424    25515.019    17122.186   -25530.778    8196.7931   -42064.953    6291.4323     76.92096 
   93800    1837.7022   -106.99051    1.6627916   -105.32771     13323.09    4.2478553    4.2478553    4.2478553     13323.09    42980.734    18800.564   -21812.029    6896.7718    3729.6415   -4745.2968    76.649468 
   93900    1048.9202   -106.29634   0.94908504   -105.34725   -2011.9648    4.2550625    4.2550625    4.2550625   -2011.9648   -1064.7517    68203.824   -73174.967    4880.8658    -71533.77    4487.0913    77.040278 
   94000    2290.1358   -107.38836     2.072163   -105.31619   -7780.7956    4.2689043    4.2689043    4.2689043   -7780.7956    18464.579   -31946.904   -9860.0614     19144.43    24341.766   -12663.679    77.794566 
   94100    492.30358   -105.79412   0.44544663   -105.34867   -31681.174    4.2598699    4.2598699    4.2598699   -31681.174    307.37058    11791.413    -107142.3   -2323.4528   -79393.194   -16796.479    77.301696 
   94200    2072.4053   -107.20264    1.8751558   -105.32749     26432.99    4.2421641    4.2421641    4.2421641     26432.99    27112.794    42842.167    9344.0081    5645.2345   -5882.2541    4706.6249    76.341797 
   94300    1248.1639   -106.47736    1.1293649   -105.34799   -9169.2184    4.2522596    4.2522596    4.2522596   -9169.2184      -1407.9    7810.2976   -33910.053    9671.0893   -39517.553   -13176.252    76.888131 
   94400    1317.3429   -106.54988    1.1919596   -105.35793   -15662.319    4.2633323    4.2633323    4.2633323   -15662.319   -14460.025    20305.709   -52832.639    1810.2707   -55632.877   -20014.654    77.490336 
   94500    2021.1688   -107.14598     1.828796   -105.31718   -25646.772    4.2789277    4.2789277    4.2789277   -25646.772   -25334.828   -16158.109   -35447.378    2313.6198   -760.77243    7922.1181     78.34384 
   94600    832.82443   -106.07271   0.75355705   -105.31915   -42190.543    4.2700246    4.2700246    4.2700246   -42190.543   -47703.855    30136.963   -109004.74    9544.3526   -82193.277   -9552.0483    77.855827 
   94700    2531.5469   -107.57954    2.2905968   -105.28894    22963.147    4.2404711    4.2404711    4.2404711    22963.147     35891.83    1639.0019    31358.609   -14036.251    26666.566   -17944.778    76.250434 
   94800    478.94306   -105.77678   0.43335775   -105.34342   -28922.105    4.2458951    4.2458951    4.2458951   -28922.105   -68577.689    28988.517   -47177.144   -15040.663   -90163.622    5572.6956    76.543407 
   94900    2132.5757   -107.26643    1.9295993   -105.33683    8095.8737    4.2544954    4.2544954    4.2544954    8095.8737    5583.8134    1400.1189    17303.689    10250.683    5406.4481    9443.7798     77.00948 
   95000    1208.1257   -106.44532    1.0931376   -105.35218   -11897.865    4.2713515    4.2713515    4.2713515   -11897.865   -39877.818    34831.706   -30647.482   -7897.9117   -50632.207     -2671.05    77.928434 
   95100    1136.4316   -106.35806    1.0282672   -105.32979    -35708.39    4.2784003    4.2784003    4.2784003    -35708.39   -45889.842    5367.1393   -66602.468   -4593.3427   -34799.808     9690.147     78.31487 
   95200    1907.3305   -107.03472    1.7257927   -105.30893    12742.908    4.2492338    4.2492338    4.2492338    12742.908    22901.803    18458.169   -3131.2479    8353.8737    6068.2919   -4943.8496    76.724112 
   95300    726.63199    -105.9988    0.6574719   -105.34133    -7653.045    4.2390578    4.2390578    4.2390578    -7653.045   -56545.426    67640.633   -34054.342   -11169.135   -88342.066   -12648.187    76.174219 
   95400    2612.2001   -107.69624    2.3635736   -105.33266     25296.37    4.2509242    4.2509242    4.2509242     25296.37    12010.937    13468.459    50409.714   -3987.8178    18293.655   -2454.1332    76.815718 
   95500    1086.8085   -106.35013   0.98336719   -105.36677    4647.1346    4.2619045    4.2619045    4.2619045    4647.1346   -1083.6082     11237.62    3787.3915     11666.38   -72927.788    481.90501    77.412509 
   95600    1346.1266   -106.57809    1.2180037   -105.36009   -7647.4422    4.2679808    4.2679808    4.2679808   -7647.4422     18999.31   -12723.528    -29218.11   -8383.4245    -19338.23   -8098.5312    77.744087 
   95700    1890.3838   -107.04209     1.710459   -105.33164   -10714.927    4.2567736    4.2567736    4.2567736   -10714.927   -1015.3672     28500.81   -59630.225   -483.17572   -31529.484    6738.7895    77.133255 
   95800    835.89262   -106.09356   0.75633321   -105.33722    7208.9956     4.244909     4.244909     4.244909    7208.9956    21382.573    24087.872   -23843.458    1717.6151    -67923.17   -4456.9815    76.490084 
   95900    2234.8632   -107.34173    2.0221512   -105.31958    4169.5547    4.2587359    4.2587359    4.2587359    4169.5547    4166.5985   -19214.622    27556.687    6457.6617    12977.493    402.07485    77.239977 
   96000    716.10746    -105.9962   0.64794908   -105.34826   -22213.335    4.2546094    4.2546094    4.2546094   -22213.335   -69119.571    56964.185   -54484.618   -2131.7571   -113521.04    13027.749    77.015667 
   96100    2122.9576   -107.24698    1.9208966   -105.32608    20895.982    4.2529188    4.2529188    4.2529188    20895.982    14167.098   -13165.863    61686.712    8644.3594    36638.904    8978.8101    76.923897 
   96200     1063.711   -106.30307   0.96246804   -105.34061   -40373.218    4.2690136    4.2690136    4.2690136   -40373.218   -87773.503    31518.867   -64865.019   -1565.4042   -106652.48   -597.35384    77.800542 
   96300    1630.8402   -106.80774    1.4756185   -105.33212   -1793.9564    4.2484751    4.2484751    4.2484751   -1793.9564   -23783.174    33391.094   -14989.789   -2562.4115   -27898.131    4574.6064    76.683024 
   96400    1445.2748   -106.63817     1.307715   -105.33045    5654.7052    4.2398207    4.2398207    4.2398207    5654.7052   -22368.678    58829.462   -19496.668    14295.657   -40597.686    14218.641    76.215355 
   96500    1303.6751   -106.52857    1.1795927   -105.34898   -23095.939    4.2582447    4.2582447    4.2582447   -23095.939   -79559.643    54608.175    -44336.35   -7255.7426   -96552.592   -13489.348     77.21325 
   96600     2178.893   -107.29644    1.9715082   -105.32494    25705.717    4.2628115    4.2628115    4.2628115    25705.717    32307.741   -4727.6433    49537.052   -414.26602    26379.605    5261.8012    77.461941 
   96700    518.12736   -105.82612   0.46881252   -105.35731   -18746.855    4.2631743    4.2631743    4.2631743   -18746.855   -65551.975    41130.791   -31819.383    10009.735   -113528.93    15100.758    77.481724 
   96800    2310.7038   -107.41739    2.0907734   -105.32662    17424.552    4.2523101    4.2523101    4.2523101    17424.552    16752.238   -7564.5317     43085.95   -3813.5815    35262.365   -9244.6173    76.890869 
   96900    781.08179   -106.05612   0.70673922   -105.34938    7498.7347    4.2443168    4.2443168    4.2443168    7498.7347    16994.879    59288.024   -53786.698   -3104.4471   -100532.43    5201.3411    76.458078 
   97000     1712.814   -106.89551    1.5497901   -105.34572   -3433.5893    4.2644025    4.2644025    4.2644025   -3433.5893   -4975.0781    -9428.724    4103.0342     5848.553   -13918.776    1283.1299    77.548707 
   97100    1622.5218   -106.80577    1.4680918   -105.33768   -22536.414    4.2683322    4.2683322    4.2683322   -22536.414   -28448.092   -679.27785   -38481.871    4879.1275   -42124.065   -250.55042    77.763293 
   97200    1288.6795   -106.50397    1.1660243   -105.33795    6827.3835     4.240725     4.240725     4.240725    6827.3835   -2549.0454    46355.863   -23324.667   -2947.0196   -87090.243    10096.784    76.264129 
   97300    1943.5842   -107.08876    1.7585958   -105.33016    20972.691    4.2445006    4.2445006    4.2445006    20972.691    15155.923   -13262.121    61024.272     6747.838    21014.808    5662.8315     76.46801 
   97400    587.21277   -105.88747   0.53132246   -105.35614   -26848.752    4.2612531    4.2612531    4.2612531   -26848.752   -52219.975    37326.346   -65652.627    5651.1203   -109120.96    5140.7769    77.377017 
   97500    2371.7564   -107.47595    2.1460151   -105.32993    10787.816    4.2656328    4.2656328    4.2656328    10787.816    11859.065   -8446.0273    28950.408    -7431.103    23310.436   -2373.8412    77.615849 
   97600    932.07398   -106.19728   0.84336012   -105.35392   -42831.405    4.2716471    4.2716471    4.2716471   -42831.405   -91161.697    31995.014   -69327.533    10551.084   -106390.13    5410.2691    77.944614 
   97700    1883.1132   -107.03849    1.7038804   -105.33461   -89.635588    4.2515276    4.2515276    4.2515276   -89.635588   -15500.781    27503.655   -12271.781   -2784.2793   -33687.372   -4780.1082    76.848432 
   97800    1628.7664   -106.80477    1.4737421   -105.33102    14345.387    4.2483169    4.2483169    4.2483169    14345.387     7721.812    40184.885   -4870.5355   -8427.8376   -28238.583    5169.4956    76.674458 
   97900    652.96251   -105.93958    0.5908142   -105.34877   -28283.865     4.266254     4.266254     4.266254   -28283.865   -59541.017    40776.312   -66086.889     14870.97   -86156.711    12583.471    77.649764 
   98000     2042.753   -107.15839    1.8483258   -105.31007    14381.743    4.2715538    4.2715538    4.2715538    14381.743    34328.783   -10719.226    19535.673    5352.8012    28178.723   -9229.7157    77.939504 
   98100    778.23287   -106.03105   0.70416146   -105.32689   -27658.859    4.2792138    4.2792138    4.2792138   -27658.859   -57049.048    33416.426   -59343.954    7999.9876   -96486.635    1505.1473    78.359552 
   98200    2210.9809   -107.30589    2.0005419   -105.30535    18402.781    4.2564265    4.2564265    4.2564265    18402.781    40899.844    -38988.18     53296.68    24118.216    40617.901    9340.2107     77.11439 
   98300    946.13631   -106.17728   0.85608401    -105.3212    4144.0209    4.2310976    4.2310976    4.2310976    4144.0209   -8083.6957    58943.653   -38427.894   -726.59319   -119379.98   -4052.1924    75.745902 
   98400    1970.4633   -107.11815    1.7829166   -105.33523   -215.72206    4.2528966    4.2528966    4.2528966   -215.72206    11879.548    -3837.455   -8689.2589    3918.2631   -11568.354    3669.6066    76.922694 
   98500     1322.138   -106.53345    1.1962983   -105.33715   -18188.255    4.2741726    4.2741726    4.2741726   -18188.255   -5958.5731   -6322.9125    -42283.28    17385.162   -57629.688    6297.4842     78.08294 
   98600    1398.2348   -106.60493    1.2651523   -105.33978   -7743.4245    4.2722118    4.2722118    4.2722118   -7743.4245   -650.90988   -955.97908   -21623.384   -2588.8259   -67696.171   -10246.029    77.975526 
   98700    2076.6629    -107.2091    1.8790083   -105.33009    28440.286    4.2471515    4.2471515    4.2471515    28440.286    42749.536    15578.867    26992.455   -10391.512    13526.692    1364.2238    76.611376 
   98800    509.83723   -105.80777   0.46131144   -105.34646    18085.271     4.228558     4.228558     4.228558    18085.271   -3532.5936    90384.775   -32596.369    5054.1959   -111862.17    8248.3208     75.60959 
   98900    2290.1367   -107.40543    2.0721638   -105.33326    21320.509    4.2568135    4.2568135    4.2568135    21320.509    39221.953    3520.0266    21219.549    1199.3677    37086.312   -6129.5183    77.135425 
   99000    942.17352   -106.19424    0.8524984   -105.34174   -29416.725    4.2771899    4.2771899    4.2771899   -29416.725   -52078.647    46839.195   -83010.723   -4096.2604   -106855.23    4590.8512    78.248422 
   99100    2186.7966   -107.28584    1.9786595   -105.30718    8809.9643    4.2630767    4.2630767    4.2630767    8809.9643    3548.9027   -5045.0133    27926.003   -7042.5887    13801.162    9098.3578    77.476404 
   99200    1182.7518   -106.38102    1.0701787   -105.31084   -18131.804    4.2586866    4.2586866    4.2586866   -18131.804   -55363.664    58164.443   -57196.191    4031.3773   -89005.727    229.90539    77.237295 
   99300    1619.1261    -106.7684    1.4650193   -105.30338    7076.5836    4.2574088    4.2574088    4.2574088    7076.5836    9865.6189    31824.157   -20460.025   -3505.6389    -32864.03    1482.8867     77.16779 
   99400    1461.7978   -106.63972    1.3226653   -105.31706    1059.1309    4.2548644    4.2548644    4.2548644    1059.1309   -2648.1488    21256.593   -15431.052    3020.0516   -31116.948    18888.117    77.029518 
   99500    889.63555    -106.1515   0.80496094   -105.34654   -1702.9206    4.2572823    4.2572823    4.2572823   -1702.9206   -19257.051     71658.91   -57510.621    3943.0139   -84292.231    246.12708     77.16091 
   99600    2347.1176   -107.43942    2.1237213    -105.3157    12963.518    4.2621911    4.2621911    4.2621911    12963.518     20655.51    -4871.409    23106.455   -5551.7899    12875.737   -6381.6217    77.428129 
   99700    738.97052   -106.00607   0.66863605   -105.33743   -10992.847    4.2630413    4.2630413    4.2630413   -10992.847   -25396.424    33744.603    -41326.72   -1101.6286   -110197.41    12797.804     77.47447 
   99800     2404.125   -107.47651    2.1753028   -105.30121    8909.4448    4.2636985    4.2636985    4.2636985    8909.4448    26386.167    113.32942    228.83777    1107.9714    32493.182    6539.2955    77.510305 
   99900    849.42436   -106.09026   0.76857702   -105.32168    -19543.89    4.2634928    4.2634928    4.2634928    -19543.89   -43973.474    63954.005   -78612.202   -5177.2774   -110430.29    -2896.436    77.499092 
  100000    2297.4975    -107.3747     2.078824   -105.29588    15239.639    4.2623905    4.2623905    4.2623905    15239.639    25487.166    5542.6858    14689.064   -13888.737    25026.031    3567.0468    77.438997 
Loop time of 22.7712 on 1 procs for 100000 steps with 8 atoms

Pair  time (%) = 7.26307 (31.8959)
Kspce time (%) = 5.32266 (23.3745)
Neigh time (%) = 0.18585 (0.816164)
Comm  time (%) = 1.1519 (5.0586)
Outpt time (%) = 0.0248837 (0.109277)
Other time (%) = 8.82283 (38.7456)

Nlocal:    8 ave 8 max 8 min
Histogram: 1 0 0 0 0 0 0 0 0 0
Nghost:    2189 ave 2189 max 2189 min
Histogram: 1 0 0 0 0 0 0 0 0 0
Neighs:    2347 ave 2347 max 2347 min
Histogram: 1 0 0 0 0 0 0 0 0 0

Total # of neighbors = 2347
Ave neighs/atom = 293.375
Neighbor list builds = 2103
Dangerous builds = 0
unfix 20
unfix 21
print "seeds:9790062"
seeds:9790062
