LAMMPS (10 Feb 2015)
# ---- initialize simulations
clear
units metal
dimension 3
boundary p p p
atom_style charge
atom_modify map array
# ---- create atoms
read_data /Users/eugeneragasa/pyflamestk_git/pypospack/tests/tests_integration/workflow/WorkflowLammpsThermalExpansion/param_2856/MgO_NaCl_unit.npt.T700/lammps.structure
  triclinic box = (0 0 0) to (4.2565 4.2565 4.2565) with tilt (0 0 0)
  1 by 1 by 1 MPI processor grid
  reading atoms ...
  8 atoms
# ---- define interatomic potential
include potential.mod
mass 1 24.305
mass 2 15.999

group Mg type 1
4 atoms in group Mg
group O type 2
4 atoms in group O

set group Mg charge 1.71287520642
  4 settings made for charge
set group O charge -1.71287520642
  4 settings made for charge

variable R_cut equal 10.0

pair_style buck/coul/long ${R_cut}
pair_style buck/coul/long 10
pair_coeff 1 1 0.0 0.5 0.0 ${R_cut}
pair_coeff 1 1 0.0 0.5 0.0 10
pair_coeff 1 2 1268.25800143 0.292150986054 0.0 ${R_cut}
pair_coeff 1 2 1268.25800143 0.292150986054 0.0 10
pair_coeff 2 2 34972.2762623 0.190168709461 15.9037418312 ${R_cut}
pair_coeff 2 2 34972.2762623 0.190168709461 15.9037418312 10

kspace_style pppm 1.0e-5

neighbor 1.0 bin
neigh_modify every 1 delay 0 check yes
# ---- define settings
compute eng all pe/atom
compute eatoms all reduce sum c_eng
# ---- run minimization
reset_timestep 0
fix 1 all box/relax iso 0.0 vmax 0.001
thermo 10
thermo_style custom step pe lx ly lz xy xz yz press pxx pyy pzz pxy pxz pyz c_eatoms
min_style cg
minimize 1e-25 1e-25 5000 10000
PPPM initialization ...
  G vector (1/distance) = 0.353245
  grid = 8 8 8
  stencil order = 5
  estimated absolute RMS force accuracy = 4.15075e-05
  estimated relative force accuracy = 2.88254e-06
  using double precision FFTs
  3d grid and FFT values/proc = 3375 512
Neighbor list info ...
  1 neighbor list requests
  update every 1 steps, delay 0 steps, check yes
  master list distance cutoff = 11
Memory usage per processor = 4.06549 Mbytes
Step PotEng Lx Ly Lz Xy Xz Yz Press Pxx Pyy Pzz Pxy Pxz Pyz eatoms 
       0    -118.2398       4.2565       4.2565       4.2565            0            0            0    92099.563    92099.563    92099.563    92099.563 -2.6648665e-10 1.3518399e-10 2.2028947e-10    -118.2398 
      10   -118.33067     4.299065     4.299065     4.299065            0            0            0    34673.493    34673.493    34673.493    34673.493 -1.1760899e-11 -1.3745134e-10 -5.0678772e-11   -118.33067 
      18   -118.34767    4.3277342    4.3277342    4.3277342            0            0            0    -4.391814    -4.391814    -4.391814    -4.391814 -1.1240186e-10 -1.6034703e-10 -8.891662e-11   -118.34767 
Loop time of 0.011843 on 1 procs for 18 steps with 8 atoms

Minimization stats:
  Stopping criterion = linesearch alpha is zero
  Energy initial, next-to-last, final = 
        -118.239795936     -118.347671294     -118.347671294
  Force two-norm initial, final = 13.2992 0.00175014
  Force max component initial, final = 13.2992 0.000655584
  Final line search alpha, max atom move = 0.00390625 2.56088e-06
  Iterations, force evaluations = 18 35

Pair  time (%) = 0.00317574 (26.8154)
Kspce time (%) = 0.00187039 (15.7933)
Neigh time (%) = 0 (0)
Comm  time (%) = 0.000366211 (3.09222)
Outpt time (%) = 1.21593e-05 (0.102671)
Other time (%) = 0.00641847 (54.1964)

Nlocal:    8 ave 8 max 8 min
Histogram: 1 0 0 0 0 0 0 0 0 0
Nghost:    2189 ave 2189 max 2189 min
Histogram: 1 0 0 0 0 0 0 0 0 0
Neighs:    2344 ave 2344 max 2344 min
Histogram: 1 0 0 0 0 0 0 0 0 0

Total # of neighbors = 2344
Ave neighs/atom = 293
Neighbor list builds = 0
Dangerous builds = 0
unfix 1
# ---- define output variables ----
variable natoms equal "count(all)"
variable tot_energy equal "c_eatoms"
variable length_x equal "lx"
variable length_y equal "ly"
variable length_z equal "lz"
variable tilt_xy equal "xy"
variable tilt_xz equal "xz"
variable tilt_yz equal "yz"
variable tot_press equal "press"
variable press_xx equal "pxx"
variable press_yy equal "pyy"
variable press_zz equal "pzz"
variable press_xy equal "pxy"
variable press_xz equal "pxz"
variable press_yz equal "pyz"

# ---- output ----
print "pypospack:output_section:begin"
pypospack:output_section:begin
print "tot_energy = ${tot_energy}"
tot_energy = -118.347671293792
print "num_atoms = ${natoms}"
num_atoms = 8
print "xx = ${length_x}"
xx = 4.32773421076983
print "yy = ${length_y}"
yy = 4.32773421076983
print "zz = ${length_z}"
zz = 4.32773421076983
print "xy = ${tilt_xy}"
xy = 0
print "xz = ${tilt_xz}"
xz = 0
print "yz = ${tilt_yz}"
yz = 0
print "tot_press = ${tot_press}"
tot_press = -4.39181402043263
print "pxx = ${press_xx}"
pxx = -4.39181402021402
print "pyy = ${press_yy}"
pyy = -4.39181402042068
print "pzz = ${press_zz}"
pzz = -4.39181402066319
print "pxy = ${press_xy}"
pxy = -1.12401857084108e-10
print "pxz = ${press_xz}"
pxz = -1.60347032595802e-10
print "pyz = ${press_yz}"
pyz = -8.89166196817966e-11
print "pypospack:output_section:done"
pypospack:output_section:done
print "pypospack:lammps_sim:done"
pypospack:lammps_sim:done
#------------------------------------------------------------------------------
# RUN THERMOSTAT
# running using an NPT Nose-Hoover style thermostat
#------------------------------------------------------------------------------
variable tempdamp equal 0.1
variable pressdamp equal 1.0
# set initial velocities
velocity all create 700 8737015 mom yes dist gaussian loop all
# fix for Nose-Hoover style thermostat
fix 20 all npt temp 700 700 0.1 aniso 0.0 0.0 1.0 drag 1.0 couple xyz
variable boxx equal lx
variable boxy equal ly
variable boxz equal lz
variable boxp equal press
variable boxt equal temp
# calculate averages every 10000 steps
reset_timestep 0
fix 21 all ave/time 10 10 100 v_boxx v_boxy v_boxz v_boxp v_boxt file lattice.out
thermo_style custom step temp pe ke etotal press lx ly lz press pxx pyy pzz pxy pxz pyz vol
thermo_modify flush yes
thermo 100
run 100000
PPPM initialization ...
  G vector (1/distance) = 0.352508
  grid = 8 8 8
  stencil order = 5
  estimated absolute RMS force accuracy = 4.29555e-05
  estimated relative force accuracy = 2.9831e-06
  using double precision FFTs
  3d grid and FFT values/proc = 3375 512
Memory usage per processor = 3.06549 Mbytes
Step Temp PotEng KinEng TotEng Press Lx Ly Lz Press Pxx Pyy Pzz Pxy Pxz Pyz Volume 
       0          700   -118.34768   0.63337471   -117.71431    8339.9886    4.3277342    4.3277342    4.3277342    8339.9886    9818.7413    8729.1136     6472.111     712.4068    3761.2962   -553.62784    81.055361 
     100    236.10543    -117.8406   0.21363316   -117.62697    -4526.483    4.3609764    4.3609764    4.3609764    -4526.483    1899.1002   -10708.771   -4769.7782   -3913.5586    493.85309    3370.0339    82.937553 
     200    563.96226   -117.97409   0.51028491    -117.4638   -12744.079    4.3571223    4.3571223    4.3571223   -12744.079   -16143.656   -6525.0356   -15563.546    11666.289   -5108.9646   -755.78386    82.717854 
     300     569.5586    -117.8196   0.51534859   -117.30425    24004.284     4.346955     4.346955     4.346955    24004.284     41615.81    24153.974    6243.0689    478.40372   -3016.0516   -480.21836    82.140142 
     400    639.62649   -117.77281   0.57874749   -117.19407   -8802.5013        4.381        4.381        4.381   -8802.5013   -8675.0404   -5477.2878   -12255.176   -3952.3137    426.46838    3594.6707    84.085236 
     500     840.0796   -117.87347   0.76012168   -117.11335   -1328.8036    4.3566761    4.3566761    4.3566761   -1328.8036    20332.248   -14838.039   -9480.6202    10152.001    688.27498    1756.8663    82.692442 
     600    609.50031   -117.63805   0.55148869   -117.08656    10464.031    4.3589313    4.3589313    4.3589313    10464.031    20127.128   -817.32666     12082.29   -5001.0748   -6962.0805    6468.4855    82.820923 
     700     853.6272   -117.83907   0.77237983   -117.06669   -13950.543    4.3775581    4.3775581    4.3775581   -13950.543   -4986.3142   -15962.267   -20903.048    8637.4731   -705.53396   -3255.7867    83.887213 
     800    806.38329    -117.7915   0.72963255   -117.06187     6376.223    4.3538893    4.3538893    4.3538893     6376.223    36552.797   -4594.7849   -12829.343   -8854.7516    -1798.168   -1851.4609    82.533859 
     900    516.93815    -117.5441    0.4677365   -117.07636   -9202.3462    4.3722615    4.3722615    4.3722615   -9202.3462   -5048.5764   -6590.2845   -15968.178    23147.816    5386.3504    6655.0151    83.583081 
    1000    780.49507   -117.77436   0.70620834   -117.06815   -9850.7561    4.3706367    4.3706367    4.3706367   -9850.7561    1971.5881   -16912.813   -14611.044    4850.8419   -865.91368     2017.524    83.489934 
    1100    594.05152   -117.60858    0.5375103   -117.07107    16669.802    4.3558793    4.3558793    4.3558793    16669.802    48500.761    28859.991   -27351.345   -14196.708    3455.6928    1766.8163    82.647077 
    1200    562.51921   -117.59562    0.5089792   -117.08664   -9812.2816     4.373036     4.373036     4.373036   -9812.2816    5649.2134    2564.2665   -37650.325     348.7709   -1546.9306    4012.7606     83.62751 
    1300    625.79639   -117.64606   0.56623373   -117.07983   -1842.8127    4.3659704    4.3659704    4.3659704   -1842.8127    11314.161    13368.791   -30211.391    4358.2904   -13941.746   -3468.1549     83.22281 
    1400    777.41773   -117.77561    0.7034239   -117.07218    -203.9263    4.3608772    4.3608772    4.3608772    -203.9263    18926.202     2292.772   -21830.753   -1349.6084    5389.6937    4306.7918    82.931893 
    1500    715.14187   -117.72285   0.64707539   -117.07578   -13621.219    4.3704269    4.3704269    4.3704269   -13621.219    13498.721   -10822.695   -43539.683    442.79057   -6689.5951    2654.5473    83.477913 
    1600    543.79051   -117.57092   0.49203308   -117.07889    6394.2685    4.3651777    4.3651777    4.3651777    6394.2685   -1856.1332    45478.261   -24439.323    23.515483   -7360.3174   -2256.9053    83.177485 
    1700    611.43039   -117.63023   0.55323506   -117.07699   -5845.6166    4.3698993    4.3698993    4.3698993   -5845.6166    25048.714   -7944.6481   -34640.916    -5564.045    4384.7063    5530.9974    83.447682 
    1800    797.50114    -117.7935   0.72159579    -117.0719    5846.6413    4.3547397    4.3547397    4.3547397    5846.6413    7892.4059    33943.878    -24296.36    1333.4031   -7433.4653    5149.4847    82.582231 
    1900     677.6016   -117.69465   0.61310817   -117.08154   -11157.172    4.3754427    4.3754427    4.3754427   -11157.172    9769.6463   -20148.245   -23092.916   -1170.0939    2553.9558    726.11598    83.765657 
    2000    839.83317   -117.83904    0.7598987   -117.07914   -16670.626    4.3661853    4.3661853    4.3661853   -16670.626   -12893.294   -22492.174   -14626.409    26700.745    246.15631    -3260.103    83.235094 
    2100    549.59564   -117.57505   0.49728569   -117.07776    28958.418    4.3485461    4.3485461    4.3485461    28958.418    101014.32   -4680.5953   -9458.4756   -13326.482    -4169.616    2156.7886     82.23037 
    2200    898.58883   -117.89492   0.81306205   -117.08186   -36953.808    4.3891551    4.3891551    4.3891551   -36953.808   -24300.194   -30187.985   -56373.246   -6873.4716   -1372.2944    2839.3393    84.555681 
    2300    768.29591   -117.77301   0.69517028   -117.07784    24044.081    4.3471073    4.3471073    4.3471073    24044.081    54689.689    14497.267    2945.2866   -10792.685    5055.2673   -1103.9934    82.148774 
    2400    701.04503   -117.72415   0.63432027   -117.08983    2730.8664     4.367774     4.367774     4.367774    2730.8664    8761.3443    30607.734   -31176.479    12963.049   -6472.2225    3379.2191    83.325988 
    2500    547.92677   -117.57074   0.49577566   -117.07497   -22639.968    4.3889375    4.3889375    4.3889375   -22639.968   -37106.697    22944.516   -53757.723   -996.27115   -4581.0735    4989.3891    84.543101 
    2600    625.85944   -117.61815   0.56629077   -117.05186    53987.006    4.3311969    4.3311969    4.3311969    53987.006    69696.669    76628.386    15635.964    15926.867    2819.5926    916.74467    81.250077 
    2700    842.61083   -117.84606   0.76241199   -117.08365   -33600.971    4.3926359    4.3926359    4.3926359   -33600.971   -36057.383   -12310.038   -52435.492    5176.1539    5567.6409   -2398.3515    84.757009 
    2800    691.42192   -117.70151   0.62561308   -117.07589   -24734.025    4.3748661    4.3748661    4.3748661   -24734.025   -13395.014   -27154.348   -33652.712     5117.644    403.23078    1192.8623    83.732547 
    2900    903.62823   -117.86606   0.81762181   -117.04844    35496.702    4.3258903    4.3258903    4.3258903    35496.702    43779.449    49639.558    13071.099    -13415.44   -4183.3253   -663.57414    80.951798 
    3000    811.00768   -117.79956   0.73381679   -117.06575   -40809.513    4.4036776    4.4036776    4.4036776   -40809.513    -51825.26   -8404.1545   -62199.125   -5635.8912    1183.5331   -441.25312    85.397772 
    3100    427.32151   -117.47301   0.38664948   -117.08636    3666.8791    4.3557575    4.3557575    4.3557575    3666.8791    -9446.253     28801.13   -8354.2393    7380.2316   -453.24445    4516.9994    82.640145 
    3200    648.33652   -117.64565    0.5866285   -117.05902    30152.553    4.3207365    4.3207365    4.3207365    30152.553    16732.078    54633.146    19092.434   -10083.973    4206.9843    4179.1036    80.662808 
    3300    794.65707   -117.77918   0.71902241   -117.06016   -44905.885    4.4031563    4.4031563    4.4031563   -44905.885   -21991.881   -47088.339   -65637.435    2966.5014    2678.7948   -2417.5119    85.367449 
    3400    924.51929   -117.91136   0.83652449   -117.07484   -6497.4611    4.3490638    4.3490638    4.3490638   -6497.4611    14500.299   -14701.977   -19290.705    7976.1233   -4690.7001    11491.149    82.259741 
    3500    424.40777   -117.44776   0.38401307   -117.06375     36552.35    4.3269315    4.3269315    4.3269315     36552.35    50781.796    37017.856    21857.397   -2711.4048    2099.5521    5925.0913    81.010269 
    3600    656.07264   -117.65143   0.59362831    -117.0578    -35192.15    4.3979928    4.3979928    4.3979928    -35192.15    -32440.76   -12449.683   -60686.008   -8831.6465   -879.37513   -5997.0373    85.067476 
    3700    733.48089    -117.7266   0.66366892   -117.06293    28217.268    4.3439186    4.3439186    4.3439186    28217.268     29713.04     69317.55   -14378.787    -7561.418    2141.7522   -2415.2129    81.968131 
    3800    705.00398    -117.7048   0.63790242    -117.0669    10698.571    4.3372872    4.3372872    4.3372872    10698.571    5026.3214    20160.107    6909.2835     13106.42    268.64509    8370.1904    81.593311 
    3900    528.47463    -117.5471   0.47817495   -117.06893   -26631.334    4.3814998    4.3814998    4.3814998   -26631.334    -5195.051   -38071.408   -36627.545    2968.6976   -735.41069    3341.0954    84.114022 
    4000    1045.8777   -118.01335   0.94633215   -117.06702   -6895.6289    4.3526003    4.3526003    4.3526003   -6895.6289   -208.37093   -3731.1082   -16747.408    747.74523    8824.7464   -2129.9151    82.460574 
    4100    657.68206   -117.66864   0.59508455   -117.07356    16777.851    4.3477343    4.3477343    4.3477343    16777.851    22051.337    38799.181   -10516.965    1549.9916   -6838.9952    6246.3868    82.184325 
    4200    547.08425   -117.57103   0.49501333   -117.07602   -10604.717    4.3702885    4.3702885    4.3702885   -10604.717    3192.4989    1718.0531   -36724.704   -893.33083   -1078.1019    6152.1684    83.469983 
    4300    525.21876   -117.55033   0.47522897    -117.0751    5742.2335    4.3574992    4.3574992    4.3574992    5742.2335   -554.79152    39051.074   -21269.582   -7274.9891    2830.4081    1469.3972    82.739317 
    4400    733.21225   -117.73601   0.66342585   -117.07258    18629.613    4.3499368    4.3499368    4.3499368    18629.613    27229.333    29902.998   -1243.4925   -966.55155   -989.96598    307.85049    82.309285 
    4500    932.21701   -117.91793   0.84348954   -117.07444   -18698.975    4.3678227    4.3678227    4.3678227   -18698.975    2866.7479   -26084.745   -32878.929   -1271.0216    5945.3592    6759.4486    83.328779 
    4600    564.85585   -117.59214   0.51109344   -117.08105   -12949.455    4.3567965    4.3567965    4.3567965   -12949.455    -15146.41   -6522.7966   -17179.159    7070.5749    5219.5054    3066.3317    82.699296 
    4700    729.79932   -117.73702   0.66033776   -117.07668    10602.485    4.3421116    4.3421116    4.3421116    10602.485   -695.09225    31681.345    821.20101   -952.42416    6067.5467   -2065.5575    81.865882 
    4800    673.73527   -117.68811   0.60960983    -117.0785   -3135.8365    4.3758107    4.3758107    4.3758107   -3135.8365    10882.612    19536.582   -39826.703    723.26316   -1991.1505   -1661.0169    83.786794 
    4900    663.46456     -117.682   0.60031667   -117.08168   -4311.8951    4.3547828    4.3547828    4.3547828   -4311.8951   -12570.134    21310.464   -21676.015    3878.3798   -1720.7838    6439.5983    82.584679 
    5000    550.54606    -117.5686   0.49814564   -117.07045    29933.344    4.3255127    4.3255127    4.3255127    29933.344    21397.843    50648.631    17753.557   -5871.3444    9960.1883   -5004.0488      80.9306 
    5100    713.69708   -117.72354   0.64576812   -117.07778   -32361.263    4.3884572    4.3884572    4.3884572   -32361.263   -20775.306   -23040.818   -53267.666    369.99755   -2501.7695   -1645.8965     84.51535 
    5200    869.68868   -117.87122    0.7869126   -117.08431   -11114.045     4.350449     4.350449     4.350449   -11114.045    8412.1114   -10083.781   -31670.466    -5250.576   -2687.0008    11726.874    82.338368 
    5300    502.03164    -117.5168   0.45424877   -117.06255     39824.95    4.3180106    4.3180106    4.3180106     39824.95    34626.198    65065.482    19783.171    4490.5727    9918.4169    11965.259    80.510236 
    5400    484.63354   -117.50408   0.43850661   -117.06557    -27383.92    4.3883975    4.3883975    4.3883975    -27383.92   -40636.554    10658.014   -52173.221    7377.1398   -4174.7911   -1977.4556    84.511905 
    5500     813.3915   -117.80194   0.73597372   -117.06596     9282.789    4.3445813    4.3445813    4.3445813     9282.789    2455.7659    37172.262    -11779.66    4822.6964   -7155.5206    4993.4513    82.005654 
    5600    747.87801   -117.74206   0.67669574   -117.06536    12601.643    4.3331283    4.3331283    4.3331283    12601.643    33880.412    12299.245   -8374.7285    2522.5848    5272.3482    18141.333    81.358821 
    5700    564.36882   -117.57797   0.51065277   -117.06732   -29669.151    4.3782952    4.3782952    4.3782952   -29669.151   -31298.089   -10621.839   -47087.526   -1290.8416    1515.1269    597.76023    83.929592 
    5800    656.54085   -117.66235   0.59405196    -117.0683    21639.808    4.3419046    4.3419046    4.3419046    21639.808    8182.6426    64731.719   -7994.9366   -6536.3265    -6447.768   -4865.9008    81.854174 
    5900    696.88979   -117.70607   0.63056053   -117.07551    11750.693    4.3471719    4.3471719    4.3471719    11750.693    16501.519     36945.68    -18195.12   -2047.6918   -54.765356    8395.8443    82.152437 
    6000    516.95729   -117.54424   0.46775382   -117.07648   -7706.1906    4.3669389    4.3669389    4.3669389   -7706.1906    2942.2744     13181.32   -39242.166   -2319.8417   -1519.6959     8237.139    83.278203 
    6100    790.41684   -117.78612   0.71518577   -117.07094   -5573.0094    4.3520617    4.3520617    4.3520617   -5573.0094   -5597.9551    8576.1878   -19697.261    5122.6736   -6422.0157   -6844.6629    82.429966 
    6200    882.50984    -117.8694   0.79851345   -117.07089   -10662.603    4.3563124    4.3563124    4.3563124   -10662.603   -5835.7048   -3158.1609   -22993.942    14921.009   -1514.1862    4701.2504    82.671737 
    6300    873.84945   -117.86049   0.79067735   -117.06982   -15702.646    4.3583652    4.3583652    4.3583652   -15702.646   -8449.0914   -4812.2095   -33846.637    4744.6344   -325.26182    12708.032    82.788659 
    6400    571.29908   -117.59132   0.51692341    -117.0744    3857.2509    4.3532873    4.3532873    4.3532873    3857.2509   -13360.582    52327.638   -27395.303   -476.28809   -1802.1307    220.79726    82.499626 
    6500    608.09952   -117.62717   0.55022123   -117.07695   -4253.1053    4.3620426    4.3620426    4.3620426   -4253.1053    14977.252    11900.169   -39636.737   -12377.821   -3830.3956   -5389.8736      82.9984 
    6600    562.95886   -117.58617   0.50937701   -117.07679    13511.148    4.3552066    4.3552066    4.3552066    13511.148    68774.602    3214.1445   -31455.303   -5672.5785    677.86966    10096.738    82.608792 
    6700    463.72396   -117.49649   0.41958718    -117.0769    16789.325     4.353005     4.353005     4.353005    16789.325    75384.823    7220.8173   -32237.666   -12770.082    235.45645    3765.2745    82.483577 
    6800    489.57928   -117.52353   0.44298162   -117.08054   -11048.548    4.3610224    4.3610224    4.3610224   -11048.548   -1838.3117    13016.295   -44323.628   -7409.4763   -3246.9916   -8506.3848    82.940175 
    6900    723.19257   -117.73109   0.65435983   -117.07673   -8297.5354    4.3509722    4.3509722    4.3509722   -8297.5354   -394.34192   -3130.7089   -21367.555   -4933.3359   -1693.1347    5853.3598    82.368074 
    7000    819.98131    -117.8189   0.74193632   -117.07696   -4762.2907    4.3532119    4.3532119    4.3532119   -4762.2907    4112.2273    5887.6433   -24286.743     14267.46     4328.534    6210.2568     82.49534 
    7100    635.11336   -117.65166   0.57466391     -117.077   -12767.114    4.3594327    4.3594327    4.3594327   -12767.114    13432.858    -13322.24    -38411.96    7041.4809   -6432.3177   -5750.9899    82.849509 
    7200    557.04861   -117.57972   0.50402929   -117.07569    4428.2456    4.3491678    4.3491678    4.3491678    4428.2456    30968.835    12303.959   -29988.057   -11719.861   -2821.7827    3993.0845    82.265642 
    7300    885.00499   -117.87556   0.80077112   -117.07479    1739.7897     4.351741     4.351741     4.351741    1739.7897    18629.964    1481.1013   -14891.696    3623.2703    5620.1707    4960.9558    82.411745 
    7400    601.35876   -117.62402   0.54412204    -117.0799    6409.2003    4.3553369    4.3553369    4.3553369    6409.2003    11865.449    32325.175   -24963.023    -689.3821    -8189.447   -561.20119    82.616211 
    7500    440.73652    -117.4847   0.39878767   -117.08591   -13306.071    4.3547947    4.3547947    4.3547947   -13306.071    -12593.31    16480.194   -43805.096    3927.1956   -4594.5289   -6452.0643     82.58536 
    7600    777.82296   -117.78336   0.70379056   -117.07956   -3899.7873    4.3469931    4.3469931    4.3469931   -3899.7873    1262.7644    15065.844   -28027.971   -5040.0729    3316.3807   -4949.4716      82.1423 
    7700    853.95085    -117.8498   0.77267268   -117.07713   -3623.7355    4.3597931    4.3597931    4.3597931   -3623.7355    10451.049   -5164.9859    -16157.27    14794.055   -2766.2583    879.23313     82.87006 
    7800    432.67948   -117.47421   0.39149748   -117.08272    -9188.131    4.3550359    4.3550359    4.3550359    -9188.131   -1175.3136    10486.271    -36875.35    6066.9453   -4918.9758   -14179.845    82.599082 
    7900     642.4408   -117.65967   0.58129394   -117.07837    8118.5511    4.3370275    4.3370275    4.3370275    8118.5511    29763.736    19243.142   -24651.225   -3506.8277    8119.7704   -2328.2543     81.57865 
    8000    685.07533   -117.69897   0.61987055    -117.0791      329.217    4.3690046    4.3690046    4.3690046      329.217    3242.4644    32656.614   -34911.428    767.39672    4025.0556    631.94928    83.396439 
    8100    755.79443   -117.76091   0.68385868   -117.07705    5106.7463     4.349502     4.349502     4.349502    5106.7463    14769.502    16386.813   -15836.077   -1517.3532   -4362.2273    630.53113    82.284606 
    8200    513.83849   -117.53759   0.46493187   -117.07266    10765.078    4.3363468    4.3363468    4.3363468    10765.078    5545.1374     45524.91   -18774.815    1999.7368    7950.2801   -4067.4781    81.540249 
    8300     855.9136    -117.8474   0.77444861   -117.07295   -31557.494    4.3695865    4.3695865    4.3695865   -31557.494   -34508.063   -11290.317   -48874.102   -5897.0032    5887.3902    1430.0316    83.429763 
    8400    821.01782   -117.81852   0.74287418   -117.07564    7988.6469    4.3427818    4.3427818    4.3427818    7988.6469    15064.614    15811.301   -6909.9742    11378.796    82.069596    11829.685    81.903797 
    8500    581.85036    -117.6044   0.52647044   -117.07793     1120.891    4.3423488    4.3423488    4.3423488     1120.891     9448.479    11267.876   -17353.682    7856.7175    3695.4306   -743.66713    81.879298 
    8600    619.51994   -117.63605   0.56055466    -117.0755   -24130.193     4.367364     4.367364     4.367364   -24130.193    -23867.13   -953.65426   -47569.795   -6851.7268    6424.5816    -4965.019    83.302528 
    8700    580.28929   -117.59708   0.52505795   -117.07202     20381.17    4.3442204    4.3442204    4.3442204     20381.17    45956.661    30472.615   -15285.766   -5750.2461   -916.23394    10344.589    81.985218 
    8800    817.75147   -117.81205   0.73991872   -117.07213    5106.9504    4.3458183    4.3458183    4.3458183    5106.9504    14130.743    12621.048    -11430.94   -2947.6801    -676.1353    6638.7295     82.07572 
    8900    654.41326   -117.66832   0.59212687    -117.0762   -9628.8694    4.3608374    4.3608374    4.3608374   -9628.8694   -3098.1087    3651.9552   -29440.455    9333.6113    3477.5354   -8088.5484    82.929622 
    9000    683.07253   -117.69112   0.61805838   -117.07306    8048.9668    4.3453008    4.3453008    4.3453008    8048.9668    27865.135    11145.467   -14863.702   -3259.7596    1215.4993    4784.4741    82.046401 
    9100    822.22989   -117.81762   0.74397089   -117.07365    1246.8687    4.3495715    4.3495715    4.3495715    1246.8687    5559.5817    14732.962   -16551.938   -924.58626   -4558.7803     13710.48    82.288553 
    9200    733.42363   -117.73891   0.66361711   -117.07529   -7277.7993    4.3572363    4.3572363    4.3572363   -7277.7993    10231.801   -14716.921   -17348.277    14459.338    2740.5997   -678.23076    82.724348 
    9300    699.78729   -117.70726   0.63318225   -117.07408   -7723.4957    4.3517329    4.3517329    4.3517329   -7723.4957   -2878.9654    2597.4247   -22888.946    2952.7177    7073.8553   -872.27774    82.411284 
    9400     502.6862   -117.53122   0.45484104   -117.07638    923.58436    4.3524077    4.3524077    4.3524077    923.58436    20553.089    10218.777   -28001.113   -1617.3477   -7005.3388    14881.806    82.449628 
    9500    823.97426   -117.81809   0.74554923   -117.07254   -693.09521    4.3453097    4.3453097    4.3453097   -693.09521    11772.472   -3810.7208   -10041.036   -17679.302    5175.3364    5285.6602    82.046904 
    9600     510.9255   -117.54099   0.46229613    -117.0787   -2765.6996    4.3580141    4.3580141    4.3580141   -2765.6996   -10804.147    27379.875   -24872.827    2897.1953    2587.1807   -2170.4132    82.768656 
    9700    566.88158   -117.59024   0.51292636   -117.07731    3310.5575    4.3470159    4.3470159    4.3470159    3310.5575    10622.726    19783.922   -20474.976   -5104.0539   -5227.1958    8607.6216    82.143589 
    9800    714.14393   -117.72224   0.64617243   -117.07607    8191.3596    4.3480933    4.3480933    4.3480933    8191.3596    8182.6701    28382.554   -11991.145   -5218.3747     1362.305    9098.0608    82.204683 
    9900    669.66387   -117.67742   0.60592595   -117.07149   -28194.738    4.3685406    4.3685406    4.3685406   -28194.738    -25539.94   -21513.102   -37531.172   -1520.8682    3534.1495    99.625183    83.369868 
   10000    723.53954   -117.72043   0.65467378   -117.06575    1356.2437    4.3346355    4.3346355    4.3346355    1356.2437   -1489.7192    16801.228   -11242.777    8172.7955   -1833.2073    -5218.857    81.443747 
   10100    682.58667   -117.69469   0.61761876   -117.07708   -2984.6761    4.3549608    4.3549608    4.3549608   -2984.6761    2641.3235    4219.1512   -15814.503   -997.86924    -1191.418    7774.9527    82.594809 
   10200    740.93211    -117.7446   0.67041094   -117.07419   -21174.434    4.3634432    4.3634432    4.3634432   -21174.434   -24189.596    -13901.57   -25432.137   -19688.379     1817.746    919.89406    83.078371 
   10300    458.99835   -117.48375   0.41531136   -117.06844    28995.653    4.3315805    4.3315805    4.3315805    28995.653    37164.231    52097.966   -2275.2363   -294.15208    48.660702   -10123.615    81.271667 
   10400    697.08819   -117.70585   0.63074005   -117.07511   -15637.596    4.3673442    4.3673442    4.3673442   -15637.596   -15244.481    12615.732   -44284.039   -4943.3505   -3812.4379   -162.35516    83.301392 
   10500    624.73328   -117.63842    0.5652718   -117.07315    22478.153    4.3456045    4.3456045    4.3456045    22478.153    37640.963    28346.368    1447.1283   -20371.837   -1960.3081   -477.27674    82.063605 
   10600    645.69766   -117.66134   0.58424082    -117.0771    4665.9456    4.3475548    4.3475548    4.3475548    4665.9456    19881.651    4665.6477   -10549.462   -9188.8986     -1725.12   -8114.9286    82.174144 
   10700    729.17449   -117.72773    0.6597724   -117.06796   -28890.642    4.3692058    4.3692058    4.3692058   -28890.642   -21279.388   -12964.525   -52428.013    10376.136   -3519.2814   -7446.8564     83.40796 
   10800    990.61515   -117.95669    0.8963294   -117.06036    21317.082    4.3278678    4.3278678    4.3278678    21317.082    26719.649    24827.887    12403.711   -1038.8278   -3608.6101   -324.63341    81.062867 
   10900    751.47059    -117.7558   0.67994638   -117.07585   -15720.278    4.3621533    4.3621533    4.3621533   -15720.278   -16682.491   -17373.535   -13104.807   -15480.126    2528.9442   -2471.0011    83.004716 
   11000    677.77726   -117.69057    0.6132671   -117.07731   -13246.472    4.3557733    4.3557733    4.3557733   -13246.472   -5473.8913    3623.0095   -37888.536    2179.9825    1698.5932   -8165.7044    82.641045 
   11100    660.70241   -117.66695   0.59781743   -117.06913    31560.268    4.3317131    4.3317131    4.3317131    31560.268    60435.936    38335.316   -4090.4482   -912.17064     753.7215    2698.7682     81.27913 
   11200     682.5699   -117.69093   0.61760359   -117.07333   -7004.3706    4.3650121    4.3650121    4.3650121   -7004.3706    5244.3684   -11857.062   -14400.418   -21785.043    3138.2695    3073.4197    83.168016 
   11300     664.2399   -117.67034   0.60101822   -117.06932    13866.025    4.3474477    4.3474477    4.3474477    13866.025    37231.249    9600.7525   -5233.9263   -14153.227    5753.6295    -6758.395    82.168071 
   11400    760.91452    -117.7604   0.68849145   -117.07191   -2834.6176    4.3456538    4.3456538    4.3456538   -2834.6176    -2250.601     22716.51   -28969.762    5345.5399    986.78864   -3897.4169    82.066397 
   11500    728.22081    -117.7316   0.65890949   -117.07269   -8493.6124    4.3537858    4.3537858    4.3537858   -8493.6124   -12299.371    3499.5744   -16681.041   -9036.6938     -2868.81    4669.0744    82.527971 
   11600    712.75707   -117.71959   0.64491758   -117.07467   -2556.9404    4.3538698    4.3538698    4.3538698   -2556.9404    18251.381   -21239.417   -4682.7856   -12173.454   -1970.6666    1225.6405    82.532752 
   11700    749.02518   -117.75228   0.67773372   -117.07454    7484.9842    4.3439274    4.3439274    4.3439274    7484.9842    41128.757   -898.99604   -17774.808    3956.2752    1566.8929   -4864.9598     81.96863 
   11800    735.16817   -117.74498   0.66519561   -117.07979    9711.3712      4.34467      4.34467      4.34467    9711.3712    44129.932    395.02321   -15390.841    1570.6877   -5530.9642    544.28969    82.010673 
   11900    695.85422   -117.70963   0.62962352   -117.08001   -31093.636    4.3675812    4.3675812    4.3675812   -31093.636    -24733.36    -46106.62   -22440.928   -30483.246   -6009.0525    1962.3199    83.314953 
   12000    904.27689   -117.89198   0.81820874   -117.07377    14939.253    4.3259916    4.3259916    4.3259916    14939.253    29272.562    670.54723    14874.648   -11837.857    6518.2039   -8097.2334    80.957484 
   12100     728.9693   -117.74858   0.65958674   -117.08899    4145.6878    4.3525436    4.3525436    4.3525436    4145.6878    48197.467   -8738.6976   -27021.705    12977.158   -2103.9172   -5570.2195    82.457353 
   12200    616.97028   -117.63866   0.55824768   -117.08041    -17802.89    4.3657777    4.3657777    4.3657777    -17802.89   -6952.7951   -14590.815   -31865.061    36.205313   -2764.5801     3660.841    83.211788 
   12300     781.4554   -117.76879   0.70707727   -117.06171    35956.166    4.3186646    4.3186646    4.3186646    35956.166    57245.612    33933.329    16689.556   -10817.785    2402.5532   -7282.1156    80.546829 
   12400    789.32231   -117.79019   0.71419541   -117.07599   -20780.031    4.3626405    4.3626405    4.3626405   -20780.031   -21845.152   -14747.281   -25747.658    2431.9144    36.367264   -3800.2037    83.032529 
   12500    543.45765   -117.57092    0.4917319   -117.07919   -5919.3539    4.3483614    4.3483614    4.3483614   -5919.3539   -26546.858     33732.85   -24944.053     10590.46     2997.299    3005.0503    82.219893 
   12600    725.06715   -117.73078   0.65605599   -117.07472    17450.659    4.3343954    4.3343954    4.3343954    17450.659    38166.788    21322.311   -7137.1219   -12304.892   -5853.0923   -2635.6937    81.430213 
   12700    928.64494   -117.91004   0.84025746   -117.06979   -10262.371    4.3644528    4.3644528    4.3644528   -10262.371     15262.54       -14769   -31280.654    -10586.34   -237.66391    2550.0659    83.136051 
   12800    674.69371   -117.68386   0.61047705   -117.07338    14092.726    4.3373288    4.3373288    4.3373288    14092.726    37947.091     8287.948    -3956.861    11597.823    4180.6008     739.2297    81.595655 
   12900    488.55994   -117.52533    0.4420593   -117.08327   -23087.802    4.3525247    4.3525247    4.3525247   -23087.802   -25258.927   -5972.7637   -38031.715    12653.663   -950.67952    3114.9912    82.456277 
   13000    1068.9465   -118.04006   0.96720521   -117.07286   -12627.443    4.3510253    4.3510253    4.3510253   -12627.443    -1228.995   -8559.4707   -28093.863   -949.90469   -4072.9083    3124.6212    82.371091 
   13100    1025.7926   -118.00052   0.92815871   -117.07236   -442.40847    4.3469627    4.3469627    4.3469627   -442.40847    15925.575     -6488.29   -10764.511    6909.1171     6061.963   -5135.5283    82.140578 
   13200    455.29118   -117.49437   0.41195703   -117.08241    -9542.611    4.3477198    4.3477198    4.3477198    -9542.611    1888.7713   -3535.3972   -26981.207    13105.688   -2239.5405    5096.2257      82.1835 
   13300    461.48348   -117.50444   0.41755995   -117.08688    6292.7981     4.347168     4.347168     4.347168    6292.7981    24367.192    23135.362    -28624.16   -132.64381   -5370.8861    2390.7126    82.152213 
   13400    980.83731   -117.96316   0.88748221   -117.07568    2684.5384    4.3539716    4.3539716    4.3539716    2684.5384     16222.39    13994.624   -22163.399   -11200.698    20.525184   -3247.7246    82.538537 
   13500    851.27519   -117.84557   0.77025168   -117.07531    4663.8598    4.3405781    4.3405781    4.3405781    4663.8598    5888.0517    17191.952   -9088.4242   -1922.0813   -3463.3268    205.95836    81.779177 
   13600    349.03117   -117.39912   0.31581073   -117.08331    -16910.01    4.3564153    4.3564153    4.3564153    -16910.01   -32622.357    25401.372   -43509.045    13710.565    -5097.723   -3562.2407    82.677593 
   13700    745.72423   -117.75199   0.67474696   -117.07724    5836.5507     4.345715     4.345715     4.345715    5836.5507    15087.386    17190.325   -14768.058    -1232.599   -1552.5657    1168.0711    82.069866 
   13800    808.88947   -117.80657   0.73190019   -117.07467    11499.732    4.3456346    4.3456346    4.3456346    11499.732    36203.716    7164.4617   -8868.9834    -3551.645    2081.7678   -5140.8168    82.065308 
   13900    473.81814   -117.50537   0.42872061   -117.07665    -8324.572    4.3564071    4.3564071    4.3564071    -8324.572    13090.868    -4394.047   -33670.537    4403.8808   -1837.3309   -5790.3323    82.677126 
   14000    683.68218     -117.689      0.61861   -117.07039    -3571.881    4.3445092    4.3445092    4.3445092    -3571.881    5653.2358    10364.511   -26733.389    5548.1104   -748.60482    5235.9059    82.001568 
   14100    779.39004   -117.77553   0.70520849   -117.07032   -1276.5227    4.3483186    4.3483186    4.3483186   -1276.5227    1211.3852   -8038.5283     2997.575   -13371.473   -1464.9194   -3984.1191    82.217463 
   14200    750.44925   -117.75243   0.67902225   -117.07341   -10124.993    4.3479437    4.3479437    4.3479437   -10124.993    -9791.636   -7935.1861   -12648.156   -21445.335    271.49718   -2378.8698    82.196198 
   14300    615.69259   -117.63284    0.5570916   -117.07575    3220.0575    4.3431195    4.3431195    4.3431195    3220.0575    19156.068    12716.628   -22212.524    9411.8768   -11216.069    3897.0703    81.922906 
   14400    668.73596   -117.68254   0.60508635   -117.07746   -2730.9656    4.3503067    4.3503067    4.3503067   -2730.9656    17554.476   -4030.2117   -21717.161   -3542.8756   -6188.3953   -5560.9215    82.330285 
   14500     570.0403   -117.59208   0.51578444    -117.0763    13545.346    4.3460337    4.3460337    4.3460337    13545.346    28572.227    1380.7718     10683.04   -25530.632    2454.1146    338.68649    82.087923 
   14600    795.60852   -117.79258   0.71988331    -117.0727   -3166.9406    4.3501864    4.3501864    4.3501864   -3166.9406    3531.1486    5084.4734   -18116.444    2935.1102   -12975.814   -1085.7846    82.323454 
   14700    782.24089   -117.77987     0.707788   -117.07209    -8470.429    4.3468128    4.3468128    4.3468128    -8470.429   -9850.9483    6557.4659   -22117.805    2363.9204   -8774.0438   -788.30579    82.132078 
   14800    530.52337   -117.55635   0.48002869   -117.07632    537.82887    4.3440435    4.3440435    4.3440435    537.82887    13253.913   -10503.368   -1137.0585   -21528.835    5736.9354    2915.4467    81.975203 
   14900    579.46839   -117.60121   0.52431517    -117.0769   -1324.8749     4.354867     4.354867     4.354867   -1324.8749    9262.2301   -13981.576    744.72154    -14240.79    1999.5512   -6569.8572     82.58947 
   15000     829.6626   -117.82098   0.75069616   -117.07028    13529.109    4.3397091    4.3397091    4.3397091    13529.109    38247.952    13156.483   -10817.107    5253.7574    -7857.569    1607.1312    81.730068 
   15100    475.73926   -117.50852   0.43045888   -117.07806   -8036.5983    4.3511746    4.3511746    4.3511746   -8036.5983   -5246.5466    -337.5225   -18525.726   -9058.8952   -3578.8688     993.7055     82.37957 
   15200    534.58993   -117.56071    0.4837082     -117.077    -20669.25    4.3517371    4.3517371    4.3517371    -20669.25   -24287.657   -29861.419   -7858.6748   -31906.937    9100.2816   -5951.9336    82.411528 
   15300    763.56404   -117.76455   0.69088879   -117.07367    19561.629     4.335776     4.335776     4.335776    19561.629    23990.124     17121.04    17573.722    1530.1953   -2489.1422    2027.5508     81.50805 
   15400    883.59657   -117.87477   0.79949674   -117.07527   -8057.4627    4.3518359    4.3518359    4.3518359   -8057.4627   -264.88611   -7937.4893   -15970.013    5024.5145   -15497.891   -3094.8994     82.41714 
   15500    358.78915   -117.40379   0.32463997   -117.07915    7034.3539    4.3451364    4.3451364    4.3451364    7034.3539    32929.123   -13811.287    1985.2261   -30332.712    1266.7269   -210.96143    82.037092 
   15600    594.66316   -117.61583   0.53806372   -117.07776    -6555.532     4.350207     4.350207     4.350207    -6555.532    7777.5938   -21207.646   -6236.5441   -4631.6426    4283.7656   -3555.1446    82.324624 
   15700    804.46298   -117.79911   0.72789501   -117.07121    10670.055     4.343347     4.343347     4.343347    10670.055    19084.987    7972.9724    4952.2063    18510.688   -13300.499   -3814.6322     81.93578 
   15800    762.29739   -117.76527    0.6897427   -117.07553   -17.155346    4.3430744    4.3430744    4.3430744   -17.155346   -3212.9824   -4392.3066    7553.8229   -16952.624   -23.754874    7764.0291    81.920352 
   15900    435.04067   -117.47217   0.39363394   -117.07854   -20580.508    4.3561395    4.3561395    4.3561395   -20580.508   -32367.076   -21707.668   -7666.7807   -20696.019     9104.746   -5444.7839    82.661892 
   16000    746.46407   -117.74569   0.67541638   -117.07027    226.62969    4.3405964    4.3405964    4.3405964    226.62969    12786.644   -9640.8757   -2465.8788    11055.315    4017.1304   -1090.9193     81.78021 
   16100    641.50452   -117.65432   0.58044677   -117.07387     8257.554    4.3498916    4.3498916    4.3498916     8257.554     21873.79    3946.9667    -1048.095    5277.3578    1161.3227    4917.3874    82.306721 
   16200    569.30127   -117.59106   0.51511575   -117.07594    9629.0278    4.3447691    4.3447691    4.3447691    9629.0278     29580.24    -14115.64    13422.483   -25905.664    888.63992    199.55087    82.016284 
   16300    512.48496   -117.54137   0.46370717   -117.07766   -2583.6496    4.3487635    4.3487635    4.3487635   -2583.6496    14372.956   -10590.467   -11533.438   -3325.9837    11351.802   -2147.9066    82.242701 
   16400    740.81384   -117.74372   0.67030393   -117.07341    -13565.74     4.352678     4.352678     4.352678    -13565.74   -8679.3368   -14738.095   -17279.789    20909.931   -1062.5618   -3420.1125    82.464993 
   16500    729.21197   -117.73138   0.65980631   -117.07157      11454.1    4.3415657    4.3415657    4.3415657      11454.1    5415.4167    11074.354    17872.529   -6933.6324   -5707.8297     8811.219    81.835006 
   16600    735.16744    -117.7394   0.66519495    -117.0742   -11031.217    4.3529494    4.3529494    4.3529494   -11031.217    -12283.22   -13352.919   -7457.5104   -17073.709     6730.978   -4627.9657     82.48042 
   16700    484.16884   -117.51429   0.43808615    -117.0762    5325.0229    4.3456658    4.3456658    4.3456658    5325.0229    28270.389   -4089.2848   -8206.0357    18164.878   -2461.2626   -8675.1791    82.067079 
   16800    615.92289   -117.63293   0.55729998   -117.07563     512.3398    4.3519944    4.3519944    4.3519944     512.3398    30370.924   -20350.756   -8483.1484    10790.862   -2205.2648    8833.0753    82.426146 
   16900    694.67044   -117.69861   0.62855241   -117.07006    8806.0241    4.3505096    4.3505096    4.3505096    8806.0241    27603.037    676.41488   -1861.3794   -14872.131    -3337.764   -2304.2991     82.34181 
   17000    646.43375   -117.65624   0.58490684   -117.07133    3921.2636    4.3431169    4.3431169    4.3431169    3921.2636    22765.277   -5966.8796   -5034.6068   -753.33972    4272.2357   -11959.024    81.922755 
   17100    575.25681    -117.5963   0.52050445   -117.07579   -15764.034    4.3520278    4.3520278    4.3520278   -15764.034   -13218.095   -21643.551   -12430.455    16369.812    2208.4737    3600.0625    82.428043 
   17200    880.60685   -117.86841   0.79679159   -117.07162   -5326.9676    4.3493327    4.3493327    4.3493327   -5326.9676    4675.0979   -13531.445   -7124.5557    5088.0694   -456.45229    7936.4243       82.275 
   17300    835.96514   -117.82776   0.75639883   -117.07136    -396.9134    4.3491662    4.3491662    4.3491662    -396.9134      13176.7    -3809.702   -10557.738   -13081.268    5245.3653   -10096.989     82.26555 
   17400    491.49482   -117.52134   0.44471484   -117.07662   -1523.9263     4.347365     4.347365     4.347365   -1523.9263    31577.627   -25348.464   -10800.942    16355.199    7171.0957   -10128.412    82.163385 
   17500    466.79725   -117.50315   0.42236797   -117.08078    2415.1067    4.3489746    4.3489746    4.3489746    2415.1067    31539.534    -15685.97    -8608.244    22448.126    4352.5339    12568.602    82.254678 
   17600    951.55167   -117.93499   0.86098395     -117.074    2833.5994    4.3491561    4.3491561    4.3491561    2833.5994    35366.187    -12392.44   -14472.948    1838.3776   -1782.6666    1100.2128    82.264978 
   17700    747.64956   -117.75289   0.67648903    -117.0764    3129.0441    4.3471083    4.3471083    4.3471083    3129.0441    14633.064   -2689.8929   -2556.0388     6743.037    4358.7487   -16549.531    82.148829 
   17800    472.07557   -117.50735    0.4271439   -117.08021   -13044.319    4.3501974    4.3501974    4.3501974   -13044.319    -18005.03   -25796.881    4668.9557    20765.423   -1870.5102     11301.63    82.324083 
   17900    815.42152   -117.81296   0.73781053   -117.07515   -8386.9565    4.3489729    4.3489729    4.3489729   -8386.9565   -2073.8621    -16795.96   -6291.0477     6330.211    1987.0549      8570.53    82.254585 
   18000    1074.0899   -118.04242    0.9718591   -117.07056     1891.958     4.346061     4.346061     4.346061     1891.958    5944.1224   -1132.1703    863.92181   -5821.7408   -5297.5213   -9670.0129    82.089472 
   18100    718.53777   -117.72848   0.65014807   -117.07833   -6522.8154    4.3465436    4.3465436    4.3465436   -6522.8154   -3074.4304   -21041.175     4547.159     17627.07    1467.6903    3273.5114    82.116819 
   18200    399.31505     -117.444   0.36130865   -117.08269   -7931.1564    4.3521354    4.3521354    4.3521354   -7931.1564    13842.315   -35516.185   -2119.5999    14293.561    5491.5603    18372.992    82.434153 
   18300    950.03587    -117.9351   0.85961242   -117.07549   -1833.6561    4.3487677    4.3487677    4.3487677   -1833.6561    6110.0407   -6938.4326   -4672.5765   -11082.553   -7057.9002    9559.6553    82.242939 
   18400    922.17675   -117.90617   0.83440491   -117.07176    12689.749    4.3409294    4.3409294    4.3409294    12689.749    15814.727    7901.5973    14352.921    2082.4061    4155.3043   -8140.8622     81.79903 
   18500    458.95181   -117.49704   0.41526925   -117.08177   -8622.7463    4.3526112    4.3526112    4.3526112   -8622.7463    -10527.33   -8812.6217   -6528.2869    28348.078    5522.3085     10791.19    82.461194 
   18600    414.19227   -117.45664   0.37476987   -117.08187    871.15239    4.3491719    4.3491719    4.3491719    871.15239    -9301.089    12764.331   -849.78437    4383.0071    4153.9528    14097.155    82.265872 
   18700    1007.5237   -117.98518   0.91162864   -117.07355    13757.803     4.337532     4.337532     4.337532    13757.803    12432.276    21019.377    7821.7554   -7624.9975     3725.082   -5033.9847    81.607124 
   18800    782.48504   -117.78782    0.7080089   -117.07981   -6180.7375    4.3570216    4.3570216    4.3570216   -6180.7375    -18336.14    1234.3499   -1440.4227    11533.421     -3287.33    926.39934    82.712118 
   18900    462.80447     -117.499   0.41875521   -117.08025    -8729.253    4.3501165    4.3501165    4.3501165    -8729.253   -4945.4277   -20249.781   -992.55019    14879.734    8671.3318    9377.4251    82.319491 
   19000    736.17176   -117.73976   0.66610368   -117.07366    7018.7106    4.3376064    4.3376064    4.3376064    7018.7106    5714.8295    5132.1026      10209.2   -8964.3584   -2462.9069    9988.3494    81.611324 
   19100    919.05269   -117.90151   0.83157819   -117.06993   -9886.1371    4.3582503    4.3582503    4.3582503   -9886.1371   -21286.218    1344.9337   -9717.1267   -9015.8891   -1859.4357   -6099.4285    82.782115 
   19200    554.71578   -117.57705    0.5019185   -117.07513    -4325.927    4.3466742    4.3466742    4.3466742    -4325.927   -14970.804   -4127.9023    6120.9249    16538.543     16099.82    7415.9687    82.124223 
   19300    380.69615   -117.42202   0.34446188   -117.07755     10752.64    4.3367257    4.3367257    4.3367257     10752.64    8554.0672    14985.403    8718.4509    6087.8499   -112.24848    24655.569    81.561621 
   19400     861.8776   -117.85408   0.77984496   -117.07423   -14181.087    4.3585304    4.3585304    4.3585304   -14181.087   -22113.893   -6549.9259   -13879.442   -15339.567    2415.5235   -3231.1665    82.798073 
   19500    677.52721   -117.68696   0.61304086   -117.07392    -4487.979    4.3483231    4.3483231    4.3483231    -4487.979   -14164.795   -2553.3417       3254.2    8323.0239    3200.3415   -100.14664    82.217719 
   19600      500.818   -117.52934   0.45315065   -117.07619   -512.29317    4.3364719    4.3364719    4.3364719   -512.29317   -756.00291   -11857.054    11076.177    15222.551    3648.8048    20591.332    81.547305 
   19700    649.14472   -117.66529   0.58735979   -117.07793   -5319.7829    4.3569277    4.3569277    4.3569277   -5319.7829    5462.7959   -17371.197   -4050.9474   -625.25538    3715.4106    9658.2751    82.706772 
   19800    987.19056   -117.96552   0.89323076   -117.07229    45.803232    4.3463301    4.3463301    4.3463301    45.803232   -10512.777   -6823.1228    17473.309   -3710.2572   -8804.4996   -10382.683    82.104722 
   19900    492.77805   -117.52268   0.44587593    -117.0768    4975.2529    4.3406712    4.3406712    4.3406712    4975.2529    1073.1064   -2097.1378     15949.79      9232.37    5815.1251    4530.0941    81.784435 
   20000    544.08987   -117.56877   0.49230395   -117.07647   -9754.1526    4.3558104    4.3558104    4.3558104   -9754.1526   -2124.4134   -4957.2216   -22180.823    13084.976    3462.2988    22734.913    82.643158 
   20100    1015.5466   -117.99108   0.91888794   -117.07219    15746.653    4.3371777    4.3371777    4.3371777    15746.653    15289.824    16592.413    15357.722   -6105.0436    1204.9977   -7373.3963    81.587131 
   20200    825.54564   -117.82595   0.74697104   -117.07897    4580.5245    4.3453459    4.3453459    4.3453459    4580.5245   -1489.6065    16257.093   -1025.9132     -2159.53    1646.7208   -8161.4819    82.048958 
   20300    434.50541   -117.47387   0.39314963   -117.08072   -18144.315    4.3578878    4.3578878    4.3578878   -18144.315   -6802.8061   -19700.964   -27929.176    12634.432    2428.3892    18637.655    82.761458 
   20400     711.0383   -117.71719   0.64336239   -117.07382      16850.7    4.3358294    4.3358294    4.3358294      16850.7     12812.86    9461.7573    28277.484    2238.6537    6142.5323    12512.983    81.511065 
   20500    1081.1968   -118.04762   0.97828956   -117.06933   -2089.3341    4.3502218    4.3502218    4.3502218   -2089.3341    25.278719   -2936.9553   -3356.3257   -574.27687   -6398.8603   -5601.0881    82.325468 
   20600    605.89417   -117.62668   0.54822578   -117.07845   -4246.5731    4.3470608    4.3470608    4.3470608   -4246.5731   -1465.3265   -10981.508   -292.88517    6446.3323    871.76844   -4119.1862    82.146135 
   20700    445.93679   -117.48552   0.40349298   -117.08202   -341.34309    4.3394811    4.3394811    4.3394811   -341.34309   -3247.6889    -7921.071    10144.731    12490.309     7831.214    22402.784    81.717188 
   20800    885.59653    -117.8782   0.80130636   -117.07689   -9526.2047    4.3548797    4.3548797    4.3548797   -9526.2047   -13659.386    -3619.294   -11299.934    1115.1816   -4260.1671    229.76935    82.590193 
   20900    1037.5029   -118.01052    0.9387544   -117.07177    8278.5497    4.3400251    4.3400251    4.3400251    8278.5497    9974.7175    5715.9154    9145.0163   -5651.0479   -2534.9444   -15540.019    81.747921 
   21000    500.62644   -117.53328   0.45297732   -117.08031   -11034.691    4.3480358    4.3480358    4.3480358   -11034.691   -5344.7844   -9448.2579   -18311.031    12975.112    7442.7329    23420.854    82.201421 
   21100    496.57813   -117.53143   0.44931433   -117.08212    -13190.13    4.3503348    4.3503348    4.3503348    -13190.13   -17177.938   -19073.876    -3318.576    5929.9708    7402.4671    11423.938     82.33188 
   21200    1054.5689   -118.02803   0.95419614   -117.07384    12441.317    4.3379199    4.3379199    4.3379199    12441.317    12267.469    8652.4004    16404.082   -13376.178   -576.77525   -1178.3195     81.62902 
   21300    830.22528   -117.82895   0.75120528   -117.07774   -4491.5315     4.353566     4.353566     4.353566   -4491.5315   -9387.1548   -10031.043    5943.6037     6959.752     170.7459     4540.594    82.515474 
   21400    376.88409   -117.42286   0.34101265   -117.08185   -549.27407    4.3450035    4.3450035    4.3450035   -549.27407   -9474.9569   -13729.271    21556.406    13639.529    7382.9639     15893.54    82.029564 
   21500    607.22616   -117.62917   0.54943099   -117.07974    5830.0772    4.3487933    4.3487933    4.3487933    5830.0772   -7495.5395   -16618.209    41603.981   -5523.8749      5572.64    5747.2481    82.244395 
   21600    1062.0904   -118.03067   0.96100169   -117.06967    879.61631    4.3513984    4.3513984    4.3513984    879.61631   -5813.9273   -8089.6692    16542.445   -2308.5939   -85.784308   -8272.1498    82.392283 
   21700    718.25196   -117.72558   0.64988946   -117.07569    2318.1811    4.3401027    4.3401027    4.3401027    2318.1811    728.01078   -12598.693    18825.225    13089.432    4628.7874    14974.932    81.752308 
   21800    401.24792   -117.44583   0.36305755   -117.08277   -7328.7927    4.3537446    4.3537446    4.3537446   -7328.7927   -10001.707   -28495.076    16510.405    3304.0317    4528.6008    6372.6349    82.525629 
   21900     1056.518    -118.0265   0.95595972   -117.07054   -7952.9326    4.3498579    4.3498579    4.3498579   -7952.9326   -12028.965   -8839.4741   -2990.3584   -8986.2452   -2161.6649   -5612.4462    82.304807 
   22000    876.33919   -117.86278   0.79293012   -117.06985    7749.5328    4.3441903    4.3441903    4.3441903    7749.5328      16889.6   -2527.8394    8886.8376    5031.2943   -5144.0095   -3513.9176    81.983515 
   22100     613.6247   -117.62908   0.55522052   -117.07386   -15235.635    4.3558375    4.3558375    4.3558375   -15235.635   -14809.502   -29472.723   -1424.6812    8534.2339    2590.0212    15082.412    82.644698 
   22200    639.90006    -117.6514   0.57899503   -117.07241    10756.552    4.3432219    4.3432219    4.3432219    10756.552   -5735.1982    7007.0129     30997.84   -9317.5153    3430.8709    5576.3432    81.928697 
   22300     906.0709   -117.89121   0.81983199   -117.07138      4831.77    4.3449477    4.3449477    4.3449477      4831.77    1066.8967   -4665.5047    18093.918   -482.81519   -5663.5686    -15663.61    82.026403 
   22400    624.76231    -117.6404   0.56529807    -117.0751   -1706.2093    4.3524774    4.3524774    4.3524774   -1706.2093    3988.2241   -14493.763    5386.9107    5925.4463    4437.7756    8848.2147    82.453592 
   22500    642.21852   -117.65506   0.58109281   -117.07397    1241.2408    4.3450202    4.3450202    4.3450202    1241.2408   -283.90317   -2159.1173     6166.743    -1545.886    6914.4933    13252.258    82.030508 
   22600    749.10714   -117.74812   0.67780789   -117.07031    3259.1425    4.3483244    4.3483244    4.3483244    3259.1425    17371.148   -10118.158    2524.4372   -7278.5137    7132.6725   -10664.366    82.217794 
   22700    708.16258    -117.7112   0.64076038   -117.07044   -5897.3067     4.348575     4.348575     4.348575   -5897.3067    21706.754   -15454.306   -23944.368    194.81426   -5243.3669   -10765.744    82.232009 
   22800    657.14102   -117.66712     0.594595   -117.07253    -2659.884    4.3437658    4.3437658    4.3437658    -2659.884    16416.163   -11245.544   -13150.272    8594.9799    5092.8137    14340.213    81.959484 
   22900    678.94306   -117.68832   0.61432195     -117.074   -2981.8938    4.3489874    4.3489874    4.3489874   -2981.8938     10248.24    -20002.28    808.35842   -6410.8779    3489.8937    2475.1454    82.255407 
   23000     707.3117   -117.71383   0.63999049   -117.07384   -5100.1694    4.3464724    4.3464724    4.3464724   -5100.1694    6032.8324   -16032.811   -5300.5298   -958.90947   -11979.235    -27249.48    82.112786 
   23100     592.0775   -117.60938   0.53572417   -117.07366   -487.50334    4.3457342    4.3457342    4.3457342   -487.50334    17812.181   -11024.515   -8250.1764    2742.3803    15.333416    9409.7523    82.070954 
   23200    863.35679   -117.85139   0.78118337    -117.0702   -11295.573    4.3490112    4.3490112    4.3490112   -11295.573   -2539.6701   -21889.792   -9457.2559    714.63205   -3521.8367    17804.845    82.256755 
   23300    625.48618   -117.63919   0.56595304   -117.07324     5074.128    4.3430415    4.3430415    4.3430415     5074.128    17876.309   -7978.6314    5324.7063   -732.37814    2674.5235   -27900.449    81.918491 
   23400    685.45686   -117.69617   0.62021578   -117.07596   -5807.6059    4.3445942    4.3445942    4.3445942   -5807.6059    10527.894   -8277.0849   -19673.627   -8744.6533   -6007.8063      -5666.5    82.006381 
   23500    768.40205   -117.76831   0.69526632   -117.07304    -693.5357    4.3482344    4.3482344    4.3482344    -693.5357    22997.936   -8720.7249   -16357.818    3950.0838    1029.3901    24237.004    82.212688 
   23600    793.69608   -117.78938    0.7181529   -117.07123   -7720.4653    4.3491688    4.3491688    4.3491688   -7720.4653   -730.94553   -6197.5738   -16232.876   -1718.8963    7669.4486     -12873.8      82.2657 
   23700    506.35016   -117.53218   0.45815627   -117.07402    1326.1311    4.3456777    4.3456777    4.3456777    1326.1311     25179.17   -11682.225   -9518.5512    -1604.465   -8238.8418   -24777.563    82.067751 
   23800    810.10033   -117.80495    0.7329958   -117.07196    1669.3756    4.3421645    4.3421645    4.3421645    1669.3756     13372.72    429.97967   -8794.5727    4172.6606   -3261.0223    8852.6619    81.868873 
   23900    771.58318   -117.77127   0.69814468   -117.07313   -1051.8987    4.3489291    4.3489291    4.3489291   -1051.8987    9137.1342   -5614.8797   -6677.9507   -2330.9572   -6608.6473    10015.747    82.252099 
   24000     513.8188   -117.54242   0.46491404   -117.07751    934.82236    4.3444385    4.3444385    4.3444385    934.82236     19156.29   -12369.804   -3982.0185    2664.4765   -864.41813   -24589.702    81.997568 
   24100    673.06892   -117.68588    0.6090069   -117.07687    1054.2972    4.3451881    4.3451881    4.3451881    1054.2972   -2339.7242   -12184.617    17687.232    -8652.593   -6411.0098     -11016.8    82.040016 
   24200    841.16445   -117.83325   0.76110327   -117.07215    2182.1238    4.3488007    4.3488007    4.3488007    2182.1238    8343.3988   -460.25643   -1336.7709   -1559.4806   -8115.6107    18267.462    82.244812 
   24300    660.28141   -117.67181    0.5974365   -117.07437   -3834.5765    4.3446127    4.3446127    4.3446127   -3834.5765    3878.6197    -14724.21   -658.13879    1909.6061    6140.0145   -17004.961    82.007429 
   24400    465.79737   -117.49806   0.42146325   -117.07659   -4590.0738    4.3497185    4.3497185    4.3497185   -4590.0738    22.928015   -17170.793    3377.6438   -9896.3466   -1147.9689    -16421.93    82.296896 
   24500    917.98037    -117.9004   0.83060793   -117.06979    1081.9426    4.3448964    4.3448964    4.3448964    1081.9426    -9825.258    1999.3203    11071.766    957.05392   -769.58997    8978.4212    82.023497 
   24600     813.8697   -117.80903   0.73640641   -117.07262    705.41154    4.3438847    4.3438847    4.3438847    705.41154    12227.974    3241.5117   -13353.251    611.89184    933.28851   -9147.7291    81.966211 
   24700    482.59996   -117.51669   0.43666659   -117.08002    -14877.93    4.3508606    4.3508606    4.3508606    -14877.93    -7607.261    -23436.67   -13589.858   -2318.3812    3289.3596   -15649.476    82.361736 
   24800    630.08866   -117.64565   0.57011746   -117.07553    3532.5685    4.3473076    4.3473076    4.3473076    3532.5685    447.43656    5495.3144    4654.9544   -2922.0829   -1887.6064    -3811.762     82.16013 
   24900     953.1843   -117.93176   0.86246118    -117.0693    4105.6924    4.3455236    4.3455236    4.3455236    4105.6924     4727.684    3727.4548    3861.9384    292.51239   -7607.0142    6656.8828    82.059021 
   25000    488.30174   -117.51669   0.44182567   -117.07486   -1640.0007    4.3487064    4.3487064    4.3487064   -1640.0007    10792.248   -8226.7428   -7485.5076    274.61669    2131.3374   -12204.772    82.239463 
   25100    488.62234   -117.51956   0.44211576   -117.07745   -7157.5295    4.3482573    4.3482573    4.3482573   -7157.5295   -7124.2277   -26990.661      12642.3   -4112.1021   -5263.7705   -13082.597    82.213987 
   25200    753.00806   -117.75303   0.68133752   -117.07169    16546.429    4.3459583    4.3459583    4.3459583    16546.429    10323.824    3951.7443    35363.718    1269.5957   -5769.0999    9766.1211    82.083648 
   25300     826.9522   -117.81957   0.74824373   -117.07132   -2412.3802    4.3509317    4.3509317    4.3509317   -2412.3802    -5925.693   -8339.5107     7028.063   -1452.5469    629.11134   -11837.805    82.365775 
   25400    314.41932   -117.36165   0.28449321   -117.07715   -6859.0456    4.3501276    4.3501276    4.3501276   -6859.0456   -5056.3687   -25367.972    9847.2041   -973.58759    3748.3427   -17961.909    82.320121 
   25500    748.65256   -117.75128   0.67739657   -117.07388    376.79932    4.3459867    4.3459867    4.3459867    376.79932   -12785.068   -5756.4049    19671.871   -1948.3337    6818.1404   -4257.0362    82.085262 
   25600    982.14676   -117.95824   0.88866703   -117.06958    33.351449    4.3529505    4.3529505    4.3529505    33.351449   -7603.1479    4630.6253    3072.5769   -1690.5964   -3829.9228    758.12889    82.480481 
   25700    558.60568   -117.58165   0.50543816   -117.07622   -5933.8963    4.3465141    4.3465141    4.3465141   -5933.8963    10377.613    -13276.36   -14902.941    2034.8839    8240.8102   -11026.785    82.115146 
   25800    489.37219    -117.5213   0.44279424    -117.0785   -8891.9741    4.3489819    4.3489819    4.3489819   -8891.9741   -15873.535   -16019.065    5216.6777    1141.3287    4697.5604   -9413.4118    82.255094 
   25900    918.45796   -117.90402   0.83104006   -117.07298   -1054.4489    4.3531771    4.3531771    4.3531771   -1054.4489   -2235.9199   -10510.588    9583.1616    2172.5547   -2269.0434    7992.0174    82.493365 
   26000    858.82696   -117.84886   0.77708468   -117.07177    11522.085    4.3426644    4.3426644    4.3426644    11522.085    15674.213    3244.8619     15647.18    3213.3684   -628.41308    -5717.761    81.897151 
   26100    404.86363   -117.44621   0.36632912   -117.07988   -6114.5383    4.3529603    4.3529603    4.3529603   -6114.5383   -10266.369   -32696.397    24619.151   -5328.3322     -1911.78   -9776.6453    82.481035 
   26200    634.95588   -117.65025   0.57452142   -117.07573    3374.4491    4.3457301    4.3457301    4.3457301    3374.4491    -8949.999   -10685.198    29758.544    -3859.052    1030.9246   -704.17887     82.07072 
   26300    960.21914   -117.94045   0.86882646   -117.07162    9618.8384      4.34193      4.34193      4.34193    9618.8384    2641.3662    2771.5943    23443.555    3536.7429   -7138.7209    6984.9706     81.85561 
   26400    693.60595   -117.70433   0.62758924   -117.07674   -17042.756    4.3564474    4.3564474    4.3564474   -17042.756    -5460.625   -32150.852    -13516.79   -5089.6482    1721.9347   -11585.884    82.679422 
   26500    658.93581   -117.67245   0.59621897   -117.07623    1778.4735    4.3354543    4.3354543    4.3354543    1778.4735    2875.8295   -7747.8788     10207.47   -11572.294    4241.2665   -16912.658    81.489908 
   26600    885.67544   -117.88023   0.80137775   -117.07885    -7248.584     4.350713     4.350713     4.350713    -7248.584   -22070.601     6264.174   -5939.3254   -2954.1121   -8889.5529    7688.9675    82.353355 
   26700    752.55108   -117.75815   0.68092404   -117.07722   -13677.925    4.3537541    4.3537541    4.3537541   -13677.925   -245.67983   -26554.813   -14233.281    2414.8694   -354.58629   -2492.0308     82.52617 
   26800    586.25266   -117.60496   0.53045373   -117.07451    20320.545    4.3286389    4.3286389    4.3286389    20320.545    19722.386    4896.3405     36342.91   -7603.2865   -623.20787   -14367.928    81.106206 
   26900    852.68595    -117.8492   0.77152817   -117.07767   -10484.412    4.3603624    4.3603624    4.3603624   -10484.412   -18509.945   -25679.539    12736.248   -4890.2174    4474.7902    488.51499    82.902523 
   27000    887.03108   -117.87724   0.80260436   -117.07463      10911.9    4.3432392    4.3432392    4.3432392      10911.9    959.34679     2425.189    29351.164    2981.3827   -6350.3537    2744.8317    81.929675 
   27100     611.7903   -117.63138   0.55356072   -117.07782    771.36879    4.3334475    4.3334475    4.3334475    771.36879    22012.205    -16775.08   -2923.0184   -5604.0213   -6604.2908    -5608.807    81.376803 
   27200    534.45012   -117.56321    0.4835817   -117.07963   -15523.356    4.3583771    4.3583771    4.3583771   -15523.356    5354.7092   -40171.223   -11753.555   -9850.2125    5114.6382   -11483.268    82.789338 
   27300    1226.1624   -118.18088    1.1094575   -117.07142    6179.0801    4.3397001    4.3397001    4.3397001    6179.0801   -5208.1716   -4738.3927    28483.805   -2475.8854   -3170.8484    971.40501    81.729558 
   27400    626.07199   -117.64586   0.56648309   -117.07938    5840.2788    4.3433011    4.3433011    4.3433011    5840.2788    22587.495   -9803.7953    4737.1363    4990.8221    5665.8463   -5783.3436     81.93318 
   27500    365.04734    -117.4119   0.33030251    -117.0816   -15046.909    4.3526406    4.3526406    4.3526406   -15046.909   -4926.5619   -47445.224      7231.06   -14281.939   -5464.3936   -14832.284    82.462866 
   27600    795.45221   -117.79578   0.71974188   -117.07604    10910.849    4.3417528    4.3417528    4.3417528    10910.849   -526.51544   -13955.185    47214.247   -8332.9562    1266.6495    287.24679    81.845591 
   27700    1084.0812   -118.05459   0.98089948   -117.07369    6141.6694    4.3416188    4.3416188    4.3416188    6141.6694    2046.7086   -10979.376    27357.675    11209.534    4603.9022    1294.4898    81.838009 
   27800    610.07021   -117.63466   0.55200435   -117.08265   -16666.157    4.3537936    4.3537936    4.3537936   -16666.157   -9545.7316   -36398.394   -4054.3449   -5875.5528   -2406.1332   -13403.256    82.528415 
   27900    561.89833   -117.58904   0.50841742   -117.08062   -11476.782    4.3466974    4.3466974    4.3466974   -11476.782   -4468.4744   -28875.307   -1086.5641   -11273.231    864.50654   -8443.9217    82.125537 
   28000    876.80794   -117.86707   0.79335425   -117.07372    9749.0526    4.3382372    4.3382372    4.3382372    9749.0526    1565.1369   -4266.2706    31948.292    9022.8617   -3060.3226    10597.435    81.646932 
   28100    794.15322   -117.79242   0.71856653   -117.07385   -6796.0098    4.3539721    4.3539721    4.3539721   -6796.0098   -9605.3525   -30410.727     19628.05    3548.4986    1255.7818   -7554.7392    82.538569 
   28200    524.12353   -117.55034   0.47423798    -117.0761    3342.0917    4.3473626    4.3473626    4.3473626    3342.0917     2560.561   -19334.953    26800.667   -11290.307    1075.4115   -11198.726    82.163248 
   28300    597.35646   -117.61647   0.54050068   -117.07597    10615.649    4.3398554    4.3398554    4.3398554    10615.649    14302.861   -8009.2041    25553.289    1141.8545   -55.132415    5215.9303    81.738333 
   28400    792.47075   -117.79175   0.71704419   -117.07471   -517.73402     4.349634     4.349634     4.349634   -517.73402    -2544.383   -18128.663    19119.844    17159.714    4552.6953    945.68399    82.292099 
   28500    804.11323   -117.80108   0.72757855    -117.0735   -3719.5487    4.3495411    4.3495411    4.3495411   -3719.5487   -8699.9824   -8221.8215    5763.1579   -7529.4432   -1711.6106   -7831.8913    82.286829 
   28600    743.92776   -117.74746   0.67312148   -117.07434   -3499.6717    4.3423125    4.3423125    4.3423125   -3499.6717    11298.001   -13921.542   -7875.4738   -9799.9197   -1566.3161   -9168.5353    81.877246 
   28700     548.5826   -117.57467   0.49636906    -117.0783    8417.1426    4.3436789    4.3436789    4.3436789    8417.1426     20456.71    -7584.721    12379.439    19481.786    2484.8986    5617.2247    81.954565 
   28800    799.01106   -117.79995     0.722962   -117.07699   -7774.5606    4.3531149    4.3531149    4.3531149   -7774.5606   -22131.227   -8514.8506    7322.3953    7952.2435    589.43288    5055.6505    82.489825 
   28900    763.67682   -117.76503   0.69099084   -117.07404    13859.189     4.339149     4.339149     4.339149    13859.189    32141.026   -8531.3916    17967.932   -14654.505   -3056.5264   -11870.068    81.698426 
   29000    626.42661   -117.64651   0.56680396   -117.07971   -1496.4863    4.3449514    4.3449514    4.3449514   -1496.4863   -6825.5029   -21888.628    24224.672     1324.224    1042.1541   -1684.9732    82.026609 
   29100    404.24202   -117.44612   0.36576667   -117.08035   -5995.5175    4.3537772    4.3537772    4.3537772   -5995.5175   -14365.234   -19030.561    15409.242    22673.424   -201.38336    10313.141    82.527484 
   29200    829.18007   -117.82376   0.75025955    -117.0735    7161.7512    4.3364424    4.3364424    4.3364424    7161.7512    384.45167    -6236.713    27337.515   -2415.7464     1075.417    3461.1893    81.545643 
   29300    799.97907    -117.8005   0.72383787   -117.07666   -6830.7592     4.350418     4.350418     4.350418   -6830.7592   -5699.1191   -28950.253    14157.095   -12487.692    1224.4331   -6250.1522    82.336609 
   29400    551.56501   -117.57842   0.49906761   -117.07935   -16303.077    4.3497271    4.3497271    4.3497271   -16303.077    -18815.64   -35231.697    5138.1055    20140.495   -3580.7873    3749.2561    82.297384 
   29500    482.97437   -117.51502   0.43700536   -117.07802    10562.422    4.3358213    4.3358213    4.3358213    10562.422    21083.135   -3489.8554    14093.986    10614.912   -173.48299    9594.2099    81.510607 
   29600    1022.4414   -117.99962    0.9251265   -117.07449   -12202.497    4.3510745    4.3510745    4.3510745   -12202.497   -8274.2363   -24788.837   -3544.4175    -8879.875   -4847.1047    739.72769    82.373887 
   29700      786.225   -117.78769   0.71139291   -117.07629    3892.9129    4.3445903    4.3445903    4.3445903    3892.9129    2844.9072   -24068.894    32902.725    6437.5084   -383.75613   -2588.3012     82.00616 
   29800    530.86525   -117.56013   0.48033803    -117.0798   -2976.8381    4.3426793    4.3426793    4.3426793   -2976.8381    12481.667    -31482.52    10070.339    17319.823    3789.5191    9957.9733    81.897997 
   29900    614.55936    -117.6354   0.55606623   -117.07934    500.34072    4.3492728    4.3492728    4.3492728    500.34072    7773.1166   -15241.481    8969.3864   -1453.7911   -8595.9763    11289.481    82.271601 
   30000    944.78681   -117.92963   0.85486296   -117.07477    8020.0007    4.3425693    4.3425693    4.3425693    8020.0007    7582.3633   -13504.792    29982.431   -5437.0238    2855.4326   -4295.6018    81.891774 
   30100     712.4319   -117.72335   0.64462335   -117.07872    -3418.765    4.3471673    4.3471673    4.3471673    -3418.765    1756.5338   -33714.181    21701.352    16464.029    344.59269    4439.6475    82.152173 
   30200    587.57174   -117.61181   0.53164726   -117.08017    415.69195    4.3405811    4.3405811    4.3405811    415.69195    7932.1112   -23207.101    16522.066    6808.2272   -2359.2579    17709.227    81.779342 
   30300    752.04736   -117.76047   0.68046825   -117.08001   -3214.2001    4.3444515    4.3444515    4.3444515   -3214.2001    1772.1586   -3680.6603   -7734.0986   -4693.3753   -6034.8276   -5655.8483    81.998301 
   30400    647.39518   -117.66515   0.58577677   -117.07937    -9652.085    4.3527667    4.3527667    4.3527667    -9652.085   -21649.292   -25810.831    18503.867    8804.7436    -7764.337   -3079.2609    82.470032 
   30500    873.27647    -117.8648    0.7901589   -117.07465    4588.5629     4.333724     4.333724     4.333724    4588.5629    452.58092   -15969.746    29282.854    13844.468    9934.2549     8855.329    81.392381 
   30600    715.55373   -117.72462   0.64744805   -117.07717   -6738.2884    4.3507944    4.3507944    4.3507944   -6738.2884   -6845.5489   -15733.532    2364.2159   -2189.8731   -13307.503    2936.3655    82.357981 
   30700    471.95577   -117.50751   0.42703549   -117.08047   -13922.468    4.3496048    4.3496048    4.3496048   -13922.468   -27348.757   -13486.294   -932.35188   -750.36323   -7360.3918   -5047.6431    82.290442 
   30800    718.66389   -117.72534   0.65026219   -117.07507    10120.198    4.3325075    4.3325075    4.3325075    10120.198    1406.5283   -9888.0601    38842.125    13784.703    6752.6978   -9131.7875    81.323857 
   30900    1038.9784   -118.01091   0.94008951   -117.07082   -12444.376    4.3573401    4.3573401    4.3573401   -12444.376   -16389.621   -25756.798    4813.2899     1812.478   -7581.6698     1900.235    82.730259 
   31000     675.4645   -117.69225   0.61117447   -117.08108   -3173.1085    4.3399705    4.3399705    4.3399705   -3173.1085   -7464.3466   -641.09474   -1413.8843   -4219.6435   -3572.1573   -190.58353    81.744839 
   31100    349.07518   -117.40027   0.31585056   -117.08442    5671.7453    4.3356106    4.3356106    4.3356106    5671.7453   -10454.123   -12006.153    39475.512    13397.836   -1098.3239    -10964.18    81.498723 
   31200    849.03244   -117.84523   0.76822239   -117.07701   -11260.225    4.3586643    4.3586643    4.3586643   -11260.225    196.26145   -33785.062   -191.87296    8024.7515    1994.6131    816.76112    82.805706 
   31300    1044.5092    -118.0172   0.94509388   -117.07211    15674.247    4.3336492    4.3336492    4.3336492    15674.247    12961.086    4474.3043    29587.351   -6975.2697    -6217.778    7297.9759    81.388165 
   31400    510.50232   -117.54369   0.46191322   -117.08178   -3602.4167    4.3459007    4.3459007    4.3459007   -3602.4167   -10872.842   -10743.365    10808.956    6786.8369    -4892.128   -7374.0418     82.08039 
   31500    564.31103   -117.58856   0.51060048   -117.07796   -9943.6223    4.3533693    4.3533693    4.3533693   -9943.6223    4270.3431   -30397.329    -3703.881    14757.134    8050.7356   -552.02439    82.504292 
   31600    966.55826   -117.94415   0.87456223   -117.06958     23556.28    4.3297117    4.3297117    4.3297117     23556.28     28970.67     8910.469    32787.702    96.588797   -3724.1375     7979.913    81.166521 
   31700    840.54627   -117.83562   0.76054393   -117.07508   -5265.8425    4.3506978    4.3506978    4.3506978   -5265.8425   -59.407993   -12864.963   -2873.1561   -1922.4537   -7793.8105   -414.49639    82.352491 
   31800    538.27101   -117.56429   0.48703892   -117.07725    165.67026    4.3481408    4.3481408    4.3481408    165.67026     602.9309   -11550.826    11444.906    8884.7594    1538.5876   -2753.6562    82.207377 
   31900    746.71452   -117.75043   0.67564299   -117.07479     5956.357    4.3378515    4.3378515    4.3378515     5956.357    10119.185   -9868.3795    17618.265    7528.1727    6054.4644    3295.0852    81.625159 
   32000    766.81031   -117.76836   0.69382608   -117.07453    4132.1659    4.3476256    4.3476256    4.3476256    4132.1659    20196.895   -10408.858    2608.4615   -5941.8582   -1880.2569    16367.828     82.17816 
   32100    923.23309   -117.90904    0.8353607   -117.07368    3079.4484    4.3423963    4.3423963    4.3423963    3079.4484   -4051.7119   -2155.6503    15445.707     7605.712   -4110.5839   -1258.3533    81.881984 
   32200     517.6436    -117.5478   0.46837481   -117.07943   -10993.284    4.3499782    4.3499782    4.3499782   -10993.284   -17410.122   -11995.299   -3574.4308    15325.225    1608.5034    2004.0932    82.311635 
   32300    612.97463   -117.63324   0.55463233   -117.07861    770.18722    4.3376498    4.3376498    4.3376498    770.18722    23582.742   -16515.848   -4756.3323   -3003.9274    2116.8226    25253.248    81.613775 
   32400    1003.7703   -117.98479    0.9082325   -117.07656    3165.0436     4.343553     4.343553     4.343553    3165.0436    1353.4088    -3718.924    11860.646   -2837.4545    577.03844   -980.82732    81.947435 
   32500    772.94276   -117.77589   0.69937485   -117.07651   -14864.796     4.355844     4.355844     4.355844   -14864.796   -28938.234   -13749.376   -1906.7776    14117.046    672.02511   -2142.6802    82.645069 
   32600    502.00417   -117.53173   0.45422393    -117.0775    6271.1888    4.3277009    4.3277009    4.3277009    6271.1888    10179.216   -6170.8877    14805.238    14176.369    5281.6832    16720.173    81.053488 
   32700    610.03636    -117.6363   0.55197372   -117.08433   -704.54476    4.3503413    4.3503413    4.3503413   -704.54476    8822.3894   -16399.481    5463.4577   -6248.3869   -413.53218     5910.062    82.332249 
   32800    1008.6868   -117.98509   0.91268102   -117.07241   -7014.2051    4.3533782    4.3533782    4.3533782   -7014.2051   -19029.759   -6798.7899    4785.9337    2348.9752   -1788.0937   -3829.9013    82.504796 
   32900    694.35382   -117.70014   0.62826593   -117.07188    12752.852    4.3263274    4.3263274    4.3263274    12752.852    6184.2718   -48.904057    32123.188    17735.577    2092.6196    10902.176    80.976343 
   33000    476.16764   -117.51249   0.43084649   -117.08165    -14054.66    4.3521165    4.3521165    4.3521165    -14054.66    6205.2224   -27765.142   -20604.059   -4153.1785    4011.3023     18950.56     82.43308 
   33100     785.2992   -117.78437   0.71055522   -117.07382   -3446.5331     4.349469     4.349469     4.349469   -3446.5331   -6377.2034   -3710.2416   -252.15438      150.471   -897.46942   -8411.4612    82.282736 
   33200    911.90482   -117.89411   0.82511064     -117.069    6493.7583    4.3330183    4.3330183    4.3330183    6493.7583   -620.42871   -4973.7906    25075.494    18334.937   -3649.1659   -8230.5171    81.352627 
   33300    600.03985   -117.61891   0.54292867   -117.07598   -3300.1739     4.347956     4.347956     4.347956   -3300.1739    2752.3933   -10119.847   -2533.0679     8034.317    3689.5988    20920.308    82.196897 
   33400    768.49718   -117.77033    0.6953524   -117.07497   -4864.0861    4.3465029    4.3465029    4.3465029   -4864.0861    -3335.157    -6323.553   -4933.5484   -5003.3511    615.35109    6122.1464    82.114514 
   33500    668.78583   -117.68097   0.60513148   -117.07584    9260.4633    4.3389323    4.3389323    4.3389323    9260.4633    601.30378    15290.476     11889.61     1495.932   -6425.5509   -12785.521    81.686185 
   33600     761.4097     -117.766    0.6889395   -117.07706    2198.4408    4.3417561    4.3417561    4.3417561    2198.4408   -6954.4442    7236.7644    6313.0024     18027.95   -2506.4429    6298.2757    81.845777 
   33700    866.41989   -117.86027   0.78395492   -117.07632   -4834.8384    4.3484306    4.3484306    4.3484306   -4834.8384   -10855.257   -3255.0746   -394.18362    457.75182    -1203.802     13229.07    82.223814 
   33800    649.75594   -117.66628   0.58791283   -117.07836    1938.4718      4.34103      4.34103      4.34103    1938.4718    4059.4609    13028.549   -11272.594   -4794.8438   -8249.6354    3115.9255    81.804722 
   33900    641.13934   -117.65995   0.58011635   -117.07983   -3679.2217    4.3399214    4.3399214    4.3399214   -3679.2217    -22188.02    13936.727    -2786.372    11795.402   -5273.5736   -11545.791    81.742064 
   34000    808.19467   -117.80781   0.73127153   -117.07654   -11982.681    4.3521736    4.3521736    4.3521736   -11982.681   -17992.528   -14892.566   -3062.9496    7254.9682    3578.5131    3560.1438    82.436327 
   34100    833.06149   -117.82782   0.75377154   -117.07405   -500.93648    4.3387313    4.3387313    4.3387313   -500.93648   -435.12624    4031.3016   -5098.9848    -5951.189   -7786.3966    14159.217    81.674833 
   34200     530.4554   -117.55862   0.47996719   -117.07865   -4869.5691    4.3396281    4.3396281    4.3396281   -4869.5691   -22954.994    14146.744   -5800.4579    1825.2857   -11343.159   -9270.7634    81.725488 
   34300    661.77423   -117.67719   0.59878723   -117.07841   -13903.699    4.3502173    4.3502173    4.3502173   -13903.699   -25833.154   -13356.777   -2521.1668     18263.27    7684.4477    53.889442    82.325209 
   34400    879.83935   -117.86954   0.79609713   -117.07345    4937.2245    4.3394672    4.3394672    4.3394672    4937.2245   -7126.5487    4300.0798    17638.142   -6895.8554    1565.3221    4164.1135    81.716399 
   34500    745.90452   -117.75171   0.67491009    -117.0768   -5873.7901    4.3429216    4.3429216    4.3429216   -5873.7901   -21818.715     88.75504    4108.5899   -17274.903    -10168.83    1071.2454    81.911705 
   34600    430.12722   -117.46875   0.38918815   -117.07956    1878.4391    4.3460876    4.3460876    4.3460876    1878.4391   -18887.578    11671.587    12851.308    9479.2183    850.54673   -1918.6926    82.090975 
   34700    918.21565    -117.9047   0.83082082   -117.07388   -4351.0903    4.3414577    4.3414577    4.3414577   -4351.0903   -12898.222    -3105.391    2950.3426    6075.8769    3303.1968   -16698.392    81.828904 
   34800    735.00569   -117.73938    0.6650486   -117.07433    4565.8795    4.3448955    4.3448955    4.3448955    4565.8795   -16426.971    9520.3295     20604.28   -18040.215   -3328.1668    4397.6434    82.023445 
   34900    732.96304   -117.73867   0.66320036   -117.07546   -7138.9405    4.3441421    4.3441421    4.3441421   -7138.9405   -25782.924    1432.5895    2933.5127   -7559.0326   -4370.9413   -631.68564    81.980787 
   35000    607.79636   -117.62739   0.54994692   -117.07745    -4413.281    4.3419254    4.3419254    4.3419254    -4413.281   -5357.1125    6165.3614   -14048.092    8521.3563    5995.2003   -10159.733    81.855349 
   35100     689.2337   -117.70102   0.62363313   -117.07739   -4456.4992    4.3440767    4.3440767    4.3440767   -4456.4992   -7321.3231   -5012.2286   -1035.9458   -13346.312     5757.999   -568.72792    81.977084 
   35200    847.59948   -117.84231   0.76692582   -117.07538   -3660.4446    4.3443617    4.3443617    4.3443617   -3660.4446    -23362.91   -1154.2717    13535.848   -15791.717   -9355.3335   -1113.3747    81.993217 
   35300    738.51673    -117.7445   0.66822546   -117.07628    4174.3105    4.3401906    4.3401906    4.3401906    4174.3105    3006.0957    16994.702   -7477.8661    8961.1206   -1277.6429    4517.9214    81.757275 
   35400    526.08492   -117.55657   0.47601269   -117.08056   -3696.3694    4.3462036    4.3462036    4.3462036   -3696.3694   -3176.0226   -3493.7399   -4419.3456   -2569.5578    8128.4986   -13610.402    82.097549 
   35500    655.41653   -117.67241   0.59303465   -117.07938   -933.38365    4.3461707    4.3461707    4.3461707   -933.38365   -13702.167   -11049.574     21951.59   -19524.602    -2605.946   -7261.5052    82.095684 
   35600    966.22502   -117.94785    0.8742607   -117.07359    17939.156    4.3357751    4.3357751    4.3357751    17939.156    15714.744    16031.481    22071.242   -2410.9197   -2664.4866    7367.9247    81.508002 
   35700    711.33375   -117.72369   0.64362972   -117.08006   -3012.9873      4.34913      4.34913      4.34913   -3012.9873   -10989.145   -12596.954    14547.137    12622.466     3620.802   -6798.4271    82.263495 
   35800    408.78844   -117.45248   0.36988037    -117.0826   -7698.6345    4.3454603    4.3454603    4.3454603   -7698.6345   -4026.0737   -19184.387    114.55751   -13854.713    7170.9736   -16349.541    82.055436 
   35900    779.20471   -117.78246    0.7050408   -117.07742    14253.204    4.3352675    4.3352675    4.3352675    14253.204     8889.275    15362.285    18508.053   -16450.237    1829.1621   -5486.0525    81.479377 
   36000    1059.3138   -118.03153   0.95848938   -117.07304   -9509.6036    4.3518062    4.3518062    4.3518062   -9509.6036   -22334.959   -9439.2723    3245.4201    11891.132   -744.98963    5717.9494    82.415453 
   36100    441.97559   -117.48159   0.39990881   -117.08168   -964.06442     4.340926     4.340926     4.340926   -964.06442   -4376.6793    6297.1633   -4812.6773   -414.25054    8963.6569   -13320.318    81.798842 
   36200    468.31792   -117.50653    0.4237439   -117.08279    1078.4169    4.3396041    4.3396041    4.3396041    1078.4169   -417.65698    705.24403    2947.6637   -15834.706    3627.3518   -9045.8262    81.724136 
   36300     896.3278   -117.88313   0.81101623   -117.07211    -8146.082    4.3564959    4.3564959    4.3564959    -8146.082   -31575.121   -4144.4034    11281.279    1750.8113   -7700.7387    3663.2905    82.682183 
   36400    760.16923   -117.75985    0.6878171   -117.07203    11660.765    4.3357926    4.3357926    4.3357926    11660.765   -5624.9773    11237.675    29369.597    10116.107    2180.5631   -731.88735    81.508987 
   36500    442.43085   -117.47958   0.40032073   -117.07926   -3245.0703    4.3428244    4.3428244    4.3428244   -3245.0703    -12692.47   -11923.921     14881.18   -15485.416    6645.8821   -14286.235    81.906207 
   36600    603.54094   -117.62063   0.54609653   -117.07453   -11012.164    4.3567434    4.3567434    4.3567434   -11012.164   -27556.789   -17187.072    11707.369   -13165.597   -7568.3871   -6382.8083    82.696275 
   36700    915.64489   -117.89521   0.82849474   -117.06671    17938.537    4.3355767    4.3355767    4.3355767    17938.537   -4546.8949    33414.208    24948.299    14622.275   -6780.9703   -571.73619    81.496813 
   36800    644.19849   -117.65639   0.58288433   -117.07351   -5959.0466    4.3462824    4.3462824    4.3462824   -5959.0466   -12946.728   -7774.8234    2844.4116   -9920.3937    4038.3309   -13291.579    82.102017 
   36900    405.83846    -117.4441   0.36721117   -117.07689   -13846.219    4.3533946    4.3533946    4.3533946   -13846.219   -28884.591   -7889.0453   -4765.0202   -19677.172    1363.2324    -10820.42     82.50573 
   37000    780.61699   -117.77862   0.70631866    -117.0723      10082.1    4.3380523    4.3380523    4.3380523      10082.1   -2042.5613    30615.233    1673.6287    3373.0153   -11586.416   -1359.4635    81.636497 
   37100     944.3132   -117.92645   0.85443443   -117.07201   -363.93542    4.3436959    4.3436959    4.3436959   -363.93542   -14627.469    13468.456     67.20703   -1648.9225   -4369.0441    8430.4522    81.955526 
   37200    384.15679   -117.42665   0.34759313   -117.07905   -13722.479    4.3527548    4.3527548    4.3527548   -13722.479   -24620.814   -19147.907    2601.2827   -19997.469    7838.3129    -8896.145    82.469355 
   37300    562.14895   -117.58391   0.50864419   -117.07527   -8425.7535    4.3455228    4.3455228    4.3455228   -8425.7535   -18427.342    2006.5083   -8856.4262   -8923.3717    -6007.491    -8510.659    82.058974 
   37400    932.79383   -117.91375   0.84401146   -117.06973    10855.699    4.3388508    4.3388508    4.3388508    10855.699    3877.6822     25799.92    2889.4938    5158.8862   -6846.2084    7666.2468    81.681585 
   37500    743.59803   -117.74811   0.67282313   -117.07529   -6208.6311    4.3467153    4.3467153    4.3467153   -6208.6311   -20912.769   -11249.231    13536.107   -12419.998    5715.6682    -2883.639    82.126553 
   37600    227.94001   -117.28753   0.20624491   -117.08128   -11808.137     4.351204     4.351204     4.351204   -11808.137   -23766.823   -4909.8463   -6747.7408   -14417.773     1565.182   -17739.036     82.38124 
   37700    669.26997   -117.68136   0.60556953   -117.07579    2405.8335    4.3391927    4.3391927    4.3391927    2405.8335   -12605.474    20066.713   -243.73814     8482.833   -5965.9998    -11293.58    81.700892 
   37800    818.39759   -117.81269   0.74050334   -117.07218    10022.823    4.3454041    4.3454041    4.3454041    10022.823   -8989.3844    24249.396    14808.458    1990.6917   -278.26395    2329.4362    82.052251 
   37900    453.36484   -117.48729   0.41021403   -117.07708   -19669.576    4.3560852    4.3560852    4.3560852   -19669.576   -23668.959   -22107.246   -13232.523   -18119.088    3242.0714   -12683.052    82.658801 
   38000    317.10169   -117.36476   0.28692027   -117.07784    169.53555     4.331159     4.331159     4.331159    169.53555   -2150.9068    3373.2544   -713.74099    -750.4878   -3951.9316   -18701.917    81.247943 
   38100    739.64705   -117.75075    0.6692482   -117.08151    814.57977    4.3448828    4.3448828    4.3448828    814.57977   -23149.245     9107.187    16485.797    14254.067   -3872.9177    2939.7298    82.022728 
   38200    847.94871   -117.83986   0.76724181   -117.07262   -16137.021    4.3601516    4.3601516    4.3601516   -16137.021   -24927.927   -26934.818    3451.6803   -2871.1901    2242.4321   -3778.6038    82.890502 
   38300    561.63158   -117.57855   0.50817606   -117.07037    12371.679    4.3279514    4.3279514    4.3279514    12371.679    14284.038    8913.9233    13917.074   -11668.352   -1753.3599   -10798.215    81.067567 
   38400    533.52258   -117.56031   0.48274244   -117.07757   -16692.473    4.3528992    4.3528992    4.3528992   -16692.473   -36187.442   -14201.951    311.97352    13403.765   -4367.1322   -2323.1313    82.477567 
   38500    864.47151   -117.85479   0.78219199    -117.0726   -5440.3545    4.3493824    4.3493824    4.3493824   -5440.3545   -27857.093     3120.472    8415.5576    18026.513   -1403.0068    5341.4604    82.277822 
   38600    1017.8496   -117.98755   0.92097172   -117.06657     22430.84    4.3265376    4.3265376    4.3265376     22430.84    31760.056    19906.271    15626.193   -7454.7221   -350.56949   -2832.0782    80.988144 
   38700    603.62051   -117.62355   0.54616852   -117.07739   -18539.123    4.3580716    4.3580716    4.3580716   -18539.123   -33721.677   -15069.939    -6825.753    3480.6243   -1387.6292   -11403.677    82.771932 
   38800    507.42076   -117.53814   0.45912497   -117.07902   -5468.2307    4.3436631    4.3436631    4.3436631   -5468.2307   -32795.586    343.03431     16047.86    22523.202   -3469.8094    2423.1314    81.953668 
   38900    888.48636   -117.87651   0.80392113   -117.07259    14976.354    4.3354111    4.3354111    4.3354111    14976.354    4269.1441    20845.441    19814.476    1567.8721   -2884.7708    1017.8461    81.487471 
   39000    955.80722   -117.93484   0.86483446   -117.07001    -6759.886    4.3524507    4.3524507    4.3524507    -6759.886   -8932.3522    -9321.593   -2025.7128   -1913.8993    722.55162   -13549.915    82.452071 
   39100    498.83083   -117.52813   0.45135262   -117.07678    3639.7769    4.3402421    4.3402421    4.3402421    3639.7769   -11781.124     3167.847    19532.608    18081.681    3044.9874   -7018.7221    81.760187 
   39200     552.7194     -117.579   0.50011212   -117.07889   -3234.1223    4.3427498    4.3427498    4.3427498   -3234.1223   -28802.273    4595.9341    14503.972    11220.634   -2337.3712    1019.5904    81.901986 
   39300    865.66092   -117.85749   0.78326819   -117.07422    6278.2472    4.3436094    4.3436094    4.3436094    6278.2472   -10966.694    18673.565    11127.871   -10221.989    -3107.147   -6391.4871    81.950628 
   39400    782.16224   -117.78244   0.70771683   -117.07472    7226.9085    4.3460214    4.3460214    4.3460214    7226.9085    10775.058   -2220.3915     13126.06    7899.3224    3231.4145   -8267.6309    82.087224 
   39500    634.57772   -117.64973   0.57417926   -117.07556    1481.1005     4.345247     4.345247     4.345247    1481.1005   -23210.335    12999.959    14653.677    22819.427    2426.9116    -192.1404    82.043356 
   39600    632.99902   -117.64747   0.57275082   -117.07472      8530.98    4.3365171    4.3365171    4.3365171      8530.98   -14204.453    25775.451    14021.941   -10296.268    -1127.671   -2191.9285    81.549853 
   39700    689.68444   -117.70074   0.62404098    -117.0767   -3277.9276    4.3492758    4.3492758    4.3492758   -3277.9276    2705.9351   -11530.906   -1008.8115   -10311.637   -906.38466    -12583.37     82.27177 
   39800    962.84569   -117.94209   0.87120301   -117.07088    4794.3406    4.3430357    4.3430357    4.3430357    4794.3406    3473.0707    5821.9443    5088.0068        12121    1261.9576   -4772.0058    81.918164 
   39900    738.96095   -117.74322    0.6686274   -117.07459    2772.0847    4.3393678    4.3393678    4.3393678    2772.0847   -19536.202    18637.845    9214.6114   -2992.2682   -4442.6499    7142.1225    81.710783 
   40000    431.14945   -117.46969   0.39011308   -117.07957   -15536.477    4.3487223    4.3487223    4.3487223   -15536.477    -21832.69   -20743.528   -4033.2136   -16426.179   -1208.2837   -5029.4602    82.240364 
   40100     811.8866   -117.81169   0.73461205   -117.07708    1025.0565    4.3413066    4.3413066    4.3413066    1025.0565    612.49829   -3116.3592    5579.0304   -6271.3066    -289.2615   -9692.4074    81.820359 
   40200    1081.9349   -118.05237   0.97895748   -117.07341    5197.1912    4.3418046    4.3418046    4.3418046    5197.1912   -638.80683    12021.784    4208.5967    5944.9428   -3694.0731    1022.4611     81.84852 
   40300    463.30617   -117.50158   0.41920916   -117.08237    4588.6167    4.3438675    4.3438675    4.3438675    4588.6167   -20471.577    6318.3717    27919.055   -12633.128   -2380.3702   -901.97696    81.965239 
   40400     349.6058   -117.40006   0.31633067   -117.08373   -6688.2208    4.3482764    4.3482764    4.3482764   -6688.2208   -22589.328    2208.0454    316.62004   -15249.292   -732.24303   -9880.8638     82.21507 
   40500    941.01575   -117.92558   0.85145082   -117.07413    11585.978    4.3366801    4.3366801    4.3366801    11585.978    10151.728    12020.359    12585.846    8061.8492    4526.4048    -12039.87    81.559049 
   40600    821.59391   -117.82129   0.74339544    -117.0779    14009.462    4.3409196    4.3409196    4.3409196    14009.462   -2048.1658    19164.185    24912.367   -1313.6712   -2500.1287     4755.034    81.798479 
   40700     352.4026   -117.40031   0.31886128   -117.08145   -16309.917     4.355458     4.355458     4.355458   -16309.917   -35381.639    3957.8009   -17505.913   -18568.712    1390.7065   -5323.6203    82.623103 
   40800    566.12419   -117.58913   0.51224107   -117.07689     8047.654    4.3266535    4.3266535    4.3266535     8047.654    7278.5502    4118.0921     12746.32   -3441.4266    5847.4508    -14867.75    80.994651 
   40900    882.11941   -117.87843   0.79816018   -117.08027   -4219.3505    4.3452944    4.3452944    4.3452944   -4219.3505   -2274.7528   -11186.231    802.93256    16653.037   -2880.8526    2067.7359     82.04604 
   41000    702.36895   -117.71033   0.63551818   -117.07482   -16451.263     4.356809     4.356809     4.356809   -16451.263   -31614.215   -1126.6762   -16612.899   -4601.1821    2289.5491   -504.83009    82.700012 
   41100    567.05419   -117.58314   0.51308255   -117.07006    13702.605    4.3222153    4.3222153    4.3222153    13702.605     5598.358     17501.24    18008.218   -13767.277   -1103.8869   -3785.8789    80.745662 
   41200    556.62079   -117.58164   0.50364219     -117.078    -16728.62     4.350731     4.350731     4.350731    -16728.62   -21860.507   -21497.002   -6828.3513    20973.503    646.58615    -11474.37    82.354382 
   41300    812.41258   -117.80798   0.73508798   -117.07289   -10426.789    4.3485657    4.3485657    4.3485657   -10426.789   -23328.512   -6648.5211   -1303.3354    17675.888   -495.33542    1287.6035    82.231482 
   41400    838.93222   -117.82716    0.7590835   -117.06808    22298.359    4.3255268    4.3255268    4.3255268    22298.359    7544.4041    37583.796    21766.875    -15303.99   -7907.1082    2249.0713    80.931395 
   41500    431.82565   -117.46765   0.39072493   -117.07693   -16605.392    4.3535685    4.3535685    4.3535685   -16605.392   -29442.599   -13930.954   -6442.6237    12899.104    5510.7825   -17883.114    82.515616 
   41600    552.46956   -117.57825   0.49988607   -117.07837   -2304.7312    4.3423776    4.3423776    4.3423776   -2304.7312    -18042.44   -7931.2707    19059.518    31216.971   -867.40858   -1591.0654    81.880927 
   41700    1087.9548    -118.0534   0.98440436     -117.069    12657.544    4.3356672    4.3356672    4.3356672    12657.544    8664.5625    18442.428    10865.643   -4831.9227     1901.894   -2510.6967    81.501917 
   41800    689.91077   -117.70109   0.62424576   -117.07684    1851.1454    4.3465692    4.3465692    4.3465692    1851.1454   -17783.926    13428.857    9908.5055    1128.9007    4045.6163   -4226.0646    82.118269 
   41900    278.84829   -117.33684   0.25230779   -117.08453   -2709.4389    4.3406266    4.3406266    4.3406266   -2709.4389     -18413.6   -11718.626    22003.909    30693.612    1364.9514   -5464.5925    81.781915 
   42000    770.31131   -117.77911   0.69699386   -117.08211    1698.1776     4.342105     4.342105     4.342105    1698.1776   -8588.3148   -4068.7337    17751.581    8513.0805    3804.3523    -4453.491    81.865511 
   42100    1193.2997     -118.155    1.0797226   -117.07528    9931.2194      4.33796      4.33796      4.33796    9931.2194    9071.6454    14036.241    6685.7718   -6536.4282   -2777.7968    12368.257    81.631285 
   42200    418.72864   -117.46499   0.37887448   -117.08612   -4900.7678    4.3488795    4.3488795    4.3488795   -4900.7678   -17543.706   -19519.272    22360.675    24395.382    5795.2822   -8669.2627    82.249284 
   42300    529.84374   -117.56035   0.47941375   -117.08094    -10227.06    4.3442798    4.3442798    4.3442798    -10227.06   -24251.963   -19862.776    13433.558    20322.733   -1413.9156   -6304.7992    81.988579 
   42400    1105.9764   -118.07094    1.0007107   -117.07023    13080.044    4.3346746    4.3346746    4.3346746    13080.044    9674.5429     13747.27     15818.32   -10674.776   -3755.6471    3229.3043    81.445951 
   42500    928.36475   -117.91445   0.84000393   -117.07445   -12281.565    4.3507616    4.3507616    4.3507616   -12281.565   -16092.505    -20425.61    -326.5791    15314.016   -1339.4261    2752.3857    82.356116 
   42600     519.4636   -117.55009   0.47002158   -117.08007   -2657.8269    4.3391585    4.3391585    4.3391585   -2657.8269   -22466.762   -11809.204    26302.485    30153.014    769.30362   -6560.2158    81.698965 
   42700    789.63796   -117.79217   0.71448102   -117.07769    1801.3991    4.3395438    4.3395438    4.3395438    1801.3991   -439.46989    3477.9471      2365.72   -7085.4871    446.90551   -10568.618    81.720729 
   42800    935.55827   -117.91725   0.84651278   -117.07074   -7921.6587    4.3521564    4.3521564    4.3521564   -7921.6587   -8280.2637   -13426.731   -2057.9816   -1871.8645   -7937.4635    14719.547    82.435351 
   42900    640.47477   -117.65213   0.57951503   -117.07261    2242.5762    4.3382084    4.3382084    4.3382084    2242.5762    -5814.715   -13272.932    25815.375    26825.254    5977.2605    -2862.728    81.645306 
   43000    560.21038   -117.58222   0.50689012   -117.07533   -2729.8007    4.3415807    4.3415807    4.3415807   -2729.8007     968.8322   -11240.367    2082.1332    5796.4836    2649.7421   -12519.477    81.835855 
   43100    734.34862   -117.73785   0.66445407   -117.07339   -1226.1147    4.3462929    4.3462929    4.3462929   -1226.1147   -2933.9346    -5942.354    5197.9446   -10122.947   -620.45914    3132.3336     82.10261 
   43200    777.27207   -117.77651   0.70329211   -117.07322    2686.0249    4.3407185    4.3407185    4.3407185    2686.0249   -1113.3522   -10337.716    19509.143    13240.844    235.64545    2024.6336    81.787113 
   43300    572.63363   -117.59347   0.51813095   -117.07534   -5127.3679    4.3439559    4.3439559    4.3439559   -5127.3679    869.27443   -24929.862     8678.484     18718.87    4591.2472   -13826.148    81.970243 
   43400    712.17777   -117.71688   0.64439341   -117.07249   -7783.2698    4.3437851    4.3437851    4.3437851   -7783.2698   -4811.8543   -6189.5781   -12348.377   -5388.1089    5847.3263   -16322.517    81.960572 
   43500    780.87904   -117.77856   0.70655577     -117.072   -2834.7496    4.3439189    4.3439189    4.3439189   -2834.7496   -19038.689   -2922.0222    13456.462   -715.94777   -11083.688    8419.9779    81.968151 
   43600    782.07076   -117.78019   0.70763406   -117.07256   -603.43544    4.3375177    4.3375177    4.3375177   -603.43544   -2817.4396   -10014.363    11021.496    15695.008   -87.992314   -6565.5911    81.606316 
   43700    589.14862   -117.61004   0.53307405   -117.07697   -4681.8859    4.3436698    4.3436698    4.3436698   -4681.8859   -1243.7049   -9850.4768    -2951.476    3836.7393    4246.9356   -23615.628    81.954047 
   43800     655.3303   -117.66745   0.59295663   -117.07449    -11030.74    4.3492433    4.3492433    4.3492433    -11030.74   -29884.261    2344.9361   -5552.8951   -4463.4112     -2018.12    4308.8606    82.269925 
   43900    789.62032   -117.78451   0.71446506   -117.07004    11087.626      4.33278      4.33278      4.33278    11087.626   -3352.1203    4184.2234    32430.774    6021.0675   -4551.0672   -1156.8949    81.339205 
   44000    676.21142   -117.68614    0.6118503   -117.07429   -281.94958     4.344935     4.344935     4.344935   -281.94958    8455.8887   -8727.0233   -574.71408    4720.3749    577.68342   -16136.032    82.025685 
   44100    626.67789   -117.64198   0.56703132   -117.07495   -12887.678    4.3464748    4.3464748    4.3464748   -12887.678   -20833.271   -269.94965   -17559.814   -4054.0628    13767.852   -9347.6105    82.112921 
   44200    608.45899   -117.62405   0.55054648   -117.07351    10540.653    4.3325412    4.3325412    4.3325412    10540.653   -8875.6061    16653.691    23843.875   -9272.8694   -4504.9413    2668.1844    81.325755 
   44300    878.46054   -117.86723   0.79484956   -117.07238   -4284.0661    4.3474519    4.3474519    4.3474519   -4284.0661    3206.7988   -13225.867   -2833.1301    4570.3896   -3516.0414    1630.9313    82.168309 
   44400    749.44315   -117.75204   0.67811191   -117.07393    2651.8168    4.3419795    4.3419795    4.3419795    2651.8168   -3177.5957    13575.033   -2441.9864    1643.6197    9545.9351   -16782.665    81.858412 
   44500    453.71611   -117.48826   0.41053187   -117.07773    2586.0425     4.336222     4.336222     4.336222    2586.0425    -14288.88    18116.318    3930.6898   -9673.4335    3365.8102    882.23496    81.533207 
   44600    675.06999   -117.68701   0.61081751   -117.07619   -3170.4309     4.346021     4.346021     4.346021   -3170.4309   -15534.986   -4021.8661    10045.559   -2962.7605   -6408.3922    4553.0491    82.087206 
   44700      891.835   -117.87808   0.80695105   -117.07113    13197.808    4.3394233    4.3394233    4.3394233    13197.808    10155.559    24410.612    5027.2544    2249.0241   -2206.9724   -4109.0478    81.713918 
   44800     629.1987   -117.64652    0.5693122    -117.0772   -4563.9107    4.3413534    4.3413534    4.3413534   -4563.9107   -14890.118    12556.315   -11357.929    1486.4364    17484.932   -583.41372    81.823005 
   44900    475.08607   -117.50901   0.42986786   -117.07914    1730.1985    4.3397158    4.3397158    4.3397158    1730.1985     -19464.9     17883.25    6772.2461   -8109.5827    2509.1037   -2577.7803    81.730444 
   45000    950.90082   -117.93366   0.86039504   -117.07327   -413.30468    4.3427964    4.3427964    4.3427964   -413.30468    -2555.147    1061.0947    254.13828    -6166.445   -7374.1197    19168.829    81.904623 
   45100    707.60123   -117.71457   0.64025246   -117.07431    -2153.026    4.3446305    4.3446305    4.3446305    -2153.026   -5062.2438    8028.9079    -9425.742    5551.6002    13494.253    434.67633    82.008438 
   45200     617.6919   -117.63435   0.55890061   -117.07545   -764.72646    4.3339029    4.3339029    4.3339029   -764.72646   -20971.925    15428.085    3249.6604   -6036.3134    20162.155   -10801.996    81.402462 
   45300    705.28189   -117.71329   0.63815388   -117.07514   -2762.7379    4.3450423    4.3450423    4.3450423   -2762.7379   -12573.581    -354.9879    4640.3556    -4751.705   -4059.9856    14041.701    82.031757 
   45400    811.24539   -117.80794   0.73403188    -117.0739   -7872.4506    4.3439171    4.3439171    4.3439171   -7872.4506   -196.06947    -19552.14   -3869.1425    4051.0523   -3672.7657    12519.392    81.968046 
   45500    582.86061   -117.60242   0.52738453   -117.07504    4499.0598    4.3349988    4.3349988    4.3349988    4499.0598   -8656.5241    17979.989    4173.7145    2756.8772    21442.169   -2504.3798    81.464228 
   45600    739.99234   -117.74438   0.66956062   -117.07482   -9513.9759    4.3457674    4.3457674    4.3457674   -9513.9759   -21755.176   -2230.4438   -4556.3082   -2854.3735     5660.479   -3778.9804    82.072834 
   45700    796.42678   -117.79421   0.72062368   -117.07358    4958.9229    4.3392312    4.3392312    4.3392312    4958.9229    10637.455   -6900.8318    11140.145   -5302.0988     -6783.75    24985.085    81.703069 
   45800    674.24013   -117.68621   0.61006664   -117.07614   -470.51565    4.3405264    4.3405264    4.3405264   -470.51565   -1887.5814    12704.857   -12228.822    9579.1527    12585.769    14282.579     81.77625 
   45900    668.60356    -117.6804   0.60496655   -117.07543   -3596.5416    4.3447014    4.3447014    4.3447014   -3596.5416    -18037.64    9980.6802   -2732.6653    1771.5926    19279.442   -12340.287    82.012452 
   46000    803.20847    -117.7993   0.72675991   -117.07254     9084.264     4.336297     4.336297     4.336297     9084.264    10998.557    2998.7979    13255.437   -9157.1115   -248.74106    12149.075     81.53744 
   46100    760.77926   -117.76321   0.68836906   -117.07484   -6311.1753    4.3447592    4.3447592    4.3447592   -6311.1753    3100.5952   -11676.219   -10357.902    5871.8168   -1449.3462    19049.245    82.015724 
   46200    604.48878   -117.62362   0.54695415   -117.07667    1397.4077    4.3399435    4.3399435    4.3399435    1397.4077   -11113.545    9352.4643    5953.3039    7341.4812    24843.066   -132.09233     81.74331 
   46300    801.90002   -117.80096   0.72557599   -117.07539   -418.12081    4.3398174    4.3398174    4.3398174   -418.12081   -5462.4144   -2225.2771    6433.3291    2592.3323    8296.0682   -4042.1328    81.736188 
   46400    736.98606    -117.7414   0.66684048   -117.07456   -3669.6741    4.3452347    4.3452347    4.3452347   -3669.6741    10246.504   -17008.349   -4247.1771   -6129.8868   -6928.7774    20990.094    82.042658 
   46500    740.55333   -117.74321   0.67006821   -117.07314    1127.8969    4.3363053    4.3363053    4.3363053    1127.8969   -268.81131   -5601.3236    9253.8255    4875.1548     13770.31    15606.885    81.537903 
   46600    674.27578   -117.68517    0.6100989   -117.07507    884.61106    4.3458098    4.3458098    4.3458098    884.61106    -14098.07    10933.243    5818.6609    10133.976     16971.56    -8308.402     82.07524 
   46700    893.78564   -117.88003   0.80871603   -117.07131   -2630.3309    4.3406649    4.3406649    4.3406649   -2630.3309    6199.4128   -17080.348    2989.9423   -11602.854   -1840.8843    14357.765     81.78408 
   46800    618.55556   -117.63364   0.55968207   -117.07396    10301.142    4.3357388    4.3357388    4.3357388    10301.142    13941.877   -2344.1407     19305.69   -2290.4135    190.50927    19465.046    81.505955 
   46900    789.33722   -117.78779    0.7142089   -117.07358   -13912.783    4.3482087    4.3482087    4.3482087   -13912.783   -22888.464   -5391.5814   -13458.304    6312.3855    22472.343   -4548.2921    82.211231 
   47000    754.65247   -117.75474   0.68282541   -117.07191    12498.713    4.3373963    4.3373963    4.3373963    12498.713    1618.3777    15450.856    20426.906    -850.2453    6230.0314    1355.9694    81.599464 
   47100    813.62392   -117.80956   0.73618402   -117.07338   -6500.0803    4.3406674    4.3406674    4.3406674   -6500.0803    6356.5094   -23776.201   -2080.5492   -3774.8713   -8079.3208    15709.569    81.784222 
   47200     569.7564   -117.59051   0.51552757   -117.07498     -4683.02     4.344603     4.344603     4.344603     -4683.02   -5962.8338     5163.707   -13249.933    346.99764    18915.306    9423.3001    82.006883 
   47300    907.94617    -117.8931   0.82152877   -117.07157    -716.3975      4.33869      4.33869      4.33869    -716.3975   -17737.094    9421.4316    6166.4703     8762.604    14516.393   -5082.8153    81.672505 
   47400    759.85494   -117.75968   0.68753272   -117.07215    356.97408    4.3442662    4.3442662    4.3442662    356.97408    687.28933   -5719.4423    6103.0752   -6843.4136   -7145.8806    7675.6888    81.987811 
   47500    713.15655   -117.72007   0.64527903   -117.07479   -2673.6083    4.3373227    4.3373227    4.3373227   -2673.6083    6795.3629   -11352.283   -3463.9051   -4303.0051    7581.2974    19801.615    81.595313 
   47600    669.06984    -117.6812   0.60538845   -117.07581    193.05611     4.343491     4.343491     4.343491    193.05611   -15685.078     12098.14    4166.1068    6441.8969    21738.346   -6285.3337     81.94393 
   47700    907.40812   -117.89245   0.82104194   -117.07141   -3425.5887    4.3446011    4.3446011    4.3446011   -3425.5887   -11251.736   -3741.3383    4716.3079   -5849.6913   -1994.0218    2503.7578    82.006776 
   47800    644.74215   -117.65695   0.58337624   -117.07358    13254.762    4.3354584    4.3354584    4.3354584    13254.762    18949.499    6429.6348    14385.151   -7076.5618    -10996.91    13781.244     81.49014 
   47900    659.08505   -117.66977     0.596354   -117.07341   -11504.546    4.3488583    4.3488583    4.3488583   -11504.546   -12941.309   -12073.076   -9499.2549   -3550.3658    21434.232    108.53196     82.24808 
   48000    778.70131    -117.7772   0.70458531   -117.07262    5036.2276    4.3372259    4.3372259    4.3372259    5036.2276   -8885.2402    22936.709    1057.2135    3483.5918    8796.5253    974.26548    81.589847 
   48100    736.80123   -117.74175   0.66667324   -117.07508    5084.9497    4.3384297    4.3384297    4.3384297    5084.9497   -722.24989    8356.5857    7620.5133   -3543.6891   -22530.971    378.52768    81.657804 
   48200    620.78292   -117.63609   0.56169743   -117.07439   -12022.376    4.3501814    4.3501814    4.3501814   -12022.376   -13687.104   -8168.2852   -14211.739   -8260.6101    7494.1893    11459.782    82.323174 
   48300    777.16666   -117.77455   0.70319672   -117.07136    6179.1708    4.3336565    4.3336565    4.3336565    6179.1708   -1591.4843    19891.632    237.36419    3571.7151    18070.277   -160.66906    81.388575 
   48400    801.22404   -117.79752   0.72496435   -117.07255   -6995.2662     4.343615     4.343615     4.343615   -6995.2662    -26612.83    15261.681   -9634.6495    -7170.609    -18229.24    -2660.257    81.950944 
   48500    598.49408   -117.61679   0.54153002   -117.07526   -4012.0447    4.3444876    4.3444876    4.3444876   -4012.0447   -13050.929   -1409.2209    2424.0155   -4310.5694   -14968.743    16845.572    82.000345 
   48600    827.59246   -117.82136   0.74882305   -117.07254    4951.5279    4.3351394    4.3351394    4.3351394    4951.5279    5747.0434    6908.9314    2198.6089    -1161.579    18764.013    613.61433    81.472156 
   48700    777.14389   -117.77549   0.70317612   -117.07232   -5690.5989    4.3468055    4.3468055    4.3468055   -5690.5989   -23400.542    13373.282   -7044.5372    1238.7037   -7302.4519   -964.78101    82.131663 
   48800    669.62297   -117.68099   0.60588893    -117.0751   -1934.2102    4.3384239    4.3384239    4.3384239   -1934.2102   -16374.541    9618.2892    953.62159   -2154.2989     -32096.1    2308.3149    81.657476 
   48900    683.80236   -117.69482   0.61871874    -117.0761    5047.1786    4.3408372    4.3408372    4.3408372    5047.1786    13460.829    -6826.209    8506.9162   -9520.4151    4996.5637    6119.0072    81.793823 
   49000    971.69461   -117.95044    0.8792097   -117.07123   -6377.7216    4.3439318    4.3439318    4.3439318   -6377.7216   -14609.818    13.924984    -4537.272    4818.2485    4757.5607    6907.0517    81.968881 
   49100    622.82425   -117.63859   0.56354447   -117.07504    7339.8602    4.3359341    4.3359341    4.3359341    7339.8602   -6474.0756    26138.334    2355.3226    553.06922   -28892.759   -7998.1798    81.516967 
   49200    686.85637   -117.69718   0.62148207    -117.0757   -12084.591    4.3471357    4.3471357    4.3471357   -12084.591     -17355.4   -15702.662   -3195.7093   -9256.6996   -10761.813    12460.353    82.150381 
   49300    868.97689   -117.85867   0.78626855   -117.07241    8999.1054    4.3364637    4.3364637    4.3364637    8999.1054    6884.1702   -1301.7315    21414.877   -7249.6773    8389.4827    9032.4857    81.546844 
   49400    831.68963   -117.82682   0.75253026   -117.07429    2424.7059     4.338507     4.338507     4.338507    2424.7059   -14969.892    20173.662    2070.3468    175.26237   -17670.373   -4640.9031    81.662167 
   49500    644.17845     -117.659    0.5828662   -117.07613   -9600.7163    4.3471389    4.3471389    4.3471389   -9600.7163   -27956.607    8978.3347    -9823.877   -3580.1925   -24330.061    5428.9499    82.150562 
   49600    754.99335    -117.7565   0.68313385   -117.07337    10144.488    4.3344767    4.3344767    4.3344767    10144.488    -1867.848    1289.0962    31012.214   -15103.563    5851.1409    6001.2893    81.434796 
   49700    856.68497   -117.84768   0.77514657   -117.07253   -1770.0731    4.3439456    4.3439456    4.3439456   -1770.0731    -7611.528    5014.1306   -2712.8218   -413.37542     -7119.37    10345.447    81.969658 
   49800    780.52217   -117.77987   0.70623286   -117.07364    2258.0657    4.3406495    4.3406495    4.3406495    2258.0657   -21214.893    24870.702    3118.3883    3245.0433    -30398.08   -4623.0562    81.783212 
   49900    674.30567   -117.68505   0.61012594   -117.07492    2620.1722    4.3370414    4.3370414    4.3370414    2620.1722   -9744.8997     8917.953    8687.4633   -11506.933    1585.1248    4283.5761    81.579439 
   50000    650.07364   -117.66387   0.58820029   -117.07567   -7668.6338    4.3461733    4.3461733    4.3461733   -7668.6338     -8980.83   -17337.783    3312.7112   -4361.7446    3889.9691    18637.269    82.095835 
   50100    911.32396    -117.8969   0.82458507   -117.07232    6837.4519    4.3358852    4.3358852    4.3358852    6837.4519   -1845.3033    23410.932   -1053.2728    5956.6589   -18755.153   -4788.8012    81.514209 
   50200    824.70154   -117.81969   0.74620729   -117.07348   -3052.1548    4.3417864    4.3417864    4.3417864   -3052.1548   -17153.274    11494.966   -3498.1569   -4963.0929   -8795.7058    1999.1437     81.84749 
   50300    503.80843   -117.53462   0.45585646   -117.07876   -10800.032    4.3433248    4.3433248    4.3433248   -10800.032   -8908.7534   -21951.709   -1539.6341   -12631.773    6962.7993        10052    81.934522 
   50400    779.06872   -117.78096   0.70491775   -117.07604    3590.0422    4.3379686    4.3379686    4.3379686    3590.0422   -1559.4318    5937.2868    6392.2717   -478.85081    2775.0563     7719.549    81.631771 
   50500    1122.4593   -118.08629    1.0156248   -117.07066    1683.7635    4.3424666    4.3424666    4.3424666    1683.7635   -4929.5664     12322.45   -2341.5935    2542.9649   -14856.642   -852.36937    81.885962 
   50600    566.55694   -117.59328   0.51263263   -117.08065     244.8434    4.3379974    4.3379974    4.3379974     244.8434   -4681.2124    -7474.554    12890.297   -9878.5424    1699.4403    1264.1163    81.633397 
   50700    435.25974   -117.47715   0.39383216   -117.08331   -9103.0203     4.344524     4.344524     4.344524   -9103.0203   -17530.748   -6838.1652   -2940.1475   -7881.7137     10659.62    18275.119    82.002405 
   50800    1085.6552   -118.05616   0.98232367   -117.07383    4819.7208    4.3407947    4.3407947    4.3407947    4819.7208    414.24079    14350.492   -305.57032    4682.2447   -3986.7203   -3051.5947     81.79142 
   50900    882.32752   -117.87388   0.79834848   -117.07553    9975.0557    4.3357835    4.3357835    4.3357835    9975.0557    9185.3425    4804.1652    15935.659   -7329.3466    1217.4857   -9600.4985    81.508475 
   51000    309.62444   -117.36369    0.2801547   -117.08353   -16189.859    4.3472259    4.3472259    4.3472259   -16189.859   -13096.151   -23163.663   -12309.762   -13340.154      4294.58    11757.189    82.155497 
   51100      702.542   -117.71435   0.63567476   -117.07868   -1268.5578    4.3371032    4.3371032    4.3371032   -1268.5578   -7101.6789     2797.654    498.35135    1064.7806    17669.576    9375.9301    81.582924 
   51200    1010.2507   -117.98668    0.9140961   -117.07258    5747.3474    4.3404084    4.3404084    4.3404084    5747.3474    12028.616    3482.8528    1730.5738    1239.7895    637.54496   -7915.6842    81.769584 
   51300    583.06264   -117.60652   0.52756733   -117.07895   -11474.184    4.3460584    4.3460584    4.3460584   -11474.184   -10602.861   -29011.573    5191.8821   -9861.3719   -5482.2404   -2808.4769    82.089323 
   51400    432.55112   -117.46858   0.39138135    -117.0772   -192.48921    4.3350678    4.3350678    4.3350678   -192.48921   -1946.1693   -8048.3188    9417.0205   -11206.878    18267.052    17427.697    81.468115 
   51500    921.57585   -117.90666    0.8338612    -117.0728   -9351.3604    4.3440556    4.3440556    4.3440556   -9351.3604   -18272.636     611.4227   -10392.868    4463.2666   -3106.3406   -2035.5339     81.97589 
   51600    729.57422   -117.73392   0.66013409   -117.07378    3525.5218    4.3405833    4.3405833    4.3405833    3525.5218    8152.6174   -10767.388    13191.335   -2808.0406   -8713.7865   -5110.1579    81.779467 
   51700    541.87782   -117.56705   0.49030244   -117.07675   -3962.9605    4.3388062    4.3388062    4.3388062   -3962.9605   -5444.5174    -20955.36    14510.996   -16585.124    5304.4975    16219.816    81.679063 
   51800     677.2151   -117.68733   0.61275846   -117.07457   -5070.3149    4.3452712    4.3452712    4.3452712   -5070.3149   -5068.3213   -1215.8357   -8926.7877   -208.50513    4168.9683    7219.4673    82.044723 
   51900    875.22239   -117.86248   0.79191961   -117.07057    3156.2057    4.3375447    4.3375447    4.3375447    3156.2057   -10380.811    7854.9821    11994.446      529.573   -2822.2189    -7398.676     81.60784 
   52000    454.18753   -117.48775   0.41095842   -117.07679    3573.6236    4.3421989    4.3421989    4.3421989    3573.6236     12645.76   -17500.092    15575.203   -9983.1997   -8347.0261    5171.8291    81.870819 
   52100    665.43708   -117.67726   0.60210145   -117.07516   -4373.2682    4.3416992    4.3416992    4.3416992   -4373.2682   -5125.7209    -10576.87    2582.7858    -9639.435    12141.323    19410.039    81.842559 
   52200    792.57084   -117.78872   0.71713475   -117.07158    9249.2971    4.3392851    4.3392851    4.3392851    9249.2971    922.80138    9797.9519    17027.138    5561.1269   -4101.7934   -5062.5776    81.706115 
   52300    657.66865   -117.67079   0.59507242   -117.07572    -9346.283    4.3439299    4.3439299    4.3439299    -9346.283   -15288.324   -10986.337   -1764.1881    2302.0266   -15820.053   -5343.4175    81.968774 
   52400    400.50523   -117.44074   0.36238555   -117.07835    6237.9532    4.3367425    4.3367425    4.3367425    6237.9532    17170.869   -9509.5772    11052.568   -19119.801    4661.4132    21450.074    81.562569 
   52500    881.27378   -117.87136   0.79739504   -117.07396   -5145.0698    4.3431073    4.3431073    4.3431073   -5145.0698   -5530.5506   -11776.277    1871.6187   -1648.5466   -4624.3021    8333.7761    81.922214 
   52600    788.84025   -117.78707   0.71375924   -117.07331   -4481.4624    4.3439222    4.3439222    4.3439222   -4481.4624   -9238.4201    2170.6241   -6376.5911    7636.2145   -5204.0508   -7781.8195    81.968336 
   52700    432.16443   -117.46906   0.39103146   -117.07803   -91.980838    4.3356878    4.3356878    4.3356878   -91.980838    4654.9871   -8170.5949    3239.6652   -13070.561   -8301.4536    11017.686     81.50308 
   52800    631.82974   -117.64946   0.57169283   -117.07776   -3438.3933    4.3436952    4.3436952    4.3436952   -3438.3933    14997.729   -23939.449   -1373.4598   -12359.522    2561.9414    22593.487    81.955487 
   52900    934.66941   -117.91712   0.84570852   -117.07141    522.01409    4.3427531    4.3427531    4.3427531    522.01409   -1713.6123    2581.5823    698.07225    5720.2373    3271.1128   -6495.9825     81.90217 
   53000    572.03567   -117.59408   0.51758989   -117.07649    1107.7043    4.3371195    4.3371195    4.3371195    1107.7043   -2450.9236    3277.7885    2496.2481    7940.6239   -16908.141     -1420.36    81.583847 
   53100    389.95119   -117.43213   0.35283603   -117.07929   -3102.2201    4.3439244    4.3439244    4.3439244   -3102.2201    6187.2415   -23400.376    7906.4738   -18340.509    2073.4483    21274.448     81.96846 
   53200    852.45469   -117.84471   0.77131892   -117.07339    718.41118    4.3401653    4.3401653    4.3401653    718.41118    3570.0848   -5991.8067    4576.9554   -2851.7166    1837.9343    713.13125    81.755847 
   53300     756.5204    -117.7579   0.68451556   -117.07338     4713.762    4.3378748    4.3378748    4.3378748     4713.762   -7022.3291     6807.718    14355.897    14411.907   -3139.7071   -6330.6713    81.626475 
   53400    534.03717   -117.56063   0.48320805   -117.07742   -13250.995    4.3456004    4.3456004    4.3456004   -13250.995   -14702.211   -22595.096   -2455.6773   -11921.001   -6547.4932    11613.139    82.063372 
   53500    603.49121   -117.62112   0.54605153   -117.07507    2833.1276    4.3388321    4.3388321    4.3388321    2833.1276    8176.4395   -9557.3468    9880.2901   -12814.845   -2400.1698    16301.946    81.680527 
   53600    885.04248   -117.87224   0.80080503   -117.07144   -2219.3747    4.3394621    4.3394621    4.3394621   -2219.3747   -6901.0847   -1466.3396    1709.3002    7255.6502    15351.796   -5535.8289    81.716113 
   53700    621.40071   -117.63764   0.56225642   -117.07538   -4628.0118    4.3439761    4.3439761    4.3439761   -4628.0118    472.64777   -12307.324   -2049.3591    6096.5242   -11797.723   -1841.2873    81.971385 
   53800    606.75555   -117.62486   0.54900517   -117.07585    1700.9365    4.3369172    4.3369172    4.3369172    1700.9365    4642.6826   -1954.2293     2414.356   -11836.732   -8382.3403     21480.48     81.57243 
   53900    718.42977   -117.72435   0.65005035    -117.0743    966.76332    4.3434402    4.3434402    4.3434402    966.76332    14819.754   -7270.3771    -4649.087   -1829.7018    16596.176   -674.49027    81.941053 
   54000    768.94297   -117.76864   0.69575576   -117.07289   -3608.3978     4.342479     4.342479     4.342479   -3608.3978   -3911.6497   -5697.6209   -1215.9228    15098.688    2308.1639   -5584.7495    81.886664 
   54100     614.9989   -117.63079   0.55646393   -117.07433    4531.1942    4.3350785    4.3350785    4.3350785    4531.1942    4999.8212    8508.5587    85.202563   -5593.6975   -16223.817    10659.498    81.468723 
   54200     637.8336   -117.65323   0.57712525   -117.07611   -6262.5471     4.345384     4.345384     4.345384   -6262.5471   -3265.8275   -10195.498   -5326.3157   -3596.5558   -396.58698    7607.6263    82.051117 
   54300    768.42223   -117.76777   0.69528458   -117.07249   -327.52377    4.3409494    4.3409494    4.3409494   -327.52377     2271.928   -486.32504   -2768.1743     3797.636    22680.037   -4340.4232    81.800165 
   54400    722.16756   -117.72565   0.65343239   -117.07221    -1358.482    4.3381575    4.3381575    4.3381575    -1358.482   -6572.2015    5567.3935    -3070.638    3096.3516   -14829.727   -1709.0536    81.642437 
   54500    581.27836   -117.60034   0.52595287   -117.07439   -11380.987    4.3454459    4.3454459    4.3454459   -11380.987   -8580.6407   -4382.1665   -21180.154   -1864.1437   -21922.597    17009.927    82.054621 
   54600    699.20505   -117.70618   0.63265542   -117.07353    3846.9713    4.3376814    4.3376814    4.3376814    3846.9713    7188.5789    2643.7588    1708.5761   -9430.4957    24206.062    835.01355    81.615557 
   54700    814.21338   -117.80941   0.73671737   -117.07269    -1111.903    4.3394657    4.3394657    4.3394657    -1111.903   -5951.9159     9090.978   -6474.7712    7522.8154    3653.3666   -5676.7934    81.716316 
   54800    580.43803   -117.60138   0.52519253   -117.07619   -7333.7737    4.3440746    4.3440746    4.3440746   -7333.7737   -9166.0306    -221.8856   -12613.405   -3378.8869   -27770.844    13018.415    81.976962 
   54900    622.26169   -117.63805   0.56303545   -117.07501    796.10086    4.3402329    4.3402329    4.3402329    796.10086   -580.72336    9538.8485   -6569.8225   -4194.4795    3967.1262    5631.6203    81.759663 
   55000     844.4834   -117.83503   0.76410632   -117.07092    4343.4604    4.3396412    4.3396412    4.3396412    4343.4604    1496.7146    8730.4936     2803.173    3733.7648    19310.522    2085.2361    81.726231 
   55100    694.20818   -117.70218   0.62813415   -117.07405   -2443.7821    4.3399467    4.3399467    4.3399467   -2443.7821   -6387.7883    15741.873   -16685.431   -4634.1967   -23629.387    1982.3098    81.743491 
   55200    559.70033   -117.58334   0.50642862   -117.07691   -7791.2795    4.3433974    4.3433974    4.3433974   -7791.2795    452.53685    1575.6144    -25401.99    7113.5057   -22411.201    9487.7558    81.938631 
   55300    840.54154   -117.83373   0.76053965   -117.07319    7344.1268    4.3370992    4.3370992    4.3370992    7344.1268    11653.835    12570.738   -2192.1926   -6328.6751    20071.783    3380.0948    81.582697 
   55400    723.58779   -117.72967   0.65471744   -117.07496    5024.8672    4.3400308    4.3400308    4.3400308    5024.8672    14298.794    12910.985   -12135.177   -1562.1963   -10811.989   -7594.7557    81.748244 
   55500    529.03205   -117.55518   0.47867932    -117.0765   -10813.362    4.3461992    4.3461992    4.3461992   -10813.362   -9997.1874    11818.323   -34261.222    5603.9947   -36513.748     7361.169    82.097304 
   55600    827.78354   -117.81997   0.74899594   -117.07097    5424.9117    4.3352274    4.3352274    4.3352274    5424.9117    20370.351    4042.7876    -8138.404   -4822.3309    5748.3263    5873.0694    81.477114 
   55700    752.16142   -117.75395   0.68057146   -117.07338    1043.8754    4.3418005    4.3418005    4.3418005    1043.8754     4729.697     7315.245   -8913.3158    2257.5531     2733.521   -2772.1955    81.848285 
   55800    516.75402   -117.54561   0.46756989   -117.07804   -8526.2096    4.3416433    4.3416433    4.3416433   -8526.2096   -16375.166    17150.138   -26353.601   -8976.5375    -34949.95   -363.84404    81.839395 
   55900    774.91695    -117.7751   0.70116114   -117.07394    1106.1442    4.3377955    4.3377955    4.3377955    1106.1442    8603.2043    7877.0983    -13161.87    4135.5737   -11366.241    7231.0564    81.622001 
   56000    899.77082   -117.88547   0.81413155   -117.07134   -8231.4091    4.3459616    4.3459616    4.3459616   -8231.4091    4194.0364    -11228.52   -17659.743     5326.395    7687.3553     3988.461    82.083835 
   56100    379.13058   -117.42151   0.34304532   -117.07847    5482.8239    4.3362026    4.3362026    4.3362026    5482.8239    6123.9482    26766.844    -16442.32    -10393.22   -30569.639   -3570.3053    81.532112 
   56200    636.89065   -117.65563   0.57627204   -117.07936   -1533.6329    4.3405839    4.3405839    4.3405839   -1533.6329    696.76252    17811.287   -23108.948    4870.9676   -20841.498    742.78492    81.779501 
   56300    978.74517   -117.95655    0.8855892   -117.07096     572.1758     4.344486     4.344486     4.344486     572.1758    14637.275   -3116.6257   -9804.1218    4091.7689    9712.4384    480.37544    82.000256 
   56400    511.38166   -117.54042   0.46270887   -117.07771   -194.90387    4.3391563    4.3391563    4.3391563   -194.90387    -5242.395    25010.517   -20352.834    4536.3938   -21707.056    -747.7088     81.69884 
   56500    404.47889   -117.44518     0.365981    -117.0792   -7545.6002    4.3444375    4.3444375    4.3444375   -7545.6002    -14565.62    21371.885   -29443.065   -4160.3858   -29302.832   -6883.9768    81.997507 
   56600    965.76728   -117.94527   0.87384653   -117.07143    7723.1179     4.336027     4.336027     4.336027    7723.1179    11376.128    10661.164    1132.0615   -1983.7002    7759.8523    2674.2665     81.52221 
   56700    730.88021   -117.73868   0.66131577   -117.07736   -3175.1893     4.341731     4.341731     4.341731   -3175.1893   -1901.5127    4031.1385   -11655.194    16305.076     -4729.93    2663.9106    81.844356 
   56800    240.58416   -117.30013    0.2176856   -117.08245   -8616.5699    4.3454017    4.3454017    4.3454017   -8616.5699   -6825.5798    18236.097   -37260.227   -4709.2182   -40229.489   -6031.3216    82.052115 
   56900    732.26173   -117.73887    0.6625658    -117.0763    8897.6013     4.336929     4.336929     4.336929    8897.6013    16372.727    9594.4049    725.67157   -4629.1656   -4037.4103    1.2621672    81.573095 
   57000    925.31101   -117.90828   0.83724085   -117.07104   -2257.1568    4.3442395    4.3442395    4.3442395   -2257.1568   -2390.4041   -2958.9436   -1422.1226    6220.0192    7270.1312    -5185.915    81.986298 
   57100    388.24232   -117.43088   0.35128981   -117.07959    -6377.805    4.3387837    4.3387837    4.3387837    -6377.805   -16390.375    15112.227   -17855.268    8144.0769   -34218.831    1506.6382    81.677796 
   57200    484.50603    -117.5195   0.43839124   -117.08111   -3964.4573    4.3399921    4.3399921    4.3399921   -3964.4573   -2709.2321    7619.1934   -16803.333   -4786.6948   -18389.576   -11145.917    81.746057 
   57300    905.41996   -117.89221   0.81924301   -117.07297    2499.3967    4.3440508    4.3440508    4.3440508    2499.3967    2781.8375   -5617.8906    10334.243   -6679.3613    8944.8628   -6041.2288    81.975614 
   57400    680.33838   -117.69111   0.61558447   -117.07552    1681.9075    4.3380554    4.3380554    4.3380554    1681.9075   -4530.2711    12058.199   -2482.2051    14142.143   -13089.293    8851.1914    81.636672 
   57500    304.82064   -117.35467   0.27580812   -117.07887   -8078.1434    4.3447432    4.3447432    4.3447432   -8078.1434   -19850.896    12341.122   -16724.656    1552.4377   -29966.794   -8514.0678    82.014818 
   57600    774.51278   -117.77388   0.70079544   -117.07308    3455.8646    4.3397762    4.3397762    4.3397762    3455.8646    8401.0972    3046.1606    -1079.664   -8281.2451    2944.0185   -2272.4632    81.733858 
   57700    810.68817   -117.80508   0.73352769   -117.07155    7286.9291    4.3395597    4.3395597    4.3395597    7286.9291     5987.822    10242.547    5630.4186     2148.698   -688.16579    1103.2875    81.721627 
   57800    567.25788   -117.59012   0.51326685   -117.07685   -10131.025    4.3426514    4.3426514    4.3426514   -10131.025   -20605.559    16546.092   -26333.608    5153.6533   -33821.984    3884.8855    81.896418 
   57900    587.71572   -117.60912   0.53177753   -117.07734    2367.3167    4.3385737    4.3385737    4.3385737    2367.3167   -349.96228    14220.804   -6768.8914   -5507.4454   -7529.5504   -9282.2995    81.665933 
   58000    813.47137   -117.80677   0.73604599   -117.07072    385.90511    4.3461494    4.3461494    4.3461494    385.90511    6329.3995   -8854.3137    3682.6295   -8614.6466    4493.8707   -10482.638    82.094477 
   58100    591.55571    -117.6084   0.53525204   -117.07315    -2263.121    4.3413376    4.3413376    4.3413376    -2263.121   -12875.672    14206.246   -8119.9372    1448.8204   -26224.276    12736.017    81.822113 
   58200    550.58205   -117.57278   0.49817821    -117.0746   -553.28831    4.3380524    4.3380524    4.3380524   -553.28831   -11672.182    15217.091   -5204.7746    2551.3073   -21189.198   -4938.7694    81.636499 
   58300    877.05889   -117.86567   0.79358131   -117.07209   -2344.6071     4.343344     4.343344     4.343344   -2344.6071    5051.4679   -10164.444   -1920.8451   -3874.8999    5739.2315   -10936.955    81.935609 
   58400    633.99736   -117.65001   0.57365413   -117.07635    3275.6042    4.3409169    4.3409169    4.3409169    3275.6042    3076.5073    9626.5396   -2876.2343   -2384.2842   -8427.2175    3371.3467    81.798329 
   58500    497.84793   -117.52885   0.45046327   -117.07838   -9866.9788    4.3417814    4.3417814    4.3417814   -9866.9788    -12890.85    17823.157   -34533.243     6138.008   -29792.773    6493.5111    81.847209 
   58600    869.49954   -117.86057   0.78674146   -117.07383   -1835.7309    4.3427854    4.3427854    4.3427854   -1835.7309    -1695.257    813.45796   -4625.3936   -4568.4424    2738.6282   -3313.8969    81.903999 
   58700    922.76448   -117.90632   0.83493669   -117.07138    2585.5887    4.3413959    4.3413959    4.3413959    2585.5887    8492.8664     606.6786   -1342.7788   -5102.4683   -1574.0253   -3721.4824    81.825408 
   58800     377.7338    -117.4217   0.34178148   -117.07992   -3194.2664    4.3396928    4.3396928    4.3396928   -3194.2664   -7159.0967    13253.985   -15677.687    2354.6338    -34158.83    16705.441    81.729147 
   58900    535.08781    -117.5665    0.4841587   -117.08234   -1982.0406    4.3418791    4.3418791    4.3418791   -1982.0406    162.61546    3909.2924    -10018.03    581.41889   -4516.9391    8652.9925    81.852733 
   59000    1129.5777   -118.09376    1.0220656    -117.0717   -272.92721      4.34234      4.34234      4.34234   -272.92721    1725.9532   -2201.6155   -343.11932    3701.9934    8144.2451   -2247.4956    81.878801 
   59100    624.06558   -117.64364   0.56466765   -117.07897    7749.8295    4.3382936    4.3382936    4.3382936    7749.8295    7732.1691     15043.28    474.03954   -1477.3293   -29413.528     5313.615    81.650121 
   59200    456.29637    -117.4941   0.41286655   -117.08123   -12089.292    4.3445848    4.3445848    4.3445848   -12089.292   -9576.3389    5658.6683   -32350.206    3250.4065   -22512.904    11780.362    82.005851 
   59300    860.00774   -117.85342   0.77815308   -117.07527    3046.1738    4.3414902    4.3414902    4.3414902    3046.1738    9643.3534    5158.8732   -5663.7053    2996.6633    17677.747    3421.6307    81.830741 
   59400    983.87757   -117.96251    0.8902331   -117.07228    3721.3448    4.3379885    4.3379885    4.3379885    3721.3448   -1579.3038    14014.623   -1271.2852   -2747.1926    -6990.017   -5766.9718    81.632896 
   59500    425.93123   -117.46461   0.38539152   -117.07922   -1797.5707    4.3452169    4.3452169    4.3452169   -1797.5707   -9801.3965    10792.193   -6383.5088    2118.4099   -36500.191    6818.6506    82.041651 
   59600    700.91809   -117.71087   0.63420541   -117.07666    1436.5668    4.3391227    4.3391227    4.3391227    1436.5668    717.36307    6722.8081   -3130.4706    2731.4793    8066.4367    10512.374    81.696938 
   59700    910.02797   -117.89534   0.82341243   -117.07193    4604.7121    4.3417941    4.3417941    4.3417941    4604.7121   -988.94379    8234.1602    6568.9199    3116.2225    8417.9192   -5032.0346    81.847926 
   59800     696.2737   -117.70635   0.63000308   -117.07634   -4812.1655      4.34263      4.34263      4.34263   -4812.1655   -12044.214    13364.667   -15756.949    1232.6637   -32126.526   -3397.1319    81.895207 
   59900    612.26258   -117.63045   0.55398805   -117.07646    3409.7943    4.3378075    4.3378075    4.3378075    3409.7943    3428.2024    10898.143    -4096.962   -1331.9465   -12095.521    17520.282    81.622677 
   60000    868.82035   -117.85866   0.78612691   -117.07253   -4528.5436    4.3478618    4.3478618    4.3478618   -4528.5436   -1856.7737   -9805.0164   -1923.8407    3404.5118    12289.814    9354.4726    82.191556 
   60100    814.94633   -117.80935   0.73738056   -117.07197    6341.1153    4.3370391    4.3370391    4.3370391    6341.1153   -1679.7945    12265.432    8437.7089   -2771.1729   -10148.083   -9753.1616    81.579308 
   60200    512.73748      -117.54   0.46393565   -117.07606     3483.133      4.33979      4.33979      4.33979     3483.133   -6157.1748    5174.4987    11432.075   -3060.7552   -25175.336      10275.8    81.734639 
   60300    745.21153   -117.75091   0.67428305   -117.07663   -6725.9481    4.3444574    4.3444574    4.3444574   -6725.9481    4105.9908   -18257.194   -6026.6413     1732.797    3434.4236    25884.865    81.998635 
   60400    964.93994   -117.94549   0.87309793   -117.07239    8775.5538    4.3368646    4.3368646    4.3368646    8775.5538    2955.6879    2608.9917    20761.982     1497.769    4650.9505   -924.90894    81.569459 
   60500    702.64195   -117.71092    0.6357652   -117.07516   -14282.185    4.3481892    4.3481892    4.3481892   -14282.185    -22775.72   -1260.8322   -18810.002    2215.2023   -31153.454   -2646.7777    82.210124 
   60600    540.93781   -117.56622    0.4894519   -117.07676   -997.56616    4.3371098    4.3371098    4.3371098   -997.56616    11176.851   -11668.688   -2500.8612     -1114.08   -7337.1449    25089.229    81.583298 
   60700    896.83119   -117.88526   0.81147171   -117.07378     1028.231    4.3412855    4.3412855    4.3412855     1028.231    892.18481   -18879.166    21071.674    3238.7669    5341.2852    10720.964    81.819165 
   60800    935.38057    -117.9198     0.846352   -117.07345   -3474.8651    4.3430214    4.3430214    4.3430214   -3474.8651   -20100.028   -708.98054    10384.413    3868.8362   -18455.509   -9263.5347    81.917352 
   60900    533.85791    -117.5617   0.48304585   -117.07865    130.15552    4.3370877    4.3370877    4.3370877    130.15552    4026.4184   -9782.6938     6146.742    -1328.876   -16816.641    23455.533    81.582048 
   61000    757.38545   -117.76206   0.68529827   -117.07677   -16695.957     4.348094     4.348094     4.348094   -16695.957    3522.0187   -39114.608   -14495.281    2466.8581     379.7222    30910.557    82.204725 
   61100    1029.6245   -118.00169   0.93162592   -117.07007    7184.7951    4.3360067    4.3360067    4.3360067    7184.7951   -4941.7228     1069.541    25426.567    3336.0408    1569.1627   -7832.4297    81.521062 
   61200    689.46779   -117.69961   0.62384494   -117.07576      -6239.4    4.3423468    4.3423468    4.3423468      -6239.4   -12926.498   -5686.2719    -105.4303     1442.963    -19212.16    8470.2651    81.879185 
   61300    495.33603   -117.52821   0.44819045   -117.08002   -7933.3437    4.3431904    4.3431904    4.3431904   -7933.3437    12781.143   -24588.594    -11992.58   -789.43082   -6857.2805    32246.901    81.926917 
   61400    962.22415   -117.94421   0.87064064   -117.07357    9082.9691    4.3357174    4.3357174    4.3357174    9082.9691    7367.0419   -3114.5562    22996.422    2045.1666    8907.1095    5023.9472    81.504747 
   61500    928.39645   -117.91437   0.84003262   -117.07433   -5956.8089     4.346637     4.346637     4.346637   -5956.8089   -16969.067    286.41517    -1187.775    3727.0018   -12024.876   -8559.1407    82.122114 
   61600    434.71876   -117.47428   0.39334267   -117.08094    2561.6614    4.3374401    4.3374401    4.3374401    2561.6614    15393.829   -2440.7941   -5268.0503   -5.6285049   -14212.478    29491.628     81.60194 
   61700    788.10726   -117.79256   0.71309601   -117.07946    799.22907    4.3418816    4.3418816    4.3418816    799.22907    10369.094   -12204.924    4233.5168    -312.3072    193.05758     25072.88    81.852873 
   61800    1055.7984   -118.02852   0.95530859   -117.07321    11315.881    4.3415346    4.3415346    4.3415346    11315.881   -122.87085    4697.8477    29372.666    1304.8999    2641.3978   -11853.016    81.833252 
   61900    543.05589   -117.57268   0.49136839   -117.08131    9314.1869    4.3348314    4.3348314    4.3348314    9314.1869    13928.176    8643.0781    5371.3066    1185.2342   -10756.071    21635.244    81.454793 
   62000    423.24147   -117.46562   0.38295778   -117.08267   -16502.061    4.3524836    4.3524836    4.3524836   -16502.061   -2240.1576   -19412.934    -27853.09   -2159.8398   -10175.638    35757.823    82.453944 
   62100    1121.1091   -118.08618    1.0144031   -117.07178    13945.277    4.3333253    4.3333253    4.3333253    13945.277    10052.082    14251.714    17532.033   -1838.0726    5979.2284    -4142.198    81.369915 
   62200    928.17308   -117.91874    0.8398305   -117.07891     4344.639    4.3370652    4.3370652    4.3370652     4344.639    540.12107    6886.4912    5607.3047    3033.2336   -2083.3495    1415.6394    81.580781 
   62300    176.82679   -117.24733    0.1599966   -117.08734    -22357.84    4.3516799    4.3516799    4.3516799    -22357.84   -8450.9103    -21330.23   -37292.381   -214.90849   -9742.3347    39490.917    82.408278 
   62400    755.90723   -117.76421   0.68396075   -117.08025    7280.8931    4.3299521    4.3299521    4.3299521    7280.8931     10329.09    5343.8278    6169.7613   -2607.8571   -5892.8371    14634.402     81.18004 
   62500    1112.7371   -118.08137    1.0068279   -117.07455    3296.4749    4.3462661    4.3462661    4.3462661    3296.4749   -7921.9814   -837.72688    18649.133   -1940.1531    3082.1577   -10141.488    82.101091 
   62600    501.71904   -117.53668   0.45396593   -117.08271   -12928.895    4.3460289    4.3460289    4.3460289   -12928.895   -514.95008   -14249.612   -24022.122     2538.179   -6267.7119    33339.659    82.087652 
   62700    331.52393   -117.38026   0.29996982   -117.08029    2863.5632    4.3321425    4.3321425    4.3321425    2863.5632    10732.176    7913.0598   -10054.546   -3342.8346   -11440.185    27980.755    81.303308 
   62800    1037.0147   -118.01143   0.93831273   -117.07312   -6682.4839    4.3469061    4.3469061    4.3469061   -6682.4839   -15494.725   -631.93407   -3920.7926   -4815.1746    1885.1392   -13412.663    82.137367 
   62900    738.33787   -117.74417   0.66806362   -117.07611    13028.095    4.3377528    4.3377528    4.3377528    13028.095    9688.6256    10344.181    19051.477    3776.1602    1276.9831    10250.169     81.61959 
   63000    306.97324   -117.36131   0.27775584   -117.08355   -7319.4968    4.3414822    4.3414822    4.3414822   -7319.4968    5137.9193   -4210.3085   -22886.101   -934.95874   -13186.797    33439.607    81.830289 
   63100    652.75924   -117.66888   0.59063028   -117.07825   -4523.7203    4.3416922    4.3416922    4.3416922   -4523.7203   -8618.2886    3410.8979   -8363.7703   -2811.6032   -10690.306    993.36259    81.842161 
   63200     930.4619   -117.91391   0.84190148   -117.07201     9671.442     4.338567     4.338567     4.338567     9671.442    1930.7083    6557.1426    20526.475   -3635.8026    5253.3976   -8957.5718    81.665559 
   63300      501.828   -117.53186   0.45406452    -117.0778   -15524.615    4.3489593    4.3489593    4.3489593   -15524.615    1054.9405   -28540.903   -19087.882    1226.9992    -3827.217    33131.715     82.25381 
   63400    457.35645   -117.49224   0.41382573   -117.07842    6715.3708    4.3287836    4.3287836    4.3287836    6715.3708    15384.569    3867.2225    894.32083    143.13144   -16997.162    23689.745    81.114337 
   63500    924.49761   -117.91389   0.83650486   -117.07738     499.1367    4.3420343    4.3420343    4.3420343     499.1367   -11808.441   -1238.2164    14544.067   -7938.3908   -2310.5884   -12125.838     81.86151 
   63600    661.97442   -117.67348   0.59896837   -117.07451   -6883.3496    4.3517064    4.3517064    4.3517064   -6883.3496    -4827.495   -31460.117    15637.563    437.20715    4534.8773    15446.059    82.409779 
   63700     441.4101   -117.47426   0.39939714   -117.07486    6152.6961    4.3271739    4.3271739    4.3271739    6152.6961    24625.339   -6447.9487    280.69791    1000.0867   -11435.398     29113.51    81.023884 
   63800    700.53133   -117.70939   0.63385547   -117.07554   -5867.1466    4.3438184    4.3438184    4.3438184   -5867.1466   -13171.224   -772.50676    -3657.709   -5246.3102   -16233.706   -2454.5167    81.962457 
   63900    931.32718   -117.91337    0.8426844   -117.07068   -10586.982    4.3483285    4.3483285    4.3483285   -10586.982   -15250.136   -20872.999     4362.188   -3767.9959   -838.32176    58.805082    82.218027 
   64000    520.02681   -117.54669   0.47053119   -117.07616    6764.8747     4.328361     4.328361     4.328361    6764.8747    23347.304   -12129.984    9077.3045    731.53656    817.18596    31247.182    81.090583 
   64100    490.56792   -117.52395   0.44387616   -117.08007   -7166.2331    4.3434095    4.3434095    4.3434095   -7166.2331    -14119.06   -6958.4996   -421.13959    1261.9401   -24155.527    9531.5163    81.939315 
   64200    869.14976    -117.8583   0.78642497   -117.07187   -8874.0185    4.3496689    4.3496689    4.3496689   -8874.0185   -24152.519   -7247.5609    4778.0246   -7129.5462   -5549.8175   -5606.4282     82.29408 
   64300    694.07114   -117.70005   0.62801015   -117.07204    11065.375    4.3299732    4.3299732    4.3299732    11065.375    15889.152   -3855.5306    21162.503   -1459.4445    12415.239     25191.81     81.18123 
   64400    568.87289   -117.59118   0.51472814   -117.07645   -10843.301    4.3419733    4.3419733    4.3419733   -10843.301   -5210.6834   -9173.9252   -18145.296    2630.6937   -17202.185    20175.987    81.858061 
   64500    686.52404   -117.69571   0.62118138   -117.07453   -9372.9202    4.3481783    4.3481783    4.3481783   -9372.9202     -26416.5    5294.0872   -6996.3474   -7173.0662   -13147.155   -7487.7057    82.209506 
   64600    781.63709   -117.77819   0.70724167   -117.07095    8834.8883     4.333445     4.333445     4.333445    8834.8883    1393.3256    10827.748    14283.591   -2866.1038     13160.07    3549.2625     81.37666 
   64700    553.57018   -117.57634   0.50088193   -117.07546   -481.41838    4.3411778    4.3411778    4.3411778   -481.41838   -2747.0309   -4544.8822    5847.6579    215.94031     3060.239     20517.73    81.813078 
   64800    673.62379   -117.68482   0.60950896   -117.07531   -7779.2192    4.3443804    4.3443804    4.3443804   -7779.2192   -10961.365    1830.3411   -14206.634    3556.1073   -20307.359   -369.66105    81.994276 
   64900    787.98797   -117.78555   0.71298807   -117.07256    2838.4944    4.3374697    4.3374697    4.3374697    2838.4944   -13479.454    19357.769    2637.1676   -3753.5993    2485.5487   -5353.6371    81.603606 
   65000    648.96994   -117.66289   0.58720164   -117.07569   -887.25304    4.3404993    4.3404993    4.3404993   -887.25304   -8121.4513    2996.5372     2463.155   -6620.2131    23560.565    14176.082    81.774719 
   65100    734.06228   -117.73885   0.66419498   -117.07466    2567.9106     4.339993     4.339993     4.339993    2567.9106     3290.489    6818.6061   -2405.3634    2879.3122   -14831.502    12847.223    81.746108 
   65200    801.75439    -117.7979   0.72544422   -117.07246   -1003.7891    4.3441975    4.3441975    4.3441975   -1003.7891   -17701.461    5123.2172    9566.8763   -7791.8611   -8932.4485   -2348.2588     81.98392 
   65300     660.1502    -117.6725   0.59731777   -117.07519    1074.6238    4.3380447    4.3380447    4.3380447    1074.6238   -18013.382    17072.233      4165.02   -4710.1659    26831.531    1784.9327    81.636068 
   65400     695.7526   -117.70579   0.62953157   -117.07626    9293.9218    4.3342148    4.3342148    4.3342148    9293.9218    8915.8453    7129.5958    11836.324   -105.01011    8620.1512    20859.926    81.420037 
   65500    919.50728   -117.90479   0.83198951    -117.0728   -7122.2716    4.3496942    4.3496942    4.3496942   -7122.2716   -11004.804     502.0413   -10864.052    1481.7034   -15528.286    782.35779    82.295514 
   65600    769.96687   -117.77173   0.69668221   -117.07505   -1664.4131    4.3362412    4.3362412    4.3362412   -1664.4131    -20030.62     20392.28   -5354.8997   -2243.2318    15422.969   -6572.9472     81.53429 
   65700    573.19999   -117.59679    0.5186434   -117.07815    5219.0667     4.334158     4.334158     4.334158    5219.0667   -4316.6127    23034.041   -3060.2285   -5933.6859    27762.153    10336.926    81.416838 
   65800     928.2037   -117.91241   0.83985821   -117.07255   -11569.736    4.3507083    4.3507083    4.3507083   -11569.736   -10074.854   -14741.778   -9892.5764    8990.5454    -10769.67    8016.2298    82.353092 
   65900    869.42321   -117.85888   0.78667239   -117.07221    11180.984    4.3322896    4.3322896    4.3322896    11180.984   -3556.8485    26575.965    10523.834   -2296.6648   -111.56489    1311.8686    81.311587 
   66000    626.55652   -117.64551    0.5669215   -117.07859   -2021.7461    4.3376989    4.3376989    4.3376989   -2021.7461   -27446.634    26192.526   -4811.1308   -7700.8476    30486.045   -2930.6796    81.616544 
   66100    715.33047   -117.72272   0.64724604   -117.07548   -6813.3051    4.3469831    4.3469831    4.3469831   -6813.3051   -19115.819   -572.16625   -751.92989    2922.3415    5117.4539    15642.553    82.141729 
   66200    946.65034   -117.92735   0.85654912    -117.0708    8950.4721    4.3339748    4.3339748    4.3339748    8950.4721   -3032.1804     13875.58    16008.016    7537.3961   -6720.5061    12282.027    81.406509 
   66300    757.68663    -117.7603   0.68557078   -117.07473   -6394.0321    4.3422355    4.3422355    4.3422355   -6394.0321   -34135.874    26316.594   -11362.816    612.78378    25733.087   -7659.0308    81.872888 
   66400    673.34842   -117.68426    0.6092598     -117.075   -839.66935     4.340165     4.340165     4.340165   -839.66935    -21942.88    24789.303    -5365.431   -6987.7022      19719.3    10522.644    81.755828 
   66500    861.29905   -117.85373   0.77932148   -117.07441   -1579.0738    4.3383331    4.3383331    4.3383331   -1579.0738   -5946.9245    -5545.555     6755.258    12535.018   -8668.1678    10431.032     81.65235 
   66600    711.99536   -117.71993   0.64422836    -117.0757   -3285.4247    4.3412899    4.3412899    4.3412899   -3285.4247   -23242.537    21326.469   -7940.2063     6396.317    17043.917    1860.9392    81.819414 
   66700    832.98727   -117.82749   0.75370439   -117.07379   -1459.0419    4.3384282    4.3384282    4.3384282   -1459.0419   -22454.162    25860.699   -7783.6633   -3719.5578    27266.901   -5794.1773     81.65772 
   66800    825.20363   -117.81932   0.74666159   -117.07266   -5047.5885    4.3460216    4.3460216    4.3460216   -5047.5885   -10474.874   -2210.9743   -2456.9168    5053.2635   -6004.6991    10129.278     82.08724 
   66900    748.89577   -117.75248   0.67761663   -117.07487   -1089.5463    4.3342232    4.3342232    4.3342232   -1089.5463   -9411.7517   -2086.1446    8229.2575    10427.962    4720.7273    15515.403    81.420512 
   67000    647.89401   -117.66506   0.58622811   -117.07883    3547.9281    4.3380807    4.3380807    4.3380807    3547.9281   -21316.616    35445.598   -3485.1981    3965.0746    29985.659   -5265.4515      81.6381 
   67100    930.10854   -117.91463   0.84158175   -117.07305   -6070.1947    4.3488655    4.3488655    4.3488655   -6070.1947   -19160.213    12392.854   -11443.225   -5269.3578    3229.0496    7447.0425    82.248491 
   67200    768.47958   -117.76796   0.69533647   -117.07263    11979.091    4.3333381    4.3333381    4.3333381    11979.091    3301.5935    20434.981    12200.698    12046.375   -7105.2681    15193.656    81.370639 
   67300    548.99096   -117.57388   0.49673856   -117.07714   -6048.4008    4.3424801    4.3424801    4.3424801   -6048.4008   -25270.131    20624.779   -13499.851    8166.6987    27090.684    5979.5186    81.886727 
   67400    856.13941   -117.84858   0.77465293   -117.07392   -1555.0897    4.3420106    4.3420106    4.3420106   -1555.0897   -19673.743    27026.091   -12017.618    2307.4714    17367.487   -7945.8414     81.86017 
   67500     958.6807   -117.94035   0.86743444   -117.07292    7443.1847    4.3363528    4.3363528    4.3363528    7443.1847    3840.0813    13036.601    5452.8718    515.47777   -12838.546    5328.2422    81.540587 
   67600    622.48503   -117.64214   0.56323754   -117.07891   -9274.3253    4.3430193    4.3430193    4.3430193   -9274.3253   -12629.216   -6985.8685    -8207.891    7841.7705    11016.374    18034.321    81.917233 
   67700    709.13574   -117.71894   0.64164092    -117.0773    4969.5434    4.3371448    4.3371448    4.3371448    4969.5434   -9510.7817    21059.845    3359.5672    5240.2198    27695.441   -3557.3663     81.58527 
   67800    998.76558   -117.97679   0.90370409   -117.07308   -659.38122    4.3436643    4.3436643    4.3436643   -659.38122   -7575.1279    1489.2764    4107.7078   -8239.8209   -6243.8861   -3646.6039    81.953739 
   67900    764.94744   -117.76845   0.69214052   -117.07631    1755.1287    4.3376172    4.3376172    4.3376172    1755.1287    6505.0506   -1033.7068   -205.95766    5924.7687   -5722.4175    11868.396    81.611935 
   68000    569.81441    -117.5953   0.51558006   -117.07972     6471.445      4.33651      4.33651      4.33651     6471.445   -2752.4092    17701.069    4465.6754    6792.6063    23816.637    12553.265    81.549451 
   68100    911.98079   -117.89953   0.82517938   -117.07435   -8182.9446    4.3481601    4.3481601    4.3481601   -8182.9446    -20235.17    7554.6232   -11868.287    4174.4443    6934.3355   -8225.0731    82.208473 
   68200    841.27716   -117.83459   0.76120525   -117.07338    9846.5975    4.3313744    4.3313744    4.3313744    9846.5975    17384.877    11342.795    812.11999   -91.677519   -12034.606   -2279.2363    81.260068 
   68300    600.51465   -117.62343   0.54335827   -117.08008   -5691.2351     4.340429     4.340429     4.340429   -5691.2351   -2977.4964    383.54013   -14479.749    4450.6962    6546.4285    21003.538    81.770748 
   68400    687.99155   -117.69919   0.62250921   -117.07668   -7370.5194     4.346433     4.346433     4.346433   -7370.5194    -19054.19     3115.888    -6173.256    11175.674    17449.214   -536.77027     82.11055 
   68500    922.03536   -117.90542   0.83427697   -117.07114    9379.9207    4.3305129    4.3305129    4.3305129    9379.9207    9368.4761    9522.1663    9249.1196   -6449.0116   -4073.9892   -11276.319    81.211591 
   68600    666.21806   -117.67976   0.60280811   -117.07696   -11024.633    4.3448398    4.3448398    4.3448398   -11024.633    2089.4701   -17620.241   -17543.127    1238.1532   -4352.3461    14957.883    82.020292 
   68700    638.02729   -117.65515    0.5773005   -117.07785   -5425.1017    4.3394599    4.3394599    4.3394599   -5425.1017   -7098.5617   -14275.838    5099.0952    9277.3177    14947.483    19271.567    81.715986 
   68800    882.28863   -117.87216   0.79831329   -117.07385    7324.3705    4.3347657    4.3347657    4.3347657    7324.3705    2373.0269    3087.4209    16512.664     4681.638     5452.659    -11259.63    81.451087 
   68900    821.49641   -117.81757   0.74330721   -117.07426   -8230.3111    4.3456323    4.3456323    4.3456323   -8230.3111   -1945.3173   -17546.469   -5199.1475   -86.029875   -8895.1318   -1030.7784    82.065179 
   69000       557.87   -117.58197    0.5047725    -117.0772    3430.3086    4.3358719    4.3358719    4.3358719    3430.3086    10631.115    -10689.55     10349.36    1748.8652    1448.2703    29540.132    81.513457 
   69100    744.88982   -117.75041   0.67399196   -117.07642    2630.3374    4.3398267    4.3398267    4.3398267    2630.3374   -8528.8516   -1801.1188    18220.983    8796.0525    6801.0011     4174.491     81.73671 
   69200    864.09216   -117.85598   0.78184875   -117.07413    5798.0349    4.3392536    4.3392536    4.3392536    5798.0349   -1702.8672    867.07168      18229.9   -3492.9413   -3744.7951    -10411.25    81.704332 
   69300    571.37605   -117.59577   0.51699305   -117.07878    2868.8239    4.3375672    4.3375672    4.3375672    2868.8239    15050.128   -5844.3098   -599.34701   -3361.2866   -2692.7671    22186.445    81.609113 
   69400    617.34942   -117.63662   0.55859073   -117.07803   -10013.021    4.3443206    4.3443206    4.3443206   -10013.021   -1929.5267   -17329.648   -10779.889    4750.9094    5714.4421    20948.772    81.990891 
   69500    938.96353   -117.92149   0.84959394   -117.07189    8418.4587    4.3334342    4.3334342    4.3334342    8418.4587   -8034.4459    5200.0629    28089.759   -97.254534    5190.3278   -6866.5451    81.376051 
   69600    681.03079   -117.69323   0.61621097   -117.07702   -6747.3871    4.3423059    4.3423059    4.3423059   -6747.3871    5208.8115   -20184.643   -5266.3301   -1785.2482   -6321.0902    11984.553    81.876872 
   69700    502.73265   -117.53439   0.45488306   -117.07951   -10371.637    4.3422895    4.3422895    4.3422895   -10371.637    13429.058   -27833.558   -16710.411    212.88508   -1958.5006     30097.49    81.875944 
   69800    866.46335   -117.85781   0.78399424   -117.07382    7212.2036     4.333018     4.333018     4.333018    7212.2036   -1706.2261   -5838.3217    29181.159     6446.938    5763.8153   -2292.3653    81.352607 
   69900    824.55522   -117.82072   0.74607489   -117.07464   -5632.0265     4.344767     4.344767     4.344767   -5632.0265   -17405.243   -9595.5409    10104.705   -1418.0702   -6138.2608    397.48036     82.01617 
   70000    464.69959   -117.49948   0.42046995   -117.07901   -1827.6749    4.3388871    4.3388871    4.3388871   -1827.6749    18331.911   -21123.636   -2691.2993   -4042.4185   -2778.6361    31583.695    81.683634 
   70100    695.21651   -117.70612   0.62904651   -117.07707    2125.9897    4.3375066    4.3375066    4.3375066    2125.9897    9095.9526   -8351.5919    5633.6085    5682.3394     3076.682    5755.5998     81.60569 
   70200    930.38141   -117.91433   0.84182865   -117.07251   -2837.9107    4.3429711    4.3429711    4.3429711   -2837.9107   -17178.927    -10578.74    19243.935   -424.79021   -2250.1439   -12512.134    81.914506 
   70300    552.56614   -117.57744   0.49997346   -117.07746    1657.5137    4.3364875    4.3364875    4.3364875    1657.5137    2011.2996   -12987.502    15948.744   -4296.8057   -3035.2729    25378.828    81.548182 
   70400     516.8106   -117.54743   0.46762109   -117.07981   -5239.9529    4.3408741    4.3408741    4.3408741   -5239.9529    12798.372   -23773.028   -4745.2034   -1530.2371   -5938.9312    17890.795    81.795907 
   70500    838.03182   -117.83258   0.75826881   -117.07431    1261.7596     4.339644     4.339644     4.339644    1261.7596    2347.6449   -10575.944    12013.578    1258.1219    3000.8306   -19074.527    81.726392 
   70600    798.56518   -117.79712   0.72255855   -117.07456   -1577.6504    4.3375546    4.3375546    4.3375546   -1577.6504   -5882.1871   -12640.309    13789.545   -5493.8652   -3430.2805    3544.7736    81.608399 
   70700     446.4421   -117.48357   0.40395019   -117.07962   -11440.288    4.3419461    4.3419461    4.3419461   -11440.288    206.84529    -20497.63   -14030.078   -8283.3882   -7961.8908    25333.047    81.856519 
   70800    676.36207   -117.68927   0.61198662   -117.07729   -302.45023    4.3369797    4.3369797    4.3369797   -302.45023    13652.446    -9904.753    -4655.044    4659.2327    5603.0352   -8128.2037    81.575956 
   70900    887.76501   -117.87629   0.80326843   -117.07302    2912.1867     4.340597     4.340597     4.340597    2912.1867    -1098.408   -5135.5023    14970.471   -3122.3267   -1587.7091   -17858.328    81.780245 
   71000    566.78145   -117.59117   0.51283577   -117.07834   -1907.2701    4.3386974    4.3386974    4.3386974   -1907.2701   -7866.4932     777.7636    1366.9194   -7269.3668   -7877.3823    21368.691    81.672922 
   71100    389.94259   -117.43408   0.35282825   -117.08125    232.71774    4.3384782    4.3384782    4.3384782    232.71774    2628.5718   -11775.287    9844.8687   -3431.7585    -3847.041    13239.734    81.660544 
   71200    826.73041   -117.82351   0.74804305   -117.07547    2054.6853    4.3418946    4.3418946    4.3418946    2054.6853    4130.9583   -3480.9782    5514.0758   -394.64168    -718.2478   -20328.994    81.853611 
   71300    818.50434   -117.81564   0.74059993   -117.07504    7686.1219    4.3340976    4.3340976    4.3340976    7686.1219   -1577.5535    13734.837    10901.082    1400.1769   -413.24173    1203.6507    81.413432 
   71400    326.28751   -117.37772    0.2952318   -117.08249   -12860.827    4.3436767    4.3436767    4.3436767   -12860.827   -16285.645     -8750.03   -13546.806   -8918.6255   -6735.5222    23735.219    81.954437 
   71500    653.79079   -117.67075   0.59156365   -117.07919   -7763.9764    4.3388267    4.3388267    4.3388267   -7763.9764    2653.4076   -15965.007     -9980.33    1257.6824   -977.96341     2390.994    81.680225 
   71600    934.75571   -117.91854   0.84578661   -117.07275     8843.406    4.3364021    4.3364021    4.3364021     8843.406    2892.8611    12130.965    11506.392     5281.598    3685.1192   -14735.715    81.543369 
   71700    479.16046   -117.51261   0.43355445   -117.07906   -18781.406    4.3473272    4.3473272    4.3473272   -18781.406   -21195.902   -10326.588   -24821.727   -3803.0228    -6343.009    16561.387     82.16124 
   71800    319.79883    -117.3707    0.2893607   -117.08134    1325.3924    4.3329779    4.3329779    4.3329779    1325.3924    7796.1092    4588.0664   -8407.9985    -4275.566   -6094.9436    24979.366    81.350349 
   71900    967.57841   -117.95139   0.87548528    -117.0759     207.9562    4.3395052    4.3395052    4.3395052     207.9562    643.06878   -4377.6104    4358.4102   -851.45334    141.70107   -6039.0892    81.718547 
   72000    728.98758   -117.73743   0.65960329   -117.07783    2485.7195    4.3424355    4.3424355    4.3424355    2485.7195     -3234.75    9987.9893    703.91914    10309.732    1215.3638    2348.9848    81.884205 
   72100    294.51203   -117.35076   0.26648067   -117.08427   -384.46728    4.3346424    4.3346424    4.3346424   -384.46728    14140.577    8332.3909    -23626.37   -4876.2488   -3208.2631    28187.492    81.444134 
   72200      623.916   -117.64492   0.56453231   -117.08039   -5744.3586    4.3444804    4.3444804    4.3444804   -5744.3586   -1424.4142    9.8166589   -15818.478   -4480.7594   -6674.4563    13982.951    81.999937 
   72300    1037.6008   -118.01008   0.93884304   -117.07124    4398.7759    4.3384307    4.3384307    4.3384307    4398.7759   -2932.9293    6820.4309     9308.826    12883.805    4688.3844   -6707.4137    81.657861 
   72400    558.60683   -117.58433    0.5054392   -117.07889   -2545.7329    4.3384565    4.3384565    4.3384565   -2545.7329    5982.4814    974.46791   -14594.148    3683.5028   -4981.6469    17862.542    81.659317 
   72500    477.90128   -117.51304   0.43241512   -117.08063   -10320.082     4.339988     4.339988     4.339988   -10320.082    3906.0087   -5914.8627   -28951.393   -2476.7911   -7739.5655    27817.626    81.745827 
   72600    873.93832   -117.86721   0.79075776   -117.07645      1311.83    4.3376123    4.3376123    4.3376123      1311.83   -1412.8976    4327.3758    1021.0117    1590.2325    2173.3552   -10699.105    81.611657 
   72700    857.42457   -117.85081   0.77581577   -117.07499   -7001.7008    4.3427671    4.3427671    4.3427671   -7001.7008   -4525.6672   -13644.753   -2834.6817    13297.975   -2561.4177   -2725.5212    81.902963 
   72800    570.45343   -117.59468   0.51615825   -117.07852    3872.0316    4.3349622    4.3349622    4.3349622    3872.0316    21874.566     -918.071   -9340.3998    902.18555   -1431.9836    30102.325    81.462167 
   72900    729.38062   -117.73658   0.65995892   -117.07662    1516.2252    4.3405354    4.3405354    4.3405354    1516.2252    6927.7086    9729.0089   -12108.042   -3799.1506   -9457.0253    6401.4956    81.776764 
   73000    833.71027   -117.82796   0.75435857    -117.0736   -402.04276    4.3417649    4.3417649    4.3417649   -402.04276   -1282.0335   -4742.6259    4818.5311     13990.67    226.98972   -16904.947    81.846273 
   73100    646.80047   -117.66162   0.58523866   -117.07638    5863.7158    4.3333576    4.3333576    4.3333576    5863.7158    16399.257    -4833.356    6025.2459     3114.134    1982.8449    13412.808    81.371738 
   73200    670.37533   -117.68356   0.60656969   -117.07699   -236.64187    4.3424946    4.3424946    4.3424946   -236.64187    16586.122   -166.67888   -17129.368   -3082.3931   -13583.669    27284.774    81.887547 
   73300    878.25315   -117.86845    0.7946619   -117.07379    3000.4438    4.3384838    4.3384838    4.3384838    3000.4438    555.41093    8527.0494   -81.128945    2283.6869    790.87179   -10502.552    81.660858 
   73400    666.45667   -117.67957     0.603024   -117.07655    453.63329    4.3363225    4.3363225    4.3363225    453.63329    12865.343   -14088.138    2583.6952    9990.3133    2043.1505   -9204.7725    81.538878 
   73500    623.40285   -117.64217     0.564068   -117.07811   -10671.713    4.3411718    4.3411718    4.3411718   -10671.713    6837.4363   -21718.784   -17133.791    6606.8527   -2566.7956    27532.557    81.812737 
   73600    777.79504    -117.7794    0.7037653   -117.07563    3075.2915    4.3381429    4.3381429    4.3381429    3075.2915    11565.811    2187.4358   -4527.3724    -7334.549    -11188.01     8251.848    81.641612 
   73700    893.87159   -117.88308    0.8087938   -117.07429   -4530.6762    4.3384015    4.3384015    4.3384015   -4530.6762   -3285.1589   -12247.283    1940.4135    8388.4088   -9148.4879    -18184.44    81.656211 
   73800    591.15742   -117.61322   0.53489165   -117.07832   -1641.2985    4.3379827    4.3379827    4.3379827   -1641.2985    20576.918   -25943.783    442.97026    10464.582    7416.2243    8989.3154    81.632566 
   73900    671.85689   -117.68581   0.60791023    -117.0779   -8375.9545     4.340947     4.340947     4.340947   -8375.9545   -3708.4145   -15190.411   -6229.0375   -4245.2975   -15915.293    21710.728    81.800027 
   74000    739.50773   -117.74506   0.66912213   -117.07594    4404.1782    4.3375383    4.3375383    4.3375383    4404.1782    4612.8843    242.38766    8357.2625   -6366.7738   -13125.774   -4472.0985    81.607477 
   74100    834.57617   -117.82966   0.75514206   -117.07452     303.2182    4.3375268    4.3375268    4.3375268     303.2182    4958.7721   -14074.079    10024.961    3563.7856     7346.659   -5190.4155     81.60683 
   74200    592.27017   -117.61253    0.5358985   -117.07663   -2479.4673    4.3425597    4.3425597    4.3425597   -2479.4673    13683.386   -19954.361   -1167.4269    6766.5721   -4910.6922    14232.686     81.89123 
   74300     613.8682   -117.63257   0.55544084   -117.07713    -325.2215    4.3364428    4.3364428    4.3364428    -325.2215   -4471.0204   -546.41439    4041.7703   -15873.061   -10205.927     9470.458    81.545661 
   74400    693.13538   -117.70343   0.62716345   -117.07626    4496.6116    4.3376313    4.3376313    4.3376313    4496.6116    3983.6301    -2981.772    12487.977   -11812.084   -10586.906   -6635.9751     81.61273 
   74500    857.78825   -117.85089   0.77614483   -117.07475   -2059.9863    4.3405002    4.3405002    4.3405002   -2059.9863    14711.264   -19545.264   -1345.9595    9577.7061    5683.2704    1158.4431    81.774774 
   74600    567.60883   -117.59159    0.5135844   -117.07801   -923.59492    4.3392441    4.3392441    4.3392441   -923.59492    14894.539   -10421.857   -7243.4675   -6856.0527   -7394.6775    11268.757    81.703797 
   74700     526.5366   -117.55494   0.47642138   -117.07852   -5791.3916    4.3391146    4.3391146    4.3391146   -5791.3916   -17251.871   -8020.9794    7898.6755   -23706.338   -22766.652   -210.94297    81.696481 
   74800    848.03749   -117.84166   0.76732214   -117.07434    656.15997    4.3373474    4.3373474    4.3373474    656.15997    9237.9787   -10832.284    3562.7851   -5448.0444    5122.3247   -5054.3537    81.596707 
   74900    817.26193   -117.81449   0.73947577   -117.07502   -4862.8062    4.3415178    4.3415178    4.3415178   -4862.8062    18226.648   -20945.104   -11869.962    7274.7456   -1458.8403    2083.3176    81.832298 
   75000    461.23127   -117.49878   0.41733174   -117.08144   -6774.2796    4.3364768    4.3364768    4.3364768   -6774.2796   -10857.068   -15984.815    6519.0449   -20251.143   -12603.509    6793.3986    81.547579 
   75100    521.09016   -117.55346   0.47149333   -117.08197    2475.0109     4.338119     4.338119     4.338119    2475.0109    2213.1956   -6352.5985    11564.436   -23604.599    -11233.86   -3513.1988     81.64026 
   75200    1007.4431   -117.98513   0.91155571   -117.07357   -4307.3911    4.3435601    4.3435601    4.3435601   -4307.3911    12640.899   -18538.137   -7024.9363    8351.0389   -89.060447   -4444.9133    81.947837 
   75300    609.00924   -117.62953   0.55104436   -117.07849    6583.3201    4.3334662    4.3334662    4.3334662    6583.3201    20834.319   -12139.293    11054.935   -8594.1242     573.1762    6633.6312    81.377855 
   75400    361.15585   -117.41037    0.3267814   -117.08359   -5803.1186    4.3405551    4.3405551    4.3405551   -5803.1186   -15537.601   -8595.9558    6724.2007    -27355.47   -24093.216    4396.6919    81.777876 
   75500     747.8727   -117.75439   0.67669093    -117.0777    2280.1476     4.342152     4.342152     4.342152    2280.1476    2956.1366   -972.82389    4857.1302   -2237.2715   -4259.8094   -1979.3137    81.868166 
   75600    968.56356   -117.94941   0.87637667   -117.07303    7690.1234    4.3329718    4.3329718    4.3329718    7690.1234    19606.087   -4839.3666    8303.6501    5021.1145    8409.8025   -128.48667    81.350004 
   75700    391.20839   -117.43719   0.35397357   -117.08322   -9919.9755    4.3418542    4.3418542    4.3418542   -9919.9755   -9060.9121   -14297.232   -6401.7827   -20421.286   -14594.679    7306.7162    81.851326 
   75800    453.08584   -117.49349   0.40996159   -117.08353   -3768.1398     4.340031     4.340031     4.340031   -3768.1398    -18618.41    2015.4519    5298.5383   -19444.968   -14371.373    997.97195    81.748255 
   75900    1060.6546   -118.03302   0.95970256   -117.07332    8361.9303    4.3363348    4.3363348    4.3363348    8361.9303    11704.329    3816.1919    9565.2695    10754.164   -1802.6563   -4414.7969    81.539569 
   76000    763.78826    -117.7693   0.69109167   -117.07821   -3732.1448    4.3413658    4.3413658    4.3413658   -3732.1448   -1964.4726   -6543.6398   -2688.3221   -5501.4327    2141.7844    3785.1527    81.823703 
   76100    305.18363   -117.36086   0.27613656   -117.08472    -9785.559    4.3385263    4.3385263    4.3385263    -9785.559   -22859.584   -7386.6431    889.55019   -27545.088    -21805.93    3987.7251    81.663256 
   76200    737.42089    -117.7501   0.66723392   -117.08287    4051.7606    4.3388212    4.3388212    4.3388212    4051.7606   -4502.6594    2314.0782    14343.863   -930.93069   -16386.601    1015.0657    81.679913 
   76300    1240.1287   -118.19633    1.1220945   -117.07424    6474.5005    4.3375722    4.3375722    4.3375722    6474.5005    6457.3653    1657.0408    11309.095    3765.2342    13709.195   -3268.7794    81.609392 
   76400    470.39118   -117.51168   0.42561983   -117.08606   -3894.3742    4.3398266    4.3398266    4.3398266   -3894.3742    -17128.27   -6366.7843    11811.931    -19510.96   -11519.055    2933.4076    81.736705 
   76500    367.49453   -117.42043   0.33251677   -117.08792   -15045.092    4.3427274    4.3427274    4.3427274   -15045.092   -34300.881   -8882.9162   -1951.4778   -18857.943   -23039.457    6281.0809     81.90072 
   76600    1061.3994   -118.03791   0.96037644   -117.07753    15248.566    4.3347738    4.3347738    4.3347738    15248.566    14102.842     15496.74    16146.115    3845.1489    1417.9799    712.08891    81.451546 
   76700    1039.3779   -118.01768     0.940451   -117.07723    -2409.089     4.341919     4.341919     4.341919    -2409.089   -13692.102    -2518.652    8983.4869   -2921.6481   -2958.0198   -15.678639    81.854987 
   76800    248.52136   -117.31185   0.22486735   -117.08698   -10881.805    4.3417573    4.3417573    4.3417573   -10881.805   -34172.599    1753.5145   -226.33134   -25679.288   -21068.626     1795.996    81.845844 
   76900    675.23695   -117.69414   0.61096858   -117.08318    848.26293    4.3342957    4.3342957    4.3342957    848.26293   -5697.1491    8097.9426    143.99525   -3702.6146   -12455.526    9120.4793    81.424593 
   77000    1081.5604   -118.05296   0.97861862   -117.07434    7037.8055    4.3420912    4.3420912    4.3420912    7037.8055    9854.5378    2914.8382    8344.0405    6366.7131    7707.8917    2696.4699    81.864727 
   77100    697.79985   -117.71258   0.63138396   -117.08119   -3404.7026    4.3391638    4.3391638    4.3391638   -3404.7026   -22187.242    5109.4692    6863.6651   -16362.055     -11494.9    -3394.725    81.699259 
   77200    378.14843   -117.42567   0.34215665   -117.08351   -2890.5972    4.3377662    4.3377662    4.3377662   -2890.5972   -20399.063    8397.8908     3329.381   -17504.191   -24354.333    6732.5141    81.620343 
   77300      967.916   -117.95181   0.87579074   -117.07602   -315.06898    4.3415801    4.3415801    4.3415801   -315.06898    4263.4875    -6442.674    1233.9796    630.38033    5745.5828    6197.5777    81.835821 
   77400    915.86887    -117.9032    0.8286974    -117.0745    7283.0589    4.3384577    4.3384577    4.3384577    7283.0589    8415.5339   -1208.2681    14641.911    1590.0048   -2805.2307   -2457.0253    81.659386 
   77500    513.63087   -117.54527     0.464744   -117.08052    -7762.182    4.3388609    4.3388609    4.3388609    -7762.182    -26298.68   -7233.2655      10245.4   -22700.726   -24168.704    -2253.576    81.682157 
   77600    680.20184   -117.69467   0.61546092   -117.07921   -2320.8808    4.3389964    4.3389964    4.3389964   -2320.8808    -7739.324   -6433.5618    7210.2434   -10212.418   -6961.5382    10433.297    81.689808 
   77700    1040.2374   -118.01443   0.94122862    -117.0732    3541.2376    4.3411764    4.3411764    4.3411764    3541.2376    18561.022   -12164.998    4227.6881    11473.776    3051.5082    5633.7444    81.812998 
   77800    682.47218   -117.69666   0.61751517   -117.07914    392.55379    4.3375874    4.3375874    4.3375874    392.55379   -8094.5368   -5905.1514     15177.35   -13414.557   -8093.9691   -5881.9406    81.610251 
   77900    432.35323   -117.47342   0.39120229   -117.08222   -2701.2829    4.3381619    4.3381619    4.3381619   -2701.2829   -16926.875    874.41034    7948.6162   -19593.612   -22473.951    3011.0409    81.642681 
   78000    909.33213   -117.89845   0.82278282   -117.07567   -3403.2273     4.344517     4.344517     4.344517   -3403.2273    2533.9029   -8340.8837   -4402.7011   -612.06844    354.73455    9753.8913    82.002013 
   78100    884.19092    -117.8737   0.80003452   -117.07367     10572.71    4.3353125    4.3353125    4.3353125     10572.71    20262.361    134.12971     11321.64    2191.3337    4615.0961    2534.1873    81.481915 
   78200    469.86023   -117.50536   0.42513941   -117.08022   -5574.7687    4.3385424    4.3385424    4.3385424   -5574.7687   -23024.718   -1642.6261    7943.0379   -19170.726   -25983.682   -5743.2987    81.664165 
   78300    549.39322    -117.5784   0.49710253    -117.0813   -7437.6566    4.3426281    4.3426281    4.3426281   -7437.6566   -14737.731   -4758.9787   -2816.2603   -16570.406   -8187.9845    8120.1512      81.8951 
   78400    1004.5992   -117.98319   0.90898247   -117.07421    8724.1983    4.3340369    4.3340369    4.3340369    8724.1983    20286.458     696.6285    5189.5079    8625.0513    8362.0443    11265.036    81.410013 
   78500    631.60759    -117.6507   0.57149182   -117.07921   -3159.3033     4.342565     4.342565     4.342565   -3159.3033   -1058.6025   -3814.6005   -4604.7069   -11591.934   -9206.1962   -3214.2323     81.89153 
   78600    410.62288   -117.45256   0.37154021   -117.08102   -10261.971    4.3416134    4.3416134    4.3416134   -10261.971    -25156.02   -5391.3716   -238.52287   -22595.085   -21834.927   -446.88628    81.837704 
   78700    863.51863   -117.85505    0.7813298   -117.07372    3199.8606    4.3354525    4.3354525    4.3354525    3199.8606    4632.6632   -543.18543     5510.104   -259.61787   -2312.6529    6925.5651    81.489807 
   78800    905.02001   -117.89267   0.81888112   -117.07379   -611.50063    4.3404402    4.3404402    4.3404402   -611.50063    6618.5666   -6252.2856   -2200.7829    218.55861    11818.493      4033.48    81.771383 
   78900     391.5296   -117.43707   0.35426421   -117.08281   -4317.0725    4.3375717    4.3375717    4.3375717   -4317.0725   -19097.052    -4738.264    10884.099   -17507.583   -24084.251   -5114.7021    81.609367 
   79000    561.64993   -117.59117   0.50819266   -117.08298   -6560.2659    4.3402123    4.3402123    4.3402123   -6560.2659   -17381.261   -8735.3452    6435.8084   -14116.967   -18275.832    279.79556    81.758499 
   79100     1065.798   -118.03739    0.9643564   -117.07303    3204.5096    4.3395116    4.3395116    4.3395116    3204.5096    3080.0437   -5521.5618    12055.047    8114.7999    14512.685     7992.874    81.718912 
   79200    579.44553   -117.60298   0.52429449   -117.07868       1502.8    4.3398805    4.3398805    4.3398805       1502.8   -6208.8906   -2066.7247    12784.015   -5402.4996   -9427.3177   -1033.9084     81.73975 
   79300    315.35928   -117.36841    0.2853437   -117.08306   -10081.423    4.3407246    4.3407246    4.3407246   -10081.423   -25946.578   -9329.6555    5031.9654   -22813.327   -24726.306   -4886.1392    81.787456 
   79400    877.82867   -117.87144   0.79427783   -117.07716    6122.5529    4.3347861    4.3347861    4.3347861    6122.5529    7699.0537   -3540.8817    14209.487   -540.92272   -3498.5952   -2292.2649    81.452239 
   79500    991.47333   -117.97321    0.8971059    -117.0761   -1559.8157    4.3421851    4.3421851    4.3421851   -1559.8157   -3305.0864   -8351.2046    6976.8439     6047.383    5619.2562    5196.9729    81.870038 
   79600    335.48888   -117.38917   0.30355739   -117.08562   -1721.6109    4.3376193    4.3376193    4.3376193   -1721.6109   -6527.4868    1681.2764   -318.62235   -18196.164   -20511.157   -1086.0842    81.612054 
   79700    460.00748   -117.50107   0.41622444   -117.08485   -1083.6748    4.3372507    4.3372507    4.3372507   -1083.6748   -13402.053   -2533.0393    12684.068   -14531.747   -19467.004   -6858.5183    81.591248 
   79800    1003.8128   -117.98272   0.90827088   -117.07445   -3156.4727    4.3449764    4.3449764    4.3449764   -3156.4727   -2091.7605   -18012.106    10634.448    8769.7347     10257.13    1125.2223    82.028025 
   79900    727.35406   -117.73521   0.65812524   -117.07709    6366.0475    4.3335969    4.3335969    4.3335969    6366.0475   -2745.8336    1690.6411    20153.335   -585.43158   -8520.9778   -283.22469    81.385218 
   80000    247.04904   -117.30816   0.22353516   -117.08463    -3273.293      4.34007      4.34007      4.34007    -3273.293   -18779.615   -822.39313    9782.1288   -21490.217   -24340.649   -4276.2945    81.750459 
   80100     690.4786   -117.70482   0.62475955   -117.08006   -6987.1382    4.3427415    4.3427415    4.3427415   -6987.1382   -8635.0686   -21366.083    9039.7371   -2839.5019   -1901.9738   -9236.4305    81.901516 
   80200    953.85009   -117.93676   0.86306361    -117.0737    9620.6331    4.3326012    4.3326012    4.3326012    9620.6331    7781.2128   -2259.1337     23339.82    15188.218    3716.7897   -889.88276    81.329136 
   80300    517.17108   -117.55013   0.46794726   -117.08219   -8855.5556    4.3430012    4.3430012    4.3430012   -8855.5556   -18880.539   -3683.4039   -4002.7242   -14621.502   -21402.396    2123.0304     81.91621 
   80400    335.42415   -117.38697   0.30349882   -117.08348   -2935.1034    4.3405454    4.3405454    4.3405454   -2935.1034   -4381.1348   -4280.2106   -143.96482   -17340.646   -18107.022   -10113.961    81.777329 
   80500    948.72053   -117.93334   0.85842228   -117.07492    3612.3996    4.3365979    4.3365979    4.3365979    3612.3996    10974.948   -8092.2628    7954.5136    9322.2457    7180.3218   -1030.9669    81.554414 
   80600    850.12626   -117.84459    0.7692121   -117.07538   -3492.4317     4.342013     4.342013     4.342013   -3492.4317    246.86686   -7932.1388   -2792.0232   -277.21626   -4629.1294    2794.4545    81.860302 
   80700    285.70441   -117.34305   0.25851135   -117.08453   -227.41123    4.3367375    4.3367375    4.3367375   -227.41123   -5754.8376    2839.4169     2233.187    -18648.95   -23621.484   -387.00879    81.562288 
   80800    587.26066    -117.6151   0.53136579   -117.08374   -1091.8634    4.3401608    4.3401608    4.3401608   -1091.8634    1628.1834   -9063.3946    4159.6208    -12905.72   -6379.6661   -7939.5525    81.755592 
   80900    1072.2297   -118.04389   0.97017598   -117.07371     943.3004    4.3416266    4.3416266    4.3416266     943.3004    15243.361   -12991.409    577.94925    6372.0805      7574.88   -3796.9302    81.838452 
   81000    572.56937   -117.59962    0.5180728   -117.08154   -6723.5716    4.3387838    4.3387838    4.3387838   -6723.5716   -12105.543   -8123.3579    58.186131   -11700.714   -13389.237    4028.0196      81.6778 
   81100    251.75179   -117.31221   0.22779031   -117.08442   -7121.3755    4.3401251    4.3401251    4.3401251   -7121.3755   -9109.3053   -4945.6711     -7309.15   -23756.473   -15480.349   -9230.1295    81.753572 
   81200    907.18092   -117.89949   0.82083636   -117.07866    83.114113    4.3381151    4.3381151    4.3381151    83.114113    18333.871   -16090.087   -1994.4416    7213.1704     2549.542   -5027.6486    81.640038 
   81300    938.04601   -117.92505   0.84876374   -117.07629    830.03163    4.3388661    4.3388661    4.3388661    830.03163      4272.09   -2462.4113     680.4162    4589.5617   -503.50329    1965.3705    81.682447 
   81400    479.52861   -117.51689   0.43388756     -117.083   -6324.0077    4.3404043    4.3404043    4.3404043   -6324.0077   -8790.8531   -1010.9739   -9170.1962   -20005.611   -19339.563   -4044.5395    81.769354 
   81500     506.6446   -117.53953   0.45842268   -117.08111    4918.7045    4.3405235    4.3405235    4.3405235    4918.7045     18205.21    707.40683   -4156.5033   -10526.687   -6554.5621   -6232.0217    81.776087 
   81600    965.72538   -117.94617   0.87380862   -117.07236     2702.454    4.3383892    4.3383892    4.3383892     2702.454    13417.453   -9754.7245    4444.6338    13306.242    6673.2328   -4591.9333    81.655514 
   81700    707.38158   -117.71625   0.64005372   -117.07619    2276.4162    4.3378999    4.3378999    4.3378999    2276.4162    4737.7007   -157.85435    2249.4023    1466.9244   -11785.218    4183.9891    81.627894 
   81800    621.20202   -117.64058   0.56207664   -117.07851   -4276.9217    4.3404583    4.3404583    4.3404583   -4276.9217    4638.3665   -10390.024   -7079.1079   -23270.725   -13253.122   -7652.2147    81.772405 
   81900    674.94489   -117.68802   0.61070432   -117.07731    3690.7413    4.3377352    4.3377352    4.3377352    3690.7413    10224.155   -8205.9868    9054.0557    7667.1407    2078.4776   -7366.5337    81.618597 
   82000    784.59205   -117.78627   0.70991537   -117.07636   -3625.3674    4.3389174    4.3389174    4.3389174   -3625.3674   -2525.2133   -17336.362    8985.4733    24972.693   -1417.3456     6257.577    81.685348 
   82100    767.96421   -117.77002   0.69487015   -117.07515   -6128.1699    4.3416127    4.3416127    4.3416127   -6128.1699   -10129.583   -4023.3725   -4231.5536    -7559.205   -15501.627   -1574.6515    81.837669 
   82200    771.64357    -117.7735   0.69819932    -117.0753   -460.77269    4.3374346    4.3374346    4.3374346   -460.77269   -2183.8167   -3817.0401    4618.5387   -4627.0602   -7177.6298   -5371.1722    81.601628 
   82300     618.7046   -117.63788   0.55981692   -117.07806    1548.2753    4.3370055    4.3370055    4.3370055    1548.2753   -374.39285   -14408.829    19428.048    19949.517    6757.8895   -5413.0918    81.577411 
   82400    699.80306   -117.71179   0.63319652   -117.07859   -5107.6846    4.3420746    4.3420746    4.3420746   -5107.6846   -7901.1531   -10843.404    3421.5033    11472.268   -10740.816    6295.4849    81.863788 
   82500    894.74528   -117.88551   0.80958433   -117.07592    4706.1443     4.337457     4.337457     4.337457    4706.1443    4757.1867    8784.9306     576.3156   -9994.0738   -16748.128   -43.056847    81.602892 
   82600    772.75603   -117.77623   0.69920589   -117.07702    7639.8784     4.337078     4.337078     4.337078    7639.8784    10532.492   -7507.1269     19894.27     8029.484    5181.7325    -15155.06    81.581504 
   82700    508.98707   -117.54114    0.4605422    -117.0806   -6475.0975    4.3438438    4.3438438    4.3438438   -6475.0975   -2285.5612   -20752.134    3612.4026    24850.634   -1170.7745    4425.9398      81.9639 
   82800    729.26203   -117.73863   0.65985161   -117.07878    185.57648    4.3362714    4.3362714    4.3362714    185.57648     7105.621    3949.2612   -10498.153   -2783.1803   -17373.888    9106.6782    81.535996 
   82900    1020.4827   -117.99776   0.92335418    -117.0744    3966.8937    4.3370753    4.3370753    4.3370753    3966.8937    7611.3817     -2366.33    6655.6294   -142.73364   -7072.7797   -1096.8136    81.581352 
   83000    742.36681   -117.75009   0.67170909   -117.07838   -6720.4679    4.3438108    4.3438108    4.3438108   -6720.4679   -2790.1943   -17870.843    499.63396    21722.219    3580.1413   -7859.7366    81.962032 
   83100    493.52635    -117.5273   0.44655301   -117.08075   -5091.6117    4.3371988    4.3371988    4.3371988   -5091.6117    5243.5266   -7769.6794   -12748.682    12150.255   -12616.435    6163.8186    81.588317 
   83200    825.99906    -117.8254   0.74738131   -117.07802    -1275.942    4.3390034    4.3390034    4.3390034    -1275.942    1209.5872    7869.7194   -12907.133   -6271.7714   -15800.174    11977.707    81.690201 
   83300    994.20209   -117.97379   0.89957494   -117.07422     1764.247    4.3406648    4.3406648    4.3406648     1764.247   -2857.3185    151.93864    7998.1207   -586.45589    6468.6132   -9931.3703    81.784077 
   83400    574.93092    -117.5996   0.52020958   -117.07939    2575.1224    4.3383178    4.3383178    4.3383178    2575.1224    6042.8497      5162.35   -3479.8325    20810.043   -2537.2765    1846.4894    81.651487 
   83500    540.29854   -117.56997   0.48887347    -117.0811   -4843.3975    4.3396685    4.3396685    4.3396685   -4843.3975   -1395.4047    795.87825   -13930.666    1265.5302   -21552.466    10193.173    81.727775 
   83600    869.77423   -117.86289      0.78699    -117.0759    3608.6776    4.3390397    4.3390397    4.3390397    3608.6776   -4340.9536    11599.127    3567.8589    -15003.16   -5573.4382   -1223.5291    81.692254 
   83700    843.47806   -117.83879   0.76319667   -117.07559    -939.5252    4.3409142    4.3409142    4.3409142    -939.5252   -2348.4439     -8437.84    7967.7083    9079.6766    5394.8267    543.15007    81.798173 
   83800    577.00354   -117.60075   0.52208493   -117.07866   -3814.7857    4.3382292    4.3382292    4.3382292   -3814.7857    -8677.273    799.81019   -3566.8944    16272.196   -13216.341   -2251.3295    81.646482 
   83900    686.66525   -117.69931   0.62130914     -117.078   -4496.8334    4.3389223    4.3389223    4.3389223   -4496.8334   -11256.897    5078.9647   -7312.5676   -8893.0407   -15928.515    4282.8495    81.685619 
   84000    845.80825   -117.84134   0.76530508   -117.07604   -5889.9852    4.3412534    4.3412534    4.3412534   -5889.9852   -13280.435   -6418.8893    2029.3686   -17186.446    3455.6528   -1929.2816    81.817349 
   84100    688.67946    -117.7008   0.62313165   -117.07767    5061.8905    4.3361059    4.3361059    4.3361059    5061.8905   -8899.9693    11639.516    12446.125    17898.041    309.93177   -4345.7024    81.526658 
   84200    629.60022   -117.64832   0.56967551   -117.07865   -3981.9867    4.3414407    4.3414407    4.3414407   -3981.9867   -10887.301    13321.871    -14380.53    9477.4771   -13889.279     5940.312    81.827938 
   84300    650.38655   -117.66491   0.58848342   -117.07642   -3228.7665    4.3426504    4.3426504    4.3426504   -3228.7665   -4864.4133    2609.5576   -7431.4437   -30894.213   -4404.3881    941.98757    81.896362 
   84400    782.11575   -117.78254   0.70767476   -117.07487     2833.991    4.3339589    4.3339589    4.3339589     2833.991   -5141.9812    2696.0745     10947.88   -6158.9299    4815.4633     1098.611    81.405614 
   84500    694.46819     -117.705   0.62836941   -117.07663    2742.6182    4.3405732    4.3405732    4.3405732    2742.6182    5238.9403    7459.5555   -4470.6414    24203.431   -7319.9188   -2425.4056    81.778898 
   84600    629.58715   -117.64817   0.56966369    -117.0785   -9406.1625    4.3435986    4.3435986    4.3435986   -9406.1625   -7524.5068   -8679.0287   -12014.952   -9458.6818   -10919.015    -1679.979     81.95002 
   84700    660.03195   -117.67487   0.59721078   -117.07766    3065.3559    4.3325869    4.3325869    4.3325869    3065.3559   -3535.2142    2212.8879    10518.394   -34264.687    1019.2545    2732.1654    81.328328 
   84800    814.13453   -117.81291   0.73664603   -117.07627   -1669.8001    4.3428562    4.3428562    4.3428562   -1669.8001   -6332.6524    5859.3131    -4536.061     11649.45    1815.6216   -2639.5213    81.908005 
   84900    673.06595   -117.68638   0.60900421   -117.07738   -5377.6585    4.3433086    4.3433086    4.3433086   -5377.6585   -14708.684    3743.0604   -5167.3523    19157.947   -6833.3683   -3153.2447    81.933605 
   85000    441.62275    -117.4781   0.39958954   -117.07851    5360.1245    4.3301514    4.3301514    4.3301514    5360.1245    -5586.062    5569.0634    16097.372   -34953.888   -6809.0408   -269.55762    81.191252 
   85100    723.54939   -117.73259   0.65468269   -117.07791   -10433.601    4.3475991    4.3475991    4.3475991   -10433.601   -5950.4295   -16038.161   -9312.2114    -19380.06    2137.3599     2133.362    82.176659 
   85200    885.19117   -117.87479   0.80093957   -117.07385    1902.9063    4.3390216    4.3390216    4.3390216    1902.9063    9333.8816    4222.4005   -7847.5633     20061.05   -274.65457   -626.65688     81.69123 
   85300    461.30846   -117.49634   0.41740159   -117.07894    4982.3704    4.3312957    4.3312957    4.3312957    4982.3704    6503.8929   -7685.9307    16129.149   -14520.108   -12656.024   -5543.9051    81.255639 
   85400    399.34338   -117.44386   0.36133429   -117.08253   -16963.355    4.3476935    4.3476935    4.3476935   -16963.355   -12235.498   -28541.082   -10113.485   -33810.413   -2283.0465    1039.4623    82.182012 
   85500    951.82036   -117.93495   0.86122707   -117.07373     3137.021    4.3362215    4.3362215    4.3362215     3137.021    16731.736    2578.3175   -9898.9903    3453.9487     8093.654    6222.6983     81.53318 
   85600     843.5137   -117.83884   0.76322892   -117.07561   -1058.3887    4.3391141    4.3391141    4.3391141   -1058.3887    1767.2819   -1544.9229   -3397.5253    1467.1525   -4330.1274   -3225.8243    81.696456 
   85700     358.3883   -117.40572   0.32427726   -117.08145   -8405.1147     4.341446     4.341446     4.341446   -8405.1147   -7653.6213   -25873.505    8311.7818   -30841.642   -5019.9274   -3772.4201    81.828239 
   85800    546.49171   -117.57477   0.49447718   -117.08029    862.57581    4.3375637    4.3375637    4.3375637    862.57581     14286.49   -1418.7528   -10280.009   -12962.159     4118.235    8259.0957    81.608915 
   85900    959.10669   -117.94134   0.86781989   -117.07352   -3051.0693    4.3417335    4.3417335    4.3417335   -3051.0693    11790.716     1358.935   -22302.859    11553.782    9822.1009    4374.8127    81.844497 
   86000    630.68855   -117.64788   0.57066025   -117.07722    5664.6542    4.3353812    4.3353812    4.3353812    5664.6542    10441.768    2097.8642    4454.3308   -25799.883   -3184.2264   -5358.9461    81.485785 
   86100    382.46945   -117.42833    0.3460664   -117.08226   -6738.5646    4.3426185    4.3426185    4.3426185   -6738.5646   -3794.4703   -12077.774   -4343.4495   -27987.452   -7312.7992    4778.7557    81.894559 
   86200     720.2206   -117.72879   0.65167073   -117.07712   -660.13212     4.337823     4.337823     4.337823   -660.13212    5933.2398    11034.372   -18948.008    9230.6475     13492.78    10870.837     81.62355 
   86300    820.22749   -117.81672   0.74215907   -117.07456    4160.0785    4.3357362    4.3357362    4.3357362    4160.0785    2063.0178    15587.925   -5170.7077   -2854.0168    5174.1048   -1541.2272    81.505806 
   86400    540.76289    -117.5683   0.48929362   -117.07901   -9604.8844    4.3451151    4.3451151    4.3451151   -9604.8844   -16400.258    -5306.355   -7108.0404   -24054.156   -8485.2322   -4058.3256    82.035884 
   86500    582.79011   -117.60448   0.52732074   -117.07716    7262.0894    4.3331203    4.3331203    4.3331203    7262.0894    8120.7279    12251.366    1414.1741   -10690.213    857.84535    2389.0952    81.358371 
   86600    863.99766   -117.85626   0.78176324   -117.07449   -1677.8219      4.34061      4.34061      4.34061   -1677.8219   -545.82203    10625.646   -15113.289    15047.622     6765.572    4075.0442    81.780979 
   86700    618.51484   -117.63766   0.55964522   -117.07801   -6783.2187    4.3413709    4.3413709    4.3413709   -6783.2187   -13454.608   -5316.4064    -1578.642   -2097.3794    1111.1709    -4279.322    81.823993 
   86800    519.81233   -117.54949   0.47033712   -117.07915    4864.8729     4.332182     4.332182     4.332182    4864.8729    3623.2424    6322.4116    4648.9647   -25185.406   -8331.0064   -7332.1363    81.305531 
   86900    786.10539   -117.78759   0.71128468   -117.07631   -5552.1258    4.3453541    4.3453541    4.3453541   -5552.1258   -6088.7051    9090.0272   -19657.699    4068.9172   -750.46914    3632.2293     82.04942 
   87000    792.15906   -117.79252   0.71676217   -117.07576    3820.9862    4.3353664    4.3353664    4.3353664    3820.9862   -1132.8714    8272.2547    4323.5755    13152.053    5063.9644    1996.3326    81.484956 
   87100    402.37439   -117.44547    0.3640768   -117.08139    1100.4669    4.3361061    4.3361061    4.3361061    1100.4669   -7675.1356     6973.479    4003.0574   -11735.988   -5149.8457   -6551.3823    81.526668 
   87200    637.65859   -117.65509    0.5769669   -117.07813   -9900.3223    4.3464817    4.3464817    4.3464817   -9900.3223    -9793.801    3577.0058   -23484.172   -18029.029   -9132.7175   -4955.5647    82.113312 
   87300    921.49069   -117.90569   0.83378414    -117.0719    12699.408    4.3322049    4.3322049    4.3322049    12699.408    6554.0164    28194.035    3350.1722    11188.631    537.85157    2865.3426    81.306816 
   87400     646.6695    -117.6639   0.58512016   -117.07878   -7277.5764    4.3394445    4.3394445    4.3394445   -7277.5764   -18972.944   -7335.1318    4475.3469    12591.802    3749.8337   -1023.7761    81.715119 
   87500    395.78757   -117.44015   0.35811691   -117.08203   -10262.013    4.3418261    4.3418261    4.3418261   -10262.013   -20928.239   -1076.8381    -8780.961   -20942.622   -10955.105   -8206.5766    81.849736 
   87600     831.2534   -117.82897   0.75213554   -117.07684     2258.976    4.3354163    4.3354163    4.3354163     2258.976   -3555.1424    20449.668   -10117.598   -4031.0464   -11387.233     -2160.64    81.487769 
   87700    913.37687    -117.8996   0.82644259   -117.07315   -2930.6168    4.3433446    4.3433446    4.3433446   -2930.6168   -11214.877    6312.8872   -3889.8602    13573.698    2347.2646     3769.649    81.935644 
   87800    455.62051   -117.49147   0.41225501   -117.07922   -1884.2446    4.3385914    4.3385914    4.3385914   -1884.2446   -19646.424    3212.1175    10781.573   -11424.092   -111.28336    -3119.297    81.666935 
   87900    494.44788   -117.52747   0.44738683   -117.08008   -3943.1156     4.336538     4.336538     4.336538   -3943.1156   -15154.822    9405.2076   -6079.7329   -19500.628   -13761.543   -7668.0591    81.551035 
   88000    850.57442   -117.84581   0.76961761   -117.07619    2423.7059     4.340114     4.340114     4.340114    2423.7059    3497.9252     19287.16   -15513.968    3328.5796   -5394.4404    8113.9988    81.752949 
   88100     835.3671   -117.83254   0.75585771   -117.07668     2208.704    4.3394715    4.3394715    4.3394715     2208.704   -2754.2055    346.55521    9033.7621    1737.0724    4829.6655    6563.5237    81.716643 
   88200     429.2392   -117.47016   0.38838465   -117.08177   -2424.2562    4.3381204    4.3381204    4.3381204   -2424.2562   -14461.465   -4065.4653    11254.161   -18609.309   -13118.675   -11316.259     81.64034 
   88300    557.86494   -117.58514   0.50476792   -117.08038   -2461.9467    4.3390517    4.3390517    4.3390517   -2461.9467   -8055.3009    13531.171    -12861.71   -6616.3459    -13298.15     5571.536    81.692931 
   88400     905.0295   -117.89285   0.81888971   -117.07396    736.56543    4.3417745    4.3417745    4.3417745    736.56543   -585.50522    13074.413   -10279.211    5261.0759    4057.9312     8679.937    81.846814 
   88500    816.33617   -117.81443   0.73863812   -117.07579    6636.0547    4.3354683    4.3354683    4.3354683    6636.0547   -4348.6238    5001.0927    19255.695   -8900.5639   -1317.9181   -6162.4542    81.490698 
   88600    486.68225   -117.52201   0.44036032   -117.08165   -2959.0829    4.3380657    4.3380657    4.3380657   -2959.0829   -21984.153    16665.754     -3558.85   -15114.518   -16957.652   -6907.2696    81.637252 
   88700    622.88858    -117.6445   0.56360268   -117.08089   -7444.0029    4.3430685    4.3430685    4.3430685   -7444.0029   -15143.778    12806.958   -19995.189    1736.0078   -1541.6227    8600.3618    81.920017 
   88800    1016.8031   -117.99368   0.92002484   -117.07366     5112.229    4.3349855    4.3349855    4.3349855     5112.229    4457.6775      8405.23    2473.7797    3288.1106     10448.03    14743.163    81.463476 
   88900    725.33693   -117.73377   0.65630009   -117.07747   -1411.3932    4.3405955    4.3405955    4.3405955   -1411.3932   -12773.793    3216.8483    5322.7649   -14306.093   -10876.052   -13473.193     81.78016 
   89000    518.93046   -117.55034   0.46953919    -117.0808   -11936.943    4.3412411    4.3412411    4.3412411   -11936.943   -16764.566   -1939.0138   -17107.251   -9440.5682   -9770.1017    -1580.913    81.816654 
   89100    800.30647   -117.80121   0.72413411   -117.07708    6431.9612    4.3340599    4.3340599    4.3340599    6431.9612    8623.7493    5897.8913    4774.2431    4983.3799    4205.8649    15537.549    81.411306 
   89200     965.4111   -117.94914   0.87352425   -117.07561   -261.44826    4.3414644    4.3414644    4.3414644   -261.44826    5809.9743   -6917.9091       323.59    4492.0617    2404.8328   -8318.8616    81.829282 
   89300     580.3807   -117.60604   0.52514065    -117.0809   -4.7806662    4.3391933    4.3391933    4.3391933   -4.7806662    4581.2031   -3994.3194   -601.22562   -12911.341   -12458.584   -10357.432    81.700929 
   89400     667.2168   -117.68236   0.60371178   -117.07865    2077.8751    4.3377265    4.3377265    4.3377265    2077.8751    2855.0073   -2097.0334    5475.6514   -6996.8532   -8932.1508    7877.4628    81.618105 
   89500    939.00118   -117.92331     0.849628   -117.07368    2280.6258    4.3416538    4.3416538    4.3416538    2280.6258    5940.5453   -3700.9059    4602.2378    18732.488    6645.7465    7374.5748    81.839993 
   89600    767.32535   -117.77066    0.6942921   -117.07637    2282.1885    4.3366584    4.3366584    4.3366584    2282.1885    2163.3975   -4784.7982    9467.9663    4875.0136   -6157.0815   -11154.788    81.557826 
   89700    628.46671   -117.64919   0.56864989   -117.08054   -2593.0171    4.3375452    4.3375452    4.3375452   -2593.0171   -9226.2226    540.02916    907.14211     -15626.7   -12926.611   -9012.7463    81.607867 
   89800    850.16833   -117.84706   0.76925017   -117.07781   -1573.1015     4.340028     4.340028     4.340028   -1573.1015   -11563.918    5402.9166    1441.6967    2144.6452   -4855.3217     10798.62    81.748088 
   89900    857.02728   -117.85188   0.77545629   -117.07642    1082.8562    4.3401462    4.3401462    4.3401462    1082.8562    -6102.672   -5816.4061    15167.647    21622.859    4474.0022   -2736.3095    81.754766 
   90000    753.23429   -117.75825   0.68154222    -117.0767   -3586.5925     4.338669     4.338669     4.338669   -3586.5925   -7084.1944   -2002.0697   -1673.5135   -3894.0558   -7917.5835   -15083.526    81.671319 
   90100    692.67782   -117.70414   0.62674945   -117.07739   -2035.2419    4.3386206    4.3386206    4.3386206   -2035.2419   -5742.3175    12017.881   -12381.289    -15534.93   -16329.799   -2341.4931    81.668584 
   90200     796.3266     -117.798   0.72053305   -117.07747   -587.64107    4.3385022    4.3385022    4.3385022   -587.64107   -10531.204   -1557.3773    10325.659    21705.045    2780.0078     4302.797    81.661896 
   90300    851.21453   -117.84663    0.7701968   -117.07643    3150.7102    4.3382627    4.3382627    4.3382627    3150.7102    11318.009   -3551.5512    1685.6725    17776.851    1303.6054     1035.756    81.648374 
   90400    770.46658   -117.77386   0.69713435   -117.07673   -5861.6983    4.3423521    4.3423521    4.3423521   -5861.6983   -3273.6956    6428.0541   -20739.453   -15009.435   -14726.665   -8325.7884    81.879483 
   90500    626.61837   -117.64531   0.56697747   -117.07833   -844.01232    4.3355086    4.3355086    4.3355086   -844.01232   -12514.842    8411.8791    1570.9262    2508.4658   -12844.201   -1079.4912    81.492972 
   90600    779.32935    -117.7837   0.70515357   -117.07855    1493.6028    4.3386934    4.3386934    4.3386934    1493.6028   -7327.2706   -3473.2049    15281.284    22963.312    2636.3739    5751.3749    81.672693 
   90700    881.10729   -117.87241    0.7972444   -117.07516   -4077.1413    4.3436609    4.3436609    4.3436609   -4077.1413   -3691.9716    6352.7471   -14892.199    399.25586   -3557.3507   -2044.7212    81.953543 
   90800    660.44726   -117.67516   0.59758656   -117.07757    4324.6221    4.3322842    4.3322842    4.3322842    4324.6221   -4941.7933    24599.708   -6684.0486   -14690.126   -15853.674   -1763.8984    81.311282 
   90900    547.80423   -117.57645   0.49566478   -117.08079   -4733.4128    4.3412512    4.3412512    4.3412512   -4733.4128   -12885.782   -9970.7476    8656.2913    12167.143    -1091.171    4049.5602    81.817223 
   91000    744.48789   -117.75053   0.67362829    -117.0769   -663.02715    4.3425238    4.3425238    4.3425238   -663.02715    4214.0652   -3436.3177    -2766.829    18058.318    5512.6148    8006.6694    81.889199 
   91100     827.2788   -117.82291   0.74853924   -117.07437    7012.4732    4.3320591    4.3320591    4.3320591    7012.4732    1236.8946    27914.381   -8113.8562   -10363.368   -3729.3665    799.15208     81.29861 
   91200    607.56199   -117.62793   0.54973485    -117.0782   -5505.0342    4.3419433    4.3419433    4.3419433   -5505.0342    -12305.18     1843.968   -6053.8903   -8632.5865   -9464.9339   -2153.0746    81.856365 
   91300    626.98818   -117.64479   0.56731208   -117.07748    -4198.563    4.3409055    4.3409055    4.3409055    -4198.563   -4701.5811   -4464.3045   -3429.8033    14071.002    1459.4212     11815.86    81.797683 
   91400    729.70002    -117.7353   0.66024791   -117.07505    5067.2417    4.3353865    4.3353865    4.3353865    5067.2417    11727.123    16900.829   -13426.227    6337.1887    4862.5803     7615.157    81.486085 
   91500    689.87709   -117.70065   0.62421529   -117.07643   -5135.4234    4.3396916    4.3396916    4.3396916   -5135.4234   -5744.6977    14854.734   -24516.306   -6520.3768   -10790.952   -6215.3677    81.729077 
   91600      608.915   -117.62905   0.55095909   -117.07809   -683.75468    4.3387728    4.3387728    4.3387728   -683.75468    3469.1725    5347.8106   -10868.247   -3280.5874   -8595.6256       1153.3    81.677177 
   91700    801.47141   -117.80108   0.72518818   -117.07589    231.34894    4.3376192    4.3376192    4.3376192    231.34894    13632.695    529.47023   -13468.118    7403.1648    3373.4396    9901.7918    81.612045 
   91800      562.093   -117.58683   0.50859356   -117.07824    910.50582    4.3391672    4.3391672    4.3391672    910.50582    22373.414    11526.395   -31168.291   -81.176347    3647.7946    388.88099    81.699456 
   91900    464.00461   -117.50046   0.41984112   -117.08062   -9653.5957    4.3387718    4.3387718    4.3387718   -9653.5957   -7148.9328    10149.578   -31961.433   -9928.5942   -10410.623   -6107.9455    81.677124 
   92000    807.70452   -117.80774   0.73082803   -117.07692   -338.74509    4.3371294    4.3371294    4.3371294   -338.74509    5693.2994    5863.8159   -12573.351    1070.9726   -4000.8494    4008.9048    81.584402 
   92100     910.7895   -117.89897   0.82410148   -117.07487   -144.94711    4.3409803    4.3409803    4.3409803   -144.94711    18989.865    4479.8127   -23904.519    1172.6808    8569.5347    2715.5838    81.801911 
   92200    321.57801   -117.37531   0.29097054   -117.08434    -8362.326    4.3384759    4.3384759    4.3384759    -8362.326   -4452.5367    20134.635   -40769.076   -3733.7105    -5820.556    -8737.336     81.66041 
   92300    385.86915   -117.43581   0.34914252   -117.08667   -4055.6568    4.3375988    4.3375988    4.3375988   -4055.6568   -2171.2462    17857.789   -27853.513   -8289.0371   -9627.9691   -4226.9471    81.610897 
   92400    1082.8419   -118.05578   0.97977808     -117.076    915.88035    4.3408591    4.3408591    4.3408591    915.88035    15990.007    1277.2535   -14519.619   -2379.1518   -87.761557    1824.3681    81.795057 
   92500    707.91945   -117.72313    0.6405404   -117.08259    6795.5629    4.3351765    4.3351765    4.3351765    6795.5629    18965.757    21421.622   -20000.691    7082.0287   -1553.1135     257.5406    81.474246 
   92600    159.63277   -117.23333   0.14443909   -117.08889   -11454.254    4.3402427    4.3402427    4.3402427   -11454.254   -22540.382    24827.457   -36649.838   -10626.757   -12370.356   -6773.1547     81.76022 
   92700    669.70002   -117.68847   0.60595865   -117.08251    -7745.886    4.3405806    4.3405806    4.3405806    -7745.886   -226.64839   -3021.5417   -19989.468     -8066.81   -1379.3459    -303.0946    81.779316 
   92800    930.13142   -117.91619   0.84160246   -117.07459    4062.5842    4.3374832    4.3374832    4.3374832    4062.5842    18452.943    4106.2903   -10371.481    5076.8956    922.11224    8349.5827    81.604367 
   92900    510.31911   -117.54188   0.46174745   -117.08013    -5855.944    4.3390446    4.3390446    4.3390446    -5855.944   -9727.4776    16390.493   -24230.847   -1648.2496    -10063.21   -2622.0715    81.692531 
   93000    366.24005   -117.41256   0.33138169   -117.08118   -4622.5803    4.3389618    4.3389618    4.3389618   -4622.5803    2644.8931    8268.4271   -24781.061   -10556.063   -4096.9294   -5998.5281    81.687855 
   93100    710.21662   -117.71957   0.64261893   -117.07695   -4460.6978    4.3403775    4.3403775    4.3403775   -4460.6978    20500.843   -13397.463   -20485.473   -3902.2777     3139.488    10199.091    81.767839 
   93200    724.51153   -117.73137   0.65555326   -117.07582    4793.5177    4.3350121    4.3350121    4.3350121    4793.5177     19861.47    5079.1271   -10560.044    12758.032   -2947.3951    9700.6178    81.464977 
   93300    612.68815   -117.63261   0.55437311   -117.07824   -1660.7438    4.3398179    4.3398179    4.3398179   -1660.7438   -1400.5081    15292.172   -18873.895   -3394.1553   -7521.2731   -6490.4046    81.736216 
   93400    514.79449    -117.5449   0.46579687    -117.0791   -9260.5289    4.3418651    4.3418651    4.3418651   -9260.5289   -373.06564    274.24263   -27682.764   -9204.7258    2875.0275    4490.1289    81.851939 
   93500    619.18223    -117.6377   0.56024909   -117.07745    2370.5369    4.3335922    4.3335922    4.3335922    2370.5369    18615.036    4968.4103   -16471.835    14668.749    1191.5343    16578.524    81.384954 
   93600    822.20527   -117.81883   0.74394861   -117.07488   -3127.6343    4.3421679    4.3421679    4.3421679   -3127.6343     2372.057    4016.2196   -15771.179    1621.4266   -4992.2876     831.7056    81.869067 
   93700    703.77026   -117.71264   0.63678612   -117.07585   -2899.6351    4.3413262    4.3413262    4.3413262   -2899.6351   -8912.7918    17132.209   -16918.323   -14406.426    -1685.253   -653.75103    81.821468 
   93800    485.98705   -117.51819   0.43973129   -117.07846   -1473.7105    4.3339705    4.3339705    4.3339705   -1473.7105    9789.4235    6729.4378   -20939.993    -98.45535    3288.1922    18524.315     81.40627 
   93900    663.94937   -117.67969   0.60075535   -117.07894   -2842.3728    4.3409715    4.3409715    4.3409715   -2842.3728     11908.37   -1758.3758   -18677.113    15035.171    1595.2896    10549.087     81.80141 
   94000    939.44834   -117.92374    0.8500326   -117.07371    2989.9845    4.3401318    4.3401318    4.3401318    2989.9845   -2731.6685    17038.767   -5337.1452   -3395.2614   -3455.1165   -5889.9306    81.753953 
   94100    566.02916   -117.59056   0.51215507    -117.0784    1106.7659    4.3379525    4.3379525    4.3379525    1106.7659    1682.4878     10719.28   -9081.4696   -17692.212    2757.1903    9321.3027    81.630863 
   94200    467.99049   -117.50523   0.42344763   -117.08178   -3501.4819    4.3374293    4.3374293    4.3374293   -3501.4819    11350.556   -4511.0078   -17343.994    14271.134    2395.0173    16391.652     81.60133 
   94300    815.62639   -117.81521    0.7379959   -117.07722    1873.2951    4.3395599    4.3395599    4.3395599    1873.2951    1927.6337    10028.325   -6336.0728    11090.397    1004.1158   -2041.0952    81.721639 
   94400    843.92501   -117.83928   0.76360108   -117.07568   -3293.1371    4.3412622    4.3412622    4.3412622   -3293.1371   -4845.4421   -3697.7667   -1336.2024   -24705.459    1599.4899   -4229.7596    81.817849 
   94500    553.95381   -117.57984   0.50122905   -117.07861   -695.81092    4.3351802    4.3351802    4.3351802   -695.81092    8904.1778   -5675.2501   -5316.3606     -9583.51    434.52387    14936.813    81.474455 
   94600    638.40506   -117.65659   0.57764232   -117.07895   -4769.7864    4.3408894    4.3408894    4.3408894   -4769.7864    3963.4756   -1525.9347     -16746.9    17556.628     3382.047    11936.433    81.796769 
   94700    858.45893   -117.85243   0.77675168   -117.07568   -2961.9096    4.3395753    4.3395753    4.3395753   -2961.9096   -4538.6213   -4278.2324   -68.875186   -1173.1067    729.95356   -5615.0086    81.722506 
   94800    750.31699    -117.7558   0.67890258    -117.0769    4174.0497    4.3348738    4.3348738    4.3348738    4174.0497    1698.9517    4819.2033    6003.9941   -27472.452    478.81285    6583.7264     81.45718 
   94900     673.7725    -117.6878   0.60964352   -117.07816   -3612.2309    4.3421942    4.3421942    4.3421942   -3612.2309    4162.9911   -1220.2671   -13779.417    8505.1537    3459.2429    13819.884    81.870553 
   95000    647.44888   -117.66291   0.58582535   -117.07709    444.41589    4.3398494    4.3398494    4.3398494    444.41589   -1826.2498    9137.2038   -5977.7064    16527.425     1044.656    210.04911    81.737994 
   95100    767.34329   -117.76955   0.69430834   -117.07524     805.8038     4.337092     4.337092     4.337092     805.8038   -4472.9196    167.63419    6722.6968   -25033.192   -2970.3088   -2032.6687    81.582295 
   95200    840.42295   -117.83403   0.76043234    -117.0736   -1632.5472    4.3407752    4.3407752    4.3407752   -1632.5472    3088.1158   -3907.6746   -4078.0827   -8195.9079    75.575061    5491.2309    81.790315 
   95300    656.85462   -117.67176   0.59433586   -117.07743   -1670.3893    4.3378257    4.3378257    4.3378257   -1670.3893   -4867.8608    10526.153    -10669.46    17722.282    2984.8488    6262.3387      81.6237 
   95400    540.07718   -117.56909   0.48867318   -117.08042   -1636.4497    4.3374463    4.3374463    4.3374463   -1636.4497   -13175.055    9991.8988   -1726.1929    882.52968    391.93021   -3832.7107    81.602288 
   95500     816.5465   -117.81583   0.73882843     -117.077   -1971.8363     4.341354     4.341354     4.341354   -1971.8363    -2740.659   -3051.2897   -123.56026   -21015.167   -1131.2312   -7882.4815    81.823039 
   95600    846.57892   -117.84154   0.76600239   -117.07554    997.49378    4.3370088    4.3370088    4.3370088    997.49378   -1306.1175    9746.7007   -5448.1018    600.02526    4210.3907    846.44933    81.577599 
   95700    462.01849   -117.49834   0.41804404    -117.0803   -1614.1157     4.339628     4.339628     4.339628   -1614.1157   -15128.431    19708.115   -9422.0311    20792.257    5441.3795    792.49614    81.725488 
   95800    652.98951   -117.67004   0.59083863    -117.0792   -5286.1865    4.3396036    4.3396036    4.3396036   -5286.1865   -56.111915   -10171.719   -5630.7283   -9560.7399    -3106.756   -8704.4349    81.724108 
   95900    858.66624   -117.85224   0.77693926    -117.0753    7246.2737    4.3355856    4.3355856    4.3355856    7246.2737    24567.401    902.87143   -3731.4512   -8265.5703    3538.7377    -9270.457    81.497314 
   96000    656.45252   -117.67289   0.59397204   -117.07892   -3414.3631    4.3412821    4.3412821    4.3412821   -3414.3631   -8179.7235     12522.33   -14585.696    12886.099    7443.4494    2880.8541    81.818975 
   96100    511.13531     -117.543   0.46248597   -117.08051   -981.17868    4.3383252    4.3383252    4.3383252   -981.17868   -2398.6319    10142.609   -10687.513    8499.3901   -4034.7856    394.06697    81.651905 
   96200    783.93954    -117.7856   0.70932497   -117.07628    3750.1527     4.337233     4.337233     4.337233    3750.1527    24626.947   -2904.5537   -10471.935   -1902.4956   -2944.9501   -11402.428     81.59025 
   96300    837.07738   -117.83281    0.7574052   -117.07541    -3118.445    4.3407895    4.3407895    4.3407895    -3118.445    9602.0756   -990.81529   -17966.595   -5061.9742    5861.5221   -4471.3845    81.791124 
   96400    527.87674   -117.55654   0.47763397   -117.07891   -2234.5058    4.3379773    4.3379773    4.3379773   -2234.5058   -8437.2605    16082.055   -14348.312    16431.298    1342.0754     3914.792    81.632258 
   96500    615.01981   -117.63632   0.55648285   -117.07984   -2681.9226    4.3376269    4.3376269    4.3376269   -2681.9226    -1384.605    11059.542   -17720.704    6925.3844   -10895.034   -6179.3767     81.61248 
   96600    914.79187   -117.90277    0.8277229   -117.07505    587.92168    4.3391864    4.3391864    4.3391864    587.92168    25262.494   -4293.1875   -19205.541   -8474.9889   -3389.5069   -6032.0443     81.70054 
   96700    667.60923   -117.68141   0.60406686   -117.07734    -6666.452     4.340534     4.340534     4.340534    -6666.452    4619.1594   -5869.7314   -18748.784    14152.455    4249.4925    6729.3489    81.776683 
   96800    445.84652   -117.48445    0.4034113   -117.08104   -5775.4623    4.3383167    4.3383167    4.3383167   -5775.4623   -17007.306    19444.203   -19763.283    8376.6165   -7950.2301    950.89241    81.651422 
   96900    838.49383   -117.83536   0.75868684   -117.07668    1745.1399    4.3367435    4.3367435    4.3367435    1745.1399    11950.249    9189.8613   -15904.691    102.17856   -5746.1855   -8116.9351    81.562627 
   97000    873.54243   -117.86634   0.79039955   -117.07595    354.37674    4.3396325    4.3396325    4.3396325    354.37674    19748.696   -9548.2139   -9137.3515   -392.23711     4625.495     689.0246    81.725737 
   97100    450.81124   -117.49136   0.40790348   -117.08346    -9373.872    4.3386489    4.3386489    4.3386489    -9373.872   -15304.828    1315.1005   -14131.888    7343.4354   -4420.8006    6511.1743    81.670182 
   97200    541.84783   -117.57398    0.4902753    -117.0837    587.11411    4.3377639    4.3377639    4.3377639    587.11411   -9630.1956    25782.135   -14390.597    12552.096    -9022.027   -1864.5353    81.620212 
   97300    1087.0076   -118.05801   0.98354731   -117.07446    3207.2619    4.3401592    4.3401592    4.3401592    3207.2619    8266.5738    3940.0791   -2584.8673   -10922.102    1622.4858   -1570.6406    81.755498 
   97400    636.91395   -117.65689   0.57629312    -117.0806    239.38876    4.3388999    4.3388999    4.3388999    239.38876   -1694.2871    1991.5036    420.94972   -2295.5439    64.138945    7211.8475    81.684357 
   97500    334.63257   -117.38769   0.30278258   -117.08491   -6997.7324    4.3381573    4.3381573    4.3381573   -6997.7324   -18780.941    13037.559   -15249.816    11434.414   -10711.902    3450.7857    81.642424 
   97600    808.44945   -117.81234   0.73150205   -117.08084    3660.4474    4.3376369    4.3376369    4.3376369    3660.4474    1768.8442     18370.86   -9158.3619     2109.034    -6887.923   -2439.6081    81.613046 
   97700    981.76524   -117.96508   0.88832182   -117.07676    4919.9589    4.3394057    4.3394057    4.3394057    4919.9589    6486.5693    2162.5438    6110.7635   -9357.5701    1995.5636    -1745.083    81.712925 
   97800    541.68974   -117.57283   0.49013226    -117.0827   -6153.9879    4.3409989    4.3409989    4.3409989   -6153.9879   -18416.325    1521.1095   -1566.7482    246.45279   -3401.4354    4603.9369    81.802963 
   97900    539.79619   -117.56849   0.48841893   -117.08007   -49.669721    4.3378805    4.3378805    4.3378805   -49.669721   -5162.6607    16747.654   -11734.003    17356.127   -9207.2333    2216.4194    81.626798 
   98000    891.46259   -117.88137   0.80661408   -117.07475    480.39277    4.3400431    4.3400431    4.3400431    480.39277    2935.0136    7522.4209   -9016.2562   -8626.7479   -137.15713   -10816.086     81.74894 
   98100    780.02414   -117.78227   0.70578223   -117.07648    761.10756    4.3384104    4.3384104    4.3384104    761.10756    -11645.16    5720.2587    8208.2238   -11717.607    52.449378    174.29382    81.656715 
   98200    642.76764   -117.66093   0.58158967   -117.07934   -1709.4627    4.3369185    4.3369185    4.3369185   -1709.4627   -10350.133    5780.5478   -558.80304    13242.941    -9637.669    4860.4162    81.572504 
   98300    669.18235   -117.68475   0.60549025   -117.07926   -4882.5828    4.3422278    4.3422278    4.3422278   -4882.5828      255.561    7154.5201   -22057.829     5211.158   -4259.3679   -11527.998    81.872456 
   98400    855.51655   -117.84955   0.77408935   -117.07546   -1631.2908    4.3382475    4.3382475    4.3382475   -1631.2908    3975.5787   -3167.7503   -5701.7008    -10846.76    4526.4007   -13440.488    81.647515 
   98500    703.80067   -117.71295   0.63681364   -117.07614    2021.8953    4.3370046    4.3370046    4.3370046    2021.8953   -10529.011    6405.6975        10189   -763.48721   -2577.5815    243.48677     81.57736 
   98600    645.28813   -117.66168   0.58387026   -117.07781   -5944.4122    4.3420034    4.3420034    4.3420034   -5944.4122   -17432.709     10041.82   -10442.347    18355.512   -12315.773    489.52959    81.859762 
   98700    756.48197    -117.7616   0.68448078   -117.07712     2681.741    4.3366969    4.3366969    4.3366969     2681.741    8070.3993    17276.433   -17301.609   -1322.1418   -4779.8906   -18815.855        81.56 
   98800    789.62515   -117.79102   0.71446943   -117.07655    4886.8072    4.3366762    4.3366762    4.3366762    4886.8072   -382.46139    12492.852    2550.0307   -8399.0035    3707.8978   -4219.9655    81.558833 
   98900    650.04234   -117.66799   0.58817197   -117.07982   -7065.1869    4.3418674    4.3418674    4.3418674   -7065.1869   -30064.022    5726.9409    3141.5208    15643.702   -8582.8519    7813.3573     81.85207 
   99000    602.08975   -117.62465   0.54478346   -117.07987   -715.38404    4.3374955    4.3374955    4.3374955   -715.38404   -8982.0351    14379.695   -7543.8122    10586.121   -12056.602   -11582.096    81.605066 
   99100    932.21052   -117.91856   0.84348367   -117.07507   -1501.9278    4.3379527    4.3379527    4.3379527   -1501.9278     1194.885    6169.6978   -11870.366   -6069.8225    820.38484   -8839.8653    81.630875 
   99200    726.01428    -117.7339   0.65691298   -117.07699   -528.44177    4.3400416    4.3400416    4.3400416   -528.44177   -22023.689    11291.473    9146.8906    31.221327   -2358.9583    330.34087    81.748853 
   99300    486.48464   -117.52066   0.44018152   -117.08048   -3970.4795    4.3388215    4.3388215    4.3388215   -3970.4795   -26975.104    9330.1271    5733.5387    17605.936   -13998.701    469.24364     81.67993 
   99400    705.79362   -117.71772    0.6386169    -117.0791   -1489.7022    4.3374539    4.3374539    4.3374539   -1489.7022     -8731.21    11261.038   -6998.9346    2852.8006   -2752.4852   -13126.427    81.602714 
   99500    855.51594   -117.85062    0.7740888   -117.07654    5104.7584    4.3371902    4.3371902    4.3371902    5104.7584   -3759.1206    21968.657   -2895.2615   -2434.3696    12118.344   -9749.4683    81.587833 
   99600    623.11735   -117.64335   0.56380967   -117.07954    -3377.474    4.3419473    4.3419473    4.3419473    -3377.474   -25471.956    3279.2944     12060.24    15431.948   -4199.6569     10481.85    81.856591 
   99700    518.20417   -117.54795   0.46888202   -117.07907   -2793.3093    4.3379144    4.3379144    4.3379144   -2793.3093    -19176.02    3896.4446    6899.6474    10579.295   -12169.122   -7565.6448     81.62871 
   99800    709.75745   -117.71908   0.64220345   -117.07688    2236.8952    4.3366533    4.3366533    4.3366533    2236.8952   -2644.1545     17586.74   -8231.8994   -3804.8787      10182.7    -8314.116    81.557536 
   99900     747.4085   -117.75215   0.67627092   -117.07588   -1288.8362    4.3420627    4.3420627    4.3420627   -1288.8362    -15982.51    10330.453    1785.5476     5360.406    14579.965      2175.27    81.863116 
  100000      711.705   -117.72115   0.64396564   -117.07719   -432.36674    4.3359919    4.3359919    4.3359919   -432.36674   -18645.842   -1167.0336    18515.776    16769.039   -11514.921   -1251.6021    81.520228 
Loop time of 23.4987 on 1 procs for 100000 steps with 8 atoms

Pair  time (%) = 7.30574 (31.09)
Kspce time (%) = 5.86406 (24.9548)
Neigh time (%) = 0 (0)
Comm  time (%) = 1.22151 (5.19818)
Outpt time (%) = 0.0296292 (0.126089)
Other time (%) = 9.07778 (38.631)

Nlocal:    8 ave 8 max 8 min
Histogram: 1 0 0 0 0 0 0 0 0 0
Nghost:    2189 ave 2189 max 2189 min
Histogram: 1 0 0 0 0 0 0 0 0 0
Neighs:    2056 ave 2056 max 2056 min
Histogram: 1 0 0 0 0 0 0 0 0 0

Total # of neighbors = 2056
Ave neighs/atom = 257
Neighbor list builds = 0
Dangerous builds = 0
unfix 20
unfix 21
print "seeds:8737015"
seeds:8737015
