LAMMPS (10 Feb 2015)
# ---- initialize simulations
clear
units metal
dimension 3
boundary p p p
atom_style charge
atom_modify map array
# ---- create atoms
read_data /Users/eugeneragasa/pyflamestk_git/pypospack/tests/tests_integration/workflow/WorkflowLammpsThermalExpansion/param_5378/MgO_NaCl_unit.npt.T500/lammps.structure
  triclinic box = (0 0 0) to (4.2565 4.2565 4.2565) with tilt (0 0 0)
  1 by 1 by 1 MPI processor grid
  reading atoms ...
  8 atoms
# ---- define interatomic potential
include potential.mod
mass 1 24.305
mass 2 15.999

group Mg type 1
4 atoms in group Mg
group O type 2
4 atoms in group O

set group Mg charge 1.67557694923
  4 settings made for charge
set group O charge -1.67557694923
  4 settings made for charge

variable R_cut equal 10.0

pair_style buck/coul/long ${R_cut}
pair_style buck/coul/long 10
pair_coeff 1 1 0.0 0.5 0.0 ${R_cut}
pair_coeff 1 1 0.0 0.5 0.0 10
pair_coeff 1 2 1405.50211521 0.282257384366 0.0 ${R_cut}
pair_coeff 1 2 1405.50211521 0.282257384366 0.0 10
pair_coeff 2 2 19860.1058829 0.143671361936 6.84969713079 ${R_cut}
pair_coeff 2 2 19860.1058829 0.143671361936 6.84969713079 10

kspace_style pppm 1.0e-5

neighbor 1.0 bin
neigh_modify every 1 delay 0 check yes
# ---- define settings
compute eng all pe/atom
compute eatoms all reduce sum c_eng
# ---- run minimization
reset_timestep 0
fix 1 all box/relax iso 0.0 vmax 0.001
thermo 10
thermo_style custom step pe lx ly lz xy xz yz press pxx pyy pzz pxy pxz pyz c_eatoms
min_style cg
minimize 1e-25 1e-25 5000 10000
PPPM initialization ...
  G vector (1/distance) = 0.352969
  grid = 8 8 8
  stencil order = 5
  estimated absolute RMS force accuracy = 4.01483e-05
  estimated relative force accuracy = 2.78815e-06
  using double precision FFTs
  3d grid and FFT values/proc = 3375 512
Neighbor list info ...
  1 neighbor list requests
  update every 1 steps, delay 0 steps, check yes
  master list distance cutoff = 11
Memory usage per processor = 4.06549 Mbytes
Step PotEng Lx Ly Lz Xy Xz Yz Press Pxx Pyy Pzz Pxy Pxz Pyz eatoms 
       0   -115.02334       4.2565       4.2565       4.2565            0            0            0    14836.064    14836.064    14836.064    14836.064 5.7083842e-11 -5.8546636e-11 3.613515e-11   -115.02334 
       4   -115.02629     4.268627     4.268627     4.268627            0            0            0   -3.7663252   -3.7663252   -3.7663252   -3.7663252 5.5364648e-11 -5.1262271e-11 1.3911233e-11   -115.02629 
Loop time of 0.00710607 on 1 procs for 4 steps with 8 atoms

Minimization stats:
  Stopping criterion = linesearch alpha is zero
  Energy initial, next-to-last, final = 
        -115.023341276       -115.0262927       -115.0262927
  Force two-norm initial, final = 2.14234 0.00179672
  Force max component initial, final = 2.14234 0.000546963
  Final line search alpha, max atom move = 0.00390625 2.13657e-06
  Iterations, force evaluations = 4 21

Pair  time (%) = 0.00197244 (27.7571)
Kspce time (%) = 0.00113058 (15.9101)
Neigh time (%) = 0 (0)
Comm  time (%) = 0.000217676 (3.06324)
Outpt time (%) = 0 (0)
Other time (%) = 0.00378537 (53.2696)

Nlocal:    8 ave 8 max 8 min
Histogram: 1 0 0 0 0 0 0 0 0 0
Nghost:    2189 ave 2189 max 2189 min
Histogram: 1 0 0 0 0 0 0 0 0 0
Neighs:    2344 ave 2344 max 2344 min
Histogram: 1 0 0 0 0 0 0 0 0 0

Total # of neighbors = 2344
Ave neighs/atom = 293
Neighbor list builds = 0
Dangerous builds = 0
unfix 1
# ---- define output variables ----
variable natoms equal "count(all)"
variable tot_energy equal "c_eatoms"
variable length_x equal "lx"
variable length_y equal "ly"
variable length_z equal "lz"
variable tilt_xy equal "xy"
variable tilt_xz equal "xz"
variable tilt_yz equal "yz"
variable tot_press equal "press"
variable press_xx equal "pxx"
variable press_yy equal "pyy"
variable press_zz equal "pzz"
variable press_xy equal "pxy"
variable press_xz equal "pxz"
variable press_yz equal "pyz"

# ---- output ----
print "pypospack:output_section:begin"
pypospack:output_section:begin
print "tot_energy = ${tot_energy}"
tot_energy = -115.026292700229
print "num_atoms = ${natoms}"
num_atoms = 8
print "xx = ${length_x}"
xx = 4.26862697136346
print "yy = ${length_y}"
yy = 4.26862697136346
print "zz = ${length_z}"
zz = 4.26862697136346
print "xy = ${tilt_xy}"
xy = 0
print "xz = ${tilt_xz}"
xz = 0
print "yz = ${tilt_yz}"
yz = 0
print "tot_press = ${tot_press}"
tot_press = -3.7663252179344
print "pxx = ${press_xx}"
pxx = -3.76632521787482
print "pyy = ${press_yy}"
pyy = -3.76632521789834
print "pzz = ${press_zz}"
pzz = -3.76632521803003
print "pxy = ${press_xy}"
pxy = 5.53646482695888e-11
print "pxz = ${press_xz}"
pxz = -5.12622707696674e-11
print "pyz = ${press_yz}"
pyz = 1.39112332535826e-11
print "pypospack:output_section:done"
pypospack:output_section:done
print "pypospack:lammps_sim:done"
pypospack:lammps_sim:done
#------------------------------------------------------------------------------
# RUN THERMOSTAT
# running using an NPT Nose-Hoover style thermostat
#------------------------------------------------------------------------------
variable tempdamp equal 0.1
variable pressdamp equal 1.0
# set initial velocities
velocity all create 500 3309439 mom yes dist gaussian loop all
# fix for Nose-Hoover style thermostat
fix 20 all npt temp 500 500 0.1 aniso 0.0 0.0 1.0 drag 1.0 couple xyz
variable boxx equal lx
variable boxy equal ly
variable boxz equal lz
variable boxp equal press
variable boxt equal temp
# calculate averages every 10000 steps
reset_timestep 0
fix 21 all ave/time 10 10 100 v_boxx v_boxy v_boxz v_boxp v_boxt file lattice.out
thermo_style custom step temp pe ke etotal press lx ly lz press pxx pyy pzz pxy pxz pyz vol
thermo_modify flush yes
thermo 100
run 100000
PPPM initialization ...
  G vector (1/distance) = 0.352845
  grid = 8 8 8
  stencil order = 5
  estimated absolute RMS force accuracy = 4.03767e-05
  estimated relative force accuracy = 2.80401e-06
  using double precision FFTs
  3d grid and FFT values/proc = 3375 512
Memory usage per processor = 3.06549 Mbytes
Step Temp PotEng KinEng TotEng Press Lx Ly Lz Press Pxx Pyy Pzz Pxy Pxz Pyz Volume 
       0          500    -115.0263   0.45241051   -114.57388    6208.5696     4.268627     4.268627     4.268627    6208.5696    6844.3339    7550.8516    4230.5233      1511.11   -2989.0694    351.03622    77.779404 
     100    188.78505   -114.67943   0.17081668   -114.50861   -4162.1744    4.2936501    4.2936501    4.2936501   -4162.1744    1552.0732    1319.7847   -15358.381    1142.9683   -429.41637   -212.96273    79.155291 
     200    500.74412   -114.84473    0.4530838   -114.39165    790.11209    4.2788471    4.2788471    4.2788471    790.11209    974.44028   -619.51026    2015.4063   -5664.5865    3342.7717    -2224.861     78.33941 
     300     361.4658   -114.61105   0.32706185   -114.28398    6188.7609    4.2948994    4.2948994    4.2948994    6188.7609     19785.45    8089.1365   -9308.3039    2838.4005    2492.8667     1260.626    79.224403 
     400    597.24195   -114.74039   0.54039707       -114.2    -2762.358    4.2940182    4.2940182    4.2940182    -2762.358   -7926.0908    3852.9823   -4213.9656    1525.8246   -726.78827    2631.9248    79.175649 
     500    495.99321   -114.59207   0.44878508   -114.14328    11278.015    4.2850192    4.2850192    4.2850192    11278.015     22971.47    14255.431   -3392.8557    2649.1408   -8127.4531   -445.31751    78.678907 
     600    460.26832   -114.53474   0.41646044   -114.11828    -13362.28    4.3083237    4.3083237    4.3083237    -13362.28   -4891.8957   -3877.9795   -31316.965   -5578.8054    1512.5631    624.51775    79.969608 
     700    652.64737   -114.69435   0.59052905   -114.10382    17674.511    4.2777725    4.2777725    4.2777725    17674.511    25405.922    25911.294    1706.3167    6387.8226    1635.9993   -2577.5742    78.280404 
     800    421.55938   -114.49319   0.38143579   -114.11175   -11495.211    4.3076464    4.3076464    4.3076464   -11495.211   -5103.2158    -7186.396    -22196.02   -665.04616   -146.67243    1288.9548    79.931903 
     900    520.66482   -114.58391   0.47110847    -114.1128   -9842.8938    4.2902964    4.2902964    4.2902964   -9842.8938   -11371.455    -11694.51   -6462.7165    -751.9196   -1765.8018   -806.09588    78.969956 
    1000    312.12845    -114.4005   0.28242038   -114.11808    18372.894    4.2872131    4.2872131    4.2872131    18372.894    27751.578    23944.904    3422.2003    5.3172691   -2736.3785    863.08477    78.799818 
    1100    490.20373   -114.55833   0.44354664   -114.11478   -27869.376    4.3123659    4.3123659    4.3123659   -27869.376   -29180.019   -27834.317   -26593.792    2058.2517   -1023.5834    2159.9988    80.194909 
    1200    236.56716     -114.325   0.21405094   -114.11095    19400.082    4.2736528    4.2736528    4.2736528    19400.082    21475.622    12032.178    24692.447    5133.9383    -5277.527    1804.7028    78.054459 
    1300    510.05175   -114.57864   0.46150554   -114.11713    -19591.62    4.3062373    4.3062373    4.3062373    -19591.62   -27174.467   -6319.7185   -25280.674   -2975.0115    2009.5667    1016.9697    79.853483 
    1400    438.17641   -114.51521   0.39647123   -114.11873   -8241.3875    4.2946068    4.2946068    4.2946068   -8241.3875    18510.621   -20632.979   -22601.804   -347.62174    1520.4469   -1201.6861    79.208216 
    1500     511.4371   -114.57894   0.46275904   -114.11618      4433.26    4.2797125    4.2797125    4.2797125      4433.26    6240.2542   -6213.6772    13273.203    1024.9918   -3688.0942   -2415.4007    78.386951 
    1600     288.2577   -114.37531   0.26082163   -114.11448   -10334.833    4.3139096    4.3139096    4.3139096   -10334.833    4971.7177   -4320.7812   -31655.436     3661.997   -6595.4463    1309.3419    80.281065 
    1700    537.29924   -114.59413   0.48615964   -114.10797    20229.925    4.2742389    4.2742389    4.2742389    20229.925    29156.307    15993.713    15539.755   -892.55288   -1363.7788    5169.3658    78.086574 
    1800    456.77009   -114.53224   0.41329518   -114.11895   -9109.5365    4.3031296    4.3031296    4.3031296   -9109.5365   -866.59081   -18188.522   -8273.4962   -1713.7178    3932.2753   -94.419016    79.680726 
    1900    404.76937   -114.48087   0.36624383   -114.11462   -984.54344    4.2993057    4.2993057    4.2993057   -984.54344    13656.696    -6565.662   -10044.664   -3158.2621    870.79405   -970.86202    79.468495 
    2000    523.66657    -114.5832   0.47382452   -114.10937    24599.666    4.2743164    4.2743164    4.2743164    24599.666    47759.096    15483.891    10556.012    7470.9564    2148.1692   -1581.6574    78.090822 
    2100    596.99108   -114.65457   0.54017007    -114.1144   -23729.291    4.3150333    4.3150333    4.3150333   -23729.291   -25923.734   -3955.3098    -41308.83    5068.6818   -2754.0485   -1675.2954    80.343815 
    2200    641.89471   -114.69522   0.58079982   -114.11442    6620.6503    4.2766277    4.2766277    4.2766277    6620.6503    8518.7747    13287.964   -1944.7874   -4786.6346   -6964.6418    1188.4626    78.217573 
    2300    507.89977   -114.58043   0.45955839   -114.12087    5164.1238    4.2945397    4.2945397    4.2945397    5164.1238    14988.517    17415.262   -16911.408   -6427.2733   -2055.2272    3085.8829    79.204503 
    2400    733.52213   -114.77872   0.66370624   -114.11501   -20195.033    4.3074921    4.3074921    4.3074921   -20195.033   -4112.5703   -26420.352   -30052.177    4743.5779    3168.9221    2910.0574    79.923312 
    2500    517.92461   -114.57725   0.46862907   -114.10862    30406.753     4.269606     4.269606     4.269606    30406.753    26304.939    46853.093    18062.226    10377.062    3419.4931   -8061.3642    77.832934 
    2600     517.9111   -114.58092   0.46861685    -114.1123    -18926.19     4.314124     4.314124     4.314124    -18926.19   -13956.407   -11486.231   -31335.934   -4582.9319   -1245.0604   -1905.9775    80.293036 
    2700    584.91584   -114.64143   0.52924414   -114.11218    9922.1828    4.2814425    4.2814425    4.2814425    9922.1828    13176.373    12917.126    3673.0489   -6729.5704   -1852.0855    775.66355    78.482049 
    2800    595.00189   -114.65791   0.53837022   -114.11954    5514.8708    4.2883093    4.2883093    4.2883093    5514.8708    17086.888   -1690.8055      1148.53     3924.737   -1489.1885   -1292.5583    78.860277 
    2900    610.95498   -114.66504   0.55280491   -114.11224   -19806.021    4.3084494    4.3084494    4.3084494   -19806.021   -16131.822   -13178.101   -30108.139    6672.9546   -3054.3291    5522.6025    79.976612 
    3000    507.62379    -114.5646   0.45930867   -114.10529    18054.168    4.2740249    4.2740249    4.2740249    18054.168    28054.131    20133.258    5975.1154   -373.85538    3375.7754    53.928185    78.074849 
    3100    552.68577   -114.61246    0.5000817   -114.11238   -10066.837     4.304117     4.304117     4.304117   -10066.837   -17349.882    11051.252   -23901.881   -6765.4797   -369.14628    795.21463     79.73559 
    3200    491.89104   -114.55711   0.44507335   -114.11204    7341.6858    4.2902019    4.2902019    4.2902019    7341.6858    9446.6206    3078.6247     9499.812    79.957288   -1897.1583   -8684.9849    78.964737 
    3300    518.34525   -114.58072   0.46900968   -114.11171   -1779.0372    4.2877964    4.2877964    4.2877964   -1779.0372   -4458.8909    -5275.731    4397.5105    3284.6344   -4913.8416    5578.8089    78.831984 
    3400    321.87381   -114.40568   0.29123818   -114.11444    2031.4851    4.2990506    4.2990506    4.2990506    2031.4851    -16.85456    13153.232   -7041.9222    1015.7888    1306.4419    4935.0103    79.454351 
    3500    539.00877    -114.6006   0.48770646   -114.11289     2539.631    4.2881796    4.2881796    4.2881796     2539.631    2011.0393    10472.368   -4864.5139    2899.7361   -1717.8673    3770.6628    78.853121 
    3600    413.77883    -114.4887   0.37439578    -114.1143   -7024.1583    4.2937328    4.2937328    4.2937328   -7024.1583   -9757.7151    6396.4279   -17711.188   -3427.2732   -1970.3038   -4023.7435    79.159866 
    3700    476.69032   -114.54522   0.43131942    -114.1139   -14231.104     4.293627     4.293627     4.293627   -14231.104   -1623.7629    -25675.53   -15394.019   -422.93856    3079.5101     3604.061    79.154013 
    3800    363.50348   -114.44457   0.32890559   -114.11566    1795.8449    4.2913159    4.2913159    4.2913159    1795.8449   -3084.7414    12190.507   -3718.2312   -662.68112   -1432.0613    4003.6937    79.026268 
    3900    373.73639   -114.45471   0.33816454   -114.11655    2147.9677    4.2917204    4.2917204    4.2917204    2147.9677     5446.118   -3701.2396    4699.0246    7935.9188   -5472.3015     3354.201    79.048612 
    4000    387.44232   -114.46952   0.35056595   -114.11895   -9080.3048    4.2967665    4.2967665    4.2967665   -9080.3048   -9602.3715   -6962.6374   -10675.905    1158.3996   -3151.4616    10346.383    79.327773 
    4100    340.23279    -114.4257   0.30784978   -114.11785     9265.901    4.2894639    4.2894639    4.2894639     9265.901    6369.7319    22905.954   -1477.9824    3293.4784    2699.5956    2785.0285    78.923991 
    4200    618.65343   -114.67459   0.55977063   -114.11482   -9563.6074    4.2934881    4.2934881    4.2934881   -9563.6074   -8497.7264   -7747.4164   -12445.679   -1029.7057   -851.83836   -3978.8416    79.146329 
    4300    526.98278   -114.59127   0.47682509   -114.11445   -1013.1836    4.2911239    4.2911239    4.2911239   -1013.1836    2743.0532   -6062.3204     279.7163    111.76181    5713.1372    984.48463    79.015659 
    4400    415.08673   -114.49023    0.3755792   -114.11465    8825.4933    4.2920048    4.2920048    4.2920048    8825.4933    2220.2839    37207.336    -12951.14    1972.7699   -2451.4126    7159.9266     79.06433 
    4500    567.17334   -114.62872   0.51319036   -114.11552   -1497.0795    4.2930799    4.2930799    4.2930799   -1497.0795   -5888.7021   -2060.3237    3457.7872    1314.3274   -2115.2587    831.40551    79.123761 
    4600     470.9275    -114.5426   0.42610509   -114.11649     14021.38    4.2871721    4.2871721    4.2871721     14021.38    21853.971    12451.213    7758.9555    922.70813   -5244.3311   -3193.0994    78.797559 
    4700    604.14166   -114.66311   0.54664007   -114.11647   -8599.5103    4.2967176    4.2967176    4.2967176   -8599.5103   -16729.837    -1226.489   -7842.2049   -52.632297    3154.1402    7529.9223    79.325063 
    4800    565.67174    -114.6263   0.51183168   -114.11447    3010.6446    4.2869198    4.2869198    4.2869198    3010.6446    7980.9565    5389.3959   -4338.4186    2768.6963    2672.9621    3601.6553    78.783649 
    4900    598.51416   -114.65799   0.54154819   -114.11645   -6303.7846    4.2945337    4.2945337    4.2945337   -6303.7846    624.38357   -509.25199   -19026.485    2976.8232    -3166.406   -1941.3471    79.204171 
    5000    605.53088   -114.66407   0.54789707   -114.11618   -5775.1885     4.292134     4.292134     4.292134   -5775.1885   -1569.9951   -1970.8612   -13784.709   -999.43636   -1504.5601    1912.0082     79.07147 
    5100    471.78241   -114.54261   0.42687864   -114.11573    4179.5767    4.2890784    4.2890784    4.2890784    4179.5767    15047.142   -324.59735   -2183.8147   -904.01092   -1677.7396    9009.4927    78.902715 
    5200    496.92672   -114.56563   0.44962974     -114.116   -4237.7466    4.2969069    4.2969069    4.2969069   -4237.7466   -15776.831     8653.218   -5589.6267    7135.8418   -2065.2289   -37.566566    79.335547 
    5300    609.14947    -114.6658   0.55117124   -114.11463    81.088899    4.2852065    4.2852065    4.2852065    81.088899   -3046.0498     2823.895    465.42148    16.935775   -4234.7506    243.07036    78.689225 
    5400    408.87636   -114.48785   0.36995992   -114.11789   -11.868799    4.2955568    4.2955568    4.2955568   -11.868799    2438.6498    14003.993   -16478.249     2862.556    5049.7317    4143.9618    79.260789 
    5500    597.82664   -114.65755    0.5409261   -114.11662   -4926.8301    4.2911081    4.2911081    4.2911081   -4926.8301     11192.82   -4267.5514   -21705.759   -3148.9429    175.28092    2696.4269    79.014788 
    5600    496.69229   -114.56622   0.44941762   -114.11681    9006.4223    4.2859673    4.2859673    4.2859673    9006.4223    11356.652     22332.16   -6669.5459    7233.0337    -2938.962   -1322.4584    78.731141 
    5700    414.46357   -114.49089   0.37501535   -114.11588   -9733.3394    4.3022015    4.3022015    4.3022015   -9733.3394    15437.714   -22983.015   -21654.717   -1147.6131   -3880.1894    2561.0183    79.629181 
    5800     501.5532   -114.56463   0.45381587   -114.11082     9620.944    4.2805195    4.2805195    4.2805195     9620.944    11506.463    6706.4372    10649.932   -1039.2339    2497.5963    2800.7969    78.431305 
    5900    338.46841   -114.42267   0.30625333   -114.11641    7784.8959    4.2960377    4.2960377    4.2960377    7784.8959    26236.461    3444.8578   -6326.6316    3340.0206    2142.2506   -2965.1647    79.287411 
    6000    477.25914   -114.54679    0.4318341   -114.11496   -12492.886    4.2952107    4.2952107    4.2952107   -12492.886     2924.739   -22409.267   -17994.129    533.54864   -1455.4755    6622.6653    79.241636 
    6100    361.45827   -114.44065   0.32705504   -114.11359    13119.086    4.2779217    4.2779217    4.2779217    13119.086    44448.535   -9257.9045    4166.6285    6031.7306   -755.60866    4911.7461    78.288594 
    6200    601.79689   -114.65692   0.54451847    -114.1124   -26426.201    4.3082895    4.3082895    4.3082895   -26426.201   -19097.584   -22299.456   -37881.562   -4476.1728   -684.07645   -2876.9032    79.967707 
    6300    401.87872   -114.47867   0.36362831   -114.11504    10152.076    4.2781637    4.2781637    4.2781637    10152.076    26104.944    3175.5494    1175.7347    10789.992    527.61533    1735.9978    78.301879 
    6400    442.39409   -114.52148   0.40028747    -114.1212   -6686.3392    4.2926952    4.2926952    4.2926952   -6686.3392    9599.7399   -20922.603   -8736.1544   -1101.6855   -137.90689    6165.0254    79.102492 
    6500    445.77627   -114.51986   0.40334774   -114.11651   -12072.602    4.3033554    4.3033554    4.3033554   -12072.602    2376.3096   -29467.758   -9126.3588    3580.1337    1886.7022    180.45897    79.693271 
    6600    482.26635   -114.54449   0.43636473   -114.10813     24170.62    4.2701086    4.2701086    4.2701086     24170.62    19423.828    18905.673    34182.359    1479.7416     302.7038   -4646.4122    77.860424 
    6700    479.05605    -114.5465   0.43345998   -114.11304   -20604.413    4.3100527    4.3100527    4.3100527   -20604.413    303.94411   -35321.723    -26795.46    1086.0678   -1625.6721    6716.2273    80.065929 
    6800    545.52967   -114.60415   0.49360671   -114.11054    11365.497    4.2819049    4.2819049    4.2819049    11365.497    33362.311   -1614.3374     2348.518     3947.611   -3135.5443    5966.4802    78.507481 
    6900    657.41791   -114.70927   0.59484554   -114.11443     3824.843    4.2865802    4.2865802    4.2865802     3824.843    20654.923   -2545.1109   -6635.2834    4934.6377    -807.3364   -287.76108    78.764926 
    7000    580.59829   -114.63932   0.52533753   -114.11398   -14654.126    4.3056174    4.3056174    4.3056174   -14654.126   -4453.3707   -11722.163   -27786.845    2350.8918    3845.0765    3033.9243    79.819005 
    7100    549.95622   -114.60815   0.49761194   -114.11054    22795.969    4.2736038    4.2736038    4.2736038    22795.969    45336.519    9398.0727    13653.315   -3213.8258    1006.4842    2312.8381    78.051774 
    7200    540.45312   -114.60541   0.48901334   -114.11639   -4799.7546    4.3006097    4.3006097    4.3006097   -4799.7546    1462.7571   -10663.034   -5198.9868    318.63984   -2626.6658    -2212.382    79.540825 
    7300    607.84923   -114.66614   0.54999475   -114.11615   -2992.9795    4.2884346    4.2884346    4.2884346   -2992.9795    -14738.72   -10500.897    16260.679    4213.8227   -3814.4207    1677.5854    78.867189 
    7400     490.1673   -114.56256   0.44351367   -114.11905     6203.626    4.2838645    4.2838645    4.2838645     6203.626    22873.759   -6677.0482     2414.167    5409.5516     4399.857    8889.2658    78.615317 
    7500    653.08411    -114.7064   0.59092423   -114.11548   -17417.175    4.3016333    4.3016333    4.3016333   -17417.175   -6719.8826   -20515.808   -25015.835   -695.26368    4318.8733    1971.8996    79.597635 
    7600    543.83829   -114.60495   0.49207631   -114.11288    1933.1374    4.2832053    4.2832053    4.2832053    1933.1374    10308.571   -1845.4076   -2663.7514    3771.0023     1194.193   -1827.5166     78.57903 
    7700    496.61107    -114.5637   0.44934413   -114.11436   -5278.4745    4.2916733    4.2916733    4.2916733   -5278.4745      11207.1   -14998.596   -12043.928   -3401.3529   -6593.0366    8918.9605     79.04601 
    7800    532.83414   -114.59673   0.48211953   -114.11462   -6835.8806    4.2961353    4.2961353    4.2961353   -6835.8806    5366.8417   -12456.072   -13418.412    2277.7171    2898.0444    1632.2255    79.292819 
    7900    418.62911   -114.49455   0.37878441   -114.11576    11573.644    4.2832338    4.2832338    4.2832338    11573.644    17702.689    7520.3326    9497.9113    5341.2581    5649.2802   -7638.7064    78.580598 
    8000    332.88225   -114.42067   0.30119886   -114.11947    26.133969    4.2949588    4.2949588    4.2949588    26.133969    18982.471   -18950.882    46.812974    2682.3364    4001.1036     3696.429    79.227694 
    8100     516.8803   -114.58429   0.46768416   -114.11661    -5053.121    4.2905743    4.2905743    4.2905743    -5053.121    1903.8845   -3937.7299   -13125.518   -3760.3859   -1880.6559    10298.274    78.985301 
    8200    439.72979   -114.51326   0.39787675   -114.11538    4227.2311    4.2871741    4.2871741    4.2871741    4227.2311     19480.71     6310.299   -13109.316    1341.5159    1336.5682   -105.34665     78.79767 
    8300    451.97786   -114.52473   0.40895907   -114.11577   -9777.1369    4.2936099    4.2936099    4.2936099   -9777.1369   -4561.5325   -3540.0895   -21229.789   -3757.7892    1896.1964   -2521.1074    79.153068 
    8400      420.283   -114.49742   0.38028089   -114.11714   -728.45841    4.2876624    4.2876624    4.2876624   -728.45841    16532.676   -21511.117    2793.0664    4364.8876    1620.8942    6234.5604    78.824594 
    8500    273.74164   -114.36631   0.24768719   -114.11863    6935.5857    4.2932818    4.2932818    4.2932818    6935.5857    16911.983    988.15054    2906.6241   -4867.2614    6654.2654    3262.7174    79.134926 
    8600    492.28395    -114.5617   0.44542886   -114.11628   -2735.3486    4.2880404    4.2880404    4.2880404   -2735.3486   -7860.2881   -15703.656    15357.898    2832.4917    2073.5156   -2013.0484    78.845444 
    8700    354.98887   -114.43826   0.32120139   -114.11706   -4310.4921    4.2917626    4.2917626    4.2917626   -4310.4921    3021.7107    -11293.37    -4659.817   -48.047482   -2467.6387    3331.4045    79.050947 
    8800    610.78459   -114.66729   0.55265074   -114.11464   -11733.713     4.291777     4.291777     4.291777   -11733.713    2495.2602    -20387.46    -17308.94    454.80861   -3461.9917    10208.353    79.051744 
    8900    433.44617   -114.50693    0.3921912   -114.11474    1905.5134    4.2917668    4.2917668    4.2917668    1905.5134     1552.799    8069.3311   -3905.5898    3665.3806    3575.4203    -4065.807    79.051179 
    9000    442.03427   -114.51548    0.3999619   -114.11551    1555.7586    4.2895882    4.2895882    4.2895882    1555.7586     3174.446   -16809.695    18302.525   -3739.5912    10080.788   -2630.0309    78.930857 
    9100    425.52041   -114.50253   0.38501981   -114.11751    5218.6885    4.2922983    4.2922983    4.2922983    5218.6885    3927.0955   -7440.9222    19169.892    1607.2296    1469.5556     6804.711    79.080553 
    9200    518.19093   -114.58363   0.46887004   -114.11476    1780.3099    4.2934211    4.2934211    4.2934211    1780.3099    928.38926    5244.7355   -832.19497   -6053.1652    3884.2434     4811.691    79.142625 
    9300    682.98415   -114.73057   0.61797841   -114.11259   -2442.3038    4.2859552    4.2859552    4.2859552   -2442.3038   -558.98403   -214.51899   -6553.4083    3164.0562   -5.7209705   -139.47945    78.730474 
    9400    517.28018   -114.58343   0.46804598   -114.11539   -6459.9527    4.2967568    4.2967568    4.2967568   -6459.9527   -11879.764   -4171.3996    -3328.694    -1501.738    -1579.347    273.13331    79.327236 
    9500    655.30041   -114.70825   0.59292958   -114.11532    1766.9447    4.2867316    4.2867316    4.2867316    1766.9447   -3884.7424   -10002.372    19187.948    4603.3416    628.44037    1288.4088    78.773269 
    9600    474.49497   -114.54734   0.42933302   -114.11801     7902.605    4.2918308    4.2918308    4.2918308     7902.605    7472.1396   -1651.0518    17886.727    -5200.335    5075.9955    2623.4919    79.054712 
    9700    580.19454   -114.64031   0.52497221   -114.11534   -5138.1718    4.2946908    4.2946908    4.2946908   -5138.1718   -7178.4797   -18014.919     9778.883   -3339.5684    7488.8028    6528.0452    79.212863 
    9800    619.91241   -114.67404   0.56090978   -114.11313    386.91463    4.2869496    4.2869496    4.2869496    386.91463    8962.2129     3350.641    -11152.11   -99.834895   -22.149372    8582.2955    78.785291 
    9900    575.15309   -114.63509    0.5204106   -114.11468   -1530.5206    4.2930499    4.2930499    4.2930499   -1530.5206    3698.4461   -10707.234    2417.2258   -3814.7193    2437.8095   -7063.0032    79.122101 
   10000    589.76588   -114.64901   0.53363256   -114.11537   -3037.1551    4.2894237    4.2894237    4.2894237   -3037.1551   -5526.5501   -6832.3385    3247.4233    2637.5437   -5881.4625   -2995.6234    78.921772 
   10100    466.01659   -114.53806    0.4216616    -114.1164    7011.7458    4.2892474    4.2892474    4.2892474    7011.7458     20525.14   -14064.226    14574.323   -1960.8007   -14.380941    6507.4016    78.912043 
   10200    665.36007   -114.71737   0.60203178   -114.11534   -4913.0555    4.2935929    4.2935929    4.2935929   -4913.0555   -5826.1292   -11570.185    2657.1476    3742.7803    4475.5124    3628.8999     79.15213 
   10300    423.89249    -114.4995   0.38354683   -114.11596    9918.4707     4.285496     4.285496     4.285496    9918.4707    35009.907   -4798.6135   -455.88174   -5080.3925    8045.2282   -804.41502    78.705172 
   10400    515.22502   -114.58288   0.46618642   -114.11669   -7302.3062    4.2933001    4.2933001    4.2933001   -7302.3062   -4368.3666    -1878.524   -15660.028    1267.0469    -3484.496    4455.2035    79.135936 
   10500    479.05494   -114.54974   0.43345897   -114.11628    5968.8349    4.2888264    4.2888264    4.2888264    5968.8349    4475.1897    2964.4139    10466.901   -535.66119    410.51577    711.90262    78.888807 
   10600    469.35998   -114.54216   0.42468677   -114.11747    4949.8818    4.2857909    4.2857909    4.2857909    4949.8818    20491.981   -5691.8166    49.481228   -1020.1125    7740.3403   -5834.0676     78.72142 
   10700    427.21012   -114.50426   0.38654869   -114.11771   -12820.308    4.2963148    4.2963148    4.2963148   -12820.308    -15650.83    -20736.18   -2073.9132   -977.72353    340.09718    2830.5922    79.302756 
   10800    460.24427   -114.53069   0.41643869   -114.11426    930.62646    4.2858419    4.2858419    4.2858419    930.62646    13564.439   -3221.9889   -7550.5711    997.45284    -3914.795    6595.6831    78.724233 
   10900    443.42195     -114.517    0.4012175   -114.11578   -443.46102     4.290832     4.290832     4.290832   -443.46102    10585.272   -905.98707   -11009.668    -615.8868    -838.1082    3173.7624    78.999535 
   11000    399.76337   -114.47844    0.3617143   -114.11672   -10529.705    4.2921674    4.2921674    4.2921674   -10529.705   -8881.3842   -15629.398   -7078.3317    -2137.498    6008.5301   -6828.3049    79.073316 
   11100    300.23075    -114.3888   0.27165509   -114.11714    5771.3255     4.284778     4.284778     4.284778    5771.3255    24850.823    18.264484    -7555.111    911.90312    738.74281    7289.5032     78.66562 
   11200    542.34792    -114.6054    0.4907278   -114.11467   -9557.6863    4.2959257    4.2959257    4.2959257   -9557.6863    3172.2649   -21583.625   -10261.699    1148.4182    2205.5012    305.64559    79.281213 
   11300    384.88817   -114.46359    0.3482549   -114.11534    5782.6845    4.2850313    4.2850313    4.2850313    5782.6845    17621.643   -3382.0118    3108.4218   -1422.1042    2206.0578   -785.12166    78.679574 
   11400     401.4278   -114.47997   0.36322031   -114.11675   -9900.2157     4.292468     4.292468     4.292468   -9900.2157     1803.141   -11521.474   -19982.314   -4357.3764    291.42018     6079.952    79.089933 
   11500    465.41229   -114.53533   0.42111482   -114.11421   -441.05115    4.2926955    4.2926955    4.2926955   -441.05115    1190.6615    17638.804   -20152.619    3619.9536   -3544.9042    2036.7978    79.102505 
   11600    463.07021   -114.53377   0.41899566   -114.11477    9067.4117    4.2868594    4.2868594    4.2868594    9067.4117    7949.8825    4219.5567    15032.796    4089.8268    1530.3025   -5097.5603    78.780316 
   11700    539.29012   -114.60496   0.48796104     -114.117   -11742.491    4.2943443    4.2943443    4.2943443   -11742.491   -5872.3918   -11322.631   -18032.451   -246.00214    7763.4981   -3615.1911    79.193693 
   11800     394.8511   -114.47417   0.35726957    -114.1169    8147.0827    4.2884441    4.2884441    4.2884441    8147.0827    9317.3545    4159.3849    10964.509   -1388.1929    1510.8597    6713.6278    78.867716 
   11900    688.80334   -114.73787   0.62324373   -114.11462   -2730.7689    4.2898244    4.2898244    4.2898244   -2730.7689   -6414.2541    8795.1352   -10573.188   -3580.7756   -125.73794   -910.49578    78.943892 
   12000    461.98705   -114.53476   0.41801559   -114.11674   -451.73917    4.2935025    4.2935025    4.2935025   -451.73917   -7621.2074    11557.301   -5291.3114     674.1526   -608.22923    2122.3237    79.147126 
   12100    526.11887   -114.59293   0.47604341   -114.11688   -2645.7262    4.2857261    4.2857261    4.2857261   -2645.7262   -12078.899    1538.1412    2603.5793    6252.7683   -2128.9327   -2404.4945    78.717852 
   12200     642.5806   -114.69839   0.58142043   -114.11697   -4886.3851    4.2919578    4.2919578    4.2919578   -4886.3851    7945.8596   -12207.617   -10397.398    2046.9137    2628.5417    2551.7544    79.061733 
   12300     599.8573   -114.65909   0.54276349   -114.11632   -2118.4311    4.2928296    4.2928296    4.2928296   -2118.4311    38.528193   -9170.2207    2776.3993    -994.7144   -1427.1854   -8504.2526    79.109923 
   12400     597.0226   -114.65518    0.5401986   -114.11498    615.94636    4.2834695    4.2834695    4.2834695    615.94636   -3304.6637     7763.318   -2610.8152   -3470.4361    1558.5787    7603.1629    78.593575 
   12500    418.57787   -114.49562   0.37873806   -114.11689    3034.4015    4.2972267    4.2972267    4.2972267    3034.4015     7837.183   -1027.4012    2293.4227    4856.9641   -2405.4013    6497.1331    79.353263 
   12600    791.18829   -114.82984   0.71588379   -114.11396    -2067.863    4.2860129    4.2860129    4.2860129    -2067.863   -3287.2945    5661.8839   -8578.1784    1191.3841    3260.8756   -7199.0319    78.733655 
   12700    521.66123   -114.59071   0.47201004    -114.1187    8834.4976     4.288014     4.288014     4.288014    8834.4976    17744.296   -6335.4759    15094.673     1002.792    1988.9731   -3317.7784    78.843986 
   12800    580.61965   -114.64328   0.52535686   -114.11793   -10891.027    4.2976891    4.2976891    4.2976891   -10891.027   -6289.2627   -19489.427   -6894.3908   -3598.1447   -3456.1164    5497.2023    79.378883 
   12900    562.30803   -114.62331   0.50878812   -114.11452    16286.977    4.2780713    4.2780713    4.2780713    16286.977    13197.716    11314.122    24349.093   -760.79636   -4365.3723    3280.7646    78.296808 
   13000    532.99923   -114.59929   0.48226891   -114.11702   -3808.3924    4.2991065    4.2991065    4.2991065   -3808.3924    -6293.647     10147.46    -15278.99    484.53385     949.4489   -8446.0087    79.457447 
   13100    506.43479   -114.57468   0.45823284   -114.11644   -3626.0256    4.2889502    4.2889502    4.2889502   -3626.0256   -9625.5773   -6715.9852    5463.4858    4668.7244    4722.0839     -1923.64     78.89564 
   13200    429.07139    -114.5045   0.38823281   -114.11627    8572.1472    4.2819158    4.2819158    4.2819158    8572.1472    22075.505   -9404.9435     13045.88    7453.3166   -297.15829    2199.3189    78.508083 
   13300    564.83827    -114.6232   0.51107753   -114.11212   -20342.757    4.3052278    4.3052278    4.3052278   -20342.757   -6457.1774   -28797.035   -25774.059   -3847.6318   -2028.0052   -1379.6563    79.797341 
   13400    368.85078   -114.44386   0.33374394   -114.11012    9751.9252    4.2792448    4.2792448    4.2792448    9751.9252    21691.067    1703.4297    5861.2787   -2731.5748    814.30096   -7864.2745    78.361257 
   13500    455.25442   -114.52671   0.41192377   -114.11479   -8272.1392    4.2910376    4.2910376    4.2910376   -8272.1392   -12945.004   -6920.9385   -4950.4754   -4111.0919   -931.38285    4964.3745     79.01089 
   13600    359.88226   -114.43927   0.32562903   -114.11364   -9292.5865    4.3004817    4.3004817    4.3004817   -9292.5865    4242.8271   -15826.789   -16293.798    6476.3439   -1931.4314   -4376.5966    79.533724 
   13700     443.7008   -114.51133   0.40146981   -114.10986    11433.132    4.2751954    4.2751954    4.2751954    11433.132     33148.97    8493.6164   -7343.1893    1595.1202   -170.06355   -9801.3724    78.139012 
   13800    390.70469   -114.47003   0.35351782   -114.11651   -7490.7154     4.298061     4.298061     4.298061   -7490.7154    7390.0722   -28520.476   -1341.7429     2673.772    5597.2936    1372.7409     79.39949 
   13900    343.34154   -114.42612   0.31066264   -114.11546   -1185.6798    4.2921409    4.2921409    4.2921409   -1185.6798     22227.72   -19096.513   -6688.2468   -2044.7982   -2145.6328   -1718.8509    79.071849 
   14000    483.73999   -114.55047   0.43769811   -114.11278    3097.5855    4.2779336    4.2779336    4.2779336    3097.5855    17610.574   -4495.6456   -3822.1715   -943.18927     1080.802   -5755.9092    78.289248 
   14100    497.64241   -114.56602   0.45027731   -114.11574   -13743.298     4.300629     4.300629     4.300629   -13743.298    1654.6142   -12530.576   -30353.931    1361.1537   -5085.3936   -1588.5346    79.541893 
   14200    354.48004   -114.43781   0.32074099   -114.11707    4245.0712     4.285426     4.285426     4.285426    4245.0712    12427.272   -7501.8016    7809.7434    1491.1267    3567.1558   -2300.6849    78.701315 
   14300     418.6389   -114.49617   0.37879327   -114.11737   -146.96962    4.2816977    4.2816977    4.2816977   -146.96962     17872.84   -12906.668   -5407.0812    4547.8044   -997.75304   -10744.084    78.496084 
   14400    494.71304   -114.56186   0.44762676   -114.11423   -14810.601    4.3015771    4.3015771    4.3015771   -14810.601   -5982.4804   -14408.528   -24040.796   -3981.0148   -953.20034   -3583.6096    79.594516 
   14500    547.84501   -114.60796   0.49570168   -114.11226    10877.984    4.2767716    4.2767716    4.2767716    10877.984    12509.408   -1932.9708    22057.514    5402.6105    3756.9256    5098.5178    78.225469 
   14600    532.62453   -114.59957   0.48192987   -114.11764   -12395.262    4.2921119    4.2921119    4.2921119   -12395.262   -5574.9112   -15154.492   -16456.382    199.12565    -2356.007   -8106.6647    79.070248 
   14700    420.18473   -114.49812   0.38019197   -114.11792   -1051.2888    4.2936251    4.2936251    4.2936251   -1051.2888    15683.565   -16233.165   -2604.2667     1480.813    8601.8211   -11932.226    79.153907 
   14800    728.86653   -114.77176   0.65949376   -114.11227    9646.3322    4.2770422    4.2770422    4.2770422    9646.3322    4597.7527    8522.7968    15818.447   -1709.7743    -7756.572    3353.7049     78.24032 
   14900    451.87367   -114.52514   0.40886479   -114.11628    733.31893    4.2968839    4.2968839    4.2968839    733.31893    8865.0669   -17966.181    11301.071      2426.61    6712.9335    631.37445    79.334277 
   15000    562.45064   -114.62662   0.50891716   -114.11771     1326.828    4.2849417    4.2849417    4.2849417     1326.828    9502.0185   -7549.5915    2028.0569   -658.76282   -5955.2935    -13645.13     78.67464 
   15100    710.13428    -114.7607   0.64254442   -114.11815    703.04481    4.2867811    4.2867811    4.2867811    703.04481    3498.8873   -11470.443     10080.69   -300.15377    6889.2592   -5827.5032       78.776 
   15200     602.3747   -114.66187   0.54504128   -114.11683    3187.8324    4.2920616    4.2920616    4.2920616    3187.8324    4462.4612   -14252.802    19353.838   -701.29125    -3082.431     2617.956    79.067472 
   15300    510.70266   -114.57865    0.4620945   -114.11655     2669.287    4.2844202    4.2844202    4.2844202     2669.287    2815.7589   -10683.855    15875.957   -2934.0518    423.17961   -8159.4656    78.645918 
   15400    592.74655   -114.65314   0.53632953   -114.11681   -6602.5903    4.2911642    4.2911642    4.2911642   -6602.5903   -4522.6697   -19935.791    4650.6901    3085.8237    427.89974   -9981.8358    79.017887 
   15500    701.36695    -114.7501   0.63461156   -114.11549   -1619.3584     4.286424     4.286424     4.286424   -1619.3584   -4829.0559   -5873.8502    5844.8311    -4473.441   -418.14135    1981.0559    78.756315 
   15600    560.38794    -114.6255   0.50705079   -114.11845   -5913.0828    4.2886806    4.2886806    4.2886806   -5913.0828   -15641.782   -20609.791    18512.324   -2138.3234   -1522.5611   -3387.3142    78.880767 
   15700    464.84693   -114.53922   0.42060327   -114.11861    1170.5995    4.2897933    4.2897933    4.2897933    1170.5995    5179.1958   -15578.192    13910.794   -1805.2132   -1200.8224   -9747.5938    78.942174 
   15800    559.42506   -114.62171   0.50617955   -114.11553   -416.32876    4.2891107    4.2891107    4.2891107   -416.32876   -4772.6814   -16772.155     20295.85   -418.78738    10881.801   -857.98182    78.904498 
   15900    596.64188   -114.65457   0.53985411   -114.11472    2383.5731    4.2833107    4.2833107    4.2833107    2383.5731    12705.012   -14039.278    8484.9843    1961.3551   -1296.0177    1985.5509    78.584835 
   16000    379.76846    -114.4629   0.34362248   -114.11927   -5561.8675    4.2973256    4.2973256    4.2973256   -5561.8675   -5579.3295   -26496.616    15390.343      1517.09   -1742.6806   -9582.4437    79.358745 
   16100    508.31307   -114.57668   0.45993235   -114.11674    3623.5375    4.2801033    4.2801033    4.2801033    3623.5375    13367.929   -1730.2792   -767.03739     932.9762   -3575.0187   -2303.2973    78.408428 
   16200    506.53782   -114.57577   0.45832606   -114.11745   -185.41699    4.2886906    4.2886906    4.2886906   -185.41699   -48.732876   -13640.425    13132.907   -2328.7615    1276.4038    4162.3314    78.881316 
   16300    476.22817   -114.54697   0.43090126   -114.11607   -18968.266    4.2989561    4.2989561    4.2989561   -18968.266   -6578.1969   -31295.699   -19030.903   -1292.6398    2392.6796   -5792.9015    79.449109 
   16400    274.85595   -114.36169   0.24869544     -114.113    23587.312    4.2704641    4.2704641    4.2704641    23587.312    36312.178     11268.02    23181.737   -1690.6704    -950.6738   -6188.4809    77.879874 
   16500    499.40539   -114.56661   0.45187249   -114.11474   -19701.837    4.3026634    4.3026634    4.3026634   -19701.837   -11864.487   -32301.342   -14939.683    2755.6206   -182.63338    2996.0276    79.654828 
   16600    437.82454   -114.51195   0.39615285   -114.11579     7136.979     4.280014     4.280014     4.280014     7136.979    13727.855   -477.00471    8160.0862    610.60817    2027.1298    2002.5222    78.403519 
   16700    403.14748   -114.48562   0.36477631   -114.12085      5136.15    4.2832015    4.2832015    4.2832015      5136.15    849.95421   -9569.5843     24128.08    -28.16277   -1161.7663   -10115.235    78.578821 
   16800    364.02173   -114.44652   0.32937451   -114.11715   -16233.398    4.3024182    4.3024182    4.3024182   -16233.398   -9732.2517   -21075.596   -17892.347   -1353.7172   -733.50111    1379.9847    79.641215 
   16900    507.05035   -114.56685   0.45878981   -114.10807    15692.077    4.2700397    4.2700397    4.2700397    15692.077     26675.58    9151.9064    11248.744   -3110.0159   -5466.9194    939.40304    77.856654 
   17000    336.23702   -114.41822   0.30423432   -114.11399   -9781.7573    4.3016774    4.3016774    4.3016774   -9781.7573   -1619.2647   -29550.711    1824.7034   -657.10357    1159.1689   -7379.6229    79.600082 
   17100    413.86006   -114.49136   0.37446928   -114.11689   -1064.5888    4.2809519    4.2809519    4.2809519   -1064.5888     28192.07    -12923.76   -18462.076    -1582.886    3388.9693   -4238.2421    78.455075 
   17200    563.83897   -114.62957   0.51017335   -114.11939   -4484.6478    4.2860023    4.2860023    4.2860023   -4484.6478   -669.56361   -8924.6636   -3859.7161     -604.021    4113.7605    8585.2184    78.733074 
   17300    465.06867   -114.53653   0.42080391   -114.11572   -13407.399    4.3004902    4.3004902    4.3004902   -13407.399   -9953.3513   -30668.211    399.36447    1314.2734   -1957.3123   -10374.578    79.534197 
   17400    527.82866   -114.58674   0.47759047   -114.10915    11238.208    4.2693455    4.2693455    4.2693455    11238.208     23766.27    4162.8384    5785.5138    3628.9927   -4952.8896   -10870.859    77.818688 
   17500    478.44541   -114.54641   0.43290746    -114.1135   -15364.183    4.3049449    4.3049449    4.3049449   -15364.183   -1215.2358   -23990.858   -20886.457   -4679.7071   -2460.8636    7935.2934    79.781609 
   17600    588.51796   -114.64587   0.53250342   -114.11337    10482.736    4.2790661    4.2790661    4.2790661    10482.736    22350.471   -4650.2753    13748.011   -1589.2869   -1091.9634    1250.7944    78.351442 
   17700    492.55907   -114.56182    0.4456778   -114.11615    9380.7345    4.2813412    4.2813412    4.2813412    9380.7345    7660.0206   -2131.1537    22613.337    2670.7217    4404.8081   -10497.308    78.476481 
   17800    513.03207   -114.57839    0.4642022   -114.11418   -15114.198    4.3016761    4.3016761    4.3016761   -15114.198   -9393.4575   -32093.134   -3856.0023    107.65149    929.36222    1564.7589    79.600012 
   17900    700.22749   -114.74363   0.63358055   -114.11005    10961.744    4.2694822    4.2694822    4.2694822    10961.744     11698.61    8600.3698    12586.251    3456.6214    414.65257    9365.6768    77.826165 
   18000    528.68502   -114.59344   0.47836531   -114.11507   -6535.3385     4.296853     4.296853     4.296853   -6535.3385   -8387.8158   -23078.805    11860.605    -1045.311    -1663.414   -7870.5456    79.332565 
   18100    551.41135   -114.61515   0.49892858   -114.11622   -3146.8711    4.2878389    4.2878389    4.2878389   -3146.8711    4884.2218   -10319.532   -4005.3027    1696.0208   -4458.7596    1251.9503    78.834331 
   18200    564.88544   -114.62704   0.51112022   -114.11592    9307.7553    4.2763636    4.2763636    4.2763636    9307.7553    17457.311   -4393.5201    14859.475   -571.62631    1878.0729    11251.023    78.203085 
   18300    574.70616   -114.63549   0.52000621   -114.11549   -11383.137    4.2980538    4.2980538    4.2980538   -11383.137   -11295.581   -27151.195    4297.3641    846.94416    784.28489   -5698.4598    79.399093 
   18400    610.06307   -114.66633   0.55199788   -114.11433     4690.117    4.2783315    4.2783315    4.2783315     4690.117    14803.894   -2372.0045    1638.4615    936.92022    2682.1203   -8490.8703    78.311095 
   18500    552.06113   -114.61723   0.49951651   -114.11771     2834.545    4.2868407    4.2868407    4.2868407     2834.545    10583.185   -14591.885    12512.336   -849.44178   -6114.4218    10698.722    78.779284 
   18600     521.4211   -114.58805   0.47179277   -114.11626    741.71522    4.2914516    4.2914516    4.2914516    741.71522    6373.6675   -15107.696    10959.175    608.74662    3531.2181    7963.8379    79.033763 
   18700    546.86396   -114.60879     0.494814   -114.11398    7428.2455    4.2793516    4.2793516    4.2793516    7428.2455    17172.061   -8204.8334    13317.509   -1909.2045    3116.9617   -11733.434    78.367125 
   18800     439.8302   -114.51536    0.3979676   -114.11739    2562.4114    4.2901683    4.2901683    4.2901683    2562.4114    6377.6032   -12076.292    13385.923    3648.2048   -281.44839    1344.2662    78.962882 
   18900    627.04576   -114.68288   0.56736419   -114.11551    -7481.532    4.2857254    4.2857254    4.2857254    -7481.532   -2692.5687   -12828.841   -6923.1864   -784.78134    -8543.297     10752.95    78.717816 
   19000    478.57108   -114.54908   0.43302117   -114.11606    263.33669    4.2832681    4.2832681    4.2832681    263.33669    8493.1793   -16303.035    8599.8656    2791.6096   -795.41643   -2668.8034     78.58249 
   19100    455.46804   -114.52899   0.41211705   -114.11687   -5769.8235    4.2923647    4.2923647    4.2923647   -5769.8235   -4583.6675    -16733.82    4008.0175   -971.54687    6798.2261   -2470.2155    79.084223 
   19200    354.74965   -114.43678   0.32098494    -114.1158    4863.1674    4.2849614    4.2849614    4.2849614    4863.1674    24266.338   -6088.3929    -3588.443   -2643.4024   -1919.0494    10241.966    78.675726 
   19300    481.97434    -114.5496   0.43610051    -114.1135   -839.94021    4.2835874    4.2835874    4.2835874   -839.94021    9236.4881   -1054.5294   -10701.779    150.69717    697.65091    3400.4769    78.600063 
   19400    544.72772   -114.60812   0.49288109   -114.11524    -14495.41    4.2939858    4.2939858    4.2939858    -14495.41   -2179.8018   -22218.434   -19087.993      211.081    -4841.395   -6284.5273     79.17386 
   19500    296.45363   -114.38578   0.26823748   -114.11755    8870.1482    4.2812902    4.2812902    4.2812902    8870.1482    28521.629   -1070.5735   -840.61057    4105.7812    1954.7335    10133.969    78.473675 
   19600    516.22555   -114.58265   0.46709173   -114.11556   -2145.0697    4.2851329    4.2851329    4.2851329   -2145.0697    17129.799   -13698.754   -9866.2539   -2154.7419   -3266.4562    5598.7688    78.685172 
   19700    382.97116   -114.46152   0.34652035     -114.115   -2686.6677    4.2945242    4.2945242    4.2945242   -2686.6677    22098.057   -7432.5141   -22725.545    1345.9866    2397.7345   -2820.6068    79.203643 
   19800    409.92957   -114.48706   0.37091289   -114.11615    2986.7812    4.2768456    4.2768456    4.2768456    2986.7812    11756.361    1127.4604   -3923.4782   -5450.1287    2346.7583    9269.7513    78.229528 
   19900    402.91723   -114.48291   0.36456797   -114.11834   -2925.2967    4.2887828    4.2887828    4.2887828   -2925.2967    8245.9719   -2825.0136   -14196.848    4318.3754   -3474.9077    7705.7718    78.886406 
   20000    531.22051   -114.59637   0.48065949   -114.11571   -7393.5404    4.2924929    4.2924929    4.2924929   -7393.5404    1093.1612   -906.69616   -22367.086    -76.70323   -129.97662    -4270.474     79.09131 
   20100    477.49306   -114.54726   0.43204576   -114.11521    4493.7235    4.2761493    4.2761493    4.2761493    4493.7235     24898.88   -6798.1718   -4619.5379    5236.2394    1745.5508    1999.6489    78.191329 
   20200    293.40724    -114.3838   0.26548104   -114.11831   -2358.2622    4.2945511    4.2945511    4.2945511   -2358.2622    10880.698    -8452.001   -9503.4836   -3127.8009    1290.3771    14019.222    79.205133 
   20300    651.91083   -114.70519   0.58986261   -114.11532   -1003.3282    4.2842649    4.2842649    4.2842649   -1003.3282    12087.387   -5130.1475   -9967.2245   -1153.5741   -5022.6745    374.64005    78.637367 
   20400    608.62542   -114.66722   0.55069707   -114.11652    4290.5793    4.2809687    4.2809687    4.2809687    4290.5793    4929.4109    12956.573   -5014.2459    357.00158   -1047.1924   -3518.7547       78.456 
   20500    401.17866   -114.48131   0.36299488   -114.11832   -6117.7075    4.2951941    4.2951941    4.2951941   -6117.7075    23586.979   -28214.313   -13725.788    3075.1481   -400.53407    13901.561    79.240716 
   20600     578.1123   -114.63869   0.52308816   -114.11561    9716.6686    4.2778136    4.2778136    4.2778136    9716.6686    20296.107   -66.764887    8920.6636    299.00304    4548.7678    7328.3664    78.282658 
   20700    624.04015   -114.68114   0.56464464    -114.1165    7313.4267    4.2881515    4.2881515    4.2881515    7313.4267    22398.163   -6867.9435    6410.0607    -3118.903   -102.65599     -4962.56    78.851575 
   20800    597.25363   -114.65723   0.54040763   -114.11682   -14951.728    4.2924663    4.2924663    4.2924663   -14951.728   -11277.853     -22974.7   -10602.632   -2020.4064   -1500.6717    7960.1964    79.089837 
   20900    464.85189   -114.53774   0.42060776   -114.11713    10094.018    4.2730704    4.2730704    4.2730704    10094.018    17815.385   -117.75038     12584.42   -2081.3157   -4520.7529    14585.084    78.022548 
   21000    728.45819   -114.77575   0.65912428   -114.11663   -10911.212     4.298429     4.298429     4.298429   -10911.212   -6588.0514   -12256.089   -13889.494    5273.8202    11.299817    -1852.657    79.419888 
   21100     497.8571   -114.56703   0.45047156   -114.11656    8683.6253    4.2830795    4.2830795    4.2830795    8683.6253    23640.052    -5439.566    7850.3897   -3665.8519    6558.9468    3841.1864     78.57211 
   21200    502.76894   -114.57131    0.4549159    -114.1164   -415.40774    4.2781846    4.2781846    4.2781846   -415.40774    14800.052   -15981.491    -64.78422    83.815817   -2023.4817    10912.926    78.303028 
   21300    578.61476   -114.63704   0.52354279   -114.11349   -11529.581    4.3011056    4.3011056    4.3011056   -11529.581   -8198.7757   -15626.782   -10763.186   -6867.9441   -1413.9431   -808.52685    79.568342 
   21400    682.45851   -114.72778    0.6175028   -114.11028    12424.139    4.2750264    4.2750264    4.2750264    12424.139     14199.63    9632.9972     13439.79    3353.0112   -2797.0262    6293.3354    78.129747 
   21500    365.99218   -114.44858   0.33115741   -114.11742    1613.1585    4.2867022    4.2867022    4.2867022    1613.1585    18815.174    -2949.444   -11026.255   -1964.0983    3412.2519    12752.836    78.771649 
   21600    432.31082   -114.50749   0.39116392   -114.11633   -8137.6141    4.2937848    4.2937848    4.2937848   -8137.6141    6422.8395   -17978.265   -12857.416    3171.4726   -4489.5796   -1249.6176    79.162739 
   21700    618.40765   -114.67104   0.55954824   -114.11149    11088.671    4.2761049    4.2761049    4.2761049    11088.671    16756.695     7507.892    9001.4266    -2729.098   -2477.6353   -3208.1461    78.188889 
   21800     433.9616   -114.50965   0.39265758   -114.11699   -3229.5955    4.2903438    4.2903438    4.2903438   -3229.5955    1011.5758   -14821.854    4121.4916   -1586.2945     4887.226    14908.217    78.972574 
   21900    346.95666   -114.43306   0.31393368   -114.11912   -8854.7726    4.2874366    4.2874366    4.2874366   -8854.7726    -3931.919   -8521.8245   -14110.574   -3090.5025   -1807.4225     11298.88     78.81214 
   22000    454.97848   -114.52782   0.41167409   -114.11614     3940.284     4.280398     4.280398     4.280398     3940.284    12173.254    9588.8265   -9941.2285   -433.51397   -387.82373   -7347.1658    78.424629 
   22100    452.82996   -114.52582   0.40973006   -114.11609   -5773.6889    4.2923261    4.2923261    4.2923261   -5773.6889    1088.8065   -6123.6777   -12286.195     4771.787   -5053.3082    4648.4353    79.082087 
   22200     284.9036   -114.37494   0.25778676   -114.11715    825.65605      4.28237      4.28237      4.28237    825.65605    17623.898   -13334.883   -1812.0471   -7655.4546    5690.0561     13075.66    78.533066 
   22300     495.1883   -114.56401   0.44805678   -114.11595   -7742.1295    4.2848416    4.2848416    4.2848416   -7742.1295   -1504.9849   -3527.8862   -18193.517    -386.9163    -3933.338   -3245.3837    78.669123 
   22400    462.13144   -114.53364   0.41814624   -114.11549   -1290.3815    4.2906664    4.2906664    4.2906664   -1290.3815    12598.205    3290.8628   -19760.212   -2542.5238   -121.93814    2536.5001    78.990388 
   22500    327.81316   -114.41316   0.29661223   -114.11655    11182.837    4.2797889    4.2797889    4.2797889    11182.837    15124.351     17880.96    543.19916    6161.2087     2027.947    14743.868     78.39115 
   22600    419.20121    -114.4964   0.37930207   -114.11709   -3486.5576    4.2870238    4.2870238    4.2870238   -3486.5576    16665.733   -5262.3498   -21863.056   -5679.2677    -49.25653    4113.5042    78.789379 
   22700    576.71712   -114.63634   0.52182577   -114.11452   -7250.3777    4.2893567    4.2893567    4.2893567   -7250.3777    3797.3989   -9187.6059   -16360.926    214.24057   -1002.9205   -7454.7466    78.918078 
   22800      484.616   -114.55401   0.43849074   -114.11552    3312.3207    4.2809279    4.2809279    4.2809279    3312.3207    8339.6777    11302.019   -9704.7347   -1873.8461   -6600.3363    11854.378    78.453754 
   22900    383.72506   -114.46447    0.3472025   -114.11727    774.56417    4.2883026    4.2883026    4.2883026    774.56417    8029.6826    874.70874   -6580.6988   -17.467689    3245.9091    13967.297     78.85991 
   23000     624.6324   -114.67993   0.56518052   -114.11475   -7656.6415    4.2892123    4.2892123    4.2892123   -7656.6415   -11758.175    2512.4464   -13724.196   -2413.1145   -197.52031    -6463.619    78.910107 
   23100    525.18891   -114.59105   0.47520197   -114.11585    1644.1531     4.280907     4.280907     4.280907    1644.1531    9796.5033     1988.318    -6852.362     6027.474   -1202.0431    4737.5329    78.452607 
   23200    521.23463   -114.58996   0.47162405   -114.11834   -2109.1824    4.2862652    4.2862652    4.2862652   -2109.1824    8800.0338   -12471.796   -2655.7847    3611.3156   -484.29596    15153.917     78.74756 
   23300    637.61706   -114.69268   0.57692931   -114.11575    -5165.407    4.2913313    4.2913313    4.2913313    -5165.407   -3956.3998   -4699.1573    -6840.664   -8672.2965   -1613.4067    354.72814    79.027114 
   23400    591.53898   -114.64969    0.5352369   -114.11445    13795.908    4.2772226    4.2772226    4.2772226    13795.908    7695.2413    22236.426    11456.057    -3127.608    4235.7792   -1437.5926    78.250216 
   23500    594.04598   -114.65519   0.53750528   -114.11768   -6830.2024    4.2921042    4.2921042    4.2921042   -6830.2024   -1945.9599   -3820.8996   -14723.748    4443.1514   -2791.6979    10904.084    79.069825 
   23600    552.91214   -114.61712   0.50028652   -114.11683    10026.322    4.2841729    4.2841729    4.2841729    10026.322    17132.232    3175.8637    9770.8709    3347.6036   -2884.9935    4554.1685    78.632296 
   23700    745.58935   -114.78913   0.67462491    -114.1145    11190.873    4.2776287    4.2776287    4.2776287    11190.873     17943.56    8994.8619    6634.1968   -3649.6973   -5673.0137   -4933.0493    78.272507 
   23800     463.1614   -114.53663   0.41907817   -114.11756   -5637.7843    4.2975565    4.2975565    4.2975565   -5637.7843   -3883.6433   -4624.2677   -8405.4418   -1873.5283    3765.9161    11292.666    79.371534 
   23900    594.99128   -114.65218   0.53836061   -114.11382     7313.195    4.2751493    4.2751493    4.2751493     7313.195    19517.395    4141.1246   -1718.9349    2242.3475    4823.4289    10096.806    78.136482 
   24000      705.998   -114.75359   0.63880183   -114.11479   -3321.7212    4.2878609    4.2878609    4.2878609   -3321.7212    336.76467     -5714.83   -4587.0984   -6.9528718   -686.39799     -5250.28    78.835545 
   24100    494.44367     -114.563   0.44738302   -114.11562   -8397.0801     4.291437     4.291437     4.291437   -8397.0801   -1686.2906   -19194.919   -4310.0306   -1432.4449   -5174.1046    8183.8761    79.032958 
   24200     476.8492   -114.54648   0.43146318   -114.11502    4502.1759     4.273117     4.273117     4.273117    4502.1759    19658.591   -6084.3299   -67.733736    1617.9689   -4128.2049    17345.348    78.025102 
   24300    534.34894   -114.59825   0.48349015   -114.11476   -8313.9438    4.2945932    4.2945932    4.2945932   -8313.9438    6434.2637   -8248.6534   -23127.442   -2274.7236    3897.6374   -4955.3887    79.207461 
   24400    610.13133   -114.66571   0.55205965   -114.11365   -4348.5995    4.2833411    4.2833411    4.2833411   -4348.5995   -3095.9901    1458.6553   -11408.464    134.11253    910.82696   -3155.9409    78.586507 
   24500    336.60043   -114.42117   0.30456315   -114.11661    1408.8061    4.2815978    4.2815978    4.2815978    1408.8061    13397.402   -9666.4163    495.43286    3268.2015   -1550.4888    20994.916    78.490591 
   24600    514.38058   -114.58117   0.46542236   -114.11574   -5353.7716     4.289938     4.289938     4.289938   -5353.7716    10482.358   -6726.3674   -19817.306    3484.1602   -2104.1801    6534.5351    78.950166 
   24700    544.58523   -114.60795   0.49275216   -114.11519     2009.939    4.2829922    4.2829922    4.2829922     2009.939    9066.9162    641.66581   -3678.7651     -5731.32    1336.0633   -9792.2944    78.567305 
   24800    327.65244   -114.41533   0.29646681   -114.11886    7886.6891    4.2812183    4.2812183    4.2812183    7886.6891    22899.242    100.82338    660.00165   -2775.6253    326.46732    11823.379    78.469725 
   24900    376.91911   -114.45966   0.34104433   -114.11862   -7516.5829     4.292571     4.292571     4.292571   -7516.5829   -1360.3935   -8060.3408   -13129.015    46.839046   -127.00795    12780.908    79.095622 
   25000    516.32948   -114.58209   0.46718576    -114.1149    4070.7153     4.278269     4.278269     4.278269    4070.7153    10634.722    10035.238   -8457.8135    2316.2256   -3427.9842   -5228.8863    78.307664 
   25100    450.21215   -114.52511   0.40736141   -114.11775   -6423.9268    4.2875235    4.2875235    4.2875235   -6423.9268    6968.7909   -14075.455   -12165.116    1359.6279    808.96131     1229.545    78.816936 
   25200    274.69549   -114.36609   0.24855026   -114.11754   -6306.9345    4.2907015    4.2907015    4.2907015   -6306.9345    6320.2599   -22934.528   -2306.5353    50.294112   -3685.0065    16212.443    78.992324 
   25300    432.85808   -114.50597   0.39165908   -114.11431    10766.456    4.2740256    4.2740256    4.2740256    10766.456    27486.692     11718.36   -6905.6837    2155.7689    1511.2541   -1874.1595    78.074888 
   25400    496.63762   -114.56484   0.44936815   -114.11547   -15662.435    4.2962302    4.2962302    4.2962302   -15662.435    -2143.028   -15223.993   -29620.283   -5991.6385     800.7935    -3135.635    79.298072 
   25500    311.07664   -114.39725   0.28146868   -114.11578     785.6558    4.2820786    4.2820786    4.2820786     785.6558    3326.4872     342.5188   -1312.0386    2141.7783   -249.14711    16485.717    78.517036 
   25600    469.78746   -114.53917   0.42507357    -114.1141    2606.2797    4.2796994    4.2796994    4.2796994    2606.2797    14615.947   -2908.8494   -3888.2584    2652.4166   -1638.8525    6670.5815    78.386235 
   25700    468.21141   -114.53672   0.42364752   -114.11308   -2860.5724    4.2946491    4.2946491    4.2946491   -2860.5724     5071.311   -1771.3104   -11881.718    1932.1799   -4656.6877   -5476.9054    79.210553 
   25800    488.88698   -114.55572   0.44235521   -114.11337    2666.3591    4.2780025    4.2780025    4.2780025    2666.3591    20143.025   -697.10265   -11446.845    38.541402    3040.2727    10459.168    78.293028 
   25900     344.6536   -114.42974   0.31184982   -114.11789    172.33531    4.2869924    4.2869924    4.2869924    172.33531    10244.731   -16425.807     6698.082   -634.14393   -117.09347    11814.592    78.787647 
   26000    568.12548   -114.63027   0.51405188   -114.11622   -2514.6644    4.2862734    4.2862734    4.2862734   -2514.6644   -4207.8845    7618.6758   -10954.784    2254.3736    517.93506   -3783.8982    78.748016 
   26100    530.28018   -114.59603   0.47980865   -114.11622   -5006.8328    4.2824816    4.2824816    4.2824816   -5006.8328   -2833.9024   -7931.3174   -4255.2785   -1901.4698   -3387.3893    5258.0695     78.53921 
   26200    395.37676   -114.47505    0.3577452    -114.1173   -8635.5528    4.2882439    4.2882439    4.2882439   -8635.5528    2379.7933   -20880.607   -7405.8446   -11.883838   -405.83313    19469.657    78.856672 
   26300    571.32798   -114.63235   0.51694956    -114.1154    1657.8838    4.2821778    4.2821778    4.2821778    1657.8838    12194.734   -3461.2474   -3759.8349   -162.85788   -2603.5141   -4505.5755    78.522493 
   26400    478.51473   -114.54958   0.43297018   -114.11661   -926.54712    4.2882535    4.2882535    4.2882535   -926.54712     5923.933   -5400.6646   -3302.9098    1918.3111   -1814.2677   -1339.3921    78.857199 
   26500    509.85734   -114.57837   0.46132964   -114.11704   -6421.9353    4.2839805    4.2839805    4.2839805   -6421.9353    8754.4895   -12823.833   -15196.462   -1632.0198    1830.6569    19600.291    78.621704 
   26600    529.98924   -114.59541    0.4795454   -114.11586    3353.4099    4.2845133    4.2845133    4.2845133    3353.4099    -2418.723    5564.7005    6914.2521   -605.01647   -846.89337    5276.8484    78.651045 
   26700    655.85046    -114.7081   0.59342728   -114.11467   -1223.9606    4.2873589    4.2873589    4.2873589   -1223.9606    3311.6706   -4642.1965   -2341.3561    1253.9337   -256.25556   -5348.7704    78.807857 
   26800     469.9527   -114.54191   0.42522308   -114.11668    3247.6266     4.283152     4.283152     4.283152    3247.6266    7212.0594    4151.4722   -1620.6517    3161.4203   -2784.1013    7891.6294    78.576099 
   26900    433.54556    -114.5102   0.39228113   -114.11792    8842.9536    4.2847706    4.2847706    4.2847706    8842.9536    22645.761    850.53018    3032.5698   -3658.9494   -975.88695    14117.655    78.665214 
   27000    720.34795   -114.76818   0.65178596   -114.11639   -3737.3042    4.2861971    4.2861971    4.2861971   -3737.3042   -3997.6838   -2255.9689   -4958.2599   -3539.0947    1239.9957   -5221.8843    78.743807 
   27100      367.878   -114.45236   0.33286374    -114.1195    11534.725    4.2807996    4.2807996    4.2807996    11534.725    825.10699    13470.334    20308.733   -380.77228   -2879.4625    4884.0285    78.446701 
   27200    541.06233   -114.60738   0.48956456   -114.11781   -16513.552    4.2901894    4.2901894    4.2901894   -16513.552   -5893.6507   -21097.645   -22549.361    5514.9825    1538.8325    14141.845    78.964044 
   27300    543.48129   -114.60657   0.49175329   -114.11482    5117.7845    4.2815275    4.2815275    4.2815275    5117.7845    16366.318    1742.9434   -2755.9077   -599.93712   -5136.4748    1655.3448    78.486725 
   27400    518.81967   -114.58576   0.46943894   -114.11632    580.47841    4.2848383    4.2848383    4.2848383    580.47841    5655.3765   -8165.0135    4251.0721   -4258.5103    -163.5175   -92.823903    78.668941 
   27500    381.49766   -114.46303    0.3451871   -114.11784   -10224.178    4.2901064    4.2901064    4.2901064   -10224.178    16463.819   -25696.434    -21439.92   -1752.4264    1661.9527    14803.062    78.959464 
   27600    475.90757   -114.54567   0.43061117   -114.11506    5689.9591    4.2785813    4.2785813    4.2785813    5689.9591    19945.983    4340.7295   -7216.8353   -1812.6653   -1744.3549    7888.8691    78.324813 
   27700    703.05844    -114.7507   0.63614206   -114.11456   -11699.135    4.2908316    4.2908316    4.2908316   -11699.135   -7491.2921   -7665.4194   -19940.693    2014.2726    -2860.826    -4089.778    78.999511 
   27800    205.37119   -114.30459   0.18582417   -114.11877    5073.2239    4.2858447    4.2858447    4.2858447    5073.2239    30759.833   -16301.057    760.89629    1586.5692   -4024.1919    15491.585    78.724386 
   27900    486.90126   -114.55683   0.44055849   -114.11627   -1847.6343    4.2782143    4.2782143    4.2782143   -1847.6343    23367.439   -9902.4783   -19007.863    2365.4097    8240.2886    10155.756    78.304658 
   28000    521.69984   -114.58743   0.47204498   -114.11538   -4673.8676    4.2937395    4.2937395    4.2937395   -4673.8676     11296.86    -9567.076   -15751.387    -3515.254   -507.98497   -3828.1676    79.160237 
   28100    490.99188   -114.56196   0.44425977    -114.1177   -1803.8603    4.2798553    4.2798553    4.2798553   -1803.8603    5928.2102   -12404.827    1065.0363   -4412.8654   -3131.7711    10220.564    78.394803 
   28200    321.62988    -114.4118   0.29101748   -114.12078   -4745.5726    4.2837213    4.2837213    4.2837213   -4745.5726    10963.202   -11093.426   -14106.494     1892.698   -3844.2717    11836.169    78.607437 
   28300    510.88934   -114.57934   0.46226341   -114.11708   -6820.2411    4.2919079    4.2919079    4.2919079   -6820.2411   -3019.0578    3195.1714   -20636.837    2251.2962    5546.6593   -2467.0826    79.058975 
   28400    497.40361   -114.56492   0.45006124   -114.11486    11617.317    4.2775708    4.2775708    4.2775708    11617.317    33323.631    2005.1512   -476.83226     1577.445   -513.59589   -962.50656    78.269328 
   28500    354.39989   -114.43967   0.32066847     -114.119   -165.00737    4.2884498    4.2884498    4.2884498   -165.00737    13047.507    -12530.29   -1012.2394    -2115.756   -821.07633    14956.427     78.86803 
   28600    537.78747   -114.60232    0.4866014   -114.11572   -3789.3809    4.2881022    4.2881022    4.2881022   -3789.3809    15678.002   -6865.8042    -20180.34    -475.5166    262.58301    3630.7012    78.848852 
   28700      701.676    -114.7477   0.63489119   -114.11281    3194.2531    4.2794488    4.2794488    4.2794488    3194.2531    2127.1693    6624.0872    831.50289   -1356.6056    4282.6228   -2006.7294    78.372464 
   28800    416.42047   -114.49382     0.376786   -114.11704   -111.11998    4.2904167    4.2904167    4.2904167   -111.11998    13882.557   -6666.7906   -7549.1261   -2004.5417   -2488.4437    12887.765    78.976597 
   28900    540.64677   -114.60545   0.48918855   -114.11626   -977.50205    4.2829845    4.2829845    4.2829845   -977.50205    17240.801   -11313.609   -8859.6978    207.57926    2128.6627    7359.3617    78.566882 
   29000    522.79328   -114.58966   0.47303434   -114.11663    8906.6963    4.2822091    4.2822091    4.2822091    8906.6963    11573.102    7943.8187     7203.168   -380.49771    1476.4869   -7036.7592    78.524218 
   29100    696.46433   -114.74677   0.63017556    -114.1166   -12373.391    4.2892895    4.2892895    4.2892895   -12373.391   -5945.5511   -13410.848   -17763.773    2609.4467    1767.7315    8938.1704    78.914365 
   29200    468.10155   -114.54247   0.42354812   -114.11892    590.72687    4.2825545    4.2825545    4.2825545    590.72687    7357.6251   -15508.794    9923.3499    977.20526   -5543.1733    13029.234     78.54322 
   29300    724.46029   -114.77309   0.65550689   -114.11759   -3309.5463    4.2808054    4.2808054    4.2808054   -3309.5463   -2901.5678    -3222.895   -3804.1761   -2257.9225    9559.6136   -2687.3054    78.447023 
   29400    571.24877   -114.63522    0.5168779   -114.11835   -1958.5986    4.2909671    4.2909671    4.2909671   -1958.5986    7212.9761   -6253.0988   -6835.6731   -4177.0422    4785.4022   -1094.0983    79.006995 
   29500    540.75023   -114.60717   0.48928217   -114.11789    4796.5817     4.279596     4.279596     4.279596    4796.5817    24706.017   -11047.838    731.56582    482.47119   -1968.9736    16206.484    78.380552 
   29600    690.96561   -114.74247    0.6252002   -114.11727    752.45093    4.2834423    4.2834423    4.2834423    752.45093    9938.8692     -3277.91   -4403.6064    3931.4296   -2122.1308    3626.7815    78.592076 
   29700    593.61878   -114.65284   0.53711875   -114.11572   -1872.9446    4.2932489    4.2932489    4.2932489   -1872.9446    135.10397   -6956.2791    1202.3413   -2439.2862    5404.1189   -4788.8801    79.133102 
   29800    607.37952   -114.66472   0.54956975   -114.11515    1661.3693     4.276203     4.276203     4.276203    1661.3693    12122.893   -7459.9123    321.12708   -4872.6517    4748.6056    9756.6387    78.194273 
   29900    520.81073   -114.58897   0.47124049   -114.11773    1696.5298    4.2875624    4.2875624    4.2875624    1696.5298    19536.649   -6082.6077   -8364.4516    3025.7925   -5180.6951    7432.5299    78.819079 
   30000    616.38946   -114.67333   0.55772214   -114.11561   -6197.8013     4.290844     4.290844     4.290844   -6197.8013   -7039.1472   -6780.3741   -4773.8825     4534.817    8329.0055   -1110.1077    79.000198 
   30100    452.44504   -114.52545   0.40938178   -114.11607    9949.5081     4.272285     4.272285     4.272285    9949.5081    10730.339    11535.243    7582.9424   -131.48608    382.61934     2342.131    77.979537 
   30200    469.88677   -114.54358   0.42516343   -114.11842   -11978.088     4.292991     4.292991     4.292991   -11978.088   -11581.758   -16783.438   -7569.0668   -5637.0408    731.55885    11937.956    79.118843 
   30300    560.32586   -114.62447   0.50699461   -114.11748    -2208.796    4.2852383    4.2852383    4.2852383    -2208.796    3647.8168   -3761.3964   -6512.8084   -685.22543   -750.16805    -1717.278    78.690975 
   30400    422.20827   -114.50003   0.38202291   -114.11801    11935.617    4.2740983    4.2740983    4.2740983    11935.617    11041.399    7151.2757    17614.177    1198.4841    12994.845   -547.12985     78.07887 
   30500    341.68438     -114.427    0.3091632   -114.11784   -16017.765    4.2973858    4.2973858    4.2973858   -16017.765    8721.6908   -27407.011   -29367.974   -10.806376   -496.62382    8029.0978    79.362076 
   30600    553.04597   -114.61317   0.50040761   -114.11277   -1085.4291    4.2788971    4.2788971    4.2788971   -1085.4291    11074.789   -9731.1687   -4599.9079     3928.846   -1540.2255    3252.6445     78.34216 
   30700    433.41868   -114.50775   0.39216633   -114.11558    9468.8775    4.2817163    4.2817163    4.2817163    9468.8775    7715.6761    2135.6052    18555.351    623.25038    6076.5262   -1869.6961    78.497108 
   30800    352.63132   -114.43633   0.31906823   -114.11727   -13838.439     4.293844     4.293844     4.293844   -13838.439    7729.1795   -20783.397   -28461.099   -478.54489    5078.2061    8479.7841    79.166014 
   30900    393.05315   -114.46987   0.35564275   -114.11423    6003.8886    4.2750831    4.2750831    4.2750831    6003.8886    25444.384    -6351.034    -1081.684   -3287.6515   -5456.6601    6427.2838    78.132853 
   31000    357.35125   -114.44045   0.32333892   -114.11711    5313.0806    4.2890371    4.2890371    4.2890371    5313.0806     16175.36   -8819.0408    8582.9228   -750.35521     2593.683   -6146.2175    78.900437 
   31100    421.99583   -114.49926   0.38183069   -114.11743   -6711.8604    4.2850709    4.2850709    4.2850709   -6711.8604   -7555.5936   -6412.3119   -6167.6758    861.71595    5877.6157     4617.338    78.681757 
   31200    277.18222   -114.36859    0.2508003   -114.11779   -2028.4439    4.2793675    4.2793675    4.2793675   -2028.4439    7302.6988   -13448.279    60.248221   -28.222442    4303.7257     8807.523    78.367996 
   31300    585.04859   -114.64555   0.52936425   -114.11618    -12902.55    4.2897295    4.2897295    4.2897295    -12902.55   -7460.5927   -24246.665   -7000.3938    4859.2701   -1314.8134    609.20732    78.938653 
   31400    343.66384   -114.42842   0.31095426   -114.11747    11759.302    4.2817891    4.2817891    4.2817891    11759.302    11498.719    2126.5461    21652.642   -103.32163    4070.0486   -2514.3229    78.501115 
   31500    343.96235   -114.43015   0.31122436   -114.11893   -6630.5557    4.2848139    4.2848139    4.2848139   -6630.5557    11299.463   -14433.849   -16757.281   -1574.7873    1.0017687    10892.023    78.667599 
   31600    473.36378   -114.54532    0.4283095   -114.11701   -4169.8714    4.2874243    4.2874243    4.2874243   -4169.8714    14961.027    -11579.87   -15890.771    -1341.354    84.557892     1491.065    78.811466 
   31700    540.99914   -114.60435    0.4895074   -114.11484      7690.94    4.2829467    4.2829467    4.2829467      7690.94   -2958.8642    4261.2067    21770.478    607.69824    4072.6087   -3188.0972    78.564799 
   31800    512.72893   -114.58074   0.46392791   -114.11681   -1083.7059     4.282543     4.282543     4.282543   -1083.7059    9410.1781   -3712.6081   -8948.6877    531.90389     8014.375    9389.1689    78.542583 
   31900    493.28366     -114.565   0.44633342   -114.11866   -7765.0023     4.290597     4.290597     4.290597   -7765.0023    3035.2642   -14085.021    -12245.25    1301.7784   -4360.9564    8746.4358    78.986558 
   32000    579.26521   -114.64156   0.52413134   -114.11743    10802.265    4.2788762    4.2788762    4.2788762    10802.265    12781.514   -7869.5194      27494.8    7789.4385   -13.236394   -8783.0974    78.341011 
   32100    649.87455   -114.70612   0.58802015    -114.1181    1950.7123    4.2822724    4.2822724    4.2822724    1950.7123    12525.081   -1499.5959   -5173.3482   -743.85643    3599.7782    2663.7688    78.527699 
   32200    457.59593   -114.53307   0.41404242   -114.11903   -7512.5418    4.2932234    4.2932234    4.2932234   -7512.5418   -14506.069   -15050.517    7018.9604   -4534.3199    5295.8195    11312.995    79.131692 
   32300    664.74497   -114.71685   0.60147522   -114.11538    10441.979     4.271833     4.271833     4.271833    10441.979    8114.4425    8695.1486    14516.346    3364.9051   -2129.2214    -915.0591    77.954791 
   32400    681.83875    -114.7341   0.61694203   -114.11716   -4843.4988    4.2908592    4.2908592    4.2908592   -4843.4988   -14825.044    -14941.01    15235.558    5818.5487    2039.2133   -4427.2658    79.001038 
   32500     517.7668   -114.58749   0.46848628     -114.119   -1899.3141    4.2864599    4.2864599    4.2864599   -1899.3141   -1553.5797   -3119.2216    -1025.141    1865.7699    6954.5329    7733.5858    78.758291 
   32600    618.66609   -114.67715   0.55978208   -114.11737    7510.4217    4.2733769    4.2733769    4.2733769    7510.4217     14665.18    161.78659    7704.2988    -2035.866   -1382.6234    8598.2115    78.039342 
   32700    603.55223   -114.66113   0.54610674   -114.11502   -10143.554    4.2970288    4.2970288    4.2970288   -10143.554   -6971.9189   -24598.465    1139.7213    3406.3814   -410.84412   -7292.4533    79.342302 
   32800    571.12693   -114.63229   0.51676765   -114.11552    7288.5888    4.2737357    4.2737357    4.2737357    7288.5888    9271.0189     3839.642    8755.1055    500.54535    2755.3555    4656.0919    78.058999 
   32900    620.63639   -114.68122   0.56156485   -114.11965   -8936.0781    4.2852214    4.2852214    4.2852214   -8936.0781   -3667.8676   -12106.017    -11034.35   -303.86541    5871.8651    8543.9421    78.690048 
   33000    472.89669   -114.54596   0.42788687   -114.11808    -3789.561    4.2925296    4.2925296    4.2925296    -3789.561    -4314.827   -11606.031    4552.1745    3332.0331    -2111.388   -8433.6687    79.093337 
   33100    643.29813   -114.69372   0.58206967   -114.11165    9407.9692    4.2700766    4.2700766    4.2700766    9407.9692    13082.077    2552.8638    12588.967    1446.9086    2187.6218    -3284.359    77.858673 
   33200    372.41589   -114.45426   0.33696972    -114.1173   -2975.2036    4.2936278    4.2936278    4.2936278   -2975.2036    6047.4658   -27504.171    12531.094    1166.9308    6270.7883    12005.537    79.154059 
   33300    474.26514   -114.54627   0.42912507   -114.11714     1849.044    4.2808832    4.2808832    4.2808832     1849.044    14209.319   -6967.2467   -1694.9397   -43.582558    1608.0702    5612.3068      78.4513 
   33400    529.82941   -114.59549   0.47940078   -114.11609    4864.6419    4.2789336    4.2789336    4.2789336    4864.6419    4968.5533   -5208.4674     14833.84    4600.5122   -5181.9754   -10838.437    78.344164 
   33500    379.53372    -114.4591   0.34341008   -114.11569   -3751.3882    4.2926991    4.2926991    4.2926991   -3751.3882   -6359.2924   -23247.116    18352.244   -381.29197    630.79202    5720.0861    79.102707 
   33600    457.85422   -114.52901   0.41427612   -114.11473   -1680.3264    4.2760529    4.2760529    4.2760529   -1680.3264    2829.7007   -5744.9661   -2125.7137   -350.44003     7617.656    10854.929    78.186039 
   33700    398.05958   -114.47616   0.36017268   -114.11599   -5635.1899    4.2871594    4.2871594    4.2871594   -5635.1899   -3165.4894   -11131.409   -2608.6714    6862.1161    1154.6727   -4947.1723    78.796857 
   33800    431.03551   -114.50537   0.39000999   -114.11536   -3176.6536    4.2858412    4.2858412    4.2858412   -3176.6536    11768.914   -20463.923   -834.95166     2572.004   -349.04384   -2995.1743    78.724197 
   33900    325.69807    -114.4109   0.29469846   -114.11621    2756.3831    4.2783658    4.2783658    4.2783658    2756.3831     22591.93    -14329.17    6.3886922   -851.05798   -383.60438     15937.97    78.312977 
   34000     374.3518   -114.45497   0.33872138   -114.11625   -11382.183    4.2906079    4.2906079    4.2906079   -11382.183   -3599.8098   -19887.956   -10658.785    549.51214    1682.7239    327.35565    78.987157 
   34100    519.58568   -114.58442   0.47013204   -114.11429   -551.07031    4.2809675    4.2809675    4.2809675   -551.07031    8493.3651   -6856.0638   -3290.5123    5796.9425   -1931.9703   -8518.9219    78.455932 
   34200    400.74047   -114.47863    0.3625984   -114.11603    4788.8037    4.2817752    4.2817752    4.2817752    4788.8037    3304.9066   -5641.3186    16702.823   -1518.3293    3207.9703    8540.3265    78.500347 
   34300    433.72135   -114.50997    0.3924402   -114.11753   -5535.8773    4.2870802    4.2870802    4.2870802   -5535.8773    4979.3618   -13261.041   -8325.9523   -453.12861    5491.5309    7858.1626    78.792492 
   34400    518.08663   -114.58516   0.46877567   -114.11639    6240.8903    4.2793956    4.2793956    4.2793956    6240.8903    13508.122    5325.2805   -110.73203    6037.3835    227.23969   -6971.7955    78.369542 
   34500    414.18099   -114.49223   0.37475966   -114.11747    10838.472    4.2848987    4.2848987    4.2848987    10838.472    9921.7081    -9205.838    31799.546    3426.6323   -1506.1081     2492.346    78.672269 
   34600    530.43704   -114.59747   0.47995058   -114.11752   -5126.7296    4.2836868    4.2836868    4.2836868   -5126.7296    12301.942   -6549.8625   -21132.268   -2604.3251    226.21222    14417.107    78.605535 
   34700    521.11122   -114.58931   0.47151238    -114.1178   -1746.7954    4.2816046    4.2816046    4.2816046   -1746.7954   -7071.6925    1391.5117    439.79449    169.47707    5914.3042   -341.51873    78.490965 
   34800    547.14373   -114.61237   0.49506715    -114.1173   -3976.6982    4.2863822    4.2863822    4.2863822   -3976.6982   -7000.5678   -9862.9876    4933.4607      7843.08    13.265375   -2342.4785    78.754009 
   34900    544.55423   -114.61019   0.49272412   -114.11746     1465.512    4.2791605    4.2791605    4.2791605     1465.512    12763.705   -6613.1233   -1754.0462    2213.0386   -1022.9536     8704.588    78.356628 
   35000    484.83359   -114.55791   0.43868762   -114.11922   -6628.1752    4.2888434    4.2888434    4.2888434   -6628.1752    3550.2062   -10677.031   -12757.701    305.96186    4322.3916    4814.8342    78.889749 
   35100    607.61978   -114.66695   0.54978714   -114.11717     292.9124    4.2796871    4.2796871    4.2796871     292.9124    7160.9669   -10285.084    4002.8548    4331.9172    5207.0174    -9356.389    78.385556 
   35200    520.01247   -114.58798   0.47051821   -114.11746    3157.7095    4.2832701    4.2832701    4.2832701    3157.7095    4642.7972   -13172.493    18002.824    2882.5146     1042.607    10028.855    78.582597 
   35300    580.84256   -114.64193   0.52555856   -114.11637   -9449.4054    4.2904171    4.2904171    4.2904171   -9449.4054   -11788.725   -13557.618   -3001.8732   -3667.6987    2294.3443     14419.22     78.97662 
   35400    668.83252   -114.71928   0.60517372   -114.11411    6056.4088    4.2751245    4.2751245    4.2751245    6056.4088    3741.4638    8732.3406    5695.4219    4744.0132     1186.423    -4582.328    78.135122 
   35500     487.9689   -114.55784   0.44152451   -114.11631   -176.30837    4.2908351    4.2908351    4.2908351   -176.30837   -5145.6343   -15241.039    19857.748    8450.6671   -1519.8306   -3216.1466    78.999708 
   35600    592.05979   -114.65147   0.53570814   -114.11576    1677.6628    4.2821541    4.2821541    4.2821541    1677.6628    10700.963   -11759.463    6091.4884    405.95943    4300.9778    5977.8992    78.521189 
   35700    509.58359    -114.5787   0.46108194   -114.11762    12404.889    4.2800978    4.2800978    4.2800978    12404.889    11871.972    6758.2962    18584.399    164.25707    8299.0826    5304.7596    78.408128 
   35800    596.80552   -114.65531   0.54000218    -114.1153   -7612.6905    4.2900616    4.2900616    4.2900616   -7612.6905   -19329.521   -13580.695    10072.144    5524.5274     2884.087   -4471.7231    78.956989 
   35900    581.43334   -114.64073   0.52609311   -114.11464    96.128073     4.278311     4.278311     4.278311    96.128073    4209.5939    -7629.176    3707.9663    1587.7849   -6100.6212    7831.2858    78.309967 
   36000    563.61302   -114.62689   0.50996891   -114.11692    1074.4076    4.2857625    4.2857625    4.2857625    1074.4076   -2151.6771    -4637.255    10012.155   -4134.4246     2985.387    8076.6265    78.719859 
   36100     582.6292   -114.64329   0.52717515   -114.11612    -2454.978     4.285419     4.285419     4.285419    -2454.978   -13920.868   -5366.0347    11921.968    6850.0631    10236.816   -4736.6451    78.700934 
   36200    402.35103   -114.48122   0.36405567   -114.11716     6852.539    4.2792745    4.2792745    4.2792745     6852.539    14682.093   -12018.265    17893.789    6172.2195    3120.6384    882.04468    78.362887 
   36300    551.06151   -114.61662   0.49861203   -114.11801   -3812.3226     4.289459     4.289459     4.289459   -3812.3226     1658.762   -22078.874    8983.1446   -146.97905   -1598.4052    6070.4141    78.923721 
   36400    567.19928   -114.63058   0.51321383   -114.11736    7275.8721    4.2778358    4.2778358    4.2778358    7275.8721    8150.1683    630.61602    13046.832    325.45485    758.77108    1599.6999    78.283879 
   36500    465.10156   -114.53877   0.42083366   -114.11794   -2580.7547    4.2829467    4.2829467    4.2829467   -2580.7547   -13668.258   -17019.517    22945.511     8731.442    5762.7958   -3454.2435    78.564803 
   36600    513.78333   -114.58086   0.46488195   -114.11598   -12961.001    4.2911797    4.2911797    4.2911797   -12961.001   -10889.754   -29492.193    1498.9432    2754.6882   -2097.2467    12210.267     79.01874 
   36700    517.05612   -114.58117   0.46784324   -114.11332     13045.15    4.2743188    4.2743188    4.2743188     13045.15    17771.631   -3744.8358    25108.655   -4458.9354    1862.1329     7087.372    78.090957 
   36800     413.5236   -114.48964   0.37416484   -114.11547   -7444.0084    4.2888018    4.2888018    4.2888018   -7444.0084   -2480.4229   -19496.384   -355.21878    10431.374    2890.0405   -3594.3631    78.887453 
   36900    427.67688   -114.50364   0.38697103   -114.11667   -8403.9045    4.2825654    4.2825654    4.2825654   -8403.9045    4443.5084   -18419.118   -11236.104    5033.0774    865.40345     1792.609    78.543816 
   37000    433.42675   -114.50933   0.39217364   -114.11716    5066.6743    4.2814774    4.2814774    4.2814774    5066.6743    11187.838   -12458.706    16470.891   -1176.7017   -2566.0693    8391.4206    78.483972 
   37100    591.27977   -114.65021   0.53500236   -114.11521   -11989.688    4.2867182    4.2867182    4.2867182   -11989.688   -17502.433    -13345.08   -5121.5522     2007.574    1059.7352    1210.9244    78.772534 
   37200    326.15038   -114.41178   0.29510772   -114.11668   -503.55347     4.280275     4.280275     4.280275   -503.55347     6241.265   -3390.9492   -4360.9762    7896.5947      6796.18    1803.0096    78.417863 
   37300    447.07464   -114.52227   0.40452253   -114.11775   -1813.8423    4.2865286    4.2865286    4.2865286   -1813.8423      14041.7     -16801.3   -2681.9271    745.10973   -3620.3758    9938.4261    78.762078 
   37400    468.73063   -114.54182   0.42411733    -114.1177     10324.16    4.2791288    4.2791288    4.2791288     10324.16     15517.99    -104.1724    15558.661   -2974.2287   -2334.2701    313.79459    78.354887 
   37500    401.72026   -114.48164   0.36348493   -114.11815   -413.35097     4.283491     4.283491     4.283491   -413.35097   -5104.3099    1698.8202    2165.4367    7853.6572   -372.23547    469.48704    78.594757 
   37600    511.32865   -114.57895   0.46266091   -114.11629   -13308.772    4.2893148    4.2893148    4.2893148   -13308.772   -11603.834    -16864.79   -11457.693    1841.3724    4034.2513    2067.3762    78.915765 
   37700    434.67253     -114.508   0.39330084    -114.1147    15832.797    4.2752865    4.2752865    4.2752865    15832.797    14538.059    9277.3595    23682.971   -3785.9681   -5237.9999    5089.7417    78.144008 
   37800    495.48264   -114.56435    0.4483231   -114.11603   -8379.0281    4.2878073    4.2878073    4.2878073   -8379.0281   -1486.5697   -12990.424   -10660.091    1816.6939   -2595.3034    -1845.596    78.832585 
   37900    380.73336   -114.46121   0.34449555   -114.11672   -2608.5959    4.2848754    4.2848754    4.2848754   -2608.5959    10375.724   -11647.385   -6554.1267    8244.4405     1509.752    4729.1126    78.670984 
   38000     497.8346   -114.56634   0.45045121   -114.11589    4553.5926    4.2784548    4.2784548    4.2784548    4553.5926    14264.889   -6195.0651    5590.9535   -1978.0451   -582.54081    8769.2999    78.317869 
   38100    555.67254   -114.61817   0.50278419   -114.11539   -8285.1772    4.2881306    4.2881306    4.2881306   -8285.1772   -7490.2104   -12541.593   -4823.7285    453.71211   -1941.6648   -1308.1567    78.850418 
   38200    490.90483   -114.55966     0.444181   -114.11548   -5334.2027    4.2831058    4.2831058    4.2831058   -5334.2027    -6584.631   -7510.1613   -1907.8158    8374.9931   -1150.3383    1423.2424    78.573558 
   38300    536.58969    -114.6015   0.48551763   -114.11598    184.01813    4.2823666    4.2823666    4.2823666    184.01813    18857.275   -11083.572    -7221.649   -190.51158    1891.8222    4769.9718    78.532881 
   38400    448.66562   -114.52289   0.40596208   -114.11693     6977.848    4.2845472    4.2845472    4.2845472     6977.848    9975.7486    -7175.577    18133.372   -5952.0123    -7388.821    4553.6067    78.652912 
   38500    520.61286   -114.58784   0.47106146   -114.11678   -271.25811    4.2818542    4.2818542    4.2818542   -271.25811    5993.4411   -11809.514    5002.2982    142.76502    -2449.345   -4793.7195    78.504695 
   38600    605.25176   -114.66414   0.54764452    -114.1165   -8384.0079    4.2863669    4.2863669    4.2863669   -8384.0079   -2643.9304   -17548.402   -4959.6917    7668.9253   -57.207779    8741.3885    78.753166 
   38700    570.84207    -114.6326    0.5165099   -114.11609   -967.65195    4.2823459    4.2823459    4.2823459   -967.65195    2028.3313   -14594.397    9663.1095   -2678.4401    883.97209    8571.9788    78.531741 
   38800      575.505   -114.63704   0.52072902   -114.11631   -4966.5473     4.283289     4.283289     4.283289   -4966.5473   -9821.5413   -7751.3566    2673.2558    485.39544    -4605.165   -4093.5523    78.583637 
   38900    475.65938   -114.54752   0.43038661   -114.11713   -106.14367    4.2863832    4.2863832    4.2863832   -106.14367     4558.733   -14776.536     9899.372    6191.8007   -4829.8027    665.33998    78.754068 
   39000    501.47449   -114.57033   0.45374466   -114.11658     5425.925    4.2813527    4.2813527    4.2813527     5425.925    14934.863   -8637.3896    9980.3016   -3451.9949   -3559.1482    2646.7462    78.477114 
   39100    535.13305    -114.6005   0.48419963    -114.1163   -1374.8486    4.2840502    4.2840502    4.2840502   -1374.8486    1870.0702   -3434.3778   -2560.2381   -5397.7968   -5365.0334    3205.0642    78.625541 
   39200    521.10925    -114.5873    0.4715106   -114.11579   -105.42768    4.2862211    4.2862211    4.2862211   -105.42768   -13209.566   -4718.0956    17611.378    6957.2168    1551.3646   -2123.5581    78.745131 
   39300    609.79933   -114.66561   0.55175924   -114.11385   -3408.5822    4.2830779    4.2830779    4.2830779   -3408.5822    4044.7706    -11780.06   -2490.4567    6596.0932    2523.8477    9990.4148    78.572022 
   39400     477.3039   -114.54702    0.4318746   -114.11514    5552.4693    4.2807489    4.2807489    4.2807489    5552.4693    6493.2641   -7812.3431    17976.487     -5415.56   -2989.6707    4893.0588    78.443915 
   39500    465.57799   -114.53822   0.42126475   -114.11695   -1327.7758    4.2879553    4.2879553    4.2879553   -1327.7758    2317.6364   -9664.6346    3363.6708   -1065.0998   -7703.0229   -4525.4108    78.840752 
   39600    453.77166   -114.52722   0.41058213   -114.11663     6740.616    4.2799156    4.2799156    4.2799156     6740.616    11806.633   -6025.7921    14441.007    6108.7097   -1724.0198    925.74897    78.398116 
   39700    494.83755   -114.56438   0.44773941   -114.11664   -5113.1608    4.2829224    4.2829224    4.2829224   -5113.1608   -419.43462   -13480.898   -1439.1499   -303.03284    2849.3131    8180.9883    78.563461 
   39800    524.10476   -114.58975     0.474221   -114.11553   -13115.407     4.287857     4.287857     4.287857   -13115.407   -18745.839   -13089.077   -7511.3066   -6915.2308   -2795.8994    5240.9275    78.835329 
   39900     382.2506    -114.4622   0.34586838   -114.11633    7070.7859     4.278973     4.278973     4.278973    7070.7859     8953.551   -6559.4112    18818.218    7176.5406   -6634.4258   -1689.9492    78.346329 
   40000    478.24656   -114.54969   0.43272753   -114.11696   -8221.6641    4.2850191    4.2850191    4.2850191   -8221.6641    5523.4929   -19993.404   -10195.082    3350.8309    1075.5055    12945.846    78.678901 
   40100    382.92666   -114.46364   0.34648009   -114.11716   -6018.0125    4.2864427    4.2864427    4.2864427   -6018.0125   -3520.5639   -12880.189   -1653.2841   -7507.8872   -3520.6227    3232.5661    78.757343 
   40200    553.12549   -114.61583   0.50047957   -114.11535    697.24448     4.277449     4.277449     4.277449    697.24448     -7357.57    2734.9366    6714.3669   -46.213937   -3198.5806   -2971.6183    78.262645 
   40300    408.03143   -114.48629   0.36919541    -114.1171   -1728.0509    4.2881607    4.2881607    4.2881607   -1728.0509    838.05153   -10050.493    4028.2887    8535.1765     662.4086     8104.308    78.852079 
   40400    460.22197   -114.53383   0.41641851   -114.11741   -1037.7037    4.2815283    4.2815283    4.2815283   -1037.7037    9744.9883   -2636.1879   -10221.911    34.376706    2938.7261    5450.0086    78.486772 
   40500    505.58816   -114.57397   0.45746679    -114.1165    4994.7605    4.2806099    4.2806099    4.2806099    4994.7605    11626.127    512.02886    2846.1252   -8878.4919   -3396.7026   -229.01198    78.436274 
   40600    418.91358   -114.49563   0.37904181   -114.11658    2262.5114    4.2885533    4.2885533    4.2885533    2262.5114    1317.2343   -4416.6168    9886.9166    4783.6438   -6183.6765    885.37976    78.873738 
   40700    523.48658   -114.58935   0.47366166   -114.11569   -2208.3992    4.2787544    4.2787544    4.2787544   -2208.3992   -3038.5235      59.6145   -3646.2887    4211.1211    3186.1454    14973.912    78.334318 
   40800    488.34615   -114.55854   0.44186586   -114.11667    2352.4181    4.2822584    4.2822584    4.2822584    2352.4181    4718.7963    2375.6825     -37.2243   -3296.1244    487.28204    999.73904    78.526931 
   40900    555.81004   -114.61897    0.5029086   -114.11606   -4987.3935    4.2884302    4.2884302    4.2884302   -4987.3935   -1938.0673   -2895.9706   -10128.143   -766.54456   -1016.4864   -3349.4203    78.866951 
   41000    371.61828   -114.45416   0.33624803   -114.11791    9062.9268    4.2767057    4.2767057    4.2767057    9062.9268    14517.992   -4660.8369    17331.626    8821.3165   -4734.8115    11325.054    78.221852 
   41100    539.07404   -114.60618   0.48776552   -114.11841   -10780.826     4.286846     4.286846     4.286846   -10780.826   -6589.1784   -12387.346   -13365.954   -1348.9522    3926.3343    7125.8884    78.779578 
   41200    625.54904   -114.68157   0.56600992   -114.11556    -3717.774     4.283602     4.283602     4.283602    -3717.774   -6961.4865   -3491.0028   -700.83277   -5501.6781   -566.82135   -2482.4572    78.600869 
   41300    489.49901   -114.56031   0.44290899    -114.1174    2735.9524      4.27866      4.27866      4.27866    2735.9524    4437.4686   -10895.674    14666.063     3937.506   -3634.9023    2468.8763    78.329134 
   41400    478.92461   -114.55143   0.43334105   -114.11809   -9931.7596    4.2888467    4.2888467    4.2888467   -9931.7596    8170.4267   -23574.722   -14390.983    4555.5658    174.19906    17930.718     78.88993 
   41500    526.74184   -114.59232   0.47660708   -114.11571     6855.057    4.2814328    4.2814328    4.2814328     6855.057    3382.5225     1929.891    15252.758   -3162.8697    367.30716     843.0372    78.481517 
   41600    558.17539   -114.62094   0.50504882   -114.11589    1967.7341    4.2822019    4.2822019    4.2822019    1967.7341    8349.2502   -12724.644    10278.596   -1503.3701   -1291.2138    2531.8772    78.523821 
   41700    470.16355   -114.54273   0.42541386   -114.11731   -6954.4857    4.2864256    4.2864256    4.2864256   -6954.4857   -3225.4678   -16817.717   -820.27242    4492.5023   -2454.0179    12095.026    78.756403 
   41800    582.01524   -114.64258   0.52661962   -114.11596   -1024.2891    4.2816979    4.2816979    4.2816979   -1024.2891    2153.9879   -5953.2734    726.41826   -3957.2899    4074.0876    3128.8606    78.496095 
   41900    670.10673   -114.72081   0.60632665   -114.11448    287.83947     4.284364     4.284364     4.284364    287.83947   -240.63823   -5031.2913    6135.4479   -4918.1854    847.60081   -1247.0337     78.64282 
   42000    380.07831   -114.46173   0.34390284   -114.11783    5708.8624    4.2848556    4.2848556    4.2848556    5708.8624    6860.5506    -5638.949    15904.986    3552.9156   -3873.8956    10101.995    78.669893 
   42100    469.84803   -114.54288   0.42512837   -114.11775    942.10525    4.2819864    4.2819864    4.2819864    942.10525    16022.686   -15943.207    2746.8364    3701.8708   -3340.2928    15787.886    78.511963 
   42200    618.49752   -114.67567   0.55962956   -114.11604    4685.0256    4.2839155    4.2839155    4.2839155    4685.0256    3668.8335    7362.3529    3023.8903   -703.01828    2118.5421   -3998.7498    78.618124 
   42300    530.03935   -114.59617   0.47959074   -114.11658   -5123.9679    4.2864964    4.2864964    4.2864964   -5123.9679   -4407.3034    -11975.87    1011.2701    22.058001    11.754594     4186.185    78.760303 
   42400    488.28009   -114.55844   0.44180609   -114.11664    -6073.535    4.2802179    4.2802179    4.2802179    -6073.535    3288.8811   -19193.525   -2315.9609    1378.8568    410.28516    13283.421    78.414729 
   42500    523.36231   -114.59082   0.47354921   -114.11727    733.19574    4.2877712    4.2877712    4.2877712    733.19574    9.5695431   -11613.598    13803.616   -1426.4542   -478.78848    2637.5021    78.830595 
   42600    635.81221   -114.69236   0.57529625   -114.11706   -1629.8901    4.2822003    4.2822003    4.2822003   -1629.8901    -364.7501   -4607.3317    82.411358   -3032.5748   -1944.3967   -273.34301    78.523733 
   42700    337.12802   -114.42512   0.30504052   -114.12008    535.06021    4.2807757    4.2807757    4.2807757    535.06021    20302.517   -13697.915   -4999.4215    7096.2374   -1836.5595    16589.798    78.445391 
   42800    479.90822    -114.5517   0.43423104   -114.11747    -6853.279    4.2913157    4.2913157    4.2913157    -6853.279    4327.1365   -12239.185   -12647.788    874.39148    5477.3033    10372.836    79.026255 
   42900    677.03199   -114.72577   0.61259278   -114.11318    10278.905    4.2754543    4.2754543    4.2754543    10278.905    2321.5142    13239.203    15275.997    -1151.879    3771.9232   -9394.9727    78.153205 
   43000    458.96929    -114.5326   0.41528506   -114.11732   -6705.0403    4.2870016    4.2870016    4.2870016   -6705.0403   -6118.6339    -11166.78   -2829.7065   -540.31418   -2617.2565    9969.8877    78.788157 
   43100    415.58662   -114.49379   0.37603151   -114.11776   -8038.2266    4.2881694    4.2881694    4.2881694   -8038.2266   -4191.1817   -10035.617    -9887.881    2491.2744   -3608.4369    14535.089    78.852562 
   43200    591.12041   -114.64858   0.53485817   -114.11372    16116.001    4.2753528    4.2753528    4.2753528    16116.001    21815.261    11460.266    15072.476   -1196.7765    5063.5732   -2606.7253    78.147641 
   43300    503.92622    -114.5718   0.45596304   -114.11584   -1972.0534    4.2885385    4.2885385    4.2885385   -1972.0534   -6003.2456    3398.8026   -3311.7173   -244.02845     1100.211    1833.4199    78.872926 
   43400    296.56693   -114.38741   0.26833999   -114.11907   -4402.2382    4.2843761    4.2843761    4.2843761   -4402.2382   -1136.1944   -7028.7984   -5041.7219    4941.6375   -2565.4277    14389.649     78.64349 
   43500    487.37954   -114.55794   0.44099125   -114.11695    6971.9919    4.2781951    4.2781951    4.2781951    6971.9919    10988.327   -2021.2443    11948.894    813.68714     234.5139    5661.4699    78.303605 
   43600    688.55709   -114.73869   0.62302093   -114.11567    -9679.277    4.2875608    4.2875608    4.2875608    -9679.277     -22620.1   -471.25088   -5946.4803    547.25195    1518.9818   -5765.1552    78.818991 
   43700    307.55504   -114.39901   0.27828226   -114.12073   -8325.0448    4.2830712    4.2830712    4.2830712   -8325.0448   -3892.9218     -12542.9   -8539.3124   -2363.0779   -1341.8335    19006.546     78.57165 
   43800    307.06022   -114.39888   0.27783454   -114.12105    1588.0567    4.2809392    4.2809392    4.2809392    1588.0567    16934.004   -8579.7059   -3590.1283    6309.6414     36.63429    8811.7967    78.454379 
   43900    527.91805   -114.59323   0.47767134   -114.11556   -574.94399    4.2871962    4.2871962    4.2871962   -574.94399   -4230.6258   -3017.4549    5523.2487    628.32058    6482.0686    -8535.069    78.798888 
   44000    404.72977   -114.48236   0.36620801   -114.11615   -2373.9022    4.2801256    4.2801256    4.2801256   -2373.9022    535.13611   -2095.5233   -5561.3193    907.41756    75.531423    11106.162    78.409652 
   44100    368.33344   -114.45146   0.33327584   -114.11818   -12294.779    4.2862324    4.2862324    4.2862324   -12294.779   -4851.7782   -18167.377   -13865.182    1176.6438   -2623.9014    15412.351    78.745756 
   44200     476.0715   -114.54753    0.4307595   -114.11677    5838.3743    4.2826526    4.2826526    4.2826526    5838.3743    224.46697    2837.1984    14453.457   -161.98482   -3392.1533   -3939.9275    78.548617 
   44300    483.52265   -114.55343   0.43750145   -114.11593    4115.1387      4.28121      4.28121      4.28121    4115.1387    2925.5954   -1427.2694     10847.09    1832.9789    6598.7502   -4081.6035    78.469267 
   44400    286.94915   -114.37862   0.25963763   -114.11899   -3798.1823    4.2878004    4.2878004    4.2878004   -3798.1823    1752.6611   -9377.4818   -3769.7263    184.61434   -1453.2707    17876.842    78.832205 
   44500    359.60668    -114.4423   0.32537968   -114.11692    12387.717    4.2792606    4.2792606    4.2792606    12387.717    21852.081    7102.3948    8208.6769    5163.4462   -551.83811    1782.6861    78.362126 
   44600    588.81306   -114.64795   0.53277043   -114.11518    -5364.786    4.2851438    4.2851438    4.2851438    -5364.786   -12504.637   -9500.6121    5910.8906   -3099.3466   -362.44079   -5972.0205     78.68577 
   44700    390.05212   -114.47057   0.35292736   -114.11764   -6964.9767    4.2844131    4.2844131    4.2844131   -6964.9767   -9549.2226   -7738.3492   -3607.3581    401.37005    2984.0146    13541.159    78.645526 
   44800    449.42772   -114.52496   0.40665165   -114.11831    -596.0568    4.2819005    4.2819005    4.2819005    -596.0568    16699.646   -15450.592   -3037.2243   -1932.3037    1181.0675    11236.511    78.507242 
   44900    530.99792   -114.59721   0.48045808   -114.11675   -2837.6719    4.2862565    4.2862565    4.2862565   -2837.6719    1418.7843   -13539.906    3608.1061    3424.7744   -2602.2444   -9668.8837    78.747084 
   45000    450.70979   -114.52516   0.40781169   -114.11735      1346.55    4.2800689    4.2800689    4.2800689      1346.55    16574.465   -5089.2074   -7445.6078    2313.7962    2775.4269    1700.9086    78.406538 
   45100    421.10183    -114.4991   0.38102178   -114.11808   -7767.1388     4.289645     4.289645     4.289645   -7767.1388     6677.329   -15609.093   -14369.652    4524.6918   -1010.2534    20032.816    78.933991 
   45200    553.43192   -114.61594   0.50075683   -114.11518    9707.0562    4.2780808    4.2780808    4.2780808    9707.0562    6643.4489    2680.8783    19796.841     1240.242    105.73258   -651.32533     78.29733 
   45300    668.65603   -114.72038   0.60501403   -114.11536   -7159.2032    4.2873238    4.2873238    4.2873238   -7159.2032   -8101.5614   -12669.575   -706.47366   -4900.7659   -1342.2649   -1865.0795    78.805922 
   45400    454.03919   -114.52677    0.4108242   -114.11595   -3204.1756    4.2884218    4.2884218    4.2884218   -3204.1756    10575.708   -23961.386    3773.1516   -886.45484    4883.7504    15103.638    78.866486 
   45500    681.60913   -114.73057   0.61673426   -114.11384    8267.0901    4.2751195    4.2751195    4.2751195    8267.0901    20818.968    1621.2494    2361.0527    5579.8162    1016.4193    2543.6743    78.134851 
   45600    585.32108   -114.64458   0.52961081   -114.11497    2724.8727    4.2910522    4.2910522    4.2910522    2724.8727    8531.2539   -8190.7067    7834.0709    2929.9306   -67.677485   -7432.0784    79.011697 
   45700    515.07166   -114.58219   0.46604766   -114.11614    2606.4068    4.2821716    4.2821716    4.2821716    2606.4068    11382.209     -38.3199   -3524.6688   -999.24334   -3443.3165    10342.498    78.522154 
   45800    595.78924    -114.6562   0.53908263   -114.11712    1511.7982    4.2808998    4.2808998    4.2808998    1511.7982    7217.1625    2139.9107   -4821.6786    2019.2139    3770.8223    17900.515    78.452214 
   45900    708.05176   -114.75597   0.64066011   -114.11531   -5388.8323    4.2897941    4.2897941    4.2897941   -5388.8323   -6013.6485   -13052.404    2899.5556     2373.018    2734.9626   -9207.9051    78.942223 
   46000    665.72835    -114.7177     0.602365   -114.11533  0.023989537    4.2778222    4.2778222    4.2778222  0.023989537     13574.16   -9229.7811   -4344.3069   -4957.7623    693.02324    86.784452    78.283134 
   46100    501.11082   -114.57213    0.4534156   -114.11871   -1870.6598    4.2868876    4.2868876    4.2868876   -1870.6598    14447.769   -16862.195   -3197.5534   -789.20986    205.25284    15616.142     78.78187 
   46200    619.62182   -114.67666   0.56064684   -114.11601    4316.7538    4.2845917    4.2845917    4.2845917    4316.7538    7904.0621    861.67031    4184.5291    7672.1973    -1444.868    1835.1936    78.655359 
   46300    600.85982   -114.65912   0.54367059   -114.11545    5950.3867    4.2807352    4.2807352    4.2807352    5950.3867    6502.3546     7664.227    3684.5786    7841.3054    347.65601        -4140     78.44316 
   46400    436.58222   -114.51245   0.39502877   -114.11743   -1559.5865    4.2888064    4.2888064    4.2888064   -1559.5865   -3286.8462   -7891.5851    6499.6719   -3475.1999    2766.1933    8006.2466    78.887708 
   46500    652.67872   -114.70546   0.59055742    -114.1149    -3358.468    4.2809481    4.2809481    4.2809481    -3358.468    2306.6486   -6945.4221   -5436.6307   -596.07083   -491.61743    12006.422    78.454866 
   46600    616.39619   -114.67242   0.55772823   -114.11469    158.94562    4.2826188    4.2826188    4.2826188    158.94562   -10325.674   -4498.0738    15300.585    1788.4382    310.49476   -6671.3479    78.546757 
   46700     461.6272   -114.53453   0.41768999   -114.11684   -7658.4487    4.2889155    4.2889155    4.2889155   -7658.4487     2795.634   -11800.637   -13970.343   -1357.9693    216.74539    7208.7611    78.893728 
   46800    311.67898   -114.39971   0.28201369   -114.11769    8049.2901    4.2793041    4.2793041    4.2793041    8049.2901    9527.3383    14834.524   -213.99149    4621.1688    96.418468    12694.928    78.364515 
   46900    527.36935   -114.59253   0.47717487   -114.11536   -1657.3121    4.2835994    4.2835994    4.2835994   -1657.3121   -7101.6559    5513.0218   -3383.3022    6276.6731    203.99099   -1396.3125    78.600724 
   47000    479.52072   -114.55017   0.43388042   -114.11629   -8065.6011    4.2886203    4.2886203    4.2886203   -8065.6011   -8568.3017     -4168.97   -11459.532    1764.5326    20.172869   -5143.5987    78.877437 
   47100     372.5189   -114.45414   0.33706293   -114.11708    874.55034    4.2787335    4.2787335    4.2787335    874.55034    3904.2515    -10508.63    9228.0292   -6190.4323    5717.9669    10956.652    78.333173 
   47200    457.19714   -114.53035   0.41368158   -114.11667   -3614.6349    4.2854911    4.2854911    4.2854911   -3614.6349   -13914.972    1905.8377      1165.23    1788.3522   -1284.0398    9824.3378    78.704905 
   47300    442.83297   -114.51534   0.40068457   -114.11466   -3309.6678    4.2885525    4.2885525    4.2885525   -3309.6678   -23526.053    9395.8473    4201.2021    4683.3078   -952.98527   -2973.4281    78.873698 
   47400    314.72839   -114.40051   0.28477286   -114.11574    6965.9181     4.277228     4.277228     4.277228    6965.9181    9652.9352    5173.9743    6070.8448    1141.1984    -2222.973    8690.1228    78.250514 
   47500    358.19478   -114.44139   0.32410217   -114.11728   -4502.2311    4.2884386    4.2884386    4.2884386   -4502.2311   -3868.1444   -11303.502    1664.9529    988.61291    4322.9751    7661.1443    78.867414 
   47600    486.69306   -114.55619    0.4403701   -114.11582   -5481.8027    4.2838172    4.2838172    4.2838172   -5481.8027   -12553.904   -7291.4545    3399.9503    6081.7972   -2610.7883   -4814.9706    78.612716 
   47700    461.97699   -114.53448   0.41800649   -114.11648   -44.500019    4.2785779    4.2785779    4.2785779   -44.500019   -6817.2756   -1924.8763    8608.6518   -1268.9739   -391.26101    2714.8017    78.324627 
   47800    337.72431   -114.42217   0.30558006   -114.11659    -12572.92    4.2929261    4.2929261    4.2929261    -12572.92   -16040.203   -7390.1301   -14288.425   -4758.5095    2417.1233    10029.835    79.115254 
   47900    484.94623   -114.55241   0.43878954   -114.11362    5024.6471     4.274805     4.274805     4.274805    5024.6471   -940.87513    6963.8368    9050.9796    8914.9188   -2854.9157    6681.3085    78.117606 
   48000    449.51543   -114.52327   0.40673101   -114.11654   -1275.9503    4.2876606    4.2876606    4.2876606   -1275.9503   -5201.2709   -4692.3828    6065.8029    8018.3566   -409.12262   -7372.5817    78.824495 
   48100    458.07366   -114.53062   0.41447467   -114.11615   -3711.1503    4.2857678    4.2857678    4.2857678   -3711.1503    15996.104   -13290.989   -13838.566   -3306.9257   -1381.2498    12471.502    78.720148 
   48200    467.58504   -114.53817   0.42308077   -114.11509    6490.0881    4.2768068    4.2768068    4.2768068    6490.0881    4943.1104   -1730.6316    16257.786   -2804.0197    3316.0984    8757.6691    78.227399 
   48300    594.84098   -114.65333   0.53822462   -114.11511   -5972.3743    4.2903167    4.2903167    4.2903167   -5972.3743    -15493.36    1664.6888   -4088.4516    5854.5249   -4534.2441   -3201.1455    78.971075 
   48400    507.13411   -114.57399    0.4588656   -114.11512    2401.7783    4.2824978    4.2824978    4.2824978    2401.7783   -3916.9527    308.27158    10814.016    2550.4217   -1026.3252    4004.2942      78.5401 
   48500    473.07284   -114.54432   0.42804625   -114.11627    5275.0155    4.2796573    4.2796573    4.2796573    5275.0155     24448.65   -6129.9989   -2493.6047     806.0267    3871.3612    7309.7447    78.383921 
   48600    581.55122   -114.64146   0.52619977   -114.11526   -5849.1533    4.2901953    4.2901953    4.2901953   -5849.1533    1542.4437   -11919.815   -7170.0886    7411.2615    38.535667    871.74533    78.964372 
   48700    500.76339   -114.56841   0.45310124   -114.11531    4987.4129    4.2802594    4.2802594    4.2802594    4987.4129    8807.0768   -7720.6716    13875.834    2743.8366    119.55762    776.03338    78.417011 
   48800    575.69247   -114.63714   0.52089865   -114.11624    -4479.116     4.282296     4.282296     4.282296    -4479.116    2494.2259   -4443.2603   -11488.314   -6293.1774   -4159.5074    14761.968    78.528997 
   48900    548.84347    -114.6126    0.4966051   -114.11599   -6339.3857    4.2894681    4.2894681    4.2894681   -6339.3857   -434.09146   -4593.6492   -13990.416    5140.5103     287.9427    2533.2885    78.924226 
   49000    604.92023   -114.66169   0.54734454   -114.11435    1708.0291    4.2776552    4.2776552    4.2776552    1708.0291    8101.0257   -1669.3044   -1307.6341    15592.315   -4220.2614   -2688.1548    78.273965 
   49100    388.71208   -114.46989   0.35171486   -114.11818    4845.5523    4.2861182    4.2861182    4.2861182    4845.5523    32005.757   -8762.3152   -8706.7854    898.82047    -791.3055    8108.1826    78.739459 
   49200    638.87323   -114.69361   0.57806592   -114.11555   -5970.1481     4.285126     4.285126     4.285126   -5970.1481    15099.107   -15897.247   -17112.304   -5482.6544    2338.9276    6352.0351    78.684787 
   49300    578.08807   -114.63858   0.52306624   -114.11552    3542.7395    4.2792199    4.2792199    4.2792199    3542.7395    5766.3164   -1183.8496    6045.7515    7533.1896    95.399698    -3124.693    78.359891 
   49400    545.71969   -114.61014   0.49377864   -114.11636    -8679.413    4.2891544    4.2891544    4.2891544    -8679.413   -3327.3623   -12373.471   -10337.405    8193.6674    807.01791    6950.7426    78.906911 
   49500    424.16562   -114.50045   0.38379397   -114.11665    10533.802     4.280949     4.280949     4.280949    10533.802    33196.431   -7185.3324    5590.3081    454.79719   -2708.0586    13850.739    78.454917 
   49600    581.53342   -114.64083   0.52618366   -114.11464    2956.2992    4.2823852    4.2823852    4.2823852    2956.2992    25674.479   -9364.1877   -7441.3938    3502.5203   -1411.1764   -22.980189    78.533904 
   49700    477.56059   -114.54852   0.43210685   -114.11641   -3819.3912    4.2872482    4.2872482    4.2872482   -3819.3912    8760.3031   -13110.896   -7107.5803    8767.7951   -3075.1207   -519.26343    78.801755 
   49800    479.27582   -114.54932   0.43365883   -114.11567    227.28064    4.2812554    4.2812554    4.2812554    227.28064    8004.0628   -16866.688    9544.4668    -931.9984   -876.62582    15169.374    78.471763 
   49900    658.47012    -114.7114    0.5957976    -114.1156    1747.5517    4.2808696    4.2808696    4.2808696    1747.5517    20270.858    -7312.825   -7715.3781   -192.34953    4380.7187    1760.0683     78.45055 
   50000    485.17712   -114.55595   0.43899846   -114.11695    542.76998    4.2872492    4.2872492    4.2872492    542.76998    12042.568   -12339.847    1925.5889    9688.6508   -2888.1039   -3472.4687    78.801809 
   50100    398.55432   -114.47856   0.36062033   -114.11794   -370.41552    4.2812134    4.2812134    4.2812134   -370.41552    30553.807    -19930.24   -11734.813    6558.5343   -405.23524    10626.689    78.469454 
   50200    528.44149   -114.59493   0.47814497   -114.11679    3980.9424    4.2812505    4.2812505    4.2812505    3980.9424    15544.012   -3998.5879    397.40286   -1874.9871    248.98725    8587.6075    78.471491 
   50300     674.7146   -114.72631   0.61049595   -114.11582   -6546.1882     4.287333     4.287333     4.287333   -6546.1882   -8626.4124   -12961.557    1949.4045    6366.0736    1924.2516   -2822.5213    78.806427 
   50400    486.76719   -114.55902   0.44043718   -114.11859   -5385.6978    4.2802508    4.2802508    4.2802508   -5385.6978    778.11331   -15969.864   -965.34261    9006.4691   -4388.3208    7010.1227    78.416533 
   50500    381.34407   -114.46492   0.34504813   -114.11987    5660.2089     4.284112     4.284112     4.284112    5660.2089    25167.239   -13694.977    5508.3651    -2298.769   -3598.7213    14658.819    78.628944 
   50600    648.54178   -114.70147   0.58681423   -114.11465   -2525.1309    4.2881303    4.2881303    4.2881303   -2525.1309    9327.9641   -14620.209   -2283.1478    2441.8458    4483.0248   -5623.3713    78.850403 
   50700    466.35169   -114.53709   0.42196481   -114.11512    10298.239    4.2757445    4.2757445    4.2757445    10298.239    6666.3648    2825.9997    21402.353    15274.616    3656.6525    1131.1387     78.16912 
   50800     414.5741   -114.49213   0.37511536   -114.11701   -13369.954    4.2908294    4.2908294    4.2908294   -13369.954   -17183.153   -21029.265   -1897.4455    4078.0853    965.97178    13608.013    78.999391 
   50900    579.22165   -114.63854   0.52409192   -114.11444    4867.1598    4.2805211    4.2805211    4.2805211    4867.1598    7536.5581    1323.8142    5741.1072   -6105.0667   -5806.0234    6314.0954    78.431393 
   51000    579.36855    -114.6386   0.52422484   -114.11437    3515.9034    4.2818896    4.2818896    4.2818896    3515.9034    2933.6752   -6663.8301    14277.865    5367.3758   -506.72757   -4105.3217    78.506639 
   51100    396.22828   -114.47594   0.35851567   -114.11743   -8413.9293    4.2875897    4.2875897    4.2875897   -8413.9293    1402.1983   -22479.487   -4164.4992    9122.1151    275.26205    11089.284    78.820583 
   51200    382.99888   -114.46316   0.34654543   -114.11662    2813.2399     4.280222     4.280222     4.280222    2813.2399     12831.73   -3425.1798   -966.83006    169.45676    973.84924    15075.346    78.414951 
   51300    676.48372   -114.72594   0.61209668   -114.11384   -3436.3769    4.2825633    4.2825633    4.2825633   -3436.3769   -17514.592    2939.1315    4266.3298    926.34183    1667.3815    -6412.595    78.543705 
   51400     316.3538   -114.40416   0.28624357   -114.11791    872.28917    4.2870597    4.2870597    4.2870597    872.28917   -15090.391   -1495.0819    19202.341    8365.3031    555.95029    4229.0044     78.79136 
   51500    408.06947   -114.48684   0.36922983   -114.11761   -4955.0594    4.2806074    4.2806074    4.2806074   -4955.0594    1559.7539   -7886.4358   -8538.4962     1017.913   -2273.2223    11599.133    78.436138 
   51600    514.83744   -114.58168   0.46583573   -114.11584    1552.0244    4.2837472    4.2837472    4.2837472    1552.0244     1437.529    1093.5136    2125.0307   -1911.6886   -2901.8427    3453.8971     78.60886 
   51700    514.28456   -114.58124   0.46533548    -114.1159   -1706.5727     4.285019     4.285019     4.285019   -1706.5727   -11032.148   -9629.4631    15541.893    6076.3662    1704.1145    -352.1471    78.678894 
   51800    320.01736    -114.4082   0.28955843   -114.11864   -624.47103    4.2797134    4.2797134    4.2797134   -624.47103   -21.693871   -7133.3299    5281.6107     8644.834    2426.6776    15961.198       78.387 
   51900    405.28682   -114.48412   0.36671203   -114.11741   -3874.3311    4.2859294    4.2859294    4.2859294   -3874.3311   -9114.9334   -548.69648   -1959.3635   -663.44202   -2367.8663    5509.5561    78.729053 
   52000    635.66171   -114.68995   0.57516007   -114.11479   -1215.6815    4.2808307    4.2808307    4.2808307   -1215.6815   -12450.951    2675.4952     6128.411    2253.7468   -526.32835   -6588.5812    78.448412 
   52100    365.82738   -114.44998    0.3310083   -114.11898   -4189.0232    4.2848062    4.2848062    4.2848062   -4189.0232   -597.24732   -16205.428    4235.6053    7665.6814    2491.3075    12116.262    78.667172 
   52200    392.76989   -114.47472   0.35538645   -114.11933   -6662.7682    4.2824788    4.2824788    4.2824788   -6662.7682    6600.2588   -17866.018   -8722.5449   -589.00686    1745.0932    16121.933    78.539051 
   52300    581.53201   -114.64212   0.52618239   -114.11594    3443.8997     4.281468     4.281468     4.281468    3443.8997     10996.59   -551.40055   -113.49019    1677.4822   -1776.3866   -1652.5866    78.483452 
   52400    499.40937   -114.56822   0.45187609   -114.11635   -1657.5809    4.2866398    4.2866398    4.2866398   -1657.5809   -9664.8143   -7572.1998    12264.271    8799.0317   -844.61331   -2745.0111    78.768212 
   52500    383.40341   -114.46529   0.34691146   -114.11838   -427.14741    4.2786777    4.2786777    4.2786777   -427.14741    12025.477   -5486.2267   -7820.6928    6684.9481    180.64835    21881.505     78.33011 
   52600    543.88135   -114.60988   0.49211527   -114.11776   -4249.7235    4.2877521    4.2877521    4.2877521   -4249.7235    5133.9534   -14129.416   -3753.7082   -5282.2249   -390.90596    6544.0065    78.829542 
   52700    664.37097   -114.71608   0.60113682   -114.11495    5371.0419    4.2811439    4.2811439    4.2811439    5371.0419    1079.2181   -3614.6165    18648.524   -1230.4011    1386.9425    -5638.754    78.465631 
   52800    393.74884   -114.47518   0.35627223   -114.11891     -167.183    4.2823519    4.2823519    4.2823519     -167.183     24167.92    -21915.19   -2754.2795    7588.2484    1984.7801    12232.894    78.532072 
   52900    459.48982   -114.53383   0.41575604   -114.11807    -7547.252    4.2877841    4.2877841    4.2877841    -7547.252    3144.8751   -15714.363   -10072.268    5404.7146    1668.4311    11168.491    78.831309 
   53000     691.0863   -114.73869   0.62530941   -114.11338      5528.48    4.2801948    4.2801948    4.2801948      5528.48    9159.5967    14022.919   -6597.0758    1405.9313     -8104.46   -2811.1822     78.41346 
   53100    533.47114   -114.59887    0.4826959   -114.11617    -5817.946    4.2871377    4.2871377    4.2871377    -5817.946   -7893.0473   -13471.505    3910.7145    3661.7321   -2100.8534    8575.8167     78.79566 
   53200    388.64295   -114.46969   0.35165231   -114.11804   -2630.3373    4.2838079    4.2838079    4.2838079   -2630.3373    5850.8656   -16118.318     2376.441    2620.4761    1285.3138    22005.179    78.612204 
   53300     666.5167   -114.71799   0.60307831   -114.11491    828.59284    4.2838263    4.2838263    4.2838263    828.59284    1644.2063   -6814.6158     7656.188   -3367.9028    2922.4104   -2136.1181    78.613215 
   53400    680.40593   -114.73016   0.61564559   -114.11452    1270.6033    4.2844533    4.2844533    4.2844533    1270.6033    7335.2146   -7672.1063    4148.7016    3337.0827    1590.1698    -5644.758    78.647739 
   53500    432.65588   -114.50971   0.39147613   -114.11823   -3749.2305    4.2852122    4.2852122    4.2852122   -3749.2305    12244.398   -6812.1518   -16679.938    7316.5786   -1760.5893    15019.226     78.68954 
   53600    540.35954   -114.60616   0.48892867   -114.11723    1936.9787    4.2841983    4.2841983    4.2841983    1936.9787    2286.6827   -4780.2137    8304.4672    2290.4523   -2338.8082    12635.129    78.633699 
   53700    644.78227   -114.69707   0.58341255   -114.11366    13791.218    4.2822147    4.2822147    4.2822147    13791.218    12423.712    10268.168    18681.774    1375.0178   -4658.2459    333.77654    78.524526 
   53800    467.90057   -114.54107   0.42336627    -114.1177   -3874.6788    4.2876288    4.2876288    4.2876288   -3874.6788   -5501.5067   -15672.347    9549.8168    3165.3972    2187.9628    11879.101     78.82274 
   53900    432.58581    -114.5086   0.39141274   -114.11719   -48.353376    4.2801714    4.2801714    4.2801714   -48.353376    12244.838   -13557.924    1168.0259    366.25073   -593.84753    17756.882    78.412174 
   54000      770.605   -114.81191    0.6972596   -114.11465   -3856.4139    4.2848538    4.2848538    4.2848538   -3856.4139   -3200.4579    -4555.253   -3813.5308   -2663.6917     3297.251   -5952.1701    78.669794 
   54100    524.34942   -114.59109   0.47444238   -114.11665    -5844.643    4.2888351    4.2888351    4.2888351    -5844.643   -11823.365   -14971.217    9260.6525    4108.3595   -2921.6366    4774.0662    78.889288 
   54200    259.12328   -114.35368   0.23446019   -114.11922    7535.1508    4.2756965    4.2756965    4.2756965    7535.1508    12264.147    -7654.497    17995.802    5037.4832    77.428696    25024.015    78.166493 
   54300    589.59817   -114.65052   0.53348082   -114.11704   -10683.165    4.2899409    4.2899409    4.2899409   -10683.165   -22338.894   -2641.4231   -7069.1779   -1857.5526   -2143.5246    8218.1175    78.950323 
   54400    577.53331   -114.63859   0.52256428   -114.11603    2141.2604    4.2827956    4.2827956    4.2827956    2141.2604   -9498.3232    13486.718    2435.3866    271.67497   -2235.3822   -2248.4722    78.556485 
   54500    369.60912   -114.45324    0.3344301   -114.11881   -1127.0575    4.2787432    4.2787432    4.2787432   -1127.0575    271.22933   -7123.4804    3471.0785    5412.7698    1956.8535    13903.793    78.333707 
   54600    368.54152   -114.45147   0.33346411     -114.118   -9768.2913    4.2913086    4.2913086    4.2913086   -9768.2913    -22088.17   -18155.187    10938.483    4289.9476   -906.62721    9647.0365    79.025864 
   54700    600.01903   -114.65643   0.54290983   -114.11352    3276.4752    4.2792451    4.2792451    4.2792451    3276.4752   -13271.127    11436.192     11664.36    -3078.986    1894.3661   -4344.7497    78.361273 
   54800    485.10215   -114.55555   0.43893062   -114.11661   -548.38037    4.2804838    4.2804838    4.2804838   -548.38037   -5367.3415    4530.3115   -808.11111    2089.4086   -1940.5042     11491.97     78.42934 
   54900    202.81405   -114.30352   0.18351042   -114.12001   -2083.7153    4.2900137    4.2900137    4.2900137   -2083.7153   -13380.945    5776.2262    1353.5732    3216.0903    3302.0698    14583.952    78.954348 
   55000    569.93652    -114.6305   0.51569054   -114.11481   -174.62415    4.2786509    4.2786509    4.2786509   -174.62415   -13741.662    7231.3056    5986.4837   -1003.1313   -1648.2559   -2548.2668    78.328634 
   55100     500.0036   -114.56926   0.45241376   -114.11685    5186.6516    4.2824233    4.2824233    4.2824233    5186.6516   -2361.9574    -279.8669    18201.779    2213.1926   -2435.7637   -1969.9472       78.536 
   55200    336.30984   -114.42334   0.30430021   -114.11904   -11621.741     4.290877     4.290877     4.290877   -11621.741   -6431.8303   -15201.686   -13231.706    4025.6892    155.26883    19111.166     79.00202 
   55300    418.94849   -114.49581    0.3790734   -114.11674    4950.0152    4.2738617    4.2738617    4.2738617    4950.0152    5190.3482    6294.3762    3365.3212     687.0594    3519.5945    10990.117    78.065905 
   55400    503.40374   -114.57247   0.45549029   -114.11698   -815.20849    4.2901997    4.2901997    4.2901997   -815.20849   -11171.813    5531.6616    3194.5259   -2445.2786    612.18112   -10084.583    78.964616 
   55500    460.42101   -114.53403    0.4165986   -114.11744    -5106.484    4.2840114    4.2840114    4.2840114    -5106.484    1811.1578   -12236.667   -4893.9427    3134.3181   -3093.2931     11916.06    78.623405 
   55600    331.82348   -114.41808   0.30024086   -114.11784    3419.1867    4.2754296    4.2754296    4.2754296    3419.1867    17688.218   -17492.074    10061.417    1377.8774    965.67864    18366.602    78.151854 
   55700    602.14581   -114.66042   0.54483418   -114.11558    -12553.74    4.2935987    4.2935987    4.2935987    -12553.74   -13242.897    -12367.97   -12050.352   -2966.2986    1266.8225     467.3824    79.152447 
   55800    506.96347   -114.57426    0.4587112   -114.11555    10733.705    4.2767871    4.2767871    4.2767871    10733.705    12943.162    18170.002     1087.952    1941.8068    112.25521    528.21315    78.226321 
   55900    356.06411    -114.4408   0.32217429   -114.11863     3924.791     4.281622     4.281622     4.281622     3924.791    8674.0504    4018.1601   -917.83765    5849.2128   -3113.2881    11794.107    78.491925 
   56000    521.06928   -114.58755   0.47147444   -114.11608   -10803.711    4.2925968    4.2925968    4.2925968   -10803.711   -10284.832   -18424.441   -3701.8611    1793.0402    3137.1686    3013.0095    79.097053 
   56100    634.35437   -114.68657   0.57397716    -114.1126    9904.3778    4.2743798    4.2743798    4.2743798    9904.3778    5968.1408    3943.0336    19801.959   -5055.3442    1996.0462   -4090.8333    78.094299 
   56200    535.98796   -114.60115   0.48497317   -114.11617    -9575.496    4.2890199    4.2890199    4.2890199    -9575.496   -7034.0245   -6650.2677   -15042.196    2201.7874   -1290.0367    14244.751    78.899488 
   56300     357.3896   -114.44111   0.32337362   -114.11774   -1576.5033     4.285711     4.285711     4.285711   -1576.5033   -1391.0586   -1746.2419   -1592.2094    10063.106    1453.4301    11488.061    78.717022 
   56400     584.5539   -114.64338   0.52891666   -114.11446    6650.4032    4.2778296    4.2778296    4.2778296    6650.4032   -1860.0347    16832.056    4979.1878    208.31635    257.61797   -5516.2115    78.283537 
   56500    585.58516   -114.64462   0.52984976   -114.11477   -5327.4219    4.2892884    4.2892884    4.2892884   -5327.4219   -4697.7703   -16158.708    4874.2128   -2114.0249    1341.3135   -2142.2033    78.914304 
   56600    447.13402   -114.52197   0.40457626   -114.11739   -4271.0518    4.2805291    4.2805291    4.2805291   -4271.0518    6749.8742    -21364.67    1801.6402     4407.436    1291.5605    14802.846    78.431832 
   56700    591.95899   -114.65248   0.53561693   -114.11686   -5145.7119    4.2818346    4.2818346    4.2818346   -5145.7119    -4890.016   -1942.4777   -8604.6421    2948.6109    4431.0541    5937.3134    78.503614 
   56800    554.89605   -114.61833    0.5020816   -114.11625    7670.3867    4.2865055    4.2865055    4.2865055    7670.3867   -760.37001    14824.101    8947.4292   -1354.3388   -384.56324   -5953.7924    78.760805 
   56900    545.41146   -114.61099   0.49349975   -114.11749    2461.1484    4.2793089    4.2793089    4.2793089    2461.1484    8672.6919    3630.8084   -4920.0552    2280.8862   -1435.7735    6335.8418    78.364777 
   57000    418.63164   -114.49855   0.37878671   -114.11976    451.65762    4.2842536    4.2842536    4.2842536    451.65762    4697.5998   -4500.6625    1158.0355    6339.1852    5018.9946    6311.9154    78.636743 
   57100    670.93068    -114.7231   0.60707218   -114.11603   -2102.5249    4.2870295    4.2870295    4.2870295   -2102.5249   -1687.3134    -7253.786    2633.5247   -867.70502    3954.0646    1598.2544    78.789694 
   57200    658.27373    -114.7106   0.59561991   -114.11498    7633.2155    4.2769825    4.2769825    4.2769825    7633.2155    14932.824    7456.6396    510.18324   -1842.8001   -928.78657   -2375.0479     78.23704 
   57300    427.10869    -114.5056   0.38645692   -114.11914   -3674.0988    4.2875129    4.2875129    4.2875129   -3674.0988   -3153.8226   -2444.9257   -5423.5482    3215.2496   -1980.0941    9105.5863    78.816349 
   57400    511.07611   -114.57976    0.4624324   -114.11733   -1125.5732     4.285262     4.285262     4.285262   -1125.5732   -13110.275     5187.078    4546.4771    5714.1008    6309.2219    -325.8234    78.692283 
   57500    643.16735   -114.69614   0.58195133   -114.11419    13728.745    4.2758654    4.2758654    4.2758654    13728.745     7463.801    15837.973     17884.46      417.867    2767.7327   -3020.5043    78.175755 
   57600    547.95544   -114.61292    0.4958016   -114.11712   -10133.374    4.2913751    4.2913751    4.2913751   -10133.374     -1374.03   -21669.598    -7356.494    4821.6118    521.98394    7777.6133    79.029534 
   57700    455.09629   -114.52865   0.41178068   -114.11687   -2996.2952    4.2803593    4.2803593    4.2803593   -2996.2952    2452.4659   -11360.672   -80.679179    8979.3038    2054.4416    7708.0785      78.4225 
   57800    634.41769   -114.68973   0.57403446   -114.11569    1444.8697     4.281329     4.281329     4.281329    1444.8697   -9588.3773    12422.234    1500.7525   -2246.8881    6449.7175   -1538.7908    78.475808 
   57900    601.66653   -114.65961   0.54440052   -114.11521    -1352.973    4.2880276    4.2880276    4.2880276    -1352.973    -1963.615   -3455.2892    1359.9853   -1911.0666   -1228.8652   -1751.5066    78.844739 
   58000    395.13652   -114.47452   0.35752783   -114.11699     2127.175     4.279616     4.279616     4.279616     2127.175   -4655.6397    594.31975    10442.845    6979.1846    2861.6777    8672.6312    78.381654 
   58100    470.89734   -114.54406   0.42607781   -114.11799   -1372.3094    4.2849057    4.2849057    4.2849057   -1372.3094    2854.7172   -254.10712   -6717.5383    9226.4131    9442.5697   -1718.6903    78.672656 
   58200    595.85054   -114.65494   0.53913809   -114.11581    6571.8677    4.2825657    4.2825657    4.2825657    6571.8677    19887.281   -7063.1507    6891.4728   -533.08929    2931.1603   -2635.1323    78.543833 
   58300     517.0304   -114.58523   0.46781998   -114.11741   -5693.9834    4.2850101    4.2850101    4.2850101   -5693.9834    13962.462   -21432.125   -9612.2876    414.27184   -3638.6252    7056.3707    78.678404 
   58400    457.80064    -114.5314   0.41422764   -114.11717   -3278.3015    4.2829778    4.2829778    4.2829778   -3278.3015   -3481.7244   -6349.9524   -3.2275136    2821.5355    1970.6076    7967.2257    78.566513 
   58500    521.40359   -114.58712   0.47177693   -114.11535     229.5199    4.2859567    4.2859567    4.2859567     229.5199     4470.622   -11703.275    7921.2125    201.35888    6232.8621   -3256.6449    78.730561 
   58600    462.71914   -114.53391     0.418678   -114.11523    1302.4601    4.2822063    4.2822063    4.2822063    1302.4601    20095.948   -14235.498   -1953.0697    3093.5289    3303.6895   -3049.4551    78.524061 
   58700    222.99367   -114.32076   0.20176936   -114.11899    7178.6575    4.2844337    4.2844337    4.2844337    7178.6575    24985.248   -15362.309    11913.033    8764.6441    3681.8526    8520.9978     78.64666 
   58800    465.04114   -114.53597     0.420779   -114.11519   -7165.5418    4.2855192    4.2855192    4.2855192   -7165.5418   -3332.2577   -12944.309   -5220.0586    5252.2009    7142.7146   -1228.0847    78.706453 
   58900    491.38113    -114.5587   0.44461197   -114.11409   -748.22886    4.2785224    4.2785224    4.2785224   -748.22886    6340.7731   -11924.199    3338.7392   -5166.8974     2275.289    323.48264     78.32158 
   59000    454.81067   -114.52798   0.41152225   -114.11645   -15872.442    4.2895772    4.2895772    4.2895772   -15872.442   -4327.9558    -35942.26   -7347.1097    4539.3518   -4474.8799    6832.3485    78.930249 
   59100    300.69709   -114.38956   0.27207705   -114.11748    7849.6374     4.278498     4.278498     4.278498    7849.6374    22604.754   -8517.1027    9461.2613    5770.7083    9178.0458    5110.8592    78.320239 
   59200    397.17361   -114.47623   0.35937103   -114.11686   -1554.1709    4.2845813    4.2845813    4.2845813   -1554.1709    7949.9388   -6646.0828   -5966.3685    2775.8293    8848.6702   -2089.8008    78.654791 
   59300    398.09465   -114.47588    0.3602044   -114.11567   -2809.3931    4.2851144    4.2851144    4.2851144   -2809.3931    13718.567   -19427.636   -2719.1111   -151.47225    261.49403    13.463634    78.684153 
   59400    375.56403   -114.45573   0.33981823   -114.11591    55.041225    4.2819967    4.2819967    4.2819967    55.041225   -4152.8464   -2906.9812    7224.9513    5044.3657    2528.9811    6429.9041    78.512532 
   59500    515.09779   -114.58178   0.46607131   -114.11571   -7641.3171    4.2834152    4.2834152    4.2834152   -7641.3171   -10243.585   -5290.9164     -7389.45   -1507.8792    6655.4037   -1358.4434    78.590582 
   59600    454.59376   -114.52832   0.41132598   -114.11699   -513.40641    4.2833238    4.2833238    4.2833238   -513.40641    8901.7279   -14533.286    4091.3387    -4511.347    2000.5974    739.42601    78.585556 
   59700    444.97308   -114.51999   0.40262099   -114.11736   -21.039758    4.2852098    4.2852098    4.2852098   -21.039758    14930.529   -9650.5526   -5343.0952    5125.7995   -3816.6314     2636.332    78.689408 
   59800    403.10167   -114.48149   0.36473486   -114.11676    10841.307    4.2802633    4.2802633    4.2802633    10841.307    8437.2423    4349.3553    19737.325    9049.1789     9460.376    1041.6032    78.417224 
   59900    488.86993   -114.55807   0.44233979   -114.11573    -2219.365    4.2870745    4.2870745    4.2870745    -2219.365   -6057.8758    6586.2742   -7186.4934   -1342.9985    5877.5252   -2288.2415    78.792174 
   60000     605.0076   -114.66184   0.54742359   -114.11441   -3228.5953    4.2810569    4.2810569    4.2810569   -3228.5953   -2736.0122   -5067.4553   -1882.3184   -2520.7076   -2337.7586    3620.8078    78.460848 
   60100    484.43406   -114.55559   0.43832612   -114.11726    2670.7235    4.2825615    4.2825615    4.2825615    2670.7235    -148.6498   -7981.0245    16141.845    1550.2846    1915.1512    6637.5971    78.543605 
   60200    619.67621   -114.67726   0.56069606   -114.11656   -8606.2677    4.2860728    4.2860728    4.2860728   -8606.2677   -3447.1138   -5911.2253   -16460.464    1298.9201    11478.441   -5493.6613    78.736956 
   60300    488.05455   -114.55861   0.44160202   -114.11701    7314.3665    4.2804172    4.2804172    4.2804172    7314.3665     6895.631    8956.4049    6091.0636   -3074.3861    4799.9901   -699.58171    78.425681 
   60400    580.68666   -114.64207   0.52541749   -114.11665   -3146.1298    4.2860103    4.2860103    4.2860103   -3146.1298    542.92089   -283.83339    -9697.477     4953.656   -3572.2097    5724.5466    78.733516 
   60500    514.75502   -114.58259   0.46576116   -114.11683    2376.6525    4.2824046    4.2824046    4.2824046    2376.6525   -14103.449    27327.722   -6094.3145    4617.6107    13480.704    1426.0272    78.534974 
   60600    682.00098   -114.73348   0.61708882   -114.11639   -5910.7579    4.2829308    4.2829308    4.2829308   -5910.7579   -16777.389    6940.4675   -7895.3519   -4657.5352    6138.4558    -3845.255    78.563926 
   60700    728.80352   -114.77531   0.65943674   -114.11587    -4614.167    4.2856944    4.2856944    4.2856944    -4614.167   -8509.5056    3520.0441   -8853.0395   -4322.6491   -4355.3094    56.752554    78.716106 
   60800    573.78522   -114.63654   0.51917292   -114.11737    1824.6793    4.2825451    4.2825451    4.2825451    1824.6793   -5031.0614     10276.56    228.53985     3599.931    8625.0818    7144.8784      78.5427 
   60900    545.64646   -114.61083   0.49371239   -114.11712    8432.1858    4.2809745    4.2809745    4.2809745    8432.1858   -4184.8675    30020.027   -538.60179    4610.0379    12603.865   -3546.6578    78.456319 
   61000    623.36347   -114.67998   0.56403237   -114.11594    2236.0499    4.2889894    4.2889894    4.2889894    2236.0499    1242.2856    6959.4135   -1493.5493   -2187.0464   -285.56242   -5295.6223    78.897804 
   61100     597.5012   -114.65774   0.54063164   -114.11711    5173.3423    4.2769441    4.2769441    4.2769441    5173.3423   -1006.1292    10041.596    6484.5598    910.12561   -1730.4672    605.84319    78.234934 
   61200    610.64023   -114.67073   0.55252011   -114.11821   -5008.3271    4.2838302    4.2838302    4.2838302   -5008.3271   -10495.477    812.21037   -5341.7151    1893.7093    15578.828    7328.6227    78.613428 
   61300    660.82377   -114.71413   0.59792724    -114.1162   -5167.4002    4.2898303    4.2898303    4.2898303   -5167.4002   -17415.121    10549.355   -8636.4343   -3861.7371    2675.0718   -884.33133    78.944221 
   61400     653.2378   -114.70473   0.59106329   -114.11367    13846.958    4.2714659    4.2714659    4.2714659    13846.958    7272.7615    18512.711      15755.4   -6745.3059   -3997.7637   -1255.8929    77.934695 
   61500    347.79571   -114.43253   0.31469286   -114.11783   -6082.4546    4.2923759    4.2923759    4.2923759   -6082.4546   -9601.1365    12233.067   -20879.294    5985.9868    12690.009    978.35626     79.08484 
   61600    566.49044   -114.62934   0.51257245   -114.11677    1773.5057    4.2792094    4.2792094    4.2792094    1773.5057    119.77793    11388.183   -6187.4435    3620.5047    13363.691     1779.297    78.359314 
   61700    618.08567   -114.67645    0.5592569   -114.11719    8893.8194    4.2793188    4.2793188    4.2793188    8893.8194    6428.8107    7824.4853    12428.162   -4655.4234   -3093.2998   -5759.0117    78.365325 
   61800    492.49974   -114.56434   0.44562411   -114.11872   -14483.435    4.2899664    4.2899664    4.2899664   -14483.435   -20409.059    -5576.225    -17465.02   -6380.5342    3102.5315    1516.0941    78.951732 
   61900    363.35292   -114.44595   0.32876936   -114.11718    1002.5336    4.2766739    4.2766739    4.2766739    1002.5336   -14155.435    17904.534    -741.4974    3891.4275    16263.139    2288.3935    78.220108 
   62000    586.91523   -114.64675   0.53105324    -114.1157   -999.04863    4.2856313    4.2856313    4.2856313   -999.04863   -8369.6008    6480.1784   -1107.7235       2680.1    1961.1422    595.35158    78.712629 
   62100    472.47709   -114.54538    0.4275072   -114.11787     1872.973    4.2820389    4.2820389    4.2820389     1872.973    5664.8199   -13171.941     13126.04    -1924.108     1079.596   -2434.9304    78.514856 
   62200    253.61083   -114.35046   0.22947241   -114.12098   -5150.4335    4.2800164    4.2800164    4.2800164   -5150.4335   -3541.9079    -7423.396   -4485.9967   -1194.2388    18071.545    3397.7367    78.403655 
   62300    425.75265   -114.50375   0.38522994   -114.11852    -6703.322    4.2871507    4.2871507    4.2871507    -6703.322   -9394.2316    6380.9887   -17096.723   -1362.1848    4891.0902     2392.985    78.796379 
   62400    545.36462   -114.60807   0.49345737   -114.11461    5543.4051    4.2815368    4.2815368    4.2815368    5543.4051   -4753.9926    1346.2496    20037.958   -2905.0374   -4263.2097   -3363.1128     78.48724 
   62500    416.98666   -114.49485   0.37729829   -114.11756   -2970.7003    4.2790488    4.2790488    4.2790488   -2970.7003    -6592.968    2776.1242    -5095.257    478.25579    7639.7447   -653.55534    78.350488 
   62600    202.46862    -114.3038   0.18319786    -114.1206   -5854.9066    4.2893332    4.2893332    4.2893332   -5854.9066   -9045.4855    1764.9238   -10284.158    5188.7302    14260.387    318.32263    78.916782 
   62700    543.63674   -114.60707   0.49189395   -114.11517     4922.323    4.2802036    4.2802036    4.2802036     4922.323    9806.7219   -11338.765    16299.012   -572.22393   -1967.1466    5046.4279     78.41394 
   62800    485.36026   -114.55391   0.43916416   -114.11475    6632.8723     4.280595     4.280595     4.280595    6632.8723    9026.1154    262.73044    10609.771   -3609.1905    4226.7354   -1773.5309    78.435457 
   62900    275.33344   -114.36793   0.24912749    -114.1188   -10383.654    4.2891624    4.2891624    4.2891624   -10383.654   -19110.908   -8489.0323   -3551.0224   -1962.6363    14949.824    3702.6337    78.907351 
   63000    440.76652   -114.51583   0.39881481   -114.11702   -1264.4919    4.2785135    4.2785135    4.2785135   -1264.4919   -11681.691    3339.9829    4548.2319    2585.5262   -145.52361    -130.2282    78.321087 
   63100    594.84695   -114.65328   0.53823002   -114.11505    4799.8003    4.2821051    4.2821051    4.2821051    4799.8003   -7544.9911   -452.25067    22396.643    1071.1488   -4392.4174    -1446.978    78.518494 
   63200    437.49884   -114.51412   0.39585814   -114.11826   -9249.2612    4.2881565    4.2881565    4.2881565   -9249.2612   -12169.507   -13618.397   -1959.8794    1867.5302    12831.838    2181.6047    78.851847 
   63300    297.77786   -114.38905   0.26943566   -114.11962    1194.3955    4.2764429    4.2764429    4.2764429    1194.3955    4241.5613   -4468.4564    3810.0817    4211.7583    12129.667    2104.7879    78.207436 
   63400    583.50169   -114.64549   0.52796459   -114.11753   -1937.6139    4.2860306    4.2860306    4.2860306   -1937.6139   -1291.5713    -2982.565   -1538.7053   -1245.3615   -7957.0299    2254.9588    78.734631 
   63500    626.75504   -114.68315   0.56710113   -114.11604   -2540.3404    4.2850999    4.2850999    4.2850999   -2540.3404   -7184.4971    1408.7618   -1845.2859   -3036.5894     4250.667   -1834.5044    78.683352 
   63600     380.1496   -114.46237   0.34396734    -114.1184    5277.6221    4.2756135    4.2756135    4.2756135    5277.6221   -9890.7772    15694.733    10028.911    918.00269    15066.428    3310.9809    78.161937 
   63700    495.09089   -114.56709   0.44796864   -114.11912   -8838.9071    4.2904298    4.2904298    4.2904298   -8838.9071   -12974.822   -2391.9119   -11149.988    5230.9185    20.072151    1645.6181    78.977324 
   63800    626.42787    -114.6828    0.5668051   -114.11599    9407.3103     4.279445     4.279445     4.279445    9407.3103    16922.918    2368.5473    8930.4655    2393.1205   -888.29676     -1505.67    78.372256 
   63900    500.72853   -114.57084    0.4530697   -114.11777    4156.2738    4.2811948    4.2811948    4.2811948    4156.2738    6885.7994    8554.0428   -2971.0208   -119.56707    11808.173    2771.7905    78.468429 
   64000    415.94474   -114.49402   0.37635555   -114.11767   -7134.4813    4.2891151    4.2891151    4.2891151   -7134.4813   -11309.671   -9275.7275   -818.04507   -323.29485    4664.2832    6233.9215    78.904744 
   64100    610.89934   -114.66813   0.55275456   -114.11537    3046.4141    4.2768991    4.2768991    4.2768991    3046.4141   -3764.7015    7319.6329     5584.311    394.73678   -8679.8821    146.07242    78.232466 
   64200    636.65987   -114.69205   0.57606323   -114.11599   -3479.1673    4.2848875    4.2848875    4.2848875   -3479.1673   -8623.3204    7171.2064   -8985.3878     759.8189    7789.8612   -4764.2221    78.671652 
   64300    340.42777   -114.42597    0.3080262   -114.11794   -784.29934    4.2876672    4.2876672    4.2876672   -784.29934     118.1366   -2199.0028    -272.0318    5219.1283    14805.979    3826.8808    78.824862 
   64400    429.23799   -114.50538   0.38838356     -114.117    4345.6604    4.2754923    4.2754923    4.2754923    4345.6604    20979.742    2362.3286    -10305.09    5822.1789   -5095.9488    8181.7778     78.15529 
   64500    613.38816   -114.67111    0.5550065   -114.11611    -3446.774    4.2864507    4.2864507    4.2864507    -3446.774    5665.2674    -2618.519    -13387.07   -58.032426    -3796.488   -2121.6609    78.757784 
   64600    561.69416   -114.62459   0.50823268   -114.11635   -11142.789    4.2883612    4.2883612    4.2883612   -11142.789   -11922.481   -4263.9918   -17241.893   -618.57773    9291.6059    392.14967     78.86314 
   64700    431.70895   -114.50727   0.39061933   -114.11665    4962.9665    4.2718544    4.2718544    4.2718544    4962.9665    4597.0446    6303.1588     3988.696    2313.8902    7735.8712    5792.8129    77.955961 
   64800     483.2848   -114.55461   0.43728624   -114.11733   -8442.4123    4.2933687    4.2933687    4.2933687   -8442.4123    8350.4019   -7121.1835   -26556.455    2278.5469   -6164.2297    4087.5113    79.139729 
   64900    566.90338   -114.62844   0.51294609    -114.1155    1930.6919    4.2804446    4.2804446    4.2804446    1930.6919    16300.389    6860.1082   -17368.422    -843.8026    8519.5756   -4935.3926    78.427185 
   65000    383.73072   -114.46524   0.34720762   -114.11803    15360.464    4.2731293    4.2731293    4.2731293    15360.464    14150.615    20387.639    11543.138    4675.7684    9652.4571    3308.6641    78.025779 
   65100    514.45707    -114.5819   0.46549157    -114.1164   -17536.755    4.2958965    4.2958965    4.2958965   -17536.755   -22628.515   -8024.0407    -21957.71    4419.2456   -4063.6072    7341.0214    79.279595 
   65200    596.65947   -114.65382   0.53987003   -114.11395    7876.5202    4.2722523    4.2722523    4.2722523    7876.5202    7653.9375    9966.4503    6009.1729   -1235.5984   -1317.9894   -721.76674    77.977747 
   65300    556.28774   -114.62191   0.50334084   -114.11857     3676.282    4.2817459    4.2817459    4.2817459     3676.282    11650.895    3116.2619   -3738.3106    -3568.589    9768.9229     3394.029    78.498737 
   65400    392.66287   -114.47458   0.35528962   -114.11929   -4650.2337    4.2910571    4.2910571    4.2910571   -4650.2337    8112.9453   -18234.481   -3829.1658    6210.9791    2316.2715    3480.1879    79.011966 
   65500    533.03768    -114.5974   0.48230369    -114.1151    7975.1935    4.2707838    4.2707838    4.2707838    7975.1935    11613.002    4586.2626    7726.3161    7524.8621   -8474.3127    3020.9302    77.897364 
   65600    687.72128   -114.73925   0.62226466   -114.11698   -10726.894    4.2900048    4.2900048    4.2900048   -10726.894   -11561.687   -6973.2596   -13645.735   -2741.0225    4540.4185   -3093.9326    78.953852 
   65700    553.41245   -114.61843   0.50073921   -114.11769   -2771.9472    4.2835326    4.2835326    4.2835326   -2771.9472   -3726.8373   -4266.7993   -322.20499   -157.20671    8109.1857    8300.6025    78.597049 
   65800    504.53546   -114.57245   0.45651428   -114.11593    3152.5119     4.274078     4.274078     4.274078    3152.5119    14210.929   -5546.7983    793.40455    4833.3189   -1384.1824    6507.3679    78.077759 
   65900    568.51363   -114.63092   0.51440308   -114.11652   -6342.7456    4.2919332    4.2919332    4.2919332   -6342.7456      1280.93    -17036.65   -3272.5167    -322.4396   -5727.4107   -6408.1554    79.060373 
   66000    641.81252   -114.69632   0.58072546    -114.1156    3110.0118    4.2777879    4.2777879    4.2777879    3110.0118    4797.1401    5789.2006   -1256.3054   -488.66504    5857.6375    6636.8976    78.281248 
   66100    550.89657    -114.6153   0.49846279   -114.11683    2128.5784    4.2767274    4.2767274    4.2767274    2128.5784   -3255.6587    2561.2338    7080.1601    5864.5227     2799.783    10016.162    78.223043 
   66200    547.85872   -114.61364   0.49571408   -114.11793   -7662.4553    4.2916014    4.2916014    4.2916014   -7662.4553   -24359.774    1120.1392    252.26841     2118.428   -4207.6632    1644.5003    79.042036 
   66300     656.2743    -114.7095   0.59381077   -114.11569    6514.6651    4.2757734    4.2757734    4.2757734    6514.6651    2777.4341    6874.3351    9892.2261   -8061.2368    3214.1519   -6335.5017    78.170708 
   66400    541.68006   -114.60735    0.4901235   -114.11723    4696.8789    4.2809557    4.2809557    4.2809557    4696.8789    11895.357   -713.48026    2908.7596    905.89212     3136.003    5250.1888    78.455287 
   66500    488.63418   -114.55954   0.44212647   -114.11741   -9044.9016    4.2914006    4.2914006    4.2914006   -9044.9016   -7214.4466   -8783.7499   -11136.508     10364.41   -2716.1767    9056.0353    79.030944 
   66600    505.91876   -114.57239   0.45776593   -114.11463    12002.865    4.2735298    4.2735298    4.2735298    12002.865   -3515.6254    13950.659    25573.563    797.29947   -4449.4263   -608.21117    78.047721 
   66700    608.82182   -114.66599   0.55087477   -114.11511   -7705.1756    4.2869362    4.2869362    4.2869362   -7705.1756   -17507.295    3179.1617   -8787.3933   -5895.9083    2013.9965    6551.4119    78.784553 
   66800    463.87258   -114.53618   0.41972166   -114.11646   -7626.5989    4.2849945    4.2849945    4.2849945   -7626.5989   -10763.946    -2622.424   -9493.4268    3224.3923    1908.5103    5265.2236    78.677548 
   66900    453.05118   -114.52538   0.40993023   -114.11545    -111.4346    4.2763203    4.2763203    4.2763203    -111.4346   -2796.9832   -3877.7716     6340.451    1967.7508   -4090.0603   -572.20898    78.200707 
   67000    472.28565   -114.54367   0.42733398   -114.11633   -738.14395    4.2865569    4.2865569    4.2865569   -738.14395   -1034.0579   -3266.3026    2085.9287   -5527.0041    663.73718    380.71628    78.763642 
   67100    427.33473   -114.50444   0.38666145   -114.11778   -131.20118    4.2819675    4.2819675    4.2819675   -131.20118    2202.0675    13532.545   -16128.216    5067.4335    1210.5572    4882.5894    78.510924 
   67200    413.01461   -114.49135    0.3737043   -114.11764    1755.6561    4.2756536    4.2756536    4.2756536    1755.6561   -8124.7231    19768.474   -6376.7821    9067.1086   -2320.7121    6483.1502    78.164135 
   67300     391.7934   -114.47299    0.3545029   -114.11849   -7178.9719    4.2906933    4.2906933    4.2906933   -7178.9719   -30282.216      2931.67    5813.6301   -4913.2131   -498.26551   -2004.5876    78.991872 
   67400    534.27661   -114.59962    0.4834247    -114.1162    991.32922     4.276028     4.276028     4.276028    991.32922    1638.3568    3401.1851   -2065.5543   -10850.042    2506.7108    6606.5146     78.18467 
   67500    362.39936   -114.44529   0.32790656   -114.11738    133.59374    4.2822263    4.2822263    4.2822263    133.59374    5138.7981    11160.781   -15898.798    7593.9778    1083.2319    5512.6591    78.525163 
   67600    346.90432   -114.43027   0.31388632   -114.11639    -10500.65    4.2901558    4.2901558    4.2901558    -10500.65   -12925.366   -573.74859   -18002.837    7657.0575   -5948.4415    -2814.655    78.962193 
   67700    286.65416   -114.37452   0.25937071   -114.11515    15904.343    4.2716475    4.2716475    4.2716475    15904.343    9714.5239    17580.357    20418.148   -8114.9708   -1260.5947    4774.2408    77.944636 
   67800    524.32478   -114.58921   0.47442008   -114.11479   -14223.753    4.2885646    4.2885646    4.2885646   -14223.753   -10404.065   -7555.2698   -24711.924   -1894.4672    12.039068      5484.37    78.874364 
   67900    470.02186   -114.54056   0.42528566   -114.11527   -9514.4501    4.2833164    4.2833164    4.2833164   -9514.4501    -10162.02   -1517.4209   -16863.909    2102.8985   -2341.7397    2721.3335    78.585145 
   68000    377.44385   -114.45841   0.34151912   -114.11689     5118.535    4.2753295    4.2753295    4.2753295     5118.535   -4497.9062    9466.8003    10386.711   -4820.3892    147.37827   -3836.0884    78.146364 
   68100    421.38014   -114.49836   0.38127361   -114.11708   -1922.9491     4.288728     4.288728     4.288728   -1922.9491     1141.274    7840.9838   -14751.105    -6570.924    1471.0255    6292.6916     78.88338 
   68200    488.84366   -114.55813   0.44231602   -114.11581    5025.8083    4.2788572    4.2788572    4.2788572    5025.8083    11447.969    19399.363   -15769.907    7972.3977   -2325.1227    8381.3331    78.339964 
   68300    484.87857   -114.55688   0.43872832   -114.11815   -1888.5587    4.2788675    4.2788675    4.2788675   -1888.5587   -2592.5653    2737.7061   -5810.8169   -1597.9091   -8710.6101   -3836.0412    78.340531 
   68400    450.34686   -114.52552   0.40748331   -114.11804   -4848.9022    4.2878749    4.2878749    4.2878749   -4848.9022   -18055.756   -6134.3543    9643.4036   -12794.042     763.6025    1851.8037    78.836315 
   68500    599.93251   -114.65836   0.54283154   -114.11553    2393.4806    4.2790633    4.2790633    4.2790633    2393.4806    -1591.411    11710.195   -2938.3424   -1617.3243    937.85628   -445.77839    78.351287 
   68600    531.35732   -114.59733   0.48078327   -114.11654    247.19436    4.2820046    4.2820046    4.2820046    247.19436   -963.11519     13094.62   -11389.922    8181.2338    -2804.779   -150.08953    78.512969 
   68700    432.88358   -114.50949   0.39168216   -114.11781   -7531.4129    4.2866242    4.2866242    4.2866242   -7531.4129   -10337.614   -9610.7383   -2645.8864   -8822.3147   -751.18965   -3108.7248     78.76735 
   68800    568.91608   -114.63108   0.51476723   -114.11631     7235.425    4.2751934    4.2751934    4.2751934     7235.425    12058.058   -1534.6591    11182.876   -11768.244    445.27461    7449.4232    78.138902 
   68900    737.79499   -114.78291   0.66757241   -114.11533   -7029.2135    4.2872901    4.2872901    4.2872901   -7029.2135   -5175.5567   -1575.4615   -14336.622    4403.7845   -53.983554    8242.3087    78.804061 
   69000    509.87055   -114.57965   0.46134159   -114.11831    1848.5735    4.2797411    4.2797411    4.2797411    1848.5735   -11074.097     11311.25    5308.5681   -6626.0403   -6315.6678   -8311.3273    78.388526 
   69100    458.06541   -114.53403   0.41446721   -114.11956     6665.877    4.2794893    4.2794893    4.2794893     6665.877   -11094.672    12432.857    18659.447   -11674.129   -90.742628    319.95833    78.374692 
   69200    688.64851   -114.73867   0.62310365   -114.11556     1802.133    4.2862095    4.2862095    4.2862095     1802.133    5094.2704    4674.5793   -4362.4508    2476.0456    706.95497   -1255.9653    78.744489 
   69300    620.75502   -114.67783   0.56167219   -114.11615     6364.248    4.2772492    4.2772492    4.2772492     6364.248    6502.2127    5713.9609    6876.5704    3480.4699   -892.24718    1673.1283    78.251681 
   69400    456.87098   -114.53298   0.41338646   -114.11959     -7135.35    4.2837331    4.2837331    4.2837331     -7135.35   -15658.108   -4545.2102   -1202.7322    -16119.75   -2088.5624   -2474.1325    78.608082 
   69500    551.29557   -114.61686   0.49882382   -114.11804    2020.7299    4.2824464    4.2824464    4.2824464    2020.7299   -13687.626    7653.2261    12096.589   -10359.053   -1355.4576    546.90874    78.537272 
   69600    697.54006   -114.74641   0.63114891   -114.11526    2906.6354    4.2802596    4.2802596    4.2802596    2906.6354   -9342.4815    17166.917    895.47069     6864.857   -793.57211    4951.3542    78.417022 
   69700     470.0882   -114.54514   0.42534568    -114.1198   -3920.0676     4.281896     4.281896     4.281896   -3920.0676   -11976.182   -7453.2102    7669.1897   -3155.6825     -1066.04   -5116.0849    78.506993 
   69800     396.7835   -114.47964   0.35901805   -114.12063   -4130.5338    4.2832783    4.2832783    4.2832783   -4130.5338   -15860.285   -11838.516      15307.2   -14412.417    2539.9211    3117.8782    78.583051 
   69900    695.96943   -114.74474   0.62972777   -114.11501    2869.1192    4.2792986    4.2792986    4.2792986    2869.1192   -4717.5715     11861.16    1463.7693   -2676.4563   -2881.0277   -2320.1828     78.36421 
   70000    476.83758   -114.54963   0.43145266   -114.11818    6694.3901    4.2826503    4.2826503    4.2826503    6694.3901   -15191.711    24856.784    10418.097   -3099.8068   -4563.0482      -2498.4    78.548491 
   70100     332.5841   -114.42106   0.30092908   -114.12013   -6926.3145    4.2838408    4.2838408    4.2838408   -6926.3145   -31901.525   -3366.3021    14488.884   -15123.204   -1789.9233   -5132.5312    78.614014 
   70200     532.0554   -114.59845   0.48141491   -114.11704    890.65643    4.2778645    4.2778645    4.2778645    890.65643    -15312.16    2857.6753    15126.454   -1320.4039    4204.5489   -1155.9425    78.285456 
   70300     629.6521   -114.68515   0.56972245   -114.11543   -4528.1202    4.2876596    4.2876596    4.2876596   -4528.1202   -16468.763    1784.6254    1099.7766    2849.8902    4442.2996    8050.4192    78.824439 
   70400     353.5387   -114.43785   0.31988925   -114.11796   -714.22969    4.2802057    4.2802057    4.2802057   -714.22969   -20637.106    7067.8639    11426.553   -14660.826   -1499.0859   -2114.2739    78.414055 
   70500    327.57534    -114.4145   0.29639705   -114.11811    387.47373    4.2800368    4.2800368    4.2800368    387.47373   -16960.499    16422.003     1700.918    -11880.91   -183.61351   -1244.1402    78.404773 
   70600    596.65452   -114.65362   0.53986555   -114.11376    -5316.623    4.2878394    4.2878394    4.2878394    -5316.623   -15529.216    11810.719   -12231.373    3962.3067   -788.69845   -5874.1695    78.834359 
   70700    489.21902   -114.55779   0.44265565   -114.11514    3642.8344    4.2776492    4.2776492    4.2776492    3642.8344   -13910.785    3161.6298    21677.659   -7043.9212   -1807.0615    -4248.457    78.273632 
   70800    364.75311   -114.44869   0.33003628   -114.11866    -5517.064    4.2840528    4.2840528    4.2840528    -5517.064   -21232.671   -7494.9324    12176.411   -11222.919   -2387.3108    926.20392    78.625684 
   70900    493.50473   -114.56308   0.44653345   -114.11655   -848.06836      4.28478      4.28478      4.28478   -848.06836   -15785.204    10963.355    2277.6437    5501.9804    2226.3063    1841.8893    78.665732 
   71000    587.94621   -114.64685   0.53198609   -114.11486    7303.4313    4.2767706    4.2767706    4.2767706    7303.4313   -4177.4672    28065.045   -1977.2838   -1483.4282    3761.5261    6708.0167    78.225411 
   71100    399.02493   -114.47946   0.36104614   -114.11841   -2739.4953    4.2858375    4.2858375    4.2858375   -2739.4953   -12595.875    -207.2246    4584.6134   -16708.484   -520.03139    -5957.088    78.723991 
   71200    528.83296   -114.59572   0.47849918   -114.11722   -7319.0955    4.2809772    4.2809772    4.2809772   -7319.0955   -6019.3064   -11248.201   -4689.7797   -4527.9708    1074.4697   -1762.1427    78.456468 
   71300    620.81495   -114.67759   0.56172642   -114.11586    2059.8358    4.2787418    4.2787418    4.2787418    2059.8358    3503.6431    10036.653   -7360.7884    8862.8917    118.75578   -2593.4216    78.333629 
   71400    442.93088   -114.51832   0.40077317   -114.11755    751.10697    4.2861823    4.2861823    4.2861823    751.10697   -13024.435    5999.9707    9277.7851   -11835.472    1603.1289    3452.9898    78.742995 
   71500    483.66069   -114.55552   0.43762636   -114.11789    2039.3601     4.275973     4.275973     4.275973    2039.3601   -5943.5624    3641.6484    8419.9943   -13109.444   -3436.0876   -862.67132    78.181655 
   71600    560.92646   -114.62439   0.50753805   -114.11685   -2697.6062    4.2837387    4.2837387    4.2837387   -2697.6062   -2335.0742    4560.7046   -10318.449    5888.7762    2171.5742   -2830.0825    78.608393 
   71700    653.07611   -114.70682   0.59091699    -114.1159    -5123.419    4.2826131    4.2826131    4.2826131    -5123.419   -2888.1726   -3611.1099   -8870.9745    -2514.855    1790.5157     5577.297     78.54644 
   71800    405.29393   -114.48534   0.36671846   -114.11862    6576.8748    4.2771147    4.2771147    4.2771147    6576.8748   -3493.1833    3042.3113    20181.496   -18836.374   -1314.3529   -1609.0185    78.244299 
   71900    511.85445   -114.58118   0.46313666   -114.11804   -3337.8592    4.2833501    4.2833501    4.2833501   -3337.8592   -7880.8861    5260.6732   -7393.3646   -70.839471    1907.3523    1208.5203    78.587001 
   72000    585.72285   -114.64683   0.52997435   -114.11686    -3193.998    4.2825939    4.2825939    4.2825939    -3193.998   -4942.3122    5454.7564   -10094.438    9010.2087   -1944.4711     -2877.18    78.545385 
   72100     420.1623   -114.49823   0.38017168   -114.11806     1360.473     4.278509     4.278509     4.278509     1360.473   -9183.7917   -2924.6092     16189.82   -17483.082    1674.8826    3756.1341    78.320841 
   72200    551.35235   -114.61676   0.49887519   -114.11788   -9095.3282    4.2823101    4.2823101    4.2823101   -9095.3282   -9634.7999   -10188.471   -7462.7132   -10485.133   -3369.0534   -4222.0659    78.529773 
   72300    501.48038   -114.57098   0.45374999   -114.11723   -358.76965    4.2841038    4.2841038    4.2841038   -358.76965   -2517.9876    7630.1035   -6188.4248    9641.7639    1534.8034   -3065.9603    78.628493 
   72400    409.19814   -114.48844   0.37025108   -114.11819    8138.2432    4.2761862    4.2761862    4.2761862    8138.2432   -4101.3617    18079.553    10436.538   -41.090526     385.7255    8179.2551    78.193353 
   72500    324.78451   -114.41341   0.29387185   -114.11954   -2176.2402    4.2861611    4.2861611    4.2861611   -2176.2402   -18952.201   -616.47302    13039.954   -16795.303   -492.68521    3829.3947    78.741825 
   72600    518.45902   -114.58441   0.46911262    -114.1153   -3292.3261    4.2823866    4.2823866    4.2823866   -3292.3261    -13174.06   -313.56336    3610.6453   -1456.5999    2518.8816   -2254.4054    78.533981 
   72700    544.23122   -114.60751   0.49243184   -114.11508    1425.4178     4.276691     4.276691     4.276691    1425.4178     1947.067     2891.783   -562.59677    5095.6654    2525.1094   -6564.4167    78.221044 
   72800    281.90336    -114.3729   0.25507208   -114.11782   -7500.6421    4.2887117    4.2887117    4.2887117   -7500.6421   -17353.159   -7256.6599    2107.8931    -11086.45    981.17988    3419.1835     78.88248 
   72900    367.41026   -114.44913   0.33244053   -114.11669    2316.9591    4.2781578    4.2781578    4.2781578    2316.9591     -13970.2    13270.072     7651.005   -4740.4746   -6736.1362    750.39492    78.301555 
   73000    456.33257   -114.52806    0.4128993   -114.11516    2977.3327     4.282737     4.282737     4.282737    2977.3327   -7983.3984    11390.836    5524.5608    6106.4937    602.68487   -121.41857    78.553261 
   73100    348.13061   -114.43198    0.3149959   -114.11698   -3907.4055    4.2843809    4.2843809    4.2843809   -3907.4055   -20641.995   -4857.2782    13777.057   -7463.7547    898.94488    5654.5567    78.643754 
   73200    354.68857   -114.43847   0.32092968   -114.11754   -5775.0291    4.2784872    4.2784872    4.2784872   -5775.0291    -21233.09   -9301.7669     13209.77    -18663.11    968.83148    1982.1057    78.319645 
   73300    539.96654   -114.60465   0.48857307   -114.11608   -8235.4189    4.2864591    4.2864591    4.2864591   -8235.4189   -12972.707   -6788.6451   -4944.9051    2625.4072    2081.9104   -4324.0377    78.758247 
   73400     526.5089   -114.59127   0.47639632   -114.11488    58.162564    4.2811803    4.2811803    4.2811803    58.162564     4107.505   -1927.2675   -2005.7498    2938.2762   -433.70156   -5640.6398    78.467632 
   73500    239.17553   -114.33506   0.21641105   -114.11865         3609    4.2800838    4.2800838    4.2800838         3609    -13106.39    2695.4346    21237.955   -11975.426   -1751.0432     7669.417    78.407358 
   73600    443.20743   -114.51912    0.4010234   -114.11809   -2102.8664    4.2849499    4.2849499    4.2849499   -2102.8664   -18551.463    251.91648    11990.947   -1624.0267   -8070.9576    2157.4662    78.675088 
   73700    671.30171   -114.72186   0.60740789   -114.11445    1343.0161    4.2806455    4.2806455    4.2806455    1343.0161    -4037.547    2594.9672     5471.628    2712.7203    4933.7397   -677.13278    78.438233 
   73800    487.09506   -114.55896   0.44073384   -114.11822   -472.81449    4.2791497    4.2791497    4.2791497   -472.81449   -8227.2029   -5290.9642    12099.724    -12160.62    5796.6559   -1656.8902     78.35603 
   73900     495.3427   -114.56753   0.44819648   -114.11933   -12277.851    4.2877074    4.2877074    4.2877074   -12277.851    -12855.84   -17192.982   -6784.7312   -10976.138   -2274.9203    2416.0978    78.827079 
   74000    635.20244    -114.6911   0.57474452   -114.11635    9025.0333    4.2774595    4.2774595    4.2774595    9025.0333    10443.161    4022.1284     12609.81     6266.428   -7292.1264    -900.1139    78.263221 
   74100    623.33647   -114.68119   0.56400794   -114.11718    8711.6833    4.2788377    4.2788377    4.2788377    8711.6833    9703.6485    1493.3873    14938.014   -454.39957   -264.22729   -2069.3654    78.338895 
   74200    411.52181   -114.49286   0.37235358    -114.1205   -7923.6212    4.2892822    4.2892822    4.2892822   -7923.6212   -19132.916   -7577.5721    2939.6251   -13085.543    2989.1364    6133.3533    78.913966 
   74300    652.81064    -114.7075   0.59067679   -114.11683    7198.2402    4.2735792    4.2735792    4.2735792    7198.2402    5934.9561    7971.4048    7688.3596   -1796.7563   -3342.3166   -2438.7845    78.050426 
   74400     842.3365   -114.87707   0.76216377   -114.11491    -3729.126    4.2856723    4.2856723    4.2856723    -3729.126    27.721442   -10609.923   -605.17593    -648.6547    2693.5035   -625.21244     78.71489 
   74500    482.19603   -114.55666    0.4363011   -114.12036    1289.6634    4.2815691    4.2815691    4.2815691    1289.6634    -5146.243     -9907.17    18922.403   -12851.495   -358.46296   -672.78864    78.489012 
   74600     457.4472    -114.5347   0.41390784   -114.12079    2538.3901    4.2777857    4.2777857    4.2777857    2538.3901   -680.10628    -1416.246    9711.5227    -6468.375   -553.75143    9858.4009    78.281128 
   74700    755.10318   -114.79892   0.68323323   -114.11569    -4302.422    4.2867175    4.2867175    4.2867175    -4302.422   -1150.1131   -1261.6781   -10495.475    6000.4841    -5595.447    -459.2505    78.772495 
   74800    588.35657   -114.64963   0.53235739   -114.11727    7668.0406    4.2759406    4.2759406    4.2759406    7668.0406    -1563.115    9801.3339    14765.903   -5503.0747    6779.0485   -2555.4004     78.17988 
   74900    438.17527    -114.5166    0.3964702   -114.12013   -14521.029     4.286234     4.286234     4.286234   -14521.029   -23023.491   -12797.027   -7742.5686    -14032.01    2541.6878    1229.7843    78.745843 
   75000    528.93972   -114.59574   0.47859578   -114.11715    4399.1285    4.2798499    4.2798499    4.2798499    4399.1285    5095.8726   -4753.9131    12855.426    2145.2996   -6219.5489    3632.2308    78.394504 
   75100    718.55799    -114.7651   0.65016637   -114.11493   -138.32124     4.280218     4.280218     4.280218   -138.32124   -2005.2153   -5921.4132    7511.6648   -2762.5085    949.45658    3551.8859    78.414732 
   75200    404.45473   -114.48567   0.36595914   -114.11971   -1712.1739    4.2823556    4.2823556    4.2823556   -1712.1739   -15356.237    4182.4874    6037.2281   -8492.6201    1722.8241    1328.7031    78.532277 
   75300     360.4909   -114.44661   0.32617974   -114.12043    678.74046    4.2827531    4.2827531    4.2827531    678.74046   -6193.1301    10303.284   -2073.9322   -4111.0559   -129.29901    6559.3443    78.554145 
   75400    621.34597   -114.67815   0.56220689   -114.11595    4893.9061    4.2787704    4.2787704    4.2787704    4893.9061   -2177.2501    4857.7082     12001.26    4084.1668   -4084.2691   -3603.3409    78.335197 
   75500    449.77796   -114.52487   0.40696855    -114.1179    3477.9119    4.2817041    4.2817041    4.2817041    3477.9119   -15122.788    3576.8487    21979.675   -6423.0997    2986.6461   -1542.0286    78.496441 
   75600     349.3565   -114.43556    0.3161051   -114.11945    -11105.93    4.2854869    4.2854869    4.2854869    -11105.93    -23363.52   -9657.8151   -296.45391   -10781.369    2058.3217    2652.7404    78.704674 
   75700    492.15267   -114.56236   0.44531007   -114.11705    5770.6824    4.2745121    4.2745121    4.2745121    5770.6824    10795.935    1978.5691    4537.5432     3490.202   -2451.9438    11532.579     78.10155 
   75800    546.59139   -114.61061   0.49456738   -114.11605   -8057.6155    4.2875242    4.2875242    4.2875242   -8057.6155   -19082.664   -4697.9094   -392.27314   -636.92623    3237.4167    266.86195    78.816974 
   75900    378.31394   -114.46086    0.3423064   -114.11855   -3288.7926    4.2789947    4.2789947    4.2789947   -3288.7926   -27775.293    8638.9181    9269.9967   -6602.1418    6015.4065   -2952.5821    78.347518 
   76000    327.36249   -114.41575   0.29620446   -114.11955    3257.7935    4.2802581    4.2802581    4.2802581    3257.7935   -8350.5776    1723.8202    16400.138   -4979.3131   -1202.5059    6096.6875    78.416935 
   76100    634.40464   -114.68993   0.57402265   -114.11591   -5566.0704    4.2832595    4.2832595    4.2832595   -5566.0704   -6621.4154   -4935.9949   -5140.8008    2339.9294   -5650.9917    2444.9877    78.582013 
   76200     497.1421   -114.56665   0.44982462   -114.11683   -2162.0827    4.2794558    4.2794558    4.2794558   -2162.0827   -14979.093   -1017.4194    9510.2644   -6031.3587    3183.5731    939.23582    78.372846 
   76300    385.10157   -114.46784     0.348448    -114.1194    190.80089    4.2821495    4.2821495    4.2821495    190.80089     -11986.5    -2627.583    15186.485    -6144.155    5879.4168   -271.65163    78.520937 
   76400    571.83563   -114.63473   0.51740889   -114.11732    6102.0225    4.2797669    4.2797669    4.2797669    6102.0225    4740.5491    7744.8534    5820.6651     3301.802    1203.1771    11453.759    78.389942 
   76500    533.79789   -114.60005   0.48299155   -114.11706   -165.10421    4.2825969    4.2825969    4.2825969   -165.10421   -13227.927   -427.08293    13159.697   -2632.4095    468.40655   -3050.7134     78.54555 
   76600    511.00674   -114.58123   0.46236964   -114.11886   -3216.5697    4.2791855    4.2791855    4.2791855   -3216.5697   -17282.408    1780.8588    5851.8404   -6155.9073    3326.1052   -367.51598    78.358002 
   76700      588.664   -114.65088   0.53263556   -114.11824   -2121.6226    4.2826882    4.2826882    4.2826882   -2121.6226   -5604.6847    330.88236   -1091.0655   -2256.2091    1924.9318    5074.2766    78.550577 
   76800    607.21381   -114.66661   0.54941982   -114.11719    3398.7998    4.2798857    4.2798857    4.2798857    3398.7998    2922.0609   -2306.9989    9581.3372    1602.1776   -2225.8248    5392.1072    78.396469 
   76900    503.65641   -114.57482    0.4557189    -114.1191   -2856.3965    4.2818478    4.2818478    4.2818478   -2856.3965   -12857.341    171.73957    4116.4121   -4823.1784    7077.9923   -4425.6064    78.504345 
   77000    459.41864   -114.53453   0.41569164   -114.11883    1600.8929     4.282802     4.282802     4.282802    1600.8929   -14566.994    9350.7089    10018.964   -4280.9534    6246.2171   -1969.8676    78.556837 
   77100     702.5072   -114.75115   0.63564328    -114.1155    4471.9357    4.2771538    4.2771538    4.2771538    4471.9357    7934.0894    9864.8676   -4383.1499    4147.5167   -1599.6061    13149.906    78.246445 
   77200    621.51595   -114.68008   0.56236069   -114.11772   -8181.5035    4.2856998    4.2856998    4.2856998   -8181.5035   -13983.883   -8311.2391   -2249.3884   -4402.5977   -1479.7043    1369.6389    78.716405 
   77300    395.53705   -114.47742   0.35789023   -114.11953    3661.4326    4.2795483    4.2795483    4.2795483    3661.4326   -15001.966   -3068.3444    29054.609   -9097.3088    6136.6846   -2090.5358    78.377931 
   77400    637.63529   -114.69403   0.57694581   -114.11708    857.35456    4.2809483    4.2809483    4.2809483    857.35456    3160.2621    2280.9297   -2869.1281     904.0612    5453.5188    -5704.709    78.454879 
   77500    594.76487   -114.65395   0.53815575   -114.11579    1290.6848    4.2849088    4.2849088    4.2849088    1290.6848    -692.2019    7827.7344    -3263.478    2937.2121   -1762.5004    3922.5651    78.672824 
   77600    416.51384   -114.49526   0.37687047   -114.11839    713.33652    4.2789569    4.2789569    4.2789569    713.33652   -6891.8437    6651.2004    2380.6529    -5244.553    1956.7024    182.03092     78.34544 
   77700    457.16282   -114.53218   0.41365053   -114.11853   -1112.1478     4.282773     4.282773     4.282773   -1112.1478   -10511.747   -1498.2962    8673.6001   -6348.1243    5681.0883    2534.0717    78.555239 
   77800    663.57538   -114.71533   0.60041694   -114.11492    79.148367     4.283129     4.283129     4.283129    79.148367     -4255.88   -4281.2969     8774.622    2459.2348    969.24807    4440.8956     78.57483 
   77900    489.26554   -114.56087   0.44269774   -114.11818   -3180.9374    4.2802746    4.2802746    4.2802746   -3180.9374   -8142.0847   -12072.457     10671.73   -4777.4749    733.67574   -2307.6383    78.417843 
   78000    294.59284   -114.38659   0.26655379   -114.12003    999.38183    4.2818842    4.2818842    4.2818842    999.38183   -7565.2983   -1284.0897    11847.534    -5719.275    7951.1661   -2127.6066    78.506344 
   78100    596.08492    -114.6556   0.53935016   -114.11625   -2862.5283    4.2838909    4.2838909    4.2838909   -2862.5283   -5671.5359    4742.6032   -7658.6521    1897.3327    1413.4292   -5818.8179    78.616772 
   78200    505.51032   -114.57421   0.45739636   -114.11681    8076.4706    4.2761516    4.2761516    4.2761516    8076.4706   -510.22525    11050.113    13689.524    1910.2677   -3929.9397    7875.8102    78.191452 
   78300    247.72847   -114.34576   0.22414992   -114.12161    -3258.414    4.2857475    4.2857475    4.2857475    -3258.414   -25236.305   -6656.3398    22117.403   -6514.4128   -179.00839   -399.36764    78.719032 
   78400     476.1372   -114.54896   0.43081894   -114.11814   -6152.7162    4.2801195    4.2801195    4.2801195   -6152.7162   -14551.676   -7389.6948    3483.2222   -4489.6794    8804.8206   -98.341558    78.409319 
   78500    528.60332   -114.59398   0.47829139   -114.11569    2549.6813    4.2787297    4.2787297    4.2787297    2549.6813    -4692.333    8034.2247    4307.1523    3059.9366   -648.69188   -4168.1756    78.332962 
   78600    368.72826   -114.45169   0.33363308   -114.11806   -11493.144    4.2870272    4.2870272    4.2870272   -11493.144   -25995.036   -8713.3416    228.94417   -3821.7738   -3530.1908    1442.0788    78.789567 
   78700    215.03864   -114.31439   0.19457148   -114.11981    8779.6844     4.273794     4.273794     4.273794    8779.6844   -4582.1452    504.13818     30417.06   -3620.6214    2738.6225    -149.3721    78.062192 
   78800    441.64172   -114.51727   0.39960671   -114.11767    -5261.684    4.2863141    4.2863141    4.2863141    -5261.684   -11131.779   -7765.9544    3112.6817    1810.1063    535.50798   -6827.8704    78.750255 
   78900    488.01343   -114.55824   0.44156481   -114.11667   -7109.6407    4.2816795    4.2816795    4.2816795   -7109.6407   -21084.284   -5606.8328    5362.1944   -3057.5237   -2608.5154     2065.989    78.495085 
   79000    284.49682   -114.37606    0.2574187   -114.11864    506.57659    4.2771309    4.2771309    4.2771309    506.57659   -17527.187   -6794.9647    25841.882   -9175.6494    2043.9069    -2931.951    78.245184 
   79100    436.84476   -114.51266   0.39526632   -114.11739   -8423.9558    4.2865203    4.2865203    4.2865203   -8423.9558   -18217.339   -7754.3926    699.86455    -142.9309    7274.1236    1646.8965     78.76162 
   79200    450.85381   -114.52448     0.407942   -114.11654    2849.1744    4.2782517    4.2782517    4.2782517    2849.1744   -9985.2652     9708.898    8823.8905    3025.0534   -5556.9161   -6586.2471    78.306712 
   79300    259.08912   -114.35386   0.23442928   -114.11943    5267.3043    4.2800564    4.2800564    4.2800564    5267.3043   -15506.768    5197.5533    26111.127   -4481.2975   -5932.0052    3945.0197    78.405852 
   79400    469.09383   -114.54177   0.42444595   -114.11733   -9602.7412    4.2863159    4.2863159    4.2863159   -9602.7412   -15149.808    -5542.259   -8116.1569   -2135.9658    2772.7336   -4473.2813    78.750356 
   79500    521.98653   -114.58691   0.47230438   -114.11461   -1117.3677    4.2796255    4.2796255    4.2796255   -1117.3677    -3683.945    2962.9823   -2631.1403    399.59077    3775.3791   -7192.1458    78.382174 
   79600    461.80421   -114.53445   0.41785015    -114.1166   -1803.7304    4.2799914    4.2799914    4.2799914   -1803.7304   -21935.848    5700.7714    10823.885   -5719.0224   -3965.7423    384.65008    78.402277 
   79700    398.57701   -114.47955   0.36064086   -114.11891   -2685.9752    4.2862897    4.2862897    4.2862897   -2685.9752   -31540.071    5274.9551     18207.19   -8043.5835   -311.93139    4351.8171     78.74891 
   79800    564.06981   -114.62634   0.51038222   -114.11596    7813.4239    4.2770757    4.2770757    4.2770757    7813.4239   -1717.3712    16442.133    8715.5096    3617.2057    1878.9068    1554.3901    78.242159 
   79900    574.05639   -114.63679   0.51941829   -114.11737   -5574.8796    4.2853053    4.2853053    4.2853053   -5574.8796   -11986.589    4939.3062   -9677.3554    1557.5077   -6403.6865   -9442.5142    78.694667 
   80000    464.57448    -114.5386   0.42035675   -114.11825   -4113.4752     4.283131     4.283131     4.283131   -4113.4752   -17079.208   -7189.5883    11928.371   -8169.3398   -2435.2135    550.55999    78.574941 
   80100    647.47817   -114.70224   0.58585186   -114.11639    4778.3854    4.2772215    4.2772215    4.2772215    4778.3854   -1765.6148    374.46054     15726.31   -3232.0143    4956.2456   -4526.7623    78.250155 
   80200    648.09714    -114.7017   0.58641191   -114.11529   -4305.9847    4.2880698    4.2880698    4.2880698   -4305.9847   -11303.061   -1518.8571   -96.036251   -843.82736    516.62123    304.64463    78.847068 
   80300    423.34116   -114.50231   0.38304798   -114.11926    7873.2499    4.2751577    4.2751577    4.2751577    7873.2499   -12077.948    18573.165    17124.532   -8100.5322   -8130.4175    1340.5009    78.136944 
   80400    634.91936   -114.69312   0.57448838   -114.11863   -7375.2634    4.2856141    4.2856141    4.2856141   -7375.2634   -22286.315    4198.2049   -4037.6802   -7076.4115    -179.8417    1070.6216    78.711682 
   80500    767.08297   -114.80845   0.69407279   -114.11438     1940.498    4.2832405    4.2832405    4.2832405     1940.498   -3108.9248    8337.8239    592.59482    4980.1924    2951.9682   -4062.2661     78.58097 
   80600    639.70904   -114.69492   0.57882218   -114.11609   -2248.0493    4.2769873    4.2769873    4.2769873   -2248.0493   -5340.2629   -500.03758   -903.84735   -4569.4219     -6565.67   -10411.602    78.237307 
   80700    403.01635   -114.48462   0.36465766   -114.11997    -1977.612    4.2850885    4.2850885    4.2850885    -1977.612   -19894.606    -2914.715    16876.485   -10664.609   -3540.1808    4577.1635    78.682725 
   80800    680.01145   -114.73279   0.61528865    -114.1175    7489.1707    4.2797954    4.2797954    4.2797954    7489.1707    -6630.435    18306.586    10791.362   -835.99648    1549.6128   -1587.3634    78.391511 
   80900    711.22021   -114.76117   0.64352699   -114.11764    4278.8158    4.2780821    4.2780821    4.2780821    4278.8158    -2667.898    14458.267    1046.0782   -693.60343   -1034.4605    348.45793      78.2974 
   81000    380.77151   -114.46597   0.34453006   -114.12144   -5350.9869    4.2850801    4.2850801    4.2850801   -5350.9869    -19572.32   -8864.5898    12383.949   -8027.9559    -6531.495    -5715.159    78.682262 
   81100    575.22667   -114.63953   0.52047718   -114.11905   -5952.3675    4.2800085    4.2800085    4.2800085   -5952.3675   -15317.103   -11455.395    8915.3955   -1937.0086     885.4813    3141.8223    78.403217 
   81200    604.91946   -114.66446   0.54734384   -114.11712    12048.477    4.2772443    4.2772443    4.2772443    12048.477   -3061.7603    14848.739    24358.453    3861.7876    658.98174    2523.9329    78.251408 
   81300    430.47714   -114.51039   0.38950476   -114.12089   -8190.8373    4.2866966    4.2866966    4.2866966   -8190.8373   -18779.857    4135.4672   -9928.1217   -8424.1164   -6000.0951   -5043.1266    78.771342 
   81400    317.14372   -114.40714    0.2869583   -114.12018   -598.95857    4.2773358    4.2773358    4.2773358   -598.95857   -11373.666    1160.8751    8415.9156   -9554.1261   -6167.5087   -285.37767    78.256429 
   81500     549.3672   -114.61404   0.49707898   -114.11696   -1684.0791    4.2844791    4.2844791    4.2844791   -1684.0791   -13335.762   -6408.3481    14691.872    4614.3592    400.31859   -3845.9679    78.649162 
   81600    541.65508   -114.60662    0.4901009   -114.11652   -4344.2446    4.2817449    4.2817449    4.2817449   -4344.2446   -14999.311   -1933.3439    3899.9215    1666.4321   -4300.2458    5256.6536     78.49868 
   81700    233.07978   -114.33052   0.21089548   -114.11962    2525.9297    4.2778787    4.2778787    4.2778787    2525.9297   -20573.483    8745.3396    19405.933   -11007.857   -5884.4018     301.9344    78.286232 
   81800    341.84398   -114.42747   0.30930762   -114.11817   -4341.0845    4.2885125    4.2885125    4.2885125   -4341.0845    -22978.74    8436.8296    1518.6569   -2952.3105    3937.4241    5322.0258    78.871487 
   81900    519.76145   -114.58439   0.47029109   -114.11409    6105.8516    4.2763446    4.2763446    4.2763446    6105.8516   -4904.6522    12986.749    10235.458    2860.9962    114.08964   -287.39842    78.202042 
   82000    400.06482   -114.47852   0.36198706   -114.11653   -13500.744    4.2861818    4.2861818    4.2861818   -13500.744   -24343.099   -7270.7353   -8888.3986   -8062.1073   -6188.6687   -6912.0344    78.742966 
   82100    353.74384    -114.4371   0.32007486   -114.11703   -6532.0929    4.2822891    4.2822891    4.2822891   -6532.0929   -16166.386   -11781.117    8351.2236   -6750.2355   -6324.4894   -1146.4421    78.528615 
   82200    433.57122   -114.50809   0.39230435   -114.11579     6478.682      4.28053      4.28053      4.28053     6478.682   -9061.4074    8521.0905    19976.363    7335.6758   -44.179276    2344.0779     78.43188 
   82300    429.11675   -114.50367   0.38827385    -114.1154   -2617.3124    4.2850989    4.2850989    4.2850989   -2617.3124   -24128.891    14199.828    2077.1258    1412.2545   -3235.3776    10624.548      78.6833 
   82400    284.49711    -114.3749   0.25741897   -114.11748     3479.207    4.2794053    4.2794053    4.2794053     3479.207   -15163.936    15038.724    10562.832   -12993.345   -4688.0073   -931.06377    78.370074 
   82500     545.0752   -114.60872    0.4931955   -114.11553   -10625.361     4.285235     4.285235     4.285235   -10625.361   -14126.504   -14156.511   -3593.0673   -1120.1822    5534.2447    731.86857    78.690793 
   82600    580.68889   -114.64017   0.52541951   -114.11475    5627.4738    4.2775915    4.2775915    4.2775915    5627.4738    4676.8476    3964.0342    8241.5398     3763.491    -1861.922   -581.97653    78.270464 
   82700    445.42779   -114.52106   0.40303243   -114.11803   -9696.4735    4.2862015    4.2862015    4.2862015   -9696.4735   -16132.712    15.553372   -12972.262   -6072.6183   -7283.9678   -1990.0352    78.744049 
   82800    436.50127   -114.51341   0.39495552   -114.11845    6744.3094    4.2761963    4.2761963    4.2761963    6744.3094   -9512.4843    16600.415    13144.997   -7349.2524   -5001.2443    660.38929    78.193907 
   82900    560.46675   -114.62498    0.5071221   -114.11786    3120.1367    4.2853893    4.2853893    4.2853893    3120.1367   -5728.4455     4872.356      10216.5    4481.1458    3034.7935    2069.0163    78.699297 
   83000    613.76621   -114.67303   0.55534857   -114.11768   -269.06262    4.2781225    4.2781225    4.2781225   -269.06262   -8018.6822    13193.201   -5981.7069   -2052.0375    22.782679    9214.2867    78.299617 
   83100    473.19048   -114.54863   0.42815269   -114.12047   -4957.2744    4.2811069    4.2811069    4.2811069   -4957.2744    -15565.79   -1937.5542    2631.5211     -13498.8   -5468.4746   -3665.1824    78.463599 
   83200    663.29164   -114.71775   0.60016022   -114.11759   -6902.7695     4.285044     4.285044     4.285044   -6902.7695   -7934.3054   -7120.5036   -5653.4994   -193.31509     2373.272   -205.18458    78.680273 
   83300    625.96311   -114.68257   0.56638458   -114.11619    11917.827    4.2748695    4.2748695    4.2748695    11917.827    4190.4086    22585.904    8977.1677    8596.2904    491.71117     2435.704     78.12114 
   83400    459.71869   -114.53562   0.41596313   -114.11966    -8475.583    4.2863603    4.2863603    4.2863603    -8475.583   -19481.529    4116.7387   -10061.959   -10455.138   -3927.3712    4335.5863    78.752804 
   83500     613.9262   -114.67405   0.55549333   -114.11855   -541.66405    4.2772883    4.2772883    4.2772883   -541.66405   -4383.0276   -668.97509    3427.0105   -15456.554   -5483.0597   -126.08377    78.253825 
   83600    745.12185   -114.79088   0.67420191   -114.11667    2856.7593    4.2830835    4.2830835    4.2830835    2856.7593    1361.1288    174.23567    7034.9134     4999.724     2884.825   -3166.5072    78.572328 
   83700    668.96263   -114.72414   0.60529145   -114.11885   -213.12009    4.2793102    4.2793102    4.2793102   -213.12009    2735.4518    8453.2576    -11828.07     1415.052    2302.0985    6021.9117    78.364851 
   83800    400.30892   -114.48494   0.36220792   -114.12273    1080.8441    4.2814322    4.2814322    4.2814322    1080.8441   -7412.2102    10242.792    411.95092   -15251.643   -7142.5661    1594.7308    78.481484 
   83900    642.77059   -114.70072   0.58159234   -114.11912    5020.9572    4.2813697    4.2813697    4.2813697    5020.9572   -5437.5091     11591.85    8908.5308   -8111.6835    1062.4791    4960.9928    78.478048 
   84000    760.10608   -114.80482   0.68775996   -114.11706    7451.1499    4.2786428    4.2786428    4.2786428    7451.1499     6235.587    10713.276    5404.5871    5262.4403   -396.24713   -954.15797     78.32819 
   84100    457.79626   -114.53441   0.41422368   -114.12019    -11937.48    4.2874496    4.2874496    4.2874496    -11937.48   -13830.739   -11261.001   -10720.699   -10085.446    434.12995    1212.4018    78.812857 
   84200    576.20886   -114.63982   0.52136588   -114.11845   -167.94396    4.2748613    4.2748613    4.2748613   -167.94396   -4566.2145     3125.364    937.01867   -14393.085   -5049.1222   -2221.7121    78.120693 
   84300    737.40872   -114.78295   0.66722291   -114.11572   -828.86505    4.2874514    4.2874514    4.2874514   -828.86505   -2610.2372    3521.8271   -3398.1851    4992.8547    53.662676   -139.86192    78.812958 
   84400     564.0383   -114.62862   0.51035371   -114.11826    4233.4449    4.2788421    4.2788421    4.2788421    4233.4449    -3841.497    16472.347    69.485169   -3120.0353    1559.3491    6618.7691    78.339137 
   84500    278.34147   -114.37464   0.25184921    -114.1228   -218.50093    4.2819674    4.2819674    4.2819674   -218.50093   -13564.213    233.05038     12675.66   -16771.008   -4892.0796    4769.9284    78.510921 
   84600    569.99314   -114.63207   0.51574177   -114.11633   -1099.0752    4.2857262    4.2857262    4.2857262   -1099.0752    -6377.013   -4635.9214    7715.7089   -6146.6382    3218.8943     3214.285    78.717858 
   84700     715.5705   -114.76113   0.64746323   -114.11366    5442.2454    4.2771211    4.2771211    4.2771211    5442.2454    9440.3945   -2006.3792     8892.721    3254.3248    2487.9337   -3840.6658    78.244647 
   84800    344.40667   -114.43143    0.3116264    -114.1198    -9729.319    4.2859038    4.2859038    4.2859038    -9729.319   -5329.8491   -16758.562   -7099.5457   -13278.975   -2701.9586    89.704716    78.727643 
   84900    427.02154    -114.5062   0.38637806   -114.11982   -4726.9937    4.2794526    4.2794526    4.2794526   -4726.9937    -15966.56    4220.5864   -2435.0076   -9023.6624    -9246.119   -680.77612    78.372672 
   85000    639.41053   -114.69395   0.57855209    -114.1154   -2006.6295     4.285206     4.285206     4.285206   -2006.6295   -8303.0956   -2555.0384    4838.2456    5879.7309   -243.10954    1914.9854    78.689194 
   85100    412.66857   -114.49073    0.3733912   -114.11734     6550.541    4.2795439    4.2795439    4.2795439     6550.541    9532.3723   -4757.2684    14876.519   -11067.951    5823.2053     4096.285    78.377689 
   85200    177.88948   -114.28183   0.16095814   -114.12087    -1378.341    4.2847808    4.2847808    4.2847808    -1378.341    -3562.792   -14873.786    14301.555   -15801.954   -79.481447     3404.832    78.665777 
   85300    407.03691   -114.48506   0.36829555   -114.11676    1674.6539    4.2811883    4.2811883    4.2811883    1674.6539     6664.923   -10076.109    8435.1481    2875.6634     294.9749    1330.2656    78.468076 
   85400    605.51882   -114.66316   0.54788616   -114.11527    -1264.371    4.2806094    4.2806094    4.2806094    -1264.371    2503.5605    -13231.67    6934.9965    3745.8915   -2166.4019   -4433.8712    78.436246 
   85500    384.73547   -114.46518   0.34811674   -114.11707   -16018.026     4.288799     4.288799     4.288799   -16018.026   -15803.306   -26524.333   -5726.4409    -14987.35   -2792.8102    1329.3008    78.887299 
   85600    376.84311   -114.45696   0.34097557   -114.11599    4174.4671    4.2742417    4.2742417    4.2742417    4174.4671    7273.8924    647.96528    4601.5436   -5347.5376   -8196.3262   -1369.5454    78.086729 
   85700    438.78418   -114.51181   0.39702115   -114.11479   -4346.4057    4.2899342    4.2899342    4.2899342   -4346.4057    952.80035   -15316.729    1324.7113    5428.4809    1320.4422    1768.0277    78.949954 
   85800    332.16562   -114.41575   0.30055044    -114.1152    12065.416    4.2771202    4.2771202    4.2771202    12065.416    21530.789   -16736.623    31402.083   -11229.829    9297.4985    2200.8942    78.244598 
   85900    353.30905   -114.43739   0.31968146   -114.11771   -5074.3634     4.282808     4.282808     4.282808   -5074.3634   -18319.613   -15950.878    19047.402   -11921.539   -1421.4816    3551.6705     78.55717 
   86000    453.80729   -114.52662   0.41061437     -114.116   -3652.4445    4.2822926    4.2822926    4.2822926   -3652.4445   -12864.194   -1227.4954    3134.3563    7820.2877   -7755.9485    344.01958     78.52881 
   86100     535.0512   -114.59955   0.48412557   -114.11542   -7456.9453    4.2827967    4.2827967    4.2827967   -7456.9453   -400.64818   -20456.124   -1514.0635   -1235.4813    -5406.551    -4508.716    78.556544 
   86200       462.77   -114.53502   0.41872402   -114.11629   -1442.0268    4.2808124    4.2808124    4.2808124   -1442.0268    1802.6429   -18402.579    12273.856   -15586.065     2854.281    780.44041    78.447405 
   86300    468.81572   -114.54127   0.42419432   -114.11708    1650.0404     4.279858     4.279858     4.279858    1650.0404   -2249.8994   -1085.4962    8285.5167    615.32513   -2332.4925   -1939.4607    78.394948 
   86400    427.09835   -114.50504   0.38644757   -114.11859   -5935.2576    4.2855508    4.2855508    4.2855508   -5935.2576   -16335.866   -11775.763    10305.856    3740.5523   -989.79465    2277.8981    78.708194 
   86500    518.18878   -114.58603   0.46886809   -114.11716    10739.392    4.2737176    4.2737176    4.2737176    10739.392    5172.3788   -3105.1878    30150.984   -8513.8792   -547.98924   -1035.1306    78.058008 
   86600    659.29747   -114.71247   0.59654621   -114.11592   -11296.355    4.2888352    4.2888352    4.2888352   -11296.355   -8572.0185   -10335.762   -14981.286   -3724.4279   -3993.2918    4233.8671    78.889294 
   86700    485.07894    -114.5567   0.43890962   -114.11779     5029.148    4.2753325    4.2753325    4.2753325     5029.148    5135.3287     9449.603    502.51229    9245.5923   -5011.8787    -2601.747    78.146531 
   86800    506.19023   -114.57742   0.45801155   -114.11941    792.35074    4.2821117    4.2821117    4.2821117    792.35074   -1867.0621   -7903.1808    12147.295   -3438.7814    483.14417   -2434.2892    78.518858 
   86900    689.79711      -114.74   0.62414293   -114.11586    1315.3848    4.2835608    4.2835608    4.2835608    1315.3848    -4958.068   -5599.1866    14503.409   -10485.024    2234.7746   -2736.6363    78.598599 
   87000    561.13114   -114.62496   0.50772325   -114.11724    5575.1216    4.2749336    4.2749336    4.2749336    5575.1216   -649.62356    10211.449    7163.5394    7209.0605    -10231.86    674.56019    78.124659 
   87100    511.46741   -114.58282   0.46278646   -114.12003   -9699.0692    4.2857692    4.2857692    4.2857692   -9699.0692    -9572.966   -3273.9586   -16250.283    6918.6976   -3531.2294    1273.8373    78.720226 
   87200    624.16562    -114.6827   0.56475817   -114.11795    6820.4933    4.2791824    4.2791824    4.2791824    6820.4933    8737.7586   -315.09805     12038.82   -6353.7651    3679.9259   -2225.7035    78.357831 
   87300     673.1346   -114.72572   0.60906634   -114.11665    3198.9601    4.2794639    4.2794639    4.2794639    3198.9601    1688.0776    2188.3405    5720.4622   -1160.5059    676.47592    1750.0926    78.373297 
   87400    500.74346   -114.57318   0.45308321    -114.1201    -5576.398    4.2827893    4.2827893    4.2827893    -5576.398   -15893.341    541.45402   -1377.3067    8008.1457   -9492.8317   -2172.1452     78.55614 
   87500    484.40085    -114.5581   0.43829607    -114.1198    2168.6135    4.2807141    4.2807141    4.2807141    2168.6135    678.64752   -5880.3547    11707.548   -1693.4664   -4323.5823    332.19904       78.442 
   87600    753.58272   -114.79825   0.68185748   -114.11639    3221.8806    4.2776673    4.2776673    4.2776673    3221.8806    18238.416    132.01025   -8704.7849   -6248.2464     2046.417   -4305.5161     78.27463 
   87700    519.94185   -114.58983   0.47045432   -114.11938   -3992.4183    4.2851912    4.2851912    4.2851912   -3992.4183    5457.2985   -3971.9065   -13462.647    5866.5734   -3068.5153    2305.6883     78.68838 
   87800    383.74939   -114.46725   0.34722451   -114.12002   -1932.8948    4.2800194    4.2800194    4.2800194   -1932.8948   -9900.7296   -4153.4919    8255.5372    3424.4595   -1670.4418   -1619.8435     78.40382 
   87900     612.4163   -114.67058   0.55412713   -114.11645    3436.8756    4.2777719    4.2777719    4.2777719    3436.8756    6239.0298   -7227.4694    11299.067   -1264.7869   -620.03551    322.03273    78.280369 
   88000    539.87091   -114.60553   0.48848654   -114.11705   -2629.6161    4.2862976    4.2862976    4.2862976   -2629.6161    4957.3421   -2672.4483   -10173.742    1385.2101    -4392.411    563.16957    78.749348 
   88100    426.52345    -114.5046   0.38592738   -114.11867   -1609.4605    4.2758564    4.2758564    4.2758564   -1609.4605    3788.2493   -143.48519   -8473.1457    4746.6836   -8983.1723    278.62567    78.175259 
   88200    412.51834   -114.49244   0.37325526   -114.11919   -4158.7989    4.2839284    4.2839284    4.2839284   -4158.7989    1040.3787   -13246.823   -269.95221   -838.50162    2371.0383   -2371.9468    78.618837 
   88300    530.72821   -114.59622   0.48021404     -114.116    3849.7176    4.2811851    4.2811851    4.2811851    3849.7176    10064.658   -1039.1332    2523.6283     -3956.85    4308.9841   -3998.1123    78.467898 
   88400    432.47994   -114.50935   0.39131694   -114.11803   -1278.8276    4.2792385    4.2792385    4.2792385   -1278.8276   -6694.5029   -2722.8407    5580.8609    9740.3971   -4905.7475    2937.6375    78.360912 
   88500    315.59544   -114.40446   0.28555739    -114.1189   -3190.3128    4.2820355    4.2820355    4.2820355   -3190.3128   -8695.9302   -6644.6035    5769.5951    42.082127   -7677.1704   -2491.5525    78.514665 
   88600    555.28954   -114.61895   0.50243765   -114.11651   -4148.4945    4.2809437    4.2809437    4.2809437   -4148.4945    9817.3456   -9148.9051   -13113.924    -2919.482    221.68993    2461.0631    78.454624 
   88700    418.29622   -114.49564   0.37848321   -114.11716    1333.9983    4.2814428    4.2814428    4.2814428    1333.9983     16453.25   -6681.1438   -5770.1115    3698.0687    1744.4961    -372.6386    78.482067 
   88800    325.89923   -114.41359   0.29488047   -114.11871    517.35851    4.2783593    4.2783593    4.2783593    517.35851   -11046.562   -3958.2035    16556.841    3784.3909   -4906.6427    22.034475    78.312621 
   88900    458.37453   -114.53241   0.41474691   -114.11766   -8711.0036    4.2841426    4.2841426    4.2841426   -8711.0036   -15963.724   -11505.408    1336.1213    308.40239   -1650.1139    -5771.588    78.630629 
   89000    466.88935   -114.53909   0.42245129   -114.11664     3746.685    4.2792218    4.2792218    4.2792218     3746.685    18886.556   -7099.0713   -547.42986    -2777.926   -1644.4879   -2606.0516    78.359993 
   89100    436.32356   -114.51286   0.39479473   -114.11807   -6017.8669    4.2809783    4.2809783    4.2809783   -6017.8669   -5472.3893   -4432.4095   -8148.8019    8071.6773   -3663.5509    4028.7968    78.456528 
   89200    365.42058   -114.44955   0.33064022   -114.11891   -1941.6125    4.2816073    4.2816073    4.2816073   -1941.6125   -8869.5533   -4687.4682    7732.1841   -610.99131   -2113.2512    22.548785    78.491112 
   89300    532.68221   -114.59888   0.48198206   -114.11689    719.40932    4.2808713    4.2808713    4.2808713    719.40932    2931.8809   -9772.8041    8999.1512    -1609.788    2711.4097    1981.9789    78.450642 
   89400    478.19732   -114.55043   0.43268298   -114.11775    579.55878    4.2806959    4.2806959    4.2806959    579.55878   -2918.7617   -2411.1778    7068.6159    6809.2437   -2558.6377   -520.60789       78.441 
   89500    406.99826   -114.48706   0.36826057   -114.11879   -3281.1679     4.281127     4.281127     4.281127   -3281.1679   -16649.753   -1408.4116     8214.661    3385.2937   -7582.0906    1356.7688    78.464704 
   89600    622.72785   -114.68071   0.56345725   -114.11725   -4685.0445    4.2820374    4.2820374    4.2820374   -4685.0445   -4225.9964   -652.36966   -9176.7674   -1533.0789   -217.39667    -4321.316     78.51477 
   89700    552.27339    -114.6168   0.49970857   -114.11709    9772.2033    4.2789148    4.2789148    4.2789148    9772.2033    17557.265    4627.9258    7131.4195    -1161.451    3847.8448    3889.0623    78.343129 
   89800    412.26205   -114.49293   0.37302337    -114.1199   -3178.0019    4.2830398    4.2830398    4.2830398   -3178.0019   -16187.648   -7019.2095    13672.852    8488.7654    -1785.373    4141.7971    78.569922 
   89900    539.08424   -114.60654   0.48777475   -114.11877   -2893.4973    4.2796608    4.2796608    4.2796608   -2893.4973   -23037.329    2469.7874     11887.05   -2928.2447   -5788.7641    2282.7488    78.384115 
   90000    714.89124    -114.7634   0.64684862   -114.11656    3807.7303    4.2814969    4.2814969    4.2814969    3807.7303    4384.3985    2443.0935    4595.6988   -1405.9373   -74.767848    24.516967    78.485041 
   90100    603.42121   -114.66453   0.54598819   -114.11855   -6564.1131    4.2828379    4.2828379    4.2828379   -6564.1131   -1543.5481   -11279.619   -6869.1723    6009.3868   -2573.4811   -860.51965    78.558812 
   90200     399.4901   -114.48187   0.36146704    -114.1204    634.07484    4.2768798    4.2768798    4.2768798    634.07484   -9514.9606   -74.640741    11491.826    774.08688   -3571.2568    2455.7306    78.231404 
   90300    650.18748   -114.70696    0.5883033   -114.11866    316.00595    4.2863605    4.2863605    4.2863605    316.00595   -10672.811     298.3416    11322.487   -1592.1855    2225.8517   -3374.5232    78.752814 
   90400    716.35003   -114.76468   0.64816856   -114.11651    7166.0928    4.2775987    4.2775987    4.2775987    7166.0928    4499.0344    198.03881    16801.205    1959.7951    3316.8392     5125.009     78.27086 
   90500    404.10604   -114.48595   0.36564364   -114.12031   -3719.4637    4.2794079    4.2794079    4.2794079   -3719.4637   -12197.867   -7286.5285     8326.004    7184.9325   -6431.7179    1136.9839     78.37022 
   90600    569.35267   -114.63497   0.51516226   -114.11981   -10645.872    4.2860156    4.2860156    4.2860156   -10645.872    -10891.08   -9117.4551    -11929.08   -5582.3299   -7256.6214    2062.4109    78.733803 
   90700    691.76113   -114.74183   0.62592001   -114.11591    14523.432    4.2761338    4.2761338    4.2761338    14523.432    15469.525    9449.0221    18651.749   -72.021937    3884.7213   -2483.8964    78.190478 
   90800    521.05117   -114.59035   0.47145805   -114.11889   -2040.2801    4.2815877    4.2815877    4.2815877   -2040.2801   -6192.9359   -13695.774    13767.869     11286.92    3097.8285    1475.7532    78.490038 
   90900    329.99699   -114.42016   0.29858821   -114.12158   -8110.2753    4.2838716    4.2838716    4.2838716   -8110.2753   -13935.454   -19149.317    8753.9456   -4025.4057    -3313.073    187.35791     78.61571 
   91000    584.64022   -114.64692   0.52899476   -114.11793    6017.9545    4.2772724    4.2772724    4.2772724    6017.9545   -523.65558    3714.4541    14863.065   -3939.5157    -6152.589   -1305.2644    78.252954 
   91100    675.65442   -114.72788   0.61134632   -114.11653   -1197.8089    4.2811566    4.2811566    4.2811566   -1197.8089    3945.8378   -6853.0066   -686.25775    4242.4506    885.79948    2092.9715    78.466331 
   91200    323.14841   -114.41342   0.29239148   -114.12103    -8059.458    4.2839313    4.2839313    4.2839313    -8059.458   -3902.4832   -22947.255    2671.3642    3225.8001   -1193.1392    375.72334    78.618993 
   91300    334.19702   -114.42255   0.30238848   -114.12017    4406.1727     4.277815     4.277815     4.277815    4406.1727   -1902.3676   -9945.1241     25066.01   -7223.2785   -487.40173    3178.8505    78.282734 
   91400    546.42403   -114.61134   0.49441594   -114.11693    4086.1094    4.2816618    4.2816618    4.2816618    4086.1094    4656.7487   -2868.1343    10469.714    856.36847   -322.91216   -6113.5248    78.494114 
   91500    492.69487   -114.56387   0.44580067   -114.11807   -6571.9254    4.2813461    4.2813461    4.2813461   -6571.9254   -9840.6888   -16158.463    6283.3754    13043.943   -2447.4202    2342.4733    78.476752 
   91600    347.51503   -114.43466    0.3144389   -114.12022   -4446.0429    4.2795994    4.2795994    4.2795994   -4446.0429    1250.8497   -16348.181     1759.203   -5068.4611   -3296.1213   -516.22339    78.380737 
   91700    437.58764   -114.51462   0.39593849   -114.11868   -847.72637    4.2832467    4.2832467    4.2832467   -847.72637    2945.7487   -6297.0923    808.16453   -3559.2696   -1373.2822   -28.633587    78.581311 
   91800    460.22528   -114.53358   0.41642151   -114.11716     5934.356    4.2780042    4.2780042    4.2780042     5934.356    211.06171   -1222.8238     18814.83    5091.3851    4410.2367   -1727.2473    78.293121 
   91900    394.00846   -114.47576   0.35650714   -114.11925   -1428.1268    4.2824608    4.2824608    4.2824608   -1428.1268   -7627.8524   -15126.968     18470.44    1664.7568   -3032.0573       3777.1    78.538062 
   92000    465.89942   -114.53935   0.42155559   -114.11779   -5721.9161    4.2825721    4.2825721    4.2825721   -5721.9161   -8560.9022   -6703.8887   -1900.9575   -6304.1158   -4354.9165   -150.60508    78.544186 
   92100    536.46609   -114.60199   0.48540579   -114.11659    138.35904    4.2780936    4.2780936    4.2780936    138.35904    1268.4916    8269.4913   -9122.9058     2489.403   -2800.0451   -6778.9012    78.298034 
   92200    609.94292    -114.6685   0.55188917   -114.11661    -7543.918     4.284018     4.284018     4.284018    -7543.918   -13824.398    -11818.57     3011.214    10315.522    2961.3307    44.506693     78.62377 
   92300    430.00039   -114.50705   0.38907339   -114.11797    7454.1747    4.2801606    4.2801606    4.2801606    7454.1747    -1270.199    285.39298     23347.33   -8108.1448   -388.48479    3058.9067    78.411577 
   92400    464.84758   -114.53896   0.42060386   -114.11836    1877.3185    4.2806014    4.2806014    4.2806014    1877.3185   -3367.9621     5549.253    3450.6646   -2390.3196   -2423.0505    3095.2846    78.435804 
   92500    607.48744   -114.66657   0.54966741   -114.11691   -2338.2278    4.2813863    4.2813863    4.2813863   -2338.2278   -4285.5403    3816.2558   -6545.3988    2936.7077    683.08377   -6595.9234    78.478963 
   92600    638.52641   -114.69436   0.57775211    -114.1166   -3375.5687     4.283711     4.283711     4.283711   -3375.5687   -11528.883    4353.0037   -2950.8267   -4953.4848    -2026.263    1306.2048    78.606867 
   92700    640.71401   -114.69643    0.5797315    -114.1167   -1889.4295    4.2780241    4.2780241    4.2780241   -1889.4295   -6926.1399    3922.9882   -2665.1368   -2284.5471   -5363.4495   -2481.1453    78.294214 
   92800    487.37716   -114.55922    0.4409891   -114.11823    504.35335    4.2834256    4.2834256    4.2834256    504.35335   -2433.9777    2033.2272    1913.8106    3450.2045   -2706.5223   -5256.2491    78.591158 
   92900    572.70988    -114.6354   0.51819993    -114.1172    3396.1385    4.2824805    4.2824805    4.2824805    3396.1385   -12530.813    3634.1799    19085.049    4935.1385    5595.2517      1267.82    78.539145 
   93000    584.23947   -114.64529   0.52863215   -114.11665    8747.5096    4.2777349    4.2777349    4.2777349    8747.5096    4124.9792    11113.561    11003.989   -10471.278    1647.6127    4387.9526    78.278336 
   93100    562.77056   -114.62638   0.50920663   -114.11717   -6483.1153    4.2848382    4.2848382    4.2848382   -6483.1153   -1489.1729    4088.6547   -22048.828   -1089.6404   -5979.4879   -1016.4489    78.668937 
   93200    547.32005    -114.6116   0.49522668   -114.11637   -5891.9727    4.2820984    4.2820984    4.2820984   -5891.9727   -6319.2016   -4609.1399   -6747.5767    4337.0447   -4553.2226   -8751.8902    78.518128 
   93300    499.61355   -114.56883   0.45206084   -114.11677     8776.181    4.2780761    4.2780761    4.2780761     8776.181   -7946.3385    7811.7591    26463.122   -6451.3708    865.91433   -45.041253    78.297074 
   93400     524.5393   -114.59081   0.47461418    -114.1162   -4457.0542    4.2852081    4.2852081    4.2852081   -4457.0542   -14386.513   -11397.059    12412.409   -1360.7088   -1790.4574   -131.40615    78.689312 
   93500    398.85944   -114.47864    0.3608964   -114.11775   -2362.3419    4.2786465    4.2786465    4.2786465   -2362.3419    156.97524   -9741.4605    2497.4595    2464.7682   -3474.9851   -1573.4126    78.328395 
   93600    419.94009   -114.49872   0.37997062   -114.11875    -3380.872    4.2820207    4.2820207    4.2820207    -3380.872   -7762.2038   -4957.5151    2577.1028   -268.15228    2953.0894   -1508.1554    78.513855 
   93700     508.0428   -114.57591    0.4596878   -114.11622   -2878.4886    4.2829522    4.2829522    4.2829522   -2878.4886    -4956.611   -4313.9554     635.1005   -9826.1783    213.20025    944.20289    78.565101 
   93800    419.18192   -114.49567   0.37928461   -114.11638   -164.24528    4.2780248    4.2780248    4.2780248   -164.24528    1935.4127   -12937.299     10509.15    289.71864   -10137.855   -4968.4565    78.294256 
   93900    287.08816   -114.37871    0.2597634   -114.11894   -5098.6121    4.2843388    4.2843388    4.2843388   -5098.6121   -9449.4623   -23529.114     17682.74    220.89043   -6527.9418   -7021.1625    78.641433 
   94000    349.55125   -114.43398   0.31628132    -114.1177    4734.9852    4.2801379    4.2801379    4.2801379    4734.9852   -11106.019    396.05966    24914.915   -9728.5313    3960.8239    1008.4534    78.410331 
   94100    575.67795   -114.63656   0.52088551   -114.11567   -4183.9394    4.2783277    4.2783277    4.2783277   -4183.9394    -3158.944   -10861.269    1468.3946    1546.3678   -586.01717    897.56713    78.310888 
   94200    416.43989   -114.49479   0.37680357   -114.11799   -10313.616    4.2846876    4.2846876    4.2846876   -10313.616   -7985.6395   -19374.596   -3580.6134    636.80633   -7606.8814   -2127.6566    78.660644 
   94300    296.18873   -114.38779   0.26799779    -114.1198    448.31401     4.279968     4.279968     4.279968    448.31401   -11119.559   -12952.024    25416.525   -5301.1072   -1722.5345   -1581.8666    78.400994 
   94400    401.32858    -114.4807   0.36313053   -114.11757    10832.334    4.2780585    4.2780585    4.2780585    10832.334   -383.34725   -492.88299    33373.231   -5140.1571    144.92621    1322.6204    78.296105 
   94500    546.17882   -114.61076   0.49419407   -114.11656   -7654.4847      4.28455      4.28455      4.28455   -7654.4847   -11301.692   -12594.199    932.43746    1293.4643   -9793.7536   -2444.9814    78.653065 
   94600    419.79892   -114.49905   0.37984289   -114.11921   -6674.9015    4.2777636    4.2777636    4.2777636   -6674.9015   -8979.1058   -14976.872    3931.2735   -4429.5009   -5357.3355    -6058.766    78.279917 
   94700    442.54976    -114.5205   0.40042832   -114.12007   -1116.4489    4.2815481    4.2815481    4.2815481   -1116.4489   -12916.142    345.65732    9221.1382   -9615.7173    2959.4975   -3077.0286    78.487857 
   94800    614.90904   -114.67358   0.55638262    -114.1172   -1205.1461    4.2838159    4.2838159    4.2838159   -1205.1461   -12469.938   -3728.4034    12582.903    3712.5297   -1013.1234    7331.2202    78.612644 
   94900    437.02826   -114.51297   0.39543235   -114.11754    7034.8024    4.2766446    4.2766446    4.2766446    7034.8024   -11068.418     7007.552    25165.273   -340.68607   -11133.179   -414.47916    78.218501 
   95000    446.63645   -114.52342   0.40412605    -114.1193   -7499.8992    4.2849595    4.2849595    4.2849595   -7499.8992   -22462.922   -7109.5112    7072.7358   -7970.7126    -3434.647   -330.76895    78.675616 
   95100    630.44094   -114.68724   0.57043621   -114.11681    3342.5483    4.2784435    4.2784435    4.2784435    3342.5483    -1400.418    9346.3502    2081.7126   -2883.7084    642.33647    -3161.117    78.317243 
   95200    673.38277   -114.72578   0.60929089   -114.11649   -1319.1283    4.2819351    4.2819351    4.2819351   -1319.1283   -11170.028    7886.0544   -673.41124    863.60846   -5901.2145    565.69579    78.509145 
   95300    523.02768   -114.59141   0.47324643   -114.11816   -4294.2018    4.2832814    4.2832814    4.2832814   -4294.2018    -24802.87   -1046.5745     12966.84     -9272.96   -2700.9545   -1539.1639    78.583219 
   95400     474.9503   -114.54791   0.42974501   -114.11817    7636.4385    4.2778886    4.2778886    4.2778886    7636.4385   -13432.099    9660.8473    26680.567   -7752.5351    1742.9341   -2632.5197    78.286777 
   95500    700.39206   -114.74979   0.63372945   -114.11606   -1074.5201    4.2825007    4.2825007    4.2825007   -1074.5201   -12405.088    6670.4304    2511.0975    5064.5174   -4457.7498    9180.0211    78.540258 
   95600    597.42093   -114.65787   0.54055901   -114.11731   -1695.9723    4.2821673    4.2821673    4.2821673   -1695.9723   -15522.361    18067.673   -7633.2281   -2585.6727   -10683.171   -1947.7224    78.521918 
   95700    556.45017   -114.62174   0.50348781   -114.11826   -3050.0668     4.278774     4.278774     4.278774   -3050.0668    -11511.42   -3664.8211    6026.0412   -7755.1799    755.75413   -3956.9209    78.335399 
   95800    591.25412   -114.65281   0.53497916   -114.11783    1120.1302    4.2812034    4.2812034    4.2812034    1120.1302   -4761.2893   -2380.5501     10502.23   -224.15668    3473.6364   -3995.9668    78.468903 
   95900    521.64768   -114.58986   0.47199778   -114.11787    5045.3292    4.2832005    4.2832005    4.2832005    5045.3292   -8997.7475    15256.241    8877.4941    366.76873   -4908.0886    7987.4224    78.578768 
   96000    532.51251   -114.60003   0.48182851   -114.11821    2841.6193    4.2772329    4.2772329    4.2772329    2841.6193     -15006.7    7441.2519    16090.306   -12197.022   -6872.6495    508.23865    78.250783 
   96100    535.98563   -114.60208   0.48497107   -114.11711   -5953.4635    4.2836111    4.2836111    4.2836111   -5953.4635   -13304.109   -4064.4184   -491.86288   -3534.8769    1128.4134   -4808.1072    78.601371 
   96200    598.16685    -114.6581   0.54123394   -114.11686   -3543.5497    4.2800883    4.2800883    4.2800883   -3543.5497   -1566.3247   -2744.2979   -6320.0266    6927.2115    -3362.324    3813.7105    78.407605 
   96300    453.43243   -114.52903   0.41027519   -114.11876    4098.3683    4.2792605    4.2792605    4.2792605    4098.3683   -7934.1592    13153.401    7075.8627   -3280.7349   -8089.4415    552.47066     78.36212 
   96400    395.10009   -114.47649   0.35749487   -114.11899   -2634.1921    4.2831828    4.2831828    4.2831828   -2634.1921   -11755.061   -14913.692    18766.176   -7431.8719   -630.12729   -150.78695    78.577796 
   96500    473.50843   -114.54547   0.42844037   -114.11703   -1020.3545    4.2779309    4.2779309    4.2779309   -1020.3545    3378.7387   -14035.664     7595.862   -2024.3563    3483.0415   -5390.1881    78.289101 
   96600    415.83985   -114.49465   0.37626064   -114.11839   -2011.7375    4.2830273    4.2830273    4.2830273   -2011.7375   -3170.2295    11747.101   -14612.084    2227.3327   -6213.9741    8281.7697    78.569234 
   96700    411.40357   -114.49061    0.3722466   -114.11836   -1768.4014    4.2789048    4.2789048    4.2789048   -1768.4014   -8359.9349   -5853.3304     8908.061   -10742.471   -9692.7042   -1315.0167     78.34258 
   96800    430.86495   -114.50724   0.38985567   -114.11738   -4918.4969    4.2806727    4.2806727    4.2806727   -4918.4969   -2637.1061   -21415.828    9297.4436   -1370.1514    2913.9788   -4304.4888    78.439728 
   96900    386.58333   -114.46764   0.34978872   -114.11785   -526.08157    4.2818142    4.2818142    4.2818142   -526.08157    643.71098   -7192.6778    4970.7221    5474.8832   -1499.0034    3615.8068    78.502496 
   97000    270.71678   -114.36439   0.24495023   -114.11944     6024.191    4.2780559    4.2780559    4.2780559     6024.191   -89.606921    7885.1446    10277.035   -4866.2563   -7307.5787     6490.458    78.295961 
   97100    408.69143   -114.48805   0.36979259   -114.11826   -8594.3645    4.2817437    4.2817437    4.2817437   -8594.3645   -4187.2505   -19591.137   -2004.7059   -5812.1256   -5193.0572   -853.50821    78.498616 
   97200    507.09982   -114.57554   0.45883458    -114.1167   -6587.1461    4.2811729    4.2811729    4.2811729   -6587.1461    2452.5478   -19572.225    -2641.761   -1875.0967    3245.3409   -5746.0021    78.467225 
   97300    266.80298   -114.36038   0.24140895   -114.11897    3964.5002    4.2804906    4.2804906    4.2804906    3964.5002    3251.8511    2604.6502    6036.9994    2358.0947   -7666.3259    7740.2893    78.429718 
   97400     328.8613    -114.4175   0.29756061   -114.11994   -3228.5408    4.2775983    4.2775983    4.2775983   -3228.5408   -9698.0395     -9066.64     9079.057   -9709.7211   -9378.7484    3775.0809    78.270841 
   97500    440.86823   -114.51783   0.39890684   -114.11892   -7752.7306    4.2843964    4.2843964    4.2843964   -7752.7306   -2809.5899   -16498.193   -3950.4091   -1782.3061     3428.956   -2835.6304    78.644606 
   97600    546.94052   -114.61209   0.49488327   -114.11721   -1487.7501     4.279113     4.279113     4.279113   -1487.7501    8781.9417   -3074.4749   -10170.717    4106.7194    -2323.905   -818.16375    78.354016 
   97700    317.88928   -114.40745    0.2876329   -114.11982   -664.14912     4.279371     4.279371     4.279371   -664.14912   -5912.2166    6352.4027   -2432.6334   -5224.6408    -12783.41     5699.695     78.36819 
   97800    380.09377   -114.46421   0.34391683   -114.12029   -5611.3234     4.283598     4.283598     4.283598   -5611.3234   -9109.2637   -11313.387    3588.6803   -1929.4894   -7227.1586    868.84382    78.600648 
   97900    644.52221   -114.69981   0.58317724   -114.11663     2435.706    4.2780847    4.2780847    4.2780847     2435.706    2580.1909   -5750.2812    10477.208   -2488.2158     7030.442   -2544.3807    78.297541 
   98000    427.79374   -114.50628   0.38707677    -114.1192    5540.9285    4.2814697    4.2814697    4.2814697    5540.9285    876.57648    16937.237   -1191.0279    883.20923   -6398.2538    6501.8573    78.483549 
   98100    457.07334   -114.53372   0.41356956   -114.12015   -9574.2464    4.2823602    4.2823602    4.2823602   -9574.2464   -9931.1208   -2475.2423   -16316.376   -9441.7923   -10314.619    1451.2307    78.532528 
   98200    618.65835   -114.67738   0.55977508   -114.11761   -803.17437    4.2814908    4.2814908    4.2814908   -803.17437   -1570.9091   -1881.2512    1042.6371    -1521.911    1261.8806   -4769.5815    78.484706 
   98300    610.32226   -114.66861   0.55223241   -114.11638    8709.2398    4.2802963    4.2802963    4.2802963    8709.2398    7075.1719    4217.5167    14835.031    3894.7108    -4586.038   -1354.8831    78.419039 
   98400    440.94658    -114.5188   0.39897774   -114.11982   -2162.0141    4.2814613    4.2814613    4.2814613   -2162.0141    -10934.03    2409.3375    2038.6503   -4379.2184   -13212.583    8939.5288    78.483085 
   98500    500.29223   -114.57226   0.45267492   -114.11959    -3668.565    4.2823578    4.2823578    4.2823578    -3668.565   -14787.063    10269.307   -6487.9397   -2279.7155   -2303.8446    5124.7306    78.532397 
   98600    815.14906   -114.85252     0.737564   -114.11496   -1919.7704    4.2818412    4.2818412    4.2818412   -1919.7704    -7498.508    11023.052    -9283.855   -2343.1578    9376.4165   -3171.8016    78.503981 
   98700    563.04418   -114.62687    0.5094542   -114.11742    600.68168    4.2821887    4.2821887    4.2821887    600.68168   -5442.9112    10821.144   -3576.1872   -1070.4876   -9825.2563    79.073957    78.523094 
   98800    452.13475   -114.52839   0.40910102   -114.11929   -488.07428    4.2802085    4.2802085    4.2802085   -488.07428    -12200.74    1834.0158     8902.501   -9987.9473   -11205.349    626.13029    78.414209 
   98900    635.73337    -114.6923   0.57522492   -114.11708     1063.641    4.2848761    4.2848761    4.2848761     1063.641   -4444.2484   -597.19105    8232.3624   -1019.3858    2104.7135   -1007.2105    78.671027 
   99000    672.50892   -114.72434    0.6085002   -114.11584    8471.3391    4.2782575    4.2782575    4.2782575    8471.3391    10428.212    5919.4832    9066.3217    6328.3739   -2883.0221    3030.2638    78.307033 
   99100    523.16819   -114.59165   0.47337357   -114.11827   -6249.9307    4.2839959    4.2839959    4.2839959   -6249.9307    -9840.405    4917.3224   -13826.709   -3623.5718   -10138.268    6624.0132    78.622554 
   99200    547.92438   -114.61255    0.4957735   -114.11678   -3638.9226    4.2844027    4.2844027    4.2844027   -3638.9226   -17335.989    10808.851     -4389.63   -3813.5146    2429.7861    923.82809    78.644954 
   99300    712.13992   -114.75817   0.64435917   -114.11381    8632.5739    4.2764818    4.2764818    4.2764818    8632.5739   -883.66403    13032.598    13748.788   -2462.0123    9265.9185   -5163.0729    78.209569 
   99400    478.78356    -114.5508   0.43321343   -114.11759   -3077.2133    4.2864385    4.2864385    4.2864385   -3077.2133   -132.45028   -8118.8293   -980.36043   -1525.4972   -14612.558    722.47466    78.757116 
   99500    383.95185   -114.46598   0.34740771   -114.11857    1602.0232    4.2792046    4.2792046    4.2792046    1602.0232    6132.3463   -7451.4957    6125.2191    -8457.713   -12276.235    2935.4887    78.359051 
   99600    621.84676   -114.67891   0.56266002   -114.11625   -1043.2011    4.2820828    4.2820828    4.2820828   -1043.2011    1689.6586    471.83824   -5291.1001   -79.038245    5920.3748   -1029.8919    78.517266 
   99700    621.97152   -114.67864    0.5627729   -114.11587   -3602.0148    4.2819386    4.2819386    4.2819386   -3602.0148    2391.0807   -7697.5008   -5499.6244    7493.6693    2905.5323    3008.7031    78.509339 
   99800    398.82391    -114.4792   0.36086425   -114.11834   -8517.8263    4.2804991    4.2804991    4.2804991   -8517.8263   -11518.718   -11365.754   -2669.0075   -5780.3721   -10247.762    3724.6698    78.430183 
   99900    430.04731   -114.50813   0.38911584   -114.11902    986.83388    4.2818444    4.2818444    4.2818444    986.83388    3701.9361   -3603.9292    2862.4948   -8435.8813   -3882.4943     2563.355    78.504154 
  100000    525.47129   -114.59175   0.47545747   -114.11629    9383.4611    4.2804579    4.2804579    4.2804579    9383.4611     23450.66   -1451.4413    6151.1645   -1586.0185    4253.8113   -3302.6141    78.427921 
Loop time of 22.7574 on 1 procs for 100000 steps with 8 atoms

Pair  time (%) = 7.51618 (33.0273)
Kspce time (%) = 5.39026 (23.6857)
Neigh time (%) = 0 (0)
Comm  time (%) = 1.07707 (4.73284)
Outpt time (%) = 0.0264344 (0.116157)
Other time (%) = 8.74749 (38.438)

Nlocal:    8 ave 8 max 8 min
Histogram: 1 0 0 0 0 0 0 0 0 0
Nghost:    2189 ave 2189 max 2189 min
Histogram: 1 0 0 0 0 0 0 0 0 0
Neighs:    2344 ave 2344 max 2344 min
Histogram: 1 0 0 0 0 0 0 0 0 0

Total # of neighbors = 2344
Ave neighs/atom = 293
Neighbor list builds = 0
Dangerous builds = 0
unfix 20
unfix 21
print "seeds:3309439"
seeds:3309439
