LAMMPS (10 Feb 2015)
# ---- initialize simulations
clear
units metal
dimension 3
boundary p p p
atom_style charge
atom_modify map array
# ---- create atoms
read_data /Users/eugeneragasa/pyflamestk_git/pypospack/tests/tests_integration/workflow/WorkflowLammpsThermalExpansion/param_2424/MgO_NaCl_unit.npt.T600/lammps.structure
  triclinic box = (0 0 0) to (4.2565 4.2565 4.2565) with tilt (0 0 0)
  1 by 1 by 1 MPI processor grid
  reading atoms ...
  8 atoms
# ---- define interatomic potential
include potential.mod
mass 1 24.305
mass 2 15.999

group Mg type 1
4 atoms in group Mg
group O type 2
4 atoms in group O

set group Mg charge 1.67924051174
  4 settings made for charge
set group O charge -1.67924051174
  4 settings made for charge

variable R_cut equal 10.0

pair_style buck/coul/long ${R_cut}
pair_style buck/coul/long 10
pair_coeff 1 1 0.0 0.5 0.0 ${R_cut}
pair_coeff 1 1 0.0 0.5 0.0 10
pair_coeff 1 2 1306.98043044 0.288034123545 0.0 ${R_cut}
pair_coeff 1 2 1306.98043044 0.288034123545 0.0 10
pair_coeff 2 2 2032.48006166 0.252585756474 14.8401495582 ${R_cut}
pair_coeff 2 2 2032.48006166 0.252585756474 14.8401495582 10

kspace_style pppm 1.0e-5

neighbor 1.0 bin
neigh_modify every 1 delay 0 check yes
# ---- define settings
compute eng all pe/atom
compute eatoms all reduce sum c_eng
# ---- run minimization
reset_timestep 0
fix 1 all box/relax iso 0.0 vmax 0.001
thermo 10
thermo_style custom step pe lx ly lz xy xz yz press pxx pyy pzz pxy pxz pyz c_eatoms
min_style cg
minimize 1e-25 1e-25 5000 10000
PPPM initialization ...
  G vector (1/distance) = 0.352997
  grid = 8 8 8
  stencil order = 5
  estimated absolute RMS force accuracy = 4.02799e-05
  estimated relative force accuracy = 2.79728e-06
  using double precision FFTs
  3d grid and FFT values/proc = 3375 512
Neighbor list info ...
  1 neighbor list requests
  update every 1 steps, delay 0 steps, check yes
  master list distance cutoff = 11
Memory usage per processor = 4.06549 Mbytes
Step PotEng Lx Ly Lz Xy Xz Yz Press Pxx Pyy Pzz Pxy Pxz Pyz eatoms 
       0   -114.09861       4.2565       4.2565       4.2565            0            0            0    83013.551    83013.551    83013.551    83013.551 1.023811e-10 -6.100653e-11 -2.0427431e-10   -114.09861 
      10   -114.17745     4.299065     4.299065     4.299065            0            0            0    27173.213    27173.213    27173.213    27173.213 -1.7620305e-11 8.177727e-11 3.0587737e-11   -114.17745 
      19   -114.18814    4.3219883    4.3219883    4.3219883            0            0            0 -0.014642896 -0.014642896 -0.014642896 -0.014642896 -4.2788838e-11 1.5607732e-10 -4.5124802e-11   -114.18814 
Loop time of 0.0082891 on 1 procs for 19 steps with 8 atoms

Minimization stats:
  Stopping criterion = linesearch alpha is zero
  Energy initial, next-to-last, final = 
        -114.098610965     -114.188144107     -114.188144107
  Force two-norm initial, final = 11.9872 7.95763e-05
  Force max component initial, final = 11.9872 1.65313e-05
  Final line search alpha, max atom move = 0.5 8.26564e-06
  Iterations, force evaluations = 19 24

Pair  time (%) = 0.0022831 (27.5434)
Kspce time (%) = 0.00134468 (16.2223)
Neigh time (%) = 0 (0)
Comm  time (%) = 0.000294209 (3.54934)
Outpt time (%) = 1.19209e-05 (0.143815)
Other time (%) = 0.00435519 (52.5412)

Nlocal:    8 ave 8 max 8 min
Histogram: 1 0 0 0 0 0 0 0 0 0
Nghost:    2189 ave 2189 max 2189 min
Histogram: 1 0 0 0 0 0 0 0 0 0
Neighs:    2344 ave 2344 max 2344 min
Histogram: 1 0 0 0 0 0 0 0 0 0

Total # of neighbors = 2344
Ave neighs/atom = 293
Neighbor list builds = 0
Dangerous builds = 0
unfix 1
# ---- define output variables ----
variable natoms equal "count(all)"
variable tot_energy equal "c_eatoms"
variable length_x equal "lx"
variable length_y equal "ly"
variable length_z equal "lz"
variable tilt_xy equal "xy"
variable tilt_xz equal "xz"
variable tilt_yz equal "yz"
variable tot_press equal "press"
variable press_xx equal "pxx"
variable press_yy equal "pyy"
variable press_zz equal "pzz"
variable press_xy equal "pxy"
variable press_xz equal "pxz"
variable press_yz equal "pyz"

# ---- output ----
print "pypospack:output_section:begin"
pypospack:output_section:begin
print "tot_energy = ${tot_energy}"
tot_energy = -114.188144106894
print "num_atoms = ${natoms}"
num_atoms = 8
print "xx = ${length_x}"
xx = 4.32198834005221
print "yy = ${length_y}"
yy = 4.32198834005221
print "zz = ${length_z}"
zz = 4.32198834005221
print "xy = ${tilt_xy}"
xy = 0
print "xz = ${tilt_xz}"
xz = 0
print "yz = ${tilt_yz}"
yz = 0
print "tot_press = ${tot_press}"
tot_press = -0.0146428956780545
print "pxx = ${press_xx}"
pxx = -0.0146428956419126
print "pyy = ${press_yy}"
pyy = -0.0146428958165915
print "pzz = ${press_zz}"
pzz = -0.0146428955756593
print "pxy = ${press_xy}"
pxy = -4.27888380608005e-11
print "pxz = ${press_xz}"
pxz = 1.56077321107314e-10
print "pyz = ${press_yz}"
pyz = -4.51248020389503e-11
print "pypospack:output_section:done"
pypospack:output_section:done
print "pypospack:lammps_sim:done"
pypospack:lammps_sim:done
#------------------------------------------------------------------------------
# RUN THERMOSTAT
# running using an NPT Nose-Hoover style thermostat
#------------------------------------------------------------------------------
variable tempdamp equal 0.1
variable pressdamp equal 1.0
# set initial velocities
velocity all create 600 2654669 mom yes dist gaussian loop all
# fix for Nose-Hoover style thermostat
fix 20 all npt temp 600 600 0.1 aniso 0.0 0.0 1.0 drag 1.0 couple xyz
variable boxx equal lx
variable boxy equal ly
variable boxz equal lz
variable boxp equal press
variable boxt equal temp
# calculate averages every 10000 steps
reset_timestep 0
fix 21 all ave/time 10 10 100 v_boxx v_boxy v_boxz v_boxp v_boxt file lattice.out
thermo_style custom step temp pe ke etotal press lx ly lz press pxx pyy pzz pxy pxz pyz vol
thermo_modify flush yes
thermo 100
run 100000
PPPM initialization ...
  G vector (1/distance) = 0.35233
  grid = 8 8 8
  stencil order = 5
  estimated absolute RMS force accuracy = 4.15437e-05
  estimated relative force accuracy = 2.88505e-06
  using double precision FFTs
  3d grid and FFT values/proc = 3375 512
Memory usage per processor = 3.06549 Mbytes
Step Temp PotEng KinEng TotEng Press Lx Ly Lz Press Pxx Pyy Pzz Pxy Pxz Pyz Volume 
       0          600   -114.18815   0.54289261   -113.64526    7180.7645    4.3219883    4.3219883    4.3219883    7180.7645    10136.317    2527.3419    8878.6349   -1168.8844   -882.39406    1556.8989    80.732941 
     100    357.99964   -113.88971    0.3239256   -113.56579   -627.17572    4.3451913    4.3451913    4.3451913   -627.17572    6684.3468   -10107.443    1541.5693     898.9294    -4270.567    1434.5647    82.040198 
     200    678.31727   -114.03799   0.61375572   -113.42424   -7507.2739    4.3434675    4.3434675    4.3434675   -7507.2739    2767.9195   -19108.552   -6181.1889     1747.233    2152.7993      518.985    81.942599 
     300    535.71293    -113.7791   0.48472431   -113.29438    20232.921    4.3379147    4.3379147    4.3379147    20232.921     36660.58    68.517871    23969.666    3285.5285      647.913    -1084.871    81.628726 
     400    689.62026   -113.82004    0.6239829   -113.19605    -7486.783    4.3555291    4.3555291    4.3555291    -7486.783    9391.2064   -23849.347   -8002.2085   -572.63663   -3266.8364    1864.9639     82.62715 
     500    607.09513   -113.67737   0.54931243   -113.12806     3358.878    4.3442259    4.3442259    4.3442259     3358.878    17590.799   -6057.9415   -1456.2239    -2937.068    4245.5175    4307.4498    81.985531 
     600    719.39661   -113.75064   0.65092517   -113.09972   -2487.6405    4.3508127    4.3508127    4.3508127   -2487.6405    7066.6913   -12243.854   -2285.7587   -1808.0079   -3439.1446    324.52331    82.359016 
     700    644.84573   -113.67286   0.58346997   -113.08939   -1588.6831    4.3538432    4.3538432    4.3538432   -1588.6831    401.81433   -13823.489    8655.6253   -1449.9653   -1511.9001    227.22571    82.531239 
     800    513.54953   -113.55603   0.46467041   -113.09136   -3807.0818    4.3433556    4.3433556    4.3433556   -3807.0818     6474.015   -1691.0305    -16204.23      2330.69   -9896.1845    1331.6741    81.936267 
     900    498.05015   -113.54672   0.45064624   -113.09608   -13509.104    4.3556081    4.3556081    4.3556081   -13509.104   -6715.5627    -16885.52    -16926.23    1234.3146   -3234.2043   -475.78778    82.631644 
    1000    407.20148   -113.46549   0.36844446   -113.09705    5210.2939    4.3515892    4.3515892    4.3515892    5210.2939    36164.948   -3701.9573   -16832.109    1147.9595    3719.9548    1372.5761    82.403126 
    1100    373.08424    -113.4391   0.33757446   -113.10152    4970.7034     4.344375     4.344375     4.344375    4970.7034    6963.4297   -11304.485    19253.165   -218.64404    550.28804    3147.8247    81.993968 
    1200    322.99222   -113.39357   0.29225014   -113.10132   -10757.558    4.3558194    4.3558194    4.3558194   -10757.558    3082.8972   -7224.2291   -28131.342   -1896.2203    4587.3958   -2115.6892    82.643667 
    1300    469.35924   -113.51876    0.4246861   -113.09408   -6484.1906    4.3489549    4.3489549    4.3489549   -6484.1906   -3963.4342   -7004.4885   -8484.6491    5454.8047     2941.131   -2616.8318    82.253561 
    1400    381.72664   -113.43826   0.34539429   -113.09286    2418.3168    4.3492412    4.3492412    4.3492412    2418.3168    11479.549    -6303.108     2078.509    1592.5346    3952.2111    3559.0004    82.269808 
    1500    431.71505   -113.48387   0.39062485   -113.09324   -6451.3209    4.3523269    4.3523269    4.3523269   -6451.3209   -14369.015   -8166.3074    3181.3597   -1517.0481   -3351.4701    956.23565    82.445039 
    1600    448.37947   -113.49984   0.40570317   -113.09414   -1269.0055    4.3466628    4.3466628    4.3466628   -1269.0055   -4424.0776    -4667.816    5284.8771    3294.7389   -6067.9199   -1841.3978    82.123576 
    1700    373.65189   -113.43585   0.33808808   -113.09776   -2931.8758    4.3564918    4.3564918    4.3564918   -2931.8758    16938.856   -11431.056   -14303.427   -2394.3695    2290.6098    342.35832    82.681947 
    1800    592.49739   -113.63343   0.53610409   -113.09733   -1271.8641    4.3450165    4.3450165    4.3450165   -1271.8641     14620.07   -11108.981   -7326.6814    3095.9917   -5054.2769    -3764.537    82.030296 
    1900    470.29484   -113.52487   0.42553265   -113.09934    9061.3069     4.346727     4.346727     4.346727    9061.3069    733.02886    7023.7835    19427.108   -2270.1335   -1851.9822   -132.30707    82.127216 
    2000     754.2678   -113.78024   0.68247736   -113.09776   -22986.553    4.3601787    4.3601787    4.3601787   -22986.553   -8321.5602    -35631.35   -25006.749   -2640.0304   -2291.5417    3593.5098    82.892049 
    2100    579.36993   -113.62139   0.52422609   -113.09716    15274.478    4.3360457    4.3360457    4.3360457    15274.478     24583.56    15249.635    5990.2382    3289.3809    7298.1299    125.85514     81.52326 
    2200    852.83743   -113.87149   0.77166523   -113.09982   -9399.3478    4.3540177    4.3540177    4.3540177   -9399.3478    2740.1168   -23946.392   -6991.7683   -1824.4875    9012.6825   -1922.7336    82.541162 
    2300    687.13435   -113.72002    0.6217336   -113.09829   -8597.7518    4.3577928    4.3577928    4.3577928   -8597.7518    1811.7239   -15510.763   -12094.216    3978.0938   -2325.4132   -4829.4236    82.756044 
    2400      796.932   -113.81336   0.72108082   -113.09228    13272.768    4.3317079    4.3317079    4.3317079    13272.768    35689.572    764.15295    3364.5792   -1328.0379   -1837.2883    4286.6889    81.278838 
    2500     664.5048   -113.69832   0.60125791   -113.09706    107.54083    4.3629807    4.3629807    4.3629807    107.54083    23980.583   -18723.266   -4934.6946   -3877.9969   -5712.9004    944.56553    83.051958 
    2600    937.44245   -113.94341   0.84821763   -113.09519    -7508.413    4.3483002    4.3483002    4.3483002    -7508.413    9297.1758   -16957.823   -14864.591    246.63153   -902.73217   -800.38434    82.216421 
    2700    713.98094   -113.74242   0.64602496    -113.0964    12338.514    4.3351371    4.3351371    4.3351371    12338.514    28021.702    3491.1003    5502.7383   -698.23984    2363.1772    2276.6673    81.472022 
    2800    811.73861    -113.8304   0.73447815   -113.09592   -20656.181    4.3672996    4.3672996    4.3672996   -20656.181    2974.4701   -31465.065    -33477.95    3961.6198   -2642.8814   -2661.2371    83.298839 
    2900    789.61408   -113.81034   0.71445941   -113.09588     12182.09    4.3355422    4.3355422    4.3355422     12182.09    17698.075    3155.8486    15692.348   -2659.7251    7923.9106   -920.34152    81.494868 
    3000    574.72108   -113.62505   0.52001971   -113.10503    12847.254    4.3448719    4.3448719    4.3448719    12847.254    55069.469   -7717.8688   -8809.8379   -957.00622   -4444.7092    2387.6359    82.022111 
    3100    659.10977   -113.69087   0.59637637   -113.09449   -21008.407    4.3668123    4.3668123    4.3668123   -21008.407    3727.1191   -31530.254   -35222.087    753.86202    1016.2356    831.17549    83.270963 
    3200     562.3367    -113.5952   0.50881406   -113.08638    21084.056    4.3253617    4.3253617    4.3253617    21084.056    38234.262    22527.257    2490.6481   -5.1065415    2319.3644   -1184.5384    80.922126 
    3300      640.244   -113.68179   0.57930622   -113.10248    -11353.24    4.3562716    4.3562716    4.3562716    -11353.24   -1569.4222   -22907.566    -9582.732   -969.20497    1923.3662   -1695.4703    82.669411 
    3400    479.51786   -113.52911   0.43387783   -113.09523    -669.1063    4.3564654    4.3564654    4.3564654    -669.1063    8432.0213   -3920.2615   -6519.0787     410.2045    -673.4413    1705.5824    82.680443 
    3500    654.22156   -113.67835   0.59195342    -113.0864    7839.9998    4.3283391    4.3283391    4.3283391    7839.9998    14235.141    10553.743    -1268.884   -5849.6913   -8631.9219   -233.43419    81.089352 
    3600    465.01326   -113.51656   0.42075377   -113.09581   -26052.867    4.3648361    4.3648361    4.3648361   -26052.867   -25223.002    -19428.43   -33507.169   -2005.0746    416.77716   -15.425987    83.157958 
    3700    482.84721   -113.52848    0.4368903   -113.09159    2649.3641    4.3461848    4.3461848    4.3461848    2649.3641    13043.948   -7669.2328    2573.3774    1106.7158   -6048.1487    1626.6259    82.096485 
    3800    451.81121   -113.49977   0.40880828   -113.09097    20032.502    4.3374096    4.3374096    4.3374096    20032.502    30708.678     14443.81    14945.018   -4787.8354   -1411.0789   -2390.0791    81.600218 
    3900    485.96653   -113.53333   0.43971273   -113.09362   -22375.826    4.3616526    4.3616526    4.3616526   -22375.826    -23200.76   -28139.501   -15787.218    -1899.592    2114.7788     1573.895    82.976135 
    4000    438.55651   -113.48949   0.39681515   -113.09268   -411.00983    4.3419955    4.3419955    4.3419955   -411.00983   -9793.7935    1075.1246    7485.6394   -1519.5702    -25.13276    3282.9791    81.859315 
    4100    584.43314    -113.6248   0.52880739   -113.09599    5281.5082    4.3459312    4.3459312    4.3459312    5281.5082    13319.346   -4979.6545    7504.8333    689.94691    1579.7315   -381.10779    82.082116 
    4200    523.30272   -113.56961    0.4734953   -113.09611   -6350.6651    4.3552121    4.3552121    4.3552121   -6350.6651   -18866.653   -11326.422     11141.08    1758.2466     322.2493   -2235.3296    82.609109 
    4300    502.47413   -113.54849   0.45464915   -113.09384   -3565.7686    4.3435898    4.3435898    4.3435898   -3565.7686   -21740.298    4073.3602    6969.6315   -1603.1622    1149.0722    751.69455     81.94952 
    4400    510.10373   -113.55901   0.46155258   -113.09745    1804.8145    4.3498629    4.3498629    4.3498629    1804.8145    11119.041   -10475.393    4770.7958    3176.0277   -5055.3525    2410.3606    82.305091 
    4500    570.23712    -113.6124   0.51596253   -113.09644     4725.137    4.3484454    4.3484454    4.3484454     4725.137    13559.898   -5334.0591    5949.5719   -1600.3426   -1689.5859    180.13505    82.224658 
    4600    491.90991   -113.54086   0.44509042   -113.09577    3086.5678    4.3458974    4.3458974    4.3458974    3086.5678    11276.092    -8389.189    6372.8008   -1495.4752   -1773.3857    2939.8688      82.0802 
    4700     616.3132   -113.65337   0.55765313   -113.09572   -7050.7846    4.3522299    4.3522299    4.3522299   -7050.7846   -5858.8332   -6900.9768   -8392.5438    5473.5732    2130.7755    825.90726    82.439527 
    4800    713.87367   -113.73974    0.6459279   -113.09381     4651.039    4.3444249    4.3444249    4.3444249     4651.039    2980.2064   -7872.2091     18845.12   -1914.3214    1119.7812   -3091.4607    81.996794 
    4900    660.24837    -113.6932    0.5974066   -113.09579   -4755.2868    4.3488081    4.3488081    4.3488081   -4755.2868    10830.678   -6758.3922   -18338.146   -2851.8476   -7119.9998    994.11713    82.245231 
    5000    665.27723   -113.69873   0.60195682   -113.09677   -14438.673    4.3505745    4.3505745    4.3505745   -14438.673   -7630.1617   -18205.641   -17480.216   -1205.3753    5954.7248    656.23517    82.345494 
    5100    715.42235   -113.74493   0.64732917    -113.0976   -514.86067    4.3463857    4.3463857    4.3463857   -514.86067    11332.275   -4339.4674   -8537.3893    -1320.749    1074.2781   -1061.4062    82.107872 
    5200    573.20838   -113.61628   0.51865099   -113.09763    4767.5174    4.3506273    4.3506273    4.3506273    4767.5174     29615.54   -14987.146   -325.84173    181.54668    5083.7155   -1825.9486    82.348489 
    5300    627.43005   -113.66539   0.56771189   -113.09768   -1495.4236    4.3462667    4.3462667    4.3462667   -1495.4236    31808.682   -8699.0794   -27595.874   -2401.0771   -4343.8445   -1055.2566    82.101128 
    5400    604.32658    -113.6492   0.54680739   -113.10239   -6877.7795    4.3525413    4.3525413    4.3525413   -6877.7795    17400.539   -17523.182   -20510.695    1168.4818   -166.92015   -529.75126    82.457224 
    5500    663.27835    -113.6995   0.60014819   -113.09935    7395.8638    4.3455059    4.3455059    4.3455059    7395.8638     25056.56   -8717.7993    5848.8304    1515.9891    6400.9831   -1169.3312     82.05802 
    5600    586.18361   -113.62717   0.53039125   -113.09678    5871.1968    4.3494922    4.3494922    4.3494922    5871.1968    8634.2377   -7516.2911    16495.644    639.03399   -6286.4068    3073.8565    82.284052 
    5700    712.47697   -113.73845   0.64466414   -113.09379   -19442.185    4.3545935    4.3545935    4.3545935   -19442.185   -12877.508   -24982.554   -20466.492    4426.6071   -1160.1905    126.33557    82.573913 
    5800    599.32989   -113.63483   0.54228628   -113.09254    6148.6536    4.3407471    4.3407471    4.3407471    6148.6536     14507.38    4195.3329   -256.75227    2408.6302   -2838.5485   -1935.2208    81.788726 
    5900    700.70611    -113.7283   0.63401361   -113.09428   -9122.1394    4.3557087    4.3557087    4.3557087   -9122.1394   -16020.097   -20274.028    8927.7075   -895.61329    2640.5183     3318.085    82.637371 
    6000    607.73475   -113.64616   0.54989117   -113.09627    389.75705    4.3472104    4.3472104    4.3472104    389.75705   -4745.0912    -9872.461    15786.823    2920.8237    7341.4592    2326.8402    82.154619 
    6100    558.52604   -113.60222    0.5053661   -113.09686    8100.6791    4.3427068    4.3427068    4.3427068    8100.6791    20879.146   -6476.1094    9899.0005    2506.3499   -5219.1019    1980.5285     81.89955 
    6200     688.2298   -113.71804   0.62272478   -113.09531   -11295.831    4.3576024    4.3576024    4.3576024   -11295.831    -11234.21   -14006.081   -8647.2007   -1829.5619    1567.1134    424.70547    82.745197 
    6300    570.50215   -113.61268   0.51620233   -113.09648    13627.475    4.3385197    4.3385197    4.3385197    13627.475    6403.2777   -4581.4184    39060.565   -812.84538   -5421.6664   -2323.6905    81.662886 
    6400    658.37172   -113.69789   0.59570857   -113.10218   -5440.8243     4.353653     4.353653     4.353653   -5440.8243   -12558.866   -13143.857    9380.2503   -336.05989   -283.51346    -2254.698     82.52042 
    6500    571.60209   -113.61405   0.51719758   -113.09686    414.81893    4.3553258    4.3553258    4.3553258    414.81893   -2763.8372   -17296.877    21305.171     418.8763   -4811.9653    1998.6504    82.615579 
    6600    787.15454   -113.80208   0.71223397   -113.08985    18138.838    4.3289419    4.3289419    4.3289419    18138.838    13061.702    10533.898    30820.915   -1623.1617   -9879.3457    5576.6071    81.123234 
    6700    576.74275   -113.61882   0.52184896   -113.09697   -14437.774    4.3639436    4.3639436    4.3639436   -14437.774   -29533.938   -20850.137    7070.7531   -811.13109    4674.1446   -1587.8717    83.106957 
    6800    760.64652   -113.78022   0.68824896   -113.09197   -7586.6157    4.3474373    4.3474373    4.3474373   -7586.6157   -17289.546   -11655.853    6185.5518    1504.4974   -5389.9824   -2212.3024    82.167483 
    6900    682.08846   -113.70981   0.61716797   -113.09264    26339.479    4.3314649    4.3314649    4.3314649    26339.479    19230.964    14070.316    45717.157   -4014.8933     1037.892   -1741.5322    81.265162 
    7000    775.15641   -113.79277   0.70137781   -113.09139   -32152.496    4.3665703    4.3665703    4.3665703   -32152.496   -33931.391   -31959.846    -30566.25     57.03657    3978.1892    1174.5559    83.257116 
    7100    480.87102   -113.52667   0.43510221   -113.09157    6878.9244    4.3363997    4.3363997    4.3363997    6878.9244   -1968.0216    17394.477    5210.3179    4183.9866   -3081.3549    2205.2751    81.543233 
    7200    729.79016    -113.7586   0.66032947   -113.09827   -136.51499    4.3470205    4.3470205    4.3470205   -136.51499    -3841.141   -9618.4135     13050.01    -2859.463    3777.8499     954.5748    82.143852 
    7300    513.49522   -113.55784   0.46462126   -113.09322   -2948.6547    4.3578248    4.3578248    4.3578248   -2948.6547   -5298.6324   -8015.7429    4468.4112    825.41344   -5682.9392    3033.8021    82.757868 
    7400    521.89388   -113.56121   0.47222055   -113.08899    3883.8011    4.3320268    4.3320268    4.3320268    3883.8011    15899.541    5336.0337   -9584.1715    3589.7147   -3715.6607   -721.44402    81.296788 
    7500    455.19433   -113.50847    0.4118694    -113.0966   -17803.339    4.3594925    4.3594925    4.3594925   -17803.339    323.83907   -13590.656   -40143.201    219.39686   -1103.2765    3409.3181    82.852915 
    7600    489.53331   -113.53524   0.44294003    -113.0923    5767.8357    4.3458031    4.3458031    4.3458031    5767.8357    17214.851   -4248.9802    4337.6359    4348.6911   -5660.0826    5490.6195    82.074858 
    7700    386.13287   -113.44202   0.34938113   -113.09264    14125.883    4.3377042    4.3377042    4.3377042    14125.883    31020.737     6479.078    4877.8327    4814.5767   -1569.1142   -1501.2259    81.616847 
    7800    346.94339   -113.40961   0.31392167   -113.09569   -15762.414    4.3588924    4.3588924    4.3588924   -15762.414    1559.0173   -16835.771   -32010.488    2277.5051   -4042.2822    1677.9541    82.818707 
    7900    532.89256   -113.57427   0.48217239    -113.0921    5789.3068    4.3390288    4.3390288    4.3390288    5789.3068    40236.109    4.7648963   -22872.953    2153.4962    1701.4833     2546.861    81.691639 
    8000    484.83563   -113.53544   0.43868947   -113.09675    1393.9751    4.3498663    4.3498663    4.3498663    1393.9751    9.3446745   -5678.0679    9850.6484    2735.8847   -866.16885    2133.4369    82.305285 
    8100    562.80463   -113.60541   0.50923746   -113.09618   -5947.4151    4.3491324    4.3491324    4.3491324   -5947.4151   -1572.0165   -14008.434   -2261.7947    4451.9485    -5846.033    1079.9836    82.263635 
    8200    571.26299   -113.61127   0.51689076   -113.09438    7032.6827    4.3426975    4.3426975    4.3426975    7032.6827    18630.976    11708.123    -9241.051   -1440.6226    5265.8768   -573.49419    81.899024 
    8300    804.69302   -113.82028   0.72810315   -113.09217   -16305.301    4.3560259    4.3560259    4.3560259   -16305.301   -13298.351   -21177.549   -14440.002   -1397.4414    1131.7748   -1199.0569    82.655426 
    8400    577.94558   -113.61748    0.5229373   -113.09454    17520.149    4.3376245    4.3376245    4.3376245    17520.149    14453.617    10572.969    27533.862    1527.0096   -547.44228   -2688.5282    81.612345 
    8500    814.96264   -113.83446   0.73739532   -113.09706   -8478.1388    4.3517069    4.3517069    4.3517069   -8478.1388   -8508.4115   -19868.332    2942.3265   -3981.3024    934.29987     600.9644    82.409808 
    8600    660.21215   -113.69353   0.59737383   -113.09616    10803.712    4.3491109    4.3491109    4.3491109    10803.712     20898.94      860.224    10651.971   -6066.2094   -2906.7305    968.82508    82.262411 
    8700    819.47302   -113.83756   0.74147641   -113.09608     9848.558    4.3398789    4.3398789    4.3398789     9848.558    17612.393   -3424.7206    15358.001    1875.0433   -2862.8545   -2839.9904    81.739662 
    8800    621.63643   -113.65889    0.5624697   -113.09642   -12303.037    4.3591404    4.3591404    4.3591404   -12303.037   -21929.959   -20131.247    5152.0933   -2852.0894   -6780.8984    -3360.847    82.832845 
    8900    751.46758   -113.77345   0.67994366   -113.09351    7527.0542    4.3368394    4.3368394    4.3368394    7527.0542    7882.5972     1409.575     13288.99   -3912.0182    1001.3525   -2012.3448    81.568039 
    9000    711.68866   -113.74484   0.64395085   -113.10089    5281.4301    4.3498883    4.3498883    4.3498883    5281.4301   -2568.4781   -8691.6784    27104.447    2792.6432     1082.633   -3238.2788    82.306534 
    9100    675.82316   -113.70893     0.611499   -113.09744   -13636.328    4.3544584    4.3544584    4.3544584   -13636.328   -23380.465   -14531.295   -2997.2233    79.298013   -5168.8433    229.86736    82.566225 
    9200    537.13934   -113.57829   0.48601496   -113.09228    5472.4136    4.3337745    4.3337745    4.3337745    5472.4136    3702.8428    6124.1463    6590.2518   -93.020908    4100.5606     2329.371    81.395224 
    9300    710.55518   -113.73692   0.64292526   -113.09399    -19267.25    4.3589402    4.3589402    4.3589402    -19267.25   -16133.108   -19297.504    -22371.14   -398.70825    2204.7519   -2882.4229    82.821431 
    9400    544.61443   -113.58523   0.49277858   -113.09245    7422.4306    4.3438835    4.3438835    4.3438835    7422.4306    18023.866   -2880.9533    7124.3793    1665.6811   -6290.7051    1123.8552    81.966147 
    9500     489.6352   -113.53557   0.44303221   -113.09254     560.7144    4.3407263    4.3407263    4.3407263     560.7144    8791.2828    435.03504   -7544.1746    142.97019   -1794.5095    2974.0713     81.78755 
    9600    467.99487   -113.51671   0.42345159   -113.09326   -23793.692    4.3606631    4.3606631    4.3606631   -23793.692   -6992.6282   -20257.482   -44130.965   -2768.1524    1028.7494    2196.7053     82.91968 
    9700    494.12707   -113.53692   0.44709656   -113.08982    7168.5492    4.3390359    4.3390359    4.3390359    7168.5492    17061.278     8439.868   -3995.4985    4692.0895   -3327.7835    4307.4222    81.692035 
    9800    297.66004   -113.36461   0.26932906   -113.09528    8275.7859    4.3463303    4.3463303    4.3463303    8275.7859    7175.0551    -9146.259    26798.562    -2004.022   -5343.4706   -2614.2408    82.104729 
    9900     406.4703   -113.46366   0.36778287   -113.09588   -11689.222    4.3543148    4.3543148    4.3543148   -11689.222   -7720.7827   -8466.2903   -18880.593   -4391.6839    38.004702    1001.0389    82.558061 
   10000    481.43496   -113.52836   0.43561247   -113.09274    510.31685    4.3429794    4.3429794    4.3429794    510.31685    21245.325    -2739.651   -16974.723    1922.7191   -2073.6396   -2447.8214    81.914976 
   10100    468.37314   -113.52127   0.42379386   -113.09748    1336.6176    4.3476348    4.3476348    4.3476348    1336.6176   -8684.9144   -3109.4359    15804.203   -5066.6225    2691.5392   -1452.0793    82.178683 
   10200    515.22384   -113.56368   0.46618536   -113.09749   -1198.3858    4.3471805    4.3471805    4.3471805   -1198.3858    7725.2729   -9501.6817   -1818.7486   -2738.6666    603.93468   -697.76093     82.15292 
   10300    636.60049   -113.67213    0.5760095   -113.09612   -9405.8337    4.3494217    4.3494217    4.3494217   -9405.8337   -635.22918   -291.13818   -27291.134    822.92053   -338.24936   -4138.0096    82.280051 
   10400    669.15247   -113.70013   0.60546321   -113.09467     -5174.61    4.3466704    4.3466704    4.3466704     -5174.61   -244.65223   -10270.571   -5008.6066   -2564.4164     -608.438    3357.6088    82.124005 
   10500    509.47899   -113.55809   0.46098729    -113.0971    16315.261    4.3416829    4.3416829    4.3416829    16315.261    8115.4744    5329.3177    35500.992   -1458.1276    40.415339    4936.6856    81.841635 
   10600    680.17707   -113.71141    0.6154385   -113.09597   -6655.5457    4.3564588    4.3564588    4.3564588   -6655.5457   -10865.289   -16625.338    7523.9902   -2961.0147    9368.8821    1553.1222    82.680072 
   10700    704.30886   -113.72975   0.63727346   -113.09248    4648.4137    4.3424854    4.3424854    4.3424854    4648.4137   -10627.569   -3614.4204     28187.23   -682.69494   -2093.9514    2220.4498    81.887026 
   10800    622.15675   -113.66057    0.5629405   -113.09763    12377.282    4.3430268    4.3430268    4.3430268    12377.282    18360.735   -2653.9789    21425.091   -226.49202    702.08782    1033.4276    81.917659 
   10900    718.49499   -113.74518   0.65010936   -113.09507   -3744.3251    4.3572641    4.3572641    4.3572641   -3744.3251   -14592.854   -13117.028    16476.907    -1512.108   -574.70067    4601.2506    82.725928 
   11000    824.11726   -113.83828   0.74567862    -113.0926    6183.0709    4.3367963    4.3367963    4.3367963    6183.0709   -5792.1051    7987.8699    16353.448    3071.8629    -946.4767    2790.2709    81.565605 
   11100    729.41266   -113.76101    0.6599879   -113.10102    -4569.099    4.3468188    4.3468188    4.3468188    -4569.099   -14230.505   -4649.1107    5172.3191   -861.62152    4031.3636    1206.8929    82.132416 
   11200    716.56732   -113.74556   0.64836517    -113.0972   -10876.672    4.3555354    4.3555354    4.3555354   -10876.672   -1838.4742   -21536.328   -9255.2142   -814.56394    -757.0688   -829.17039    82.627503 
   11300    721.15681   -113.74528   0.65251784   -113.09276     12450.54    4.3348911    4.3348911    4.3348911     12450.54    10542.989    10492.426    16316.206      3195.12    8795.7075   -5586.0512    81.458155 
   11400     647.4773   -113.68455   0.58585107    -113.0987     307.7561    4.3496669    4.3496669    4.3496669     307.7561   -10667.577   -10379.453    21970.298   -2600.8962   -2649.8753   -168.75944    82.293967 
   11500    608.76378   -113.64622   0.55082226    -113.0954   -14397.021    4.3551379    4.3551379    4.3551379   -14397.021    -23970.54   -25114.127    5893.6036   -3070.0533   -393.17855    1399.4916    82.604888 
   11600    438.51098   -113.49133   0.39677395   -113.09456    17595.745    4.3312095    4.3312095    4.3312095    17595.745    25635.817    12937.018    14214.401   -1959.4687    10395.864    297.46178    81.250786 
   11700    767.90255   -113.79403   0.69481437   -113.09921   -12283.503    4.3532721    4.3532721    4.3532721   -12283.503   -7412.3561   -18457.756   -10980.396    2806.2915   -1913.2367   -2299.7671    82.498766 
   11800    433.01273   -113.48809   0.39179902   -113.09629   -4340.4003    4.3547968    4.3547968    4.3547968   -4340.4003   -9159.1433   -15768.703    11906.646    1324.3425    974.53916   -1062.8117    82.585475 
   11900     628.2658   -113.66021    0.5684681   -113.09175     4187.814    4.3270681    4.3270681    4.3270681     4187.814    11958.312    6530.0489   -5924.9193    -1567.091    226.95182    2830.0288    81.017938 
   12000    590.99779   -113.63192   0.53474722   -113.09717    -17052.51    4.3589456    4.3589456    4.3589456    -17052.51    9784.9384   -21912.681   -39029.786   -1606.2609    1429.9261    1850.7625     82.82174 
   12100     729.9766   -113.75555   0.66049816   -113.09505   -14645.026    4.3505892    4.3505892    4.3505892   -14645.026   -98.968012   -20989.995   -22846.117   -5920.3155    1468.0705   -164.52725    82.346327 
   12200    409.03321   -113.46438   0.37010184   -113.09428     24648.91     4.327352     4.327352     4.327352     24648.91    31119.257    14649.444     28178.03   -1106.6457   -2956.4628    4300.4522    81.033885 
   12300    640.55205   -113.67493   0.57958496   -113.09534   -21879.578    4.3609558    4.3609558    4.3609558   -21879.578   -5523.4358   -28976.855   -31138.443    4757.3233    3571.5902    842.48466    82.936377 
   12400    563.36479   -113.60398    0.5097443   -113.09424   -2873.9245    4.3469502    4.3469502    4.3469502   -2873.9245    12813.219    -13774.01    -7660.983    3148.6003    -493.8698   -653.68992    82.139864 
   12500    538.65615   -113.57868   0.48738741   -113.09129    8258.4201    4.3339049    4.3339049    4.3339049    8258.4201    10604.623   -3318.2513    17488.889   -5639.2006    3975.3065    7712.1471    81.402574 
   12600    425.15663   -113.48077   0.38469065   -113.09608    3610.2881    4.3545928    4.3545928    4.3545928    3610.2881    25195.936   -18037.802    3672.7301   -3904.9335    10121.972    420.41516     82.57387 
   12700    675.27606    -113.7043   0.61100397    -113.0933   -2831.2904    4.3468865    4.3468865    4.3468865   -2831.2904    13231.353   -12478.137   -9247.0873   -1147.1574   -556.62642   -855.04175    82.136254 
   12800    590.61164    -113.6274   0.53439783     -113.093   -2071.1203     4.338316     4.338316     4.338316   -2071.1203    9247.0905   -4461.7119    -10998.74   -3515.1846   -1212.6595    1915.3475    81.651382 
   12900     539.9831    -113.5875   0.48858806   -113.09891   -5073.8541    4.3516233    4.3516233    4.3516233   -5073.8541    -3997.756    -14569.48    3345.6734    4041.5948    150.90007    553.94082     82.40506 
   13000    693.90496    -113.7229   0.62785979   -113.09504   -615.05758    4.3485054    4.3485054    4.3485054   -615.05758    10689.934   -12847.735    312.62823   -220.35807    313.54397    3021.1409    82.228057 
   13100    624.83426   -113.66041   0.56536317   -113.09505    3000.4972    4.3380734    4.3380734    4.3380734    3000.4972   -3983.2885    131.54743    12853.233   -4084.0992   -1641.7799    -1810.098    81.637688 
   13200    568.43879   -113.61521   0.51433537   -113.10087   -19063.398    4.3527527    4.3527527    4.3527527   -19063.398   -27386.463   -20290.141   -9513.5903   -692.48054    309.91716    914.15693    82.469239 
   13300    497.37117   -113.54911   0.45003188   -113.09908    332.19619    4.3479048    4.3479048    4.3479048    332.19619   -11615.845   -7217.1081    19829.541   -9.5599426    6636.1733   -2341.6159    82.193991 
   13400    621.47436   -113.65652   0.56232306    -113.0942     15111.38     4.336474     4.336474     4.336474     15111.38    27354.306    297.81317    17682.022    5310.9087     2007.903   -3077.4637    81.547422 
   13500    448.29866   -113.50303   0.40563005    -113.0974   -8852.3624    4.3554136    4.3554136    4.3554136   -8852.3624   -13816.312   -19991.228    7250.4534   -575.33744    5167.5462     4770.094    82.620574 
   13600    526.62285   -113.57329   0.47649942   -113.09679    -10824.54    4.3436503    4.3436503    4.3436503    -10824.54   -18879.391    -9026.375   -4567.8551    100.96894     4085.553    229.04284    81.952946 
   13700    459.78801   -113.51319   0.41602586   -113.09716    15973.031    4.3362495    4.3362495    4.3362495    15973.031    20528.769    7076.8389    20313.486    4077.1797   -1708.6868   -5020.9978    81.534758 
   13800    755.28474   -113.77798   0.68339751   -113.09458   -20970.938    4.3589015    4.3589015    4.3589015   -20970.938    -14484.13   -25423.555    -23005.13   -1611.2766    5936.0121   -852.39612    82.819224 
   13900    470.83796   -113.52004   0.42602408   -113.09402   -2437.5756    4.3415551    4.3415551    4.3415551   -2437.5756    -19881.67    -2514.346    15083.289    4760.2658    6217.7485   -283.05829    81.834409 
   14000    665.06217   -113.69648   0.60176223   -113.09472   -7040.9745    4.3383835    4.3383835    4.3383835   -7040.9745   -16598.128     -302.937    -4221.858     5398.485   -3802.8661    693.94414    81.655195 
   14100    650.74695   -113.68494   0.58880952   -113.09613   -6383.6802    4.3544178    4.3544178    4.3544178   -6383.6802    5896.9876   -22164.694   -2883.3339   -2803.9512   -247.88628     2649.999    82.563919 
   14200    753.92233   -113.77924   0.68216477   -113.09708    1891.9554    4.3373792    4.3373792    4.3373792    1891.9554    7058.2112    5643.5718   -7025.9167   -2850.4709     2678.501    1284.5535    81.598498 
   14300     408.5236    -113.4737   0.36964074   -113.10406     10598.26    4.3468558    4.3468558    4.3468558     10598.26    15734.946   -6439.4875    22499.323    -678.6568    4620.3738    2244.2623    82.134518 
   14400    808.18983    -113.8267   0.73126714   -113.09543   -9880.3778    4.3520574    4.3520574    4.3520574   -9880.3778    14229.892   -26125.595    -17745.43    2436.1365   -4920.8853   -787.00971    82.429721 
   14500    636.51846   -113.66883   0.57593528   -113.09289    21707.028    4.3316563    4.3316563    4.3316563    21707.028    43727.704    11896.804     9496.576    922.49955     2647.216    1490.5957    81.275934 
   14600     749.5327   -113.77883   0.67819294   -113.10064   -11490.789    4.3547153    4.3547153    4.3547153   -11490.789    5891.4972   -11682.954    -28680.91   -2139.4187     6977.973    2492.8268    82.580844 
   14700    670.68362   -113.70227   0.60684863   -113.09542    5163.0493     4.347853     4.347853     4.347853    5163.0493    17804.206   -13405.336    11090.278   -4358.2446   -3068.4754   -1101.3871    82.191055 
   14800    882.04617   -113.88843   0.79809391   -113.09034    11845.751    4.3312111    4.3312111    4.3312111    11845.751    15889.976    13146.759    6500.5177   -5364.7485    4960.5112   -87.143155    81.250877 
   14900    678.56026   -113.70954   0.61397558   -113.09556   -13367.274    4.3583193    4.3583193    4.3583193   -13367.274   -7689.1727   -11837.342   -20575.308    3545.5728    1360.3097    1460.7214    82.786043 
   15000    703.21656   -113.72995   0.63628512   -113.09367   -2386.5468    4.3429257    4.3429257    4.3429257   -2386.5468    13687.838   -6812.6784     -14034.8    3828.3739   -7457.0377     703.4611    81.911939 
   15100    582.01453   -113.62274   0.52661898   -113.09612    20910.765    4.3336297    4.3336297    4.3336297    20910.765    27753.969    13993.233    20985.092   -468.51901    1403.5662    2248.0604    81.387066 
   15200    642.20748   -113.67625   0.58108283   -113.09516   -15152.798    4.3584844    4.3584844    4.3584844   -15152.798   -7795.3405   -19860.452   -17802.602    -1191.715    3933.3131   -708.37955    82.795455 
   15300    566.99466   -113.60763   0.51302868   -113.09461   -1473.7067    4.3379406    4.3379406    4.3379406   -1473.7067    840.48699    242.61798   -5504.2251    -11.66346     20.12906    1775.3467    81.630187 
   15400    470.21778   -113.52625   0.42546293   -113.10079    11785.781    4.3401191    4.3401191    4.3401191    11785.781    25541.189     8440.265    1375.8898    1276.8613   -5981.5427    508.46259    81.753234 
   15500    690.34929   -113.71894   0.62464255    -113.0943   -15728.892    4.3554177    4.3554177    4.3554177   -15728.892   -17452.394   -21358.469   -8375.8121     2481.477   -1138.4637    1977.7361    82.620805 
   15600    446.22064   -113.49954   0.40374981   -113.09579    4872.1187    4.3319283    4.3319283    4.3319283    4872.1187   -16295.104    14915.694    15995.767   -3721.3402    3475.9994    5265.6057    81.291244 
   15700    515.78988   -113.56851   0.46669752   -113.10182   -11771.758    4.3468313    4.3468313    4.3468313   -11771.758   -21494.113   -8617.1511   -5204.0087   -5519.8461   -2366.1605   -2998.8754    82.133124 
   15800    393.14681   -113.44994    0.3557275   -113.09422   -1168.4293    4.3550923    4.3550923    4.3550923   -1168.4293    16262.656   -20072.684    304.74037    1429.4729   -1945.5973    202.90903    82.602293 
   15900    571.07738   -113.60648   0.51672281   -113.08976    8889.6586    4.3294534    4.3294534    4.3294534    8889.6586    6548.3397    12156.207    7964.4293   -389.56953    5113.1758    3863.8371    81.151998 
   16000    359.30516   -113.42339   0.32510686   -113.09829   -7338.0616    4.3488108    4.3488108    4.3488108   -7338.0616   -20243.862   -7239.5865    5469.2643    2123.5729   -4039.8292    -56.91734    82.245383 
   16100    540.90546   -113.58472   0.48942263    -113.0953   -14294.741    4.3527724    4.3527724    4.3527724   -14294.741   -14877.249   -20828.809    -7178.166    579.44301    164.89161    1472.9957    82.470358 
   16200    481.10699   -113.52738   0.43531572   -113.09206     23843.48    4.3299856    4.3299856    4.3299856     23843.48    35484.257    6868.0743    29178.108     1009.054    3322.1066    2120.0636    81.181926 
   16300    684.19041   -113.71443   0.61906986   -113.09536   -20949.183    4.3520456    4.3520456    4.3520456   -20949.183   -29357.221   -20153.136   -13337.191    4024.6851   -8167.4102   -1339.8703    82.429053 
   16400     428.3737   -113.48412   0.38760153   -113.09651   -9021.8357     4.349931     4.349931     4.349931   -9021.8357   -18287.114   -14538.619    5760.2254    151.29534   -2362.8462   -2409.3566    82.308959 
   16500    665.30932   -113.69647   0.60198586   -113.09448    13217.687    4.3325956    4.3325956    4.3325956    13217.687    33855.694    192.15578    5605.2106    650.39408   -1585.2651     227.8802    81.328816 
   16600    600.67616   -113.64053   0.54350442   -113.09703    1657.3209    4.3534036    4.3534036    4.3534036    1657.3209    20687.616   -22341.719    6626.0656   -5454.2773     -2587.47     1068.965    82.506242 
   16700     537.4612   -113.58263   0.48630619   -113.09632   -5396.4148    4.3478825    4.3478825    4.3478825   -5396.4148    15541.113    -21245.78   -10484.577   -3638.9366   -2978.3898   -1892.2629    82.192727 
   16800    635.41947   -113.66934   0.57494089    -113.0944     4167.587    4.3355123    4.3355123    4.3355123     4167.587    15151.532   -5565.3832    2916.6117    3691.7083   -5814.0903   -359.69266    81.493178 
   16900    749.68208   -113.77278    0.6783281   -113.09446   -2310.4891    4.3526204    4.3526204    4.3526204   -2310.4891    24777.003   -13862.938   -17845.532    478.78762    6181.0047    -59.58063    82.461719 
   17000     736.9506    -113.7628   0.66680839   -113.09599   -6854.7497    4.3464999    4.3464999    4.3464999   -6854.7497   -1230.1892   -17106.764   -2227.2955    304.26633    -1696.162   -2881.3933    82.114342 
   17100    616.15935   -113.65466   0.55751393   -113.09715    7610.9176    4.3335305    4.3335305    4.3335305    7610.9176    23545.041   -6495.0264    5782.7382     911.0296   -4102.7421    -378.3877    81.381475 
   17200    781.41158   -113.80373   0.70703762   -113.09669   -11832.439    4.3558336    4.3558336    4.3558336   -11832.439    11938.645   -25673.397   -21762.565   -513.03039    4743.7285   -64.141173    82.644478 
   17300    695.95232   -113.72651   0.62971228    -113.0968    1872.1769     4.344283     4.344283     4.344283    1872.1769    20822.891    1582.1004   -16788.461    5318.1598    -6540.603   -263.91295     81.98876 
   17400    625.04245   -113.66132   0.56555155   -113.09577    12015.614    4.3346747    4.3346747    4.3346747    12015.614    30515.138   -367.99684    5899.7015    7302.6852   -4876.5783   -31.357298    81.445955 
   17500     623.5807   -113.66022   0.56422892   -113.09599   -6119.3575    4.3575479    4.3575479    4.3575479   -6119.3575    11933.735    -21584.35   -8707.4575    1645.7623   -765.22189    1640.7022    82.742097 
   17600    824.03741    -113.8389   0.74560636   -113.09329    385.82567    4.3368341    4.3368341    4.3368341    385.82567    4708.3912    2303.2556   -5854.1698   -1004.3187   -5821.6253   -780.02676    81.567741 
   17700    615.78536    -113.6537   0.55717553   -113.09653   -3006.0693    4.3418817    4.3418817    4.3418817   -3006.0693   -11834.563    4788.1477   -1971.7927    382.94103   -4139.3486   -79.675841     81.85288 
   17800    584.35068   -113.62462   0.52873278   -113.09588   -7865.9453    4.3549585    4.3549585    4.3549585   -7865.9453   -1097.3953   -16977.522   -5522.9186   -975.61475   -2484.6821    3619.1888    82.594675 
   17900    614.00281   -113.64737   0.55556264   -113.09181    16025.753    4.3370132    4.3370132    4.3370132    16025.753     19840.73    9904.8353    18331.694   -552.41685    3341.3158    895.76653    81.577848 
   18000    551.52934    -113.5934   0.49903533   -113.09436   -5378.1685    4.3460088    4.3460088    4.3460088   -5378.1685   -10248.623   -3944.2099   -1941.6724    -3243.706    2796.2401    1419.6652    82.086513 
   18100    372.43059   -113.43552   0.33698303   -113.09854   -4956.9284    4.3495934    4.3495934    4.3495934   -4956.9284   -11542.863   -11340.058     8012.136   -1102.4498     1454.546    2818.4457    82.289797 
   18200    379.86955   -113.43981   0.34371395   -113.09609    15087.668    4.3402917    4.3402917    4.3402917    15087.668    26473.153   -659.84737    19449.699   -5461.7374    9524.0907    1867.9201    81.762986 
   18300    507.60074   -113.55428   0.45928781   -113.09499    2115.4272    4.3461584    4.3461584    4.3461584    2115.4272   -9739.7706   -1588.9106    17674.963   -2553.3374    3088.5413     2474.465    82.094987 
   18400    354.35631    -113.4169   0.32062904   -113.09627   -12921.096    4.3518842    4.3518842    4.3518842   -12921.096   -43723.166    -9802.961     14762.84    393.60127   -2715.3491    3465.8557    82.419881 
   18500    394.04893   -113.45078   0.35654375   -113.09424   -661.89096    4.3399068    4.3399068    4.3399068   -661.89096   -24077.741   -10414.187    32506.256   -4038.2585    1002.6871    2599.4293    81.741239 
   18600    464.27757   -113.51568   0.42008811   -113.09559    8124.4394    4.3467248    4.3467248    4.3467248    8124.4394    18590.446   -11685.254    17468.126    3142.4258   -3447.9676    1348.9854    82.127092 
   18700    539.79926   -113.58397   0.48842171   -113.09554   -10498.742    4.3530676    4.3530676    4.3530676   -10498.742   -16188.287   -23703.429    8395.4905    1595.4056   -6272.6426    1560.6478    82.487139 
   18800    347.93695    -113.4106   0.31482067   -113.09578    8967.5868    4.3392955    4.3392955    4.3392955    8967.5868    11490.482   -3789.9048    19202.183    480.03332    -6371.905    1232.0418    81.706704 
   18900    602.85836   -113.64138   0.54547891    -113.0959    7.1346631    4.3495231    4.3495231    4.3495231    7.1346631    25494.153   -20043.684   -5429.0649    4774.9071   -1263.8785    1044.1085    82.285807 
   19000    664.26343   -113.69604   0.60103951     -113.095    4357.5374    4.3469079    4.3469079    4.3469079    4357.5374    36785.491   -19061.256   -4651.6229    3884.6499     273.8658    159.34574    82.137468 
   19100    691.82599   -113.72317   0.62597869   -113.09719   -9215.3171    4.3471374    4.3471374    4.3471374   -9215.3171    1784.2088    -25629.68   -3800.4806   -2402.0956    510.07211    84.370737     82.15048 
   19200     778.1312   -113.79897   0.70406947    -113.0949    -9454.629    4.3502198    4.3502198    4.3502198    -9454.629   -3126.9302   -16775.249   -8461.7081   -5065.8976    6148.9858    2044.8264    82.325356 
   19300    844.37792    -113.8572   0.76401089   -113.09319    6833.5364    4.3428719    4.3428719    4.3428719    6833.5364    24394.843    1855.9252   -5750.1591   -894.10237    4777.9973    1914.6769    81.908893 
   19400    876.87732   -113.88806   0.79341703   -113.09465    -12832.79    4.3516492    4.3516492    4.3516492    -12832.79    5245.1146   -27400.635   -16342.851   -3690.0361    4406.8397    2504.2014    82.406533 
   19500    667.97058   -113.70005   0.60439382   -113.09566    785.33626    4.3462914    4.3462914    4.3462914    785.33626    26319.416   -10919.043   -13044.364   -4819.0246    2920.5646   -2257.1374    82.102525 
   19600    825.45285   -113.84227   0.74688708   -113.09538     2000.723    4.3424146    4.3424146    4.3424146     2000.723    19136.495   -3720.5839   -9413.7426   -8438.5539    2453.1447   -2380.9719    81.883022 
   19700    774.47951   -113.79578   0.70076534   -113.09501   -1417.2741    4.3510033    4.3510033    4.3510033   -1417.2741     18507.19   -8081.3826   -14677.629   -3682.3393   -4166.8321   -1487.3264    82.369843 
   19800    781.85996   -113.80168   0.70744332   -113.09424   -6204.9313    4.3481605    4.3481605    4.3481605   -6204.9313    3070.7889   -11936.455   -9749.1274   -384.20443   -3430.0211   -1924.8146    82.208495 
   19900    649.32607   -113.68262   0.58752388    -113.0951    5475.2575    4.3420982    4.3420982    4.3420982    5475.2575    4032.7435     3622.338     8770.691   -1986.7745     549.9157   -736.38441    81.865125 
   20000    769.37432   -113.79094   0.69614605    -113.0948   -5772.2269    4.3477231    4.3477231    4.3477231   -5772.2269   -19951.189   -5662.3408    8296.8493     1214.019   -2344.5801   -5955.6333    82.183686 
   20100    645.84223   -113.68228   0.58437162   -113.09791   -8499.7509    4.3479325    4.3479325    4.3479325   -8499.7509     -22987.2   -7858.1557    5346.1025   -3797.3485   -2432.9164   -6254.2393    82.195562 
   20200    475.80601   -113.52946   0.43051927   -113.09894    14904.656    4.3396348    4.3396348    4.3396348    14904.656    23845.106   -384.55526    21253.417       3515.3    6449.1178   -971.00757    81.725871 
   20300    541.61963   -113.58784   0.49006883   -113.09777   -654.63816    4.3527754    4.3527754    4.3527754   -654.63816    9526.9001   -10424.012   -1066.8029    6669.1184    6291.6435    380.88655    82.470528 
   20400    448.63194   -113.50309   0.40593161   -113.09716    9619.0522    4.3395945    4.3395945    4.3395945    9619.0522    8878.4638    288.82365    19689.869   -5207.0572    4324.4702   -1417.3405    81.723593 
   20500    465.91506   -113.52205   0.42156974   -113.10048   -391.40643    4.3449849    4.3449849    4.3449849   -391.40643    4339.4539   -15270.159    9756.4861   -811.38583    2408.1525    -4191.225     82.02851 
   20600    375.44116   -113.43545   0.33970705   -113.09574   -4129.0998    4.3545859    4.3545859    4.3545859   -4129.0998    16068.949   -23286.758   -5169.4901    1365.6699    6644.4481   -1910.6922     82.57348 
   20700    567.55419    -113.6047   0.51353496   -113.09117    8026.7188    4.3293563    4.3293563    4.3293563    8026.7188   -2772.1263    2257.4601    24594.822   -2505.5185    3464.6206    196.75386    81.146535 
   20800     362.4848   -113.42929   0.32798386   -113.10131   -12754.954    4.3532866    4.3532866    4.3532866   -12754.954   -17300.189   -20934.569   -30.102429   -6982.5604   -6895.2883    128.99302    82.499588 
   20900    446.46378   -113.49837   0.40396981    -113.0944   -12665.618    4.3515199    4.3515199    4.3515199   -12665.618    -4225.113   -26021.242   -7750.4998   -921.24908    2502.5137   -519.43486    82.399185 
   21000    415.63452   -113.46589   0.37607485   -113.08981    19844.219    4.3285254    4.3285254    4.3285254    19844.219    49248.686   -4275.6455    14559.615    -2653.048   -1462.5059    359.78733    81.099823 
   21100    475.17592   -113.52637   0.42994916   -113.09642   -23875.482    4.3582317    4.3582317    4.3582317   -23875.482   -17610.341   -41693.567   -12322.537   -6017.4751   -2049.0831    328.37205    82.781051 
   21200    391.53027   -113.45118   0.35426482   -113.09692    -3655.739    4.3394894    4.3394894    4.3394894    -3655.739   -1681.8335   -12967.982    3682.5983     482.6924    6079.6258    6.2467358    81.717655 
   21300     549.2379   -113.59368   0.49696199   -113.09672    11451.431    4.3331929    4.3331929    4.3331929    11451.431    31093.558   -2378.1549    5638.8889    140.79882    859.55458   -261.30209    81.362459 
   21400    645.49876   -113.67855   0.58406084   -113.09448   -20564.629    4.3583529    4.3583529    4.3583529   -20564.629   -10908.221   -40277.247    -10508.42    2805.1958     2594.382    834.98242    82.787959 
   21500    545.40654   -113.58763    0.4934953   -113.09413    1321.4607    4.3316082    4.3316082    4.3316082    1321.4607    15442.148   -15992.246      4514.48    2218.8177    5299.5573    1452.9982    81.273225 
   21600    574.07471   -113.61957   0.51943486   -113.10014    171.06056    4.3430146    4.3430146    4.3430146    171.06056    14886.456    -11051.43   -3321.8441   -572.44937    5793.7947    606.29052    81.916966 
   21700    690.49288   -113.72019   0.62477247   -113.09542   -1750.0402    4.3522585    4.3522585    4.3522585   -1750.0402     27238.27   -14804.344   -17684.047   -2545.8156    2842.0232     2653.148    82.441151 
   21800     688.4281   -113.71573   0.62290422   -113.09282    9286.4071    4.3294919    4.3294919    4.3294919    9286.4071    15489.885    -9581.303    21950.639   -842.97704   -7616.0206     578.6489    81.154161 
   21900    616.77706   -113.65943   0.55807285   -113.10136   -10692.568     4.348104     4.348104     4.348104   -10692.568    6332.2226    -25111.43   -13298.497    6178.9266    3534.9576   -625.92024    82.205288 
   22000     823.1088   -113.84108   0.74476614   -113.09632   -2443.0451    4.3451278    4.3451278    4.3451278   -2443.0451    6397.0777   -5165.3021   -8560.9108   -3833.6258    2005.2019    780.14045    82.036603 
   22100    821.84607   -113.83829   0.74362359   -113.09467     3539.484    4.3364975    4.3364975    4.3364975     3539.484     13377.89    2607.7482   -5367.1864   -6333.1729   -6139.0782   -596.51259    81.548748 
   22200    613.15985   -113.65381   0.55479992   -113.09901   -5390.6735    4.3497167    4.3497167    4.3497167   -5390.6735   -718.55973   -19920.231    4466.7706    8670.8024    6209.8645    241.09327    82.296796 
   22300    854.17821   -113.86833   0.77287839   -113.09545    601.19442     4.340919     4.340919     4.340919    601.19442    15495.291    -5822.973   -7868.7346    7030.3368   -433.85579   -1262.0454    81.798446 
   22400    786.51058   -113.80751    0.7116513   -113.09586    4186.5896    4.3396881    4.3396881    4.3396881    4186.5896    16443.467    5736.9777   -9620.6758    977.72022   -5816.5505    -1780.973    81.728883 
   22500    766.71164   -113.79255    0.6937368   -113.09881   -10650.927    4.3460203    4.3460203    4.3460203   -10650.927   -11776.805   -8300.8671   -11875.108   -1102.1522    1936.5451   -1941.2678    82.087164 
   22600    688.04628   -113.72076   0.62255873   -113.09821    6540.1819    4.3413657    4.3413657    4.3413657    6540.1819     12887.69    1235.8625    5496.9934    4028.5432    1293.7518   -2519.0803    81.823698 
   22700    940.27308   -113.94634   0.85077884   -113.09556   -1165.1444    4.3415877    4.3415877    4.3415877   -1165.1444   -2316.6884    9354.2916   -10533.036    7213.0028    1450.4746    239.20982    81.836255 
   22800    653.95653   -113.69003   0.59171361   -113.09832   -2323.9791     4.345775     4.345775     4.345775   -2323.9791    3276.6477   -1410.8662   -8837.7189      2300.07   -4029.0677    80.619324    82.073265 
   22900    686.72294   -113.71971   0.62136135   -113.09835   -5281.3119    4.3415417    4.3415417    4.3415417   -5281.3119   -3390.9335   -9334.3343   -3118.6679   -1674.4531   -1111.9944    583.41942    81.833653 
   23000    613.88149   -113.65425   0.55545288   -113.09879    17894.086    4.3384906    4.3384906    4.3384906    17894.086    39678.609    11483.306    2520.3422   -3186.6125    4444.7108      639.519    81.661243 
   23100    617.90264   -113.65881    0.5590913   -113.09972    2381.6728    4.3457777    4.3457777    4.3457777    2381.6728    10925.238    1056.0552   -4836.2745   -1068.6488   -7649.8539    534.87023    82.073418 
   23200    559.21321   -113.60548   0.50598786    -113.0995   -5700.5472    4.3418665    4.3418665    4.3418665   -5700.5472   -4804.3656   -12263.508   -33.767512    4265.4816    1358.5137    1721.4669    81.852022 
   23300    502.76383   -113.55442   0.45491128   -113.09951    2427.9628    4.3415787    4.3415787    4.3415787    2427.9628    13608.249   -10934.493    4610.1319   -2613.1512    1464.8241    856.65111    81.835741 
   23400    595.68444   -113.63586    0.5389878   -113.09687   -2387.8242    4.3458254    4.3458254    4.3458254   -2387.8242    5340.3667   -6384.1263   -6119.7129    591.19416   -9108.7329    2149.5267    82.076123 
   23500    332.64399   -113.39866   0.30098328   -113.09767     1227.044     4.341513     4.341513     4.341513     1227.044   -9.3369461   -8611.0199    12301.489    5202.5841     628.7835    499.16789    81.832028 
   23600     411.8049   -113.46958   0.37260973   -113.09697   -11810.003    4.3433048    4.3433048    4.3433048   -11810.003    -11031.95    -28874.76    4476.6998    3040.4966   -1290.6486    942.83326    81.933387 
   23700    301.87628   -113.36982   0.27314401   -113.09668    3937.5682    4.3442569    4.3442569    4.3442569    3937.5682    22114.069   -20255.898    9954.5341    44.874553   -3251.0208    2715.9767    81.987282 
   23800    471.57003   -113.52292   0.42668648   -113.09623   -2733.6725    4.3411167    4.3411167    4.3411167   -2733.6725    9302.3799   -18548.533     1045.136   -2344.9727   -4887.2442    619.73822     81.80962 
   23900    259.12521   -113.33247   0.23446193   -113.09801   -7549.5689    4.3487798    4.3487798    4.3487798   -7549.5689   -2073.2186   -27714.575    7139.0867    2195.7821   -1901.3944    503.17771    82.243629 
   24000    499.56998   -113.54727   0.45202142   -113.09525   -9124.9556    4.3416765    4.3416765    4.3416765   -9124.9556   -2468.4039   -26656.428    1749.9648    331.71062    3334.3747    838.58606    81.841277 
   24100    391.30502   -113.45231   0.35406101   -113.09825    9233.1013    4.3397719    4.3397719    4.3397719    9233.1013    33753.822   -16176.614    10122.096   -5061.5625    -5521.931    1548.8557    81.733615 
   24200    462.52815   -113.51776   0.41850519   -113.09925   -7229.3929    4.3470457    4.3470457    4.3470457   -7229.3929    6044.6802   -21976.469   -5756.3898   -1583.9453   -839.60798    1664.8724    82.145282 
   24300    476.12292   -113.52892   0.43080603   -113.09812    4683.4489    4.3375308    4.3375308    4.3375308    4683.4489    17819.657   -15576.892    11807.581    2783.3565    2506.0552   -1532.9395    81.607059 
   24400    545.23775   -113.59158   0.49334258   -113.09823   -834.49632    4.3463273    4.3463273    4.3463273   -834.49632    28040.423   -16828.168   -13715.745    2050.0433   -5179.6759    -2839.555     82.10456 
   24500    603.47954   -113.64197   0.54604097   -113.09593     598.8669     4.343666     4.343666     4.343666     598.8669    16628.629   -12108.923   -2723.1054   -2602.0695     -6723.17   -1299.4378    81.953834 
   24600    671.51895   -113.70327   0.60760446   -113.09567   -1219.1047    4.3381988    4.3381988    4.3381988   -1219.1047    7446.0455   -13169.939    2066.5795   -3496.3946   -160.77544    454.51736    81.644764 
   24700    707.18459   -113.73674   0.63987548   -113.09686   -13056.633    4.3494437    4.3494437    4.3494437   -13056.633    -10386.09   -13041.606   -15742.204    7376.6458   -2997.4996    2397.5104      82.2813 
   24800    736.37111   -113.76383   0.66628405   -113.09754    2804.6423    4.3393411    4.3393411    4.3393411    2804.6423    21417.936    3676.5727   -16680.582    5236.1949   -11682.715   -2223.7042    81.709276 
   24900    771.89653   -113.79901    0.6984282   -113.10058    70.369268     4.341982     4.341982     4.341982    70.369268    22352.366   -11582.319    -10558.94   -7376.2952    -672.9185    -4549.323    81.858553 
   25000    720.88056   -113.75172   0.65226788   -113.09945    -10802.62     4.355465     4.355465     4.355465    -10802.62    9507.6058   -19099.532   -22815.933   -5420.3447   -971.71292   -1873.9526      82.6235 
   25100    867.47278   -113.88019    0.7849076   -113.09528    5160.5437    4.3347637    4.3347637    4.3347637    5160.5437    20113.164    11642.407    -16273.94   -172.03494   -4580.1822   -912.61681    81.450972 
   25200     919.5587   -113.92941   0.83203603   -113.09737   -4330.1573    4.3450187    4.3450187    4.3450187   -4330.1573    11209.768   -7475.2928   -16724.947    1695.6912      1281.27    1922.0166    82.030422 
   25300    778.44464   -113.80175   0.70435307   -113.09739   -10095.412    4.3546451    4.3546451    4.3546451   -10095.412    5575.2381   -15178.362   -20683.113   -5007.3057    1395.4647    1814.9496    82.576849 
   25400    897.10773   -113.90533   0.81172193   -113.09361    10877.664    4.3288914    4.3288914    4.3288914    10877.664    20545.733    9675.5919    2411.6681   -4135.5003   -3072.5353    -2493.998    81.120396 
   25500    770.51079   -113.79472   0.69717435   -113.09754    404.49522    4.3485257    4.3485257    4.3485257    404.49522    34582.791   -12917.026    -20452.28    4740.1148   -3697.9755   -4576.3034    82.229211 
   25600    659.79582   -113.69319   0.59699713   -113.09619    -7457.067    4.3524611    4.3524611    4.3524611    -7457.067    13979.457   -22995.831   -13354.827    3028.6987    1346.0151    -1721.291    82.452666 
   25700    651.45546    -113.6814   0.58945059   -113.09195    18055.253     4.327833     4.327833     4.327833    18055.253     35577.07    9126.9398     9461.749    2812.3544    891.76822     2471.867    81.060912 
   25800    789.88617    -113.8112   0.71470561    -113.0965   -12596.332    4.3504094    4.3504094    4.3504094   -12596.332   -734.92399   -21211.157   -15842.916   -4026.2866    -8988.986    2480.9772    82.336116 
   25900    492.29712   -113.54845   0.44544078   -113.10301   -11473.243    4.3457942    4.3457942    4.3457942   -11473.243   -5990.9638   -21212.377   -7216.3884     51.70711    1950.4881     1033.356    82.074351 
   26000    561.35106   -113.60645   0.50792224   -113.09853    4439.9108    4.3297073    4.3297073    4.3297073    4439.9108    13717.471   -17192.152    16794.413    7901.0469    2974.9409    276.19053    81.166273 
   26100    534.18549   -113.58079   0.48334225   -113.09744   -9611.3382    4.3576207    4.3576207    4.3576207   -9611.3382    11936.078   -22950.996   -17819.096   -2995.4674   -739.01617    631.02823    82.746239 
   26200    444.68351   -113.50193   0.40235898   -113.09958    6957.8904    4.3370806    4.3370806    4.3370806    6957.8904    25178.026   -9007.9441    4703.5891    -5507.044    6384.6399    2138.3971    81.581648 
   26300    293.88667   -113.36629   0.26591484   -113.10037    4051.0374    4.3376954    4.3376954    4.3376954    4051.0374    25275.095   -28230.686    15108.703   -2316.2033    6409.2709    2889.8352    81.616347 
   26400    422.12649   -113.47749   0.38194892   -113.09555   -11759.367    4.3577068    4.3577068    4.3577068   -11759.367    10230.177   -39231.448   -6276.8306    -871.8887    4064.8567    62.749152    82.751145 
   26500    483.71331   -113.52844   0.43767397   -113.09077    18745.542    4.3313625    4.3313625    4.3313625    18745.542    19417.923    6006.6905    30812.012    476.10576    2682.4383   -1014.3639    81.259394 
   26600    402.80005   -113.46146   0.36446195     -113.097   -11113.295    4.3467583    4.3467583    4.3467583   -11113.295   -24463.928   -18829.108    9953.1497    707.00267    3323.7458    3126.1167    82.128988 
   26700    421.47188   -113.47726   0.38135661   -113.09591   -10873.413    4.3492567    4.3492567    4.3492567   -10873.413   -23289.967   -24347.694    15017.423     272.2228   -251.67821    4723.9453    82.270685 
   26800    539.80576   -113.58141   0.48842759   -113.09298    14524.943    4.3352268    4.3352268    4.3352268    14524.943    23533.869   -4201.8417    24242.802    1187.5159   -5453.4987   -1307.3996    81.477082 
   26900    562.66371   -113.60494   0.50910995   -113.09583   -7571.0254    4.3480725    4.3480725    4.3480725   -7571.0254   -2619.4378   -16167.372   -3926.2662    1433.6139   -5417.0979   -2674.8683    82.203503 
   27000    304.48767   -113.37379   0.27550684   -113.09828    4341.6719    4.3448031    4.3448031    4.3448031    4341.6719    4773.9556   -1203.0094    9454.0696    2991.5614   -3579.3741   -205.51752    82.018212 
   27100    613.29031   -113.65019   0.55491796   -113.09527    3841.6668    4.3414254    4.3414254    4.3414254    3841.6668    15019.874   -4383.9703    889.09663    1232.5426   -1639.7677     1894.353    81.827075 
   27200    730.19043   -113.75558   0.66069165   -113.09488    6278.7158     4.340216     4.340216     4.340216    6278.7158    24613.991     -537.734   -5240.1097    1955.0196   -1628.2664    1972.6409    81.758707 
   27300    534.16624   -113.58459   0.48332484   -113.10127   -12453.589     4.347296     4.347296     4.347296   -12453.589   -30376.374   -5103.0002   -1881.3915   -912.94832   -180.12641    -352.7206    82.159473 
   27400    697.68342   -113.73005   0.63127862   -113.09877   -5922.3876    4.3365584    4.3365584    4.3365584   -5922.3876   -18468.013    467.45735    233.39284   -2225.2121     1891.201   -3333.6844    81.552184 
   27500     845.1918   -113.86213    0.7647473   -113.09739    1470.0177    4.3448341    4.3448341    4.3448341    1470.0177    14048.621   -2910.1241    -6728.444   -1777.9183    3657.8878   -4524.9511    82.019967 
   27600     763.8246   -113.78786   0.69112455   -113.09674   -8188.4475    4.3489015    4.3489015    4.3489015   -8188.4475   -8085.3689   -7648.0568   -8831.9169   -549.62115    1673.8596    115.28692    82.250531 
   27700    623.38325   -113.65884   0.56405026   -113.09479    12351.924    4.3273435    4.3273435    4.3273435    12351.924     20407.01    5182.3546    11466.407   -855.67015   -901.82109    3809.2727    81.033411 
   27800    743.24938   -113.77163   0.67250766   -113.09912   -9580.0521     4.352044     4.352044     4.352044   -9580.0521     8334.087   -21948.757   -15125.487   -5457.2737     1507.655   -1468.7633    82.428962 
   27900    759.55132   -113.78448     0.687258   -113.09723    12309.347    4.3389529    4.3389529    4.3389529    12309.347    31901.713   -4335.8438    9362.1706   -380.38303   -1230.8577   -3988.1292    81.687348 
   28000    752.95123   -113.77843    0.6812861   -113.09714    3353.7715    4.3355513    4.3355513    4.3355513    3353.7715    19429.179   -13338.125    3970.2604    3924.3428    -4608.367   -2445.4954    81.495378 
   28100    522.41205   -113.57012    0.4726894   -113.09743   -12051.473    4.3540615    4.3540615    4.3540615   -12051.473   -9758.0893   -24233.725    -2162.604    2959.3122   -1192.5492   -1579.3623    82.543653 
   28200    825.82776   -113.83895   0.74722631   -113.09173    10369.028    4.3282887    4.3282887    4.3282887    10369.028    20204.442   -2642.1371     13544.78    -219.4242   -6372.5292    2498.9616    81.086521 
   28300    715.33417   -113.74299   0.64724939   -113.09574   -9734.2297    4.3472487    4.3472487    4.3472487   -9734.2297   -3129.5265   -35003.349    8930.1866   -3980.6692    3339.6809    727.75618    82.156787 
   28400    477.91596    -113.5298    0.4324284   -113.09737   -7222.9369    4.3444046    4.3444046    4.3444046   -7222.9369   -8025.7352    -21639.67    7996.5939    1725.1402    4597.1393   -3592.7764    81.995647 
   28500     549.1448   -113.59309   0.49687776   -113.09621    9178.2166    4.3333266    4.3333266    4.3333266    9178.2166    28057.394   -2838.1586    2315.4139    5142.8733     3975.944    1172.9997    81.369993 
   28600    658.33488    -113.6907   0.59567523   -113.09503   -8886.9624    4.3482198    4.3482198    4.3482198   -8886.9624    3752.5265   -30730.935    317.52112    1977.9204    3035.7683    1585.7253    82.211859 
   28700    432.93942   -113.48773   0.39173269   -113.09599    10842.509    4.3342179    4.3342179    4.3342179    10842.509    20715.315   -8640.6391    20452.851    972.55865   -1316.0676     505.7758     81.42021 
   28800    348.29045    -113.4156   0.31514052   -113.10046   -7718.5783    4.3489268    4.3489268    4.3489268   -7718.5783    15109.194   -26518.889   -11746.039   -3152.7129    5095.7819   -155.69787    82.251966 
   28900    542.32119   -113.58687   0.49070361   -113.09617    7046.5911    4.3371634    4.3371634    4.3371634    7046.5911    18299.212   -4273.8496    7114.4109   -3982.6439    350.34237   -2313.7338     81.58632 
   29000    574.98292   -113.61682   0.52025663   -113.09656    3569.8835    4.3383259    4.3383259    4.3383259    3569.8835    4142.5547   -1759.4179    8326.5138    3332.2742   -803.42465    4168.1496    81.651941 
   29100    437.13135   -113.49527   0.39552563   -113.09974    -19696.78    4.3504724    4.3504724    4.3504724    -19696.78   -24132.076    -24199.94   -10758.324    1984.9267   -1730.1498    -198.5191    82.339695 
   29200    501.10498   -113.55018   0.45341032   -113.09677    13505.442    4.3269427    4.3269427    4.3269427    13505.442    16182.553    9718.2678    14615.504   -1288.2613   -7585.5282   -1253.3605    81.010895 
   29300    687.29865   -113.71834   0.62188226   -113.09645   -9409.9853    4.3519959    4.3519959    4.3519959   -9409.9853    -21947.76   -3159.0596   -3123.1367   -1500.1155    2552.8799    2271.8966     82.42623 
   29400    609.05842   -113.65047   0.55108886   -113.09938   -4534.5907    4.3396903    4.3396903    4.3396903   -4534.5907   -17965.019   -1886.6199    6247.8668   -947.04545    616.55073   -4842.6073    81.729006 
   29500    452.22025   -113.50839   0.40917839   -113.09921     12882.42    4.3289022    4.3289022    4.3289022     12882.42    12667.429    8853.2576    17126.574    4490.6286    -209.5684    825.42535    81.121007 
   29600     528.3591   -113.57432   0.47807042   -113.09625   -6319.7655    4.3574776    4.3574776    4.3574776   -6319.7655   -5804.4692   -9604.8965   -3549.9306    694.82048   -616.48157    6647.9278     82.73809 
   29700    734.88321   -113.75649   0.66493778   -113.09156    19194.572    4.3271575    4.3271575    4.3271575    19194.572    20121.896    14803.458    22658.363    645.67883    2828.6237   -4073.7623    81.022962 
   29800    513.30276   -113.56401   0.46444713   -113.09956   -3507.1119    4.3424351    4.3424351    4.3424351   -3507.1119   -4641.2734   -6679.2719     799.2094    851.04315    5616.7115    -3156.441    81.884182 
   29900      475.194   -113.52565   0.42996551   -113.09568   -5474.4203    4.3506952    4.3506952    4.3506952   -5474.4203   -4927.4155   -2795.1724   -8700.6731   -3935.3749   -2498.8181    4263.2876    82.352344 
   30000    855.51146   -113.86306   0.77408475   -113.08898    18874.985     4.324548     4.324548     4.324548    18874.985    26611.392    15206.434     14807.13    1351.5226   -3651.8831   -969.65738    80.876468 
   30100    667.75974   -113.70138   0.60420305   -113.09718   -14584.383    4.3509215    4.3509215    4.3509215   -14584.383   -17920.499   -17824.854   -8007.7956    3016.9515    1090.7334    158.54258    82.365199 
   30200    558.24081   -113.60387   0.50510802   -113.09876   -3100.0278    4.3371797    4.3371797    4.3371797   -3100.0278   -5637.6315    2085.6683   -5748.1201   -1891.8186    1606.1055     1810.052    81.587242 
   30300    698.42761    -113.7298   0.63195198   -113.09784    4073.8785    4.3385111    4.3385111    4.3385111    4073.8785    24948.476   -3733.7382   -8993.1028   -2385.5211   -1075.1789   -1109.0387    81.662401 
   30400    732.03309   -113.75691   0.66235892   -113.09455   -5633.0024    4.3489162    4.3489162    4.3489162   -5633.0024    2263.1323   -15985.617   -3176.5225   -2408.5176    -2163.264   -152.23413    82.251365 
   30500    566.28201   -113.60654   0.51238386   -113.09416    8859.5369    4.3300778    4.3300778    4.3300778    8859.5369    26341.425   -393.16027    630.34611    116.86929   -1699.9446   -208.98785    81.187115 
   30600    538.01638    -113.5854   0.48680853    -113.0986   -14980.274    4.3476447    4.3476447    4.3476447   -14980.274    1465.8128   -25006.404    -21400.23    3384.7756   -5781.3991    3069.8833    82.179241 
   30700    617.59337   -113.65521   0.55881146   -113.09639    8100.5016    4.3360177    4.3360177    4.3360177    8100.5016     25500.64   -6201.2145    5002.0793   -1846.4986    872.41048   -1787.9149    81.521685 
   30800    660.58985   -113.69527   0.59771558   -113.09755    794.06821    4.3393358    4.3393358    4.3393358    794.06821    18736.759   -8039.3604   -8315.1941   -1238.9625    7135.9091   -6827.9702    81.708981 
   30900    467.69428   -113.52136   0.42317961   -113.09818   -11586.945     4.345788     4.345788     4.345788   -11586.945    3830.0906   -24795.221   -13795.706   -1380.8492   -1646.7441    5578.8113    82.074005 
   31000    590.33953   -113.62991   0.53415161   -113.09576    1159.6584    4.3298563    4.3298563    4.3298563    1159.6584    9601.5468    -9753.875    3631.3032   -116.98086   -5994.7329   -2033.3037    81.174652 
   31100    664.77037   -113.69773    0.6014982   -113.09624   -15339.168    4.3496479    4.3496479    4.3496479   -15339.168     5656.222   -28784.465    -22889.26    6131.1045   -940.40046   -7439.2343    82.292888 
   31200     538.0133   -113.58383   0.48680574   -113.09702     2675.043    4.3356826    4.3356826    4.3356826     2675.043    9244.9272    2966.3472   -4186.1454   -617.53357    2582.7531    4466.9006    81.502784 
   31300    572.03169   -113.61536   0.51758629   -113.09777    845.36874    4.3335109    4.3335109    4.3335109    845.36874    12881.907   -11207.285     861.4836   -4669.1604   -1144.6873   -356.65431    81.380375 
   31400    610.00142   -113.64721   0.55194211   -113.09527    -20101.33    4.3514659    4.3514659    4.3514659    -20101.33   -5910.7738   -33488.614   -20904.602    505.41942   -1287.0705   -4897.7991    82.396119 
   31500    636.95167   -113.67083   0.57632726    -113.0945    6552.6911     4.326465     4.326465     4.326465    6552.6911    16354.375    3087.4071    216.29127   -3792.9561   -4131.4925    1865.3212    80.984067 
   31600    558.45403   -113.60501   0.50530094   -113.09971    1080.5397    4.3415568    4.3415568    4.3415568    1080.5397    2215.8185   -2200.0519    3225.8525    916.81268   -6704.7339    1948.0458    81.834505 
   31700    522.22325    -113.5697   0.47251857   -113.09719   -3604.6109    4.3473189    4.3473189    4.3473189   -3604.6109     14351.78   -14442.954   -10722.659   -104.07762    399.89882   -5606.7669    82.160769 
   31800    601.08947   -113.63635   0.54387838   -113.09248     10257.45    4.3250951    4.3250951    4.3250951     10257.45    15935.381    5152.9394    9684.0299   -2031.2101    2859.4536   -2756.6721    80.907167 
   31900    579.36303   -113.62125   0.52421984   -113.09703   -8527.3156    4.3460353    4.3460353    4.3460353   -8527.3156   -10889.805   -14345.062   -347.07963    3854.2424    730.54808    7449.4999    82.088013 
   32000    430.76252   -113.48704   0.38976298   -113.09727    4876.6253    4.3424101    4.3424101    4.3424101    4876.6253   -1150.5277    12317.054    3463.3492    1522.6517   -1754.3467    937.79385    81.882769 
   32100    546.07055   -113.58916   0.49409611   -113.09507    11388.442      4.32674      4.32674      4.32674    11388.442    18598.675   -206.18413    15772.836      2126.24   -473.00827   -9154.8839    80.999509 
   32200    441.85011   -113.49805   0.39979527   -113.09826   -4280.1701    4.3460031    4.3460031    4.3460031   -4280.1701   -14860.973      -2480.1    4500.5628   -1058.8108    2263.6689    946.94165    82.086189 
   32300    565.10256   -113.60666   0.51131667   -113.09534   -9177.5564    4.3419766    4.3419766    4.3419766   -9177.5564   -27689.035   -1448.2859    1604.6518    1703.8961   -3358.3933    3273.8148    81.858243 
   32400    373.59072   -113.43522   0.33803274   -113.09719    11592.478    4.3281847    4.3281847    4.3281847    11592.478    908.84809    16188.654    17679.933    5599.6271    1395.1374   -6718.1179    81.080673 
   32500    415.92725    -113.4766   0.37633972   -113.10026   -6398.5351     4.345907     4.345907     4.345907   -6398.5351   -11719.109   -10549.068    3072.5722   -4351.2054   -1379.9209   -2399.8361    82.080743 
   32600    515.50103   -113.56256   0.46643617   -113.09612   -7488.4388    4.3440507    4.3440507    4.3440507   -7488.4388   -25422.657    2168.3031    789.03773   -3145.4183   -3692.9225    3902.2975    81.975611 
   32700    473.94131   -113.52368   0.42883205   -113.09485    5677.6062    4.3278133    4.3278133    4.3278133    5677.6062   -7919.2561     12474.14    12477.934   -3463.2186    1266.0296   -6777.0073    81.059805 
   32800    338.49742   -113.40651   0.30627958   -113.10023   -2124.8748    4.3455679    4.3455679    4.3455679   -2124.8748   -5428.4769   -4956.0469    4009.8992    554.24389   -1610.5521   -5355.6391    82.061534 
   32900    557.35881   -113.60232   0.50430996   -113.09801   -7127.1884      4.34461      4.34461      4.34461   -7127.1884   -3091.8057   -9581.9554   -8707.8042    5204.6867    950.42498     7929.573    82.007277 
   33000    561.00164   -113.60171   0.50760607    -113.0941    11487.079    4.3261586    4.3261586    4.3261586    11487.079    3644.9181    17458.164    13358.155   -4677.2798   -4031.8107    935.36992    80.966865 
   33100    528.36103   -113.57797   0.47807217    -113.0999   -8741.1624    4.3473814    4.3473814    4.3473814   -8741.1624   -6952.8348   -13274.417   -5996.2355   -3445.0584   -1251.2229   -7813.9639    82.164314 
   33200    545.78241   -113.59291    0.4938354   -113.09907    1240.1022    4.3424518    4.3424518    4.3424518    1240.1022    15834.851   -4571.1612   -7543.3834   -1671.3165    2087.1089     4562.496    81.885128 
   33300    838.16671   -113.85178   0.75839086   -113.09339    9831.1772    4.3258576    4.3258576    4.3258576    9831.1772     12441.28    12427.411      4624.84    4549.6484   -5681.0181    6154.1869    80.949962 
   33400    668.82522   -113.70423   0.60516712   -113.09906   -6953.7157    4.3502371    4.3502371    4.3502371   -6953.7157   -5606.7711   -2197.4869   -13056.889    4054.5308    1218.9498    -9663.221    82.326337 
   33500     744.6407   -113.77166   0.67376655    -113.0979    2126.4391    4.3380404    4.3380404    4.3380404    2126.4391    17304.643   -10833.372    -91.95345   -3072.2877   -625.88486   -582.00714    81.635823 
   33600    877.94049   -113.88903     0.794379   -113.09465    12350.521    4.3297842    4.3297842    4.3297842    12350.521    22061.856    15939.291   -949.58268   -1696.8158   -2716.7896     9941.794      81.1706 
   33700    862.68442   -113.87697   0.78057499   -113.09639   -8042.4136    4.3492996    4.3492996    4.3492996   -8042.4136     531.8918   -8674.8482   -15984.284    752.85567    1203.7079   -7550.9724    82.273123 
   33800    826.09353   -113.84372   0.74746679   -113.09625    2859.7835    4.3349055    4.3349055    4.3349055    2859.7835    20415.172   -10395.941   -1439.8805    6459.6763    3503.0997    -7052.555    81.458969 
   33900    837.21746   -113.85514   0.75753195    -113.0976    6094.8006    4.3346245    4.3346245    4.3346245    6094.8006    26860.556    2808.3299   -11384.484    1007.1627    3869.1968    4615.4785    81.443127 
   34000     913.2653   -113.92365   0.82634164    -113.0973   -4584.4532    4.3447474    4.3447474    4.3447474   -4584.4532     8151.053   -6416.2771   -15488.135   -7486.4996   -8277.8036    659.53945    82.015055 
   34100    773.78491   -113.79806   0.70013685   -113.09792    3022.2748    4.3361323    4.3361323    4.3361323    3022.2748     27036.86   -12105.662   -5864.3737    524.41207   -4808.2099   -8702.3124    81.528146 
   34200    734.05587   -113.76295   0.66418918   -113.09876   -2054.1328    4.3368293    4.3368293    4.3368293   -2054.1328    17533.614   -10584.168   -13111.844    2956.3428    1860.6313   -974.04782    81.567466 
   34300    758.73898   -113.78417   0.68652297   -113.09765   -4410.2854    4.3411873    4.3411873    4.3411873   -4410.2854    5842.3197   -6037.9539   -13035.222    3007.0738   -1790.2978    8093.8144     81.81361 
   34400    687.57229   -113.71961   0.62212986   -113.09748   -1612.2242    4.3393713    4.3393713    4.3393713   -1612.2242    12789.386   -9371.1938   -8254.8652    850.82956   -68.554531   -11985.711    81.710983 
   34500    611.50672   -113.65174   0.55330413   -113.09843    2877.4486    4.3360086    4.3360086    4.3360086    2877.4486    20495.594   -8855.1226   -3008.1259   -3536.4261   -1773.8538   -4438.1598    81.521169 
   34600    667.75519   -113.70212   0.60419893   -113.09792   -5776.9497    4.3404919    4.3404919    4.3404919   -5776.9497   -7630.7004   -6608.1649   -3091.9839   -1741.0597   -4901.4517    12193.869    81.774305 
   34700    598.63096   -113.63923   0.54165387   -113.09758   -7106.2929    4.3413745    4.3413745    4.3413745   -7106.2929   -15730.485   -6098.6656    510.27202    977.88737   -6380.7561   -6615.7381    81.824199 
   34800    611.68394   -113.65022   0.55346448   -113.09675    4228.1275    4.3328488    4.3328488    4.3328488    4228.1275    4393.7197    8021.1213    269.54147    5960.6266    2668.2412   -8208.1495    81.343077 
   34900    534.66667   -113.58195   0.48377764   -113.09817    2597.5082    4.3414306    4.3414306    4.3414306    2597.5082    319.77324   -5037.7654    12510.517   -888.32233    5176.7141     5179.424    81.827372 
   35000    621.90296   -113.65973   0.56271087   -113.09702   -5790.9865    4.3395944    4.3395944    4.3395944   -5790.9865   -21693.162    123.65933    4196.5433    -5578.492   -6952.9455    4598.6653    81.723587 
   35100    568.29942   -113.61056   0.51420926   -113.09635     2189.153    4.3334157    4.3334157    4.3334157     2189.153   -11518.233    15386.876    2698.8155   -867.22346   -1116.3728   -2904.3529    81.375008 
   35200    537.70353    -113.5842   0.48652545   -113.09767    -2389.111    4.3443689    4.3443689    4.3443689    -2389.111    -11865.29   -8163.6363    12861.593    1550.3598    3921.6023   -3959.8484    81.993625 
   35300    555.22079   -113.59895   0.50237544   -113.09658    10126.448    4.3356316    4.3356316    4.3356316    10126.448    13097.697    7418.4247    9863.2209   -1213.4465   -2481.6005    3175.6427    81.499909 
   35400    584.16822   -113.62497   0.52856768    -113.0964    3915.8848    4.3344072    4.3344072    4.3344072    3915.8848   -15436.146    21459.454    5724.3457   -1757.8614   -5206.7394     -2141.12    81.430878 
   35500    565.54356   -113.60898    0.5117157   -113.09727     -10653.1    4.3449941    4.3449941    4.3449941     -10653.1   -26260.642   -14531.713    8833.0538     1877.809    610.80438   -861.76185    82.029028 
   35600    544.31704    -113.5898    0.4925095   -113.09729    945.84617    4.3346226    4.3346226    4.3346226    945.84617   -817.76469    1640.4101     2014.893    2758.4918    4307.7395    7891.0864     81.44302 
   35700    558.14619   -113.60295    0.5050224   -113.09793     9333.555    4.3337406    4.3337406    4.3337406     9333.555    14006.296    7819.5505     6174.819   -85.823773   -9821.8002    -857.5599    81.393316 
   35800    667.14352   -113.70061   0.60364548   -113.09696   -12242.363    4.3456211    4.3456211    4.3456211   -12242.363   -20447.095   -12197.237   -4082.7555     2065.207    -2850.885    -8340.775    82.064545 
   35900    475.36439   -113.52762   0.43011969    -113.0975   -644.12367    4.3343618    4.3343618    4.3343618   -644.12367   -9456.6219   -3324.9222    10849.173    1340.9479      8549.89    435.19412     81.42832 
   36000    611.39904   -113.65121    0.5532067     -113.098   -5152.5598    4.3359339    4.3359339    4.3359339   -5152.5598    -6325.346   -10895.666    1763.3328   -812.63544   -8356.3936    9196.6575     81.51696 
   36100    584.83398   -113.62571   0.52917007   -113.09654   -5418.4854    4.3453495    4.3453495    4.3453495   -5418.4854    6021.9119   -20543.124   -1734.2438     3203.541   -1743.0171    604.36746    82.049158 
   36200    601.85365   -113.64034   0.54456983   -113.09577    1407.3027    4.3311618    4.3311618    4.3311618    1407.3027   -69.890211   -3500.1458     7791.944    2282.6953    7788.1298   -4878.9787    81.248101 
   36300    496.89732      -113.55   0.44960314   -113.10039    -2936.713    4.3389746    4.3389746    4.3389746    -2936.713    113.07323   -15975.309    7052.0967   -3123.3973   -1343.3888    2376.7923    81.688574 
   36400    615.42687   -113.65471   0.55685117   -113.09786   -9760.0222    4.3441876    4.3441876    4.3441876   -9760.0222   -2404.9438   -26409.091   -466.03175   -2318.1725   -4835.8982    2226.5516    81.983359 
   36500    577.83731   -113.61847   0.52283934   -113.09563    9252.2823    4.3286242    4.3286242    4.3286242    9252.2823    32233.333   -8673.9304    4197.4446    5615.2899    4046.4365   -1490.6788     81.10538 
   36600    491.19599   -113.54377   0.44444446   -113.09932   -5638.5443    4.3438185    4.3438185    4.3438185   -5638.5443   -3698.4029   -23920.963    10703.733     1229.112    4176.0684    2392.6938    81.962463 
   36700     506.1187   -113.55366   0.45794684   -113.09572   -1470.1647    4.3422982    4.3422982    4.3422982   -1470.1647     12853.19   -17869.184    605.50015    -3256.359   -9693.7163    4423.7582    81.876435 
   36800    641.12174   -113.67289   0.58010042   -113.09279    5887.5116    4.3278416    4.3278416    4.3278416    5887.5116    22695.299    -7616.902    2584.1381    2869.3023   -5574.3314   -594.22218    81.061392 
   36900    440.01088   -113.49599   0.39813109   -113.09786   -10777.333    4.3470725    4.3470725    4.3470725   -10777.333    -1078.642   -29467.988   -1785.3699   -1824.8195    9827.5647   -1171.8141    82.146802 
   37000    516.50778   -113.56495   0.46734709    -113.0976   -6321.2198    4.3386564    4.3386564    4.3386564   -6321.2198     7762.827   -19094.106   -7632.3807   -1354.3102   -622.90187    5510.3738    81.670602 
   37100    533.12229   -113.57866   0.48238025   -113.09628    14960.425    4.3283787    4.3283787    4.3283787    14960.425    31959.374    2833.3209    10088.579     3330.297   -10101.996    833.56279     81.09158 
   37200     591.4439    -113.6319   0.53515087   -113.09675   -15487.967    4.3480485    4.3480485    4.3480485   -15487.967   -8383.4627   -24221.681   -13858.756   -1846.3542    4728.1478   -226.78186     82.20214 
   37300    390.56968   -113.45233   0.35339565   -113.09893   -3904.8239    4.3380995    4.3380995    4.3380995   -3904.8239    16383.589   -16997.507   -11100.553   -578.13362    4885.6003    7372.0526    81.639159 
   37400    614.66869   -113.65353   0.55616515   -113.09737    7335.3619    4.3289474    4.3289474    4.3289474    7335.3619    18226.181     1355.787    2424.1175    -675.2319   -5110.9046    3666.3236    81.123545 
   37500    620.92922   -113.65908    0.5618298   -113.09725   -585.61679    4.3453118    4.3453118    4.3453118   -585.61679    13588.347   -10267.563   -5077.6345    1701.3341    1178.6027   -3337.1207    82.047024 
   37600    510.21555   -113.56061   0.46165375   -113.09896   -8316.7663    4.3404924    4.3404924    4.3404924   -8316.7663   -307.10298   -14310.917   -10332.279   -3847.0338    7036.9691    2109.8034    81.774331 
   37700    660.13892   -113.69344   0.59730757   -113.09613     1734.167    4.3290027    4.3290027    4.3290027     1734.167    3968.2471    2632.7896   -1398.5356   -2739.5472   -946.30506     6936.423    81.126657 
   37800    721.60728   -113.75035   0.65292543   -113.09742    923.64586    4.3455588    4.3455588    4.3455588    923.64586    7335.8417   -10292.029    5727.1253    3022.4776   -6124.5626   -26.002144    82.061018 
   37900    669.15977   -113.70498   0.60546982   -113.09951   -3623.8794    4.3375925    4.3375925    4.3375925   -3623.8794    1936.8005   -8620.1016    -4188.337   -3974.2444    5303.7077   -1001.5772    81.610537 
   38000    551.17891   -113.59792   0.49871826    -113.0992    6230.8217    4.3274316    4.3274316    4.3274316    6230.8217    11.114318    1662.6259    17018.725   -2583.7794    2003.8709    2942.2025    81.038357 
   38100    812.68675   -113.83195   0.73533605   -113.09661   -14054.354     4.351372     4.351372     4.351372   -14054.354   -18194.002   -17292.143   -6676.9183   -319.42994   -4475.3259   -404.53332    82.390782 
   38200    632.25419    -113.6702   0.57207688   -113.09813    7553.8382    4.3337194    4.3337194    4.3337194    7553.8382     14982.67   -4520.6207    12199.465   -3236.4214     7699.123    -208.0714    81.392122 
   38300     536.5295   -113.58437   0.48546316   -113.09891    7350.0037    4.3264852    4.3264852    4.3264852    7350.0037    -929.8368   -3435.3082    26415.156   -3101.2313    5761.7239    3201.5818    80.985199 
   38400    673.65314   -113.70592   0.60953552   -113.09639   -18564.837    4.3537382    4.3537382    4.3537382   -18564.837   -21636.792   -23922.704   -10135.014    920.74578   -683.51046    1132.1693    82.525266 
   38500    757.65782   -113.78057   0.68554472   -113.09502    1237.1874    4.3298285    4.3298285    4.3298285    1237.1874    -1480.993   -9246.4811    14439.036   -3025.5797   -3704.1996   -4417.1627    81.173091 
   38600    424.43153   -113.48426   0.38403457   -113.10022    11918.631    4.3276145    4.3276145    4.3276145    11918.631    10832.839   -4259.5397    29182.595   -5938.0775    8085.7506    165.37246    81.048634 
   38700    632.24063   -113.66948   0.57206461   -113.09741    -20070.43    4.3530228    4.3530228    4.3530228    -20070.43   -15371.649   -29223.034   -15616.607    5046.5537    11654.755    3509.0622    82.484589 
   38800    674.56533   -113.70482   0.61036089   -113.09446    5747.5111    4.3290247    4.3290247    4.3290247    5747.5111    10617.826   -11019.503    17644.211   -1210.2127   -5715.1139   -4504.6296    81.127892 
   38900     580.4606   -113.62413   0.52521295   -113.09892    2082.7039    4.3298631    4.3298631    4.3298631    2082.7039    10738.353   -17247.979    12757.738   -3865.8976   -743.31611   -156.37567    81.175036 
   39000    393.87675   -113.45544   0.35638796   -113.09905   -8483.2216    4.3510115    4.3510115    4.3510115   -8483.2216    14293.971   -29055.885    -10687.75   -747.69459    6166.4034    4221.0108    82.370311 
   39100    746.33662   -113.77024   0.67530106   -113.09493    7277.9014    4.3254453    4.3254453    4.3254453    7277.9014    15153.482     -2278.02    8958.2422    -1916.245    851.27323   -5856.8144    80.926817 
   39200    625.16215    -113.6666   0.56565985   -113.10094    1248.7244    4.3355676    4.3355676    4.3355676    1248.7244    16538.527    -23048.27    10255.915   -1288.3039    1081.9579   -4112.7732      81.4963 
   39300    466.57697   -113.52049   0.42216865   -113.09833   -14701.645    4.3485367    4.3485367    4.3485367   -14701.645    5470.0764   -36151.276   -13423.736    -182.7344      5509.58    3811.0475    82.229837 
   39400    613.47108   -113.64935   0.55508153   -113.09427    11211.439    4.3226694    4.3226694    4.3226694    11211.439    26097.471   -942.34146    8479.1864    5767.9593    2018.0274   -2056.6209    80.771115 
   39500    710.33282   -113.74011   0.64272406   -113.09738   -2561.1452    4.3410675    4.3410675    4.3410675   -2561.1452    20508.355   -19809.914   -8381.8765   -2626.8822   -624.82642   -3855.8833    81.806839 
   39600    596.02128   -113.63639   0.53929258    -113.0971   -7776.6728    4.3425532    4.3425532    4.3425532   -7776.6728     2194.939    -24046.42   -1478.5371   -5961.6174    5716.7589    616.89168    81.890862 
   39700    490.58886   -113.54102   0.44389511   -113.09713    8214.3844    4.3246776    4.3246776    4.3246776    8214.3844    20828.689   -6106.1369    9920.6007     1764.158    7034.2619   -2762.7961     80.88374 
   39800     697.2566   -113.72787   0.63089242   -113.09698   -11124.985    4.3438167    4.3438167    4.3438167   -11124.985    11733.947   -23421.966   -21686.936    2077.9821   -2486.3949   -5541.0606    81.962363 
   39900    686.34011   -113.71713   0.62101496   -113.09612   -2387.6477    4.3380915    4.3380915    4.3380915   -2387.6477    12395.181   -8995.9023   -10562.222   -679.14237   -3011.9421    1485.4265    81.638709 
   40000    504.91879   -113.55484   0.45686113   -113.09798    6500.3981    4.3291128    4.3291128    4.3291128    6500.3981    5967.0158    -3257.849    16792.027   -386.26169    7031.8653    2538.8884    81.132844 
   40100    552.40323   -113.59869   0.49982605   -113.09886   -7235.1526    4.3409882    4.3409882    4.3409882   -7235.1526    12227.499    -15711.44   -18221.517    1434.7801     911.9936   -6797.6178    81.802356 
   40200    721.95492   -113.75029   0.65323999   -113.09705   -2529.4595    4.3354761    4.3354761    4.3354761   -2529.4595    10492.957   -1806.9832   -16274.352   -2120.0477   -8244.0004   -5602.7165    81.491139 
   40300    579.81633   -113.62342      0.52463   -113.09879    6310.6032    4.3337454    4.3337454    4.3337454    6310.6032    17807.658    4695.1022   -3570.9507    1182.1192     5781.273    3119.0632    81.393585 
   40400    509.90892    -113.5609   0.46137631   -113.09952    546.53038    4.3388027    4.3388027    4.3388027    546.53038    8564.8258   -6324.9255   -600.30918    3857.8229    3482.1888   -1439.8842    81.678867 
   40500    584.26706   -113.62738   0.52865711   -113.09873     3075.929    4.3348539    4.3348539    4.3348539     3075.929    10646.193    8794.2813   -10212.687   -173.15903    -2916.663   -6146.5658    81.456057 
   40600    698.54785   -113.72917   0.63206077   -113.09711    2147.8163    4.3341439    4.3341439    4.3341439    2147.8163      7979.01    11759.939     -13295.5   -489.32383    862.22799    965.33511     81.41604 
   40700    580.13122   -113.62388   0.52491492   -113.09897   -3109.0668     4.340181     4.340181     4.340181   -3109.0668    13828.871   -5629.9095   -17526.162    1883.2145    4075.8179   -1680.1732    81.756733 
   40800    488.26797   -113.54231   0.44179512   -113.10052    5057.4537    4.3330263    4.3330263    4.3330263    5057.4537    364.31653    15273.076   -465.03084    3564.4399    680.35095   -5956.7867    81.353078 
   40900    717.91119   -113.74725   0.64958113   -113.09767    3464.8496    4.3338345    4.3338345    4.3338345    3464.8496    840.26441    16211.164   -6656.8792   -3142.9614   -9227.7858    1367.2753    81.398608 
   41000    769.01507   -113.79257     0.695821   -113.09675    -11022.52    4.3434187    4.3434187    4.3434187    -11022.52    -6670.288   -6702.5834    -19694.69   -3204.0706     3354.178    3157.8273    81.939834 
   41100    528.17947    -113.5773   0.47790789   -113.09939    2448.8202    4.3296373    4.3296373    4.3296373    2448.8202    5062.6349    14436.373   -12152.547    2776.6034    2113.4203   -5272.0108    81.162339 
   41200    665.16296   -113.70207   0.60185343   -113.10021    600.10829    4.3351572    4.3351572    4.3351572    600.10829   -7517.8775    7823.1966    1495.0058    2080.0147   -12819.412   -6510.7408    81.473158 
   41300    927.62312   -113.93552   0.83933289   -113.09619   -9310.8037    4.3438984    4.3438984    4.3438984   -9310.8037   -10277.044   -10053.987   -7601.3803    3736.0469    6038.6494    4422.6445    81.966988 
   41400    665.88142   -113.70046    0.6025035   -113.09795    7785.0538    4.3283962    4.3283962    4.3283962    7785.0538     4669.424    15204.688    3481.0494    1411.2595    3603.8207    1348.6432    81.092562 
   41500    651.06615   -113.69103   0.58909833   -113.10193   -7955.0471    4.3381122    4.3381122    4.3381122   -7955.0471   -5203.8894   -8606.3062   -10054.946    229.98258   -9670.7963   -9355.7961    81.639878 
   41600    842.94995   -113.86132   0.76271883    -113.0986   -2815.6766      4.34071      4.34071      4.34071   -2815.6766    506.12769   -12829.026    3875.8684   -1465.2958   -195.65166    844.49887    81.786629 
   41700    901.56988   -113.91107   0.81575937   -113.09531    7458.9093    4.3291454    4.3291454    4.3291454    7458.9093    9283.7946    4334.3476    8758.5858    -1359.944    1459.0406    2097.5762    81.134678 
   41800     607.4947   -113.65181   0.54967397   -113.10214   -1919.7185     4.339646     4.339646     4.339646   -1919.7185   -335.72836   -7844.8352     2421.408    6835.8765     -2404.39   -7992.0817      81.7265 
   41900     717.8903   -113.74952   0.64956223   -113.09996   -2871.6624    4.3377021    4.3377021    4.3377021   -2871.6624    7753.0637   -17298.508    930.45712    252.77797   -9774.8191    251.01908    81.616727 
   42000    859.37951   -113.87382   0.77758464   -113.09624    7119.7196    4.3302083    4.3302083    4.3302083    7119.7196    12216.253   -5700.5231    14843.429   -2031.2976   -1345.9614    4834.7583    81.194452 
   42100    760.59167   -113.78831   0.68819933   -113.10011     -7638.15    4.3417791    4.3417791    4.3417791     -7638.15     2529.615   -18492.494   -6951.5712    3365.5366    3876.0608   -7820.6758    81.847074 
   42200    458.10417   -113.51548   0.41450228   -113.10098    5142.0188    4.3378644    4.3378644    4.3378644    5142.0188    7986.6001   -5644.1267    13083.583    2340.3806   -7709.7903   -4037.5789    81.625888 
   42300    778.78272   -113.80162   0.70465897   -113.09696    1172.7774    4.3293031    4.3293031    4.3293031    1172.7774    5346.9245   -10348.058    8519.4662    618.17175    331.88042    6807.1841    81.143544 
   42400    675.00029     -113.709   0.61075445   -113.09825   -6149.9273    4.3397379    4.3397379    4.3397379   -6149.9273    7298.0933    -19586.52    -6161.355   -2690.6553    -1351.219   -3549.7323    81.731694 
   42500    470.55467   -113.52625   0.42576775   -113.10048   -8978.1913    4.3406821    4.3406821    4.3406821   -8978.1913    2252.5462   -17780.794   -11406.326    3433.5205    -8053.214   -11052.462    81.785054 
   42600    405.66867   -113.46629   0.36705754   -113.09923    12231.893    4.3297086    4.3297086    4.3297086    12231.893    6969.5278    9902.6324    19823.519   -1482.6794   -405.43138    1147.4511    81.166348 
   42700    656.41982   -113.69006   0.59394244   -113.09612   -5051.1765    4.3375151    4.3375151    4.3375151   -5051.1765    5151.1485   -13902.805    -6401.873    -5252.708    2819.1986    2229.0015    81.606172 
   42800    369.41032   -113.43326   0.33425022   -113.09901   -11745.917    4.3416849    4.3416849    4.3416849   -11745.917    10661.218   -20771.518   -25127.452    5734.5387   -660.88636   -7407.3803    81.841749 
   42900    347.87815     -113.413   0.31476746   -113.09823   -2963.7435    4.3311777    4.3311777    4.3311777   -2963.7435    5150.6871    118.13027   -14160.048   -2096.1535   -8556.9423   -2700.9571    81.248994 
   43000    405.02083   -113.46475   0.36647136   -113.09827    8284.7006    4.3366508    4.3366508    4.3366508    8284.7006    10023.577    10003.789    4826.7358   -4389.1481   -1780.6589    2987.3051    81.557397 
   43100    506.73849   -113.55518   0.45850764   -113.09668   -7153.5537    4.3398853    4.3398853    4.3398853   -7153.5537    14781.824    -13657.66   -22584.825    3580.1328    4918.4287   -5362.9476    81.740024 
   43200    270.09155   -113.34242   0.24438451   -113.09803   -6365.1114    4.3320226    4.3320226    4.3320226   -6365.1114    8975.9741     1500.495   -29571.803     307.5025   -6373.4834   -4860.9384    81.296554 
   43300    396.71906    -113.4586   0.35895974   -113.09964   -8067.5668    4.3382223    4.3382223    4.3382223   -8067.5668    4519.6198   -2230.1901    -26492.13   -32.315415   -2533.5346    5017.4341    81.646091 
   43400    398.77973   -113.45745   0.36082428   -113.09662    9250.7451     4.338763     4.338763     4.338763    9250.7451    18631.095    12089.195   -2968.0553   -3382.1484    2478.1033   -4557.7467    81.676623 
   43500    514.38044    -113.5612   0.46542224   -113.09577   -1738.1576    4.3314366    4.3314366    4.3314366   -1738.1576    10807.446    2811.0298   -18832.949   -1304.9577   -6106.4447   -8920.0124    81.263566 
   43600    301.18483   -113.37237   0.27251836   -113.09985   -9465.7334    4.3389656    4.3389656    4.3389656   -9465.7334    6644.6674   -3099.9759   -31941.892   -422.62258   -5454.3069    3275.4789    81.688067 
   43700    482.11315   -113.53418   0.43622611   -113.09795   -6127.0897    4.3390612    4.3390612    4.3390612   -6127.0897      9224.32   -2580.5186   -25025.071   -6224.5008     2812.936    1299.0849    81.693466 
   43800    535.55161    -113.5818   0.48457836   -113.09722    14298.759    4.3296435    4.3296435    4.3296435    14298.759    19326.727    18549.597    5019.9526    3682.3206   -232.35949   -7462.3301    81.162687 
   43900    557.34416   -113.60256   0.50429671   -113.09826   -2808.4309    4.3378602    4.3378602    4.3378602   -2808.4309    10651.826   -3453.7881    -15623.33      990.668   -5582.3933   -4490.4237    81.625652 
   44000    444.14768    -113.5016   0.40187415   -113.09973   -8297.4823    4.3414342    4.3414342    4.3414342   -8297.4823   -2732.7229   -1484.7978   -20674.926   -5458.0624    2501.7963    3004.8967     81.82757 
   44100    682.14472   -113.71525   0.61721887   -113.09803    1773.6339    4.3298568    4.3298568    4.3298568    1773.6339    14414.219   -2424.6841    -6668.633     1516.588    9832.2591   -1223.1047    81.174681 
   44200    666.44755   -113.70104   0.60301575   -113.09802     11579.54    4.3354776    4.3354776    4.3354776     11579.54    12345.461    11426.022    10967.139   -1778.1929   -3625.9035   -3201.7453    81.491224 
   44300    731.32874   -113.76072   0.66172161     -113.099   -9489.6511      4.34176      4.34176      4.34176   -9489.6511   -12180.545   -8501.4068   -7787.0018   -3290.7084   -8614.8589    2560.7683    81.845996 
   44400    598.61811   -113.64127   0.54164224   -113.09962    1711.2255     4.331194     4.331194     4.331194    1711.2255    3646.3729   -3292.8844     4780.188   -3848.6791    5180.8698   -6623.9478    81.249916 
   44500     875.1057   -113.89049   0.79181402   -113.09868   -714.26202    4.3362415    4.3362415    4.3362415   -714.26202    2982.3603   -4916.8595   -208.28693   -2679.2151    1539.0384   -6991.1219     81.53431 
   44600    855.86492     -113.872   0.77440457   -113.09759    3254.1156    4.3391097    4.3391097    4.3391097    3254.1156   -6704.3147    5233.8433    11232.818    -1605.521   -1891.0081    6166.3773    81.696209 
   44700    754.75199   -113.78148   0.68291546   -113.09856   -1277.6906    4.3325799    4.3325799    4.3325799   -1277.6906   -5070.8723   -9142.4884    10380.289   -9853.3539    4387.8834   -463.38699    81.327934 
   44800    740.05831   -113.77109   0.66962031   -113.10147    141.09677    4.3379664    4.3379664    4.3379664    141.09677   -4422.8871   -5400.7707    10246.948   -121.74494    729.62138   -9432.2085    81.631647 
   44900    1058.3841   -114.05368   0.95764813   -113.09604    -2395.503     4.337276     4.337276     4.337276    -2395.503   -3949.9267   -7090.2415    3853.6591    5179.0041   -4767.5101   -6292.6562    81.592678 
   45000    725.44446   -113.75543   0.65639739   -113.09903    8357.4361    4.3324125    4.3324125    4.3324125    8357.4361    802.46571    6081.0888    18188.754   -11514.585    -2097.747    494.23108     81.31851 
   45100    752.03033   -113.78081   0.68045285   -113.10036    -6803.424    4.3388853    4.3388853    4.3388853    -6803.424   -8910.6164   -14106.748    2607.0924   -1834.8581    9553.3829    648.65969    81.683532 
   45200    843.88464    -113.8611   0.76356456   -113.09754    5460.5075    4.3378095    4.3378095    4.3378095    5460.5075    2145.0613    1283.9196    12952.542    5086.4227    5729.3157   -3857.2619    81.622788 
   45300    885.55643   -113.89817   0.80127007    -113.0969    3856.0361    4.3324441    4.3324441    4.3324441    3856.0361    4883.7898   -1732.0638    8416.3822    -7950.374   -4767.7386    1441.0757    81.320285 
   45400     566.1058   -113.61326   0.51222442   -113.10103   -1624.1214    4.3372339    4.3372339    4.3372339   -1624.1214   -5951.9575    2093.6907   -1014.0972   -3328.3047    3586.8544   -6378.6652    81.590298 
   45500    747.28761   -113.77492   0.67616154   -113.09875   -6764.0426     4.339171     4.339171     4.339171   -6764.0426   -492.87939    -8108.849   -11690.399    3459.8648    1554.8091   -8409.9218     81.69967 
   45600     733.9261   -113.76099   0.66407176   -113.09692    12483.122    4.3331582    4.3331582    4.3331582    12483.122    9573.8846    8091.3338    19784.148   -673.59044   -2320.8171    6056.7054    81.360504 
   45700    685.20442   -113.71869   0.61998736    -113.0987   -6161.8022    4.3364907    4.3364907    4.3364907   -6161.8022   -7443.4934   -922.39333    -10119.52   -8629.5354    5092.6097   -191.19615    81.548363 
   45800    427.49094   -113.48782   0.38680279   -113.10102   -7156.5267     4.339095     4.339095     4.339095   -7156.5267    2095.9118    1829.7674   -25395.259    126.36641    2141.8399    -6560.043    81.695379 
   45900     719.8546   -113.74796   0.65133957   -113.09662    -1544.125    4.3343806    4.3343806    4.3343806    -1544.125    5360.3455   -3295.9498   -6696.7708    11634.959    -48.21003   -2892.8261    81.429381 
   46000    576.98287   -113.62022   0.52206623   -113.09815    9828.3103     4.336095     4.336095     4.336095    9828.3103    1353.2828    19404.479    8727.1693   -4677.4409   -1335.8148    1391.9432    81.526044 
   46100    445.30724   -113.50303   0.40292335   -113.10011   -5955.8716    4.3373351    4.3373351    4.3373351   -5955.8716    5541.8014   -901.10214   -22508.314   -3614.6433    1121.6949   -111.29309    81.596012 
   46200     406.6306   -113.46672   0.36792792   -113.09879   -4112.4904    4.3359841    4.3359841    4.3359841   -4112.4904    7623.7277   -3578.2337   -16382.965    9754.0099    2690.1173   -5807.8417    81.519788 
   46300     671.4659   -113.70367   0.60755645   -113.09611   -3656.0383    4.3379141    4.3379141    4.3379141   -3656.0383    1019.6074     2435.618    -14423.34    136.77321   -4535.8072     1620.382    81.628693 
   46400    368.95843   -113.43272   0.33384134   -113.09888    12409.487    4.3344429    4.3344429    4.3344429    12409.487     17962.26    17863.822    1402.3793   -5091.0883   -1449.8692   -4074.6192    81.432893 
   46500    408.96269   -113.46947   0.37003804   -113.09944   -9214.5477    4.3359357    4.3359357    4.3359357   -9214.5477    7439.0784   -12965.042    -22117.68    6939.1856    1606.4349   -7532.0585    81.517057 
   46600    468.55494   -113.52187   0.42395835   -113.09792   -7822.1505    4.3377656    4.3377656    4.3377656   -7822.1505    3712.7474   -7108.0145   -20071.185    11177.065    2385.2684    3914.1311    81.620312 
   46700    616.91823   -113.65479   0.55820058   -113.09659   -1963.9247    4.3358005    4.3358005    4.3358005   -1963.9247    10805.784   -4498.7102   -12198.848   -3956.2961    980.08188   -4751.5161    81.509431 
   46800     326.6677   -113.39564    0.2955758   -113.10007    4582.1915     4.335832     4.335832     4.335832    4582.1915    8021.7672     330.0605    5394.7469   -431.85015   -3839.4203   -8628.5453    81.511212 
   46900    468.28663   -113.52229   0.42371559   -113.09858   -5935.6966    4.3354326    4.3354326    4.3354326   -5935.6966    1017.0714   -13870.314   -4953.8474    14235.079    96.077823    537.56444    81.488684 
   47000    618.85079   -113.65574    0.5599492   -113.09579   -8759.7845    4.3387293    4.3387293    4.3387293   -8759.7845      5470.23   -15885.412   -15864.172   -942.48478   -1384.9289    1225.2212    81.674723 
   47100    553.04842   -113.59853   0.50040983   -113.09812   -5527.4506    4.3350045    4.3350045    4.3350045   -5527.4506    8852.3031   -19131.909   -6302.7459   -3919.2532    926.36094   -2488.2914    81.464549 
   47200    271.99213   -113.34806   0.24610419   -113.10195     7156.403    4.3343518    4.3343518    4.3343518     7156.403    -277.1494   -4822.5781    26568.937    13867.557     1787.618   -5844.6583    81.427757 
   47300     679.6085    -113.7131   0.61492405   -113.09817   -8055.8658    4.3381473    4.3381473    4.3381473   -8055.8658   -407.90342   -16728.711   -7030.9834    5837.8063   -4421.2764    810.16729    81.641859 
   47400    618.57873    -113.6565   0.55970304    -113.0968   -1187.2296    4.3350215    4.3350215    4.3350215   -1187.2296    15183.604   -18760.578    15.285475   -5439.9687    22.825173    -2418.041    81.465509 
   47500    360.05154   -113.42726    0.3257822   -113.10148   -4718.3044      4.33731      4.33731      4.33731   -4718.3044    4905.9337   -28498.502    9437.6552    10211.772    486.10928   -5004.7694    81.594593 
   47600    474.50652    -113.5298   0.42934347   -113.10046    3769.7014    4.3350489    4.3350489    4.3350489    3769.7014    2019.4627   -6999.8986     16289.54    9421.4132    3814.9226    1929.9671    81.467053 
   47700    733.76826   -113.75946   0.66392894   -113.09553    3696.2617    4.3345364    4.3345364    4.3345364    3696.2617    10119.305    -5919.162    6888.6422   -4221.0499    2752.3706   -2948.8294    81.438163 
   47800    468.78855   -113.52405   0.42416973   -113.09988   -5778.7422    4.3394013    4.3394013    4.3394013   -5778.7422      3239.94   -25969.026    5392.8594    8340.5694    -4400.912   -5431.4885    81.712679 
   47900    389.62916   -113.45363   0.35254465   -113.10109   -2046.3844    4.3343379    4.3343379    4.3343379   -2046.3844     7856.316   -22261.414    8265.9448    13289.939    654.88114   -259.83224    81.426973 
   48000    617.60981   -113.65657   0.55882633   -113.09775    4687.8272    4.3353287    4.3353287    4.3353287    4687.8272   -1778.4285   -1839.2359    17681.146   -964.06714   -1225.3902    3676.3743    81.482826 
   48100    687.82544   -113.71931   0.62235891   -113.09695   -6588.1775    4.3384933    4.3384933    4.3384933   -6588.1775   -12087.754    -6026.783   -1649.9956   -610.04383   -556.46513   -4079.9342    81.661392 
   48200     362.8145   -113.42921   0.32828219   -113.10093    374.28147    4.3341936    4.3341936    4.3341936    374.28147    6773.3067   -14133.974    8483.5121    10534.634   -1861.5501   -4761.5586    81.418841 
   48300    549.06163   -113.59666    0.4968025   -113.09986   -464.20355    4.3357413    4.3357413    4.3357413   -464.20355    1442.8831   -9062.8808    6227.3871    3879.6839   -3539.7755    3155.9652    81.506092 
   48400    734.86899   -113.76133    0.6649249   -113.09641   -2574.7555    4.3378072    4.3378072    4.3378072   -2574.7555   -9485.1324   -872.84128    2633.7072    -3537.351    2870.9183   -1284.7638    81.622661 
   48500    536.92205   -113.58467   0.48581835   -113.09885   -3065.2839    4.3364263    4.3364263    4.3364263   -3065.2839   -6524.6489   -3539.2286    868.02566    12651.824    717.36309   -3069.4003    81.544731 
   48600    505.62485   -113.55772   0.45749999   -113.10022    3850.2643    4.3340261    4.3340261    4.3340261    3850.2643    5600.7093   -6472.5483    12422.632     6295.781    131.38979   -103.97312    81.409401 
   48700     740.4859   -113.76787    0.6700072   -113.09786   -627.92548    4.3373509    4.3373509    4.3373509   -627.92548    636.27162   -818.19229   -1701.8558   -9732.9577    1544.8148   -1696.3585    81.596902 
   48800    701.44363   -113.73262   0.63468094   -113.09794   -4499.8651    4.3369354    4.3369354    4.3369354   -4499.8651   -8809.1483   -4936.0979    245.65079    8417.9792   -1986.6356   -4266.4167    81.573453 
   48900    670.09064   -113.70555    0.6063121   -113.09923   -2328.7438    4.3330675    4.3330675    4.3330675   -2328.7438   -8222.5175    -4744.248     5980.534    11127.194   -135.79118   -2176.5906    81.355396 
   49000    627.06196   -113.66709   0.56737883   -113.09971    3076.7095     4.340409     4.340409     4.340409    3076.7095    10342.488   -6010.9906    4898.6314   -6914.4121    5937.5394    3123.0934    81.769616 
   49100    823.71563   -113.84215   0.74531521   -113.09684   -2975.1093    4.3365659    4.3365659    4.3365659   -2975.1093   -1687.5597   -990.89866   -6246.8696   -1793.2833    1675.3475   -2491.0945    81.552606 
   49200    689.15667    -113.7212   0.62356343   -113.09763    4287.6384    4.3301934    4.3301934    4.3301934    4287.6384    6354.7636   -4838.2585     11346.41    11064.434    -2836.481   -5538.1709    81.193615 
   49300    699.95671   -113.73241   0.63333554   -113.09907    -8982.876    4.3422543    4.3422543    4.3422543    -8982.876   -6343.0763   -16015.127   -4590.4249    1827.0631    985.51056    2396.3584    81.873952 
   49400    687.47098   -113.72047   0.62203819   -113.09843    3438.6376    4.3354275    4.3354275    4.3354275    3438.6376    16142.321   -3765.1463   -2061.2615   -9408.6815    3815.1293    163.27116      81.4884 
   49500    805.64786   -113.82553   0.72896711   -113.09657    5320.0098    4.3318922    4.3318922    4.3318922    5320.0098     12266.99   -2805.9768    6499.0157    4587.9848    3107.1518   -1436.4148    81.289213 
   49600    700.17412   -113.73109   0.63353225   -113.09756    -7354.323    4.3430446    4.3430446    4.3430446    -7354.323     455.4075   -17921.579   -4596.7979    4021.2095    835.67313    252.20138    81.918663 
   49700    643.93949   -113.68114   0.58264998   -113.09849   -2975.7521    4.3323906    4.3323906    4.3323906   -2975.7521     8512.343   -8550.9288   -8888.6705   -9325.1294    2879.8628   -1202.7711    81.317274 
   49800     668.2734   -113.70335   0.60466781   -113.09868    4775.1175     4.333186     4.333186     4.333186    4775.1175    19512.602   -12485.966    7298.7165    2857.2046     1444.581    -2217.736    81.362071 
   49900    765.75102   -113.79011   0.69286762   -113.09724   -1676.4472    4.3425685    4.3425685    4.3425685   -1676.4472    17840.858   -19169.015    -3701.185    4297.5297    48.504978   -3487.2472    81.891725 
   50000    536.77781   -113.58463   0.48568784   -113.09894    2621.7377    4.3334096    4.3334096    4.3334096    2621.7377    22841.908   -8831.4267   -6145.2678   -8701.0568    10204.547    2432.4835    81.374669 
   50100    516.31055   -113.56693   0.46716863   -113.09976   -1635.1895    4.3324356    4.3324356    4.3324356   -1635.1895    12983.311   -16778.553   -1110.3264    -6274.378   -57.825789    121.71053    81.319808 
   50200    691.47569   -113.72268   0.62566174   -113.09702   -5771.8696     4.342814     4.342814     4.342814   -5771.8696    14174.915    -25636.89   -5853.6334    5311.5982   -8366.0305   -6257.8773    81.905616 
   50300    583.33836   -113.62549   0.52781681   -113.09768    2068.8188    4.3343743    4.3343743    4.3343743    2068.8188    14143.082   -12160.933    4224.3074   -2656.0525     5582.434    2548.0553    81.429027 
   50400    376.27295   -113.44098   0.34045967   -113.10052    3148.7513    4.3297007    4.3297007    4.3297007    3148.7513    11722.381   -6095.2734    3819.1466   -12314.737    3495.1702    1590.8463    81.165901 
   50500    544.22758   -113.59021   0.49242855   -113.09778   -14947.436    4.3455332    4.3455332    4.3455332   -14947.436      -1534.5   -23978.079   -19329.727   -966.25015    216.64354    -1755.556    82.059566 
   50600     619.4622   -113.65637   0.56050242   -113.09587   -2640.2807    4.3338156    4.3338156    4.3338156   -2640.2807    4868.2824   -15780.657    2991.5323   -943.00103   -455.33107    344.58722    81.397539 
   50700     348.1121   -113.41516   0.31497914   -113.10018    9980.4976    4.3292076    4.3292076    4.3292076    9980.4976    18070.414    -4454.686    16325.764   -10785.687    671.03876    92.994243    81.138177 
   50800    390.78109   -113.45268   0.35358694    -113.0991   -11556.973    4.3467167    4.3467167    4.3467167   -11556.973   -3296.6498   -10313.439   -21060.831   -4076.9664     1046.446   -1048.2622    82.126631 
   50900    564.05508   -113.60616   0.51036889   -113.09579    1047.7311     4.331064     4.331064     4.331064    1047.7311    2041.2164     -524.475    1626.4518    1074.9645   -4389.6054   -2675.7558      81.2426 
   51000    524.36168   -113.57257   0.47445346   -113.09812   -1779.3205     4.333661     4.333661     4.333661   -1779.3205   -6397.1227   -11613.502    12672.663   -9207.3199    7513.3286    2464.0864    81.388832 
   51100    366.69178   -113.43118   0.33179043   -113.09939   -5548.2712    4.3437339    4.3437339    4.3437339   -5548.2712   -7071.9575   -4912.3879   -4660.4681   -3317.1511    2656.2048   -1395.2433    81.957675 
   51200    575.58339   -113.61805   0.52079995   -113.09725    6729.9645    4.3285082    4.3285082    4.3285082    6729.9645   -3439.7899     20455.16    3174.5236    5898.4615   -8677.7816   -4950.8669    81.098856 
   51300    669.57341     -113.703    0.6058441   -113.09715   -8339.7026       4.3404       4.3404       4.3404   -8339.7026   -20556.991   -8351.2475    3889.1308   -6563.5605    2157.8735    1620.2935    81.769107 
   51400    559.59438   -113.60414   0.50633276    -113.0978   -4769.3607     4.339442     4.339442     4.339442   -4769.3607    -13442.35    147.95439   -1013.6861   -8533.1934    5247.7368    1704.2958    81.714975 
   51500    548.10506   -113.59399   0.49593698   -113.09806    8368.2114    4.3304241    4.3304241    4.3304241    8368.2114    5126.1878        19237    741.44631    1613.4855   -3479.0571    36.610332    81.206596 
   51600     750.7524   -113.77595   0.67929655   -113.09666   -4616.8676    4.3410155    4.3410155    4.3410155   -4616.8676   -9944.1906     209.2702   -4115.6823    3719.6119   -5875.3299   -3452.3056    81.803899 
   51700    762.87899   -113.78641   0.69026894   -113.09614   -1223.0881     4.336008     4.336008     4.336008   -1223.0881   -6775.6852    4834.8028    -1728.382   -384.36374    4488.3002   -802.17418    81.521136 
   51800    623.10167   -113.66367   0.56379549   -113.09987    297.59404    4.3345325    4.3345325    4.3345325    297.59404   -10376.495    20994.751   -9725.4742   -4098.6071    5391.1521    6.2326731     81.43794 
   51900    727.62678   -113.75759     0.658372   -113.09922   -420.17578    4.3375811    4.3375811    4.3375811   -420.17578    -263.1163    3251.5873   -4248.9983    2439.6348   -7660.8254   -1927.5501    81.609894 
   52000    882.00533   -113.89448   0.79805696   -113.09642   -1581.3161    4.3364529    4.3364529    4.3364529   -1581.3161   -2768.2601    2092.9907   -4068.6789   -3738.9978    984.32063      2806.98     81.54623 
   52100    745.77694   -113.77311   0.67479465   -113.09832   -4557.1686    4.3376082    4.3376082    4.3376082   -4557.1686   -12226.896    7099.4617   -8544.0713   -4072.0333    6578.5664   -3463.8022    81.611426 
   52200    617.39997   -113.65846   0.55863647   -113.09982    3554.5462     4.334828     4.334828     4.334828    3554.5462    4041.5347    13112.634   -6490.5299    9384.7945   -7259.3949   -3273.2572    81.454597 
   52300    801.52993    -113.8229   0.72524113   -113.09765    1425.5292    4.3368611    4.3368611    4.3368611    1425.5292    9474.7106   -3003.9755   -2194.1475   -892.75931   -966.98805    1623.6986    81.569261 
   52400    787.05338   -113.80937   0.71214244   -113.09723    2109.0791    4.3353711    4.3353711    4.3353711    2109.0791     5799.473   -2364.7587    2892.5231    -6378.004    5829.8993    671.80236    81.485216 
   52500    545.06042   -113.59398   0.49318212    -113.1008   -216.56647    4.3371467    4.3371467    4.3371467   -216.56647    13175.855   -6697.8248   -7127.7291    2110.1061   -5901.9784    2695.5037    81.585377 
   52600     533.3946   -113.58225   0.48262664   -113.09962    4223.3258    4.3365879    4.3365879    4.3365879    4223.3258    9607.0068     9299.465   -6236.4944    5556.4822   -8985.2607   -2697.1238    81.553846 
   52700    716.88925    -113.7441   0.64865646   -113.09545    9833.8323    4.3311768    4.3311768    4.3311768    9833.8323    17034.312    263.63709    12203.548    4502.2773     672.0881   -213.23236    81.248943 
   52800    514.81082   -113.56462   0.46581165   -113.09881   -8720.5548    4.3418266    4.3418266    4.3418266   -8720.5548    10580.324    -26834.66    -9907.328   -3903.3818    1699.3047    1486.8254    81.849763 
   52900    300.37502   -113.37201   0.27178563   -113.10023   -2902.8064    4.3345301    4.3345301    4.3345301   -2902.8064    4508.9054   -12514.247   -703.07794    5336.0987   -6773.1839   -2887.5815    81.437808 
   53000    500.07974   -113.55062   0.45248265   -113.09813    10253.742    4.3307585    4.3307585    4.3307585    10253.742    9908.5497    10703.775      10148.9    8372.5832   -4047.3427    1614.1418     81.22541 
   53100     581.4214   -113.62292    0.5260823   -113.09683   -10089.003    4.3435203    4.3435203    4.3435203   -10089.003    1534.1391   -25055.145   -6746.0013   -6443.0648    3384.2537   -1737.8523    81.945585 
   53200    229.19657   -113.30759   0.20738188   -113.10021   -3068.4669    4.3304359    4.3304359    4.3304359   -3068.4669    939.91314   -10021.661   -123.65307    1291.7843   -3065.6248   -2899.3429    81.207258 
   53300    316.23836   -113.38855   0.28613911   -113.10241   -7445.4223    4.3367515    4.3367515    4.3367515   -7445.4223   -3849.2738   -21876.547    3389.5542    5051.7888   -4119.4461    315.93156    81.563081 
   53400    569.90857   -113.61197   0.51566525   -113.09631   -2995.4929    4.3407748    4.3407748    4.3407748   -2995.4929    2199.2687   -8052.5873   -3133.1601   -1447.1604     4959.395   -1096.6543    81.790292 
   53500    425.38239   -113.48148   0.38489493   -113.09659    2306.4649     4.328578     4.328578     4.328578    2306.4649    1227.4773    741.39788    4950.5196    3188.3666    -2867.119     -694.081    81.102779 
   53600    233.98635   -113.31435   0.21171577   -113.10263   -15806.321    4.3401062    4.3401062    4.3401062   -15806.321   -7012.9559   -30788.188   -9617.8199    6796.8445   -7065.0021   -1752.9198    81.752506 
   53700    519.96873   -113.56938   0.47047864    -113.0989   -2481.0162    4.3381672    4.3381672    4.3381672   -2481.0162    11658.126   -23994.778    4893.6038    6047.0521     992.2564    2038.6351    81.642983 
   53800    679.38212   -113.71043   0.61471922   -113.09571    7695.8576    4.3318568    4.3318568    4.3318568    7695.8576    6234.1983    15491.693    1361.6814    -3307.974    -2540.948    735.26767    81.287218 
   53900    416.58908   -113.47746   0.37693855   -113.10052   -4464.5145    4.3387185    4.3387185    4.3387185   -4464.5145    109.04577   -7583.0486   -5919.5406    4306.1883   -5850.9687   -2445.4681    81.674112 
   54000    490.28758   -113.54477    0.4436225   -113.10115    -4381.038    4.3382408    4.3382408    4.3382408    -4381.038    3623.8184   -13725.935   -3040.9973    11309.006   -5261.9076    3526.8611    81.647139 
   54100    851.57142   -113.86756   0.77051971   -113.09704    3868.8659    4.3326426    4.3326426    4.3326426    3868.8659    4748.7573    940.81081    5917.0295   -5119.1633   -215.68609    1535.9393    81.331465 
   54200     745.5231   -113.77305   0.67456496   -113.09849    2716.6182    4.3373243    4.3373243    4.3373243    2716.6182    1228.5475     12686.43   -5765.1227    2951.0756    -1163.444     500.0678    81.595402 
   54300     611.0592    -113.6539   0.55289921     -113.101   -5984.0508    4.3403352    4.3403352    4.3403352   -5984.0508   -16736.682    2827.3725   -4042.8432    11539.583   -6548.1484    2102.9886    81.765446 
   54400    831.77169   -113.85143    0.7526045   -113.09882    5701.7122    4.3323093    4.3323093    4.3323093    5701.7122    2177.8916    12164.676    2762.5689   -5211.4556    2818.7794    986.88573      81.3127 
   54500    990.85489   -113.99387   0.89654632   -113.09732    1581.0925    4.3378559    4.3378559    4.3378559    1581.0925    30.239754    3887.2486      825.789   -3084.8575   -569.25957    1000.3295    81.625405 
   54600    731.01411   -113.76265   0.66143693   -113.10121    -1477.415    4.3392935    4.3392935    4.3392935    -1477.415   -4727.7363    7105.9337   -6810.4425     7919.716   -5191.2773   -1858.9747    81.706591 
   54700    737.06347   -113.76736   0.66691052   -113.10045    3455.7443     4.333143     4.333143     4.333143    3455.7443     3254.599    5132.3198    1980.3141     4519.631    4489.1683    2722.1656    81.359649 
   54800    891.06725   -113.90409   0.80625637   -113.09783    3125.7608    4.3400283    4.3400283    4.3400283    3125.7608    6532.9961    5868.3347   -3024.0484   -6209.0561    2816.4203    818.79212    81.748102 
   54900    823.72178   -113.84233   0.74532078   -113.09701    539.04695    4.3378896    4.3378896    4.3378896    539.04695    5047.3107   -178.79352   -3251.3763    2313.2371   -2348.9337   -3287.1738    81.627313 
   55000    597.50438   -113.63938   0.54063452   -113.09875   -1459.5098    4.3347316    4.3347316    4.3347316   -1459.5098    3474.7414   -4452.5718    -3400.699     8571.146   -3774.6825    862.44583    81.449164 
   55100    661.33329   -113.69657   0.59838826   -113.09818   -3113.4772    4.3385205    4.3385205    4.3385205   -3113.4772    -566.1771   -10309.758    1535.5031   -6797.9056    1697.8252    -1846.118     81.66293 
   55200    714.31492   -113.74293   0.64632715    -113.0966    5391.9754    4.3371843    4.3371843    4.3371843    5391.9754    5005.5762    14008.931   -2838.5808   -1262.5745    3155.0458   -1551.1789    81.587502 
   55300    560.55248   -113.60594   0.50719966   -113.09874   -1357.0886    4.3360342    4.3360342    4.3360342   -1357.0886    5362.7223   -7162.9833   -2271.0047    8208.6498   -6691.5341   -592.79133    81.522616 
   55400    372.55387   -113.43624   0.33709457   -113.09915   -5654.3969    4.3368128    4.3368128    4.3368128   -5654.3969    8932.9195   -25276.757   -619.35286   -4928.3802   -897.95871    67.424167    81.566537 
   55500    495.49935   -113.54536   0.44833823   -113.09702   -6059.5752    4.3396402    4.3396402    4.3396402   -6059.5752    3401.3522   -21055.072   -525.00612   -5519.9487    3009.4589    663.92964    81.726177 
   55600    472.45287    -113.5235   0.42748528   -113.09602    6561.3642    4.3336886    4.3336886    4.3336886    6561.3642    14497.311    2998.9206    2187.8608    4189.3823   -4618.7179   -4415.0357    81.390387 
   55700    320.91522   -113.38887   0.29037083    -113.0985     -2418.71    4.3356532    4.3356532    4.3356532     -2418.71    15953.424   -26825.311    3615.7569     2501.057   -109.86691    2551.5826    81.501124 
   55800    261.80187    -113.3357   0.23688384   -113.09882   -16036.579    4.3429137    4.3429137    4.3429137   -16036.579    1156.4525   -41588.252   -7677.9366   -8761.6155    4352.9722    2526.8916    81.911257 
   55900    478.33733   -113.52811   0.43280967    -113.0953    -426.9556    4.3309354    4.3309354    4.3309354    -426.9556    12442.158   -21337.487    7614.4621   -4036.7474    831.55629   -4259.1276    81.235362 
   56000    414.21285   -113.47225   0.37478849   -113.09746    2432.4272    4.3366262    4.3366262    4.3366262    2432.4272    6673.1758   -1594.0187    2218.1245    8136.3137   -389.32766    1477.3804    81.556009 
   56100    301.71154   -113.37282   0.27299494   -113.09982   -9474.8788    4.3400444    4.3400444    4.3400444   -9474.8788    -5660.561   -18743.803   -4020.2727   -4248.3919    3298.2473    980.51427    81.749015 
   56200    399.03828   -113.45944   0.36105822   -113.09838   -3016.2597    4.3322786    4.3322786    4.3322786   -3016.2597     12074.83   -24060.175     2936.565   -6589.4997    7230.5312   -3486.6601    81.310969 
   56300    632.33622    -113.6682    0.5721511   -113.09605   -7130.2281    4.3398423    4.3398423    4.3398423   -7130.2281     1162.978   -20949.063   -1604.5996    5109.9193    309.48108    129.21101    81.737591 
   56400    457.73256   -113.51147   0.41416604    -113.0973     4485.621    4.3357118    4.3357118    4.3357118     4485.621   -2502.2077    12994.525    2964.5462   -3388.7421   -669.20428    1249.4715     81.50443 
   56500    475.65164   -113.53007    0.4303796   -113.09969   -1815.8437    4.3345129    4.3345129    4.3345129   -1815.8437    2779.8873   -9032.3688    804.95049   -6339.1449     6197.853    -2877.405    81.436839 
   56600    653.86705   -113.69027   0.59163264   -113.09864    126.06467    4.3377142    4.3377142    4.3377142    126.06467    7602.9118    -5605.688   -1619.0297    550.14572    1015.7515   -4324.9137    81.617408 
   56700    788.19405   -113.81036   0.71317454   -113.09718    1017.8656    4.3360688    4.3360688    4.3360688    1017.8656    2698.4332   -1773.8863    2129.0499   -3901.3785   -1605.4394    3830.2039    81.524565 
   56800    543.70925   -113.59269   0.49195956   -113.10073    4220.8496    4.3367761    4.3367761    4.3367761    4220.8496   -4012.2784    10957.167      5717.66   -8968.6872    3904.9124    1682.3692    81.564467 
   56900     740.1527   -113.76862   0.66970572   -113.09892    1879.1338    4.3352813    4.3352813    4.3352813    1879.1338    -2979.357    9623.6454    -1006.887   -3246.0319    1667.2836   -6154.0602    81.480153 
   57000    826.97425   -113.84587   0.74826368    -113.0976    3385.8684    4.3386392    4.3386392    4.3386392    3385.8684    7103.4949    4968.5667   -1914.4563    2534.8192   -2223.1916    1250.4542    81.669634 
   57100    805.85346    -113.8271   0.72915315   -113.09795   -1284.5536    4.3357172    4.3357172    4.3357172   -1284.5536   -6698.2287   -733.66983    3578.2377   -9331.5147   -72.609764    4818.3101    81.504735 
   57200    687.60259   -113.72135   0.62215728   -113.09919    3508.5875    4.3336459    4.3336459    4.3336459    3508.5875   -11585.848    21063.262    1048.3481   -8788.8548    6875.4769    297.24168    81.387981 
   57300    896.98891    -113.9091   0.81161442   -113.09748   -6577.7525    4.3408398    4.3408398    4.3408398   -6577.7525   -8322.9698    2156.6373   -13566.925    5957.6906      1673.11    -1085.387    81.793968 
   57400    822.80769   -113.84113   0.74449369   -113.09664    3350.8685    4.3353919    4.3353919    4.3353919    3350.8685    2057.9617    9775.2864   -1780.6425   -3630.7012    -2889.856    2697.1913    81.486394 
   57500    807.03001   -113.82787   0.73021771   -113.09765   -2492.2312    4.3339132    4.3339132    4.3339132   -2492.2312   -14476.795    9144.9916   -2144.8905   -6706.0059    6537.1478   -361.74597     81.40304 
   57600     777.3056   -113.80128   0.70332244   -113.09796   -5497.9258    4.3393161    4.3393161    4.3393161   -5497.9258   -7779.2005    6022.7992   -14737.376    2559.3456      3477.28   -3254.8016    81.707864 
   57700    832.32202   -113.84996   0.75310245   -113.09686    -6155.656    4.3367874    4.3367874    4.3367874    -6155.656    1230.3393   -7816.0113   -11881.296    -7550.289   -1282.5962    6859.2682    81.565104 
   57800    681.61995   -113.71512   0.61674406   -113.09838    5863.1492    4.3348787    4.3348787    4.3348787    5863.1492   -2618.2971    19295.712    912.03308   -7917.1534    4842.2921    2516.6321    81.457455 
   57900    788.72518   -113.81053   0.71365511   -113.09688    169.78843    4.3362962    4.3362962    4.3362962    169.78843    1105.1495    6933.4058     -7529.19    70.891822    4385.9821   -6919.2419    81.537395 
   58000    629.73714   -113.66762    0.5697994   -113.09782   -3616.3562    4.3384962    4.3384962    4.3384962   -3616.3562    11557.749   -13487.606   -8919.2117   -623.83237   -200.79987     1189.361    81.661559 
   58100    609.61734   -113.64983   0.55159458   -113.09823   -2181.6575    4.3342323    4.3342323    4.3342323   -2181.6575    2106.0301   -15096.282    6445.2795   -6411.3039   -1056.5521    5593.0759    81.421023 
   58200    621.82195   -113.66088   0.56263757   -113.09825     9843.019    4.3356435    4.3356435    4.3356435     9843.019    10150.722     14387.87    4990.4644   -5698.5756    6180.9983    1673.1501    81.500581 
   58300    609.60857   -113.64927   0.55158665   -113.09768    1653.4576    4.3391054    4.3391054    4.3391054    1653.4576    8002.7074   -1805.4334   -1236.9011    6286.1041    1869.1942   -2857.4123    81.695963 
   58400    432.62493   -113.48988   0.39144813   -113.09843    556.15783    4.3321704    4.3321704    4.3321704    556.15783    10432.546   -20350.147    11586.074   -4213.3308   -5552.5239    3041.0963    81.304873 
   58500    515.44863   -113.56549   0.46638875    -113.0991   -5192.4121    4.3392764    4.3392764    4.3392764   -5192.4121    6205.7836   -27416.844    5633.8236   -10314.014    1208.4676    5446.1748    81.705625 
   58600    558.73751   -113.60178   0.50555744   -113.09622    7087.4179    4.3373713    4.3373713    4.3373713    7087.4179    2692.7638    11683.853    6885.6367       4488.9     1029.599   -2748.4715    81.598052 
   58700    467.37788   -113.52055   0.42289333   -113.09765    2155.5384    4.3306103    4.3306103    4.3306103    2155.5384    6125.5087   -6409.6009    6750.7076   -4201.1419   -633.73331    5442.9802    81.217068 
   58800    338.57423   -113.40737   0.30634908   -113.10102   -13233.774    4.3404047    4.3404047    4.3404047   -13233.774    114.68561   -40578.848    762.84087   -5417.6954    360.36835    7997.3007    81.769375 
   58900    560.10772   -113.60362   0.50679724   -113.09682   -3313.4919    4.3372514    4.3372514    4.3372514   -3313.4919    3220.2014   -16670.564    3509.8872    1102.0033    2300.1589   -1923.9699     81.59129 
   59000     562.5475    -113.6054    0.5090048    -113.0964    4341.3976    4.3323948    4.3323948    4.3323948    4341.3976   -2686.1105     15331.85    378.45276   -3993.6858    921.87751    3378.3959    81.317512 
   59100    353.61221   -113.41988   0.31995576   -113.09992   -7923.6645    4.3375983    4.3375983    4.3375983   -7923.6645   -7586.8445   -14257.064   -1927.0849   -5923.0527     -1942.65    7504.8909    81.610867 
   59200    452.06976   -113.50772   0.40904222   -113.09868   -10929.484    4.3403892    4.3403892    4.3403892   -10929.484    -14181.98     -13495.9   -5110.5703   -4094.8084    6250.9419     450.7761    81.768498 
   59300    676.90572   -113.70785   0.61247852   -113.09537    3552.4221    4.3312848    4.3312848    4.3312848    3552.4221    3992.9458    5670.8429    993.47756    5535.5964    4675.6314   -2254.5693    81.255026 
   59400    456.09501   -113.51144   0.41268435   -113.09876    7084.2087    4.3338628    4.3338628    4.3338628    7084.2087   -1832.7612    23107.098   -21.711091   -4149.4775   -3367.2509    5274.2093    81.400202 
   59500     421.9785   -113.48214   0.38181502   -113.10033    -15294.65    4.3438597    4.3438597    4.3438597    -15294.65   -28663.891   -5962.2334   -11257.824   -11226.071    918.88976    8159.5201    81.964796 
   59600     621.2403   -113.65881   0.56211128    -113.0967    2146.5094    4.3299725    4.3299725    4.3299725    2146.5094   -15140.906    13413.021    8167.4132    8908.8913    2827.2316   -3594.1325    81.181188 
   59700    621.93596   -113.66077   0.56274073   -113.09803    5333.0176    4.3363667    4.3363667    4.3363667    5333.0176    5568.4236    8382.8832    2047.7461   -357.75182    1352.0537    1886.7596     81.54137 
   59800     476.4946   -113.53135   0.43114233   -113.10021   -5682.5891    4.3411567    4.3411567    4.3411567   -5682.5891    -20442.41    8165.7741   -4771.1313   -11076.673   -1725.4124    6895.0556    81.811881 
   59900    527.73242   -113.57508   0.47750339   -113.09757    3413.3555    4.3290167    4.3290167    4.3290167    3413.3555   -19443.469    12550.272    17133.263    4885.4604    286.22269   -982.81059     81.12744 
   60000    690.54619   -113.72283    0.6248207     -113.098   -3399.9845    4.3417484    4.3417484    4.3417484   -3399.9845   -21058.971    10032.741    826.27691    2124.0371    1832.5193    735.57544    81.845339 
   60100    643.58404   -113.67968   0.58232836   -113.09735    4482.6386    4.3358397    4.3358397    4.3358397    4482.6386    590.86796    4272.4996    8584.5482   -6147.8118   -1580.5419    3885.3598    81.511647 
   60200    488.99689   -113.54123   0.44245467   -113.09877    8646.0835    4.3293928    4.3293928    4.3293928    8646.0835   -6420.6209    11736.065    20622.806   -1713.6434    1396.0067    1556.2988    81.148588 
   60300    675.16616   -113.70961   0.61090453    -113.0987   -10457.582    4.3444205    4.3444205    4.3444205   -10457.582   -27310.177   -2363.0236   -1699.5465    6243.1791    1121.7458   -2526.9007    81.996545 
   60400    735.88579   -113.76071   0.66584493   -113.09486    6344.8514    4.3354388    4.3354388    4.3354388    6344.8514   -11657.535    17066.578    13625.512   -2359.3631   -2549.7902   -1958.2101    81.489037 
   60500    628.04652   -113.66536   0.56826969   -113.09709    7884.7231    4.3308174    4.3308174    4.3308174    7884.7231    6789.9132    3933.0624    12931.194   -8853.5672    1257.9045    4177.1338    81.228721 
   60600     557.5088   -113.60369   0.50444568   -113.09925   -5722.3811    4.3409846    4.3409846    4.3409846   -5722.3811   -8047.7509   -6005.1132   -3114.2793    10791.098    4126.2323    188.75069    81.802153 
   60700    772.84578   -113.79605   0.69928711   -113.09676   -1022.9979    4.3365292    4.3365292    4.3365292   -1022.9979   -8873.7068   -388.48757    6193.2007    5528.3356    2779.3815   -1624.2314    81.550539 
   60800     766.6009   -113.79098   0.69363661   -113.09734    6325.6593    4.3337679    4.3337679    4.3337679    6325.6593   -1053.3441    17040.256    2990.0656   -10404.461   -2106.8976    3629.3306    81.394855 
   60900    558.71271   -113.60472     0.505535   -113.09919   -4665.2685    4.3393121    4.3393121    4.3393121   -4665.2685    2306.4068   -11086.014   -5216.1988    7369.6133   -1365.8856    3580.0404     81.70764 
   61000    627.25618    -113.6653   0.56755458   -113.09774    -4824.175    4.3371033    4.3371033    4.3371033    -4824.175    2250.7966   -15810.138   -913.18386     9315.678    4553.5226   -933.84523    81.582928 
   61100     889.6205   -113.89946   0.80494733   -113.09451   -1209.1406    4.3350172    4.3350172    4.3350172   -1209.1406    6471.0455   -6678.7169   -3419.7503   -4798.7588    2063.9732   -1060.0529    81.465265 
   61200    599.12236   -113.64123   0.54209851   -113.09913    3697.9632    4.3369524    4.3369524    4.3369524    3697.9632     5369.712    6559.5377   -835.36009    2948.0118    145.13015    4612.2998    81.574415 
   61300    510.10527   -113.56312   0.46155397   -113.10157    -8922.623    4.3367333    4.3367333    4.3367333    -8922.623   -2281.8929   -23647.125    -838.8508    9767.7307    1053.7148    616.60214     81.56205 
   61400    713.95573   -113.74304   0.64600215   -113.09703   -4143.1134    4.3363387    4.3363387    4.3363387   -4143.1134    5384.9475   -18986.475     1172.187    955.38793   -2391.7915   -3736.2239    81.539787 
   61500    780.18052   -113.80173   0.70592373    -113.0958   -4513.9399    4.3397663    4.3397663    4.3397663   -4513.9399    1185.8295   -15510.559    782.90937    1328.5375   -338.76059    3362.4687    81.733297 
   61600    399.92025   -113.46176   0.36185625    -113.0999    4293.3906    4.3345231    4.3345231    4.3345231    4293.3906    2583.9149   -1306.2207    11602.478    12104.066    2162.3959    934.36596    81.437415 
   61700    568.75921   -113.61439   0.51462528   -113.09977   -3915.3808    4.3347096    4.3347096    4.3347096   -3915.3808   -3295.7093   -15271.788    6821.3546    5200.6805    1872.4379   -6325.2905    81.447927 
   61800    738.99255   -113.76552   0.66865599   -113.09686   -4254.2023    4.3397102    4.3397102    4.3397102   -4254.2023   -8021.0896   -12455.688    7714.1711   -4745.2522   -1411.3181   -3052.9884    81.730129 
   61900    591.90977   -113.63452    0.5355724   -113.09895   -474.71267    4.3359251    4.3359251    4.3359251   -474.71267   -11190.475   -10083.747    19850.084    8799.1207   -1285.9463    2341.2642    81.516461 
   62000      359.437   -113.42624   0.32522615   -113.10101    7797.4562    4.3357457    4.3357457    4.3357457    7797.4562    1607.3652    10911.495    10873.509    8559.1937    4655.6044    270.98116    81.506345 
   62100    751.39437   -113.77613   0.67987742   -113.09626   -2696.5821    4.3366812    4.3366812    4.3366812   -2696.5821   -12765.458   -266.78823    4942.4996   -4708.1757    1183.5427   -2766.1054     81.55911 
   62200    656.95444   -113.69133   0.59442618    -113.0969   -3501.2181    4.3381856    4.3381856    4.3381856   -3501.2181   -23883.844    783.32008     12596.87    6310.2214   -260.14417    224.06378     81.64402 
   62300    517.54332   -113.56831   0.46828407   -113.10002   -6029.0597    4.3351921    4.3351921    4.3351921   -6029.0597   -18745.961    1806.9556   -1148.1735    9403.4019    3553.1982    -1947.198    81.475123 
   62400    507.53785   -113.55905   0.45923091   -113.09982    6527.8796    4.3346893    4.3346893    4.3346893    6527.8796    6541.9942    18283.759   -5242.1146    -5290.815    2852.4439   -843.97455    81.446781 
   62500    806.59024   -113.82548    0.7298198   -113.09566   -10038.612    4.3408577    4.3408577    4.3408577   -10038.612   -24632.786    557.34382   -6040.3942     596.8577    1163.8037    3209.3624     81.79498 
   62600    535.21353   -113.58177   0.48427245    -113.0975   -2206.1355    4.3337235    4.3337235    4.3337235   -2206.1355   -24730.402    17626.134    485.86182    9034.5755    -371.3278     -216.003    81.392353 
   62700    525.99764   -113.57518   0.47593372   -113.09924   -10256.415    4.3364358    4.3364358    4.3364358   -10256.415   -16371.271   -712.84885   -13685.125    -73.66024    2476.9867   -2075.8797    81.545267 
   62800    571.00663   -113.61452   0.51665879   -113.09786   -1466.0406    4.3394165    4.3394165    4.3394165   -1466.0406   -5308.3021     6107.215   -5197.0348   -4212.3531   -765.33939   -3206.5392    81.713534 
   62900    726.05604   -113.75237   0.65695076   -113.09542    860.26857    4.3315284    4.3315284    4.3315284    860.26857   -10969.284    11862.619    1687.4705    2042.3961    548.53224    1741.8262    81.268737 
   63000    412.90681   -113.47369   0.37360676   -113.10008   -3052.4869    4.3388262    4.3388262    4.3388262   -3052.4869   -18721.611    10763.118    -1198.968    3114.8013    3749.1795    4116.3796    81.680196 
   63100    468.33969    -113.5223    0.4237636   -113.09854   -5772.7497    4.3386256    4.3386256    4.3386256   -5772.7497   -19081.009   -1831.8354    3594.5957   -6883.9209   -1667.7491   -4418.5737    81.668865 
   63200    596.45139   -113.63511   0.53968175   -113.09542    6424.0045    4.3316215    4.3316215    4.3316215    6424.0045     2817.509    9313.4608    7141.0437   -3441.5219   -3443.9295   -458.76429    81.273976 
   63300    558.87503   -113.60263   0.50568187   -113.09695   -941.13264    4.3378597    4.3378597    4.3378597   -941.13264   -3020.8666   -896.19468    1093.6633    6719.9315    1344.5745    581.86265     81.62562 
   63400    316.33244    -113.3862   0.28622424   -113.09998    1676.9091    4.3387245    4.3387245    4.3387245    1676.9091   -10826.055    14420.567    1436.2153   -5713.2608    3364.0177   -1301.7613    81.674451 
   63500    532.12335   -113.57967   0.48147639    -113.0982    1388.5491    4.3314549    4.3314549    4.3314549    1388.5491   -4706.0168   -1201.2716    10072.936   -7955.8445    241.13449    1250.0109    81.264596 
   63600    612.16763   -113.65036   0.55390213   -113.09646   -967.62104    4.3372095    4.3372095    4.3372095   -967.62104    1961.9472     -5714.43    849.61964    5959.1548   -1490.2392    -855.6274    81.588924 
   63700    460.03879   -113.51486   0.41625277   -113.09861    -9515.723    4.3417991    4.3417991    4.3417991    -9515.723    350.02303   -12791.661   -16105.531   -4567.0274    1811.1709   -674.67032     81.84821 
   63800    388.51229   -113.45039   0.35153408   -113.09885    7442.9883    4.3288306    4.3288306    4.3288306    7442.9883    6962.4202    7024.2588     8342.286   -10163.656    843.57027   -4571.9259    81.116982 
   63900    664.37547   -113.69836   0.60114089   -113.09722   -4660.1729     4.338177     4.338177     4.338177   -4660.1729   -3.4791333   -11551.503   -2425.5369   -1104.5041    1383.6853   -560.34366    81.643534 
   64000    591.00636   -113.63181   0.53475497   -113.09706   -14791.267    4.3422452    4.3422452    4.3422452   -14791.267   -6075.9008   -20702.711   -17595.191   -903.41394    3212.3185    2783.7473    81.873439 
   64100    385.06138   -113.44694   0.34841163   -113.09852    2237.1151    4.3275912    4.3275912    4.3275912    2237.1151    20274.624   -14535.503    972.22456   -6753.4277    604.60067   -6029.2464    81.047327 
   64200    571.70921   -113.61632   0.51729451   -113.09902    -1063.637    4.3405846    4.3405846    4.3405846    -1063.637   -1388.4108   -3621.9386    1819.4385   -7512.5108   -2598.3937   -500.73132    81.779541 
   64300    684.00672   -113.71509   0.61890365   -113.09619   -1987.6572    4.3396155    4.3396155    4.3396155   -1987.6572    88.539128   -4780.4348   -1271.0759    1093.1679   -1715.0286    -350.0455    81.724781 
   64400    505.97079   -113.55556     0.457813   -113.09774   -726.19155    4.3289682    4.3289682    4.3289682   -726.19155    8030.4046   -16394.558    6185.5787   -4472.3742    4598.5542    -1632.538    81.124713 
   64500     503.8109   -113.55623   0.45585869   -113.10037   -3062.5576    4.3410462    4.3410462    4.3410462   -3062.5576     3178.679   -14788.113    2421.7612   -9455.4812   -1049.2721    614.66476    81.805635 
   64600    707.01568   -113.73673   0.63972265   -113.09701    6366.7339    4.3381365    4.3381365    4.3381365    6366.7339   -7194.0032    17467.998    8826.2067    6690.9792   -5274.0547   -2534.1473    81.641248 
   64700    640.49497   -113.67627   0.57953331   -113.09673    7996.9835    4.3303739    4.3303739    4.3303739    7996.9835    12572.689   -1019.0075    12437.269   -343.05905    670.88521    946.82635    81.203767 
   64800    585.04866   -113.62948   0.52936433   -113.10012   -4303.1473    4.3402752    4.3402752    4.3402752   -4303.1473   -5459.6803   -9618.9947     2169.233   -8599.9515    2038.8682   -2309.9639    81.762058 
   64900    739.02974   -113.76592   0.66868964   -113.09723   -351.59159    4.3383264    4.3383264    4.3383264   -351.59159   -5723.8383    5342.2965   -673.23298    2832.2752   -3926.9974    597.08995     81.65197 
   65000    771.92782   -113.79489   0.69845651   -113.09643    6820.7548    4.3294943    4.3294943    4.3294943    6820.7548   -5193.3863    20441.923    5213.7282   -836.16616   -4803.3587    4815.5772    81.154298 
   65100    716.63413    -113.7481   0.64842562   -113.09968     -1486.29     4.340043     4.340043     4.340043     -1486.29    1004.4545   -589.49745   -4873.8269   -4622.8162    2792.0854   -5763.2557    81.748935 
   65200    828.95049   -113.84661   0.75005182   -113.09656   -6114.8139    4.3405036    4.3405036    4.3405036   -6114.8139   -6489.7656   -2252.1139   -9602.5622   -2337.8307   -2406.2292   -5677.1459    81.774966 
   65300    802.24708   -113.82254   0.72589001   -113.09665    5321.0177    4.3269612    4.3269612    4.3269612    5321.0177   -4822.0467    18647.589    2137.5109      2861.65   -6563.8904    433.88375    81.011937 
   65400    821.92102   -113.84245   0.74369141   -113.09876    -5157.475    4.3399144    4.3399144    4.3399144    -5157.475   -18692.007    6333.6031   -3114.0217     2003.099    3621.2349    3745.3737    81.741667 
   65500    879.19628    -113.8924   0.79551527   -113.09689   -3411.2615    4.3420275    4.3420275    4.3420275   -3411.2615   -233.50116   -4970.8566   -5029.4267   -5629.2549   -106.39263    1132.7189    81.861126 
   65600    830.69797   -113.84798   0.75163298   -113.09634     10062.28    4.3253705    4.3253705    4.3253705     10062.28    2102.2776    19347.348    8737.2149    7336.7951   -10426.499    -3929.566    80.922619 
   65700    741.16883   -113.77005   0.67062513   -113.09943    -2927.533     4.340111     4.340111     4.340111    -2927.533   -20337.372    3152.1471    8402.6263    4550.5889   -2158.7126   -792.38471    81.752774 
   65800     879.9518   -113.89374   0.79619888   -113.09754   -3302.8577    4.3407732    4.3407732    4.3407732   -3302.8577   -9267.9289   -4280.5345    3639.8902   -6739.7105    6205.6979   -3575.0108    81.790205 
   65900    832.89946   -113.84987   0.75362494   -113.09625    14491.835    4.3264522    4.3264522    4.3264522    14491.835    10454.211    14610.015    18411.278    4978.4106   -7945.7048   -1131.1179    80.983346 
   66000    682.10039   -113.71811   0.61717876   -113.10093   -841.54463    4.3409899    4.3409899    4.3409899   -841.54463    -16315.09    3531.5404    10258.916    3764.9195   -11249.333    2516.2336     81.80245 
   66100    815.85424   -113.83617   0.73820206   -113.09797   -2730.0052    4.3382433    4.3382433    4.3382433   -2730.0052   -5483.8136    -4619.636    1913.4341   -932.17722    4214.3442   -1654.3383    81.647276 
   66200    868.31835   -113.88103   0.78567269   -113.09535    6060.6548    4.3285466    4.3285466    4.3285466    6060.6548    2569.4355    3490.9675    12121.561    622.48132    -507.7109    309.88306    81.101015 
   66300    644.49667   -113.68335   0.58315413    -113.1002   -3685.5642    4.3416396    4.3416396    4.3416396   -3685.5642   -9451.5994   -3488.0295    1882.9364   -576.62926   -12097.235    552.33826     81.83919 
   66400    665.29424   -113.70017   0.60197221   -113.09819    365.41123    4.3365958    4.3365958    4.3365958    365.41123    3159.0226    57.111897   -2119.9008    2640.0752    1412.9689   -1087.8507    81.554295 
   66500    803.20146   -113.82156   0.72675356   -113.09481    4139.9027    4.3300089    4.3300089    4.3300089    4139.9027    8056.8483   -3078.2181     7441.078   -1090.0771    5088.3874    -1854.274    81.183238 
   66600     589.6958    -113.6328   0.53356915   -113.09923   -7785.3303    4.3412751    4.3412751    4.3412751   -7785.3303    -7510.573   -16532.969    687.55153    3998.9599   -12389.355   -1489.5851    81.818578 
   66700    462.36018   -113.51775    0.4183532    -113.0994    1137.5235    4.3364589    4.3364589    4.3364589    1137.5235     2039.546   -8284.0444    9657.0688    4939.6613   -5328.9774    2733.0763    81.546568 
   66800    656.62508   -113.69005   0.59412817   -113.09592    7725.6685    4.3311566    4.3311566    4.3311566    7725.6685    14118.684   -3214.2325    12272.554   -2603.4688     9679.777   -229.21238     81.24781 
   66900    529.36588   -113.57678   0.47898138    -113.0978   -1954.8898       4.3383       4.3383       4.3383   -1954.8898     5325.034   -18233.709    7044.0054    927.75814   -8839.8143   -1812.9596    81.650482 
   67000    325.23463   -113.39474   0.29427913   -113.10047   -7969.2988    4.3390235    4.3390235    4.3390235   -7969.2988   -9362.3729   -21283.984    6738.4609    1801.9866   -15290.778    383.38255    81.691339 
   67100    478.26457   -113.53014   0.43274384   -113.09739    7576.9589    4.3299712    4.3299712    4.3299712    7576.9589    14893.943    -8959.665    16796.599   -21.796389    4096.9222   -1989.7189    81.181117 
   67200     556.4093   -113.60064   0.50345083   -113.09719   -1527.8979    4.3375988    4.3375988    4.3375988   -1527.8979     12272.52   -16959.935    103.72163   -1490.9334    1113.3528   -814.96287    81.610897 
   67300    270.66388   -113.34597   0.24490237   -113.10106   -14725.554    4.3401948    4.3401948    4.3401948   -14725.554   -10750.369   -21542.372   -11883.922    1297.5109   -16638.952    1411.3965    81.757514 
   67400    359.81465   -113.42423   0.32556786   -113.09866    1332.4148    4.3273512    4.3273512    4.3273512    1332.4148    6770.7996   -10182.196    7408.6406    4503.6116   -4677.5539    984.19826    81.033839 
   67500    538.21651    -113.5838   0.48698961   -113.09681   -6037.2526    4.3418453    4.3418453    4.3418453   -6037.2526    11895.987   -26371.648   -3636.0964   -2269.2975    6421.1377   -1110.3681     81.85082 
   67600    330.14245   -113.39833   0.29871982   -113.09961     -8970.04    4.3360397    4.3360397    4.3360397     -8970.04    1977.1374   -16534.302   -12352.955   -1114.1015   -12832.131   -1916.6348    81.522922 
   67700    220.50348   -113.29929   0.19951618   -113.09977    231.48959    4.3287919    4.3287919    4.3287919    231.48959    8713.4647   -4381.3388   -3637.6572    4904.1056   -8129.8694   -395.57695    81.114807 
   67800     544.8042    -113.5888   0.49295029   -113.09584    -10288.02    4.3442112    4.3442112    4.3442112    -10288.02    297.00477   -26613.329   -4547.7354    2135.5954    6930.8914    102.32683    81.984694 
   67900     406.7288   -113.46499   0.36801677   -113.09697    6614.2578    4.3305951    4.3305951    4.3305951    6614.2578    21794.783    -9653.927    7701.9175   -3265.2829    -9010.781     1979.691    81.216212 
   68000    232.27578   -113.31124     0.210168   -113.10107     -6859.57    4.3344763    4.3344763    4.3344763     -6859.57    47.648692   -10829.447   -9796.9118    2549.9709   -15645.499    1628.8134    81.434772 
   68100    435.22947   -113.49202   0.39380477   -113.09821   -5659.0855    4.3412143    4.3412143    4.3412143   -5659.0855    6013.9612   -15289.299   -7701.9192     7365.224   -736.92885   -657.98234    81.815139 
   68200    596.57218   -113.63477   0.53979104   -113.09498    6373.0688    4.3315217    4.3315217    4.3315217    6373.0688    12325.996   -3993.3578    10786.568   -6276.7455   -1240.7205   -1145.2229    81.268358 
   68300     281.4665   -113.35496    0.2546768   -113.10029   -736.91926    4.3363779    4.3363779    4.3363779   -736.91926    7731.9842   -5217.6699    -4725.072   -1863.6372   -15908.896   -37.432046    81.541999 
   68400    451.23322   -113.50834    0.4082853   -113.10006   -5416.9462    4.3367572    4.3367572    4.3367572   -5416.9462    2004.8811   -7862.7531   -10392.967    9571.5402    -6555.583    2094.7546      81.5634 
   68500    687.32041   -113.71813   0.62190196   -113.09623   -317.67314    4.3369279    4.3369279    4.3369279   -317.67314    12650.172   -4572.7059   -9030.4858    436.27456    5608.0524   -356.79182    81.573031 
   68600    571.95895   -113.61537   0.51752047   -113.09785   -952.71166    4.3343618    4.3343618    4.3343618   -952.71166   -838.51112    3664.5043   -5684.1282   -1060.1103   -11054.717   -329.96329     81.42832 
   68700    430.85552   -113.49053   0.38984713   -113.10069   -371.64997    4.3359441    4.3359441    4.3359441   -371.64997    7594.3071   -14.903159   -8694.3538    6887.6938   -9674.4626    528.49045    81.517535 
   68800    826.93974   -113.84394   0.74823246    -113.0957   -10822.251    4.3406373    4.3406373    4.3406373   -10822.251   -3097.4809   -10150.768   -19218.503    3697.4449    4229.0268   -940.85712    81.782519 
   68900    729.89051   -113.75654   0.66042027   -113.09612    6285.5764    4.3302151    4.3302151    4.3302151    6285.5764    17352.036    10953.117   -9448.4231   -4934.0516   -5398.6081    756.03126    81.194835 
   69000    583.20155   -113.62875   0.52769302   -113.10106   -4068.9403      4.33669      4.33669      4.33669   -4068.9403   -6157.0128    1461.8204   -7511.6287    5548.6515   -9857.3898    1203.1167    81.559609 
   69100    684.46515   -113.71866   0.61931845   -113.09934   -3279.6679    4.3418464    4.3418464    4.3418464   -3279.6679     4631.449   -9378.0268   -5092.4258    12448.694   -42.783646    856.51486    81.850883 
   69200    936.76597   -113.94153   0.84760554   -113.09392    3588.8765    4.3304512    4.3304512    4.3304512    3588.8765    7883.6094    6005.0174   -3121.9972    -5526.316    286.37143   -1585.2503     81.20812 
   69300    593.14797   -113.63604   0.53669275   -113.09935    1770.6142    4.3370558    4.3370558    4.3370558    1770.6142    6366.5925    1076.8313   -2131.5812    891.45758   -12354.037   -488.20261    81.580247 
   69400    671.72393   -113.70819   0.60778993    -113.1004   -5160.5402    4.3387825    4.3387825    4.3387825   -5160.5402   -12830.724   -12829.267    10178.371    13534.001   -7426.3687    1957.3531    81.677724 
   69500    844.06677   -113.86094   0.76372935   -113.09722    10754.542    4.3304105    4.3304105    4.3304105    10754.542     13251.83    1675.3623    17336.435    825.49103    6314.8916   -479.68131    81.205827 
   69600    828.33279   -113.84853   0.74949292   -113.09904   -2280.9139    4.3391876    4.3391876    4.3391876   -2280.9139   -9227.0988   -4041.1393    6425.4963   -661.32856   -4116.0319   -653.32068    81.700605 
   69700    518.21051    -113.5702   0.46888776   -113.10132    3715.4282    4.3380642    4.3380642    4.3380642    3715.4282    6140.6174   -13094.309    18099.977    12266.047    -7620.585   -1456.3514    81.637165 
   69800    868.96816   -113.88246   0.78626065    -113.0962    4035.6618    4.3305987    4.3305987    4.3305987    4035.6618   -1864.2598   -9159.0728    23130.318    5809.3251    1031.3398    508.33711    81.216418 
   69900     831.3087   -113.84888   0.75218558   -113.09669    1337.5847    4.3392186    4.3392186    4.3392186    1337.5847     1700.653   -7014.4204    9326.5217   -3846.9395    1328.6235    2963.0779    81.702356 
   70000    674.35421   -113.71035   0.61016986   -113.10018   -7059.2374    4.3376015    4.3376015    4.3376015   -7059.2374    -17167.67   -13509.012    9498.9691    11651.227   -7340.0408    1600.2318    81.611048 
   70100    646.25401   -113.68445   0.58474421    -113.0997    8140.7106     4.330329     4.330329     4.330329    8140.7106    13683.002   -9058.0357    19797.166    12719.304   -3509.9242    2293.3627    81.201244 
   70200    989.97502   -113.99154    0.8957502   -113.09579   -8269.5676      4.33986      4.33986      4.33986   -8269.5676   -9813.1242   -15258.648    263.06879   -6434.8228    8811.2982   -3123.8357    81.738596 
   70300    653.58596   -113.69023   0.59137831   -113.09885     -5424.95    4.3376202    4.3376202    4.3376202     -5424.95   -9584.7177   -12896.203    6206.0703    6050.4241   -6153.4997   -1195.1142    81.612105 
   70400    641.43224   -113.67966   0.58038137   -113.09928   -4016.7496    4.3318087    4.3318087    4.3318087   -4016.7496   -12048.574   -13322.405    13320.731    16978.903   -9519.2937    2157.9686     81.28451 
   70500    789.69158   -113.81166   0.71452953   -113.09713    2967.1932    4.3380538    4.3380538    4.3380538    2967.1932    14758.897   -10426.213    4568.8954   -328.43401    4859.1316    976.84759    81.636578 
   70600    831.60327    -113.8499   0.75245212   -113.09745    -5845.573    4.3359312    4.3359312    4.3359312    -5845.573   -8796.0935   -11761.761    3021.1353    2005.0407   -1355.9718    2643.9148    81.516804 
   70700    427.42436   -113.48861   0.38674255   -113.10187   -854.95261    4.3349272    4.3349272    4.3349272   -854.95261   -7248.6287   -14888.589     19572.36    15723.918   -6772.6662   -140.95107    81.460194 
   70800     726.9787    -113.7558    0.6577856   -113.09802   -2134.7557    4.3370052    4.3370052    4.3370052   -2134.7557   -3956.9133   -11688.041    9240.6872      4403.14   -676.09738   -951.96591    81.577394 
   70900    715.32923   -113.74341   0.64724492   -113.09616    8899.9202    4.3346769    4.3346769    4.3346769    8899.9202    23260.452   -1974.3253    5413.6339   -3008.5307    5565.4358   -1981.8393    81.446079 
   71000    498.88337   -113.55166   0.45140016   -113.10026   -6386.5715    4.3367042    4.3367042    4.3367042   -6386.5715   -13324.132   -15697.795    9862.2124    14701.534   -3674.7764   -681.46695    81.560412 
   71100    414.11339   -113.47562    0.3746985   -113.10092    2030.3267    4.3354722    4.3354722    4.3354722    2030.3267    2114.1881   -9133.0164    13109.808    10772.933   -7449.8026      2917.13    81.490917 
   71200    771.35734   -113.79418   0.69794033   -113.09624    1549.5494    4.3342437    4.3342437    4.3342437    1549.5494    8922.2367   -1443.1733   -2830.4154   -6003.4588    5797.6832    -214.5265    81.421665 
   71300    436.38062   -113.49475   0.39484635    -113.0999    1056.4623    4.3377469    4.3377469    4.3377469    1056.4623    13104.869   -6228.5902   -3706.8917    8550.6498   -2352.0206   -170.25362    81.619252 
   71400    387.71361   -113.45122   0.35081143   -113.10041   -7104.6144    4.3355744    4.3355744    4.3355744   -7104.6144   -7786.1512   -8918.7218   -4608.9703    15724.696   -8492.4863   -1481.1893    81.496683 
   71500    581.90765   -113.62373   0.52652227   -113.09721    3938.9566     4.334711     4.334711     4.334711    3938.9566    16065.866    2242.9157   -6491.9115   -1890.3217    1045.3126   -1205.4957    81.448005 
   71600     630.7901   -113.66719   0.57075214   -113.09643   -8946.7755    4.3384941    4.3384941    4.3384941   -8946.7755    386.60333   -7179.5233   -20047.407    3767.3838    1632.4466    131.10273    81.661442 
   71700     245.9424   -113.32355   0.22253386   -113.10102   -2695.2181    4.3326099    4.3326099    4.3326099   -2695.2181    9296.5019   -1109.9969   -16272.159    16673.494   -6480.2876    1561.9494    81.329623 
   71800    528.58018   -113.57791   0.47827046   -113.09964   -8383.8767    4.3379733    4.3379733    4.3379733   -8383.8767   -413.38501   -439.37571   -24298.869     2242.738   -7862.0646     3564.144    81.632034 
   71900    588.44076   -113.62822   0.53243357   -113.09579   -138.26539    4.3380817    4.3380817    4.3380817   -138.26539    16230.249   -1596.3793   -15048.666   -1429.3874    5225.1649   -1564.4947    81.638153 
   72000    394.90435   -113.45593   0.35731776   -113.09861   -5818.7378    4.3306573    4.3306573    4.3306573   -5818.7378   -915.29862   -3711.9745    -12828.94    17478.636   -1080.7598   -432.50895    81.219714 
   72100    315.59711   -113.38617   0.28555889   -113.10061   -10176.765    4.3400464    4.3400464    4.3400464   -10176.765    90.428097   -2326.9916   -28293.733     7408.976   -10824.754    1373.7951    81.749126 
   72200    657.77604   -113.69055   0.59516958   -113.09538   -1319.9839     4.336568     4.336568     4.336568   -1319.9839    9667.1346    2352.8352   -15979.922    -6231.342    1615.6594    1338.2325    81.552727 
   72300    438.22002     -113.494   0.39651069   -113.09749    6132.3124    4.3316347    4.3316347    4.3316347    6132.3124    17738.392    -2524.818    3183.3636    11663.198   -522.09526    2420.0823    81.274718 
   72400    317.67463   -113.38815   0.28743868   -113.10071    -11240.94    4.3387665    4.3387665    4.3387665    -11240.94    -10895.06   -7657.9046   -15169.854    10641.446   -9127.1041    284.09444     81.67682 
   72500    518.62135   -113.56656    0.4692595    -113.0973   -2102.0568    4.3366526    4.3366526    4.3366526   -2102.0568    4845.7558    2478.5846   -13630.511   -2982.5111   -4564.2144    2708.4047    81.557499 
   72600    600.70324   -113.63936   0.54352892   -113.09583    6544.2618    4.3331943    4.3331943    4.3331943    6544.2618    12069.258    1015.8541     6547.673    5555.8776    302.60742   -1207.9508    81.362536 
   72700    326.77311   -113.39607   0.29567117    -113.1004    3301.3808    4.3362095    4.3362095    4.3362095    3301.3808    10811.726   -5040.6626    4133.0796    11772.088   -5201.7369   -365.79332    81.532502 
   72800    468.54137   -113.52333   0.42394608   -113.09938   -5873.7192    4.3366498    4.3366498    4.3366498   -5873.7192   -6475.6785   -437.24553   -10708.233   -825.52607   -8246.0064    4220.0893     81.55734 
   72900    620.49487   -113.65762    0.5614368   -113.09618    412.81162    4.3343532    4.3343532    4.3343532    412.81162    3575.4716   -3920.0006    1582.9639   -2676.6519    2695.6445   -2115.2393    81.427834 
   73000    479.52487    -113.5324   0.43388418   -113.09851    3740.0597    4.3360768    4.3360768    4.3360768    3740.0597   -302.37083   -241.08018     11763.63    13041.924   -1454.7188   -395.15943    81.525017 
   73100    395.91817    -113.4578   0.35823508   -113.09957    2636.9074    4.3362484    4.3362484    4.3362484    2636.9074    8832.8202    1040.2256   -1962.3237    4556.5795   -11079.822    763.26477    81.534698 
   73200    627.73444   -113.66466   0.56798731   -113.09667   -6007.0534    4.3342716    4.3342716    4.3342716   -6007.0534   -9689.0927   -6861.1221   -1470.9454    -5365.417   -682.95318    1810.6213    81.423239 
   73300    585.03961   -113.62673   0.52935613   -113.09737   -6054.3013    4.3363361    4.3363361    4.3363361   -6054.3013   -15546.474   -11702.895    9086.4654    11843.944    3512.1241    2490.4237    81.539642 
   73400    434.05817    -113.4924   0.39274495   -113.09966    2776.0089    4.3363584    4.3363584    4.3363584    2776.0089   -5158.0603    8251.0685    5235.0184     8565.667   -9666.1196   -1705.7691    81.540899 
   73500    578.40821   -113.62095   0.52335591   -113.09759    2783.2486     4.333272     4.333272     4.333272    2783.2486    7793.0198   -2269.2153    2825.9413   -4276.3806   -9784.2508    3717.8338    81.366917 
   73600    613.75541   -113.65213   0.55533879   -113.09679    -7897.949    4.3371258    4.3371258    4.3371258    -7897.949   -17226.131    -17564.87    11097.155    4044.3935    1692.1481    833.31332    81.584198 
   73700    523.68923    -113.5721   0.47384502   -113.09826   -8911.5177    4.3369102    4.3369102    4.3369102   -8911.5177   -25487.318   -9733.5186    8486.2832    9818.3935    -2735.365   -1643.2135    81.572034 
   73800    481.35439   -113.53436   0.43553957   -113.09882    7394.5453     4.333214     4.333214     4.333214    7394.5453    2313.9674    8977.9209    10891.748    944.77791   -9338.2489    5127.8237    81.363649 
   73900    632.17794   -113.66949   0.57200789   -113.09748    2170.7275    4.3351401    4.3351401    4.3351401    2170.7275    2419.8477    -10379.95    14472.285   -3746.2016     -543.785    1179.3264    81.472196 
   74000    551.58249   -113.59701   0.49908343   -113.09793   -5897.2121    4.3375798    4.3375798    4.3375798   -5897.2121   -15429.655   -16555.385    14293.404    7963.2747   -893.99459   -1438.8751    81.609825 
   74100    529.35221   -113.57747     0.478969    -113.0985   -5192.0772    4.3354804    4.3354804    4.3354804   -5192.0772   -16613.133   -8409.0085    9445.9095    3424.4433   -11651.575    2.0821796    81.491384 
   74200    556.33185   -113.60176   0.50338075   -113.09838    11789.508    4.3322081    4.3322081    4.3322081    11789.508    12766.724    11299.599      11302.2   -4215.5039   -1868.7391    4167.1349    81.307001 
   74300    641.46292   -113.67791   0.58040913    -113.0975    475.24039    4.3379433    4.3379433    4.3379433    475.24039     6585.197   -15470.298    10310.822    10335.696    4404.1466    5166.6615    81.630344 
   74400    535.23175   -113.58271   0.48428893   -113.09843   -4216.2603     4.335841     4.335841     4.335841   -4216.2603   -11730.444   -11926.229    11007.892    5967.7043   -9480.5009   -1113.5568     81.51172 
   74500      613.781   -113.65389   0.55536195   -113.09853   -3607.7047    4.3336595    4.3336595    4.3336595   -3607.7047    -3613.811   -3379.1904   -3830.1128   -2843.2541   -9023.7984    5832.8346    81.388743 
   74600    601.44161    -113.6419   0.54419701    -113.0977    6567.2961    4.3365743    4.3365743    4.3365743    6567.2961    18142.843    2665.8626   -1106.8176     4560.793     2305.509    4179.1773    81.553082 
   74700    696.35479   -113.72708   0.63007644     -113.097   -627.09578    4.3348974    4.3348974    4.3348974   -627.09578    1025.2634   -6651.0011    3744.4504    6158.2069   -291.11584   -5671.0402    81.458513 
   74800    553.18658   -113.59909   0.50053484   -113.09856   -3851.0966     4.336072     4.336072     4.336072   -3851.0966   -1449.6035   -1181.1236   -8922.5627    1038.4586   -8969.6303     4073.579    81.524748 
   74900    704.33422   -113.73505    0.6372964   -113.09775   -8115.3758    4.3359395    4.3359395    4.3359395   -8115.3758    939.09733   -10144.003   -15141.222   -5277.4608   -2991.2678    7479.6076    81.517274 
   75000    634.57761   -113.67227   0.57417916   -113.09809    5907.3241    4.3336375    4.3336375    4.3336375    5907.3241    12368.346    6028.1558   -674.52982    8130.3195    2091.8426    590.30625    81.387506 
   75100    703.89663   -113.73502   0.63690047   -113.09812   -4494.0076    4.3356508    4.3356508    4.3356508   -4494.0076     -3763.11    289.24214   -10008.155    9224.6019   -9381.5475    -1337.899    81.500989 
   75200    587.04911    -113.6306   0.53117437   -113.09942   -3704.4729    4.3371191    4.3371191    4.3371191   -3704.4729    2552.6439   -559.35741   -13106.705   -3605.6525   -4685.4007      5896.93    81.583824 
   75300    744.26252   -113.77052   0.67342437    -113.0971   -5942.5024    4.3348126    4.3348126    4.3348126   -5942.5024    -3717.699   -8594.6578   -5515.1503    7837.5194     3423.916    6241.3883    81.453731 
   75400    636.90149   -113.67452   0.57628185   -113.09824    4252.6915     4.333476     4.333476     4.333476    4252.6915    6040.2867    12478.862   -5761.0742    2608.1767   -5727.4379    -3212.914    81.378409 
   75500    719.72848   -113.74935   0.65122546   -113.09812   -6534.7529    4.3372192    4.3372192    4.3372192   -6534.7529    -3227.436    1365.6939   -17742.517   -2299.2429    -8107.342      5943.53    81.589472 
   75600    618.06058   -113.65823    0.5592342   -113.09899    1915.8587    4.3361469    4.3361469    4.3361469    1915.8587    4101.0729    2803.5384   -1157.0353    7129.8008    514.32852    7316.1025    81.528972 
   75700    784.45853   -113.80759   0.70979456    -113.0978   -164.59113    4.3317642    4.3317642    4.3317642   -164.59113   -2274.3888     3487.208   -1706.5926    3222.0553    2160.3867    -5105.536    81.282007 
   75800    624.52265   -113.66427   0.56508122   -113.09919    2188.0003    4.3370782    4.3370782    4.3370782    2188.0003    11087.395    10976.903   -15500.297    323.61596    -8847.344    1599.3851    81.581511 
   75900    745.79439   -113.77306   0.67481044   -113.09825   -2645.2661    4.3365792    4.3365792    4.3365792   -2645.2661    2615.3302    2849.6753   -13400.804   -3824.7804     -5123.79    5717.9966    81.553359 
   76000    672.72513   -113.70695   0.60869583   -113.09825    9829.5668    4.3331409    4.3331409    4.3331409    9829.5668     10648.36    14127.968    4712.3725    7059.7688    2857.1235    1255.5123    81.359533 
   76100     778.3323   -113.80192   0.70425142   -113.09767   -498.48132    4.3356091    4.3356091    4.3356091   -498.48132    5480.0018    2761.3485   -9736.7942    8271.3661   -5528.0707   -4305.9717     81.49864 
   76200    637.39995   -113.67557   0.57673287   -113.09884    4881.4337    4.3357121    4.3357121    4.3357121    4881.4337    16723.872     12817.78   -14897.351   -4249.7975   -6274.0416    3805.6446    81.504448 
   76300    808.99375   -113.82922   0.73199455   -113.09723   -1842.5803      4.33492      4.33492      4.33492   -1842.5803    4044.7552   -3447.1958   -6125.3002    5689.2702    1442.0289    8494.1688    81.459786 
   76400    641.69501   -113.68016   0.58061913   -113.09954    9644.9936    4.3349524    4.3349524    4.3349524    9644.9936    15034.988     12904.94    995.05273    4911.6389    2691.9305   -4478.4389    81.461614 
   76500    789.90583   -113.81291    0.7147234   -113.09819   -3131.1894    4.3355451    4.3355451    4.3355451   -3131.1894    266.18251    1781.8479   -11441.599   -315.45407    -6989.482    1129.2214    81.495033 
   76600    689.04475   -113.72136   0.62346217    -113.0979    1989.6167    4.3336687    4.3336687    4.3336687    1989.6167    17178.997   -6125.2576    -5084.889     3312.366   -3980.6038    4339.7488    81.389264 
   76700     733.6962   -113.76282   0.66386374   -113.09896   -8010.0812    4.3384943    4.3384943    4.3384943   -8010.0812   -3245.0817   -15285.882   -5499.2802    393.93952    4355.0018    -1796.053    81.661451 
   76800    647.77947   -113.68459   0.58612448   -113.09847    7067.7193    4.3337394    4.3337394    4.3337394    7067.7193    8270.8375    11515.143    1417.1776    1598.8312    -5427.273   -620.27583    81.393249 
   76900    811.44131   -113.83084   0.73420915   -113.09663   -406.63531    4.3328604    4.3328604    4.3328604   -406.63531    10002.742   -10264.571   -958.07756    -1348.623   -2884.8744   -178.89425    81.343733 
   77000    611.16814   -113.65186   0.55299777   -113.09887   -7644.6451    4.3394928    4.3394928    4.3394928   -7644.6451    1958.8847   -26880.624    1987.8044    7604.6542    6394.2119    3583.3444    81.717844 
   77100    656.12017   -113.69196   0.59367132   -113.09829   -2348.1807    4.3342264    4.3342264    4.3342264   -2348.1807    3721.0102   -14142.813    3377.2605    7271.3892   -1875.1402   -4004.2963    81.420692 
   77200    723.86618   -113.75231   0.65496933   -113.09734    8787.8194    4.3335387    4.3335387    4.3335387    8787.8194    15985.027    4114.7741    6263.6567   -4825.2413   -7241.2959   -2254.5098    81.381941 
   77300    720.03892   -113.74959   0.65150634   -113.09809   -2285.7633    4.3356963    4.3356963    4.3356963   -2285.7633    5674.1457   -22124.072    9592.6364    5074.3011    39.502248     6251.702    81.503555 
   77400    501.26869   -113.55379   0.45355845   -113.10023   -4794.4664    4.3371454    4.3371454    4.3371454   -4794.4664    718.96315   -27519.604    12417.242    4764.2061    7587.4071   -3147.1966    81.585305 
   77500     726.7159   -113.75493   0.65754782   -113.09738   -632.79483    4.3355497    4.3355497    4.3355497   -632.79483    8358.5542   -18196.925     7939.986   -3173.0871   -1506.3046   -1711.4719    81.495291 
   77600    699.11043   -113.72927   0.63256981    -113.0967    11693.735    4.3326553    4.3326553    4.3326553    11693.735    22752.642   -147.96421    12476.527     2189.516    -3369.556    1361.8579     81.33218 
   77700    533.40506    -113.5828    0.4826361   -113.10016   -7011.1381    4.3372933    4.3372933    4.3372933   -7011.1381   -8899.7557   -23064.525    10930.866    6172.2871     7117.669   -463.05393    81.593655 
   77800    527.50724   -113.57737   0.47729964   -113.10007   -4696.7042    4.3345967    4.3345967    4.3345967   -4696.7042   -983.54183   -21887.532    8780.9608    1147.8647    1976.2288   -2051.7382    81.441559 
   77900    748.33429   -113.77453   0.67710859   -113.09742    1285.2682    4.3357928    4.3357928    4.3357928    1285.2682    18517.414   -18684.649    4023.0397   -946.34675   -2395.5731   -5617.0567    81.509001 
   78000    555.96437   -113.60244   0.50304824   -113.09939    1090.0382    4.3358172    4.3358172    4.3358172    1090.0382   -1235.8811   -4654.8007    9160.7964     4848.454    5473.9966    2368.9506    81.510376 
   78100    459.43656   -113.51575   0.41570786   -113.10004   -5066.1491    4.3334439    4.3334439    4.3334439   -5066.1491   -7777.6161    -9196.499    1775.6676    1609.9247    9203.7215   -2255.0619    81.376599 
   78200    648.17163   -113.68433   0.58647931   -113.09786   -8321.2502    4.3389094    4.3389094    4.3389094   -8321.2502   -3177.7632   -21085.196   -700.79164   -434.80278   -33.423179   -8253.1698     81.68489 
   78300    661.50818   -113.69559    0.5985465   -113.09704    1145.4708    4.3333225    4.3333225    4.3333225    1145.4708    5244.8848   -12464.956    10656.483     5633.165   -1326.5218    1281.7931    81.369762 
   78400    424.53211    -113.4839   0.38412558   -113.09978   -945.96879    4.3339399    4.3339399    4.3339399   -945.96879   -4817.5243    1012.1252    967.49276    4378.1909    10087.743   -2563.9586    81.404543 
   78500    528.97936   -113.57762   0.47863164   -113.09899     -9603.59    4.3392544    4.3392544    4.3392544     -9603.59   -7772.3365   -9331.7379   -11706.696   -3991.3087    1231.7904   -5721.0149     81.70438 
   78600     679.4295   -113.71033   0.61476209   -113.09557    1045.0755    4.3338152    4.3338152    4.3338152    1045.0755   -3248.0335   -7446.4694    13829.729   -1570.2689   -3666.4488    314.34894     81.39752 
   78700    532.75197   -113.58064   0.48204518    -113.0986    1024.0863    4.3340868    4.3340868    4.3340868    1024.0863    212.42829    -3588.918    6448.7486    6254.0879    9401.2492    1057.9701    81.412821 
   78800    470.84369   -113.52631   0.42602926   -113.10028   -3106.3441    4.3362944    4.3362944    4.3362944   -3106.3441   -1183.7863   -595.98329   -7539.2626   -369.32648    6201.8224   -5917.7797     81.53729 
   78900    687.99871   -113.71928   0.62251569   -113.09677    -2685.595    4.3353805    4.3353805    4.3353805    -2685.595   -4459.3105    1208.9941   -4806.4686   -89.512077    813.04302   -7548.7902    81.485751 
   79000    633.49322   -113.67067   0.57319798   -113.09747    2977.5794    4.3356871    4.3356871    4.3356871    2977.5794   -7321.8861    2214.7773    14039.847    4895.4352    4702.4909    4266.1588    81.503035 
   79100    545.55364   -113.59262    0.4936284   -113.09899    1276.9395    4.3352103    4.3352103    4.3352103    1276.9395   -658.78297     3688.834    800.76738   -1712.4426     8228.012   -255.78132    81.476153 
   79200    613.72492   -113.65353    0.5553112   -113.09822   -149.46902    4.3352916    4.3352916    4.3352916   -149.46902    2511.3121    604.82038   -3564.5396   -2038.2308    296.87206    -7503.666    81.480739 
   79300    753.11737   -113.77808   0.68143642   -113.09664   -876.17782    4.3341722    4.3341722    4.3341722   -876.17782   -801.04246    3915.2006   -5742.6916    1852.3119   -4320.4805    1443.2294    81.417634 
   79400    557.96209   -113.60446   0.50485582    -113.0996    5400.8925    4.3359513    4.3359513    4.3359513    5400.8925    -11094.25    5503.1924    21793.735    1460.0454    6226.2002    1393.2551     81.51794 
   79500     593.2937   -113.63609   0.53682461   -113.09927    645.18675    4.3355494    4.3355494    4.3355494    645.18675   -1755.0108    4302.5595   -611.98844   -1449.5586    2577.6462   -3995.7351    81.495273 
   79600    680.78117    -113.7131   0.61598511   -113.09712     3468.073    4.3320422    4.3320422    4.3320422     3468.073     10631.31    -69.73095   -157.35997   -2780.9037   -1549.7504    2056.2953    81.297657 
   79700    645.36081   -113.68206   0.58393602   -113.09812   -6623.4162    4.3391624    4.3391624    4.3391624   -6623.4162   -10854.507   -8932.7202   -83.021506    2448.0226     3525.146    2838.7188    81.699185 
   79800    497.22802   -113.54874   0.44990237   -113.09884    4906.6773    4.3337552    4.3337552    4.3337552    4906.6773   -4469.6618   -1592.0054    20781.699   -675.07307    5995.1181   -4646.7487    81.394139 
   79900    645.50274   -113.68139   0.58406445   -113.09733    2842.6884    4.3324129    4.3324129    4.3324129    2842.6884    10470.209    2861.6892   -4803.8333   -1849.4869    1058.9027   -2038.9639    81.318533 
   80000    591.06816   -113.63213   0.53481089   -113.09732   -8997.4378    4.3394422    4.3394422    4.3394422   -8997.4378    1362.6322   -17456.708   -10898.238    4328.9642   -1069.5804    6286.7178    81.714987 
   80100    500.76646   -113.55136   0.45310402   -113.09826   -4456.7943    4.3321791    4.3321791    4.3321791   -4456.7943    -2023.748   -13832.217    2485.5821    246.24735    12036.989   -946.53311    81.305365 
   80200    493.28617    -113.5453    0.4463357   -113.09896    437.38328    4.3349432    4.3349432    4.3349432    437.38328    4929.0597   -17311.715    13694.806   -1075.5822    2983.0912   -8376.7445    81.461093 
   80300    567.93273    -113.6113   0.51387747   -113.09743   -3716.7717    4.3380089    4.3380089    4.3380089   -3716.7717    6531.4183   -13130.098   -4551.6356    1666.5077    -7594.966    4742.0141    81.634044 
   80400    403.36131   -113.46318   0.36496979   -113.09821   -1362.6119    4.3330016    4.3330016    4.3330016   -1362.6119    4699.0295   -15055.291    6268.4258    457.08595    6516.8639    6480.1107    81.351684 
   80500    446.68579    -113.5025   0.40417069   -113.09833   -8309.4753     4.335566     4.335566     4.335566   -8309.4753   -1631.5019   -31558.278    8261.3538    -292.0512    6598.7688   -4756.7281    81.496207 
   80600    473.14973   -113.52536   0.42811582   -113.09725   -667.77944    4.3367588    4.3367588    4.3367588   -667.77944    10066.161   -32592.234    20522.735   -2604.6205   -1607.0154    2369.0886    81.563488 
   80700    469.41156   -113.52256   0.42473344   -113.09783    1057.1059    4.3339278    4.3339278    4.3339278    1057.1059    8348.2224   -12119.194    6942.2889    819.68336    1402.2178    5848.5522    81.403866 
   80800    425.84106    -113.4839   0.38530994   -113.09859   -2159.8321    4.3354765    4.3354765    4.3354765   -2159.8321   -1774.0505    -17378.99    12673.544     315.8901    8659.4875   -1269.6547     81.49116 
   80900    512.93188   -113.56174   0.46411154   -113.09763   -4127.0227    4.3364206    4.3364206    4.3364206   -4127.0227    5335.6993   -34500.578    16783.811   -2847.5586    2603.5844    2205.2895    81.544409 
   81000    527.37994   -113.57437   0.47718445   -113.09718   -572.27388    4.3346819    4.3346819    4.3346819   -572.27388    11986.357   -32643.389     18940.21    2156.2187   -5070.4659    4642.1469    81.446365 
   81100    456.83907   -113.51208   0.41335759   -113.09872    722.23756    4.3364515    4.3364515    4.3364515    722.23756   -4259.3748   -11687.115    18113.202     -2202.46    13214.351    1893.5659    81.546155 
   81200    565.74415   -113.60986    0.5118972   -113.09796    1313.7383      4.33503      4.33503      4.33503    1313.7383   -187.74811   -8271.9925    12400.956   -2513.5528    7476.7014   -786.13095    81.465989 
   81300    603.00438   -113.64323   0.54561103   -113.09762   -129.39052    4.3341051    4.3341051    4.3341051   -129.39052      8279.47   -27357.929    18690.288    2566.0625   -5180.9047    6445.5334    81.413854 
   81400    600.89067   -113.64288    0.5436985   -113.09918   -8198.1453    4.3369133    4.3369133    4.3369133   -8198.1453   -2805.0891    -23212.12    1422.7734   -450.02168    8770.1599    5554.2288    81.572211 
   81500    616.40905   -113.65735   0.55773986   -113.09961    7.7648026    4.3351623    4.3351623    4.3351623    7.7648026    -9193.024    54.106983    9162.2115    103.24316    11882.522   -6539.2099    81.473447 
   81600    795.70434    -113.8163   0.71997001   -113.09633   -602.84722    4.3350843    4.3350843    4.3350843   -602.84722   -1087.6599   -3275.6748    2554.7931   -1558.5008    725.03162    6372.4779     81.46905 
   81700    706.54947   -113.73682   0.63930081   -113.09752   -4852.0974    4.3361722    4.3361722    4.3361722   -4852.0974   -3096.3863   -11070.144   -389.76184   -2414.4279   -559.70162    10840.951    81.530397 
   81800    693.29245   -113.72619   0.62730558   -113.09889   -5987.6524    4.3360316    4.3360316    4.3360316   -5987.6524   -14933.282    815.52264   -3845.1983   -528.87261    12584.149   -3269.3595    81.522468 
   81900    781.27866   -113.80531   0.70691735    -113.0984    5135.5432    4.3342632    4.3342632    4.3342632    5135.5432   -8673.0439    2098.7846    21980.889   -1368.4885    5100.2781    4019.7756    81.422766 
   82000    871.60674   -113.88655    0.7886481    -113.0979    2951.6538    4.3333278    4.3333278    4.3333278    2951.6538   -3205.0243    5280.1656    6779.8201    3510.1819   -6212.6712    4400.6925    81.370059 
   82100    647.65226   -113.68638   0.58600938   -113.10037   -6302.8407    4.3400307    4.3400307    4.3400307   -6302.8407   -21783.707    2890.3259   -15.140828     487.7373    14628.259    561.09988    81.748237 
   82200     794.1083   -113.81649   0.71852588   -113.09797    -280.1699    4.3351945    4.3351945    4.3351945    -280.1699    -15457.86    10999.205    3618.1453   -2572.2441    9999.9141    1139.0267     81.47526 
   82300    888.06036   -113.89912   0.80353568   -113.09559    10312.895    4.3323402    4.3323402    4.3323402    10312.895    1408.8333    5337.5271    24192.326    706.26125   -4074.7712    3492.6063    81.314435 
   82400    727.17527   -113.75733   0.65796347   -113.09936   -7723.0042    4.3379275    4.3379275    4.3379275   -7723.0042   -16045.597    4677.1826   -11800.599   -1967.8845    9006.7927    4239.8109    81.629447 
   82500    599.42067   -113.64315   0.54236842   -113.10079   -2689.1682    4.3339006    4.3339006    4.3339006   -2689.1682   -17012.833    11745.271   -2799.9418    1466.4632    12446.943   -3990.6752    81.402332 
   82600    810.04876   -113.83084   0.73294914   -113.09789    5025.9799    4.3371326    4.3371326    4.3371326    5025.9799   -3107.4103    8486.5583    9698.7915    2392.1773   -157.00386   -74.526548    81.584581 
   82700    727.02354   -113.75574   0.65782618   -113.09791    6227.5191    4.3342949    4.3342949    4.3342949    6227.5191   -850.80953    3372.6087    16160.758   -3297.7919   -150.69199    6042.5322    81.424552 
   82800    452.69435   -113.51001   0.40960736   -113.10041   -4755.2783    4.3341184    4.3341184    4.3341184   -4755.2783   -11111.954    4113.5038   -7267.3842   -2350.4291    14128.755   -4576.1047    81.414602 
   82900    640.07205   -113.67755   0.57915064    -113.0984   -8588.2207    4.3393518    4.3393518    4.3393518   -8588.2207   -8743.9401   -7327.7416   -9692.9805   -1443.8065    1765.4454    672.69345     81.70988 
   83000    735.26832   -113.76162   0.66528623   -113.09633    10480.212    4.3327184    4.3327184    4.3327184    10480.212    6552.9196      9732.68    15155.037   -167.45892   -5834.1033    5330.4826    81.335732 
   83100     453.3775    -113.5117   0.41022549   -113.10147    1880.5267    4.3334077    4.3334077    4.3334077    1880.5267   -881.11541    3771.4757      2751.22   -1785.3825     14078.22   -4270.6486    81.374558 
   83200    401.65458   -113.46475   0.36342551   -113.10132    -10031.08     4.339234     4.339234     4.339234    -10031.08   -9542.7426   -16526.357   -4024.1395   -777.77858    9036.5138   -1598.6431    81.703227 
   83300    680.43898   -113.71092   0.61567549   -113.09524   -3206.5408    4.3357631    4.3357631    4.3357631   -3206.5408    3075.2599   -17965.686    5270.8032    2588.6637   -2853.7476     20.48452    81.507322 
   83400    436.69208   -113.49378   0.39512817   -113.09865    11741.512    4.3323087    4.3323087    4.3323087    11741.512    6025.7919    4476.2362    24722.507   -4081.8819    7132.4814    1178.3855    81.312664 
   83500    302.70318   -113.37496    0.2738922   -113.10107   -4106.8148    4.3386265    4.3386265    4.3386265   -4106.8148   -5988.1372   -14062.335    7730.0276   -660.51201    14127.231      419.108    81.668918 
   83600    468.58616   -113.52198    0.4239866   -113.09799   -2771.4745     4.333841     4.333841     4.333841   -2771.4745    5674.8198   -21707.901    7718.6581    2989.3626   -2347.7245   -3536.6945    81.398974 
   83700    562.59727   -113.60683   0.50904984   -113.09778   -5059.3255    4.3355506    4.3355506    4.3355506   -5059.3255    4378.1893   -26632.411    7076.2457   -3939.6489   -691.60428    4475.7207    81.495338 
   83800    243.64842   -113.32078   0.22045821   -113.10032    -1174.229    4.3390782    4.3390782    4.3390782    -1174.229   -4749.7305   -12580.492    13807.535   -1626.2519    15117.178   -2038.0802    81.694427 
   83900     428.8477   -113.48635   0.38803041   -113.09832    1564.9614    4.3290905    4.3290905    4.3290905    1564.9614    6529.4356    -6195.931    4361.3796     2122.089   -2084.3481   -6234.6274     81.13159 
   84000    491.89765   -113.54284   0.44507933   -113.09776   -10441.999       4.3408       4.3408       4.3408   -10441.999    446.37395   -37719.011    5946.6388   -1152.1567   -5302.8474    2041.4285    81.791717 
   84100     418.9381   -113.47677     0.379064   -113.09771   -12902.743    4.3387994    4.3387994    4.3387994   -12902.743   -5141.0634   -33750.761    183.59695    -6264.186    10544.573   -1989.6249    81.678683 
   84200    319.53224   -113.38734   0.28911948   -113.09822    11276.744    4.3268074    4.3268074    4.3268074    11276.744    5932.0198    4079.6916     23818.52    1010.5498    6966.9099    908.38665    81.003294 
   84300    571.17258   -113.61347   0.51680896   -113.09666   -9669.3545    4.3423803    4.3423803    4.3423803   -9669.3545   -7463.8228    -23192.19    1647.9493    3176.0802   -3090.4854   -1679.3215    81.881081 
   84400    480.22796   -113.53216   0.43452035   -113.09764   -4372.1174    4.3358263    4.3358263    4.3358263   -4372.1174   -3761.5264   -25728.299    16373.473   -8221.8252    1744.7701   -1308.1198    81.510886 
   84500    497.73083    -113.5495   0.45035732   -113.09914    543.03532    4.3303484    4.3303484    4.3303484    543.03532    3803.6349   -12234.533    10060.004    769.99858    14071.965    3065.4087    81.202337 
   84600    538.47433   -113.58508   0.48722289   -113.09785   -2344.6239    4.3425808    4.3425808    4.3425808   -2344.6239   -8049.7114   -12055.287    13071.127    5474.6966   -907.99046   -5381.0835    81.892424 
   84700    670.01386   -113.70276   0.60624262   -113.09652    2298.5689    4.3326085    4.3326085    4.3326085    2298.5689   -595.53038   -2365.7136    9856.9506   -9230.2898   -3979.1639    3163.2612    81.329548 
   84800    620.65767   -113.65951    0.5615841   -113.09793   -1450.8922    4.3344345    4.3344345    4.3344345   -1450.8922   -4244.3367   -5021.5802    4913.2403   -5399.0729    11965.037     446.9112    81.432416 
   84900    667.86105   -113.70219   0.60429471    -113.0979   -4035.8082    4.3396382    4.3396382    4.3396382   -4035.8082   -1373.5263   -9243.9029   -1489.9954     6296.595    782.14348   -5391.1799     81.72606 
   85000    698.30342    -113.7302   0.63183961   -113.09836    6132.4888    4.3320692    4.3320692    4.3320692    6132.4888   -1375.8666    3467.0651    16306.268    190.76358   -4057.3375     2632.107    81.299178 
   85100     773.6848   -113.79795   0.70004627   -113.09791   -410.40661    4.3355658    4.3355658    4.3355658   -410.40661   -11645.093    7741.8874    2671.9861   -6259.5511    242.62315   -2838.5055    81.496197 
   85200    745.83588    -113.7733   0.67484798   -113.09845    -583.7912    4.3384254    4.3384254    4.3384254    -583.7912   -9103.5918    1494.4526    5857.7657    1880.6112    3542.2924   -2744.3294    81.657562 
   85300    716.88117   -113.74695   0.64864915    -113.0983    1680.2916    4.3355435    4.3355435    4.3355435    1680.2916   -4094.2612    788.84489    8346.2912    1408.0599    -310.6984   -4238.1774     81.49494 
   85400    792.65683   -113.81493   0.71721256   -113.09772    4997.2747    4.3311931    4.3311931    4.3311931    4997.2747   -11854.547    11086.747    15759.623   -8789.0599   -8954.5217     978.8281    81.249863 
   85500    832.79163   -113.85181   0.75352737   -113.09829   -5101.7333     4.339453     4.339453     4.339453   -5101.7333   -17639.347    3943.6299   -1609.4829    3073.8191    5427.2967    4076.7903    81.715599 
   85600    708.51302   -113.74009   0.64107747   -113.09902   -6462.0162    4.3374393    4.3374393    4.3374393   -6462.0162   -14221.126   -3430.6398   -1734.2823    10630.544     839.3499   -6556.4988    81.601893 
   85700    702.30464   -113.73367   0.63545999   -113.09821    10181.823    4.3280178    4.3280178    4.3280178    10181.823    3801.8168    13229.071    13514.581   -4715.4357   -7980.5658    936.15755    81.071294 
   85800    850.31987   -113.86582   0.76938728   -113.09643   -6096.5731    4.3412976    4.3412976    4.3412976   -6096.5731   -15825.269   -2448.8029   -15.647366   -5803.7542    3965.3944   -2713.6156    81.819848 
   85900    652.10234   -113.68886    0.5900359   -113.09882   -3954.9513    4.3347901    4.3347901    4.3347901   -3954.9513   -3932.3061   -7536.4078   -396.13993    8212.1742    1378.1439   -4349.9527    81.452463 
   86000    594.62017   -113.63814   0.53802483   -113.10012    1100.8714    4.3296057    4.3296057    4.3296057    1100.8714   -2889.9036   -2300.5765    8493.0944    3484.9215    463.91692    1428.2431     81.16056 
   86100    657.66488   -113.69269   0.59506901   -113.09762   -687.27492    4.3421661    4.3421661    4.3421661   -687.27492    437.09135   -10544.509    8045.5927    -5422.859   -6009.0425    46.018558    81.868967 
   86200    669.07779     -113.702   0.60539565   -113.09661    5194.2017    4.3315401    4.3315401    4.3315401    5194.2017    9140.5247   -7109.6654    13551.746    4856.0928   -2866.4265   -349.32387    81.269394 
   86300    454.74554   -113.51084   0.41146332   -113.09937   -926.14681    4.3334239    4.3334239    4.3334239   -926.14681   -218.90304   -16039.448    13479.911    5160.6388     4426.458   -4316.6609    81.375471 
   86400    557.86128   -113.60303   0.50476461   -113.09827   -6860.1094    4.3392896    4.3392896    4.3392896   -6860.1094        -3527   -23028.927    5975.5989   -5899.9917   -9963.9134    3678.3171    81.706368 
   86500    585.34963   -113.62663   0.52963665     -113.097    10436.466    4.3305187    4.3305187    4.3305187    10436.466    19350.368   -11123.668    23082.698    1423.6689   -2418.6716   -715.10615    81.211916 
   86600    554.96284   -113.60087   0.50214204   -113.09873   -2944.4886    4.3360978    4.3360978    4.3360978   -2944.4886   -3911.2788   -22297.805    17375.618    8095.8577     2507.577   -7263.7001    81.526199 
   86700    426.33891   -113.48534   0.38576041   -113.09958   -720.53832    4.3368832    4.3368832    4.3368832   -720.53832    3217.7034   -20164.458     14785.14   -1194.1112   -4809.4648    3544.5333    81.570509 
   86800    649.18397   -113.68443    0.5873953   -113.09704    -4268.067    4.3339201    4.3339201    4.3339201    -4268.067    -1124.844   -19087.247    7407.8902   -3343.2981   -4593.5482    -611.7189     81.40343 
   86900    594.34047   -113.63495   0.53777175   -113.09718    1151.2967    4.3339095    4.3339095    4.3339095    1151.2967    8010.7502   -24619.577    20062.716    7970.9762   -2481.7301   -1162.9039    81.402833 
   87000    607.33871   -113.64825   0.54953283   -113.09871   -5687.8331    4.3368646    4.3368646    4.3368646   -5687.8331   -1762.3657   -22409.585    7108.4511    4597.9714    4862.5189   -1043.2466    81.569458 
   87100     559.5681   -113.60527   0.50630897   -113.09896   -1771.3804    4.3365563    4.3365563    4.3365563   -1771.3804    -3233.002   -10131.751    8050.6122   -5617.6912    -7478.958   -1636.8045    81.552067 
   87200    738.65188   -113.76547   0.66834774   -113.09712   -253.69316    4.3308441    4.3308441    4.3308441   -253.69316    1135.6388   -14637.915    12741.197    3706.7488   -7173.1981    1728.2362    81.230222 
   87300    639.27234   -113.67727   0.57842705   -113.09885   -3605.3582    4.3384644    4.3384644    4.3384644   -3605.3582     6017.107   -27432.763    10599.582    5031.9832    3621.0075   -3445.3319     81.65976 
   87400    635.95071    -113.6745   0.57542157   -113.09908   -3431.8698    4.3362033    4.3362033    4.3362033   -3431.8698   -2801.5265   -9293.1098    1799.0269   -522.46192   -10360.212    5031.4936    81.532152 
   87500    630.12368   -113.66923   0.57014915   -113.09908    11114.477    4.3311136    4.3311136    4.3311136    11114.477    7926.9785    5829.1058    19587.346    1326.4126   -6706.0889    1952.8641     81.24539 
   87600    770.39669   -113.79439   0.69707111   -113.09732   -5591.4526    4.3392993    4.3392993    4.3392993   -5591.4526   -185.37199   -21343.818    4754.8319    1652.6005    1060.6961   -4584.5105    81.706917 
   87700    621.32031   -113.66067   0.56218367   -113.09848    623.32977    4.3333446    4.3333446    4.3333446    623.32977    4085.5057   -7434.4831    5218.9667    -335.7236   -6766.8514     1695.743    81.371005 
   87800    688.92235   -113.72318   0.62335142   -113.09983   -1622.6476    4.3344195    4.3344195    4.3344195   -1622.6476   -3845.7523    4746.8689   -5769.0593   -138.68652   -7540.7406   -2021.1199    81.431574 
   87900    724.03477   -113.75281   0.65512188   -113.09769    3050.3118    4.3376964    4.3376964    4.3376964    3050.3118    1766.6452    1617.9214    5766.3689     6240.697     1961.835    212.58874    81.616404 
   88000    787.59033   -113.80966   0.71262829   -113.09703   -2312.0225    4.3330527    4.3330527    4.3330527   -2312.0225   -3809.5912   -1106.1013   -2020.3752    2618.9723    2190.1459    4144.4417    81.354565 
   88100    658.77844   -113.69476   0.59607658   -113.09868   -7754.5259    4.3368706    4.3368706    4.3368706   -7754.5259   -10684.165    5183.3258   -17762.739   -4867.7969   -9653.6866    1914.6529    81.569797 
   88200    739.61356   -113.76751   0.66921789   -113.09829    312.98275    4.3349817    4.3349817    4.3349817    312.98275   -4825.1588    9550.1265   -3786.0195    2211.9401   -1516.9269   -201.47381    81.463262 
   88300    707.55827   -113.73888    0.6402136   -113.09866    7686.6601    4.3338399    4.3338399    4.3338399    7686.6601    603.28708    8632.8044    13823.889     2948.154    7206.3377   -2055.3741    81.398912 
   88400    696.46853   -113.72884   0.63017936   -113.09866   -3304.6765     4.335585     4.335585     4.335585   -3304.6765   -8788.3795      4145.56   -5271.2099    76.847607   -6994.9455    2869.6519    81.497281 
   88500    618.34498   -113.65862   0.55949153   -113.09913   -486.94024    4.3365646    4.3365646    4.3365646   -486.94024   -12504.625    13096.246   -2052.4421   -29.445548    -4014.738    1066.4809    81.552535 
   88600    631.93881   -113.67003   0.57179152   -113.09824    5075.4833    4.3351883    4.3351883    4.3351883    5075.4833   -2290.8718    7701.4975    9815.8241    210.01668    4461.4477   -2519.9296    81.474911 
   88700    605.23167   -113.64551   0.54762633   -113.09789    10560.729    4.3322846    4.3322846    4.3322846    10560.729      10906.8    3764.4931    17010.893   -281.09233   -3286.9224    1289.2848    81.311307 
   88800    637.79827   -113.67495   0.57709327   -113.09785   -5438.4358    4.3381154    4.3381154    4.3381154   -5438.4358   -13554.283     3388.713    -6149.738   -653.76029    -4942.095    1735.3986    81.640058 
   88900    544.91505   -113.59133   0.49305059   -113.09828   -2514.4174    4.3352338    4.3352338    4.3352338   -2514.4174   -17763.373    13791.866   -3571.7451     3714.185     3215.322   -566.21929    81.477478 
   89000    508.88282   -113.55962   0.46044787   -113.09917    5459.1504     4.333601     4.333601     4.333601    5459.1504    2940.9054    3629.3483    9807.1974   -647.78718    4150.2487    971.79574    81.385449 
   89100    622.44174   -113.66027   0.56319836   -113.09707   -2019.4766    4.3364764    4.3364764    4.3364764   -2019.4766   -3075.5584   -5997.1852    3014.3139   -4352.7336   -5070.1525    2526.6892     81.54756 
   89200    551.58603   -113.59661   0.49908663   -113.09752   -7820.1762    4.3345831    4.3345831    4.3345831   -7820.1762   -19432.532    320.50804   -4348.5051     3182.466    1232.0692   -718.80448    81.440792 
   89300    385.67213   -113.44929   0.34896425   -113.10033   -10656.304    4.3380093    4.3380093    4.3380093   -10656.304   -26348.522   -3141.6105   -2478.7808    390.92517    9758.6026    3285.2173    81.634066 
   89400     462.3902   -113.51666   0.41838037   -113.09828    4473.0119    4.3336368    4.3336368    4.3336368    4473.0119     2645.135    2831.8993    7942.0013   -2140.9942    -2648.247    4019.9776    81.387465 
   89500    576.54111   -113.61744   0.52166652   -113.09577   -1895.1037    4.3346797    4.3346797    4.3346797   -1895.1037    590.18893    -9475.292    3199.7921    474.41781   -1361.5047   -1852.9825     81.44624 
   89600    279.98508   -113.35296   0.25333639   -113.09963    -15298.87    4.3387257    4.3387257    4.3387257    -15298.87   -23345.227   -22134.555   -416.82798   -1354.4629    8184.7939   -1151.2443    81.674518 
   89700    260.55036    -113.3364   0.23575144   -113.10065   -1903.2824    4.3335237    4.3335237    4.3335237   -1903.2824   -13989.209    -1710.015    9989.3767    587.28502     2510.311   -401.29051    81.381093 
   89800    497.63993   -113.54706   0.45027506   -113.09679    8871.2815    4.3353194    4.3353194    4.3353194    8871.2815    12937.388    4462.4017    9214.0552   -1195.2099   -2433.2431    2214.5678    81.482302 
   89900    397.02348   -113.45785   0.35923519   -113.09861    -1959.375    4.3342845    4.3342845    4.3342845    -1959.375     2631.071   -17390.599    8881.4027    81.168387    2041.6462    656.59559    81.423965 
   90000    112.01025   -113.20413   0.10134923   -113.10278   -13112.615    4.3378754    4.3378754    4.3378754   -13112.615    -18264.53   -28998.372    7925.0572   -2126.5869    5150.9424    154.11604    81.626507 
   90100    422.21246   -113.48125    0.3820267   -113.09922    495.42249    4.3351962    4.3351962    4.3351962    495.42249     -4361.34   -3707.3322    9554.9397   -2522.4952   -3417.6006    4341.1977    81.475359 
   90200    543.48682   -113.58776   0.49175829     -113.096    12355.241    4.3313463    4.3313463    4.3313463    12355.241    13396.677    12030.908    11638.137    3575.4081   -379.93133   -3053.1058    81.258483 
   90300    237.98595   -113.31682   0.21533469   -113.10149   -13279.899    4.3399634    4.3399634    4.3399634   -13279.899   -11889.112   -30714.794    2764.2104   -1634.8733     8694.436   -437.85137    81.744436 
   90400    326.66554   -113.39694   0.29557385   -113.10136   -9006.1746    4.3335972    4.3335972    4.3335972   -9006.1746    -10274.64   -26932.572    10188.688   -187.41691    462.37853    1699.2429    81.385235 
   90500    662.70557   -113.69689   0.59962992   -113.09726    4313.6721    4.3342658    4.3342658    4.3342658    4313.6721   -2275.5344    10860.843    4355.7079    420.04638    -3634.577   -3014.6845    81.422912 
   90600    495.35093   -113.54753   0.44820393   -113.09932   -684.68016    4.3374685    4.3374685    4.3374685   -684.68016   -4414.4725    4573.2994   -2212.8674   -917.59529    2829.5795    2287.5808    81.603542 
   90700    367.69608   -113.43362   0.33269914   -113.10092   -6085.7281    4.3327075    4.3327075    4.3327075   -6085.7281   -3691.1358   -19491.672    4925.6235    3132.4457    6039.7003    1746.8043    81.335119 
   90800    672.32086   -113.70719   0.60833004   -113.09886   -8814.1509    4.3381942    4.3381942    4.3381942   -8814.1509   -10166.961   -12058.772   -4216.7201   -2409.9169   -1815.2151    2092.8737    81.644508 
   90900    679.97517   -113.71264   0.61525582   -113.09739    5691.9002    4.3342634    4.3342634    4.3342634    5691.9002    2306.3743    18458.069   -3688.7423    299.73508   -2293.9121   -72.987401    81.422774 
   91000    543.14328   -113.59132   0.49144745   -113.09987    1868.7257     4.332716     4.332716     4.332716    1868.7257    1838.0017     6957.146   -3188.9705   -1888.6786    7905.7373   -4082.1967    81.335599 
   91100     609.7962   -113.65161   0.55175642   -113.09986    -6635.451    4.3393508    4.3393508    4.3393508    -6635.451   -8281.4679    -1009.726   -10615.159   -1550.9433   -2198.2355    1711.3776    81.709824 
   91200    772.47492   -113.79561   0.69895154   -113.09666    506.48954    4.3350781    4.3350781    4.3350781    506.48954    4498.6032    7006.8516   -9985.9861    1720.2093   -9216.1736   -1304.7561    81.468697 
   91300    674.54874   -113.70821   0.61034588   -113.09787    5833.2891    4.3329685    4.3329685    4.3329685    5833.2891    6992.6006    15084.308   -4577.0417   -5047.5071    4983.4367   -1026.2611    81.349819 
   91400    669.27911   -113.70448   0.60557781    -113.0989   -1720.5667    4.3359782    4.3359782    4.3359782   -1720.5667   -7645.4896    12152.312   -9668.5227   -222.59251    4736.6584    2482.4926    81.519455 
   91500    689.68077   -113.72276   0.62403766   -113.09872   -3393.7647    4.3385682    4.3385682    4.3385682   -3393.7647   -2817.9883    11376.734    -18740.04    2108.6503    -10022.64   -2387.1054    81.665626 
   91600    785.88887   -113.80809   0.71108877     -113.097     2257.146    4.3336052    4.3336052    4.3336052     2257.146     3210.524    9509.8562   -5948.9423    843.99867   -6900.3201   -212.28815    81.385685 
   91700    715.19109   -113.74504   0.64711993   -113.09792    7777.4686    4.3331952    4.3331952    4.3331952    7777.4686   -863.74765    15665.502    8530.6515    473.43989     4085.228   -621.42572    81.362591 
   91800    665.37915   -113.70125   0.60204904    -113.0992   -6208.2579    4.3404585    4.3404585    4.3404585   -6208.2579   -17401.641    9869.7424   -11092.875   -2628.3789   -6380.3054   -596.18323    81.772414 
   91900    699.51075   -113.73101   0.63293202   -113.09808    2590.6999    4.3329093    4.3329093    4.3329093    2590.6999   -6165.7714     19923.22   -5985.3484    1229.5886   -11042.784    447.86288    81.346488 
   92000    789.69793   -113.81243   0.71453528   -113.09789    6795.3143    4.3346987    4.3346987    4.3346987    6795.3143   -5419.4358     8047.317    17758.062   -1201.2473    4185.6222   -2570.7349    81.447312 
   92100    663.13144   -113.69882   0.60001526   -113.09881   -1424.1189      4.33954      4.33954      4.33954   -1424.1189   -16572.198    5374.1959    6925.6453   -141.00316   -3963.8376    3177.3906    81.720516 
   92200     629.1567   -113.66807   0.56927421   -113.09879   -143.27739    4.3314624    4.3314624    4.3314624   -143.27739   -13524.551    16177.174   -3082.4555    1682.3782   -14199.151    579.23378    81.265022 
   92300    803.66524   -113.82557    0.7271732    -113.0984   -4318.2111    4.3384083    4.3384083    4.3384083   -4318.2111   -13813.165    5886.9599   -5028.4284   -2761.0431    1939.4874   -4194.3215    81.656596 
   92400    748.21091   -113.77468   0.67699696   -113.09768     2460.548     4.336724     4.336724     4.336724     2460.548   -12516.039    4173.3601    15724.323   -1974.6354    1346.1466    -1446.846    81.561525 
   92500    604.13543   -113.64606   0.54663444   -113.09943    1.8244991    4.3318568    4.3318568    4.3318568    1.8244991   -16210.039    9874.7573    6340.7552   -446.69248   -14080.717   -172.75954     81.28722 
   92600    679.79103   -113.71429   0.61508921    -113.0992   -7168.8384    4.3397971    4.3397971    4.3397971   -7168.8384   -20245.529   -4334.4002    3073.4139    552.41763   -6115.6926    609.99227    81.735038 
   92700    813.52662   -113.83265   0.73609598   -113.09655    558.41001    4.3347894    4.3347894    4.3347894    558.41001   -9555.9374   -3967.2647    15198.432   -122.37518    1633.2938    1038.6244     81.45242 
   92800    607.59408   -113.64874    0.5497639   -113.09897    4751.9019    4.3336955    4.3336955    4.3336955    4751.9019   -17924.265    5280.0619    26899.909   -938.68227   -11149.584   -1133.0878    81.390776 
   92900    673.63912   -113.70865   0.60952283   -113.09913   -6448.6627    4.3383321    4.3383321    4.3383321   -6448.6627   -20416.592   -5134.7123    6205.3161    526.27218    -9853.409   -3507.8534    81.652293 
   93000     743.4659   -113.77011   0.67270357   -113.09741    2664.1394    4.3346891    4.3346891    4.3346891    2664.1394   -3472.9266   -9471.5121    20936.857   -1378.1821    4031.6559   -2185.5849    81.446768 
   93100    770.88983   -113.79544   0.69751732   -113.09792   -2066.8068    4.3340924    4.3340924    4.3340924   -2066.8068   -14706.451   -5973.7206    14479.751   -675.18876    -7564.072    1012.5546     81.41314 
   93200    598.68929   -113.64205   0.54170665   -113.10035       2115.2    4.3355173    4.3355173    4.3355173       2115.2   -19823.157    7263.9807    18904.777    626.10558   -13167.677     3946.458    81.493462 
   93300    695.87641   -113.72851    0.6296436   -113.09886    176.16103    4.3369531    4.3369531    4.3369531    176.16103   -5498.1035   -9187.4348    15214.021   -11.355706    6192.7289   -1861.6251    81.574455 
   93400    675.50331     -113.709   0.61120959   -113.09779    4871.1807    4.3344965    4.3344965    4.3344965    4871.1807   -4166.5996   -12200.505    30980.647    290.60629    3491.8495    -3142.785    81.435911 
   93500    652.21993   -113.68881    0.5901423   -113.09867   -1192.4933    4.3330329    4.3330329    4.3330329   -1192.4933   -16640.435    2192.2474    10870.708   -728.62915   -11271.605    2153.1732    81.353448 
   93600    550.83922   -113.59792    0.4984109   -113.09951   -3064.4786    4.3378828    4.3378828    4.3378828   -3064.4786   -14957.786    5984.3284   -219.97847     369.2996    728.07055    -4158.556    81.626924 
   93700    630.12472   -113.66813   0.57015009   -113.09798   -735.29638    4.3351663    4.3351663    4.3351663   -735.29638   -77.557333   -10666.497    8538.1653    182.12888    5540.8808    -1546.736    81.473669 
   93800    600.26509   -113.64085   0.54313247   -113.09772    3904.0307    4.3323818    4.3323818    4.3323818    3904.0307   -621.23986   -2233.5369    14566.869   -261.29544   -8838.7989    1674.0364    81.316781 
   93900    573.57041   -113.61715   0.51897856   -113.09817   -10390.637    4.3378233    4.3378233    4.3378233   -10390.637   -15657.549   -2812.9822   -12701.381    2703.7385     -2086.78   -2597.5049    81.623567 
   94000     450.0469   -113.50632   0.40721189   -113.09911   -6802.1871    4.3364254    4.3364254    4.3364254   -6802.1871   -5931.4664   -543.06343   -13932.032    1201.1851    10371.228    253.65766    81.544681 
   94100    491.23169   -113.54286   0.44447676   -113.09839    6802.6751    4.3322822    4.3322822    4.3322822    6802.6751    7074.1805   -368.98986    13702.835    565.04049   -1679.0494   -39.273612     81.31117 
   94200    573.67264   -113.61655   0.51907106   -113.09747    145.88185    4.3345438    4.3345438    4.3345438    145.88185   -1575.4131   -1615.7064    3628.7651    279.88475   -8123.4523    2222.3753     81.43858 
   94300    400.52121   -113.46244       0.3624   -113.10004   -13645.506    4.3386665    4.3386665    4.3386665   -13645.506   -9102.8431   -8105.1658    -23728.51   -890.31277    8581.6565   -2757.0543    81.671173 
   94400    388.11974   -113.45111    0.3511789   -113.09993   -3830.7569    4.3331531    4.3331531    4.3331531   -3830.7569    6463.4115    1903.2481    -19858.93    1435.8083    7297.5296   -5026.7838    81.360218 
   94500    548.99759   -113.59417   0.49674455   -113.09742    8060.3496    4.3337529    4.3337529    4.3337529    8060.3496    8261.0114    4170.9728    11749.065   -572.49037   -4958.6098    6185.2072    81.394008 
   94600    487.88018   -113.53945   0.44144424     -113.098   -9029.6049     4.339554     4.339554     4.339554   -9029.6049   -8366.9904    -6983.552   -11738.272     672.0271    7907.3817   -2347.8704    81.721305 
   94700    294.55158   -113.36654   0.26651646   -113.10002    -5926.345    4.3304771    4.3304771    4.3304771    -5926.345    7098.2866   -3603.9057   -21273.416   -250.53552      10010.6   -2951.8973    81.209577 
   94800    489.52541   -113.54417   0.44293287   -113.10124   -524.90947    4.3365463    4.3365463    4.3365463   -524.90947    10289.186   -4742.9508   -7120.9637   -2614.9625   -3367.7177    6350.4539    81.551499 
   94900    571.45753   -113.61435   0.51706678   -113.09728    3764.8038    4.3376312    4.3376312    4.3376312    3764.8038   -2482.9116    2128.0798    11649.243     1567.787    3822.0889   -2382.8726    81.612722 
   95000    441.09913   -113.49776   0.39911576   -113.09864    -4278.817    4.3297996    4.3297996    4.3297996    -4278.817    1281.2628   -794.11552   -13323.598    284.23383    10069.639   -1606.1388    81.171467 
   95100    444.97286   -113.50338    0.4026208   -113.10076   -15542.512    4.3407814    4.3407814    4.3407814   -15542.512    2347.4983   -22280.848   -26694.186    1995.8591    768.92689    2936.4392    81.790667 
   95200    658.19042   -113.69275   0.59554453    -113.0972    4780.1945    4.3344235    4.3344235    4.3344235    4780.1945    8636.4996    -2254.379    7958.4629    370.63919   -757.07247    3020.5523    81.431798 
   95300    630.70412   -113.66855   0.57067434   -113.09788    7481.5578    4.3291572    4.3291572    4.3291572    7481.5578   -1414.3852    11499.561    12359.498    -2139.072    8491.7975   -670.56859    81.135341 
   95400    443.19615   -113.50213   0.40101319   -113.10112   -10303.139    4.3407835    4.3407835    4.3407835   -10303.139   -5145.2585   -18295.553   -7468.6048    1395.1222    7290.6627    -3036.119    81.790786 
   95500    621.62015   -113.66058   0.56245497   -113.09812   -5564.5828    4.3375756    4.3375756    4.3375756   -5564.5828    881.93381   -20549.256    2973.5733   -942.00916   -4957.0068    7263.6222    81.609584 
   95600    706.66754   -113.73549   0.63940764   -113.09609    14632.497    4.3279336    4.3279336    4.3279336    14632.497    6471.5703    12717.703    24708.216    1803.6738    5096.9568    1856.2143    81.066563 
   95700    619.33486   -113.65959    0.5603872    -113.0992   -166.98361    4.3372475    4.3372475    4.3372475   -166.98361   -10009.097    -183.5274     9691.674    368.04376     9627.824   -4153.7804     81.59107 
   95800    520.93839   -113.57201   0.47135601   -113.10065   -10871.638    4.3401638    4.3401638    4.3401638   -10871.638   -7615.1034   -25423.023    423.21251   -1676.8122   -3314.3211    3325.0976    81.755762 
   95900    754.43491   -113.77978   0.68262856   -113.09715    2852.7885    4.3278333    4.3278333    4.3278333    2852.7885   -2762.2082   -1993.4163     13313.99    1290.5949    3514.3591    363.54934    81.060929 
   96000    682.86619   -113.71576   0.61787168   -113.09789    7041.5859     4.337312     4.337312     4.337312    7041.5859   -3986.2259    4750.3203    20360.663   -932.23363    6790.1671   -253.68969    81.594708 
   96100     578.4021   -113.62342   0.52335038   -113.10007   -6828.6756    4.3388219    4.3388219    4.3388219   -6828.6756   -7697.6506   -15674.674    2886.2979     2864.132   -2471.0559    2798.7964    81.679952 
   96200    526.46496   -113.57578   0.47635656   -113.09943    3289.7118    4.3278928    4.3278928    4.3278928    3289.7118   -4226.3221   -6455.0105    20550.468    1591.9021     -4722.42    2619.3786    81.064269 
   96300    781.16138   -113.80417   0.70681123   -113.09736   -8085.6456    4.3394716    4.3394716    4.3394716   -8085.6456   -24202.304   -9773.8871    9719.2542   -938.23388   -2973.8246   -395.08093    81.716652 
   96400    597.86792   -113.64008   0.54096345   -113.09912     1089.124    4.3359476    4.3359476    4.3359476     1089.124     687.0966   -9588.0883    12168.364    1341.2624    5288.9955   -3371.7642    81.517732 
   96500    469.67546   -113.52477   0.42497223   -113.09979    2432.4273    4.3290655    4.3290655    4.3290655    2432.4273    4064.4997   -3457.5412    6690.3234   -1201.7059   -3051.0648    2700.4835    81.130187 
   96600    622.63579   -113.66204   0.56337395   -113.09867   -7404.8153    4.3399049    4.3399049    4.3399049   -7404.8153   -24450.121    -9251.854    11487.529    848.82574   -8314.4681    3665.4241    81.741133 
   96700    736.79188   -113.76305   0.66666478   -113.09639   -5773.5216    4.3345674    4.3345674    4.3345674   -5773.5216   -16232.961   -6671.1452     5583.541     419.7789    3962.3964   -2466.4111    81.439911 
   96800    435.03532   -113.49393    0.3936291    -113.1003    1401.4666    4.3299224    4.3299224    4.3299224    1401.4666    11037.221   -5612.5124   -1220.3084   -753.03042   -3099.2025    -3817.061     81.17837 
   96900    442.55214   -113.50187   0.40043048   -113.10144   -2890.4387      4.33937      4.33937      4.33937   -2890.4387   -9101.0179   -4053.7156    4483.4176    560.55329   -6220.1873    1999.6658    81.710911 
   97000     679.4401   -113.71157   0.61477168    -113.0968    1458.3707     4.334634     4.334634     4.334634    1458.3707   -15886.677    471.77801    19790.011   -1302.5128    2047.3366    -140.6325    81.443665 
   97100    539.59593   -113.58621   0.48823774   -113.09797   -1739.1259    4.3310097    4.3310097    4.3310097   -1739.1259   -3504.7473   -1747.6114    34.980873    638.66172   -859.90344   -1606.8234    81.239544 
   97200    351.64743   -113.42012   0.31817798   -113.10195   -10068.836    4.3393654    4.3393654    4.3393654   -10068.836   -683.75667   -10663.449   -18859.303   -117.64316    -4732.662     3031.976    81.710648 
   97300    506.10358   -113.55751   0.45793316   -113.09958    8365.0543    4.3322875    4.3322875    4.3322875    8365.0543    4580.1223      8917.16     11597.88    609.50062   -6557.6384    1060.8212     81.31147 
   97400    677.40595   -113.70951   0.61293114   -113.09658    524.10479    4.3328779    4.3328779    4.3328779    524.10479   -6507.7391    2012.1904    6067.8631    1954.8914    1486.1929    -307.8501    81.344718 
   97500    375.75809   -113.44038   0.33999382   -113.10038   -11226.815      4.33937      4.33937      4.33937   -11226.815   -4790.7752   -4581.5009   -24308.169   -1954.0897    -2340.534   -251.62171    81.710909 
   97600    443.11459   -113.50051   0.40093939   -113.09957   -2511.3633    4.3323242    4.3323242    4.3323242   -2511.3633    6418.6744    1627.7397   -15580.504    1459.2869   -11649.406      2108.38    81.313537 
   97700    586.35101   -113.62804   0.53054271    -113.0975    9289.9948    4.3334289    4.3334289    4.3334289    9289.9948     5183.228    9097.3821    13589.374    1558.0904    3749.9835    165.12063    81.375753 
   97800     589.0504   -113.63101   0.53298518   -113.09802   -2464.6407    4.3364112    4.3364112    4.3364112   -2464.6407    552.25267   -4875.6417   -3070.5331   -776.94231    4483.0557   -6516.7627    81.543878 
   97900    373.56931   -113.43885   0.33801337   -113.10084   -4847.5291    4.3360698    4.3360698    4.3360698   -4847.5291    5130.2632   -377.50475   -19295.346    766.97936   -7523.9083     3369.861    81.524621 
   98000    602.40955   -113.64396   0.54507282   -113.09889   -160.40614    4.3329655    4.3329655    4.3329655   -160.40614    3213.0212     3079.586   -6773.8256   -293.53215    2014.8168    2188.5468    81.349651 
   98100    614.20051   -113.65322   0.55574153   -113.09748    10119.609    4.3343713    4.3343713    4.3343713    10119.609    12297.756    4053.0797     14007.99    2956.9124    3940.2478   -3186.1437    81.428857 
   98200    645.48108   -113.68293   0.58404485   -113.09889   -9045.6747    4.3385943    4.3385943    4.3385943   -9045.6747    5679.0939    -12824.22   -19991.898    373.62716   -4689.4335    6050.2317    81.667096 
   98300     558.2084   -113.60491   0.50507869   -113.09983    1679.6732     4.330909     4.330909     4.330909    1679.6732    9088.4324    7536.2031   -11585.616    1366.9054   -2981.8024    2062.9981    81.233875 
   98400    742.62472   -113.77071   0.67194245   -113.09877   -4.9479374    4.3364599    4.3364599    4.3364599   -4.9479374    561.93634   -1027.9971    451.21698     4916.974    5903.4346    543.01164    81.546625 
   98500    739.85525   -113.76827   0.66943658   -113.09884    3390.8676    4.3368463    4.3368463    4.3368463    3390.8676    11384.428   -8681.8282    7470.0032   -1940.5079    1358.5667    2931.5755    81.568431 
   98600    742.53131   -113.77004   0.67185793   -113.09818    3004.8657    4.3310068    4.3310068    4.3310068    3004.8657    11269.004   -5559.7568    3305.3494     1397.988   -9791.1905    3320.8305    81.239378 
   98700     692.2485    -113.7274   0.62636099   -113.10103   -2794.2006    4.3394162    4.3394162    4.3394162   -2794.2006   -7279.2323   -4056.8627    2953.4931    5444.2102    6889.4183    2825.8675     81.71352 
   98800    861.65524   -113.87805   0.77964377   -113.09841    5857.3275    4.3330929    4.3330929    4.3330929    5857.3275     1476.875    -3992.265    20087.372    2249.8276    9868.3021   -3213.4676    81.356824 
   98900    910.87538   -113.92116   0.82417919   -113.09698    3727.4759     4.333826     4.333826     4.333826    3727.4759    5338.5459   -9228.4335    15072.315   -17.257611   -10416.803    4299.3205    81.398125 
   99000    794.53198   -113.81848   0.71890923   -113.09957   -6902.3776    4.3399159    4.3399159    4.3399159   -6902.3776   -11983.839   -10387.401    1664.1072    445.69905    1826.6892    3625.2245     81.74175 
   99100    848.32595   -113.86641   0.76758315   -113.09883     2112.896    4.3316331    4.3316331    4.3316331     2112.896   -5255.7968   -1491.0114    13085.496    5649.2232     12076.56   -2032.3276    81.274628 
   99200    990.87419   -113.99422   0.89656379   -113.09766    1292.2386    4.3347336    4.3347336    4.3347336    1292.2386    -3300.097   -9511.2548    16688.067   -1098.0679   -722.00045     3242.313    81.449279 
   99300    894.88335   -113.90933   0.80970926   -113.09962   -3361.5764    4.3366907    4.3366907    4.3366907   -3361.5764   -9789.7449   -9787.4812     9492.497   -503.04578   -1205.3333   -1320.6209    81.559649 
   99400    645.44843   -113.68621    0.5840153   -113.10219    2342.9599    4.3365625    4.3365625    4.3365625    2342.9599   -13213.939   -5927.1802    26169.998    8642.2645    7783.2721   -2204.2231    81.552415 
   99500    909.68275   -113.92072   0.82310007   -113.09762    1986.7971    4.3341331    4.3341331    4.3341331    1986.7971   -2591.3622   -9038.0688    17589.822    26.158873    4358.3996    791.52756    81.415431 
   99600    856.99792   -113.87282   0.77542972   -113.09739    3915.5055    4.3332921    4.3332921    4.3332921    3915.5055   -624.06373     -5778.23     18148.81     -2859.94   -7645.3604    4169.0652    81.368046 
   99700    623.71623   -113.66644   0.56435155   -113.10209   -11319.435    4.3403977    4.3403977    4.3403977   -11319.435    -23334.93   -11993.262     1369.888    6140.3299    9130.0934    2974.0548     81.76898 
   99800    634.75436   -113.67444   0.57433908    -113.1001    8188.9161    4.3316238    4.3316238    4.3316238    8188.9161   -2610.2155    950.63598    26226.328    4411.8794    12512.709    -2166.006    81.274102 
   99900    917.56984   -113.92651   0.83023647   -113.09627   -97.304392    4.3338785    4.3338785    4.3338785   -97.304392    2199.4233   -4687.4646    2196.1281   -1060.8523   -6505.9433    665.39953    81.401086 
  100000    562.82122   -113.61084   0.50925247   -113.10158   -12005.025    4.3396536    4.3396536    4.3396536   -12005.025   -18426.261   -6761.8747    -10826.94    3314.9133    6593.9924    1619.3331    81.726931 
Loop time of 22.0317 on 1 procs for 100000 steps with 8 atoms

Pair  time (%) = 6.84252 (31.0576)
Kspce time (%) = 5.49389 (24.9363)
Neigh time (%) = 0 (0)
Comm  time (%) = 1.06383 (4.82861)
Outpt time (%) = 0.0223067 (0.101248)
Other time (%) = 8.60917 (39.0763)

Nlocal:    8 ave 8 max 8 min
Histogram: 1 0 0 0 0 0 0 0 0 0
Nghost:    2189 ave 2189 max 2189 min
Histogram: 1 0 0 0 0 0 0 0 0 0
Neighs:    2056 ave 2056 max 2056 min
Histogram: 1 0 0 0 0 0 0 0 0 0

Total # of neighbors = 2056
Ave neighs/atom = 257
Neighbor list builds = 0
Dangerous builds = 0
unfix 20
unfix 21
print "seeds:2654669"
seeds:2654669
