LAMMPS (10 Feb 2015)
# ---- initialize simulations
clear
units metal
dimension 3
boundary p p p
atom_style charge
atom_modify map array
# ---- create atoms
read_data /Users/eugeneragasa/pyflamestk_git/pypospack/tests/tests_integration/workflow/WorkflowLammpsThermalExpansion/MgO_NaCl_unit.npt.T700/lammps.structure
  triclinic box = (0 0 0) to (4.2565 4.2565 4.2565) with tilt (0 0 0)
  1 by 1 by 1 MPI processor grid
  reading atoms ...
  8 atoms
# ---- define interatomic potential
include potential.mod
mass 1 24.305
mass 2 15.999

group Mg type 1
4 atoms in group Mg
group O type 2
4 atoms in group O

set group Mg charge 2.0
  4 settings made for charge
set group O charge -2.0
  4 settings made for charge

variable R_cut equal 10.0

pair_style buck/coul/long ${R_cut}
pair_style buck/coul/long 10
pair_coeff 1 1 0.0 0.5 0.0 ${R_cut}
pair_coeff 1 1 0.0 0.5 0.0 10
pair_coeff 1 2 821.6 0.3242 0.0 ${R_cut}
pair_coeff 1 2 821.6 0.3242 0.0 10
pair_coeff 2 2 2274.0 0.149 27.88 ${R_cut}
pair_coeff 2 2 2274.0 0.149 27.88 10

kspace_style pppm 1.0e-5

neighbor 1.0 bin
neigh_modify every 1 delay 0 check yes
# ---- define settings
compute eng all pe/atom
compute eatoms all reduce sum c_eng
# ---- run minimization
reset_timestep 0
fix 1 all box/relax iso 0.0 vmax 0.001
thermo 10
thermo_style custom step pe lx ly lz xy xz yz press pxx pyy pzz pxy pxz pyz c_eatoms
min_style cg
minimize 1e-25 1e-25 5000 10000
PPPM initialization ...
  G vector (1/distance) = 0.354854
  grid = 8 8 8
  stencil order = 5
  estimated absolute RMS force accuracy = 5.34408e-05
  estimated relative force accuracy = 3.71126e-06
  using double precision FFTs
  3d grid and FFT values/proc = 3375 512
Neighbor list info ...
  1 neighbor list requests
  update every 1 steps, delay 0 steps, check yes
  master list distance cutoff = 11
Memory usage per processor = 4.06549 Mbytes
Step PotEng Lx Ly Lz Xy Xz Yz Press Pxx Pyy Pzz Pxy Pxz Pyz eatoms 
       0   -162.12848       4.2565       4.2565       4.2565            0            0            0    -64012.53    -64012.53    -64012.53    -64012.53 -3.8759874e-11 -1.4292379e-10 -3.6687737e-10   -162.12848 
      10   -162.17871     4.213935     4.213935     4.213935            0            0            0   -4821.7526   -4821.7526   -4821.7526   -4821.7526 8.9106085e-11 8.5332225e-11 -4.2335946e-10   -162.17871 
      14   -162.17896    4.2106915    4.2106915    4.2106915            0            0            0    -1.347652    -1.347652    -1.347652    -1.347652 2.5597609e-11 1.0162971e-11 2.8091283e-10   -162.17896 
Loop time of 0.0293961 on 1 procs for 14 steps with 8 atoms

Minimization stats:
  Stopping criterion = linesearch alpha is zero
  Energy initial, next-to-last, final = 
        -162.128476026     -162.178964554     -162.178964554
  Force two-norm initial, final = 9.24344 0.000276677
  Force max component initial, final = 9.24344 0.000190436
  Final line search alpha, max atom move = 0.125 2.38044e-05
  Iterations, force evaluations = 14 33

Pair  time (%) = 0.00599241 (20.3851)
Kspce time (%) = 0.00502825 (17.1052)
Neigh time (%) = 0 (0)
Comm  time (%) = 0.00178695 (6.07887)
Outpt time (%) = 3.09944e-05 (0.105437)
Other time (%) = 0.0165575 (56.3254)

Nlocal:    8 ave 8 max 8 min
Histogram: 1 0 0 0 0 0 0 0 0 0
Nghost:    2189 ave 2189 max 2189 min
Histogram: 1 0 0 0 0 0 0 0 0 0
Neighs:    2344 ave 2344 max 2344 min
Histogram: 1 0 0 0 0 0 0 0 0 0

Total # of neighbors = 2344
Ave neighs/atom = 293
Neighbor list builds = 0
Dangerous builds = 0
unfix 1
# ---- define output variables ----
variable natoms equal "count(all)"
variable tot_energy equal "c_eatoms"
variable length_x equal "lx"
variable length_y equal "ly"
variable length_z equal "lz"
variable tilt_xy equal "xy"
variable tilt_xz equal "xz"
variable tilt_yz equal "yz"
variable tot_press equal "press"
variable press_xx equal "pxx"
variable press_yy equal "pyy"
variable press_zz equal "pzz"
variable press_xy equal "pxy"
variable press_xz equal "pxz"
variable press_yz equal "pyz"

# ---- output ----
print "pypospack:output_section:begin"
pypospack:output_section:begin
print "tot_energy = ${tot_energy}"
tot_energy = -162.17896455406
print "num_atoms = ${natoms}"
num_atoms = 8
print "xx = ${length_x}"
xx = 4.21069146013408
print "yy = ${length_y}"
yy = 4.21069146013408
print "zz = ${length_z}"
zz = 4.21069146013408
print "xy = ${tilt_xy}"
xy = 0
print "xz = ${tilt_xz}"
xz = 0
print "yz = ${tilt_yz}"
yz = 0
print "tot_press = ${tot_press}"
tot_press = -1.34765197939399
print "pxx = ${press_xx}"
pxx = -1.34765197919426
print "pyy = ${press_yy}"
pyy = -1.3476519793348
print "pzz = ${press_zz}"
pzz = -1.34765197965291
print "pxy = ${press_xy}"
pxy = 2.55976090046832e-11
print "pxz = ${press_xz}"
pxz = 1.01629705561986e-11
print "pyz = ${press_yz}"
pyz = 2.80912827691917e-10
print "pypospack:output_section:done"
pypospack:output_section:done
print "pypospack:lammps_sim:done"
pypospack:lammps_sim:done
#------------------------------------------------------------------------------
# RUN THERMOSTAT
# running using an NPT Nose-Hoover style thermostat
#------------------------------------------------------------------------------
variable tempdamp equal 0.1
variable pressdamp equal 1.0
# set initial velocities
velocity all create 700 9609658 mom yes dist gaussian loop all
# fix for Nose-Hoover style thermostat
fix 20 all npt temp 700 700 0.1 aniso 0.0 0.0 1.0 drag 1.0 couple xyz
variable boxx equal lx
variable boxy equal ly
variable boxz equal lz
variable boxp equal press
variable boxt equal temp
# calculate averages every 10000 steps
reset_timestep 0
fix 21 all ave/time 10 10 100 v_boxx v_boxy v_boxz v_boxp v_boxt file lattice.out
thermo_style custom step temp pe ke etotal press lx ly lz press pxx pyy pzz pxy pxz pyz vol
thermo_modify flush yes
thermo 100
run 100000
PPPM initialization ...
  G vector (1/distance) = 0.355384
  grid = 8 8 8
  stencil order = 5
  estimated absolute RMS force accuracy = 5.2136e-05
  estimated relative force accuracy = 3.62065e-06
  using double precision FFTs
  3d grid and FFT values/proc = 3375 512
Memory usage per processor = 3.06549 Mbytes
Step Temp PotEng KinEng TotEng Press Lx Ly Lz Press Pxx Pyy Pzz Pxy Pxz Pyz Volume 
       0          700   -162.17896   0.63337471   -161.54559    9061.4126    4.2106915    4.2106915    4.2106915    9061.4126    7648.3759    9779.6142    9756.2478    4334.5277    2108.8539     4999.945    74.655234 
     100    346.10408    -161.7683   0.31316225   -161.45514   -2003.1261    4.2343069    4.2343069    4.2343069   -2003.1261   -4098.8725   -689.53545   -1220.9703   -9280.6649    2168.4942    1767.9872     75.91839 
     200    602.86863   -161.83281    0.5454882   -161.28732   -9323.0975    4.2366685    4.2366685    4.2366685   -9323.0975   -9331.5723   -11304.309   -7333.4112   -5421.9986   -2646.2478   -2710.9039    76.045489 
     300    833.95354   -161.89054   0.75457869   -161.13596   -12248.977    4.2370467    4.2370467    4.2370467   -12248.977   -17124.299   -9640.6755   -9981.9555     3414.701   -6226.9775   -2950.6534    76.065854 
     400    553.13969   -161.51905   0.50049242   -161.01856   -2763.4789    4.2452953    4.2452953    4.2452953   -2763.4789   -20916.755   -5515.1443    18141.463   -13040.466    -528.8226   -3351.0111    76.510968 
     500     1012.316   -161.85522   0.91596475   -160.93926    1787.0139    4.2266625    4.2266625    4.2266625    1787.0139   -4939.0137    -8484.005     18784.06    -4219.144    6751.8083   -2448.3904    75.507957 
     600    718.46366   -161.55929   0.65008101   -160.90921   -1871.0098    4.2416702    4.2416702    4.2416702   -1871.0098   -1530.9728    6435.3668   -10517.424    4361.3034    7586.3076   -3096.3766    76.315137 
     700    734.87005   -161.55912   0.66492586   -160.89419   -12213.919     4.251835     4.251835     4.251835   -12213.919      6795.34   -29769.967    -13667.13   -5849.4755   -1888.0158   -235.72774    76.865099 
     800     902.0613   -161.70703   0.81620402   -160.89082    7480.1239    4.2400641    4.2400641    4.2400641    7480.1239    11937.003   -167.60929    10670.978   -616.01261    1727.4992   -6755.3251    76.228481 
     900    835.55706   -161.65719   0.75602959   -160.90116   -6267.0582    4.2408114    4.2408114    4.2408114   -6267.0582   -19246.454   -12046.795    12492.075   -7503.1516    7838.8522   -3243.1597    76.268791 
    1000    667.44312   -161.50924   0.60391656   -160.90532   -3917.7857    4.2317825    4.2317825    4.2317825   -3917.7857   -10776.433    -21965.88    20988.955   -6424.8101   -5812.6014   -1619.8591    75.782691 
    1100    696.92706   -161.54014   0.63059425   -160.90955   -1276.0544    4.2392191    4.2392191    4.2392191   -1276.0544   -21759.663     4377.462    13554.038    6558.3895     3455.911   -1187.3599    76.182917 
    1200    900.23344    -161.7232   0.81455014   -160.90865   -11830.716    4.2493718    4.2493718    4.2493718   -11830.716   -20062.193   -26590.154    11160.198   -5666.8966   -684.10505   -3772.4835     76.73159 
    1300    467.28551   -161.33158   0.42280975   -160.90877    24468.961    4.2416029    4.2416029    4.2416029    24468.961    29245.648    1905.0129    42256.221    5677.5129   -827.12594   -7254.5601    76.311507 
    1400    915.84203   -161.73743   0.82867312   -160.90876   -21021.636    4.2481229    4.2481229    4.2481229   -21021.636   -13534.617   -21327.455   -28202.835    5407.0824    6137.3555   -1445.7731    76.663956 
    1500    651.54767   -161.49701   0.58953403   -160.90747    2915.4186    4.2336377    4.2336377    4.2336377    2915.4186    -2175.866    9724.8873    1197.2344   -7290.0935    12152.171    2962.6563      75.8824 
    1600    673.11497   -161.51507   0.60904857   -160.90603     13729.82    4.2284462    4.2284462    4.2284462     13729.82    14654.729    11820.941    14713.789   -1347.7166    1347.8832   -23.963809    75.603592 
    1700     876.6174   -161.69867   0.79318185   -160.90548   -13514.262    4.2501874    4.2501874    4.2501874   -13514.262   -27321.716   -23910.746    10689.674    4946.0933   -10233.577   -2463.4309    76.775779 
    1800    472.84955   -161.32931   0.42784421   -160.90147    8017.7174    4.2480417    4.2480417    4.2480417    8017.7174    2749.4654    363.68673        20940   -3722.7992   -2051.1619    6045.5317    76.659557 
    1900    830.86422   -161.65544   0.75178341   -160.90365   -21157.971    4.2416082    4.2416082    4.2416082   -21157.971   -2736.0592    -35762.63   -24975.224    2677.4035   -238.17194    6003.7582     76.31179 
    2000    800.38103   -161.63155   0.72420158   -160.90734    4958.2038    4.2313998    4.2313998    4.2313998    4958.2038    9671.9892    6307.1498   -1104.5274    1916.9542    1174.9595    5341.6901    75.762134 
    2100    659.91687   -161.50608   0.59710666   -160.90897    11764.335    4.2337608    4.2337608    4.2337608    11764.335    30009.292   -24478.469    29762.183   -6061.3288    2355.8444    2619.7072    75.889021 
    2200    705.00455   -161.54655   0.63790293   -160.90865   -4329.1538     4.247881     4.247881     4.247881   -4329.1538    -1809.751   -11284.764    107.05334    3246.1104   -3588.9505    11486.546    76.650857 
    2300    730.73744   -161.56499   0.66118659   -160.90381   -3331.8447    4.2449388    4.2449388    4.2449388   -3331.8447   -5870.9435   -2121.2074   -2003.3834   -6656.1562   -7350.9326    10770.915    76.491698 
    2400    745.07019   -161.57669   0.67415516   -160.90253     -18201.2    4.2427359    4.2427359    4.2427359     -18201.2   -12288.666   -39699.755   -2615.1783    3428.0647   -2683.3199    2268.1542    76.372676 
    2500    504.62574   -161.36451   0.45659597   -160.90792    8063.1696    4.2359871    4.2359871    4.2359871    8063.1696   -6737.7163    13827.472    17099.753    7112.4116    3759.6535    9965.6436    76.008799 
    2600    766.88384   -161.60261   0.69389262   -160.90872    7669.1981    4.2350649    4.2350649    4.2350649    7669.1981   -3713.9312   -7093.5097    33815.035   -9862.5416    6699.6156    4593.8354    75.959169 
    2700    527.93786   -161.38981   0.47768927   -160.91212    14620.838     4.238785     4.238785     4.238785    14620.838     12976.07    1520.4934    29365.951    13745.651   -4550.3119   -2457.7579    76.159515 
    2800    605.81823    -161.4587   0.54815707   -160.91054   -6205.9413    4.2428501    4.2428501    4.2428501   -6205.9413    2363.9467   -14495.546   -6486.2242    7448.5016    2786.2149   -5325.6597    76.378843 
    2900    793.64832   -161.62377   0.71810968   -160.90566   -19372.984    4.2439362    4.2439362    4.2439362   -19372.984   -4644.2975   -28446.456   -25028.198   -4157.0389    5278.8938   -1638.7074    76.437513 
    3000    443.56334   -161.30836   0.40134543   -160.90701    11440.375    4.2384158    4.2384158    4.2384158    11440.375    -17020.85    21826.424    29515.552    15406.945     3033.229   -10162.151    76.139613 
    3100    802.16856    -161.6332   0.72581897   -160.90738    2329.3892    4.2401248    4.2401248    4.2401248    2329.3892   -19036.041   -12921.185    38945.394    -1827.869    863.88898    584.68505    76.231754 
    3200    569.72934   -161.42401   0.51550308   -160.90851    4181.1771    4.2453663    4.2453663    4.2453663    4181.1771    4266.1875    2552.0312    5725.3126    -334.2896    1247.0867    1955.3092     76.51481 
    3300    618.87569   -161.46337   0.55997173   -160.90339   -5260.9183    4.2423074    4.2423074    4.2423074   -5260.9183     9703.888   -12959.802   -12526.841    11256.789    -3444.494    6000.2207    76.349534 
    3400    680.01095   -161.51761    0.6152882   -160.90232   -1068.1835    4.2414259    4.2414259    4.2414259   -1068.1835    9502.9945   -8305.9006   -4401.6445   -5675.6162   -12056.419    9251.1313    76.301954 
    3500    652.43582   -161.49394   0.59033764    -160.9036   -3797.0098    4.2422243    4.2422243    4.2422243   -3797.0098   -4373.9074   -37597.278    30580.156    3772.1425   -6389.1462   -4221.2477    76.345049 
    3600    553.96132    -161.4075   0.50123584   -160.90626    15691.901    4.2382971    4.2382971    4.2382971    15691.901    13378.748   -17993.527     51690.48    11742.476    4338.3085    2153.5701    76.133217 
    3700    677.56938   -161.51896   0.61307901   -160.90588   -1425.0011    4.2395603    4.2395603    4.2395603   -1425.0011    19390.003   -14514.995   -9150.0114   -1286.8363   -5932.4766    6456.2731     76.20131 
    3800     562.8323   -161.41835   0.50926249   -160.90909   -6515.7972    4.2378719    4.2378719    4.2378719   -6515.7972    23280.895   -13439.902   -29388.384    6085.7087    4336.0719    5231.1413    76.110309 
    3900    615.78562   -161.46731   0.55717577   -160.91014   -3427.6924     4.240235     4.240235     4.240235   -3427.6924    6188.8538    -7152.783   -9319.1481    2036.7491    766.04803    18837.814    76.237701 
    4000    553.75687   -161.40955   0.50105085   -160.90849    1230.8279    4.2402111    4.2402111    4.2402111    1230.8279   -983.50835   -35701.245    40377.237    9274.6486   -4327.4515    9750.8662     76.23641 
    4100    611.59604   -161.46074   0.55338495   -160.90736    8224.0604    4.2341486    4.2341486    4.2341486    8224.0604     6253.331   -16892.025    35310.875    14980.301   -1445.8589    5841.7604    75.909878 
    4200    613.63454   -161.46292   0.55522942   -160.90769   -2232.4869    4.2371154    4.2371154    4.2371154   -2232.4869    9318.4527   -21996.479    5980.5652     -5039.59   -786.78826    5650.0668    76.069556 
    4300    530.93427   -161.38608   0.48040049   -160.90568   -5216.4774    4.2405813    4.2405813    4.2405813   -5216.4774    9208.2388   -3175.5204   -21682.151    5078.0215    5689.6398   -4235.9608    76.256378 
    4400    770.28242   -161.60383   0.69696772   -160.90686    -9638.659    4.2394114    4.2394114    4.2394114    -9638.659   -3741.6358    -11242.67   -13931.672    4408.3537   -8481.2873      6236.49    76.193283 
    4500    563.92384   -161.42097   0.51025015   -160.91072    -2057.636    4.2461874    4.2461874    4.2461874    -2057.636   -23193.133   -13658.646    30678.871    -3516.021   -5913.6498   -1048.4726    76.559216 
    4600    712.61809    -161.5528   0.64479183   -160.90801   -8966.2819     4.249447     4.249447     4.249447   -8966.2819   -8558.9805   -36368.269    18028.403   -3884.1206    2660.0025    1854.3764    76.735665 
    4700    464.67116    -161.3254   0.42044423   -160.90496    16319.603    4.2380162    4.2380162    4.2380162    16319.603    20382.869    3153.4617    25422.478   -4857.2261   -14435.027    2685.1519    76.118084 
    4800    645.06838   -161.49134   0.58367142   -160.90767    8510.6915    4.2409816    4.2409816    4.2409816    8510.6915    16998.326    9377.7721   -844.02367   -1154.5959   -8088.0082   -11884.562    76.277975 
    4900    550.29736   -161.40508   0.49792061   -160.90716    3410.9416    4.2541906    4.2541906    4.2541906    3410.9416   -3356.0497   -14589.386    28178.261     2791.029   -3756.0145    2617.6714    76.992925 
    5000    709.62259    -161.5438   0.64208143   -160.90172   -426.56129    4.2443556    4.2443556    4.2443556   -426.56129   -24201.796   -8791.7856    31713.898     7179.895   -16062.551    1898.2777    76.460173 
    5100    590.89509   -161.44171   0.53465429   -160.90705   -6881.1335    4.2382051    4.2382051    4.2382051   -6881.1335   -16208.992   -19439.407    15004.998    8593.6423    2133.9262    12455.596     76.12826 
    5200    586.80298   -161.43906   0.53095167   -160.90811   -2719.3668    4.2403216    4.2403216    4.2403216   -2719.3668   -15920.184   -9187.7908    16949.875   -5164.9313     3939.635    12855.014    76.242369 
    5300    807.67613   -161.63692   0.73080234   -160.90612    7053.6893    4.2375276    4.2375276    4.2375276    7053.6893    -1696.974   -22065.004    44923.046   -4600.4843    6468.4784    468.77809    76.091758 
    5400    519.52768   -161.38396   0.47007956   -160.91388    2005.6886     4.252487     4.252487     4.252487    2005.6886    13056.313   -15772.142    8732.8953    7843.0951    6441.0026    4939.6924    76.900467 
    5500    888.50499   -161.71569   0.80393799   -160.91175   -16663.078    4.2482556    4.2482556    4.2482556   -16663.078   -350.67163    -29250.76   -20387.803   -2964.9303   -2358.1297    -11400.45    76.671137 
    5600    560.34575   -161.41625   0.50701261   -160.90924    14698.986    4.2311882    4.2311882    4.2311882    14698.986   -11153.905    12557.589    42693.274   -2335.0563    9456.2367   -320.46569    75.750768 
    5700    798.88003   -161.63162   0.72284344   -160.90878   -7221.2874    4.2328657    4.2328657    4.2328657   -7221.2874   -24985.837   -20123.332    23445.307   -176.02974   -2006.9719    8024.5583      75.8409 
    5800    611.25259   -161.46383   0.55307419   -160.91075    1538.5224    4.2418432    4.2418432    4.2418432    1538.5224   -13134.764   -4417.9325    22168.264   -5215.9098    4889.9486    4064.9169    76.324475 
    5900    712.68517   -161.55061   0.64485252   -160.90575   -5842.3914      4.25007      4.25007      4.25007   -5842.3914    16225.206   -35238.578    1486.1972    1311.0818    3389.8488      958.218    76.769418 
    6000    694.92561   -161.53308    0.6287833   -160.90429   -7168.9084    4.2457112    4.2457112    4.2457112   -7168.9084    2517.7142   -15725.974    -8298.465   -3382.7867   -3139.5431   -8588.6064    76.533458 
    6100    675.16504    -161.5173   0.61090352    -160.9064    5600.9343     4.230131     4.230131     4.230131    5600.9343    7725.7347   -13138.486    22215.555   -248.24532    8060.6153     -5946.76    75.693998 
    6200    583.10195   -161.43639    0.5276029   -160.90879    16572.896    4.2290312    4.2290312    4.2290312    16572.896     7952.319   -6585.7687    48352.139    574.14269   -11310.159    -6296.416    75.634976 
    6300    797.06074   -161.63515    0.7211973   -160.91395    -9868.251    4.2446012    4.2446012    4.2446012    -9868.251   -5128.4201   -18853.316   -5623.0173   -4624.3881    1467.7142   -3678.2596    76.473449 
    6400    811.87126   -161.64936   0.73459818   -160.91476   -7113.9208    4.2495356    4.2495356    4.2495356   -7113.9208   -378.59323   -14050.257    -6912.912    2755.2552    2343.1512    7629.5513    76.740463 
    6500    758.37966   -161.60422   0.68619785   -160.91803    7921.6176    4.2412706    4.2412706    4.2412706    7921.6176    513.68204   -24358.492    47609.663    206.22924    3579.5182    132.96458    76.293569 
    6600    674.29427   -161.52797   0.61011563   -160.91785    3660.5909    4.2333593    4.2333593    4.2333593    3660.5909   -2367.3168   -3430.4555    16779.545    1101.2303    1136.2362   -9789.4964    75.867433 
    6700    627.64235   -161.48084   0.56790399   -160.91294   -13788.034    4.2332423    4.2332423    4.2332423   -13788.034   -10781.855    -19594.07   -10988.175   -2856.7331   -6146.0574    -19281.44    75.861142 
    6800    828.09842   -161.65873   0.74928085   -160.90945   -8771.9039     4.243085     4.243085     4.243085   -8771.9039   -13636.272   -35598.137    22918.697   -5757.8074    -4104.745    58.785431    76.391526 
    6900    380.19088   -161.25714   0.34400469   -160.91314    15470.855    4.2520702    4.2520702    4.2520702    15470.855    8208.5527   -34235.499     72439.51    2161.3409   -2785.9158   -3925.0021    76.877859 
    7000    592.02154   -161.45255   0.53567353   -160.91688    1201.0745      4.23951      4.23951      4.23951    1201.0745    19625.291   -30664.294    14642.227   -3470.0735    10833.596    8982.1471    76.198598 
    7100    753.20456   -161.59777   0.68151531   -160.91626    4351.0627    4.2296121    4.2296121    4.2296121    4351.0627    10483.888   -14605.471    17174.771   -2068.5598   -2687.2103    532.84601    75.666147 
    7200    553.82883   -161.41672   0.50111596   -160.91561   -5626.4611    4.2485193    4.2485193    4.2485193   -5626.4611   -26284.911   -31334.244    40739.772    4291.8373    9423.5398    1698.3723    76.685419 
    7300    600.57495   -161.45353   0.54341283   -160.91012   -3602.9987    4.2459029    4.2459029    4.2459029   -3602.9987   -21272.833     -21771.8    32235.637    16.554207    6667.9039    2878.3539    76.543829 
    7400    631.91098   -161.48365   0.57176634   -160.91189   -1253.3182    4.2376264    4.2376264    4.2376264   -1253.3182     5468.349   -20842.834     11614.53    -1960.936   -5330.9765    1641.0114    76.097083 
    7500    515.67793   -161.38083   0.46659623   -160.91423    7034.5191    4.2380203    4.2380203    4.2380203    7034.5191    16888.051   -23946.591    28162.097    3260.6982    11071.536    15071.439    76.118303 
    7600    655.89329    -161.5037   0.59346603   -160.91024    18689.764    4.2301381    4.2301381    4.2301381    18689.764    22293.222   -12635.623    46411.694   -396.06882   -10344.146    537.69515    75.694379 
    7700     651.1773   -161.50539   0.58919891   -160.91619   -7467.7775    4.2445307    4.2445307    4.2445307   -7467.7775   -4665.5034   -18264.263    526.43386    6237.1952    10704.739   -1343.6034    76.469639 
    7800    790.24185   -161.63056   0.71502743   -160.91553   -20872.959    4.2504693    4.2504693    4.2504693   -20872.959   -17162.778   -30398.787   -15057.313    3403.1695    8306.7749   -2494.2859    76.791056 
    7900    653.13278    -161.5008   0.59096826   -160.90983    13350.512    4.2379788    4.2379788    4.2379788    13350.512   -10034.636   -8218.3313    58304.503   -3076.1802    36.431639   -3817.3886    76.116068 
    8000    748.76025   -161.58707   0.67749401   -160.90957    1467.9032    4.2371204    4.2371204    4.2371204    1467.9032     -2177.57   -24474.934    31056.213    3540.9775    5850.3802    3417.4472    76.069826 
    8100    771.39656   -161.60834   0.69797582   -160.91036   -14552.018    4.2433704    4.2433704    4.2433704   -14552.018    -16096.29   -16782.704   -10777.059   -1982.1416   -5999.7764   -8380.8987    76.406946 
    8200    701.56402    -161.5437   0.63478987   -160.90891   -9849.6992    4.2436593    4.2436593    4.2436593   -9849.6992    1.7722401   -28511.622   -1039.2477    972.96604    113.94346    6046.3373    76.422552 
    8300    645.61875   -161.49244   0.58416941   -160.90827    284.33872    4.2407518    4.2407518    4.2407518    284.33872   -4170.9005   -17445.933    22469.849    5114.1443   -317.50053    6892.0193    76.265578 
    8400    919.58227   -161.73974   0.83205737   -160.90769   -8536.8626    4.2385528    4.2385528    4.2385528   -8536.8626   -9975.2474   -23186.409    7551.0686   -6458.1686    2808.5136   -2896.3265    76.146997 
    8500    649.39852   -161.50359   0.58758943     -160.916   -776.02589    4.2394462    4.2394462    4.2394462   -776.02589     -15160.1    9447.0237    3384.9981    1660.6961    3848.0859   -134.44488    76.195161 
    8600    690.78488   -161.54935   0.62503668   -160.92431    256.73655    4.2449858    4.2449858    4.2449858    256.73655   -22741.787   -12529.903      36041.9    1923.0674   -4581.3025    265.03511    76.494237 
    8700     625.0988   -161.48928   0.56560253   -160.92368    9463.5368    4.2422241    4.2422241    4.2422241    9463.5368   -9329.6674    8607.4489    29112.829    4280.3494   -1649.5367    10169.188    76.345038 
    8800    686.45057    -161.5395    0.6211149   -160.91839   -4349.9203    4.2354682    4.2354682    4.2354682   -4349.9203   -3174.1646    5747.0108   -15622.607    13792.141   -1627.6005   -11553.782    75.980872 
    8900    530.69516    -161.3973   0.48018413   -160.91712   -4375.7489    4.2427724    4.2427724    4.2427724   -4375.7489   -13250.903    11984.235   -11860.578    3949.5962    21244.275   -7361.6602    76.374645 
    9000    573.00868   -161.43087    0.5184703    -160.9124    13860.838    4.2417362    4.2417362    4.2417362    13860.838   -4570.1113    -2120.157    48272.782   -719.93676    8001.7061    -1707.471    76.318699 
    9100    801.95191   -161.63958   0.72562294   -160.91396   -4816.1681    4.2395818    4.2395818    4.2395818   -4816.1681   -25210.376   -5539.1335    16301.006   -1285.3729    6893.2466    6567.1195    76.202469 
    9200    665.74919   -161.51565   0.60238386   -160.91327   -15056.196    4.2406361    4.2406361    4.2406361   -15056.196   -25066.434   -11359.192   -8742.9604   -6066.2583   -1901.2642   -3777.9364    76.259333 
    9300    723.03476   -161.56609   0.65421705   -160.91187   -12285.289    4.2366167    4.2366167    4.2366167   -12285.289   -22355.011    -11174.12   -3326.7353    5912.9796   -15854.255   -5653.1497      76.0427 
    9400    372.87639   -161.25396    0.3373864   -160.91657     23641.49    4.2416066    4.2416066    4.2416066     23641.49   -9124.0224   -8432.8272     88481.32    3180.2299    2988.6112     6914.538    76.311707 
    9500    809.72108   -161.65199   0.73265265   -160.91933   -16823.312    4.2432526    4.2432526    4.2432526   -16823.312   -24422.508    -17507.58   -8539.8468    194.09259    2059.7974   -6257.7073     76.40058 
    9600    423.34611   -161.30062   0.38305246   -160.91757    18827.366    4.2266458    4.2266458    4.2266458    18827.366    7549.0042    29549.495      19383.6    5030.8901     11290.54    4880.1526     75.50706 
    9700     909.2346   -161.73712   0.82269458   -160.91443   -16247.619    4.2477565    4.2477565    4.2477565   -16247.619   -39333.011   -8698.3892   -711.45537   -1583.4029    746.39463    996.50359    76.644118 
    9800    496.12587   -161.35548   0.44890511   -160.90658    1559.8706    4.2499965    4.2499965    4.2499965    1559.8706   -31258.675   -22726.966    58665.253    3068.2405    5822.4833   -6941.2691    76.765435 
    9900    561.06915   -161.41559   0.50766716   -160.90793   -2811.4226    4.2338816    4.2338816    4.2338816   -2811.4226   -3025.7372    -2740.847   -2667.6836    6049.6401   -7430.4256   -1412.5192    75.895516 
   10000    750.95928   -161.59141   0.67948374   -160.91193   -8458.1932    4.2325715    4.2325715    4.2325715   -8458.1932   -11994.825   -2144.5673   -11235.188   -5840.8207   -1081.9276   -15777.546    75.825085 
   10100    649.04724   -161.49764   0.58727158   -160.91037    28410.452    4.2270436    4.2270436    4.2270436    28410.452    10777.208    44009.574    30444.575    8544.0306    3300.3697    4268.4693     75.52838 
   10200    631.89325   -161.48791   0.57175029   -160.91616    5236.2894     4.247437     4.247437     4.247437    5236.2894   -22209.604   -1530.8367    39449.309    5942.4311   -9380.0671    6801.1644    76.626825 
   10300    811.30481     -161.639   0.73408564   -160.90491   -26573.416    4.2582847    4.2582847    4.2582847   -26573.416   -47688.815   -31733.607   -297.82591   -1403.1277   -3085.6569   -2341.6049    77.215427 
   10400    576.30288   -161.42448   0.52145095   -160.90303   -531.63335    4.2315685    4.2315685    4.2315685   -531.63335   -25470.941    25414.878   -1538.8365    14742.371   -15261.252    1639.2786    75.771191 
   10500    867.83623   -161.68933   0.78523645   -160.90409    1793.0691    4.2239171    4.2239171    4.2239171    1793.0691   -15292.837     12691.13    7980.9141   -4798.9523   -19462.238    3574.2581    75.360913 
   10600    687.39903   -161.53267   0.62197309   -160.91069    10939.207    4.2355993    4.2355993    4.2355993    10939.207   -13794.976    30286.983    16325.614    2602.8643   -4614.4416   -4011.6267    75.987928 
   10700    561.02478   -161.41852   0.50762701    -160.9109    640.07309    4.2498273    4.2498273    4.2498273    640.07309   -4732.9345    1704.3918     4948.762    9105.1792   -7715.4097    1757.1627    76.756265 
   10800    1032.1458   -161.83634   0.93390719   -160.90243   -32243.626    4.2547566    4.2547566    4.2547566   -32243.626   -30885.503   -30549.559   -35295.816   -11212.822    -1877.372    7344.6732    77.023664 
   10900    705.88624   -161.54351   0.63870071   -160.90481   -1300.7253    4.2313201    4.2313201    4.2313201   -1300.7253   -27504.172    13120.888    10481.108    13267.046    5385.6031   -12417.927    75.757852 
   11000    870.56913   -161.68899   0.78770924   -160.90128    10375.006    4.2193398    4.2193398    4.2193398    10375.006    8040.0421    8985.7904    14099.186    9653.9657   -1251.9716   -2965.0043    75.116184 
   11100    809.98017   -161.63936   0.73288708   -160.90647    5854.7037     4.240256     4.240256     4.240256    5854.7037   -16590.437    27823.152    6331.3955   -4316.1264    98.916193   -3510.5383    76.238834 
   11200    614.71875   -161.46032   0.55621044   -160.90411    4956.9607    4.2520227    4.2520227    4.2520227    4956.9607   -15730.245    12931.318    17669.809    11838.247   -7622.7194    500.42792    76.875283 
   11300    906.54789   -161.72428   0.82026358   -160.90401    -18245.11    4.2499082    4.2499082    4.2499082    -18245.11   -15078.437   -25543.813   -14113.078   -3423.2286    2223.8831    6254.7549    76.760651 
   11400     667.8634   -161.51472   0.60429684   -160.91042    3284.7412    4.2317469    4.2317469    4.2317469    3284.7412   -727.83192      18888.2   -8306.1442    2411.8108    -3742.841    8513.4978     75.78078 
   11500    666.07283   -161.51297   0.60267669   -160.91029    13285.317    4.2278282    4.2278282    4.2278282    13285.317    26663.663    22512.881   -9320.5918   -1598.5616    1022.4443   -5305.2836    75.570447 
   11600    664.90067   -161.51318   0.60161609   -160.91157   -6250.7203    4.2480947    4.2480947    4.2480947   -6250.7203   -28933.347    16558.595   -6377.4094    -182.1019    5835.2112    -8618.488    76.662427 
   11700    894.54593   -161.71348   0.80940395   -160.90407   -15574.781    4.2504914    4.2504914    4.2504914   -15574.781   -42029.847   -3277.6671   -1416.8287    7576.0768   -712.88936    -6209.143    76.792255 
   11800    584.22845   -161.43244   0.52862218   -160.90382   -4431.7373    4.2424354    4.2424354    4.2424354   -4431.7373   -25731.433      8475.44    3960.7809   -2351.8692    8302.3681    -4306.217    76.356448 
   11900     780.5544    -161.6096   0.70626202   -160.90333    -11345.67     4.239851     4.239851     4.239851    -11345.67   -9962.9076   -7675.4204   -16398.681    -2506.335    939.17561   -2981.8652    76.216991 
   12000    506.75655   -161.36816   0.45852397   -160.90964    19171.535    4.2418107    4.2418107    4.2418107    19171.535    2068.3364    49671.707    5774.5621    5969.9842    4287.8175    8955.0981    76.322722 
   12100    698.56408   -161.54372   0.63207546   -160.91165   -2359.2582    4.2531148    4.2531148    4.2531148   -2359.2582    -18752.98    20058.839   -8383.6336   -5543.9989    4755.5819    10866.063     76.93453 
   12200    801.37649   -161.63432   0.72510228   -160.90922   -20163.712    4.2458119    4.2458119    4.2458119   -20163.712   -33466.135   -7439.5474   -19585.454    956.30106    2701.0396   -6658.5188    76.538903 
   12300    583.10444   -161.43392   0.52760515   -160.90632    452.42831    4.2330126    4.2330126    4.2330126    452.42831   -18129.507    17357.339    2129.4526   -3738.6912     7734.675    1206.6732    75.848794 
   12400    771.80606   -161.60447   0.69834634   -160.90613   -928.21754    4.2414574    4.2414574    4.2414574   -928.21754   -5216.8396    14843.911   -12411.724   -1763.3166    6356.0495    1922.5049    76.303652 
   12500    603.68045   -161.45366   0.54622276   -160.90744    11962.532    4.2453236    4.2453236    4.2453236    11962.532   -9209.1382    55458.614    -10361.88   -751.45977   -3722.5412   -9792.1997    76.512503 
   12600    632.80437   -161.48089   0.57257469   -160.90831    -3355.231    4.2497575    4.2497575    4.2497575    -3355.231   -140.10501    13400.207   -23325.795   -9082.0332   -2681.0946   -1815.0732    76.752486 
   12700    505.96731     -161.368   0.45780986   -160.91019   -43.693183    4.2434015    4.2434015    4.2434015   -43.693183   -20087.958    20807.009   -850.13047     5864.305    -305.2729   -2396.9657    76.408625 
   12800    908.38382   -161.72875   0.82192477   -160.90683   -3435.7514    4.2370642    4.2370642    4.2370642   -3435.7514   -27409.312    32560.233   -15458.175   -4536.4714    3904.1437   -2804.5407    76.066798 
   12900    488.63023    -161.3507    0.4421229   -160.90858    12221.461    4.2428606    4.2428606    4.2428606    12221.461   -22421.499    80496.033   -21410.151   -2072.3364    6851.0545     5993.191    76.379408 
   13000    549.69923   -161.41274   0.49737942   -160.91536    22.251143    4.2470754    4.2470754    4.2470754    22.251143   -6578.6739     42332.14   -35686.713    3353.3145    3088.3589   -9808.6447    76.607258 
   13100    820.96016   -161.66623     0.742822   -160.92341   -7680.1822    4.2450553    4.2450553    4.2450553   -7680.1822    -27095.78    14929.285   -10874.051   -5934.4298   -1550.5916    4144.6361    76.497995 
   13200    998.18645   -161.82182   0.90318008   -160.91864    8686.3991    4.2269476    4.2269476    4.2269476    8686.3991   -1510.3347    14661.813    12907.719    9026.7345   -2210.0523   -11951.462    75.523236 
   13300    675.93525   -161.52846   0.61160042   -160.91686    5671.4289    4.2336535    4.2336535    4.2336535    5671.4289   -14493.125    23377.481    8129.9304   -1694.4951    -3990.444   -5648.7932    75.883251 
   13400    774.13357   -161.60687   0.70045232   -160.90642   -25078.474    4.2526233    4.2526233    4.2526233   -25078.474   -35000.299   -2517.1757   -37717.947   -461.86439    2236.4409    6565.6377    76.907861 
   13500    825.64418   -161.64864    0.7470602   -160.90158   -7358.6878    4.2486885    4.2486885    4.2486885   -7358.6878   -6309.1315    22693.256   -38460.188    4400.0571    986.22633    6803.6428    76.694578 
   13600    674.87269   -161.51591     0.610639   -160.90527    4155.3808    4.2394759    4.2394759    4.2394759    4155.3808   -13463.408    45099.773   -19170.222   -8207.9335   -3758.0857    15852.408    76.196764 
   13700    684.54665   -161.52436   0.61939219   -160.90497    2019.1062    4.2261622    4.2261622    4.2261622    2019.1062    1791.5677    14083.787   -9818.0365    1923.7982     1501.902    17618.866    75.481146 
   13800    628.49224   -161.47699   0.56867299   -160.90832    2351.4963    4.2337911    4.2337911    4.2337911    2351.4963   -26429.277    20128.913    13354.853   -932.33135   -2328.2356   -2175.5415     75.89065 
   13900    502.95744   -161.36671   0.45508646   -160.91162    7645.2905    4.2536659    4.2536659    4.2536659    7645.2905   -28284.295    77986.498   -26766.331   -2564.3842    1186.4831    10290.986    76.964443 
   14000    810.37157   -161.64805   0.73324123   -160.91481   -4583.2771    4.2461163    4.2461163    4.2461163   -4583.2771   -8111.6029    14376.763   -20014.992   -488.39345    3001.0632    2821.8613     76.55537 
   14100    720.20392   -161.56894   0.65165564   -160.91728   -8627.0173    4.2388419    4.2388419    4.2388419   -8627.0173     4087.139    9683.0118   -39651.203   -5838.5337   -2222.6142    3492.8015    76.162583 
   14200    893.92601   -161.72606   0.80884304   -160.91721   -10568.942    4.2428405    4.2428405    4.2428405   -10568.942   -27029.465    13296.031   -17973.393   -7276.2404    1082.0978    8732.9435    76.378323 
   14300    435.20803   -161.31352   0.39378537   -160.91973    13197.978     4.245544     4.245544     4.245544    13197.978   -25188.566    78713.353   -13930.852   -6672.5905    7782.0474    -7140.545    76.524419 
   14400    770.92874   -161.61478   0.69755253   -160.91723   -25990.561    4.2462035    4.2462035    4.2462035   -25990.561   -33260.703   -22147.899   -22563.081   -9055.8294    3128.2297    1310.6285    76.560088 
   14500    497.82521   -161.36222   0.45044271   -160.91178   -1117.2475    4.2314636    4.2314636    4.2314636   -1117.2475    7714.8065   -671.07563   -10395.473    -5931.601    2852.7461   -11149.017    75.765558 
   14600    620.04312   -161.47088   0.56102805   -160.90985    12782.089    4.2364285    4.2364285    4.2364285    12782.089   -7298.6496    41443.647     4201.269   -6843.2288    2760.3627   -6619.8562    76.032565 
   14700     1041.478   -161.85147   0.94235114   -160.90912   -25983.717    4.2514535    4.2514535    4.2514535   -25983.717   -41889.641   -736.06095   -35325.448   -11290.011   -3766.1787    7477.2059    76.844416 
   14800    488.00916   -161.35098   0.44156094   -160.90942    10932.039    4.2398875    4.2398875    4.2398875    10932.039   -7223.7382     36873.45    3146.4054    287.69393    4951.1763   -1130.1455    76.218957 
   14900    590.13567   -161.44357   0.53396716   -160.90961    2641.3207    4.2398124    4.2398124    4.2398124    2641.3207   -11942.234    21694.041   -1827.8449    5096.2271    6688.1657   -7940.6763    76.214908 
   15000    940.40371   -161.75865   0.85089704   -160.90775    5182.1482    4.2365886    4.2365886    4.2365886    5182.1482   -11351.201    18042.061    8855.5849   -1379.1679    431.84857   -18145.246    76.041185 
   15100    555.20345   -161.41499   0.50235975   -160.91263    17734.814    4.2436803    4.2436803    4.2436803    17734.814    -18899.77    65617.372    6486.8411    3615.8813    8862.4282   -11626.563    76.423685 
   15200    734.51034   -161.57275   0.66460039   -160.90815   -17853.526    4.2580518    4.2580518    4.2580518   -17853.526    -36493.86     2617.613   -19684.331    -4473.406   -2944.5649   -5306.9807    77.202759 
   15300    725.30935   -161.56198   0.65627514   -160.90571   -1550.2733    4.2419277    4.2419277    4.2419277   -1550.2733   -23600.952   -9088.7486    28038.881   -6763.9797   -5647.9978   -4514.0456    76.329035 
   15400    848.49182   -161.67225   0.76773323   -160.90452    15632.157    4.2286211    4.2286211    4.2286211    15632.157    8676.9713    14092.456    24127.045    214.56101    652.38424    64.208963    75.612975 
   15500    750.52301   -161.58534   0.67908899   -160.90625    1366.3087     4.236118     4.236118     4.236118    1366.3087   -2734.5225    4703.8287    2129.6199    1334.0261   -6205.9584   -2657.0606    76.015846 
   15600    645.30943   -161.48876   0.58388953   -160.90487   -3509.9422    4.2464373    4.2464373    4.2464373   -3509.9422   -22837.329    30240.023    -17932.52    295.38379    5714.9345   -3962.4619    76.572732 
   15700    852.99447   -161.67809   0.77180732   -160.90629   -27174.799    4.2556015    4.2556015    4.2556015   -27174.799   -43447.299   -27940.385   -10136.714    3123.1789   -916.44712   -2714.1125    77.069554 
   15800    588.26031   -161.43748   0.53227029   -160.90521    -1127.343    4.2406214    4.2406214    4.2406214    -1127.343   -28660.099   -4673.4319    29951.502    6489.0983   -1957.3031   -1725.9868    76.258541 
   15900    729.76529   -161.56407   0.66030697   -160.90377    39.077114    4.2270563    4.2270563    4.2270563    39.077114   -10817.106    2365.0305    8569.3072    4852.5583    6417.5619    1027.9497    75.529063 
   16000    716.42422   -161.55805   0.64823569   -160.90982   -3496.3106    4.2407251    4.2407251    4.2407251   -3496.3106   -12342.502    17602.063   -15748.493    490.60655   -2242.8764    12785.702    76.264135 
   16100    509.77721   -161.36749   0.46125714   -160.90624    10443.406    4.2537032    4.2537032    4.2537032    10443.406    -12631.42    56142.588   -12180.951   -282.56689   -3095.9319     2683.307    76.966469 
   16200    756.51612   -161.59083   0.68451168   -160.90632   -7769.4507    4.2475774    4.2475774    4.2475774   -7769.4507   -10242.781    782.46011   -13848.032    1689.1394   -2316.9769   -3488.5897    76.634428 
   16300     626.5148   -161.47425   0.56688376   -160.90736   -302.97073    4.2327119    4.2327119    4.2327119   -302.97073   -9874.5157    4844.1044    4121.4991    2263.4814   -9647.0467    981.96596    75.832633 
   16400    728.41422   -161.56649   0.65908449    -160.9074    2069.2321    4.2293549    4.2293549    4.2293549    2069.2321   -12707.031    19410.413   -495.68536    8866.1518    1455.8992    1096.7062    75.652342 
   16500    709.73016   -161.55385   0.64217876   -160.91167   -834.92553    4.2420562    4.2420562    4.2420562   -834.92553    -33317.75    27910.922     2902.052    301.46296    6830.7607    4785.6013    76.335972 
   16600    845.52279   -161.67784   0.76504679   -160.91279   -17193.881     4.256344     4.256344     4.256344   -17193.881   -35681.014    8232.5624   -24133.192   -2596.6592   -3399.1022    3164.3764    77.109907 
   16700    689.90167   -161.53206   0.62423752   -160.90782    -11603.66    4.2460565    4.2460565    4.2460565    -11603.66   -22601.309    10134.041   -22343.711    6344.5778    1466.5295    1445.7343    76.552133 
   16800     691.3576   -161.52612   0.62555488   -160.90056    9715.5783    4.2268018    4.2268018    4.2268018    9715.5783   -9478.5083   -3406.5469     42031.79      6615.03    814.73002   -14410.686     75.51542 
   16900    876.27493   -161.69476   0.79287197   -160.90189    2058.8769    4.2286898    4.2286898    4.2286898    2058.8769   -14745.728    10199.504    10722.855    7340.0873    -975.0114   -12557.098    75.616658 
   17000    733.73221   -161.57163   0.66389632   -160.90773    3564.5002     4.244471     4.244471     4.244471    3564.5002   -20947.862    25715.304    5926.0588    11773.599    2876.8659   -5548.9423    76.466414 
   17100     607.4417   -161.45829   0.54962601   -160.90866   -4270.7577    4.2522451    4.2522451    4.2522451   -4270.7577   -21169.155    13969.558   -5612.6755    4402.8615   -3839.2618   -4820.0867    76.887348 
   17200     654.8992   -161.49919   0.59256656   -160.90662   -1461.8208    4.2383577    4.2383577    4.2383577   -1461.8208   -22437.646    10727.658    7324.5263    8515.4079   -59.740121   -3062.5375    76.136484 
   17300    737.75133   -161.57342    0.6675329   -160.90589     4067.985    4.2306618    4.2306618    4.2306618     4067.985   -23152.619   -2927.3378    38283.912    5782.7702   -1270.1404    3529.5187    75.722499 
   17400    685.54857   -161.52697   0.62029875   -160.90667   -4706.1941    4.2416286    4.2416286    4.2416286   -4706.1941   -26865.031    11929.744    816.70434   -4175.3529    972.76341   -8717.0343    76.312893 
   17500    786.41318   -161.61567   0.71156317   -160.90411   -16749.083    4.2499094    4.2499094    4.2499094   -16749.083   -24167.057   -5567.4354   -20512.756   -818.58928   -1232.6034   -7036.4131    76.760714 
   17600    637.98474   -161.47948     0.577262   -160.90222   -40.978425    4.2501333    4.2501333    4.2501333   -40.978425    -1164.982   -9661.6126    10703.659    -1593.837   -4731.3881    1894.6267    76.772847 
   17700    716.95906   -161.55018   0.64871963   -160.90146   -5857.7549     4.238764     4.238764     4.238764   -5857.7549    8224.8208   -12157.164   -13640.921   -4583.8102    2050.6758    9158.1559    76.158383 
   17800    694.54568   -161.52948   0.62843953   -160.90104    462.95744    4.2267415    4.2267415    4.2267415    462.95744    8406.4948   -9267.0613    2249.4388    1197.2318   -471.20405    4860.1138    75.512188 
   17900     573.6989   -161.42466   0.51909482   -160.90557    2252.7329    4.2337306    4.2337306    4.2337306    2252.7329   -12964.609    26530.991   -6808.1829    1384.9216    -14167.44    7089.0555    75.887395 
   18000    877.64753   -161.70032   0.79411393    -160.9062    -16267.88    4.2490507    4.2490507    4.2490507    -16267.88   -38384.059   -5075.2804   -5344.3021    -648.5905   -197.14007    3522.7906    76.714195 
   18100    734.33137   -161.57127   0.66443846   -160.90683   -7592.5205    4.2493646    4.2493646    4.2493646   -7592.5205   -16721.089    4007.4825   -10063.955     -911.683   -3920.0796    3539.3403    76.731201 
   18200    661.94039   -161.50211   0.59893757   -160.90317   -1079.3812    4.2402104    4.2402104    4.2402104   -1079.3812    8617.8382   -2757.3965   -9098.5853   -3660.6934   -13778.186    10232.912    76.236372 
   18300    765.19925   -161.59672   0.69236836   -160.90436    4051.2088    4.2354522    4.2354522    4.2354522    4051.2088    7840.8047   -6895.6822    11208.504   -8451.5221    5771.8817    4798.5176    75.980014 
   18400    657.81354   -161.50115   0.59520352   -160.90595      4288.98    4.2380374    4.2380374    4.2380374      4288.98    364.67281     22082.71   -9580.4429   -11460.187   -7136.7886    -1868.562    76.119227 
   18500    670.01313   -161.51115   0.60624196   -160.90491   -6827.0976    4.2461416    4.2461416    4.2461416   -6827.0976   -4295.4249    8350.7398   -24536.608   -5904.1222   -8153.2225    6513.3119    76.556739 
   18600      476.664    -161.3358    0.4312956   -160.90451    7483.3541    4.2492773    4.2492773    4.2492773    7483.3541    -6137.519    8580.9743    20006.607   -448.40153    4722.1996    15399.322    76.726473 
   18700    704.58832   -161.54198   0.63752632   -160.90445    -8740.452    4.2395358    4.2395358    4.2395358    -8740.452    1140.8061   -25659.812   -1702.3503   -1401.2889   -2907.7406    10233.887    76.199992 
   18800    535.89203   -161.38911   0.48488637   -160.90422    6874.0217     4.230287     4.230287     4.230287    6874.0217    14584.022    3977.0424    2061.0004   -4040.1912    4989.9013    21565.315    75.702375 
   18900    583.43457   -161.43401   0.52790386    -160.9061    -8827.241    4.2366279    4.2366279    4.2366279    -8827.241    32.474955    5689.8465   -32204.044   -3739.3407   -1104.3398    18911.241      76.0433 
   19000    582.97817   -161.43582    0.5274909   -160.90833   -2138.8591    4.2438158    4.2438158    4.2438158   -2138.8591    3496.7393    20219.119   -30132.435   -2589.4149    -11980.32    12935.906    76.431008 
   19100     511.5935   -161.37062   0.46290055   -160.90772    11957.533     4.246176     4.246176     4.246176    11957.533     164.6665     13012.07    22695.862   -3064.7086   -2858.5565    5617.4553    76.558596 
   19200    643.49577   -161.48825    0.5822485     -160.906   -4646.4411    4.2393536    4.2393536    4.2393536   -4646.4411    5383.4463   -22024.863    2702.0932   -8531.3666     1206.134    6586.6262    76.190167 
   19300    446.09635   -161.31025   0.40363735   -160.90662    7378.8883    4.2317039    4.2317039    4.2317039    7378.8883    19157.564    22482.073   -19502.972   -8474.9788    7415.1608    20185.584    75.778465 
   19400    697.31689   -161.53916   0.63094698   -160.90822   -6611.6724    4.2355914    4.2355914    4.2355914   -6611.6724   -1963.4906    7738.7247   -25610.251   -12951.665   -3587.8415    6112.4131    75.987503 
   19500    784.82147   -161.61852   0.71012296    -160.9084   -5987.7365    4.2395245    4.2395245    4.2395245   -5987.7365   -3792.7213    5120.8216    -19291.31   -6380.2035     1647.006     8637.062    76.199383 
   19600    419.56215   -161.29102   0.37962865   -160.91139    8977.8152    4.2464332    4.2464332    4.2464332    8977.8152    4925.8773    25137.381   -3129.8131   -770.15624     2813.144    4821.2062    76.572513 
   19700    772.47548   -161.60721   0.69895204   -160.90826   -9412.5388    4.2460246    4.2460246    4.2460246   -9412.5388   -12474.831   -7102.3738   -8660.4113    1607.2287   -2247.7348   -8818.7073     76.55041 
   19800    732.90973   -161.56767   0.66315212   -160.90452    4777.9648    4.2368385    4.2368385    4.2368385    4777.9648   -12103.485    29248.086   -2810.7064   -561.70871    9786.3371    1320.5865    76.054644 
   19900    514.32189   -161.37097   0.46536926    -160.9056    9601.0223    4.2382298    4.2382298    4.2382298    9601.0223   -7442.9262    55332.123    -19086.13   -3877.5239    8247.9695   -658.56806    76.129593 
   20000    727.75502    -161.5663   0.65848803   -160.90781    2902.5355    4.2381788    4.2381788    4.2381788    2902.5355    -2124.475    15583.654   -4751.5723   -2676.6758   -226.26609     13831.98    76.126845 
   20100    520.80284   -161.38414   0.47123335    -160.9129     9896.266    4.2480453    4.2480453    4.2480453     9896.266    20366.667     32022.45   -22700.319    6697.2987       706.28    4593.2994    76.659751 
   20200    598.40303   -161.45066   0.54144764   -160.90921      3796.41    4.2547925    4.2547925    4.2547925      3796.41   -6530.3509    32208.551    -14288.97    3938.6618   -2832.9142   -1176.1113    77.025612 
   20300    808.03046   -161.63457   0.73112294   -160.90345   -11103.036    4.2430402    4.2430402    4.2430402   -11103.036   -27382.859     28229.22    -34155.47     3671.235    1060.5532    -2576.567    76.389109 
   20400    569.10696   -161.42095   0.51493994   -160.90601    6793.9033    4.2338438    4.2338438    4.2338438    6793.9033   -11237.946    52370.013   -20750.357    6973.0775    13247.753    704.42864    75.893486 
   20500    617.99642   -161.46985   0.55917615   -160.91067    7706.3396     4.240549     4.240549     4.240549    7706.3396   -23286.042    57008.149   -10603.088   -7137.4246    12368.891    2121.1576    76.254639 
   20600    725.43807   -161.56631   0.65639161   -160.90992    -3959.028    4.2541388    4.2541388    4.2541388    -3959.028   -6061.6755    21834.537   -27649.946   -1005.9895   -1510.8601   -8283.4204    76.990116 
   20700    595.84261     -161.446   0.53913092   -160.90687    -5692.503    4.2555041    4.2555041    4.2555041    -5692.503     5984.937    19238.855   -42301.301    1043.7586    1300.0622    3668.2567    77.064262 
   20800    665.55898   -161.50586   0.60221175   -160.90365    13932.434    4.2362122    4.2362122    4.2362122    13932.434    6426.4572    50644.247   -15273.401   -7859.7514   -5314.9194    5512.3966    76.020917 
   20900    891.35872   -161.71115    0.8065201   -160.90463    12826.201    4.2251425    4.2251425    4.2251425    12826.201   -6802.8587     45351.75   -70.289303    4688.5868   -5745.7586   -12526.859    75.426523 
   21000    716.39823   -161.55892   0.64821217    -160.9107    1753.7249    4.2399948    4.2399948    4.2399948    1753.7249   -13791.696    32007.815   -12954.944    -6488.107    2749.8115    4792.2485    76.224743 
   21100    689.34196    -161.5319   0.62373109   -160.90817   -3694.9701    4.2523126    4.2523126    4.2523126   -3694.9701   -24022.164    11337.798    1599.4555   -7125.9232   -6533.9665   -4755.7297    76.891005 
   21200    842.78834     -161.668    0.7625726   -160.90543   -13016.417    4.2515844    4.2515844    4.2515844   -13016.417   -7575.5808   -3957.3546   -27516.316   -3095.1484   -2904.6059    -4353.021    76.851513 
   21300    612.29912   -161.45943   0.55402111    -160.9054    15259.519    4.2388892    4.2388892    4.2388892    15259.519   -6394.6892    53448.948   -1275.7032   -5954.3416    3139.0401    2425.8483    76.165133 
   21400    656.22181   -161.49845   0.59376329   -160.90469    5663.1853    4.2346576    4.2346576    4.2346576    5663.1853   -23563.217    47665.047   -7112.2738   -3332.8351   -9614.9323   -3340.8243    75.937258 
   21500    720.10355   -161.56087   0.65156483    -160.9093   -8510.2975    4.2449456    4.2449456    4.2449456   -8510.2975   -22414.933    9667.3427   -12783.302    404.01343   -4791.9158   -2922.2264    76.492065 
   21600    622.72454   -161.46947   0.56345425   -160.90602    2615.1796    4.2524916    4.2524916    4.2524916    2615.1796   -24634.904    24958.592    7521.8504   -1539.2319    6852.6088    2583.9176    76.900719 
   21700    734.81323   -161.56529   0.66487446   -160.90042   -451.27258    4.2460685    4.2460685    4.2460685   -451.27258    4685.3297    7380.9511   -13420.098     10892.31   -5924.7047    4354.2722    76.552786 
   21800    605.27963   -161.45013   0.54766973   -160.90246    11439.015    4.2367768    4.2367768    4.2367768    11439.015    12213.173    31178.178   -9074.3054      12104.2    1544.1987    7867.7105     76.05132 
   21900     498.4243   -161.35956   0.45098478   -160.90858    7439.5038    4.2451143    4.2451143    4.2451143    7439.5038    3362.8637    37957.394   -19001.746    5654.7186   -2518.6143    9696.2473    76.501185 
   22000    753.66577   -161.58678   0.68193263   -160.90485    -9012.437    4.2486368    4.2486368    4.2486368    -9012.437    -16113.35   -11301.888    377.92664    2523.6217   -2254.0813    8255.1983    76.691782 
   22100     758.8058   -161.58911   0.68658343   -160.90252   -3665.9054    4.2449764    4.2449764    4.2449764   -3665.9054     -15252.6     276.5485    3978.3358    6440.0373    4815.6474   -448.48713    76.493732 
   22200    714.00419   -161.55311   0.64604599   -160.90706   -6305.9018    4.2485126    4.2485126    4.2485126   -6305.9018    962.59303   -15653.876   -4226.4229   -6129.3778    5541.2448    6761.5951    76.685053 
   22300      856.912   -161.68001   0.77535199   -160.90466   -9299.2419    4.2388198    4.2388198    4.2388198   -9299.2419    -7054.484   -6900.6978   -13942.544   -7696.8788    8661.1808   -1162.3794     76.16139 
   22400    721.47956    -161.5555   0.65280987   -160.90269   -1590.6485    4.2331941    4.2331941    4.2331941   -1590.6485   -1594.3765    21921.171    -25098.74   -1902.8174    6316.4951   -10091.062     75.85855 
   22500    683.60873   -161.52998   0.61854354   -160.91144   -4168.8717    4.2407117    4.2407117    4.2407117   -4168.8717   -10443.333    8887.5738   -10950.856   -2741.4546   -1223.4412    4183.5879    76.263416 
   22600    776.24935   -161.61605   0.70236672   -160.91368   -8067.2923    4.2471721    4.2471721    4.2471721   -8067.2923   -8109.1441   -15821.288   -271.44515   -6991.8075    4737.9133    -3699.155     76.61249 
   22700    685.33387   -161.52887   0.62010449   -160.90877    3954.9616    4.2479514    4.2479514    4.2479514    3954.9616    1644.7969   -9951.0854    20171.173    3210.6538    8052.2014    -808.3784     76.65467 
   22800    839.57338   -161.66474   0.75966364   -160.90508    -4941.353    4.2355993    4.2355993    4.2355993    -4941.353   -7601.8076      13514.9   -20737.151    9758.2271    7915.0308   -9331.5376    75.987928 
   22900    744.35791   -161.57957   0.67351068   -160.90606   -4776.3233    4.2334413    4.2334413    4.2334413   -4776.3233    6981.9039    2673.0408   -23983.915    2720.1005    14445.547   -4120.3404     75.87184 
   23000    690.07567   -161.53117   0.62439497   -160.90677   -8918.6486    4.2495021    4.2495021    4.2495021   -8918.6486    1102.3727   -9112.9927   -18745.326 0.0076406722    3177.3927    1838.1577    76.738649 
   23100    787.22602   -161.61448   0.71229865   -160.90218    3745.6288    4.2487313    4.2487313    4.2487313    3745.6288    3332.4142   -5531.2168    13435.689    7289.3534   -4363.1552   -1272.8082    76.696896 
   23200     652.0518   -161.49221   0.58999017   -160.90222    11555.017    4.2428293    4.2428293    4.2428293    11555.017   -8929.5272    21954.369    21640.208    2332.9569    4512.9916    9859.7707    76.377719 
   23300    769.26629   -161.59853   0.69604831   -160.90248   -11420.605    4.2438259    4.2438259    4.2438259   -11420.605   -19286.649   -6300.7547   -8674.4123   -5596.1363     3366.764    1128.5687    76.431552 
   23400    737.76672   -161.56974   0.66754683   -160.90219    4242.3434    4.2449773    4.2449773    4.2449773    4242.3434   -4087.0578   -2560.4717     19374.56   -838.34157   -1865.1832    3726.0379    76.493779 
   23500    893.78131   -161.71179   0.80871211   -160.90308    -8625.724    4.2501483    4.2501483    4.2501483    -8625.724    564.70716   -16481.967   -9959.9125   -8822.2349   -311.59688    3145.1506    76.773662 
   23600    807.07478   -161.63396   0.73025822    -160.9037   -10859.407    4.2500901    4.2500901    4.2500901   -10859.407    1556.6216   -27256.202   -6878.6397   -4131.1638    549.67048    339.40652    76.770506 
   23700    806.85499   -161.63423   0.73005935   -160.90417    553.67946    4.2405091    4.2405091    4.2405091    553.67946    7279.7269    -9400.497    3781.8086   -10061.158    -1845.707    1144.1293    76.252486 
   23800    776.73988   -161.60684   0.70281057   -160.90403    1603.5758    4.2378399    4.2378399    4.2378399    1603.5758    9287.3207    10039.088   -14515.682    9234.6926   -2741.9316   -9544.4674    76.108581 
   23900    900.27044   -161.71975   0.81458361   -160.90517   -3595.9819     4.238961     4.238961     4.238961   -3595.9819    10158.296    -7389.214   -13557.028     9579.964    1435.1493   -10768.028    76.169003 
   24000    714.04181   -161.55827   0.64608003   -160.91219   -210.99171    4.2442188    4.2442188    4.2442188   -210.99171    19547.228    3151.7302   -23331.933    5028.8445    1514.5769     1693.134    76.452781 
   24100    609.57551   -161.46135   0.55155673   -160.90979     5829.493    4.2483948    4.2483948    4.2483948     5829.493    17040.536    2230.8264    -1782.883    4759.6529   -1563.5094    1296.7451    76.678679 
   24200    1128.5317   -161.92206    1.0211192   -160.90094   -14043.823    4.2415113    4.2415113    4.2415113   -14043.823   -14363.102   -13433.396   -14334.971    7680.3504    -6231.606    512.38115    76.306561 
   24300    641.85745   -161.48465   0.58076611   -160.90388    6227.3585    4.2361665    4.2361665    4.2361665    6227.3585   -12076.262    23734.506     7023.831    1937.3268    1110.4483    5185.9703    76.018461 
   24400    931.04432   -161.74729   0.84242847   -160.90486   -15180.806    4.2374112    4.2374112    4.2374112   -15180.806   -21333.526   -2881.4573   -21327.435    9394.3095    4581.5719    5029.2972     76.08549 
   24500    876.68144   -161.70046   0.79323979   -160.90722   -4182.2967    4.2459137    4.2459137    4.2459137   -4182.2967    11050.083   -12671.269   -10925.704     2949.797    4284.7306     2346.448    76.544412 
   24600    910.81028    -161.7337   0.82412028   -160.90958    3765.2941    4.2429198    4.2429198    4.2429198    3765.2941    21452.489    8887.4449   -19044.052    3627.1104    2107.1826   -3038.8466    76.382606 
   24700    995.11056   -161.80932   0.90039695   -160.90892   -1145.6951    4.2324627    4.2324627    4.2324627   -1145.6951    6624.9388   -7112.6753   -2949.3488    7792.2134    3033.7919    10241.237    75.819241 
   24800    695.24648   -161.53869   0.62907363   -160.90962   -9824.7603    4.2397089    4.2397089    4.2397089   -9824.7603    7210.0495   -24346.604   -12337.727    15639.987   -3069.1401    10407.081    76.209324 
   24900    765.05171   -161.60459   0.69223487   -160.91235    8320.4866    4.2413529    4.2413529    4.2413529    8320.4866    9841.8268    18514.437   -3394.8045     3513.728   -9117.5009    6812.1267    76.298012 
   25000    770.40341   -161.61067    0.6970772   -160.91359    12182.343    4.2420369    4.2420369    4.2420369    12182.343    34063.622    293.14596    2190.2619    9180.2675   -4606.0325    1426.1646    76.334932 
   25100    677.60752   -161.52253   0.61311353   -160.90941   -3231.5589    4.2444545    4.2444545    4.2444545   -3231.5589    21483.146   -10293.709   -20884.114    5741.0216   -2072.8326    1326.2147    76.465518 
   25200    589.95431   -161.44658   0.53380306   -160.91277   -8760.1114    4.2438249    4.2438249    4.2438249   -8760.1114    2743.9672   -6361.1262   -22663.175    9454.4421   -410.95945    8858.5651    76.431499 
   25300    689.21457   -161.53782   0.62361582   -160.91421    1097.1001    4.2335699    4.2335699    4.2335699    1097.1001    15444.813   -5328.1693    -6825.343    20352.149   -1740.0426     10337.06    75.878758 
   25400    715.41933   -161.55874   0.64732645   -160.91142    8997.3588    4.2335548    4.2335548    4.2335548    8997.3588    8225.5997    12944.232    5822.2444    10427.035    307.53703   -6185.1298    75.877945 
   25500    522.12111   -161.38401   0.47242615   -160.91158    -8168.396    4.2542392    4.2542392    4.2542392    -8168.396   -10401.841    1510.5954   -15613.942    683.35769    2903.9073   -703.23958    76.995567 
   25600    704.79832   -161.54766   0.63771633   -160.90995    224.48272    4.2428995    4.2428995    4.2428995    224.48272   -9402.5989   -4233.7138    14309.761   -536.65202     2857.378    2905.4953    76.381511 
   25700     763.9641   -161.60035   0.69125078    -160.9091    2542.5724     4.233678     4.233678     4.233678    2542.5724   -18978.511    15203.644    11402.584    5967.9021    4596.9514   -2851.3168    75.884567 
   25800    512.14657   -161.37557   0.46340098   -160.91217   -8067.2573    4.2452786    4.2452786    4.2452786   -8067.2573   -18004.251   -17843.062    11645.541     9337.194    2757.9602   -8119.0562    76.510068 
   25900    783.87244   -161.61873   0.70926425   -160.90947   -8664.7033    4.2376406    4.2376406    4.2376406   -8664.7033   -19337.729    6622.0531   -13278.434    1517.6266   -366.84525   -2753.9922    76.097844 
   26000    425.62071    -161.3006   0.38511056   -160.91549    10197.603    4.2457447    4.2457447    4.2457447    10197.603   -4348.2914    35787.965   -846.86435   -6549.4779   -2266.8437    1164.5656    76.535274 
   26100    815.07378   -161.64999   0.73749588    -160.9125   -15482.694    4.2498465    4.2498465    4.2498465   -15482.694   -16402.004   -15517.874   -14528.205   -6757.7502   -3837.0326   -4810.5009    76.757309 
   26200    554.74238   -161.41147   0.50194256   -160.90953    10483.117    4.2352473    4.2352473    4.2352473    10483.117    18282.685    12243.125    923.53975    4449.8686    4962.2272   -6965.3465    75.968986 
   26300    409.29773   -161.28019   0.37034118   -160.90985    18571.855    4.2403579    4.2403579    4.2403579    18571.855    23145.383    34521.252   -1951.0698   -1555.8608    1695.5104    8149.2275    76.244329 
   26400    888.52941   -161.71159   0.80396008   -160.90763    -3265.134    4.2445425    4.2445425    4.2445425    -3265.134    2766.2577    1497.5318   -14059.191   -11638.082     1832.038    8129.5588    76.470274 
   26500    755.56647   -161.59399   0.68365242   -160.91034   -717.21506    4.2451409    4.2451409    4.2451409   -717.21506   -3809.7116    12913.636    -11255.57   -13213.714    464.30663   -2327.8912    76.502622 
   26600    759.78324   -161.59694   0.68746784   -160.90947   -15331.637    4.2488047    4.2488047    4.2488047   -15331.637   -29746.872    10966.559     -27214.6   -5148.6514   -8381.6433   -6049.9652    76.700871 
   26700    813.96485   -161.64709    0.7364925    -160.9106   -8803.3908    4.2400287    4.2400287    4.2400287   -8803.3908   -26000.476   -9601.4393    9191.7427    8745.4796   -4063.1307    7425.4447    76.226574 
   26800    988.53752   -161.80303   0.89444952   -160.90858    8919.2989    4.2278601    4.2278601    4.2278601    8919.2989    3621.5749    18081.482    5054.8399    8277.0308    4721.1968    2185.2504    75.572156 
   26900    688.17441   -161.53267   0.62267467      -160.91    23940.273    4.2351299    4.2351299    4.2351299    23940.273    18520.666    35843.582     17456.57     1666.702    7714.3362   -1924.6223    75.962666 
   27000    761.85366   -161.59832    0.6893412   -160.90898    -12744.11    4.2534805    4.2534805    4.2534805    -12744.11    18219.845   -27313.795   -29138.381    3659.9137     6786.518   -4709.6506     76.95438 
   27100    888.36406   -161.71205   0.80381047   -160.90824   -4320.9621    4.2424064    4.2424064    4.2424064   -4320.9621    9531.6216    -8011.929   -14482.579   -4153.8989    1684.9651   -677.69804     76.35488 
   27200    811.16197   -161.64159    0.7339564   -160.90763    10464.346    4.2311748    4.2311748    4.2311748    10464.346     9539.719     17142.46    4710.8591    2944.5747    2298.7393    -7598.524    75.750044 
   27300    995.90647   -161.80959    0.9011171   -160.90847   -20540.694    4.2403053    4.2403053    4.2403053   -20540.694   -17015.376   -17779.564   -26827.141     3705.072   -4713.6776   -8699.1078    76.241491 
   27400    866.24504   -161.69561   0.78379672   -160.91181   -1182.7218    4.2369517    4.2369517    4.2369517   -1182.7218   -3166.6425    2365.1996   -2746.7226    5590.2257   -6283.6897   -7645.9761    76.060736 
   27500    830.60872   -161.66232   0.75155223   -160.91077    541.48477     4.238625     4.238625     4.238625    541.48477     445.7877   -870.35929    2049.0259    10329.876    2620.5734    2211.1567    76.150891 
   27600    1009.7569   -161.81915   0.91364927    -160.9055   -22173.321    4.2473472    4.2473472    4.2473472   -22173.321   -29460.584   -23479.369   -13580.009   -2.2216896   -2182.8368   -6878.9991    76.621966 
   27700    622.73546   -161.47519   0.56346413   -160.91173    2210.3873    4.2362885    4.2362885    4.2362885    2210.3873    439.08026    17263.049   -11070.967    9458.4023   -4546.5224   -12018.316    76.025027 
   27800    573.48005   -161.43139    0.5188968   -160.91249    8410.9643    4.2341757    4.2341757    4.2341757    8410.9643    7493.5156    10503.593    7235.7841   -1450.9217    510.95681    -11394.59    75.911332 
   27900    942.18131   -161.76048   0.85250545   -160.90797   -11043.281    4.2424884    4.2424884    4.2424884   -11043.281   -23986.828   -12989.589    3846.5736   -3175.9919   -3629.2939    7186.0349    76.359309 
   28000    678.02031   -161.52396   0.61348702   -160.91047   -4884.8545    4.2420739    4.2420739    4.2420739   -4884.8545   -15288.738    12039.942   -11405.768    9027.1115    268.40424    232.63396    76.336931 
   28100    526.85203    -161.3872   0.47670679   -160.91049    9203.0153    4.2312061    4.2312061    4.2312061    9203.0153    259.34388    24172.662    3177.0403    3775.2908    3723.7062   -454.46368    75.751726 
   28200    945.97895   -161.76801   0.85594164   -160.91207   -8806.0918    4.2390048    4.2390048    4.2390048   -8806.0918   -10127.886    8225.6189   -24516.008   -9175.9273   -1908.9189    807.06885    76.171361 
   28300    397.70635   -161.27288   0.35985307   -160.91302    6406.4608    4.2454434    4.2454434    4.2454434    6406.4608   -1270.6026    33117.837   -12627.852    2127.9426    8651.6481   -5349.1037    76.518981 
   28400    642.05481   -161.48939   0.58094468   -160.90844    8940.3448    4.2336701    4.2336701    4.2336701    8940.3448    12510.154    22487.556   -8176.6756   -9765.3899    3458.7894    3039.9211    75.884143 
   28500    483.78048   -161.35062   0.43773474   -160.91288    611.97914     4.247147     4.247147     4.247147    611.97914   -215.35189    33690.397   -31639.108     2152.481    1532.9465    1385.4049    76.611131 
   28600    504.06396   -161.36986   0.45608767   -160.91378    9717.5255    4.2457419    4.2457419    4.2457419    9717.5255      4172.37    43269.015   -18288.808   -3264.2772    4329.8071    16491.909    76.535122 
   28700    581.25665   -161.43653   0.52593323    -160.9106    11721.076    4.2354064    4.2354064    4.2354064    11721.076   -1501.7494    61138.742   -24473.764    -7355.043   -1206.9807    13410.633    75.977547 
   28800    572.18824   -161.43363   0.51772795   -160.91591   -10606.076    4.2483188    4.2483188    4.2483188   -10606.076   -24306.524    21806.189   -29317.893    3180.9271    193.56809   -5118.2614    76.674561 
   28900      629.456   -161.48376   0.56954502   -160.91421   -2822.1248    4.2488779    4.2488779    4.2488779   -2822.1248   -19837.894    38012.976   -26641.456    3837.6922    2837.0025    2416.5804    76.704839 
   29000    740.87267    -161.5842   0.67035717   -160.91384    14091.863    4.2406517    4.2406517    4.2406517    14091.863    7804.3232     37768.44   -3297.1743    11911.001   -2438.5902     -9996.07     76.26018 
   29100    476.20315   -161.34535   0.43087861   -160.91447    4175.1828    4.2503187    4.2503187    4.2503187    4175.1828    16509.606     23399.73   -27383.787    9732.8063    964.07211    3689.1568    76.782893 
   29200    679.83216   -161.52279   0.61512642   -160.90766   -3975.7636    4.2500335    4.2500335    4.2500335   -3975.7636   -3047.6567    207.83854   -9087.4726      7910.15    2212.3346   -320.11293    76.767442 
   29300    808.44959   -161.63446   0.73150217   -160.90296   -8.2590534    4.2440902    4.2440902    4.2440902   -8.2590534   -23611.416     49181.26   -25594.622     3623.533   -4180.8986   -8941.3317    76.445833 
   29400     679.7627   -161.52336   0.61506358    -160.9083   -889.48531    4.2480985    4.2480985    4.2480985   -889.48531    -18993.95    27493.451   -11167.957    5544.1827    3791.4143    3411.5129    76.662633 
   29500    628.87111   -161.48196    0.5690158   -160.91295     -9698.07    4.2472762    4.2472762    4.2472762     -9698.07   -34.384544    5763.4789   -34823.304    1276.1516     5163.254   -6822.1607    76.618123 
   29600     807.3869   -161.64351   0.73054064   -160.91297   -4919.9997     4.244544     4.244544     4.244544   -4919.9997    5591.7132   -7791.1316   -12560.581    34.427184    4988.8288    2031.2961    76.470356 
   29700    799.43502   -161.63545   0.72334561   -160.91211   -5219.4672    4.2491064    4.2491064    4.2491064   -5219.4672   -6378.1711    14231.491   -23511.721   -9877.4703     5126.013    -3488.655    76.717213 
   29800    808.97725   -161.64318   0.73197962    -160.9112   -7377.6928    4.2452145    4.2452145    4.2452145   -7377.6928   -16390.969   -3382.8248   -2359.2847   -11911.664   -349.35835    3015.5179    76.506605 
   29900    875.69917   -161.70507   0.79235102   -160.91272   -11703.002    4.2405836    4.2405836    4.2405836   -11703.002   -6016.9527   -4731.3751    -24360.68   -5414.2473    444.22044    529.21522    76.256505 
   30000    683.71923   -161.53018   0.61864353   -160.91154   -1313.9749    4.2442418    4.2442418    4.2442418   -1313.9749   -1579.4236   -3297.4852    934.98409   -6248.4639    6917.0426   -2519.0693    76.454025 
   30100    840.50199    -161.6679   0.76050386   -160.90739   -4897.6797    4.2433278    4.2433278    4.2433278   -4897.6797    8332.4403   -3999.2714   -19026.208   -2264.3484   -6811.1706    2546.6855     76.40464 
   30200    574.80854   -161.42623   0.52009884   -160.90613   -1282.8695    4.2476256    4.2476256    4.2476256   -1282.8695     28373.34   -18629.851   -13592.096    1754.6642   -392.02317   -1691.0787    76.637032 
   30300    501.56511   -161.35736   0.45382666   -160.90353     14069.39    4.2461823    4.2461823    4.2461823     14069.39    28050.751    13520.145    637.27268    5512.4954    3924.5742    1047.0882    76.558937 
   30400    902.33715   -161.72175   0.81645362    -160.9053     6854.951    4.2413788    4.2413788    4.2413788     6854.951    24899.745    12486.151   -16821.043   -1476.4759    4125.8221     4950.034    76.299409 
   30500    579.29072   -161.43379   0.52415442   -160.90964    9300.0932    4.2409384    4.2409384    4.2409384    9300.0932    11320.968    7266.0016    9313.3094   -4372.3579    1596.2278    -7186.979    76.275646 
   30600    771.64184   -161.60608   0.69819776   -160.90788   -9138.4973    4.2406138    4.2406138    4.2406138   -9138.4973   -10167.383    230.60816   -17478.717   -3010.7427   -4239.3317     2337.417    76.258133 
   30700    810.84813   -161.64353   0.73367242   -160.90986   -17345.633    4.2481742    4.2481742    4.2481742   -17345.633   -26857.175   -24087.253   -1092.4708   -2942.2652    5978.5009   -7827.9645    76.666733 
   30800    772.80639   -161.60542   0.69925146   -160.90617   -363.83882    4.2485484    4.2485484    4.2485484   -363.83882   -5035.0522    3484.4598    459.07587   -4862.0225   -3541.7198   -12018.435    76.686993 
   30900    874.56533   -161.69166   0.79132509   -160.90033   -4770.9131    4.2434193    4.2434193    4.2434193   -4770.9131   -4155.1091    4699.2982   -14856.928   -2891.1961   -4864.6488    4408.8661    76.409583 
   31000    617.77491   -161.46381   0.55897572   -160.90483    4502.5204    4.2345407    4.2345407    4.2345407    4502.5204    1836.7546    13843.294   -2172.4877   -10168.575    9155.2045    4290.1462     75.93097 
   31100    686.48089   -161.52856   0.62114234   -160.90742    3679.9872    4.2363371    4.2363371    4.2363371    3679.9872    3585.5473    2262.4155    5191.9988    -18593.59    4081.1179    4663.3055    76.027643 
   31200     741.8544   -161.57829   0.67124545   -160.90705    -10783.79     4.253703     4.253703     4.253703    -10783.79   -6104.4139    -22995.65   -3251.3053    603.77165    3339.1829   -3345.3268    76.966456 
   31300    800.07628   -161.63077   0.72392583   -160.90684    -12841.22    4.2492403    4.2492403    4.2492403    -12841.22   -18915.717    2018.0586   -21626.002    2121.8052    6386.5239    5508.5242    76.724465 
   31400     737.9527   -161.57327   0.66771511   -160.90555    6037.9589    4.2414013    4.2414013    4.2414013    6037.9589   -10610.447    894.02277      27830.3    5237.7366   -1726.7642    5193.1758    76.300623 
   31500    1020.1937   -161.82764   0.92309271   -160.90454   -22419.397    4.2461648    4.2461648    4.2461648   -22419.397   -33044.601   -12917.154   -21296.436    12333.721   -5517.0442   -6772.3797    76.557992 
   31600    823.42441   -161.64793   0.74505171   -160.90288    2726.4657     4.238198     4.238198     4.238198    2726.4657    6279.1817   -3178.3076    5078.5231    4252.7946    -1536.351   -2341.8865    76.127877 
   31700    638.36059   -161.48548   0.57760208   -160.90787   -110.51068     4.246322     4.246322     4.246322   -110.51068    17789.299   -19725.303    1604.4721    5348.7804    2537.1448   -2667.9078    76.566493 
   31800    936.88462   -161.75393   0.84771289   -160.90621   -13484.049    4.2501587    4.2501587    4.2501587   -13484.049    6457.9884   -26189.377   -20720.757    4269.4072    329.26154    -5541.435    76.774225 
   31900    591.92679   -161.44462    0.5355878   -160.90903    22669.058    4.2390295    4.2390295    4.2390295    22669.058    35476.673    1664.0285    30866.473    1048.8044   -1468.0205   -5708.4325    76.172696 
   32000    808.93389   -161.63909   0.73194038   -160.90715   -5222.7268    4.2421696    4.2421696    4.2421696   -5222.7268    9701.2814   -15604.152   -9765.3095     2054.011    4916.4184    4931.7813    76.342099 
   32100    773.79773   -161.60397   0.70014845   -160.90383    4283.1963     4.242316     4.242316     4.242316    4283.1963    20110.493   -755.09105   -6505.8132    3361.1494   -91.860663    3646.7749    76.349999 
   32200    822.90785   -161.64899   0.74458431    -160.9044   -3178.8155    4.2470525    4.2470525    4.2470525   -3178.8155    5805.2835   -20128.436    4786.7058    5071.4172    1741.6423   -4288.3148    76.606019 
   32300    972.55455   -161.77971    0.8799878   -160.89973   -28276.236    4.2511647    4.2511647    4.2511647   -28276.236   -31814.653   -34335.611   -18678.443    1833.6704     7157.066    7111.0517    76.828752 
   32400     611.8029   -161.45609   0.55357212   -160.90251    6917.7724     4.235199     4.235199     4.235199    6917.7724   -10264.789    -3835.924     34854.03    -2727.805   -1325.3996    2609.2296    75.966386 
   32500    1116.3933   -161.92166    1.0101361   -160.91152   -21297.566    4.2439992    4.2439992    4.2439992   -21297.566   -20490.649   -33113.026   -10289.023    6477.9747   -4370.7396   -1513.6793    76.440915 
   32600    810.36031   -161.64382   0.73323104   -160.91059   -7432.2852     4.253587     4.253587     4.253587   -7432.2852   -12090.218    -12393.17     2186.532    1747.9681    1613.9908   -1884.2488    76.960161 
   32700    810.81699   -161.63734   0.73364425   -160.90369   -5244.7683    4.2420131    4.2420131    4.2420131   -5244.7683     30.86313   -23834.206     8069.038    195.03293   -4111.2647   -1184.4529    76.333648 
   32800    856.15323   -161.67931   0.77466543   -160.90465   -7313.1438    4.2407029    4.2407029    4.2407029   -7313.1438    5301.3025   -16515.445   -10725.288   -3599.8167   -5105.7247    1213.4601    76.262941 
   32900    778.31612   -161.60912   0.70423678   -160.90488   -3448.1459    4.2381357    4.2381357    4.2381357   -3448.1459    11438.129   -18561.627   -3220.9393   -1530.1937    5065.9616   -2414.0529    76.124521 
   33000     893.1056   -161.71459   0.80810071   -160.90649   -3711.8694    4.2386856    4.2386856    4.2386856   -3711.8694    24350.474     -14879.9   -20606.182    4991.5699   -3478.8068    1224.4661    76.154157 
   33100    632.96986   -161.48662   0.57272443    -160.9139    482.26786    4.2493112    4.2493112    4.2493112    482.26786    14093.332   -29365.809     16719.28   -2192.4033   -5881.8544    -1498.171    76.728308 
   33200    636.59354   -161.48896   0.57600321   -160.91295    16762.543    4.2454563    4.2454563    4.2454563    16762.543    36352.687    735.86567    13199.076    5716.8528     387.1336   -3271.1473    76.519674 
   33300    890.96572   -161.71294   0.80616451   -160.90677    4181.9314     4.234345     4.234345     4.234345    4181.9314     40545.78   -12770.194   -15229.792    10503.742    4962.1898   -8523.0788    75.920443 
   33400    474.61572   -161.33835   0.42944228   -160.90891    14224.331    4.2361082    4.2361082    4.2361082    14224.331    35220.986    4712.9913     2739.016    8737.3607    13205.901   -13089.687    76.015322 
   33500    873.19584   -161.69556   0.79008594   -160.90547   -16517.113    4.2455155    4.2455155    4.2455155   -16517.113    18501.158   -43958.437   -24094.058    3232.1242   -4651.1085   -4757.1097    76.522876 
   33600    563.82669   -161.41661   0.51016224   -160.90645    9585.0566     4.249352     4.249352     4.249352    9585.0566    40790.327   -23757.076    11721.919   -2024.3795    7636.3615    367.00139    76.730519 
   33700    845.25752   -161.67347   0.76480677   -160.90866    12622.893    4.2389777    4.2389777    4.2389777    12622.893    59802.829   -12237.373   -9696.7752    1753.8635    6397.6052   -1291.9166    76.169904 
   33800    505.01542   -161.36912   0.45694856   -160.91217    9836.7478    4.2384113    4.2384113    4.2384113    9836.7478    50827.809   -4809.4872   -16508.079    3267.5122    2405.3738   -2591.5111    76.139374 
   33900      482.588    -161.3469   0.43665576   -160.91024   -1031.0703    4.2458232    4.2458232    4.2458232   -1031.0703    27454.025   -26966.305    -3580.931    1371.5207     9132.203   -1561.1201    76.539515 
   34000    709.28982   -161.55121   0.64178033   -160.90943    5592.9218    4.2469352    4.2469352    4.2469352    5592.9218    66013.461   -30631.269   -18603.426    2485.7541    191.66929   -1441.8415    76.599673 
   34100    481.08909   -161.35441   0.43529952   -160.91911    12826.344    4.2455796    4.2455796    4.2455796    12826.344    68295.288   -26019.809   -3796.4472    2336.5989   -10454.392    2736.2345    76.526345 
   34200     523.4576   -161.39602   0.47363544   -160.92238    5716.2167    4.2354131    4.2354131    4.2354131    5716.2167    50581.887   -3357.8458   -30075.391    5991.2539   -19579.685     4864.301    75.977905 
   34300    504.87464   -161.37478   0.45682118   -160.91796    10486.605    4.2360478    4.2360478    4.2360478    10486.605    51418.576   -22381.332    2422.5724    3407.7736    2882.6949    3532.9237    76.012069 
   34400    571.15843   -161.42815   0.51679615   -160.91135    6721.1718    4.2491211    4.2491211    4.2491211    6721.1718     64374.38   -26464.911   -17745.953   -1233.4988    -980.9996    1435.8939    76.718009 
   34500    711.74599   -161.55441   0.64400272    -160.9104    5969.4542    4.2435682    4.2435682    4.2435682    5969.4542     47791.48   -20848.237   -9034.8802   -5629.3577    4925.3283    1147.8696    76.417631 
   34600    480.12461   -161.34668   0.43442683   -160.91226    3506.8709    4.2385156    4.2385156    4.2385156    3506.8709     18510.68     -8340.19     350.1232     3165.668   -7667.0719     4606.418    76.144995 
   34700    767.51475   -161.60592   0.69446347   -160.91146    1551.1632    4.2356367    4.2356367    4.2356367    1551.1632    30822.515   -10161.994   -16007.031    6439.1847    -1067.631    -104.1118    75.989939 
   34800    532.43166   -161.39475   0.48175535   -160.91299    23469.143    4.2410034    4.2410034    4.2410034    23469.143    66710.382   -8246.9253     11943.97   -4874.9755    4562.2229     5488.133    76.279153 
   34900    714.12902   -161.55762   0.64615895   -160.91146   -9810.7831    4.2489761    4.2489761    4.2489761   -9810.7831    35132.881    -30427.39   -34137.841   -2941.8855    -2414.087    3338.9006    76.710155 
   35000    736.72301   -161.57771   0.66660246   -160.91111    -4859.948     4.236679     4.236679     4.236679    -4859.948   -4925.1593    4683.6161   -14338.301    3308.6809    6565.7617   -4694.7484    76.046051 
   35100    779.91032   -161.61432   0.70567925   -160.90864   -2565.7604    4.2260809    4.2260809    4.2260809   -2565.7604   -11474.542     9305.144   -5527.8833    4502.4699   -1952.2113   -7213.2417    75.476791 
   35200    738.57298   -161.57701   0.66827636   -160.90873    8824.1957    4.2307707    4.2307707    4.2307707    8824.1957    14013.215    16900.332     -4440.96   -7504.1855    8215.3043   -1208.4866    75.728343 
   35300    571.47086   -161.42723   0.51707884   -160.91015     8809.204    4.2441612    4.2441612    4.2441612     8809.204    51898.144   -14929.463   -10541.069   -10151.742    813.07285   -2874.8575    76.449672 
   35400    814.84516   -161.64771   0.73728902   -160.91042   -15153.585    4.2505211    4.2505211    4.2505211   -15153.585    8316.6817   -35420.034   -18357.403     4296.771    9711.7849   -4818.4369    76.793864 
   35500    794.60331   -161.63022   0.71897378   -160.91125   -15164.488    4.2386434    4.2386434    4.2386434   -15164.488   -12431.228    -12767.98   -20294.257    808.86465   -166.00059   -1735.2392     76.15188 
   35600    767.44672    -161.6024   0.69440192     -160.908    587.60342    4.2241016    4.2241016    4.2241016    587.60342    330.35982    18081.633   -16649.182    -12632.55   -7017.6563    -4841.254    75.370791 
   35700    744.70578   -161.58221   0.67382544   -160.90839    12544.557    4.2326059    4.2326059    4.2326059    12544.557    24480.265    10678.087    2475.3186   -297.59089    2844.8288   -1651.6407    75.826932 
   35800    874.51744   -161.69645   0.79128176   -160.90517   -9556.7781    4.2524408    4.2524408    4.2524408   -9556.7781    27556.495   -20186.932   -36039.897    2648.6641   -1642.6686    1528.8633    76.897963 
   35900    812.15233   -161.63939    0.7348525   -160.90454   -13960.732    4.2510391    4.2510391    4.2510391   -13960.732     -464.577   -32026.591   -9391.0283    253.80079     6998.939    -94.60686    76.821943 
   36000    769.85013   -161.60757   0.69657658   -160.91099     3893.875    4.2344979    4.2344979    4.2344979     3893.875    27587.004   -7354.7269   -8550.6522   -3131.3639    -1313.935    187.62173    75.928665 
   36100    820.34728   -161.65601   0.74226746   -160.91374    7653.9351    4.2367255    4.2367255    4.2367255    7653.9351    26139.516    -10227.35    7049.6384    1885.9899   -210.10873    -2499.248    76.048555 
   36200    715.23992   -161.55985   0.64716411   -160.91269      1590.69    4.2489602    4.2489602    4.2489602      1590.69    51570.288   -29129.338    -17668.88    7430.7912    10617.333    1156.4247    76.709292 
   36300     850.6755   -161.68017   0.76970907   -160.91046   -20592.658    4.2533979    4.2533979    4.2533979   -20592.658    22676.579   -40922.082   -43532.471    4641.8408   -2641.2762   -345.69969    76.949898 
   36400    487.80323   -161.35601   0.44137461   -160.91463    9273.3183    4.2357839    4.2357839    4.2357839    9273.3183    69896.612   -18019.277    -24057.38   -6299.5748    2919.8774   -3035.8808    75.997863 
   36500    641.73403   -161.49627   0.58065443   -160.91561    22665.792    4.2310476    4.2310476    4.2310476    22665.792    81967.436   -15642.915    1672.8558   -7930.1982   -8565.6929   -4837.1581    75.743216 
   36600     608.0822   -161.46924   0.55020556   -160.91904   -2436.5211    4.2563966    4.2563966    4.2563966   -2436.5211    60378.174   -38841.728   -28846.009    -651.1413   -3523.3388   -852.03481     77.11276 
   36700    745.26227   -161.58714   0.67432896   -160.91281   -17643.854    4.2535813    4.2535813    4.2535813   -17643.854    6021.1355   -40854.375   -18098.322   -2512.7823    -1560.081   -4425.7996    76.959852 
   36800    589.02907   -161.44018   0.53296588   -160.90721    14641.947    4.2310181    4.2310181    4.2310181    14641.947    34867.526   -6940.3916    15998.706   -2459.1933   -12238.261    -1087.249    75.741628 
   36900    975.35604   -161.78646   0.88252264   -160.90393    14533.146    4.2235104    4.2235104    4.2235104    14533.146    48734.604   -4999.8071    -135.3594    2685.3735    3827.8513    6151.8987    75.339149 
   37000    573.29948   -161.42804   0.51873342   -160.90931        19287    4.2347944    4.2347944    4.2347944        19287    64084.333   -1609.7052   -4613.6276    7853.4509   -6015.0459   -5574.9919    75.944617 
   37100    953.86238   -161.77247   0.86307473   -160.90939   -27526.934    4.2537077    4.2537077    4.2537077   -27526.934   -14588.649    -24569.84   -43422.311    6387.6759     3057.017    2541.8295     76.96671 
   37200    907.20594   -161.73084     0.820859   -160.90999   -25706.151    4.2484731    4.2484731    4.2484731   -25706.151   -32967.988   -32716.393    -11434.07   -1961.5745    -6766.923    3500.6309    76.682918 
   37300    786.86155    -161.6168   0.71196886   -160.90483    12134.825    4.2220645    4.2220645    4.2220645    12134.825     14529.55    3578.4915    18296.435    5874.0129    5304.7847   -8608.5537    75.261799 
   37400    1006.7933   -161.81538   0.91096772   -160.90441    6200.1599    4.2213273    4.2213273    4.2213273    6200.1599    33365.209   -1606.7698    -13157.96    7866.5459    10295.797    4446.5622    75.222381 
   37500    774.23463   -161.60949   0.70054376   -160.90894    442.54554    4.2404757    4.2404757    4.2404757    442.54554    26862.588   -13883.909   -11651.043   -763.91373    827.42984    3581.0614    76.250683 
   37600    1033.8997   -161.84099   0.93549417    -160.9055    -20037.77    4.2483171    4.2483171    4.2483171    -20037.77   -3585.9682   -37143.197   -19384.145   -1152.1302    569.29359   -5384.3867    76.674469 
   37700    742.45442   -161.57739   0.67178836   -160.90561   -1965.5616    4.2405566    4.2405566    4.2405566   -1965.5616   -5406.3797    -7810.462     7320.157    7435.3457   -4539.6393    7202.8104    76.255047 
   37800    941.26785   -161.75752   0.85167893   -160.90584   -5769.1579    4.2298277    4.2298277    4.2298277   -5769.1579    988.18706   -7780.8398   -10514.821    7168.5374    7842.4517    2831.8031    75.677721 
   37900    864.82104   -161.68982   0.78250825   -160.90731    6665.9445     4.231507     4.231507     4.231507    6665.9445     14386.98   -551.52169     6162.375   -1782.6316    3784.7056     -1330.53    75.767892 
   38000    782.48607   -161.61497   0.70800984   -160.90696   -608.23254    4.2440257    4.2440257    4.2440257   -608.23254    25678.803   -24304.851   -3198.6492   -4239.9004   -171.36035   -164.39874    76.442346 
   38100    939.39464   -161.75713   0.84998402   -160.90714   -13833.477    4.2467079    4.2467079    4.2467079   -13833.477     22404.19   -34650.907   -29253.713    355.60539    9917.1618   -4912.3061    76.587373 
   38200    729.53486   -161.57033   0.66009847   -160.91023    1282.9337    4.2344443    4.2344443    4.2344443    1282.9337    19153.295   -7251.5692   -8052.9242    5561.1226   -2083.3824    2349.7095    75.925783 
   38300    818.97434   -161.64959   0.74102519   -160.90856    4308.4909    4.2297696    4.2297696    4.2297696    4308.4909    28875.339   -5342.7352   -10607.131   -2829.2624    2262.2095   -284.28075    75.674599 
   38400    747.60696   -161.58801   0.67645049   -160.91156    5537.7524    4.2465166    4.2465166    4.2465166    5537.7524      47944.1    -30003.69   -1327.1528   -2136.6824   -3306.8297   -1509.6277    76.577024 
   38500      761.229   -161.59692   0.68877599   -160.90814   -7595.5329    4.2510427    4.2510427    4.2510427   -7595.5329    33716.856   -37694.155     -18809.3    4935.9395   -4567.0711      -690.71    76.822139 
   38600    573.32667   -161.42928   0.51875802   -160.91052    2532.1433    4.2407736    4.2407736    4.2407736    2532.1433    40030.461   -25557.434   -6876.5973    -662.8558    9512.3817   -2132.8647    76.266755 
   38700    765.31836    -161.6033   0.69247614   -160.91082    20213.188    4.2266313    4.2266313    4.2266313    20213.188    77215.372   -9548.8239   -7026.9844    3623.4265   -6561.7337   -7379.3504    75.506284 
   38800    483.63225    -161.3552   0.43760063    -160.9176    16694.356    4.2390744    4.2390744    4.2390744    16694.356    82458.859   -11090.071    -21285.72    2902.9578    2976.0929    6771.2636    76.175116 
   38900    881.11197   -161.71165   0.79724863    -160.9144   -25087.793     4.253996     4.253996     4.253996   -25087.793    8616.1242   -29429.325   -54450.179    301.57581   -8986.7146    4717.9917    76.982364 
   39000    736.23206   -161.57842   0.66615824   -160.91226     7362.681    4.2380782    4.2380782    4.2380782     7362.681     34946.55   -16290.701     3432.194   -3181.7443    3553.0102   -2446.3898    76.121425 
   39100    783.62257   -161.61585   0.70903817   -160.90681    18077.297    4.2284462    4.2284462    4.2284462    18077.297    63552.862   -16541.623    7220.6521   -1548.8546    1228.5823    2615.9058    75.603591 
   39200    791.75021    -161.6245   0.71639223   -160.90811    6170.6445    4.2365746    4.2365746    4.2365746    6170.6445    53437.467   -22704.081   -12221.453   -2949.4506   -2440.6956   -3035.3615    76.040433 
   39300    837.11343   -161.66828   0.75743783   -160.91084   -2678.8431    4.2424552    4.2424552    4.2424552   -2678.8431      40719.1   -28307.726   -20447.904    5892.8992   -1258.8469   -7724.8302    76.357518 
   39400    895.67455   -161.72294   0.81042515   -160.91252    3463.5506    4.2406215    4.2406215    4.2406215    3463.5506    36159.451   -14967.757   -10801.042   -691.37422    -2955.421    4165.8963     76.25855 
   39500    680.98056   -161.52826   0.61616552   -160.91209    13824.464    4.2355017    4.2355017    4.2355017    13824.464    57102.084   -18757.278    3128.5865   -8992.7698   -246.04084   -1346.7483    75.982674 
   39600    840.56729    -161.6714   0.76056295   -160.91084   -1572.1222    4.2381471    4.2381471    4.2381471   -1572.1222    36984.475   -24055.776   -17645.065    8158.2894    -10468.13   -2419.2574    76.125136 
   39700    681.93708   -161.53149     0.617031   -160.91446    7355.2906    4.2442909    4.2442909    4.2442909    7355.2906    66645.022   -32371.999   -12207.151    613.91264   -9548.2865    3554.6395    76.456678 
   39800    913.36578     -161.742   0.82643255   -160.91557    394.12137    4.2338287    4.2338287    4.2338287    394.12137    34178.842   -25142.383   -7854.0953      11408.8      -4641.2   -6391.3637    75.892674 
   39900    571.33306   -161.43398   0.51695416   -160.91703     1463.254    4.2368744    4.2368744    4.2368744     1463.254    32253.628   -28152.554    288.68777   -653.20245    634.57614   -929.35521    76.056576 
   40000    995.82264   -161.80931   0.90104126   -160.90827   -16459.324    4.2435863    4.2435863    4.2435863   -16459.324    9077.9584   -29410.242   -29045.688   -5700.2183   -1036.6089    5138.6093    76.418609 
   40100    672.26519   -161.51334   0.60827967   -160.90506    16073.333    4.2411397    4.2411397    4.2411397    16073.333    59248.075   -18908.709    7880.6314    7538.7735    2949.3342   -2813.2659    76.286506 
   40200    904.61632   -161.72459   0.81851586   -160.90607   -4799.9306    4.2390263    4.2390263    4.2390263   -4799.9306    18536.527   -17844.359    -15091.96     -7122.21    4653.6896   -4658.5488    76.172521 
   40300    579.86556   -161.43503   0.52467455   -160.91036    6765.1333    4.2415099    4.2415099    4.2415099    6765.1333    23774.622   -21022.491     17543.27    3771.6244    9443.4802    190.15632    76.306485 
   40400    852.30407   -161.68005   0.77118264   -160.90886    1195.8844    4.2420103    4.2420103    4.2420103    1195.8844    19558.149   -20817.805    4847.3092   -77.351997     7392.899    749.47032    76.333495 
   40500    798.88339    -161.6328   0.72284648   -160.90995    12027.555    4.2371076    4.2371076    4.2371076    12027.555     59850.23   -26230.105     2462.541   -1249.6717    5020.1438    5688.5469    76.069137 
   40600    604.48222   -161.46044   0.54694821   -160.91349    989.56867     4.238455     4.238455     4.238455    989.56867     21589.95   -27594.224    8972.9799     -404.155    -4741.845    7707.7558     76.14173 
   40700    663.31925   -161.51205   0.60018519   -160.91187   -9139.6173     4.242236     4.242236     4.242236   -9139.6173    21385.851   -27980.507   -20824.195     -7063.24    393.78767   -2831.1961    76.345682 
   40800    850.52439   -161.67914   0.76957234   -160.90957    1588.1495    4.2414118    4.2414118    4.2414118    1588.1495    37960.307   -17515.754   -15680.105    5360.0397   -4012.2521    -2740.008    76.301194 
   40900     702.6993   -161.54725   0.63581709   -160.91143     11524.74    4.2425564    4.2425564    4.2425564     11524.74    54263.137   -14863.365   -4825.5517   -2288.3586   -1187.6737    4859.1808    76.362979 
   41000    808.15135   -161.64338   0.73123233   -160.91214   -9222.0326    4.2450371    4.2450371    4.2450371   -9222.0326    14144.547   -20017.412   -21793.233    3274.1389    496.06031    -170.4018    76.497014 
   41100    724.15424   -161.57061   0.65522997   -160.91538   -3251.2777    4.2391603    4.2391603    4.2391603   -3251.2777    44662.412    -27229.08   -27187.165   -3385.5291    -2098.908    1978.1452    76.179744 
   41200    834.22897   -161.67038    0.7548279   -160.91555    6201.2417    4.2297814    4.2297814    4.2297814    6201.2417    30823.346   -12195.217   -24.403151    3923.2221   -6946.3714    5774.1618    75.675231 
   41300    818.51484   -161.65513   0.74060943   -160.91452   -4735.9457    4.2350007    4.2350007    4.2350007   -4735.9457    7724.7613   -19873.624   -2058.9748    8342.7699   -5144.2567   -5624.9447    75.955713 
   41400     826.4985    -161.6608   0.74783322   -160.91296   -17283.203    4.2473833    4.2473833    4.2473833   -17283.203   -11169.328   -30209.436   -10470.844   -9106.4683   -4276.5025    4519.1688    76.623922 
   41500    657.14945   -161.50524   0.59460263   -160.91064   -1420.8897    4.2485371    4.2485371    4.2485371   -1420.8897    28167.613   -17032.648   -15397.634    3232.7302   -8691.2493    3009.0997     76.68638 
   41600    957.53321   -161.77238   0.86639617   -160.90598   -9193.0102    4.2331584    4.2331584    4.2331584   -9193.0102    7380.1802   -13506.981    -21452.23   -3633.7641   -17223.111   -2787.1876    75.856633 
   41700    731.10961   -161.57018   0.66152334   -160.90866   -189.44615    4.2331142    4.2331142    4.2331142   -189.44615    17666.323   -11397.019    -6837.643    1060.8993   -16234.078    4604.5313    75.854255 
   41800    871.62516   -161.69887   0.78866476   -160.91021   -20799.668     4.244473     4.244473     4.244473   -20799.668    -3191.884   -19842.169    -39364.95   -1052.8698   -8409.3538    2742.7327    76.466521 
   41900    573.67869   -161.43039   0.51907653   -160.91132    10364.896    4.2413759    4.2413759    4.2413759    10364.896    24760.326   -25.226486    6359.5896   -12241.471   -5075.6373   -4418.1486    76.299253 
   42000       1000.2   -161.81502   0.90500201   -160.91002    -15684.63    4.2391024    4.2391024    4.2391024    -15684.63   -20625.396   -12928.498   -13499.996    8160.3642   -4274.1621   -196.59199    76.176622 
   42100    572.91584   -161.42778    0.5183863   -160.90939    -8329.079    4.2398114    4.2398114    4.2398114    -8329.079    9034.0451   -23336.449   -10684.833    3680.2175   -6595.1067   -6720.5357    76.214852 
   42200    707.21398   -161.54665   0.63990207   -160.90675    -12184.77    4.2410746    4.2410746    4.2410746    -12184.77    7246.7709   -22829.101   -20971.979   -4771.8831   -1963.4766    -5707.627    76.282998 
   42300    806.14752    -161.6354   0.72941922   -160.90598     5419.592    4.2373741    4.2373741    4.2373741     5419.592    28801.337   -10345.012   -2197.5491     394.3494   -1180.5087    3594.6653    76.083488 
   42400    817.45714   -161.64655    0.7396524    -160.9069   -2349.2523    4.2396829    4.2396829    4.2396829   -2349.2523   -4670.6663   -3862.8874    1485.7967   -856.20165    2967.5788    3118.2198    76.207925 
   42500    606.98749   -161.45592   0.54921504   -160.90671   -1564.1164    4.2424956    4.2424956    4.2424956   -1564.1164    11253.987     5509.796   -21456.132    10571.454    7515.7063    961.69149    76.359696 
   42600    813.02836   -161.64036   0.73564515   -160.90472   -4016.4089    4.2424901    4.2424901    4.2424901   -4016.4089    18416.259   -15272.928   -15192.558   -4382.4917    9501.6314   -889.05981    76.359403 
   42700    849.44765   -161.67433   0.76859809   -160.90573    -5534.805    4.2360839    4.2360839    4.2360839    -5534.805    21961.276   -12549.198   -26016.493   -3861.0225    13137.233   -12832.112    76.014012 
   42800    606.44029   -161.45511   0.54871991   -160.90639    997.53407    4.2330981    4.2330981    4.2330981    997.53407    16736.589   -10516.533   -3227.4533    8083.7845    15037.531   -11302.562    75.853393 
   42900    776.04009   -161.60785   0.70217739   -160.90568   -9098.4023    4.2404873    4.2404873    4.2404873   -9098.4023    2215.7417   -19072.518   -10438.431    363.41504    7268.6597    2439.8983    76.251308 
   43000    598.81119    -161.4503   0.54181695   -160.90849   -1289.2696     4.249715     4.249715     4.249715   -1289.2696    22073.115   -19494.012   -6446.9118    5681.9537    5440.4285   -5300.3843    76.750183 
   43100    638.96608   -161.48733   0.57814994   -160.90918    8765.6051    4.2392099    4.2392099    4.2392099    8765.6051    23734.755    3972.7728   -1410.7123   -2164.3676    5758.9537    9943.0624    76.182419 
   43200    645.22845   -161.49121   0.58381627   -160.90739    3689.5851    4.2355497    4.2355497    4.2355497    3689.5851    37594.734     -21827.4   -4698.5781    5603.9065    8141.8781    681.08889    75.985259 
   43300    581.83927   -161.43536    0.5264604    -160.9089    5027.0685    4.2404344    4.2404344    4.2404344    5027.0685    22301.627   -5226.7458   -1993.6761   -2804.4731    7006.1308   -9760.7908    76.248452 
   43400    548.96003    -161.4075   0.49671057   -160.91079    6098.9994    4.2445703    4.2445703    4.2445703    6098.9994    44298.045   -17552.551   -8448.4954   -13478.165    8430.5867    1492.0592     76.47178 
   43500    753.41314   -161.58871   0.68170405   -160.90701    1370.7381    4.2435782    4.2435782    4.2435782    1370.7381    23530.846   -19770.278    351.64682    3182.3446    11317.589    910.90432     76.41817 
   43600    574.83794   -161.42728   0.52012545   -160.90716   -2777.5828    4.2416958    4.2416958    4.2416958   -2777.5828    34349.776   -20694.207   -21988.317   -4935.8548    7992.4503   -852.31064    76.316521 
   43700    594.75359   -161.44448   0.53814555   -160.90633    4848.3615    4.2353983    4.2353983    4.2353983    4848.3615    34819.409   -7199.0091   -13075.315   -5548.8898    8778.1252    1793.4745    75.977111 
   43800    668.95207   -161.51465   0.60528189   -160.90937      11321.2    4.2418986    4.2418986    4.2418986      11321.2    45295.167   -13424.437    2092.8699   -2632.3868    5238.1655    836.04518    76.327467 
   43900    640.53856   -161.48847   0.57957275    -160.9089   -134.52209    4.2498718    4.2498718    4.2498718   -134.52209    43138.533   -23208.509    -20333.59   -2761.6383    6027.1943    1453.7427     76.75868 
   44000    423.19844   -161.29271   0.38291885    -160.9098    24217.393    4.2405219    4.2405219    4.2405219    24217.393    60121.408    6955.1632    5575.6079    15358.586    7772.6957    1016.2894    76.253174 
   44100    742.25373   -161.58068   0.67160677   -160.90907   -848.23883    4.2420751    4.2420751    4.2420751   -848.23883    41641.211   -18099.196   -26086.732   -3746.0561    5007.0427    4015.5154    76.336994 
   44200    697.72974   -161.54047   0.63132053   -160.90915    633.50267    4.2410494    4.2410494    4.2410494    633.50267    41726.222   -30945.967   -8879.7464    5433.5431    4434.3825    6484.9564    76.281632 
   44300    730.37039   -161.56763   0.66085448   -160.90678   -7859.7776    4.2408191    4.2408191    4.2408191   -7859.7776    39208.476   -35961.297   -26826.512    6346.1183    2691.7834    8772.6284    76.269209 
   44400    849.64282   -161.67822   0.76877468   -160.90944   -7967.0972    4.2396892    4.2396892    4.2396892   -7967.0972    15326.532   -12370.883    -26856.94   -5531.0673   -3297.6333     220.6449    76.208263 
   44500     726.1693   -161.56666   0.65705325   -160.90961    7404.2205    4.2346236    4.2346236    4.2346236    7404.2205    22211.921    4439.4034   -4438.6624    7593.7778    -6449.241    4038.3143    75.935427 
   44600    913.55529   -161.73534   0.82660402   -160.90874    2128.2645    4.2360193    4.2360193    4.2360193    2128.2645    11315.873    7618.1797   -12549.259   -8274.3653   -6118.5339    4231.3265    76.010537 
   44700    699.08569   -161.54381   0.63254742   -160.91126   -4588.2549    4.2432644    4.2432644    4.2432644   -4588.2549    40419.233   -35762.176   -18421.821    4252.1672   -7738.6715   -4797.1224     76.40122 
   44800    875.28259   -161.70376   0.79197408   -160.91179   -19353.966       4.2393       4.2393       4.2393   -19353.966    6656.8017   -36875.037   -27843.664   -1768.6524   -7887.8791    3573.7195    76.187279 
   44900    736.70868   -161.58132    0.6665895   -160.91473    607.04994    4.2338857    4.2338857    4.2338857    607.04994    30397.115   -30489.294    1913.3289   -12011.003   -670.77994    6371.8921     75.89574 
   45000    948.41247   -161.77029   0.85814354   -160.91215   -2472.6618     4.233751     4.233751     4.233751   -2472.6618    7674.8678   -10975.108   -4117.7458    5129.9664   -6240.7585    3681.7518    75.888492 
   45100    571.31917   -161.43007   0.51694159   -160.91313    13574.113    4.2414144    4.2414144    4.2414144    13574.113     26552.68    10964.947    3204.7129   -6896.7541   -8759.6296    4215.8087    76.301332 
   45200    861.82575   -161.68903   0.77979805   -160.90923   -5825.7871    4.2457121    4.2457121    4.2457121   -5825.7871    3626.3193   -6201.3775   -14902.303   -1385.8527   -11504.917    3565.0515    76.533511 
   45300     811.6464   -161.64248   0.73439472   -160.90808   -4331.3512    4.2361139    4.2361139    4.2361139   -4331.3512    17770.573   -24654.451   -6110.1764   -4611.3999   -16872.141    218.57427    76.015629 
   45400    619.12179   -161.47062    0.5601944   -160.91042   -958.69373    4.2307069    4.2307069    4.2307069   -958.69373    3996.9462   -19366.567    12493.539    3799.5489   -23239.645   -3868.8723    75.724921 
   45500    828.87363   -161.66029   0.74998228   -160.91031   -6808.9491    4.2339952    4.2339952    4.2339952   -6808.9491   -6525.9376   -14818.806    917.89605    9151.7091   -11461.082    4361.9101    75.901628 
   45600    726.72123   -161.56717   0.65755264   -160.90962   -3985.5809    4.2460255    4.2460255    4.2460255   -3985.5809   -186.76064   -2953.8682   -8816.1139   -1137.9689    -11564.79    3992.5855     76.55046 
   45700    672.72131   -161.51231   0.60869238   -160.90361    9742.1358    4.2431703    4.2431703    4.2431703    9742.1358    23119.336    3443.5624    2663.5091    5521.4664   -3537.3706   -1474.9676    76.396135 
   45800    759.76028   -161.59024   0.68744707    -160.9028     3237.283    4.2372899    4.2372899    4.2372899     3237.283    33973.652   -12250.787   -12011.016     247.1413    996.75229    7943.2174    76.078953 
   45900    572.60239   -161.42396   0.51810267   -160.90586   -7483.6806    4.2409418    4.2409418    4.2409418   -7483.6806    17144.154   -19735.881   -19859.315    714.31267   -9226.8801    1123.6207     76.27583 
   46000    695.14246   -161.53411    0.6289795   -160.90513   -2143.4301    4.2421688    4.2421688    4.2421688   -2143.4301    9810.7188   -15764.991   -476.01837     -444.031    1495.5915    -4369.371    76.342053 
   46100    821.07531   -161.64691    0.7429262   -160.90398    7016.3007    4.2409088    4.2409088    4.2409088    7016.3007    27209.804   -11689.963    5529.0614    3055.6127    9918.2814    4868.0781    76.274046 
   46200    597.07794   -161.44332   0.54024867   -160.90307    20816.088    4.2371124    4.2371124    4.2371124    20816.088    42677.223    9414.5459    10356.497    7215.3142    8003.8989   -3003.6371    76.069394 
   46300    802.94979    -161.6276   0.72652584   -160.90107   -862.09387    4.2403792    4.2403792    4.2403792   -862.09387     16756.76   -16438.215   -2904.8273   -1125.6892    4177.9924   -4479.6532    76.245475 
   46400    825.89973   -161.65028   0.74729143   -160.90299   -9189.5142    4.2426171    4.2426171    4.2426171   -9189.5142    4517.6996   -14664.668   -17421.574    6240.9952    2643.0066   -9814.2562    76.366256 
   46500     811.9462   -161.64035   0.73466599   -160.90568   -9632.4899    4.2412288    4.2412288    4.2412288   -9632.4899     7352.292   -26073.058   -10176.703     9176.286    6796.9828   -9774.2144    76.291314 
   46600     631.7853   -161.47905   0.57165262    -160.9074    6924.8153    4.2425931    4.2425931    4.2425931    6924.8153    24768.788    -3788.047   -206.29483    -227.6396    2368.1343    3365.4036    76.364962 
   46700    973.87939   -161.78588   0.88118654    -160.9047   -16049.707    4.2447615    4.2447615    4.2447615   -16049.707    -4818.655   -21038.022   -22292.443     1327.401   -895.87828     1420.104    76.482115 
   46800    781.79858   -161.60893   0.70738778   -160.90154   -3097.2454    4.2423229    4.2423229    4.2423229   -3097.2454   -15448.256   -4728.8365    10885.356   -6870.0352    -6025.099   -4629.4278    76.350374 
   46900    964.76486   -161.77508   0.87293952   -160.90214   -10891.657    4.2423899    4.2423899    4.2423899   -10891.657   -15535.609   -16686.293   -453.06831    207.30786   -8627.6184    6853.4146    76.353989 
   47000    743.51884   -161.57827   0.67275148   -160.90552   -17854.073    4.2503364    4.2503364    4.2503364   -17854.073   -6624.8111   -10967.815   -35969.594    3474.3795   -6066.1933   -1064.6514    76.783857 
   47100    704.66722   -161.54438   0.63759771   -160.90678   -561.57457    4.2374165    4.2374165    4.2374165   -561.57457     10233.31   -9565.6891   -2352.3441   -1235.2698    1.8397335   -7548.0491    76.085771 
   47200    936.24293   -161.75341   0.84713227   -160.90628     -610.077    4.2309546    4.2309546    4.2309546     -610.077    5281.4903   -8233.7812      1122.06    7996.1573    9126.6569    11760.273    75.738218 
   47300    671.63376   -161.51555   0.60770834   -160.90784   -6281.4682    4.2440981    4.2440981    4.2440981   -6281.4682    1498.9878   -15062.245   -5281.1475    3407.9248    8032.1386   -2544.3763    76.446258 
   47400    638.45537   -161.48168   0.57768783     -160.904   -1308.5653    4.2470195    4.2470195    4.2470195   -1308.5653    16514.961   -8831.3335   -11609.323    1322.1361    7548.4026   -10407.105    76.604233 
   47500    857.69759   -161.67743   0.77606281   -160.90136      4664.65    4.2398267    4.2398267    4.2398267      4664.65    32771.858   -329.84206   -18448.066    -1260.649    4055.9527    8309.5293    76.215679 
   47600    820.50268   -161.64557   0.74240806   -160.90317    8877.5625    4.2285343    4.2285343    4.2285343    8877.5625    23519.766    4690.1057   -1577.1846    3900.3748    9833.3251    6580.3342    75.608317 
   47700    669.36012   -161.51202   0.60565111   -160.90637    506.18136    4.2323582    4.2323582    4.2323582    506.18136    10992.762    84.574843   -9558.7929    10712.134    4752.7881    7244.1291     75.81362 
   47800    763.85886   -161.59828   0.69115555   -160.90712   -10796.668     4.248479     4.248479     4.248479   -10796.668   -419.71507   -26200.439   -5769.8494   -1913.1268    2973.8596    4082.3576    76.683235 
   47900    826.52375   -161.64823   0.74785605   -160.90038   -11468.344    4.2515083    4.2515083    4.2515083   -11468.344    3150.6813   -31636.271   -5919.4419   -1044.1311     4335.881   -11847.583    76.847387 
   48000    784.62883   -161.60776   0.70994866   -160.89781    7528.1976    4.2314208    4.2314208    4.2314208    7528.1976    23178.796    5493.7548   -6087.9578   -5337.9147   -6065.7993   -5674.2507    75.763261 
   48100    541.35809   -161.39053   0.48983218   -160.90069    16782.705    4.2256055    4.2256055    4.2256055    16782.705    21139.306    30094.785   -885.97468   -5699.4396    5158.0111    -6225.747    75.451322 
   48200    807.91573   -161.63496   0.73101913   -160.90394   -4325.8711    4.2395346    4.2395346    4.2395346   -4325.8711    1906.1829    1927.0701   -16810.866    1507.8278    2880.7911    3837.4227    76.199924 
   48300    809.30443    -161.6374   0.73227565   -160.90513   -519.69122    4.2486318    4.2486318    4.2486318   -519.69122    9885.3822   -22375.561    10931.105    1289.0459   -5172.3731    8180.8274    76.691511 
   48400    592.24355   -161.44111   0.53587441   -160.90523   -3641.9184    4.2480412    4.2480412    4.2480412   -3641.9184    15221.067    -29552.96    3406.1376   -941.37312   -5708.9776   -13233.044    76.659529 
   48500     798.4647   -161.62488   0.72246764   -160.90241   -10774.452    4.2365415    4.2365415    4.2365415   -10774.452   -8169.5516   -14226.075    -9927.729   -5139.7732    -4548.234    726.62033    76.038652 
   48600    741.27198   -161.57389   0.67071847   -160.90317   -1768.4695    4.2285294    4.2285294    4.2285294   -1768.4695   -14644.774    10482.459    -1143.094   -2684.4476   -13249.015   -3238.0886    75.608052 
   48700     678.8643   -161.52021   0.61425068   -160.90596   -10181.964    4.2391502    4.2391502    4.2391502   -10181.964   -24113.995    1884.3064   -8316.2036   -10579.189    -2393.919   -10126.611    76.179201 
   48800    679.47289   -161.51672   0.61480135   -160.90192    -9291.752    4.2479031    4.2479031    4.2479031    -9291.752    13952.605   -13630.379   -28197.481   -11433.035    380.42828    5107.5943    76.652057 
   48900    488.23159   -161.34307    0.4417622   -160.90131     425.3045    4.2489095    4.2489095    4.2489095     425.3045     24944.35   -20050.718   -3617.7188   -4953.0781   -3765.5265   -3675.7159    76.706551 
   49000    595.12869   -161.43918   0.53848494    -160.9007    16308.143    4.2303834    4.2303834    4.2303834    16308.143    7425.0271    8661.1589    32838.242   -14726.612    4895.6068   -7413.4384    75.707551 
   49100    837.87079    -161.6571    0.7581231   -160.89897    11911.504    4.2202921    4.2202921    4.2202921    11911.504    5270.1569    15042.092    15422.262   -22271.537   -2135.3994    4600.3872    75.167054 
   49200    389.61264   -161.26033   0.35252971    -160.9078     1476.308    4.2393595    4.2393595    4.2393595     1476.308   -12381.208    11984.069     4826.063   -21343.329   -493.66845   -471.39426    76.190483 
   49300    592.26532   -161.44024   0.53589411   -160.90434   -4413.2279    4.2467321    4.2467321    4.2467321   -4413.2279   -1147.7134   -12465.753    373.78268   -13599.658   -3414.9441   -6680.3551     76.58868 
   49400    853.20638   -161.67413   0.77199906   -160.90213   -7342.9769    4.2418227    4.2418227    4.2418227   -7342.9769    19457.268   -27407.782   -14078.417   -5737.4033    1482.2983    -12360.74    76.323371 
   49500    497.33081   -161.35533   0.44999537   -160.90534    8166.1394    4.2367287    4.2367287    4.2367287    8166.1394    5769.7765    8295.0043    10433.637   -241.27942    5781.8728   -8406.6892    76.048729 
   49600     667.8787   -161.50906   0.60431069   -160.90475    1360.9355    4.2330583    4.2330583    4.2330583    1360.9355    1279.8531     6946.803   -4143.8494     2981.261   -2010.1928    3383.5035    75.851252 
   49700    618.39685   -161.46654   0.55953846   -160.90701    2832.3699    4.2363746    4.2363746    4.2363746    2832.3699   -14276.848    21128.103    1645.8539   -7587.7438   -10776.221   -1528.8103    76.029661 
   49800    651.27459   -161.49572   0.58928694   -160.90643    1460.7604    4.2429758    4.2429758    4.2429758    1460.7604   -12194.742    26762.809   -10185.786    349.17866   -4295.7021    7728.4788    76.385629 
   49900    684.66656   -161.52571   0.61950069   -160.90621    -7099.364    4.2447448    4.2447448    4.2447448    -7099.364    4361.9778    11970.642   -37630.711    267.55733   -7952.3673   -4726.2381    76.481211 
   50000    440.36967   -161.30735   0.39845573   -160.90889   -3911.2056    4.2419636    4.2419636    4.2419636   -3911.2056   -7710.3281    18748.496   -22771.785   -3869.7563    2771.5333   -8620.5027    76.330974 
   50100    708.76668   -161.55033   0.64130699   -160.90903    3961.3316    4.2289018    4.2289018    4.2289018    3961.3316    3177.1294    1682.7787    7024.0868   -2458.0613    11979.134    4711.4546    75.628031 
   50200    728.52086   -161.56994   0.65918098   -160.91076    -486.6939    4.2364637    4.2364637    4.2364637    -486.6939   -7334.2863    3180.0917     2694.113   -7172.0932   -6369.3278    -6137.851    76.034462 
   50300    575.19889   -161.42719   0.52045205   -160.90674    -3195.525    4.2489135    4.2489135    4.2489135    -3195.525    3549.2713    16684.224    -29820.07   -665.27139    3010.9519   -1169.4339    76.706767 
   50400    593.82001   -161.44402   0.53730083   -160.90672    3034.3801    4.2432426    4.2432426    4.2432426    3034.3801    18351.694    17412.538   -26661.092    3636.1948    8629.6069   -1908.4293     76.40004 
   50500    706.59236   -161.54793   0.63933962   -160.90859   -5924.3017    4.2410572    4.2410572    4.2410572   -5924.3017    4740.3417   -6139.6661   -16373.581     197.2459    1987.9581   -7629.8364    76.282054 
   50600    981.04528   -161.79202   0.88767039   -160.90435   -23150.639    4.2383107    4.2383107    4.2383107   -23150.639    -29023.69    -13026.53   -27401.696    11707.033    8900.1104   -982.50212     76.13395 
   50700    587.04987   -161.43885   0.53117506   -160.90767    2944.1407    4.2409119    4.2409119    4.2409119    2944.1407   -12428.731    12177.869    9083.2839    9923.2786     4246.397   -3378.0163    76.274217 
   50800    682.95924   -161.52694   0.61795587   -160.90899   -2301.2374    4.2521093    4.2521093    4.2521093   -2301.2374    -6959.856    4859.2975   -4803.1538    2201.1296    886.21279   -2388.3365     76.87998 
   50900    857.89806   -161.68056    0.7762442   -160.90432   -10641.323    4.2450098    4.2450098    4.2450098   -10641.323    3618.4127   -21939.856   -13602.525     3487.031    766.08207   -12459.073    76.495538 
   51000    622.66359   -161.46476    0.5633991   -160.90136    -2014.393    4.2365222    4.2365222    4.2365222    -2014.393    9522.0435   -14576.576   -988.64676   -308.35715    -1010.368   -20773.875    76.037608 
   51100    794.10925   -161.61901   0.71852674   -160.90049   -23102.652    4.2444883    4.2444883    4.2444883   -23102.652    -35346.62   -1084.3796   -32876.956    2839.6975    1991.3369    1101.9443    76.467346 
   51200    740.68681   -161.57317   0.67018899   -160.90298   -4576.6412    4.2459548    4.2459548    4.2459548   -4576.6412   -18913.258    11415.541    -6232.207    6508.6499   -2170.2063    2079.4197    76.546635 
   51300    876.60595   -161.69897   0.79317148    -160.9058    -17343.62    4.2454178    4.2454178    4.2454178    -17343.62   -2925.6868   -25132.952   -23972.221    6130.9206   -3448.9065    7166.4727    76.517596 
   51400    495.54837   -161.35799   0.44838258   -160.90961    4107.6784    4.2430851    4.2430851    4.2430851    4107.6784    21622.976   -13577.735    4277.7942    7566.7496    -3150.171   -3135.7213    76.391534 
   51500    874.94133    -161.7003    0.7916653   -160.90863   -12739.224    4.2468961    4.2468961    4.2468961   -12739.224   -12282.579    -21121.38   -4813.7126    7900.4825   -7088.6117     5721.038    76.597558 
   51600    760.18548   -161.59562    0.6878318   -160.90779   -5472.6746     4.248825     4.248825     4.248825   -5472.6746   -28037.748    17302.187   -5682.4629    5841.7793   -4403.1831    6808.3499    76.701973 
   51700    767.61854   -161.60136   0.69455738    -160.9068    -20041.34    4.2436729    4.2436729    4.2436729    -20041.34   -20042.119   -7115.8032   -32966.098    3530.3463    9321.9432    2536.9568    76.423287 
   51800    578.43222   -161.43002   0.52337763   -160.90665   -8984.7374    4.2350363    4.2350363    4.2350363   -8984.7374    12105.372   -10075.411   -28984.173    4884.3279   -150.04993    25789.483    75.957632 
   51900    814.98737   -161.64298    0.7374177   -160.90557   -10226.732    4.2400386    4.2400386    4.2400386   -10226.732    9384.7648   -21951.279   -18113.682   -1870.5034      2990.81     14834.95    76.227107 
   52000    568.12063   -161.42264   0.51404748    -160.9086    18755.154    4.2453901    4.2453901    4.2453901    18755.154    17011.317    32189.938    7064.2067    874.74713    814.88247    8978.2523    76.516099 
   52100    581.37353   -161.43031   0.52603898   -160.90428    4315.5922    4.2495661    4.2495661    4.2495661    4315.5922   -6147.3943    11815.244    7278.9271   -2298.8737   -1300.5954    6864.3812    76.742113 
   52200    888.05133   -161.70834   0.80352751   -160.90482   -13570.699    4.2391487    4.2391487    4.2391487   -13570.699   -10858.269   -10740.625   -19113.204   -1625.6785   -3382.2782    7444.4249    76.179119 
   52300    565.42592   -161.42162   0.51160925   -160.91001   -1809.5565    4.2378167    4.2378167    4.2378167   -1809.5565   -2790.6898    6285.1827   -8923.1625   -623.25813    9000.3166    16620.895    76.107332 
   52400    840.38046   -161.66604    0.7603939   -160.90564    -17486.22    4.2439347    4.2439347    4.2439347    -17486.22   -11139.718   -9383.4628   -31935.479   -8037.2871    17180.761   -3697.2681    76.437432 
   52500    612.50944   -161.45766   0.55421141   -160.90345     2430.751    4.2490465    4.2490465    4.2490465     2430.751    2312.7424     24693.92   -19714.409    2642.4706    5163.9525    450.90751    76.713968 
   52600    726.99534   -161.56196   0.65780066   -160.90416   -2785.4234    4.2523708    4.2523708    4.2523708   -2785.4234   -5807.2881    1629.1715   -4178.1537     6239.254   -939.96869   -673.61325    76.894164 
   52700    817.89624   -161.64608    0.7400497   -160.90603    2257.8943    4.2410069    4.2410069    4.2410069    2257.8943    5348.5157    12637.518    -11212.35    1891.1698    970.66297   -5486.2803     76.27934 
   52800    795.94557   -161.62924   0.72018828   -160.90905   -6170.7269    4.2381575    4.2381575    4.2381575   -6170.7269   -2025.5408    10020.571   -26507.211    6488.4884   -8.1259805    3000.9475    76.125695 
   52900    595.90329   -161.45003   0.53918582   -160.91084   -1898.3017    4.2470685    4.2470685    4.2470685   -1898.3017   -20938.527    31737.402   -16493.779    5961.1197    3065.6565    488.63493    76.606882 
   53000    787.37907    -161.6189   0.71243713   -160.90647   -3006.0185     4.247928     4.247928     4.247928   -3006.0185   -36634.253    26097.308    1518.8889   -5038.7664    7827.3382    8772.7698    76.653402 
   53100    728.85208     -161.566   0.65948068   -160.90651   -4783.6128    4.2466929    4.2466929    4.2466929   -4783.6128   -21842.658    9526.2295   -2034.4096    -8098.068    3267.0415   -1248.9863    76.586559 
   53200    634.43344   -161.47991   0.57404871   -160.90586    18265.067     4.239167     4.239167     4.239167    18265.067   -7291.9231    39427.999    22659.125   -11545.133    557.24011    8929.4737    76.180107 
   53300    796.94453   -161.62606   0.72109216   -160.90497    10035.294    4.2392935    4.2392935    4.2392935    10035.294   -13181.371    40666.574     2620.678   -6208.5458   -3286.5266     6884.808    76.186925 
   53400    751.75068   -161.58897   0.68019981   -160.90877   -1546.2178    4.2516323    4.2516323    4.2516323   -1546.2178   -9675.1514    12238.439   -7201.9411     3655.945   -2998.2156    4322.3216     76.85411 
   53500    728.83312   -161.56343   0.65946353   -160.90397    2697.2384    4.2488163    4.2488163    4.2488163    2697.2384   -21114.326     54527.95   -25321.908    2977.6856    2411.9795    1256.9331    76.701499 
   53600    520.01795   -161.37647   0.47052317   -160.90595    13132.519     4.238308     4.238308     4.238308    13132.519    -7184.107    71516.261   -24934.597    8273.6002    5552.2242   -10599.605    76.133806 
   53700    533.31849   -161.39444   0.48255778   -160.91188    8610.6566    4.2422452    4.2422452    4.2422452    8610.6566   -22649.932    57183.365   -8701.4637    8813.3285      9250.31    2352.9895    76.346178 
   53800    850.12749   -161.68095   0.76921322   -160.91173   -6811.2781    4.2459858    4.2459858    4.2459858   -6811.2781    -32788.25    36909.966    -24555.55    4953.1156   -256.53592   -8419.2636    76.548309 
   53900    595.66308   -161.45345   0.53896847   -160.91449    10546.033    4.2446232    4.2446232    4.2446232    10546.033   -9398.3237    37859.022    3177.4003    8390.3303   -204.49571   -2183.8524     76.47464 
   54000    732.95283   -161.57772   0.66319112   -160.91453      7743.01     4.242939     4.242939     4.242939      7743.01   -20919.408    50499.892   -6351.4534    3570.4541    8316.3341   -15.412211    76.383641 
   54100    685.87609   -161.53164    0.6205951   -160.91104    5916.1149    4.2397212    4.2397212    4.2397212    5916.1149   -3757.7357    41990.725   -20484.645    -1096.108   -2307.5824   -6594.9055    76.209991 
   54200    814.94074   -161.64822   0.73737551   -160.91085   -11413.148    4.2393196    4.2393196    4.2393196   -11413.148   -6299.6046    14280.464   -42220.304   -6606.0474    5075.6208    1697.7989    76.188335 
   54300    749.03508   -161.58898   0.67774268   -160.91124   -6942.8339    4.2456215    4.2456215    4.2456215   -6942.8339   -21515.101    25244.455   -24557.855    1151.8798      6158.32    4972.4541    76.528608 
   54400    706.63939   -161.54985   0.63938217   -160.91046    1154.0527    4.2452337    4.2452337    4.2452337    1154.0527   -35927.743    34530.057    4859.8442    6276.8295   -1948.4192    8605.2086    76.507641 
   54500    849.16275   -161.67596    0.7683403   -160.90762    9047.7768    4.2334993    4.2334993    4.2334993    9047.7768   -15212.349    21515.707    20839.973    3693.8012    5905.5863    4336.4725    75.874962 
   54600    652.33618   -161.50121   0.59024749   -160.91096    10516.263    4.2377124    4.2377124    4.2377124    10516.263   -1938.0159    36167.452   -2680.6471    4499.4953   -1940.5657    6725.0165    76.101712 
   54700    636.82287   -161.48311   0.57621072    -160.9069   -1100.4203    4.2421452    4.2421452    4.2421452   -1100.4203   -7260.4355    22195.896   -18236.721    4727.8163   -6059.0367    9782.1847    76.340781 
   54800    711.82753   -161.54849   0.64407651   -160.90442    4257.2651    4.2412865    4.2412865    4.2412865    4257.2651   -13755.564    34835.482   -8308.1225    10715.415   -1956.7542    8927.4533    76.294432 
   54900    663.63548   -161.50842   0.60047133   -160.90795    1272.2612    4.2449838    4.2449838    4.2449838    1272.2612   -32834.763    41441.195   -4789.6481    7652.3175   -8150.3075    5493.9286    76.494129 
   55000    621.59629   -161.46745   0.56243339   -160.90502    4694.8037    4.2390414    4.2390414    4.2390414    4694.8037   -14031.001    29513.655    -1398.243   -409.03933   -2.9239735   -8284.7202    76.173334 
   55100    700.09183    -161.5423    0.6334578   -160.90884   -3969.7204    4.2467494    4.2467494    4.2467494   -3969.7204   -38332.994    29216.075   -2792.2426    2498.4766    5289.2525    1715.8779    76.589617 
   55200    611.73188   -161.46489   0.55350786   -160.91139   -4055.4515    4.2520861    4.2520861    4.2520861   -4055.4515   -29066.079    30063.128   -13163.403   -1747.9621   -3551.4965   -8501.6232    76.878719 
   55300     655.7417   -161.50288   0.59332888   -160.90956    2763.8464    4.2418132    4.2418132    4.2418132    2763.8464   -11734.738    33517.991   -13491.713   -767.29095    1405.2581   -11791.965    76.322858 
   55400    512.23287   -161.37573   0.46347906   -160.91225    1372.8065    4.2450017    4.2450017    4.2450017    1372.8065   -33177.267    17217.152    20078.535    5402.0914   -1933.6374   -6129.6344    76.495097 
   55500     860.7392   -161.68574   0.77881492   -160.90692   -19981.386    4.2449861    4.2449861    4.2449861   -19981.386   -46810.716   -12329.645   -803.79732    7458.7008   -3319.5128   -5579.1337    76.494254 
   55600    476.76351   -161.33685   0.43138564   -160.90546    10285.323    4.2401398    4.2401398    4.2401398    10285.323   -12228.193    18684.871    24399.292    689.91682    4707.0821   -9885.1579    76.232566 
   55700    546.71956   -161.40324   0.49468335   -160.90856   -967.11642    4.2482062    4.2482062    4.2482062   -967.11642   -31118.846    30041.884   -1824.3873   -5074.4931    6536.8123    2244.6228    76.668465 
   55800    652.14133   -161.49627   0.59007118    -160.9062   -9749.0378    4.2444624    4.2444624    4.2444624   -9749.0378   -30784.325   -12565.598     14102.81   -10165.469    1643.5033    6111.9276     76.46595 
   55900    382.63624   -161.25133   0.34621731   -160.90512    1311.3802    4.2345724    4.2345724    4.2345724    1311.3802   -36995.494   -12207.644    53137.279   -9560.6801     1416.421   -1110.0776    75.932675 
   56000     595.9436   -161.44973   0.53922229   -160.91051   -3538.7891     4.240514     4.240514     4.240514   -3538.7891   -19069.909    8406.8674    46.673765    560.61589   -820.23589    10353.128    76.252748 
   56100     359.2069   -161.23661   0.32501795   -160.91159    13122.465    4.2445978    4.2445978    4.2445978    13122.465   -20382.466    50798.896    8950.9659    -2065.992    -9537.541    8126.7265    76.473268 
   56200    509.48144   -161.36891   0.46098951   -160.90792    2439.6004    4.2359226    4.2359226    4.2359226    2439.6004   -27541.547    13230.146    21630.203    -9266.284    -79.96414    5968.7217    76.005331 
   56300     600.7604   -161.44909   0.54358064   -160.90551   -7595.7186    4.2340499    4.2340499    4.2340499   -7595.7186   -26903.435   -11976.769    16093.047   -8622.5593    129.00047   -3545.3363     75.90457 
   56400    373.22424   -161.24577   0.33770114   -160.90807    14303.808    4.2410377    4.2410377    4.2410377    14303.808   -21558.463     25472.32    38997.568   -2001.1505   -1737.8683    5436.9096    76.281005 
   56500    686.37278   -161.52698   0.62104452   -160.90593    355.29241    4.2464703    4.2464703    4.2464703    355.29241   -31703.935     42926.82   -10157.008   -7449.6665    4541.7335     3668.687    76.574516 
   56600    476.15056   -161.34053   0.43083103    -160.9097    16541.658     4.241536     4.241536     4.241536    16541.658   -20649.564    51174.584    19099.955   -6064.4402    1248.5767     2427.551    76.307893 
   56700    609.53175   -161.46383   0.55151714   -160.91231    -2989.857     4.245144     4.245144     4.245144    -2989.857   -38017.357    12750.727    16297.058   -3549.8743   -2136.6672    8846.7202    76.502789 
   56800    826.53688   -161.65716   0.74786794   -160.90929   -21573.015    4.2436513    4.2436513    4.2436513   -21573.015   -32737.279   -4095.7969   -27885.969   -3625.4333   -699.61533   -3156.1627    76.422121 
   56900     519.5751   -161.37817   0.47012247   -160.90805    9283.2356    4.2338543    4.2338543    4.2338543    9283.2356   -17014.987    29284.149    15580.545    2886.6765   -6555.6645   -2949.4379     75.89405 
   57000    703.49973   -161.54268   0.63654134   -160.90614    3155.1134    4.2395428    4.2395428    4.2395428    3155.1134   -18512.681     34296.57   -6318.5489    1124.2598    1777.2128    3515.1154    76.200367 
   57100    580.03218   -161.43181    0.5248253   -160.90698    797.61818     4.242484     4.242484     4.242484    797.61818   -25799.796    27887.262    305.38814    4052.3235    1094.5218    7153.2065    76.359072 
   57200    628.85197   -161.47584   0.56899847   -160.90684   -5319.4362    4.2386238    4.2386238    4.2386238   -5319.4362   -26361.922    3322.3225    7081.2913    13392.167    -1950.536    796.74125    76.150826 
   57300    719.07311   -161.55706   0.65063246   -160.90643   -12840.388    4.2364555    4.2364555    4.2364555   -12840.388   -20474.547    -5176.734   -12869.882    3957.7546    8418.4054    4109.3148    76.034017 
   57400    426.14609   -161.29749   0.38558594   -160.91191    6949.5632    4.2358513    4.2358513    4.2358513    6949.5632   -11970.072    19814.351    13004.411    521.43147    3028.4163    5033.9189     76.00149 
   57500    655.21296   -161.50546   0.59285046   -160.91261   -5375.9798    4.2399207    4.2399207    4.2399207   -5375.9798   -1544.8883    7254.1671   -21837.218    5301.6824    386.01465   -7485.4665    76.220748 
   57600    511.43124   -161.37745   0.46275373    -160.9147    4717.9906    4.2365465    4.2365465    4.2365465    4717.9906   -11636.882     12836.49    12954.363    5399.5527    3722.4877    -10521.47    76.038917 
   57700    683.22836   -161.53256   0.61819937   -160.91436   -1480.8582    4.2390388    4.2390388    4.2390388   -1480.8582   -16864.952    19191.869   -6769.4923    6913.3962   -1470.8133   -2039.9146    76.173193 
   57800    558.53458   -161.41574   0.50537383   -160.91037    3557.0566    4.2368612    4.2368612    4.2368612    3557.0566   -13758.783    33508.225   -9078.2725    3158.2066   -2158.2188   -2514.3705    76.055867 
   57900    687.47569   -161.53085   0.62204245   -160.90881    25.371012    4.2313646    4.2313646    4.2313646    25.371012    7729.5845     14663.59   -22317.061    3274.6785    5121.4388   -1642.8257    75.760241 
   58000    651.93954   -161.50211    0.5898886   -160.91222   -1092.6902    4.2368852    4.2368852    4.2368852   -1092.6902    3719.2348   -14431.345    7434.0395    5354.7969   -5128.8414    775.74724     76.05716 
   58100    659.14975   -161.50822   0.59641255    -160.9118   -6728.5035    4.2436043    4.2436043    4.2436043   -6728.5035   -31770.027   -2005.0682    13589.585   -1137.4831    2143.8214    4059.3114     76.41958 
   58200    818.85358   -161.64876   0.74091593   -160.90785    -7293.739    4.2379473    4.2379473    4.2379473    -7293.739   -23214.558    19096.435   -17763.094    2755.8329    334.04789    1381.9038    76.114369 
   58300    611.00431   -161.46079   0.55284954   -160.90794    4130.3511    4.2332313    4.2332313    4.2332313    4130.3511   -10421.735    27919.445   -5106.6573    5875.6401   -6090.8601    8564.2275     75.86055 
   58400    874.15729   -161.69777   0.79095589   -160.90681   -3732.9112    4.2298793    4.2298793    4.2298793   -3732.9112   -9736.3053    8818.8253   -10281.254   -1677.5183   -3223.3238     4725.064    75.680487 
   58500    705.59309   -161.54553   0.63843546   -160.90709    11641.004    4.2327787    4.2327787    4.2327787    11641.004    8005.7874    3480.7327    23436.491   -2299.1502   -4768.1235   -9000.9346    75.836223 
   58600    715.21826   -161.55375   0.64714452    -160.9066   -796.22183    4.2439873    4.2439873    4.2439873   -796.22183   -12115.486    5452.6215    4274.1992   -628.81129   -8034.2683   -2719.2481    76.440273 
   58700    871.87485   -161.69217   0.78889069   -160.90327   -16939.966    4.2431388    4.2431388    4.2431388   -16939.966   -17963.245   -9266.0159   -23590.637   -3457.4053    2782.4696    11102.163    76.394431 
   58800     663.6227   -161.50463   0.60045976   -160.90417   -5733.9951     4.231954     4.231954     4.231954   -5733.9951   -15185.101    -8547.627    6530.7429   -9619.1246   -4408.5092    2817.5134    75.791906 
   58900    832.18965   -161.65933   0.75298268   -160.90634   -3940.7481    4.2274828    4.2274828    4.2274828   -3940.7481   -18215.144   -1715.5092    8108.4086    -14517.38    211.78335     -4819.09    75.551927 
   59000    647.82646   -161.49546     0.586167    -160.9093    13710.892    4.2367797    4.2367797    4.2367797    13710.892   -1764.7441     11653.17     31244.25    -10937.21    1431.0395    7598.7814    76.051478 
   59100     790.2321    -161.6215   0.71501861   -160.90648   -76.417336    4.2483611    4.2483611    4.2483611   -76.417336   -9179.6074     10075.99   -1125.6349   -7875.0481   -8947.1692    3570.7017    76.676853 
   59200    875.61754   -161.69847   0.79227715   -160.90619   -14790.783    4.2414661    4.2414661    4.2414661   -14790.783   -11183.651   -12768.377    -20420.32   -9484.9059    2681.6441   -1063.8067    76.304122 
   59300    690.02088    -161.5319    0.6243454   -160.90755   -3379.3512     4.223665     4.223665     4.223665   -3379.3512   -7038.7249    8766.8576   -11866.186   -13201.304   -1141.9066   -5184.2202    75.347423 
   59400    952.61559   -161.77005   0.86194661    -160.9081   -12950.311    4.2336805    4.2336805    4.2336805   -12950.311   -16698.422    509.44623   -22661.956   -5483.1214   -4493.1147    6107.8757    75.884705 
   59500    935.36594   -161.74985   0.84633876   -160.90351   -8348.2174    4.2462743    4.2462743    4.2462743   -8348.2174   -30542.181    12572.768   -7075.2396   -6533.9542   -3049.3728     6341.517    76.563914 
   59600    843.25048   -161.66237   0.76299075   -160.89938   -6946.2175    4.2482226    4.2482226    4.2482226   -6946.2175   -24145.251    5344.0286   -2037.4298   -2617.5425   -4396.3353   -3894.0494    76.669351 
   59700    841.39968    -161.6687   0.76131611   -160.90738   -7601.5914    4.2453572    4.2453572    4.2453572   -7601.5914   -10686.666    6668.0915     -18786.2    1423.0205   -878.74276    4576.7852    76.514319 
   59800     995.8057   -161.81204   0.90102593   -160.91101    8912.1386    4.2281689    4.2281689    4.2281689    8912.1386    3004.9884    40313.719   -16582.292    818.89895    4362.8245    5700.5009    75.588721 
   59900    798.75794   -161.63803   0.72273297    -160.9153    6163.8687    4.2374805    4.2374805    4.2374805    6163.8687   -16602.443    42496.094    -7402.045    8444.2971   -1823.5417    1548.7075    76.089222 
   60000    747.13623   -161.58652   0.67602456    -160.9105   -13660.302    4.2529119    4.2529119    4.2529119   -13660.302   -37144.746    32512.265   -36348.425    5532.7104    -2722.052    -4414.903    76.923522 
   60100    531.66374   -161.39607   0.48106053   -160.91501    5683.4454    4.2466436    4.2466436    4.2466436    5683.4454   -26244.542    72805.547   -29510.669    2746.0468    4113.5324    1951.7994    76.583896 
   60200    752.50343   -161.59701   0.68088092   -160.91613    4365.4267    4.2413383    4.2413383    4.2413383    4365.4267   -24834.754      72533.9   -34602.866    3407.0293    80.383734     10082.36    76.297224 
   60300    554.15229   -161.42259   0.50140864   -160.92118    12380.275    4.2429312    4.2429312    4.2429312    12380.275   -34656.004    95834.217   -24037.388   -6015.7765    2879.5452    78.317498    76.383222 
   60400    652.72567   -161.51529    0.5905999   -160.92469    2608.2427    4.2461894    4.2461894    4.2461894    2608.2427   -35038.778    70752.447   -27888.941   -3841.8177    6699.2428   -42.240377    76.559321 
   60500    617.27245   -161.48309   0.55852109   -160.92457    14032.746    4.2414896    4.2414896    4.2414896    14032.746   -6159.9439     60327.78     -12069.6   -14922.693    1997.0314   -8086.7489     76.30539 
   60600    767.38049   -161.61441     0.694342   -160.92006    7279.7885    4.2387765    4.2387765    4.2387765    7279.7885   -10993.601    48524.558   -15691.591   -439.07754   -175.00432   -1646.8931    76.159056 
   60700    835.93305   -161.67398   0.75636979   -160.91761   -18996.477     4.252032     4.252032     4.252032   -18996.477   -39669.738    14965.131   -32284.822   -6827.1959    1125.3435     2087.776    76.875784 
   60800    808.49322   -161.64851   0.73154165   -160.91697   -10946.075    4.2467139    4.2467139    4.2467139   -10946.075   -20724.585     17760.22   -29873.861   -2098.8381   -2041.7383   -3291.2104    76.587699 
   60900    737.32597      -161.58   0.66714803   -160.91285     2644.885    4.2369583    4.2369583    4.2369583     2644.885   -6099.2962    4057.1089    9976.8424   -617.51343   -3835.4267    74.237933    76.061095 
   61000     801.9732   -161.63682   0.72564221   -160.91118   -9092.6149    4.2387532    4.2387532    4.2387532   -9092.6149   -22299.862   -4933.5554   -44.427096   -5931.9295   -1132.2138     8325.527    76.157803 
   61100    797.56579    -161.6332   0.72165429   -160.91155   -15405.776    4.2467096    4.2467096    4.2467096   -15405.776   -30002.237    4323.4151   -20538.506    7660.2015   -3945.5203    4248.7547    76.587463 
   61200    769.67589    -161.6103   0.69641892   -160.91388   -10746.786    4.2506759    4.2506759    4.2506759   -10746.786   -21769.788    21963.721    -32434.29    6860.4155    621.02052    -2382.919    76.802258 
   61300    723.81101   -161.56749   0.65491941   -160.91257    9252.7849    4.2327051    4.2327051    4.2327051    9252.7849    3589.4841    20506.895    3661.9757    9721.6371    -672.7425     1411.607    75.832265 
   61400    693.44072   -161.53649   0.62743974   -160.90905    580.48041    4.2284359    4.2284359    4.2284359    580.48041   -461.62857   -11440.436    13643.506    2886.9475   -2082.8718    11237.294    75.603037 
   61500    610.18678      -161.46   0.55210982   -160.90789   -10877.388    4.2457489    4.2457489    4.2457489   -10877.388   -4504.4614   -24542.062    -3585.642    -4914.913   -2568.3603    4608.3126    76.535499 
   61600    759.24927   -161.59152   0.68698469   -160.90454   -5190.5436    4.2504166    4.2504166    4.2504166   -5190.5436   -423.28517    1086.1739    -16234.52    283.41748   -1768.4007   -7028.0767    76.788201 
   61700     706.6649   -161.54157   0.63940525   -160.90217   -3992.3765    4.2500475    4.2500475    4.2500475   -3992.3765   -18746.849    24367.997   -17598.277     3050.819   -753.31132    97.322822      76.7682 
   61800    915.88492   -161.72791   0.82871192    -160.8992    7738.2926    4.2292611    4.2292611    4.2292611    7738.2926   -8835.5499    20174.283    11876.145    4981.6225   -2432.1196    5656.2948    75.647311 
   61900    959.90008   -161.76943   0.86853777   -160.90089    8391.6567    4.2236844    4.2236844    4.2236844    8391.6567    12126.843    6623.9151    6424.2124    7144.5838    967.67773    -9201.329    75.348458 
   62000    810.73294   -161.63818    0.7335682   -160.90461    -21457.12    4.2518174    4.2518174    4.2518174    -21457.12   -16702.265   -22861.581   -24807.513   -2514.0032     4423.076   -4036.6219    76.864149 
   62100    1134.2873   -161.92328    1.0263269   -160.89695   -37507.661    4.2543587    4.2543587    4.2543587   -37507.661   -41855.672   -32897.795   -37769.517    2205.4025     874.0297    11113.137    77.002052 
   62200    731.10866   -161.56303   0.66152248   -160.90151    -1908.479    4.2425489    4.2425489    4.2425489    -1908.479   -9234.0492    1224.9565    2283.6556   -6670.7724   -400.17482   -3537.0326    76.362573 
   62300    983.88635   -161.79142   0.89024104   -160.90118    6113.6564    4.2275404    4.2275404    4.2275404    6113.6564    15897.846   -1483.7019     3926.825   -2068.6199   -8343.4365   -6821.3269    75.555018 
   62400     904.1743   -161.72173   0.81811591   -160.90362    22326.993    4.2245374    4.2245374    4.2245374    22326.993    32886.555    14543.019    19551.404    1575.2333   -5212.6742    6667.8947    75.394123 
   62500    651.68389   -161.49953   0.58965728   -160.90987    2116.8087    4.2514615    4.2514615    4.2514615    2116.8087   -4599.7386      10151.2    798.96479   -1348.6859   -6420.4559    4258.7483    76.844849 
   62600    805.70589   -161.62932   0.72901962    -160.9003   -15047.991    4.2537001    4.2537001    4.2537001   -15047.991   -3209.7097   -17921.137   -24013.127    -5489.872   -7588.1055    5160.7715    76.966301 
   62700    623.65999   -161.45937   0.56430066   -160.89507   -7451.4787    4.2397602    4.2397602    4.2397602   -7451.4787    7264.8002   -25825.013   -3794.2231   -1497.8854    -7189.641    12123.509    76.212093 
   62800    603.18236   -161.44308   0.54577208   -160.89731   -11506.801    4.2298979    4.2298979    4.2298979   -11506.801    -10686.54   -21039.409   -2794.4527   -19026.123   -6144.7894      9696.06    75.681487 
   62900    631.77622    -161.4742    0.5716444   -160.90255    14836.878    4.2255123    4.2255123    4.2255123    14836.878    6036.2053    15983.627    22490.802   -6656.2372   -11538.871     -4388.73     75.44633 
   63000     564.6263   -161.41883   0.51088574   -160.90794    10869.214    4.2453545    4.2453545    4.2453545    10869.214    8712.9698    34563.815   -10669.145   -2294.7701   -9499.6078   -440.29156    76.514173 
   63100    444.83968   -161.30784   0.40250029   -160.90534    1146.4779     4.249303     4.249303     4.249303    1146.4779    3591.6363    14431.432   -14583.635   -6806.8828   -4676.9708    8328.4375    76.727864 
   63200    565.98573   -161.41477   0.51211578   -160.90265   -7893.8348     4.234698     4.234698     4.234698   -7893.8348   -18771.221   -9907.1187    4996.8351   -2167.5557   -11981.569    2256.5239    75.939429 
   63300    566.70359   -161.41809   0.51276532   -160.90532   -9545.6195    4.2333419    4.2333419    4.2333419   -9545.6195   -35195.467     -3569.71    10128.319    -15844.79   -12696.868   -6655.7918    75.866499 
   63400    582.15133    -161.4338   0.52674275   -160.90706    8458.1498    4.2352806    4.2352806    4.2352806    8458.1498    574.32841    13219.606    11580.515    -9012.402   -5887.4219   -1070.0406    75.970776 
   63500    476.79464   -161.33775   0.43141381   -160.90634    8718.8472    4.2437961    4.2437961    4.2437961    8718.8472    20896.885    28320.514   -23060.857   -5540.4666   -5137.7157    50.928933    76.429941 
   63600    603.62625   -161.44999   0.54617371   -160.90382    1652.3419    4.2460024    4.2460024    4.2460024    1652.3419    2584.2278    19650.311   -17277.513   -9090.2319   -12101.282    135.49302    76.549207 
   63700    623.14073   -161.47153   0.56383082    -160.9077    15354.411    4.2352994    4.2352994    4.2352994    15354.411    20768.404    810.27998    24484.548   -1979.9983   -3354.7479    7663.8319    75.971787 
   63800    728.05902   -161.56715    0.6587631   -160.90839   -3545.4564    4.2319198    4.2319198    4.2319198   -3545.4564    1656.3877   -17798.993    5506.2363   -6177.5877     725.5499    7452.1748    75.790069 
   63900    731.91358   -161.56725   0.66225078     -160.905   -7077.6055    4.2327672    4.2327672    4.2327672   -7077.6055     6397.305   -18735.362   -8894.7596   -14372.875   -5072.9443    5195.4915    75.835606 
   64000    727.09686   -161.56571   0.65789252   -160.90782    -4468.117    4.2457767    4.2457767    4.2457767    -4468.117    1166.3314    571.65802    -15142.34    7577.9177   -1980.4147    7155.9717    76.537003 
   64100    947.72927   -161.76151   0.85752536   -160.90398   -18910.933    4.2489053    4.2489053    4.2489053   -18910.933   -20207.378   -4016.3519   -32509.069   -2101.0871    3067.0873    2673.6946    76.706319 
   64200    631.81854   -161.47292    0.5716827   -160.90124    11146.948     4.230025     4.230025     4.230025    11146.948    20888.874    1911.9881    10639.983     1890.298    1788.8166   -3462.6854    75.688309 
   64300    717.00132   -161.55187   0.64875786   -160.90311    3117.7332    4.2318434    4.2318434    4.2318434    3117.7332    3008.2072    11403.229   -5058.2364     12531.47    4752.3375    8258.6468    75.785962 
   64400    693.28849   -161.53142     0.627302   -160.90412    5661.5934    4.2423107    4.2423107    4.2423107    5661.5934   -16297.238    34627.407   -1345.3887    965.41735    4435.6109   -1386.8527    76.349716 
   64500    564.18606   -161.41574    0.5104874   -160.90526    11870.558    4.2485767    4.2485767    4.2485767    11870.558     -3789.33    47321.347   -7920.3432   -3093.8304    1155.7118    -10458.84    76.688527 
   64600     693.4029   -161.53082   0.62740551   -160.90341    -18994.45    4.2515239    4.2515239    4.2515239    -18994.45   -22428.849     4616.469   -39170.971   -1446.2985   -3338.2529   -8271.9342    76.848231 
   64700    513.95888   -161.36606   0.46504079   -160.90102    3238.8215    4.2340141    4.2340141    4.2340141    3238.8215    12320.917    13215.131   -15819.584    795.79564    1832.7974   -18046.122    75.902645 
   64800    748.97159   -161.57846   0.67768523   -160.90078   -4869.0742    4.2342623    4.2342623    4.2342623   -4869.0742   -669.17133     3599.493   -17537.544    2904.6894    3166.4863   -13802.431    75.915993 
   64900    696.96765   -161.53293   0.63063098    -160.9023   -2109.1461    4.2423545    4.2423545    4.2423545   -2109.1461    467.27661    18822.277   -25616.992   -3366.5512     2916.466     -3944.12     76.35208 
   65000    760.87726   -161.59023   0.68845774   -160.90177   -8419.0428    4.2447405    4.2447405    4.2447405   -8419.0428   -8904.0071    -3817.213   -12535.908   -2474.0264    4660.2304   -3308.1312     76.48098 
   65100    703.88396   -161.53874     0.636889   -160.90185   -7769.0441    4.2467713    4.2467713    4.2467713   -7769.0441   -2025.4435   -11905.299   -9376.3899    11042.983     8132.181   -3922.8538    76.590802 
   65200    701.83462    -161.5387   0.63503471   -160.90367    8606.6845    4.2357799    4.2357799    4.2357799    8606.6845    8388.8898    8954.2518    8476.9119   -2966.3184    3069.3192   -3627.5829    75.997646 
   65300    734.14567   -161.56906   0.66427043   -160.90479    3178.5952    4.2346122    4.2346122    4.2346122    3178.5952     13401.49   -5272.5544    1406.8504   -7412.1987     1243.081      -8997.9    75.934814 
   65400    532.12863   -161.38655   0.48148116   -160.90507     12474.46    4.2345523    4.2345523    4.2345523     12474.46    14791.634    11148.449    11483.297    10323.829    6174.3563   -7385.8842    75.931589 
   65500    653.82052   -161.49767   0.59159055   -160.90608    2941.6971    4.2388872    4.2388872    4.2388872    2941.6971   -21832.425    12110.483    18547.033   -2455.3514    8243.3361   -5080.1289    76.165025 
   65600    745.83471   -161.57813   0.67484692   -160.90328   -6253.5317    4.2457627    4.2457627    4.2457627   -6253.5317   -3211.9349    -8148.396   -7400.2643   -5191.3519    4045.5119   -5757.2679    76.536248 
   65700    631.75826    -161.4723   0.57162815   -160.90067      6234.55     4.239841     4.239841     4.239841      6234.55    10263.287    2376.3029    6064.0606    6353.6718    5471.5089   -4617.0321    76.216449 
   65800    625.14562   -161.46974   0.56564489    -160.9041    4145.3007    4.2383461    4.2383461    4.2383461    4145.3007    1820.0987   -9146.3578    19762.161   -4440.9984   -661.27093    1531.7965    76.135858 
   65900    774.86547   -161.60776   0.70111456   -160.90664   -6079.1209    4.2375386    4.2375386    4.2375386   -6079.1209   -2510.9227   -5711.7528   -10014.687   -5505.8027   -1016.7384    4147.8207    76.092353 
   66000    752.02478   -161.58641   0.68044783   -160.90596   -10033.597     4.238284     4.238284     4.238284   -10033.597   -18830.507    11946.394   -23216.679    3870.3343    8697.3613   -3015.6474    76.132512 
   66100     624.9191   -161.47118   0.56543994   -160.90574   -12002.187    4.2467375    4.2467375    4.2467375   -12002.187   -12817.107    5741.4954   -28930.948    891.21055    3301.3004   -4772.8829    76.588973 
   66200    707.53408   -161.54573   0.64019171   -160.90554   -5766.1342    4.2417464    4.2417464    4.2417464   -5766.1342   -5077.9861    -2683.206   -9537.2105     2296.502    2581.7632   -6753.2596    76.319253 
   66300    798.37507   -161.62663   0.72238654   -160.90424    489.56526    4.2382979    4.2382979    4.2382979    489.56526    13529.412   -7338.6447   -4722.0714    10969.557    11367.414   -8694.2242     76.13326 
   66400     694.2787   -161.53426   0.62819796   -160.90606    3091.1358    4.2359046    4.2359046    4.2359046    3091.1358    25378.163   -19272.311     3167.556   -270.01038     14974.51   -2882.8574    76.004359 
   66500    682.37159   -161.52699   0.61742416   -160.90956   -9716.8261    4.2374968    4.2374968    4.2374968   -9716.8261    -10065.71   -8832.2151   -10252.553    3112.6976    18381.387    3598.6992    76.090099 
   66600    630.04426   -161.47931   0.57007729   -160.90923    4139.7743     4.243367     4.243367     4.243367    4139.7743   -10260.523    4386.2045    18293.641   -8004.1919    12382.264    878.03294    76.406761 
   66700    598.44187   -161.44708   0.54148278   -160.90559    21550.874    4.2455954    4.2455954    4.2455954    21550.874    41243.121   -2853.2317    26262.732   -7113.9566    12749.988    2433.7701    76.527197 
   66800    755.83891   -161.58296   0.68389893   -160.89906    2903.0867     4.243835     4.243835     4.243835    2903.0867    12633.383   -21183.967    17259.843    2813.2768    1739.3286    3657.8121    76.432041 
   66900    635.08759   -161.47335    0.5746406   -160.89871    10328.623    4.2338484    4.2338484    4.2338484    10328.623    6459.6711   -11535.578    36061.775    395.22793    576.33331   -821.86982    75.893734 
   67000    692.50235   -161.53054   0.62659068   -160.90395   -1722.0754    4.2341046    4.2341046    4.2341046   -1722.0754   -15013.406   -8592.1478    18439.327    2613.1733    16996.422   -5821.0524    75.907511 
   67100    881.43972   -161.70388   0.79754519   -160.90634   -18505.896    4.2486612    4.2486612    4.2486612   -18505.896   -27598.213   -13488.852   -14430.622    8079.2585   -5952.8626   -11617.518    76.693102 
   67200    583.36564   -161.43429   0.52784149   -160.90645    182.41753    4.2504202    4.2504202    4.2504202    182.41753    17822.245   -6273.8729   -11001.119   -5960.8434   -3915.9319    -1568.436    76.788397 
   67300    737.14315   -161.56823   0.66698262   -160.90124   -1860.1382    4.2419291    4.2419291    4.2419291   -1860.1382    20671.477   -15248.845   -11003.047    -7325.497   -1098.4842    6926.9966    76.329114 
   67400    1085.4225   -161.87966   0.98211311   -160.89754   -624.43017    4.2328551    4.2328551    4.2328551   -624.43017    29233.491   -24123.303   -6983.4789   -1774.4264   -6780.0376    6486.7778    75.840328 
   67500    689.46397   -161.52794   0.62384149   -160.90409    1705.4971    4.2422606    4.2422606    4.2422606    1705.4971    23137.884   -7397.5523   -10623.841    2467.4138    7769.5789     6056.243    76.347008 
   67600    610.07451   -161.45466   0.55200824   -160.90265    -10501.81    4.2505083    4.2505083    4.2505083    -10501.81   -758.35865   -5563.8682   -25183.204    9481.2322    10103.746   -303.77366    76.793173 
   67700    614.31531   -161.45513    0.5558454   -160.89928    5626.1342    4.2476581    4.2476581    4.2476581    5626.1342    36304.242   -18118.485   -1307.3541    4275.6323   -1282.6071   -6919.9434    76.638795 
   67800    701.19644   -161.53314   0.63445727   -160.89868    10494.077     4.243808     4.243808     4.243808    10494.077     56681.77   -23097.123   -2102.4154    3966.2621    3970.3616    5793.8079    76.430585 
   67900    828.91604   -161.64963   0.75002065   -160.89961    -2250.274    4.2382323    4.2382323    4.2382323    -2250.274    37879.432   -29269.208   -15361.046   -725.55374    7113.7041    8924.7796    76.129726 
   68000     860.0226   -161.68605   0.77816652   -160.90788   -9452.5804    4.2410398    4.2410398    4.2410398   -9452.5804    1766.4678   -9882.1113   -20242.098   -3126.0485    -2011.796    8432.4962    76.281116 
   68100    684.53212   -161.53157   0.61937905   -160.91219    5402.5566    4.2457872    4.2457872    4.2457872    5402.5566    10908.964    6772.1911   -1473.4849    5952.5264    -6354.379    1118.1349     76.53757 
   68200    850.62661   -161.67508   0.76966484   -160.90542    8067.6004    4.2385171    4.2385171    4.2385171    8067.6004    4998.7111    14234.008    4970.0826   -10161.958   -1030.7088   -7752.3419    76.145075 
   68300      597.583   -161.44422   0.54070566   -160.90351    9197.8197    4.2375676    4.2375676    4.2375676    9197.8197    19890.147    13600.728   -5897.4165   -3155.4247   -2454.9404   -2182.7797    76.093915 
   68400    686.82754   -161.52341   0.62145599   -160.90195   -5098.2417    4.2385174    4.2385174    4.2385174   -5098.2417    2515.8498   -8766.0892   -9044.4859    6917.8545   -20888.302   -69.022999     76.14509 
   68500    951.58316   -161.76301   0.86101244     -160.902   -11947.671    4.2417543    4.2417543    4.2417543   -11947.671   -2030.6069   -13057.567    -20754.84    1272.1284   -10049.214    6542.2694    76.319678 
   68600    818.27642   -161.64898    0.7403937   -160.90858   -3894.8732    4.2434709    4.2434709    4.2434709   -3894.8732    18299.874    -7969.661   -22014.833    5356.9628   -8167.8364    3545.0422    76.412373 
   68700     745.6336   -161.58244   0.67466495   -160.90777   -1535.5321    4.2371523    4.2371523    4.2371523   -1535.5321   -4225.5885    3460.9489   -3841.9567     4690.189   -1295.8433    255.64623    76.071544 
   68800    851.57984   -161.67583   0.77052734    -160.9053   -11501.559    4.2402284    4.2402284    4.2402284   -11501.559   -17240.852   -2823.1029   -14440.723    6582.2151     10384.84    848.51645    76.237345 
   68900    810.33768   -161.63794   0.73321056   -160.90473   -6173.7679    4.2426478    4.2426478    4.2426478   -6173.7679   -6329.1628    8129.0974   -20321.238   -4744.2115   -3328.0431   -5260.9205    76.367918 
   69000    661.40623    -161.5008   0.59845425   -160.90235   -10826.816    4.2437831    4.2437831    4.2437831   -10826.816   -24029.254    6945.1818   -15396.375    1924.4993   -11590.905   -5413.8795    76.429241 
   69100    810.67297   -161.63209   0.73351394   -160.89858   -7959.6199    4.2463105    4.2463105    4.2463105   -7959.6199   -3751.3053   -11957.853   -8169.7013    -1687.825   -5.0979494   -4432.4179    76.565872 
   69200    870.98316   -161.68915   0.78808387   -160.90106    8035.3662    4.2385835    4.2385835    4.2385835    8035.3662    14054.172   -12151.897    22203.824    -5958.055   -5731.6472   -4082.1379    76.148654 
   69300     875.0327   -161.69379   0.79174798   -160.90204   -3751.9337    4.2367718    4.2367718    4.2367718   -3751.9337   -10971.784   -11870.984    11586.967   -545.69053    -4107.079    760.04483    76.051053 
   69400    792.11966   -161.61953   0.71672651   -160.90281    -12963.82      4.24665      4.24665      4.24665    -12963.82   -5438.2823   -7695.1555   -25758.023   -3550.6104   -8010.9944    2426.8894    76.584242 
   69500    716.38289   -161.55354   0.64819829   -160.90535    1128.3868    4.2483453    4.2483453    4.2483453    1128.3868    26818.789   -1207.1248   -22226.504   -7177.2861   -2496.4026   -222.59558    76.675997 
   69600    821.27363   -161.64798   0.74310564   -160.90487   -4512.1132    4.2403618    4.2403618    4.2403618   -4512.1132    10853.399   -5505.3692   -18884.369   -391.92495   -4679.9279    802.84477    76.244536 
   69700    630.77747   -161.47347   0.57074071   -160.90273    13019.609    4.2230392    4.2230392    4.2230392    13019.609    19317.632    13912.952     5828.244   -7541.9601    381.40904   -1824.9875    75.313934 
   69800    531.67347   -161.38877   0.48106933    -160.9077    2241.2751    4.2324243    4.2324243    4.2324243    2241.2751   -13728.029    17302.934    3148.9199    -4583.426    13430.034   -1182.6456    75.817177 
   69900    694.46768    -161.5339   0.62836896   -160.90553   -3428.1265    4.2503783    4.2503783    4.2503783   -3428.1265   -11694.913    15237.082   -13826.548   -81.503885   -3871.7514   -6778.2376    76.786127 
   70000    531.84838   -161.38894   0.48122759   -160.90772    14099.553    4.2483771    4.2483771    4.2483771    14099.553     49107.65    2728.3339   -9537.3252   -11318.224    322.88183   -3011.3326     76.67772 
   70100    387.66993   -161.26072    0.3507719   -160.90995    10346.578    4.2338502    4.2338502    4.2338502    10346.578    33148.633   -4328.4799    2219.5799   -16057.701   -8006.5815   -860.92898    75.893829 
   70200    477.14401   -161.33903   0.43172993    -160.9073    1285.9425    4.2224904    4.2224904    4.2224904    1285.9425    11055.261   -16335.963    9138.5297    -28061.82   -11033.677   -1986.9268    75.284579 
   70300    599.80691   -161.45408    0.5427179   -160.91136   -168.24007    4.2351137    4.2351137    4.2351137   -168.24007    7243.9706   -25836.647    18087.956   -15288.244    3805.6867    8670.7316    75.961797 
   70400    607.74222   -161.45606   0.54989793   -160.90617    1035.1312    4.2527891    4.2527891    4.2527891    1035.1312    21488.728   -20953.659     2570.325    945.37769     -7608.69   -2169.7938     76.91686 
   70500    579.79891    -161.4222   0.52461424   -160.89759   -3278.6237    4.2502409    4.2502409    4.2502409   -3278.6237    26699.466   -12384.307    -24151.03    -494.8612    -16017.61    1851.7834    76.778678 
   70600    618.75166   -161.45895   0.55985951   -160.89909    6054.5938    4.2316579    4.2316579    4.2316579    6054.5938    12715.641    18659.968   -13211.827     3303.818   -10688.308    6208.3626    75.775998 
   70700    593.73276   -161.44086   0.53722188   -160.90364    9266.2808    4.2209503    4.2209503    4.2209503    9266.2808   -4645.6637    19286.383    13158.124   -4231.0841   -16030.993    5875.3202    75.202228 
   70800    658.11737     -161.502   0.59547843   -160.90652   -4797.6707    4.2329737    4.2329737    4.2329737   -4797.6707   -18023.593   -5442.1778    9072.7592    -10407.17   -6528.9727    8302.1744    75.846706 
   70900    476.33079   -161.33868   0.43099411   -160.90769   -6274.1647    4.2511714    4.2511714    4.2511714   -6274.1647    24978.618   -35008.484   -8792.6279    2067.6063   -4383.3081    1505.3912    76.829116 
   71000    555.62011   -161.40725   0.50273675   -160.90451   -3935.1824    4.2500109    4.2500109    4.2500109   -3935.1824    33590.621   -38377.641   -7018.5272    1560.7904   -3188.7087    2670.8283    76.766218 
   71100    858.25009   -161.67896   0.77656272    -160.9024    -5667.638    4.2333468    4.2333468    4.2333468    -5667.638   -8285.8387     -9328.53    611.45464    5009.5081    999.40139    191.49608    75.866761 
   71200    622.21085   -161.46644   0.56298945   -160.90345   -2782.5083    4.2280256    4.2280256    4.2280256   -2782.5083   -21758.479   -1064.3994    14475.354   -3614.5127   -3055.4047    3340.8058    75.581032 
   71300    536.99897   -161.39129   0.48588796   -160.90541   -4370.4267    4.2378446    4.2378446    4.2378446   -4370.4267   -10364.246   -8018.0877     5271.054   -467.67794   -6054.5472    10367.392    76.108835 
   71400    659.78196   -161.50357   0.59698458   -160.90658   -7492.4921    4.2545787    4.2545787    4.2545787   -7492.4921    26010.986   -33392.785   -15095.677    5156.6961    230.51178    5654.3352    77.014002 
   71500    673.78852   -161.51203   0.60965801   -160.90237   -9433.4956    4.2500456    4.2500456    4.2500456   -9433.4956    20633.594   -26729.436   -22204.645    10612.432    5013.0981    2869.9402    76.768097 
   71600    622.31389    -161.4614   0.56308268   -160.89832    -6369.349    4.2298655    4.2298655    4.2298655    -6369.349     722.9689   -3688.2035   -16142.812    19857.584      966.562   -29.586495    75.679749 
   71700    646.47915   -161.49026   0.58494792   -160.90531   -16222.386    4.2380707    4.2380707    4.2380707   -16222.386   -18122.926   -18006.729   -12537.504    14033.209    2410.7025   -1756.5922    76.121016 
   71800    585.87323   -161.44007   0.53011041   -160.90996    13057.314    4.2445738    4.2445738    4.2445738    13057.314    31079.771   -12033.792    20125.963    11205.461    3997.9173    3395.4334    76.471968 
   71900    441.60451   -161.30899   0.39957304   -160.90941    16541.511    4.2518533    4.2518533    4.2518533    16541.511    33530.565   -13087.828    29181.797    9427.4727    10966.027    1606.5598    76.866092 
   72000    623.87108    -161.4718   0.56449166    -160.9073   -15612.733    4.2414527    4.2414527    4.2414527   -15612.733   -26493.297   -9191.2623   -11153.641     4645.504    16573.411    4009.1611    76.303399 
   72100    688.54851   -161.52681   0.62301316    -160.9038   -6124.6216    4.2247446    4.2247446    4.2247446   -6124.6216    -7411.767    1251.9814   -12214.079     9663.708    15532.264   -2336.2215    75.405217 
   72200     753.6451   -161.59077   0.68191393   -160.90886   -20480.278    4.2479181    4.2479181    4.2479181   -20480.278    6319.3424    -31558.37   -36201.807   -278.11744    5627.1846   -8871.8616    76.652866 
   72300    856.75873   -161.68264   0.77521331   -160.90743   -17017.158    4.2493807    4.2493807    4.2493807   -17017.158    -12645.64   -39063.278    657.44475   -1656.2221    5395.6096     4451.072     76.73207 
   72400    657.84998    -161.5066   0.59523649   -160.91136    3464.2101    4.2429541    4.2429541    4.2429541    3464.2101   -797.86693   -20850.109    32040.607   -2071.5185   -6696.7345    2044.5791     76.38446 
   72500    715.44983   -161.56126   0.64735404    -160.9139   -2509.7454    4.2452468    4.2452468    4.2452468   -2509.7454   -17804.477   -25779.692    36054.934    -4925.154   -71.756752   -3126.8575    76.508349 
   72600    702.45196   -161.54623    0.6355933   -160.91063    6641.1241    4.2323345    4.2323345    4.2323345    6641.1241   -2567.1883   -8745.5539    31236.114   -5969.6178   -10068.968    1584.8735    75.812348 
   72700    704.73459   -161.54783   0.63765867   -160.91017   -13726.756    4.2420049    4.2420049    4.2420049   -13726.756   -12419.092   -23750.771    -5010.405   -6311.9145   -16315.101    1121.1651    76.333207 
   72800    514.69154   -161.37737   0.46570372   -160.91167   -2820.3883    4.2437714    4.2437714    4.2437714   -2820.3883    14140.304   -15427.301   -7174.1674   -5317.4116   -6653.1074    564.02269    76.428608 
   72900    535.55614   -161.39557   0.48458245   -160.91099    15329.847    4.2320188    4.2320188    4.2320188    15329.847    1920.1699   -1681.5962    45750.966   -4001.6698   -12859.527    2268.6333    75.795387 
   73000    749.70456   -161.58848   0.67834844   -160.91013   -13246.209    4.2373196    4.2373196    4.2373196   -13246.209   -35568.102   -25695.894    21525.368   -12397.688   -14596.882   -4642.3105    76.080555 
   73100    572.71461   -161.42527   0.51820421   -160.90707   -10433.927    4.2358813    4.2358813    4.2358813   -10433.927   -7189.2607   -14068.937   -10043.582   -12170.684   -23177.637    1806.9426    76.003107 
   73200    352.81277   -161.22633   0.31923241    -160.9071    7365.9483    4.2365412    4.2365412    4.2365412    7365.9483    36613.454   -5186.7625   -9328.8465   -8401.7981   -14315.847    6713.2362    76.038634 
   73300    762.98063   -161.59885    0.6903609   -160.90849   -9279.3951    4.2416077    4.2416077    4.2416077   -9279.3951   -7356.9311   -14599.212   -5882.0427   -9454.4163   -13630.822    1017.0671    76.311766 
   73400    527.36927   -161.38625   0.47717479   -160.90908    15505.945    4.2352589    4.2352589    4.2352589    15505.945    3326.5585   -5577.0143    48768.292    1893.2902   -3850.7784   -2178.7021     75.96961 
   73500    464.51086   -161.33083   0.42029919   -160.91053    3429.0674    4.2412735    4.2412735    4.2412735    3429.0674    7567.8824   -14128.675    16847.995    286.35872    7397.0832   -6771.0569    76.293729 
   73600    470.91338   -161.33768   0.42609232   -160.91159   -375.92413    4.2459805    4.2459805    4.2459805   -375.92413    30500.137   -29281.534   -2346.3758   -7344.5662    3901.3444   -2844.7167    76.548025 
   73700    439.44895   -161.31198   0.39762264   -160.91435    19668.368    4.2415455    4.2415455    4.2415455    19668.368    66307.804   -32450.491    25147.789    -10012.24     8356.331   -2168.2808     76.30841 
   73800    425.30534   -161.30204   0.38482521   -160.91721    16510.466     4.241979     4.241979     4.241979    16510.466    47362.397   -39973.201    42142.203   -12779.245    8351.6176    5777.8966    76.331806 
   73900    416.61903   -161.29415   0.37696566   -160.91718   -1585.6507    4.2429368    4.2429368    4.2429368   -1585.6507    16741.692   -40728.738    19230.094    1042.6485    521.75904   -3436.0031    76.383524 
   74000    530.69339   -161.39085   0.48018253   -160.91067   -3208.9234    4.2415972    4.2415972    4.2415972   -3208.9234    25937.092   -22469.386   -13094.476    8897.5036   -9305.9251   -489.99638    76.311196 
   74100    569.92766   -161.42477   0.51568253   -160.90909    8891.7555    4.2400003    4.2400003    4.2400003    8891.7555    62844.077   -13539.823   -22628.987     642.8514   -9611.0276   -2445.2712    76.225042 
   74200    644.53587     -161.497    0.5831896   -160.91381    1488.9325    4.2376275    4.2376275    4.2376275    1488.9325    18995.642   -2932.0478   -11596.796     6058.875   -11725.882   -6433.6424     76.09714 
   74300    535.94857   -161.39799   0.48493753   -160.91305    3855.2514    4.2389165    4.2389165    4.2389165    3855.2514   -9682.6156    7982.8035    13265.566    839.02981   -14079.894    4767.5189      76.1666 
   74400      532.528   -161.39054   0.48184252    -160.9087    3799.7434    4.2433921    4.2433921    4.2433921    3799.7434     7940.926    1212.8531    2245.4509    5825.7675   -17038.747   -4364.4654    76.408118 
   74500    778.90813   -161.60982   0.70477244   -160.90504   -2599.6771    4.2358392    4.2358392    4.2358392   -2599.6771    4543.8587   -10515.385   -1827.5048    9830.2858   -22817.893   -1153.1254    76.000838 
   74600    578.11635   -161.42979   0.52309182    -160.9067   -7417.9859    4.2361372    4.2361372    4.2361372   -7417.9859   -11373.726   -15544.549    4664.3174    4322.4307   -23850.779    1247.9681     76.01688 
   74700    557.00882   -161.40938   0.50399329   -160.90539   -7618.9096    4.2427234    4.2427234    4.2427234   -7618.9096    -16659.42   -8797.4857    2600.1766    5969.3226   -9508.6884   -7493.2963    76.371998 
   74800    712.72233   -161.55039   0.64488614   -160.90551    7434.7575    4.2425081    4.2425081    4.2425081    7434.7575   -15810.066    4098.4081     34015.93    8488.8508   -10410.356   -4296.4456    76.360373 
   74900    657.73474   -161.50187   0.59513222   -160.90674    14005.928    4.2428758    4.2428758    4.2428758    14005.928    2652.0304    12264.592    27101.161    2255.8293   -3189.4522   -3316.5634    76.380231 
   75000     722.8244   -161.55987   0.65402671   -160.90584   -10816.753    4.2427183    4.2427183    4.2427183   -10816.753   -21081.149    5832.9986   -17202.107    9578.2025   -2615.9847   -5963.1423    76.371724 
   75100     728.7893   -161.56457   0.65942387   -160.90515   -18284.423    4.2428034    4.2428034    4.2428034   -18284.423   -24223.361   -13049.419   -17580.489    10695.455   -4308.8574    -5823.652     76.37632 
   75200    813.66371   -161.64146   0.73622002   -160.90524    -12757.63    4.2443254    4.2443254    4.2443254    -12757.63    7903.2174   -27768.665   -18407.441    2653.8596    1258.4703   -521.48428    76.458541 
   75300    650.73403   -161.49672   0.58879783   -160.90792    1665.2439    4.2480575    4.2480575    4.2480575    1665.2439     20428.77   -18905.262    3472.2234    9864.2339   -1950.9371    1362.5848    76.660417 
   75400    546.78605   -161.39886   0.49474351   -160.90412    7475.0384    4.2475941    4.2475941    4.2475941    7475.0384    3501.8944    7951.8159    10971.405    672.60882   -7049.9371   -9442.7833    76.635327 
   75500     560.6691   -161.40954   0.50730519   -160.90223    12467.418    4.2426209    4.2426209    4.2426209    12467.418     19706.36    25072.019   -7376.1237   -6902.9053   -4322.1109   -2704.3169    76.366463 
   75600    519.98937   -161.37554   0.47049731   -160.90504    12882.051    4.2382426    4.2382426    4.2382426    12882.051    23201.247    15359.156    85.749766    2578.3931   -15794.428    4013.4299    76.130282 
   75700    752.39916   -161.58431   0.68078657   -160.90352   -3252.4152    4.2332132    4.2332132    4.2332132   -3252.4152    14405.114   -5188.4977   -18973.862    -1415.381   -12806.686    1059.3383     75.85958 
   75800    496.34184   -161.36002   0.44910053   -160.91092    505.28023    4.2442034    4.2442034    4.2442034    505.28023    24616.822   -20726.547    -2374.434   -903.16514   -5224.9859    5878.2217    76.451952 
   75900     652.9493   -161.50425   0.59080224   -160.91345   -1925.1487     4.250281     4.250281     4.250281   -1925.1487   -17154.932   -15739.066    27118.551    5556.8103   -1272.9112    10300.095    76.780854 
   76000    801.51042   -161.63295   0.72522347   -160.90772    8027.2983    4.2346723    4.2346723    4.2346723    8027.2983   -1406.7742    13971.975    11516.694    5255.3915    1078.8791    905.38629    75.938045 
   76100    706.08589   -161.54302   0.63888136   -160.90414    -424.0726    4.2308245    4.2308245    4.2308245    -424.0726   -277.51321    14835.399   -15830.104     2073.854    5951.3948    3404.1486    75.731236 
   76200    829.24085   -161.65467   0.75031455   -160.90436   -17555.378    4.2386172    4.2386172    4.2386172   -17555.378   -31083.358   -5920.1555   -15662.621    6819.0341     7932.987    2403.7651    76.150468 
   76300     878.1804   -161.69997   0.79459608   -160.90538    -9550.846      4.24652      4.24652      4.24652    -9550.846   -16180.696   -18217.278    5745.4359    985.76385    9161.0991   -2042.5677    76.577209 
   76400     892.9569   -161.71128   0.80796617   -160.90332   -14602.674     4.248447     4.248447     4.248447   -14602.674   -21410.363   -22675.634    277.97618   -6381.1379    8603.9439    3713.7897    76.681505 
   76500    740.37844   -161.57209   0.66990997   -160.90218    -1305.676    4.2344825    4.2344825    4.2344825    -1305.676    3004.9987   -812.70224   -6109.3244     2051.728    13721.694    1353.0952    75.927837 
   76600    775.54095   -161.60671   0.70172575   -160.90498   -4142.0367     4.233175     4.233175     4.233175   -4142.0367    8047.2902   -5107.4934   -15365.907    22.250417    6430.8583   -7176.8345    75.857524 
   76700    808.04963    -161.6379   0.73114028   -160.90676   -2730.8317    4.2405232    4.2405232    4.2405232   -2730.8317    11314.149    -12176.25   -7330.3942   -939.87702     7365.217   -14231.988    76.253244 
   76800    674.90362   -161.51841   0.61066697   -160.90774    -2082.749    4.2454475    4.2454475    4.2454475    -2082.749    26634.074   -17331.071    -15551.25    10373.498    11067.271   -8067.1838    76.519203 
   76900    535.62853   -161.39264   0.48464795   -160.90799    4316.8559    4.2467473    4.2467473    4.2467473    4316.8559     17931.27   -6179.4556    1198.7534    4290.3324   -513.05284   -5996.8479    76.589506 
   77000    743.33473   -161.57716   0.67258489   -160.90457    7397.4519    4.2388359    4.2388359    4.2388359    7397.4519    23164.113   -2017.5961    1045.8392   -586.18017    11397.461   -9759.3361    76.162259 
   77100    654.14092   -161.49709   0.59188045    -160.9052    15596.204     4.232182     4.232182     4.232182    15596.204    58870.906   -2729.9052   -9352.3875    7641.4889    10520.569   -10668.429    75.804156 
   77200     583.6116   -161.43514   0.52806404   -160.90707    1594.0195     4.236718     4.236718     4.236718    1594.0195    45391.309    -21192.94   -19416.311   -3873.4615    956.68478   -14206.142    76.048152 
   77300     747.4482   -161.58377   0.67630684   -160.90746   -11170.744    4.2452012    4.2452012    4.2452012   -11170.744    21280.413   -30413.597   -24379.049   -1822.7525    5776.6731   -14612.287    76.505883 
   77400    681.18743   -161.52863    0.6163527   -160.91228    11396.894    4.2430695    4.2430695    4.2430695    11396.894    37413.297   -17403.765    14181.151    -912.8704    4072.1524   -6884.1321    76.390693 
   77500    837.45665    -161.6666   0.75774838   -160.90886    13727.542     4.234501     4.234501     4.234501    13727.542    50390.324   -8299.0632   -908.63563   -2698.7948    2426.5439    534.75174    75.928829 
   77600    866.70282   -161.69069   0.78421093   -160.90648   -6601.9428    4.2370015    4.2370015    4.2370015   -6601.9428    25029.788   -22260.563   -22575.054    3371.2486    5551.4772    2731.7755     76.06342 
   77700    897.11427   -161.72167   0.81172784   -160.90994   -7007.0273    4.2407524    4.2407524    4.2407524   -7007.0273    16412.068   -27981.347   -9451.8032   -1553.6364    1386.1326    6122.7698     76.26561 
   77800    977.85993    -161.7945   0.88478822   -160.90971    1062.0719    4.2403642    4.2403642    4.2403642    1062.0719    25854.143   -17681.461   -4986.4659    3473.2428    8195.1202    6994.0383    76.244668 
   77900    923.77514   -161.74101   0.83585116   -160.90516   -10482.775    4.2476307    4.2476307    4.2476307   -10482.775   -4072.6147   -14379.746   -12995.965    427.56282    1299.5319    4680.8212    76.637312 
   78000    1047.7141   -161.84938   0.94799377   -160.90139   -25488.173    4.2440127    4.2440127    4.2440127   -25488.173   -18459.952   -26458.675   -31545.892   -285.10673   -7513.7907    6675.0974    76.441644 
   78100    872.37664   -161.69097   0.78934472   -160.90163   -1594.0015     4.233246     4.233246     4.233246   -1594.0015    14939.777   -13588.858   -6132.9236    4664.7638   -1217.4161    8127.8153    75.861344 
   78200    806.17761   -161.63552   0.72944645   -160.90608    -3512.404    4.2364074    4.2364074    4.2364074    -3512.404    7973.8389   -15477.016   -3034.0349   -911.11765    1025.5978    7579.5358     76.03143 
   78300    856.19826   -161.68443   0.77470617   -160.90973   -10292.199    4.2427417    4.2427417    4.2427417   -10292.199   -61.484182    2306.0042   -33121.116   -1137.9139    -6079.247     3163.029    76.372986 
   78400     605.9998   -161.45832   0.54832136      -160.91    11320.204    4.2405145    4.2405145    4.2405145    11320.204    19568.256     36143.21   -21750.855    531.06435    3946.0881    2243.3873    76.252778 
   78500    614.74102   -161.46412   0.55623059   -160.90789    9894.3043    4.2373275    4.2373275    4.2373275    9894.3043    22600.347    21309.144   -14226.577   -497.14927    8594.3916    954.18861    76.080982 
   78600    691.01451   -161.53322   0.62524445   -160.90798   -9050.0992     4.237757     4.237757     4.237757   -9050.0992    32406.997   -27970.228   -31587.067     2330.603   -98.284483    5204.4353    76.104118 
   78700    523.13179   -161.38395   0.47334064   -160.91061    4712.2709     4.237088     4.237088     4.237088    4712.2709    56568.007   -22853.906   -19577.288    6612.3871   -3239.7197   -2558.0177    76.068077 
   78800     582.3368    -161.4368   0.52691057   -160.90989    1566.3647    4.2385424    4.2385424    4.2385424    1566.3647    25791.677    4588.4089   -25680.992   -2484.5308    5666.7308   -8460.8603    76.146441 
   78900    601.45476   -161.45063   0.54420891   -160.90642    1037.4403    4.2423853    4.2423853    4.2423853    1037.4403    2292.6062    24236.595   -23416.881   -4465.8921    2149.8442   -8832.1556    76.353742 
   79000    662.56861   -161.50292     0.599506   -160.90341    13305.857    4.2376203    4.2376203    4.2376203    13305.857    35529.346    22470.324     -18082.1    2687.6822    2617.2614   -15170.529    76.096754 
   79100    640.20326   -161.48463   0.57926936   -160.90536    8645.2834    4.2351665    4.2351665    4.2351665    8645.2834    42652.506   -8382.5802   -8334.0755   -3982.9906    2452.2079    -10948.19    75.964639 
   79200    575.10188   -161.42606   0.52036426   -160.90569   -8785.1626    4.2389595    4.2389595    4.2389595   -8785.1626    6375.3615   -17569.917   -15160.933    4869.0195   -2891.7205   -15945.636    76.168922 
   79300    577.99233   -161.42804   0.52297961   -160.90506    -8009.538    4.2386988    4.2386988    4.2386988    -8009.538    2757.5379   -14707.572   -12078.579    11247.678    6104.0497   -19392.533    76.154868 
   79400    557.10945   -161.41067   0.50408434   -160.90659   -1492.9117    4.2415764    4.2415764    4.2415764   -1492.9117    8258.8585    4403.5754   -17141.169    1448.4541   -3200.7453   -9853.2073    76.310076 
   79500    584.08619   -161.43495   0.52849346   -160.90646    1365.6213    4.2412002    4.2412002    4.2412002    1365.6213    5926.2003    18811.727   -20641.064    5261.3665   -1774.5633   -11471.539    76.289772 
   79600    392.34277   -161.26064   0.35499999   -160.90564    5063.9057    4.2370832    4.2370832    4.2370832    5063.9057    7350.6112   -6414.7884    14255.894    8119.4071    11007.113   -16750.975    76.067821 
   79700    508.05238   -161.36594   0.45969647   -160.90624   -9252.3441    4.2333373    4.2333373    4.2333373   -9252.3441    2782.2655   -23507.504   -7031.7938    6128.2886   -113.65322   -13103.157    75.866249 
   79800    452.11827   -161.31737   0.40908611   -160.90829    4564.8253    4.2368751    4.2368751    4.2368751    4564.8253    16657.328   -3809.4655    846.61347    6085.9795    1442.4431   -5935.9578    76.056614 
   79900    482.78572   -161.34389   0.43683467   -160.90706    1971.5089    4.2420678    4.2420678    4.2420678    1971.5089    825.18518    34571.471   -29482.129    1748.9708    5163.8252   -1518.4923    76.336602 
   80000    509.44536   -161.36718   0.46095687   -160.90622    6875.6716    4.2374667    4.2374667    4.2374667    6875.6716    3133.9743     19262.21   -1769.1698   -6716.3612    4254.3869   -8756.6942    76.088477 
   80100     555.4943    -161.4094   0.50262292   -160.90678    2924.5308    4.2341869    4.2341869    4.2341869    2924.5308    13885.712   -7561.9817     2449.862   -5699.6919    10759.248     1486.642    75.911935 
   80200    717.60974   -161.55501   0.64930837    -160.9057   -7647.2922    4.2355402    4.2355402    4.2355402   -7647.2922    2905.5453   -8363.6407   -17483.781    8951.6629     6805.519   -1691.5116    75.984746 
   80300      721.786   -161.55854   0.65308714   -160.90545    2704.1295    4.2358122    4.2358122    4.2358122    2704.1295     2909.309    19429.177   -14226.098   -2549.5687    6425.3838   -8949.4183    75.999385 
   80400    785.02957   -161.61409   0.71031125   -160.90378    1450.2614    4.2399221    4.2399221    4.2399221    1450.2614   -11923.376    28006.572   -11732.412   -696.56413    3729.1409     3550.397    76.220824 
   80500     889.7976   -161.70686   0.80510757   -160.90175   -5412.5465    4.2402566    4.2402566    4.2402566   -5412.5465    -19747.48   -7788.6879    11298.529    3335.0701    5021.5371     5618.132    76.238862 
   80600    923.98256   -161.73861   0.83603883   -160.90257   -4643.5958    4.2369389    4.2369389    4.2369389   -4643.5958   -4338.6534   -11848.538    2256.4039    1145.5611    4306.7959   -2681.6172    76.060051 
   80700    962.28354   -161.77406   0.87069437   -160.90336   -7123.4312    4.2357101    4.2357101    4.2357101   -7123.4312   -15338.728   -19103.788    13072.222   -2488.7568   -3316.9659      3007.87    75.993889 
   80800    817.24659   -161.64347   0.73946189     -160.904   -1056.8042    4.2416956    4.2416956    4.2416956   -1056.8042   -26314.038   -12316.914     35460.54    2215.8067   -482.52067   -2496.2122    76.316508 
   80900    870.40824   -161.69088   0.78756366   -160.90332    -4435.217    4.2476924    4.2476924    4.2476924    -4435.217   -22068.359   -9211.1999    17973.908    3785.5503   -2598.9816   -2623.7191    76.640651 
   81000    883.74744   -161.70265   0.79963326   -160.90302    8150.3793    4.2377405    4.2377405    4.2377405    8150.3793   -3309.8236    -5176.427    32937.389   -1806.1834   -7800.6897    6195.2695    76.103227 
   81100      677.561   -161.51851   0.61307143   -160.90543    13740.173    4.2367738    4.2367738    4.2367738    13740.173   -12682.716   -99.413458    54002.649   -162.19374   -2390.1229    8726.5429    76.051161 
   81200      858.742   -161.68098   0.77700781   -160.90397   -6507.0433    4.2422762    4.2422762    4.2422762   -6507.0433   -33313.142   -16754.257    30546.269    5901.1407   -2980.2216    7544.8948    76.347854 
   81300    910.10485   -161.72857     0.823482   -160.90509   -13449.268    4.2462847    4.2462847    4.2462847   -13449.268   -24407.744   -22336.716    6396.6556    774.24664    -9512.695    9375.2384    76.564478 
   81400     794.0398   -161.62543   0.71846389   -160.90697   -18834.036    4.2440221    4.2440221    4.2440221   -18834.036   -24848.583   -24081.521   -7572.0039   -10.511899    1014.6693    2961.8284    76.442151 
   81500    738.39478   -161.57268   0.66811511   -160.90457    4553.3371    4.2255418    4.2255418    4.2255418    4553.3371    15074.248   -2444.0796    1029.8423   -2157.4324    5538.8009   -324.80121    75.447909 
   81600    741.04655   -161.57581   0.67051449   -160.90529    16913.109    4.2284671    4.2284671    4.2284671    16913.109    21474.267    4873.1916    24391.867   -320.40376    3683.4935    7824.3262    75.604711 
   81700    825.45407   -161.65352   0.74688819   -160.90663    192.09741    4.2423916    4.2423916    4.2423916    192.09741   -1339.3482   -5515.7058    7431.3463   -4975.1694    3456.1241    2582.8626    76.354081 
   81800    717.27635   -161.55473   0.64900671   -160.90572   -5576.1484    4.2459894    4.2459894    4.2459894   -5576.1484    10449.337    -20195.54   -6982.2424    -1292.366   -436.27579    41.842927    76.548507 
   81900    644.50149   -161.48761   0.58315849   -160.90445   -12741.478    4.2404345    4.2404345    4.2404345   -12741.478   -12118.331   -27760.111    1654.0077    5537.3193   -3217.7387   -7635.2103    76.248459 
   82000    791.22952   -161.61758    0.7159211   -160.90166    2450.4433    4.2268119    4.2268119    4.2268119    2450.4433    11194.447   -14331.399    10488.282   -6301.8653   -7251.3589   -12269.787    75.515961 
   82100    759.78967   -161.59332   0.68747366   -160.90584    4151.3401    4.2345424    4.2345424    4.2345424    4151.3401    14717.566   -6049.4537    3785.9076    1169.3511   -2667.2004   -10929.991    75.931062 
   82200    732.43841   -161.57074   0.66272567   -160.90802   -13771.273    4.2432973    4.2432973    4.2432973   -13771.273    -17220.33   -4071.7895   -20021.698    7780.7184    2705.1498   -6563.7568    76.402995 
   82300    594.15273    -161.4475   0.53760188    -160.9099    329.21781    4.2414726    4.2414726    4.2414726    329.21781   -12857.487   -4639.3342    18484.475   -5081.3698   -11447.734   -12510.478    76.304473 
   82400    712.44896   -161.55556   0.64463879   -160.91092   -8136.7674    4.2446685    4.2446685    4.2446685   -8136.7674    2365.8228   -28549.294     1773.169   -3601.2539   -5029.8099   -17586.876    76.477088 
   82500    639.62309   -161.48588   0.57874442   -160.90714   -355.72566    4.2312089    4.2312089    4.2312089   -355.72566    24703.265   -10699.417   -15071.025    2224.9187    8119.4579   -17781.763     75.75188 
   82600    636.27995   -161.48091   0.57571947   -160.90519   -9181.0365      4.23538      4.23538      4.23538   -9181.0365    2323.8076    -15227.43   -14639.487   -2236.3297    2434.6143   -8854.4469    75.976126 
   82700    603.90539   -161.45238   0.54642629   -160.90595   -6983.7351    4.2473062    4.2473062    4.2473062   -6983.7351   -13336.496   -23831.741    16217.032    5957.6279    599.15247   -11325.842    76.619748 
   82800    654.63152   -161.49837   0.59232436   -160.90604    10260.458    4.2386406    4.2386406    4.2386406    10260.458    -2314.984   -172.30876    33268.667    4946.6285    3459.7762   -9025.3366    76.151732 
   82900    588.65681   -161.44136   0.53262905   -160.90873   -4162.0873    4.2394863    4.2394863    4.2394863   -4162.0873    7349.6109    -6907.076   -12928.797   -194.81818    6536.0772   -10703.948    76.197321 
   83000    516.17587    -161.3737   0.46704678   -160.90665   -8886.5733    4.2376027    4.2376027    4.2376027   -8886.5733   -8176.8896    1532.4652   -20015.296     175.9625   -2575.5713   -19539.101    76.095802 
   83100    528.59085   -161.38508   0.47828011    -160.9068    1054.0244    4.2401946    4.2401946    4.2401946    1054.0244   -18261.009    424.45691    20998.625   -1515.6225   -5959.6895   -18824.811    76.235518 
   83200    689.40519   -161.53201   0.62378831   -160.90823    -4924.804    4.2484065    4.2484065    4.2484065    -4924.804   -17562.652   -12611.825    15400.065   -3199.8873    3328.9824   -14883.648    76.679311 
   83300    557.61979   -161.41132    0.5045461   -160.90677     10779.97     4.236829     4.236829     4.236829     10779.97   -1911.5054    21207.048    13044.367    -214.6454   -3177.1049   -13058.065    76.054128 
   83400    507.29778   -161.36535   0.45901369   -160.90634   -2073.1481    4.2384449    4.2384449    4.2384449   -2073.1481   -13974.666   -3936.4614    11691.684   -5990.8231    -13138.49   -14035.269    76.141186 
   83500    726.25137   -161.56204   0.65712751   -160.90491   -13857.913    4.2381066    4.2381066    4.2381066   -13857.913   -9332.0439   -24863.656   -7378.0406    2261.6049   -4518.9296   -16092.841    76.122954 
   83600    690.58845   -161.52889   0.62485894   -160.90404    4812.6508    4.2407722    4.2407722    4.2407722    4812.6508   -1612.1537   -7707.1745     23757.28    6636.4055    -3227.022     -5685.38     76.26668 
   83700    744.84243   -161.57483   0.67394908   -160.90088   -12598.994    4.2508897    4.2508897    4.2508897   -12598.994   -31088.818   -12858.034    6149.8689    672.06301    -5302.178   -4511.0163    76.813848 
   83800    663.10853   -161.50139   0.59999454   -160.90139    7253.4271    4.2323968    4.2323968    4.2323968    7253.4271   -951.50745    22463.775    248.01357   -3094.9228   -15613.357    116.58814    75.815699 
   83900     643.8799   -161.48771   0.58259607   -160.90512    4802.3225    4.2307948    4.2307948    4.2307948    4802.3225   -714.32369    26905.563   -11784.272    1304.6223    -14683.24    7604.3668    75.729639 
   84000     829.1584   -161.65317   0.75023995   -160.90293   -13132.023    4.2429032    4.2429032    4.2429032   -13132.023   -10263.203   -2199.8538   -26933.014    418.47023   -4655.4299    6012.6783     76.38171 
   84100    699.03001    -161.5373   0.63249704    -160.9048    1939.7605    4.2411824    4.2411824    4.2411824    1939.7605   -30356.347    4640.0695    31535.559   -8994.0105   -10332.807    5561.7797     76.28881 
   84200    579.29402   -161.43318    0.5241574   -160.90902   -742.77156    4.2414879    4.2414879    4.2414879   -742.77156   -37303.019    9905.5041      25169.2   -3044.5097   -11084.484    13326.518    76.305301 
   84300    913.43202   -161.73249   0.82649249     -160.906   -9291.1958    4.2316238    4.2316238    4.2316238   -9291.1958   -23957.776    4662.2993   -8578.1106    8183.2581   -6578.4836    9418.6227    75.774164 
   84400    802.40777     -161.632   0.72603541   -160.90596    4237.5365     4.229834     4.229834     4.229834    4237.5365   -8404.5005    13246.138    7870.9716   -8000.9101   -21521.171    2073.4686    75.678054 
   84500    661.47363    -161.5046   0.59851524   -160.90609    4682.0007     4.238242     4.238242     4.238242    4682.0007   -23125.796    10406.383    26765.415   -993.33396   -15323.598    9289.8803    76.130249 
   84600    774.07949   -161.60287   0.70040339   -160.90247   -2576.6664    4.2419268    4.2419268    4.2419268   -2576.6664    -27458.85    1913.8755    17814.976    6141.0362    -6393.067    8051.2852     76.32899 
   84700    666.83022   -161.50725   0.60336199   -160.90389    2315.2383    4.2392434    4.2392434    4.2392434    2315.2383   -12319.307    -1187.993    20453.015   -12793.655   -8523.6459    3965.2512    76.184225 
   84800    860.54187   -161.67951   0.77863637   -160.90088    -5254.816    4.2322931    4.2322931    4.2322931    -5254.816   -11187.036   -10301.397    5723.9847    -1282.444   -1569.7742    8699.9503    75.810127 
   84900    720.39418   -161.55492   0.65182779   -160.90309   -233.13497    4.2369862    4.2369862    4.2369862   -233.13497   -8724.8291    2264.8208    5760.6034    2654.9292   -3008.3923   -250.31499    76.062599 
   85000    707.15998   -161.54493   0.63985321   -160.90507    2588.1155    4.2370005    4.2370005    4.2370005    2588.1155    -18484.18    12020.244    14228.283   -135.53159   -958.74478   -2511.4106    76.063367 
   85100    894.46151   -161.71467   0.80932757   -160.90534   -90.809621    4.2374611    4.2374611    4.2374611   -90.809621   -1862.9343    10211.623   -8621.1178    744.76467   -1123.9023   -5293.1478    76.088173 
   85200    883.64102   -161.70528   0.79953697   -160.90574   -16655.023    4.2447163    4.2447163    4.2447163   -16655.023   -12288.821    -26427.24   -11249.007   -4110.4513    1584.1008    2543.6355    76.479672 
   85300    760.07124   -161.59196   0.68772843   -160.90423   -10501.494    4.2382392    4.2382392    4.2382392   -10501.494   -17639.287   -13758.969   -106.22521   -633.37555    7836.7826   -4807.2912      76.1301 
   85400    877.14309   -161.69779    0.7936575   -160.90413   -3175.8139    4.2379537    4.2379537    4.2379537   -3175.8139    -8780.402    10226.297   -10973.336    2907.1298    6066.1339   -8829.3049    76.114714 
   85500     920.1579   -161.73675    0.8325782   -160.90418     2493.264    4.2413186    4.2413186    4.2413186     2493.264   -3240.4092    23127.935   -12407.734    1085.8356    3897.8824   -2372.7618     76.29616 
   85600    958.70238   -161.77232   0.86745406   -160.90487   -9849.3733    4.2413105    4.2413105    4.2413105   -9849.3733   -11996.515      6612.15   -24163.755    6013.4143    6032.8321   -4136.2421    76.295727 
   85700      916.735   -161.73646   0.82948109   -160.90698   -13656.742    4.2427901    4.2427901    4.2427901   -13656.742   -30910.142    3109.6692   -13169.753    11535.432     7771.319    871.63733    76.375602 
   85800    931.40562   -161.74939   0.84275537   -160.90664    4915.4825    4.2350711    4.2350711    4.2350711    4915.4825   -4424.8672    20238.224   -1066.9097    -4580.286    7777.0929    8001.0824    75.959502 
   85900    1064.6486   -161.86906   0.96331642   -160.90574   -231.94579    4.2354203    4.2354203    4.2354203   -231.94579   -4798.7727    12930.872   -8827.9371     -3775.31    6069.2033   -2340.2455    75.978294 
   86000    994.99928   -161.80417   0.90029626   -160.90387   -6095.0451    4.2379512    4.2379512    4.2379512   -6095.0451   -18328.893    22703.513   -22659.755   -414.43362     953.1415    1284.4211    76.114579 
   86100    841.20261   -161.66586    0.7611378   -160.90472   -33.375913    4.2360374    4.2360374    4.2360374   -33.375913    146.20629    14838.093   -15084.427   -4693.1281    1963.9228   -411.83615    76.011511 
   86200    883.16803   -161.70782     0.799109   -160.90871   -2439.1106    4.2401244    4.2401244    4.2401244   -2439.1106   -8219.3899    16635.109   -15733.051   -4951.3981    5797.7257   -6311.2341    76.231731 
   86300    912.89763   -161.73394   0.82600896   -160.90794    4985.7549    4.2392773    4.2392773    4.2392773    4985.7549    -4123.038    15409.638    3670.6646   -803.00785     10138.47    5581.2989    76.186053 
   86400    846.28026   -161.67117   0.76573217   -160.90544    687.99235    4.2387528    4.2387528    4.2387528    687.99235   -2437.2735    4113.1212    388.12934    8675.0102    5763.2433    3017.8131    76.157781 
   86500    871.62144   -161.69187   0.78866139   -160.90321    -13867.06    4.2379913    4.2379913    4.2379913    -13867.06   -26283.833   -3347.7023   -11969.644   -6268.9849    4158.4992    586.68174    76.116742 
   86600    742.48645   -161.58046   0.67181734   -160.90864   -251.84958    4.2389088    4.2389088    4.2389088   -251.84958    7011.9671    -4493.055   -3274.4608   -1772.7612    3688.0087    5638.2197    76.166189 
   86700    848.75155    -161.6791   0.76796824   -160.91113   -5152.6505    4.2411204    4.2411204    4.2411204   -5152.6505   -3194.9498   -5140.2291   -7122.7725    7145.8335    496.78827   -3191.9716    76.285465 
   86800     845.4627   -161.67121   0.76499242   -160.90622   -5209.1573    4.2363282    4.2363282    4.2363282   -5209.1573   -20977.428   -7362.7129    12712.669   -4878.2766   -1126.1078    3509.4446    76.027163 
   86900    788.97624   -161.62046   0.71388228   -160.90657   -8913.9104    4.2370459    4.2370459    4.2370459   -8913.9104   -8384.0447   -10269.244   -8088.4426    262.99412    668.86765    -2639.428    76.065814 
   87000    811.73964   -161.64155   0.73447909   -160.90707   -16919.097     4.242793     4.242793     4.242793   -16919.097   -12656.968   -8704.7712   -29395.554    12828.671    748.90331   -8818.7259    76.375759 
   87100    832.38736   -161.65984   0.75316158   -160.90668   -3942.7899    4.2386368    4.2386368    4.2386368   -3942.7899     1414.193    15278.815   -28521.378   -9567.9629     3029.251    1074.9778    76.151528 
   87200    817.89797   -161.64664   0.74005127   -160.90659    2826.9031    4.2363719    4.2363719    4.2363719    2826.9031     7894.096    16564.477   -15977.864   -6685.7568    821.97331   -10280.176     76.02952 
   87300    775.52704   -161.60829   0.70171317   -160.90657   -5277.8924    4.2373177    4.2373177    4.2373177   -5277.8924   -5259.4234     2053.588   -12627.842   -1995.2732   -2108.5314    544.60616    76.080453 
   87400    674.25183    -161.5171   0.61007723   -160.90702   -1466.2896    4.2358839    4.2358839    4.2358839   -1466.2896    8579.9945   -2449.6078   -10529.255   -15659.211   -2282.2835     2777.338    76.003247 
   87500    745.55316   -161.58229   0.67459217    -160.9077    2075.6475    4.2385701    4.2385701    4.2385701    2075.6475    6112.8557    22777.953   -22663.866   -4929.4737   -9797.8538   -10931.088    76.147933 
   87600    761.12298   -161.59726   0.68868007   -160.90858    1257.2962    4.2397884    4.2397884    4.2397884    1257.2962    3637.8555    22864.846   -22730.813    -524.4745   -13566.772   -6313.0397    76.213614 
   87700    629.82148   -161.47943   0.56987571   -160.90955    9156.8713    4.2281457    4.2281457    4.2281457    9156.8713    16854.731    10819.026   -203.14381   -2825.3202   -10972.244   -7130.4676    75.587475 
   87800     568.4595   -161.42543    0.5143541   -160.91108   -421.20172    4.2269803    4.2269803    4.2269803   -421.20172   -4537.4108    10872.858   -7599.0521   -10248.926   -14582.218   -6150.5804    75.524991 
   87900    685.01483    -161.5329   0.61981581   -160.91308   -8408.7752    4.2389023    4.2389023    4.2389023   -8408.7752   -13538.755    10412.933   -22100.504   -4362.7428   -18697.495    -4153.236    76.165837 
   88000    655.01031   -161.50722    0.5926671   -160.91456     1935.488    4.2418507    4.2418507    4.2418507     1935.488    27458.026    15050.148   -36701.711   -28.682481   -8807.2669    -57.76261    76.324881 
   88100    576.29969   -161.43185   0.52144807   -160.91041    10373.425    4.2339696    4.2339696    4.2339696    10373.425    35807.863    16125.507   -20813.095   -2137.1192   -11803.184    364.35072    75.900249 
   88200    700.82765   -161.54108   0.63412359   -160.90695   -3400.4866    4.2317257    4.2317257    4.2317257   -3400.4866    -4799.093    7710.7415   -13113.108    6608.4068   -7973.1336    1775.0474    75.779638 
   88300    652.19765   -161.49762   0.59012214    -160.9075   -8309.1744    4.2377933    4.2377933    4.2377933   -8309.1744   -20760.404    12256.388   -16423.508    6610.1086   -3720.0405    2818.6184    76.106072 
   88400    751.79853   -161.58713   0.68024311   -160.90688   -1969.0928    4.2385832    4.2385832    4.2385832   -1969.0928   -9702.4475    24720.259    -20925.09   -12345.793   -7930.4024     1582.062     76.14864 
   88500    617.28613   -161.46626   0.55853346   -160.90773   -5842.2797    4.2470283    4.2470283    4.2470283   -5842.2797    23715.586   -13460.977   -27781.448    275.24628   -121.34833    11048.638     76.60471 
   88600    504.86171   -161.36346   0.45680949   -160.90665    48.623505    4.2423262    4.2423262    4.2423262    48.623505    41314.499   -8552.5905   -32616.038   -512.78819   -1777.6342    8325.0777    76.350549 
   88700    628.96332    -161.4776   0.56909923    -160.9085    9898.5859    4.2345068    4.2345068    4.2345068    9898.5859    18144.885    34466.143   -22915.271   -11615.616     1209.085    3024.0404    75.929143 
   88800    656.24393   -161.50458    0.5937833    -160.9108   -10336.781    4.2408849    4.2408849    4.2408849   -10336.781    -16454.47     19180.13   -33736.002     2807.704    10873.528    9028.3929     76.27276 
   88900    591.45236   -161.44445   0.53515852   -160.90929   -3530.6702    4.2378091    4.2378091    4.2378091   -3530.6702   -1855.5491    6524.2182    -15260.68   -5540.5218    6482.6296    5060.3439    76.106921 
   89000    441.95684   -161.31481   0.39989183   -160.91492    8586.4859    4.2453062    4.2453062    4.2453062    8586.4859    26972.356    23384.374   -24597.272   -13659.751    6848.5691    11800.026    76.511562 
   89100    703.69789   -161.55394   0.63672064   -160.91721     5215.315     4.242811     4.242811     4.242811     5215.315    25213.632    24331.883    -33899.57   -2301.6229    7448.1793    11201.108    76.376728 
   89200    738.78893   -161.57891   0.66847175   -160.91044    2831.2548     4.231757     4.231757     4.231757    2831.2548   -8696.5986    40584.865   -23394.502   -10250.969    -85.62233    2824.8309    75.781321 
   89300    425.85021   -161.29421   0.38531822    -160.9089    -10494.02    4.2416924    4.2416924    4.2416924    -10494.02   -31429.026    34633.135   -34686.168   -3932.6572    7587.9848    5402.7214    76.316338 
   89400    710.42959   -161.54829   0.64281162   -160.90548   -12413.237    4.2394306    4.2394306    4.2394306   -12413.237   -20339.838    14540.983   -31440.856    12864.625    14658.809   -3290.2445    76.194321 
   89500    748.49083   -161.58524   0.67725023   -160.90799      6105.31    4.2408625    4.2408625    4.2408625      6105.31    25295.939    31390.808   -38370.817   -11531.464    5873.0384   -5783.0265    76.271549 
   89600    685.02565   -161.52673   0.61982561    -160.9069    5565.9838    4.2431511    4.2431511    4.2431511    5565.9838    28035.054    24187.333   -35524.436    1304.7885    5451.6376   -4449.0154    76.395098 
   89700    735.09297   -161.57242   0.66512756   -160.90729    5874.2404    4.2282144    4.2282144    4.2282144    5874.2404    6505.5849    12618.291   -1501.1544     7827.259   -3375.4338   -3057.3174    75.591161 
   89800    856.83358   -161.68401   0.77528103   -160.90873   -7803.0264    4.2298826    4.2298826    4.2298826   -7803.0264   -21399.355    11388.048   -13397.772    -4939.865   -5292.7597    5702.0708    75.680666 
   89900    883.21527   -161.70878   0.79915173   -160.90963   -2667.3088    4.2362535    4.2362535    4.2362535   -2667.3088   -16368.983    20498.967   -12131.911    6934.9562     3659.393    5763.8337    76.023144 
   90000    722.69263   -161.56522   0.65390748   -160.91131   -1059.3738    4.2456625    4.2456625    4.2456625   -1059.3738    19792.942   -614.93843   -22356.125    2913.2529   -7341.5237    5363.4894    76.530828 
   90100    735.12833   -161.57428   0.66515956   -160.90912       2154.2    4.2418516    4.2418516    4.2418516       2154.2    35395.837   -3491.0005   -25442.237   -4223.4537    -5656.743    1937.1498    76.324931 
   90200    775.66658   -161.61035   0.70183942   -160.90851    9158.9809    4.2267774    4.2267774    4.2267774    9158.9809    20981.003     14181.86   -7685.9202   -600.90453   -7203.1067   -6600.5205    75.514115 
   90300    814.77497   -161.64524   0.73722551   -160.90802   -12202.807    4.2296997    4.2296997    4.2296997   -12202.807   -10475.609   -4549.4849   -21583.327    11149.638    -13861.87   -3350.3595    75.670846 
   90400    701.48116   -161.54353    0.6347149   -160.90882   -5111.0491    4.2380562    4.2380562    4.2380562   -5111.0491   -2785.7653    462.54616   -13009.928    15092.702    1724.2934     2406.246    76.120239 
   90500    397.58803   -161.27218   0.35974601   -160.91243    16460.096    4.2450328    4.2450328    4.2450328    16460.096    44616.607    3932.6728    831.00919   -65.233708    2551.0516     5472.878    76.496781 
   90600    588.42718   -161.44725   0.53242128   -160.91483    5853.7661    4.2427043    4.2427043    4.2427043    5853.7661    49771.993   -18106.751   -14103.943    3733.8709    5571.0805    6536.4568    76.370969 
   90700    494.72488   -161.36474   0.44763746    -160.9171      4521.05    4.2297455    4.2297455    4.2297455      4521.05     25359.07    5416.0784   -17211.999    10196.142   -5944.8817   -647.99009    75.673309 
   90800    543.65181    -161.4057   0.49190758   -160.91379   -8038.9326    4.2334364    4.2334364    4.2334364   -8038.9326    4155.6245    -4534.815   -23737.607    3192.3405   -11988.486     176.1986    75.871577 
   90900    446.29906   -161.31535   0.40382077   -160.91153    5951.4501    4.2443382    4.2443382    4.2443382    5951.4501    41515.653    7842.5062   -31503.809    -6297.715   -4231.9157   -4274.8328    76.459235 
   91000    414.54467   -161.29118   0.37508873    -160.9161    26048.037    4.2424923    4.2424923    4.2424923    26048.037    66444.388    15708.974   -4009.2504    1708.6636   -8935.5636   -1586.7228     76.35952 
   91100    477.68792   -161.34421   0.43222207   -160.91199     6894.952    4.2431829    4.2431829    4.2431829     6894.952    31980.206   -3301.5704   -7993.7797    2146.3669   -1093.4138    1017.6999    76.396818 
   91200    439.84901   -161.30383   0.39798463   -160.90584   -4006.5018    4.2386728    4.2386728    4.2386728   -4006.5018    19462.697   -11411.626   -20070.576    5174.0964   -2623.4217   -4679.7407    76.153468 
   91300     476.0806   -161.33651   0.43076773   -160.90575   -4460.8207    4.2334081    4.2334081    4.2334081   -4460.8207    14664.878   -18501.568   -9545.7723    19024.786   -3375.9777     -1847.96    75.870057 
   91400    418.69963   -161.28815   0.37884822    -160.9093    13646.286    4.2367995    4.2367995    4.2367995    13646.286    31710.809    14533.892   -5305.8413    20533.177    1337.2201    2241.2778     76.05254 
   91500     539.1591   -161.39881   0.48784248   -160.91097    1620.7926    4.2442845    4.2442845    4.2442845    1620.7926    35579.398   -13803.203   -16913.817    7488.4985    3309.3589    4921.5518    76.456335 
   91600     236.4961   -161.12575   0.21398664   -160.91177    10862.966    4.2395845    4.2395845    4.2395845    10862.966    19058.472     22608.44   -9078.0144    9135.7108    10705.327    5638.1276    76.202617 
   91700     423.9671   -161.28918   0.38361435   -160.90556     2193.917    4.2324273    4.2324273    4.2324273     2193.917   -588.97499    19376.853   -12206.128     19763.83    7830.0812  -0.31663423    75.817338 
   91800    682.47573   -161.52315   0.61751838   -160.90563    231.41429    4.2301365    4.2301365    4.2301365    231.41429    8629.7706   -1489.3438   -6446.1839    29494.375   -4882.3194   -5061.5714    75.694293 
   91900    521.64096   -161.38045   0.47199171   -160.90846    6809.6301     4.235696     4.235696     4.235696    6809.6301    18933.016   -407.57015    1903.4441    22041.177   -1382.1355   -2825.0002    75.993132 
   92000    652.53644   -161.49719   0.59042868   -160.90677   -12153.743    4.2443472    4.2443472    4.2443472   -12153.743   -6743.4393   -24136.134   -5581.6561    9997.2773     155.5818   -432.52405     76.45972 
   92100    614.06712    -161.4611   0.55562083   -160.90548   -233.70566    4.2423698    4.2423698    4.2423698   -233.70566   -11424.971    9441.6486    1282.2053    15089.778    3201.3556    3133.6531    76.352904 
   92200    743.12434   -161.57642   0.67239452   -160.90403   -702.57502    4.2366274    4.2366274    4.2366274   -702.57502    -10122.25    8928.5854   -914.06056    11305.426    14003.682    4543.2149    76.043277 
   92300    870.47517   -161.68927   0.78762423   -160.90165   -989.09467     4.229704     4.229704     4.229704   -989.09467    5979.6313   -3264.6217   -5682.2935    2066.2146    7455.0583    876.25111     75.67108 
   92400    822.11292   -161.64742   0.74386505   -160.90356   -5893.7737    4.2341803    4.2341803    4.2341803   -5893.7737    12321.969   -22972.012   -7031.2785    11950.666    5352.5433   -603.33281    75.911584 
   92500    889.22668   -161.70902   0.80459098   -160.90443   -21026.627    4.2471806    4.2471806    4.2471806   -21026.627   -23827.005   -17746.098   -21506.779    11203.297    3529.9084    992.15906    76.612951 
   92600    911.01394    -161.7301   0.82430456    -160.9058   -13429.792    4.2421376    4.2421376    4.2421376   -13429.792   -19357.286   -8976.2751   -11955.816   -10468.012    1231.0557   -298.46946    76.340369 
   92700    857.46147   -161.68025   0.77584916    -160.9044   -1674.0964    4.2356848    4.2356848    4.2356848   -1674.0964    11105.085   -18010.628    1883.2543   -12005.046   -1103.9638    -3211.779    75.992529 
   92800    768.24969   -161.59736   0.69512847   -160.90223    7982.7216    4.2364589    4.2364589    4.2364589    7982.7216    25774.449     675.3213   -2501.6055   -7901.0111   -8743.3111   -2488.8081    76.034203 
   92900    1076.8342   -161.87902    0.9743422   -160.90468   -15377.218    4.2403521    4.2403521    4.2403521   -15377.218   -11511.157   -10617.594   -24002.903   -7366.4145   -5332.0766   -1928.1501    76.244015 
   93000    854.27528   -161.68323   0.77296623   -160.91026   -3886.6691    4.2435926    4.2435926    4.2435926   -3886.6691   -4934.8828    14191.935    -20917.06   -2337.5196   -3015.8175   -709.65269    76.418949 
   93100    864.57222   -161.69084   0.78228311   -160.90856   -1110.7832    4.2385054    4.2385054    4.2385054   -1110.7832    12861.759   -8479.9557   -7714.1531   -11625.917    3540.4777    3322.3509    76.144447 
   93200    727.47138   -161.56459   0.65823139   -160.90636    3936.4283    4.2355462    4.2355462    4.2355462    3936.4283    9094.8994   -7830.7247     10545.11   -2118.6076    2454.7228   -976.62426    75.985071 
   93300    717.09672   -161.55654   0.64884418   -160.90769    9778.8766    4.2373243    4.2373243    4.2373243    9778.8766    4012.9568    25281.082    42.590783    2842.9042    37.591258    2739.8002     76.08081 
   93400    931.02804   -161.74849   0.84241373   -160.90607   -4819.2908    4.2382178    4.2382178    4.2382178   -4819.2908    946.06656    7079.9104   -22483.849   -7295.5246    976.77774   -1945.6015    76.128947 
   93500    665.75575   -161.50958   0.60238979   -160.90719   -8378.9008    4.2393574    4.2393574    4.2393574   -8378.9008    9983.5686   -2959.0895   -32161.182    94.740863   -5274.5104    3088.7418    76.190374 
   93600    719.57428   -161.56039   0.65108593    -160.9093   -9845.1361    4.2383975    4.2383975    4.2383975   -9845.1361   -4379.3865    454.03589   -25610.058    -2083.108   -138.49404    1996.8376    76.138631 
   93700    767.79635   -161.60355   0.69471827   -160.90883   -1658.2374    4.2330446    4.2330446    4.2330446   -1658.2374   -13572.916    13302.754   -4704.5509   -14538.857   -3711.7963    3244.8396    75.850514 
   93800    628.33819   -161.47783    0.5685336   -160.90929    5562.1507    4.2339689    4.2339689    4.2339689    5562.1507     -1935.48    13175.914    5446.0181   -5891.9665   -1799.5537    -2749.958    75.900213 
   93900     585.9713   -161.44079   0.53019914   -160.91059    -1869.219    4.2399349    4.2399349    4.2399349    -1869.219    -3546.506    2769.4443   -4830.5952   -4284.2883    1868.1195   -3463.7513    76.221512 
   94000    702.25793   -161.54222   0.63541773    -160.9068   -2748.6992    4.2409617    4.2409617    4.2409617   -2748.6992   -948.30399     13797.38   -21095.174   -9894.6806   -1068.1863     1848.258      76.2769 
   94100    678.93629   -161.52169   0.61431583   -160.90737   -243.61923     4.241383     4.241383     4.241383   -243.61923    2505.2088    26260.938   -29497.005   -1239.6162    1853.5614   -1977.5977    76.299639 
   94200    815.02633   -161.64463   0.73745295   -160.90718   -8490.8934    4.2322242    4.2322242    4.2322242   -8490.8934   -2888.5082   -4852.2779   -17731.894   -445.73882   -5255.3609    4408.6883     75.80642 
   94300    832.03087    -161.6589   0.75283902   -160.90606   -10311.829    4.2350682    4.2350682    4.2350682   -10311.829   -15075.296   -54.982426    -15805.21    3317.2883   -8407.9714   -2502.1003    75.959346 
   94400    636.12923    -161.4821    0.5755831   -160.90652    -385.1301    4.2443099    4.2443099    4.2443099    -385.1301   -31865.973    31958.479   -1247.8959    1515.7443    1096.1937    2129.2882    76.457708 
   94500    807.38053     -161.637   0.73053487   -160.90647   -141.70889    4.2404214    4.2404214    4.2404214   -141.70889   -16741.394    5427.0681    10889.199   -2754.0968    810.52413    1750.7984    76.247754 
   94600    823.76118   -161.65097   0.74535642   -160.90561   -4800.8065    4.2445542    4.2445542    4.2445542   -4800.8065   -311.17987    227.30188   -14318.542   -1695.1779    4712.4207    2066.6159    76.470909 
   94700    691.48002   -161.53547   0.62566566    -160.9098     8551.759    4.2366465    4.2366465    4.2366465     8551.759    5128.4199    40650.156   -20123.299    665.03465    1819.1841   -1270.9687    76.044301 
   94800    802.04415   -161.63418    0.7257064   -160.90847    2624.2779    4.2267181    4.2267181    4.2267181    2624.2779    2945.6601    22629.735   -17702.562    1447.8899   -4923.2495   -687.37016    75.510933 
   94900    736.38307   -161.57701   0.66629488   -160.91072   -16750.068    4.2408467    4.2408467    4.2408467   -16750.068   -19931.388    -3049.734   -27269.082   -3766.7043   -2853.4852   -3386.6622    76.270698 
   95000    648.86858   -161.49458   0.58710992   -160.90747   -2824.4209    4.2448333    4.2448333    4.2448333   -2824.4209   -16260.143    21373.165   -13586.285   -2776.8554   -3246.5883    5480.8695    76.485997 
   95100    537.18552   -161.39547   0.48605674   -160.90941    13152.793    4.2380527    4.2380527    4.2380527    13152.793    -239.7763    36347.335    3350.8192    1754.9031    1295.9322    7456.4932    76.120047 
   95200    527.15232   -161.38644    0.4769785   -160.90946    3407.6888    4.2365345    4.2365345    4.2365345    3407.6888   -2218.3156    8976.6028    3464.7792    515.48532    4158.8722    7459.9853    76.038275 
   95300    547.13599   -161.40335   0.49506015   -160.90829    11925.597    4.2359424    4.2359424    4.2359424    11925.597    5309.3428    28814.407    1653.0413   -6799.5803    1604.8616   -968.43236    76.006393 
   95400    840.75724   -161.66845   0.76073482   -160.90772   -10508.041    4.2461828    4.2461828    4.2461828   -10508.041   -23304.579    18876.762   -27096.307    7519.8393   -5594.1634   -3630.6494    76.558964 
   95500    778.87596   -161.61017   0.70474333   -160.90543   -8581.0537    4.2420787    4.2420787    4.2420787   -8581.0537   -27193.554    35223.231   -33772.838    7042.2304   -1160.9009   -4443.6796    76.337189 
   95600    700.52704   -161.53684   0.63385159   -160.90299    8150.3695    4.2316342    4.2316342    4.2316342    8150.3695   -3509.0721    40294.015   -12333.835   -2644.0387    45.179501   -5716.9647    75.774722 
   95700    840.96815   -161.66554   0.76092565   -160.90461   -16144.746    4.2398492    4.2398492    4.2398492   -16144.746   -3588.8454   -19120.562    -25724.83    4141.6688   -228.22298   -3818.1783     76.21689 
   95800    600.17027   -161.44787   0.54304667   -160.90483    795.73493    4.2430511    4.2430511    4.2430511    795.73493   -1934.7027    12505.203   -8183.2955     2375.155    5405.6021   -6292.6028    76.389696 
   95900    488.71983   -161.34755   0.44220398   -160.90535    9000.5829    4.2430497    4.2430497    4.2430497    9000.5829   -22006.089    40714.158      8293.68    248.55548   -2448.8632   -12602.544    76.389623 
   96000    584.91143   -161.44049   0.52924016   -160.91125    1482.0108    4.2345598    4.2345598    4.2345598    1482.0108   -14915.912   -2262.6102    21624.555    8227.0127    -2831.577    -10000.87    75.931996 
   96100    444.10604    -161.3158   0.40183647   -160.91396    11518.857    4.2294199    4.2294199    4.2294199    11518.857    6878.7155    5004.5673    22673.289   -609.98115   -3559.1489   -10221.162    75.655831 
   96200    616.94896    -161.4694   0.55822839   -160.91117   -3721.6278    4.2460957    4.2460957    4.2460957   -3721.6278   -13982.269    20248.427   -17431.042     2075.864   -6318.0995   -13125.133    76.554257 
   96300    697.28214   -161.53928   0.63091554   -160.90837   -16169.925    4.2496365    4.2496365    4.2496365   -16169.925   -36270.427    26785.773    -39025.12    6960.5748    2980.5722   -11077.809    76.745932 
   96400    708.65963   -161.55003   0.64121012   -160.90882   -3820.0107    4.2418697    4.2418697    4.2418697   -3820.0107   -22639.919    26864.534   -15684.648    3409.8409   -703.36637   -8430.5239    76.325909 
   96500    616.66119   -161.46883   0.55796801   -160.91086    6776.6886    4.2433539    4.2433539    4.2433539    6776.6886   -17139.747    37482.119   -12.306006    12115.367   -3398.8939   -802.13858    76.406053 
   96600    670.37648   -161.51542   0.60657073   -160.90885    6718.1934    4.2343378    4.2343378    4.2343378    6718.1934   -27697.578    23791.356    24060.802    15719.958    207.68215    2937.7556    75.920051 
   96700    621.95748   -161.47399    0.5627602   -160.91123    4515.5491    4.2399322    4.2399322    4.2399322    4515.5491   -38499.846    20989.817    31056.677    1055.4478   -1821.2804    4536.1135     76.22137 
   96800    779.62446   -161.61704   0.70542059   -160.91162   -5468.6585    4.2509177    4.2509177    4.2509177   -5468.6585   -31584.404    12327.667    2850.7617    5928.7331     3539.024    7170.3093    76.815363 
   96900    774.17946   -161.61209   0.70049385    -160.9116   -3386.4392     4.241465     4.241465     4.241465   -3386.4392    -18790.43    5475.0886    3156.0241   -677.21029    1864.2956   -86.775906    76.304062 
   97000     930.9717   -161.74902   0.84236276   -160.90665    -13924.11    4.2357124    4.2357124    4.2357124    -13924.11   -31417.268    3153.9641   -13509.026   -4877.8036   -1834.9638    605.17864    75.994017 
   97100    853.03609   -161.67747   0.77184498   -160.90563    -5699.745    4.2363873    4.2363873    4.2363873    -5699.745   -26218.492    23815.977    -14696.72    5466.9166    507.84777    3453.3243    76.030349 
   97200    864.60498   -161.69108   0.78231276   -160.90877   -1437.5694    4.2422371    4.2422371    4.2422371   -1437.5694   -7730.2592    5497.4854   -2079.9342   -2848.1312    790.16186   -500.03649    76.345741 
   97300    733.39968   -161.57407   0.66359544   -160.91048    4201.9979    4.2447195    4.2447195    4.2447195    4201.9979   -4566.6802    11410.053    5762.6206    1549.6336    3956.7246   -3345.2811    76.479843 
   97400    596.27647   -161.45095   0.53952348   -160.91143    18026.555    4.2332993    4.2332993    4.2332993    18026.555    1414.9789    23091.827    29572.859    6365.8054    5223.9217   -3339.9913    75.864206 
   97500    629.75085   -161.47889   0.56981181   -160.90907    9271.3468    4.2291066    4.2291066    4.2291066    9271.3468    5967.7005    3485.4586    18360.881     4747.333    361.63634   -7629.2763     75.63902 
   97600    920.06102    -161.7378   0.83249055   -160.90531   -22887.682    4.2413024    4.2413024    4.2413024   -22887.682   -19292.447   -24679.856   -24690.742    9177.4167   -3768.7249   -8573.6929    76.295288 
   97700    605.54059   -161.45564   0.54790585   -160.90773    -8179.879    4.2445908    4.2445908    4.2445908    -8179.879   -24789.148    29363.143   -29113.632    2406.5885    345.39756   -9847.3305    76.472887 
   97800    491.66459   -161.35203   0.44486845   -160.90716    8104.1178    4.2375044    4.2375044    4.2375044    8104.1178    625.99352    41572.358   -17885.999   -2543.9747   -805.79128   -13259.675    76.090508 
   97900    783.76296   -161.61548    0.7091652   -160.90631   -7497.4422    4.2376106    4.2376106    4.2376106   -7497.4422    8425.8176   -15126.127   -15792.017   -1305.5469    1692.9291   -9608.7687    76.096232 
   98000    738.93033   -161.57447   0.66859969   -160.90587    11274.602    4.2334822    4.2334822    4.2334822    11274.602    11530.475    24462.686   -2169.3547   -1435.6532    1245.1928   -12467.689    75.874042 
   98100    635.45373   -161.48063   0.57497189   -160.90565     7565.337    4.2386477    4.2386477    4.2386477     7565.337   -12340.898    46930.121   -11893.212   -6626.1551    785.45901   -3444.8734    76.152114 
   98200    878.01872   -161.69807   0.79444979   -160.90362   -22294.588    4.2449069    4.2449069    4.2449069   -22294.588   -27846.308   -1825.5481   -37211.907    1457.1583    -1784.131   -2725.0577    76.489973 
   98300    853.18924   -161.67583   0.77198355   -160.90384   -2123.7119    4.2369494    4.2369494    4.2369494   -2123.7119    5629.7262    19119.318    -31120.18   -163.46208    -2929.548   -1720.0818    76.060617 
   98400    851.31609   -161.67525   0.77028869   -160.90496    -1926.841    4.2376038    4.2376038    4.2376038    -1926.841    4797.3504    19417.261   -29995.134   -3118.5094    865.94087    3994.4396    76.095862 
   98500    646.19944   -161.49031   0.58469483   -160.90562    6894.9036     4.234536     4.234536     4.234536    6894.9036    2678.4839    33027.572   -15021.345   -2481.7062    3364.2393    648.92916    75.930716 
   98600    679.90318   -161.52038   0.61519068   -160.90519    5397.4316    4.2351321    4.2351321    4.2351321    5397.4316     7715.585    17317.312   -8840.6022   -37.317923    2952.0443   -2017.1674    75.962785 
   98700    889.36589   -161.71099   0.80471695   -160.90628   -14258.332    4.2442428    4.2442428    4.2442428   -14258.332   -250.86826   -18107.744   -24416.382   -6499.6889    1734.8079    7834.5157    76.454081 
   98800     925.2011   -161.74057    0.8371414   -160.90343   -3819.5176    4.2338081    4.2338081    4.2338081   -3819.5176   -8798.4729    14501.021   -17161.101   -4051.8749   -4276.3524    9711.0839    75.891563 
   98900    659.91558   -161.50163   0.59710548   -160.90452    7859.9127    4.2340817    4.2340817    4.2340817    7859.9127   -6978.0353    52115.661   -21557.887   -1654.0008   -2117.3962    6190.3989    75.906277 
   99000    804.50951   -161.63495   0.72793711   -160.90702   -9792.3544    4.2401258    4.2401258    4.2401258   -9792.3544   -2443.0746   -10759.277   -16174.712   -6709.8991    3126.0534    12558.516    76.231811 
   99100    851.11577   -161.67832   0.77010743   -160.90822    7482.4189    4.2300481    4.2300481    4.2300481    7482.4189    25377.297   -7008.1827    4078.1425   -3520.1616    4773.4278    5832.3954    75.689547 
   99200    603.02953   -161.45624   0.54563379   -160.91061    17328.968    4.2391157    4.2391157    4.2391157    17328.968    25377.727    21588.644    5020.5315    1479.8398    2180.8579    9543.3408    76.177339 
   99300    712.94933   -161.55292   0.64509154   -160.90782   -1067.8171    4.2417103    4.2417103    4.2417103   -1067.8171    -1107.812    13518.005   -15613.644   -157.77145    2459.6599    9962.3755    76.317301 
   99400    839.39858   -161.66734   0.75950547   -160.90783   -8919.2348    4.2388055    4.2388055    4.2388055   -8919.2348   -97.309201   -3627.3859   -23033.009   -6320.7465    407.97338    4792.0249    76.160617 
   99500    682.15147   -161.52511   0.61722498   -160.90788   -11049.156    4.2432101    4.2432101    4.2432101   -11049.156   -13318.552    3088.2207   -22917.136   -4572.3764   -7811.8151    16466.027    76.398283 
   99600    636.05915    -161.4814   0.57551969   -160.90588   -209.17631    4.2303518    4.2303518    4.2303518   -209.17631   -6674.5934    9623.3573   -3576.2929   -4862.4921    3622.9615    10738.821    75.705854 
   99700    649.10054   -161.49421   0.58731981   -160.90689     178.6098    4.2364583    4.2364583    4.2364583     178.6098   -286.07799    9056.2691   -8234.3617   -10605.765    2374.3522   -2226.6311    76.034169 
   99800    631.87891   -161.47817   0.57173732   -160.90644    5863.1644    4.2453558    4.2453558    4.2453558    5863.1644    12472.061    28278.943    -23161.51    -7609.095    -2814.491    1656.4622    76.514242 
   99900    815.25288   -161.64311   0.73765794   -160.90546    5917.5788    4.2353732    4.2353732    4.2353732    5917.5788     15503.23    17153.057   -14903.551    296.57353    222.64655   -3851.2471    75.975759 
  100000    761.03033   -161.59715   0.68859623   -160.90855   -3552.3825     4.238184     4.238184     4.238184   -3552.3825   -19162.098    23596.414   -15091.463    2603.2765   -1244.4664   -7026.3977    76.127125 
Loop time of 57.1463 on 1 procs for 100000 steps with 8 atoms

Pair  time (%) = 20.2562 (35.4462)
Kspce time (%) = 13.2462 (23.1794)
Neigh time (%) = 0 (0)
Comm  time (%) = 2.94184 (5.14792)
Outpt time (%) = 0.196826 (0.344425)
Other time (%) = 20.5053 (35.8821)

Nlocal:    8 ave 8 max 8 min
Histogram: 1 0 0 0 0 0 0 0 0 0
Nghost:    2189 ave 2189 max 2189 min
Histogram: 1 0 0 0 0 0 0 0 0 0
Neighs:    2472 ave 2472 max 2472 min
Histogram: 1 0 0 0 0 0 0 0 0 0

Total # of neighbors = 2472
Ave neighs/atom = 309
Neighbor list builds = 0
Dangerous builds = 0
unfix 20
unfix 21
print "seeds:9609658"
seeds:9609658
