LAMMPS (10 Feb 2015)
# ---- initialize simulations
clear
units metal
dimension 3
boundary p p p
atom_style charge
atom_modify map array
# ---- create atoms
read_data /Users/eugeneragasa/pyflamestk_git/pypospack/tests/tests_integration/workflow/WorkflowLammpsThermalExpansion/param_4927/MgO_NaCl_unit.npt.T700/lammps.structure
  triclinic box = (0 0 0) to (4.2565 4.2565 4.2565) with tilt (0 0 0)
  1 by 1 by 1 MPI processor grid
  reading atoms ...
  8 atoms
# ---- define interatomic potential
include potential.mod
mass 1 24.305
mass 2 15.999

group Mg type 1
4 atoms in group Mg
group O type 2
4 atoms in group O

set group Mg charge 1.66679564584
  4 settings made for charge
set group O charge -1.66679564584
  4 settings made for charge

variable R_cut equal 10.0

pair_style buck/coul/long ${R_cut}
pair_style buck/coul/long 10
pair_coeff 1 1 0.0 0.5 0.0 ${R_cut}
pair_coeff 1 1 0.0 0.5 0.0 10
pair_coeff 1 2 1241.53975785 0.290586946924 0.0 ${R_cut}
pair_coeff 1 2 1241.53975785 0.290586946924 0.0 10
pair_coeff 2 2 7336.97641517 0.111647641293 25.3936876208 ${R_cut}
pair_coeff 2 2 7336.97641517 0.111647641293 25.3936876208 10

kspace_style pppm 1.0e-5

neighbor 1.0 bin
neigh_modify every 1 delay 0 check yes
# ---- define settings
compute eng all pe/atom
compute eatoms all reduce sum c_eng
# ---- run minimization
reset_timestep 0
fix 1 all box/relax iso 0.0 vmax 0.001
thermo 10
thermo_style custom step pe lx ly lz xy xz yz press pxx pyy pzz pxy pxz pyz c_eatoms
min_style cg
minimize 1e-25 1e-25 5000 10000
PPPM initialization ...
  G vector (1/distance) = 0.352901
  grid = 8 8 8
  stencil order = 5
  estimated absolute RMS force accuracy = 3.98348e-05
  estimated relative force accuracy = 2.76637e-06
  using double precision FFTs
  3d grid and FFT values/proc = 3375 512
Neighbor list info ...
  1 neighbor list requests
  update every 1 steps, delay 0 steps, check yes
  master list distance cutoff = 11
Memory usage per processor = 4.06549 Mbytes
Step PotEng Lx Ly Lz Xy Xz Yz Press Pxx Pyy Pzz Pxy Pxz Pyz eatoms 
       0    -112.5899       4.2565       4.2565       4.2565            0            0            0    58061.201    58061.201    58061.201    58061.201 6.8070985e-11 -1.221979e-10 1.2952011e-11    -112.5899 
      10   -112.63526     4.299065     4.299065     4.299065            0            0            0    6762.9013    6762.9013    6762.9013    6762.9013 -3.6532134e-11 6.5076144e-11 2.4224675e-10   -112.63526 
      13     -112.636    4.3051131    4.3051131    4.3051131            0            0            0   -6.5125139   -6.5125139   -6.5125139   -6.5125139 2.4815902e-11 -1.1583773e-10 3.0521581e-11     -112.636 
Loop time of 0.0104001 on 1 procs for 13 steps with 8 atoms

Minimization stats:
  Stopping criterion = linesearch alpha is zero
  Energy initial, next-to-last, final = 
        -112.589903458     -112.636003249     -112.636003249
  Force two-norm initial, final = 8.38407 0.00186563
  Force max component initial, final = 8.38407 0.000962014
  Final line search alpha, max atom move = 0.00390625 3.75787e-06
  Iterations, force evaluations = 13 30

Pair  time (%) = 0.00279474 (26.8724)
Kspce time (%) = 0.00167727 (16.1276)
Neigh time (%) = 0 (0)
Comm  time (%) = 0.000314713 (3.02607)
Outpt time (%) = 1.69277e-05 (0.162766)
Other time (%) = 0.0055964 (53.8112)

Nlocal:    8 ave 8 max 8 min
Histogram: 1 0 0 0 0 0 0 0 0 0
Nghost:    2189 ave 2189 max 2189 min
Histogram: 1 0 0 0 0 0 0 0 0 0
Neighs:    2344 ave 2344 max 2344 min
Histogram: 1 0 0 0 0 0 0 0 0 0

Total # of neighbors = 2344
Ave neighs/atom = 293
Neighbor list builds = 0
Dangerous builds = 0
unfix 1
# ---- define output variables ----
variable natoms equal "count(all)"
variable tot_energy equal "c_eatoms"
variable length_x equal "lx"
variable length_y equal "ly"
variable length_z equal "lz"
variable tilt_xy equal "xy"
variable tilt_xz equal "xz"
variable tilt_yz equal "yz"
variable tot_press equal "press"
variable press_xx equal "pxx"
variable press_yy equal "pyy"
variable press_zz equal "pzz"
variable press_xy equal "pxy"
variable press_xz equal "pxz"
variable press_yz equal "pyz"

# ---- output ----
print "pypospack:output_section:begin"
pypospack:output_section:begin
print "tot_energy = ${tot_energy}"
tot_energy = -112.63600324896
print "num_atoms = ${natoms}"
num_atoms = 8
print "xx = ${length_x}"
xx = 4.30511307073731
print "yy = ${length_y}"
yy = 4.30511307073731
print "zz = ${length_z}"
zz = 4.30511307073731
print "xy = ${tilt_xy}"
xy = 0
print "xz = ${tilt_xz}"
xz = 0
print "yz = ${tilt_yz}"
yz = 0
print "tot_press = ${tot_press}"
tot_press = -6.51251387968517
print "pxx = ${press_xx}"
pxx = -6.51251387980119
print "pyy = ${press_yy}"
pyy = -6.51251387961014
print "pzz = ${press_zz}"
pzz = -6.51251387964418
print "pxy = ${press_xy}"
pxy = 2.48159019880152e-11
print "pxz = ${press_xz}"
pxz = -1.15837732664817e-10
print "pyz = ${press_yz}"
pyz = 3.05215812050655e-11
print "pypospack:output_section:done"
pypospack:output_section:done
print "pypospack:lammps_sim:done"
pypospack:lammps_sim:done
#------------------------------------------------------------------------------
# RUN THERMOSTAT
# running using an NPT Nose-Hoover style thermostat
#------------------------------------------------------------------------------
variable tempdamp equal 0.1
variable pressdamp equal 1.0
# set initial velocities
velocity all create 700 9894952 mom yes dist gaussian loop all
# fix for Nose-Hoover style thermostat
fix 20 all npt temp 700 700 0.1 aniso 0.0 0.0 1.0 drag 1.0 couple xyz
variable boxx equal lx
variable boxy equal ly
variable boxz equal lz
variable boxp equal press
variable boxt equal temp
# calculate averages every 10000 steps
reset_timestep 0
fix 21 all ave/time 10 10 100 v_boxx v_boxy v_boxz v_boxp v_boxt file lattice.out
thermo_style custom step temp pe ke etotal press lx ly lz press pxx pyy pzz pxy pxz pyz vol
thermo_modify flush yes
thermo 100
run 100000
PPPM initialization ...
  G vector (1/distance) = 0.352409
  grid = 8 8 8
  stencil order = 5
  estimated absolute RMS force accuracy = 4.075e-05
  estimated relative force accuracy = 2.82993e-06
  using double precision FFTs
  3d grid and FFT values/proc = 3375 512
Memory usage per processor = 3.06549 Mbytes
Step Temp PotEng KinEng TotEng Press Lx Ly Lz Press Pxx Pyy Pzz Pxy Pxz Pyz Volume 
       0          700   -112.63601   0.63337471   -112.00264    8470.6466    4.3051131    4.3051131    4.3051131    8470.6466    5506.4534    3559.8203    16345.666    338.06395   -3601.5014   -4763.3391    79.790959 
     100    355.53848   -112.23351   0.32169869   -111.91181   -5958.4219    4.3299486    4.3299486    4.3299486   -5958.4219   -13076.911   -16105.042    11306.687    -1499.795         4136    816.19028    81.179847 
     200    398.02696   -112.10523   0.36014316   -111.74509   -3951.4283    4.3307381    4.3307381    4.3307381   -3951.4283   -10743.975    -14534.31    13423.999    109.50316    2304.1953    2898.0913    81.224262 
     300    472.65994   -112.02035   0.42767264   -111.59268    13441.208     4.322398     4.322398     4.322398    13441.208    3727.3283    2964.1216    33632.173    2307.6794    -3439.024    6862.0432    80.755899 
     400    457.35909   -111.89134   0.41382812   -111.47751   -22381.627    4.3425508    4.3425508    4.3425508   -22381.627   -3140.0582    -15831.41   -48173.412     1631.499    2462.6774    4536.6924    81.890728 
     500    667.11023   -112.00323   0.60361535   -111.39961    6902.3504    4.3339164    4.3339164    4.3339164    6902.3504   -9213.5863   -7969.7261    37890.363    3547.5374    14024.334    442.69845    81.403218 
     600    1038.0012   -112.30533   0.93920529   -111.36613    2343.1966    4.3355803    4.3355803    4.3355803    2343.1966   -7357.3784   -18593.904    32980.872    2095.8525    7167.2945   -1333.0571    81.497015 
     700    586.20747    -111.8918   0.53041284   -111.36139    12105.151    4.3387489    4.3387489    4.3387489    12105.151   -16593.693   -5252.4798    58161.627    1513.9772    584.98428   -3182.1016    81.675827 
     800    926.27571   -112.19425   0.83811373   -111.35614   -12501.881    4.3377001    4.3377001    4.3377001   -12501.881    -10201.83   -7843.6737   -19460.139   -47.055062   -2305.5149   -3349.3543    81.616615 
     900    449.13642   -111.76689   0.40638807    -111.3605    894.18881    4.3347338    4.3347338    4.3347338    894.18881    555.99368    1690.1572    436.41556   -3196.4638   -7449.4775    3816.1986    81.449289 
    1000    448.28235   -111.76951   0.40561529    -111.3639   -20.196952    4.3361092    4.3361092    4.3361092   -20.196952   -10320.501   -2913.5989    13173.509   -1215.8386    10206.248    6886.3743    81.526843 
    1100     642.7209   -111.94392   0.58154738   -111.36237    6358.6324    4.3410315    4.3410315    4.3410315    6358.6324   -6983.8603   -15439.344    41499.102   -4909.5853    2897.5528    8116.2382    81.804804 
    1200    917.18356   -112.19682   0.82988696   -111.36693    4348.0514    4.3312634    4.3312634    4.3312634    4348.0514    7041.1792    -11379.98    17382.955   -2803.1184    1292.8713    -4957.701    81.253818 
    1300    826.77979    -112.1189   0.74808772   -111.37082    1308.9908    4.3326639    4.3326639    4.3326639    1308.9908    -8723.177   -6660.5896    19310.739    -1142.724    2342.6415   -1500.8218    81.332666 
    1400    629.14476   -111.93577    0.5692634   -111.36651   -7214.5926    4.3454177    4.3454177    4.3454177   -7214.5926    7022.8343   -22363.884   -6302.7286   -1384.4053   -4560.6384   -4680.3368    82.053023 
    1500    436.49289   -111.75622   0.39494794   -111.36127    8686.6269    4.3319386    4.3319386    4.3319386    8686.6269   -3739.2711    -5879.385    35678.537   -1824.8866    4576.0751   -3102.2848    81.291826 
    1600    723.53465   -112.01669   0.65466936   -111.36202   -4641.3901    4.3317727    4.3317727    4.3317727   -4641.3901    1501.1779   -444.29147   -14981.057    1699.2878    8369.1137   -813.74377    81.282484 
    1700    679.43096   -111.98213   0.61476341   -111.36736   -8582.0423     4.349291     4.349291     4.349291   -8582.0423   -3055.2287   -29549.073    6858.1751    1082.3814    5346.0129    772.82776    82.272631 
    1800    915.04802    -112.1935   0.82795468   -111.36554    14470.998    4.3215979    4.3215979    4.3215979    14470.998    -6013.463   -10676.345    60102.803   -995.89093   -11016.861    7628.6094    80.711065 
    1900    757.86439   -112.05591   0.68573163   -111.37018    13973.635    4.3320182    4.3320182    4.3320182    13973.635    16979.705   -1391.2771    26332.477    3615.3266    7506.3503    5841.8315    81.296309 
    2000    697.74409   -111.99015   0.63133351   -111.35882   -24033.183    4.3577638    4.3577638    4.3577638   -24033.183   -16454.154   -40722.438   -14922.956    1218.1677    3742.0298    -3034.797    82.754392 
    2100    497.83184   -111.80409   0.45044871   -111.35364     32901.86    4.3068063    4.3068063    4.3068063     32901.86    18058.159    15462.228    65185.195   -562.22639    5509.9139   -99.799133    79.885143 
    2200    449.03583   -111.78325   0.40629706   -111.37695   -5852.1865    4.3391114    4.3391114    4.3391114   -5852.1865    10687.295   -11319.791   -16924.064    1069.7564    12015.786    1797.7685    81.696305 
    2300    812.96879   -112.09209   0.73559125    -111.3565   -28935.599    4.3560571    4.3560571    4.3560571   -28935.599   -33674.852   -40973.317   -12158.628   -6328.7057    -694.7482    -3276.187      82.6572 
    2400     990.6748   -112.24115   0.89638338   -111.34476    39916.462    4.2947268    4.2947268    4.2947268    39916.462    34149.968      23989.5    61609.918   -913.98484    3568.6603    6545.3532    79.214854 
    2500    755.22879   -112.06262   0.68334688   -111.37927   -13902.835    4.3503695    4.3503695    4.3503695   -13902.835    -22534.76   -34249.463    15075.719   -3304.8398    4944.4207   -2315.9077    82.333854 
    2600    722.22587   -112.01182   0.65348515   -111.35833   -17361.496    4.3517531    4.3517531    4.3517531   -17361.496   -29756.382   -36076.348    13748.241   -9610.6491   -3792.3689    2134.1446    82.412434 
    2700    514.11303   -111.80107   0.46518028   -111.33589    31997.482    4.2947374    4.2947374    4.2947374    31997.482    42358.517    27105.311    26528.618    2715.8499    10812.556    3940.8527    79.215438 
    2800    529.15224   -111.85078   0.47878807     -111.372   -29612.752    4.3514897    4.3514897    4.3514897   -29612.752   -24897.233   -37408.945   -26532.076   -7038.3967    4423.9329   -2686.2416    82.397468 
    2900    768.82141   -112.06529   0.69564577   -111.36964   -9590.4964    4.3434135    4.3434135    4.3434135   -9590.4964   -19642.249   -35766.081    26636.841   -6617.5964   -9899.7415    1546.8655     81.93954 
    3000    783.06959   -112.05674   0.70853782   -111.34821     40672.43    4.3000856    4.3000856    4.3000856     40672.43    31481.202    19179.064    71357.022     4667.328    7172.9368    1327.2905    79.511751 
    3100    828.07973   -112.11038   0.74926395   -111.36112   -35021.223    4.3581169    4.3581169    4.3581169   -35021.223   -47071.247   -50363.285    -7629.138   -8668.8443    12007.856   -2807.2608    82.774511 
    3200    978.91391   -112.24328   0.88574188   -111.35753   -4214.6613    4.3276003    4.3276003    4.3276003   -4214.6613   -3600.7424   -9184.9273    141.68578   -2252.8448    1023.6656    5046.7899    81.047837 
    3300    507.46568   -111.81397   0.45916561   -111.35481    13986.258    4.3146203    4.3146203    4.3146203    13986.258    332.43016    11132.873    30493.472    2513.1238    8919.4421   -6304.5451    80.320746 
    3400    397.12456   -111.71438   0.35932665   -111.35505   -32731.698    4.3554068    4.3554068    4.3554068   -32731.698   -44614.171   -25734.008   -27846.914   -9463.3838    6975.3902    493.89748    82.620188 
    3500    870.33143   -112.13584   0.78749417   -111.34834     19824.03    4.3159837    4.3159837    4.3159837     19824.03    9906.2085    7423.1701     42142.71    1590.8898   -9121.0285   -4648.0518    80.396918 
    3600    789.76395   -112.07828   0.71459502   -111.36369   -16984.832    4.3335651    4.3335651    4.3335651   -16984.832   -25501.306   -12538.758   -12914.433   -5671.1495    10689.737    4196.1005    81.383427 
    3700    781.91451   -112.06696   0.70749268   -111.35947   -17384.218    4.3407566    4.3407566    4.3407566   -17384.218   -30442.235   -21828.292    117.87333   -9259.8116   -994.52277    12011.306    81.789264 
    3800    841.27461   -112.11202   0.76120295   -111.35081    17730.936    4.3195963    4.3195963    4.3195963    17730.936     6139.944    11542.803    35510.062    199.92826    6134.4477    3833.6413    80.598971 
    3900    358.93191   -111.68791   0.32476913   -111.36314   -9213.1411    4.3408944    4.3408944    4.3408944   -9213.1411   -21423.324   -18602.099        12386   -6745.2415    21154.921    4880.2684    81.797055 
    4000    472.66923   -111.78699   0.42768106   -111.35931    257.44626    4.3326529    4.3326529    4.3326529    257.44626    3577.1264    2170.6555   -4975.4431   -5734.7092    4972.8659    6882.1521    81.332045 
    4100    775.73208   -112.05771   0.70189869   -111.35581    6174.0702    4.3273686    4.3273686    4.3273686    6174.0702    24745.634   -75.983579   -6147.4401    1190.6196     7034.811   -3328.7345     81.03482 
    4200    732.05295    -112.0212   0.66237689   -111.35882   -21374.529    4.3408734    4.3408734    4.3408734   -21374.529   -5484.3103   -37901.668    -20737.61   -10524.705    9724.4197    1521.6024    81.795868 
    4300    880.15689   -112.15256   0.79638445   -111.35617    6685.1279    4.3265236    4.3265236    4.3265236    6685.1279    5598.9983   -5742.3526    20198.738    -1987.156   -5497.6147   -2586.9854    80.987361 
    4400    778.19342   -112.06202   0.70412576   -111.35789   -3786.6882    4.3343714    4.3343714    4.3343714   -3786.6882     4269.923   -2019.2066   -13610.781    1425.2914    2015.9808   -2974.6058     81.42886 
    4500    503.88431   -111.81764   0.45592511   -111.36171   -10623.136    4.3307885    4.3307885    4.3307885   -10623.136   -7965.0798   -16939.752   -6964.5761   -10746.079    10415.669    5358.6843    81.227097 
    4600    442.00526   -111.76393   0.39993565     -111.364    19302.516     4.328675     4.328675     4.328675    19302.516    60308.005    1283.4092   -3683.8655   -2341.2202    7405.2588   -4296.1339    81.108235 
    4700    790.26506   -112.07784   0.71504843   -111.36279   -97.659565    4.3341375    4.3341375    4.3341375   -97.659565    14682.587    -8321.113   -6654.4529    2561.4923    8719.9598   -852.77388    81.415681 
    4800    653.85125   -111.95541   0.59161835   -111.36379    7771.9114    4.3273475    4.3273475    4.3273475    7771.9114    29175.383   -19715.252    13855.603   -14878.234    8567.1773    7577.5743    81.033634 
    4900    875.18743   -112.15018   0.79188798   -111.35829   -9761.2749    4.3417587    4.3417587    4.3417587   -9761.2749   -12414.925    -17567.57    698.67012    2067.2629   -6589.9303   -2263.9631    81.845925 
    5000     757.4621   -112.04231   0.68536763   -111.35695    11882.054    4.3223659    4.3223659    4.3223659    11882.054    19930.855    20774.643   -5059.3342    3635.8524    -3846.857    1255.4049    80.754099 
    5100    518.51211   -111.83556   0.46916065    -111.3664   -957.71434     4.332883     4.332883     4.332883   -957.71434    18767.744   -12247.227   -9393.6607   -14198.926       5959.4    1184.6181    81.345005 
    5200    781.20276   -112.06593   0.70684867   -111.35908   -15235.128    4.3434802    4.3434802    4.3434802   -15235.128   -4470.7503   -10923.958   -30310.676    2080.0377   -2864.4419   -860.14271    81.943317 
    5300    746.06311   -112.02824   0.67505358   -111.35319    26131.432    4.3088456    4.3088456    4.3088456    26131.432     32803.78    11734.198    33856.318   -3106.4467    11015.968   -2886.4251    79.998674 
    5400    612.31534   -111.92379   0.55403578   -111.36976   -16824.662    4.3428595    4.3428595    4.3428595   -16824.662   -37735.307    -42147.47    29408.791   -10168.734    10833.853    263.42917     81.90819 
    5500    869.79071   -112.14926   0.78700491   -111.36226    466.10686    4.3305461    4.3305461    4.3305461    466.10686    -14887.57   -8727.5637    25013.454    410.89232   -4828.9284    4102.4059     81.21346 
    5600    695.11129   -111.98914    0.6289513   -111.36019    21213.874    4.3131581    4.3131581    4.3131581    21213.874    6104.3251    25102.315    32434.983   -5230.5239   -1729.0086    4777.7947    80.239116 
    5700    678.74267    -111.9698   0.61414063   -111.35566   -44830.027    4.3554516    4.3554516    4.3554516   -44830.027   -47377.507   -33455.215   -53657.361   -7036.3378    4449.6864     1330.623    82.622736 
    5800    875.14379   -112.14336   0.79184849   -111.35151     14356.09    4.3136853    4.3136853    4.3136853     14356.09    7154.0534     21074.56    14839.657     6269.719   -5886.9626    1445.9697    80.268541 
    5900    512.86156   -111.82765   0.46404792    -111.3636    12218.382    4.3219142    4.3219142    4.3219142    12218.382   -511.87419   -11176.596    48343.617   -6029.8101    7149.3732   -3024.5579    80.728784 
    6000    522.98291   -111.82903   0.47320593   -111.35583   -25116.334    4.3561997    4.3561997    4.3561997   -25116.334   -38210.261   -52052.212    14913.472   -5243.2065    14985.974    4437.4989    82.665316 
    6100    876.49474    -112.1381   0.79307086   -111.34503    26995.887     4.310602     4.310602     4.310602    26995.887     17840.99    9924.2708    53222.401    9092.4971    5466.0603   -5617.4543    80.096545 
    6200    514.09301   -111.82667   0.46516215   -111.36151    -378.1046    4.3285297    4.3285297    4.3285297    -378.1046    8152.8568    5094.9762   -14382.147   -7439.2909    6977.9847   -149.23937    81.100067 
    6300    756.86763   -112.04065   0.68482974   -111.35582   -27131.847    4.3457056    4.3457056    4.3457056   -27131.847   -15196.077   -20473.003    -45726.46   -1829.0978    6413.5464    378.17899    82.069331 
    6400    781.44193   -112.06016   0.70706508    -111.3531    21047.857    4.3155477    4.3155477    4.3155477    21047.857     22229.43    10326.162    30587.979   -600.09816   -11773.296   -696.97542    80.372555 
    6500    606.04602   -111.91253   0.54836318   -111.36417   -10494.924    4.3281877    4.3281877    4.3281877   -10494.924   -19253.072   -19731.686    7499.9865   -10657.911    8016.8192    3969.6647    81.080845 
    6600    652.21885   -111.95294   0.59014132    -111.3628   -12371.684    4.3414673    4.3414673    4.3414673   -12371.684   -26584.321    -33530.06    22999.328    216.76457    11324.001     1168.596    81.829445 
    6700    908.46801   -112.18012   0.82200095   -111.35812    10626.283    4.3235255    4.3235255    4.3235255    10626.283      17681.3   -8718.6711    22916.219   -3391.8746    5572.1759   -614.10854    80.819111 
    6800    589.81243   -111.89881   0.53367468   -111.36514    10553.133    4.3227485    4.3227485    4.3227485    10553.133    16644.368     3940.375    11074.656    -6551.295    11855.007    6315.4385    80.775548 
    6900    670.12117   -111.96944   0.60633971    -111.3631   -11253.157     4.346367     4.346367     4.346367   -11253.157     9468.446   -28587.322   -14640.596    549.00655    3618.3351    -30.35287    82.106811 
    7000     890.2346   -112.16383   0.80550297   -111.35833    1431.9736    4.3244593    4.3244593    4.3244593    1431.9736    20595.226   -23828.062    7528.7568   -2679.7215    -13930.88   -3802.6443    80.871489 
    7100    476.45153   -111.79425   0.43110335   -111.36314    13076.125    4.3182071    4.3182071    4.3182071    13076.125    5131.2204   -6724.4414    40821.596   -1910.2987    9755.4758    5672.8588    80.521233 
    7200     790.2857   -112.07426   0.71506711   -111.35919    -23426.93    4.3503481    4.3503481    4.3503481    -23426.93   -22294.428   -29905.979   -18080.384    891.25695     9983.932    46.257386    82.332637 
    7300    820.36372   -112.10028   0.74228233     -111.358     18895.41    4.3173326    4.3173326    4.3173326     18895.41     34756.86   -4700.3845    26629.754   -2711.1179    637.74772   -1552.5324    80.472319 
    7400    583.94834   -111.89556   0.52836873   -111.36719    4257.8666     4.319131     4.319131     4.319131    4257.8666    20066.641    3777.5841   -11070.625   -2825.3271    14970.978    6612.8893    80.572928 
    7500     659.3501   -111.95802   0.59659383   -111.36143   -20269.579    4.3436084    4.3436084    4.3436084   -20269.579   -4764.5783   -24019.024   -32025.135   -5892.8183    7490.9099   -2961.0317    81.950575 
    7600    895.95108   -112.16627   0.81067536   -111.35559    5661.6984    4.3163863    4.3163863    4.3163863    5661.6984    27000.253   -16857.517    6842.3598   -2804.5059   -5622.7503   -4046.3333    80.419418 
    7700    601.89111   -111.91008   0.54460373   -111.36547   -16791.043    4.3338967    4.3338967    4.3338967   -16791.043   -1883.9894    -20426.09   -28063.051   -8073.7947    6542.3569     6014.108    81.402109 
    7800    703.37484   -111.99867   0.63642834   -111.36224   -2040.2075    4.3314471    4.3314471    4.3314471   -2040.2075    24273.572   -7810.4076   -22583.787    4900.4496    3600.0496   -6799.4251    81.264159 
    7900    690.47755   -111.98455    0.6247586   -111.35979    13827.315    4.3204861    4.3204861    4.3204861    13827.315    37078.199   -4361.1948     8764.942    5059.9314    3186.9824   -7272.1138    80.648785 
    8000    579.59509   -111.88883   0.52442982    -111.3644   -19914.213    4.3384322    4.3384322    4.3384322   -19914.213   -21730.662   -13700.355   -24311.623   -1230.4649    24241.097    3149.1908    81.657945 
    8100    636.23364   -111.93755   0.57567757   -111.36187    5022.1161    4.3205163    4.3205163    4.3205163    5022.1161    11443.636   -8570.1183     12192.83    2890.5969    3152.2419   -8730.0747    80.650477 
    8200    719.83585   -112.01516   0.65132261   -111.36384    507.81925    4.3257746    4.3257746    4.3257746    507.81925      18870.9    -26417.05    9069.6072   -5478.4932   -3911.6242   -2180.0783    80.945303 
    8300     523.7752   -111.83889   0.47392281   -111.36496   -11545.418     4.338662     4.338662     4.338662   -11545.418    20443.029   -32463.509   -22615.776   -5453.2568    12205.302    587.05972    81.670919 
    8400    837.71221   -112.11795   0.75797961   -111.35997    8892.7299    4.3172078    4.3172078    4.3172078    8892.7299    26756.294     60.71002   -138.81378   -715.74698   -2781.0489   -10220.757    80.465342 
    8500     891.5893   -112.16961   0.80672873   -111.36288   -4318.2449     4.330677     4.330677     4.330677   -4318.2449   -4164.6824   -7988.3702   -801.68207   -5214.7439     2459.965    4353.2019     81.22082 
    8600    660.93588   -111.96222   0.59802868    -111.3642   -10378.035    4.3322987    4.3322987    4.3322987   -10378.035   -1210.5472   -6460.4378   -23463.119    2633.7918    14995.564   -2859.5407    81.312098 
    8700    544.76477   -111.85578   0.49291461   -111.36286    15481.032    4.3182257    4.3182257    4.3182257    15481.032    38266.453   -6148.9867    14325.631    1674.8379   -2049.0406   -6360.0045    80.522272 
    8800     608.7282   -111.91582   0.55079007   -111.36503    123.36123    4.3323165    4.3323165    4.3323165    123.36123    25497.257   -31109.589    5982.4161   -2192.5032   -8409.4682    6232.9135    81.313105 
    8900    625.05981   -111.93332   0.56556725   -111.36776    1017.7262    4.3238688    4.3238688    4.3238688    1017.7262    13848.189   -14051.576     3256.565    1014.4804    13616.897   -3576.9425    80.838363 
    9000    879.78063   -112.16364     0.796044    -111.3676    3653.5821    4.3243343    4.3243343    4.3243343    3653.5821    4007.9221   -8128.0223    15080.847   -4030.0992    4609.9407   -3538.4046    80.864475 
    9100    893.62961   -112.17148   0.80857485    -111.3629   -1448.3027    4.3370118    4.3370118    4.3370118   -1448.3027     11094.26   -14723.286   -715.88199   -2662.4288     3999.703    3902.0596    81.577766 
    9200    560.31155   -111.87016   0.50698166   -111.36318    6931.3171    4.3209017    4.3209017    4.3209017    6931.3171     24701.21   -931.90728   -2975.3519    585.57585    19169.899    -5718.257    80.672064 
    9300    584.51343   -111.89354   0.52888003   -111.36466   -4278.1629    4.3295237    4.3295237    4.3295237   -4278.1629    10942.206   -19182.609   -4594.0855   -4191.2268   -3739.2522   -5550.0161    81.155949 
    9400    735.42601   -112.02587   0.66542891   -111.36044   -13220.572    4.3336576    4.3336576    4.3336576   -13220.572    2916.2503   -30317.903   -12260.064    -1583.513   -6459.9791    183.07911    81.388641 
    9500    658.20055   -111.95843   0.59555369   -111.36287    2230.3092    4.3182882    4.3182882    4.3182882    2230.3092    13784.982   -5448.8212   -1645.2336    -11.29725    13442.981     -9792.08     80.52577 
    9600    894.94509   -112.17484   0.80976512   -111.36508    -3985.958    4.3345905    4.3345905    4.3345905    -3985.958     14814.77   -20341.493   -6431.1511    -3200.976    1406.9523   -5259.1213    81.441212 
    9700    834.77351   -112.11902   0.75532061    -111.3637    12177.394     4.324193     4.324193     4.324193    12177.394    34363.497   -7146.9499    9315.6341    1047.8341      4543.94   -1292.3435    80.856551 
    9800    460.10992   -111.78394   0.41631713   -111.36763    3977.2404    4.3241112    4.3241112    4.3241112    3977.2404    16262.618   -6974.3476    2643.4504    2130.2595    21670.971   -6021.0714    80.851961 
    9900    705.97121   -111.99925   0.63877759   -111.36047   -14957.961    4.3358198    4.3358198    4.3358198   -14957.961    -9341.309   -29959.971   -5572.6042    1724.5245    100.03065    520.98808    81.510524 
   10000    564.58892   -111.87154   0.51085192   -111.36069    12981.091    4.3172051    4.3172051    4.3172051    12981.091     36415.84    -8904.982    11432.414   -3783.4237   -3982.6733   -784.95307    80.465191 
   10100    545.92624   -111.86315   0.49396554   -111.36918   -10464.451    4.3299656    4.3299656    4.3299656   -10464.451    14485.875   -14133.421   -31745.808    3449.9057    17273.696   -5890.3337    81.180802 
   10200    1037.7473    -112.3023   0.93897556   -111.36333    2340.4314    4.3272475    4.3272475    4.3272475    2340.4314    22872.313   -6043.7907    -9807.228   -7662.2983   -430.33935    1695.5338    81.028014 
   10300     977.2464   -112.24904   0.88423308    -111.3648    6017.6218    4.3167004    4.3167004    4.3167004    6017.6218    24306.086   -2242.7986   -4010.4217    -825.0602    4002.1733   -4331.0217    80.436972 
   10400     516.2118   -111.83738   0.46707928    -111.3703   -14820.431    4.3324121    4.3324121    4.3324121   -14820.431   -2012.9155    -22045.37   -20403.007    3971.5816    22055.386   -8136.2328    81.318487 
   10500    731.08537   -112.02415   0.66150141   -111.36264   -3832.1734    4.3263127    4.3263127    4.3263127   -3832.1734    13422.738   -28042.698    3123.4396   -3763.7515   -2262.5398    3903.6674    80.975515 
   10600    344.72808   -111.67669   0.31191721   -111.36477   -3940.8575     4.326535     4.326535     4.326535   -3940.8575     17280.39   -29225.331    122.36905   -349.92248   -1269.8812   -6533.3055    80.987999 
   10700    531.38651   -111.84669   0.48080969   -111.36588   -9070.4122    4.3239211    4.3239211    4.3239211   -9070.4122   -8690.9454   -2054.0469   -16466.244    3498.8629    23655.591   -5636.6785      80.8413 
   10800    1026.3346   -112.29094   0.92864912   -111.36229    1849.1353    4.3253529    4.3253529    4.3253529    1849.1353    12132.296   -10304.113    3719.2234   -13759.453   -1105.7154    6768.5511    80.921631 
   10900    867.11554    -112.1497   0.78458436   -111.36512   -14468.755    4.3311035    4.3311035    4.3311035   -14468.755    -36.44019   -15010.377   -28359.446   -393.71501    9233.9479   -7661.7544    81.244819 
   11000    617.47236   -111.92409   0.55870196   -111.36539    2821.9952    4.3155426    4.3155426    4.3155426    2821.9952    24876.464   -1077.4748   -15333.003    4279.0321    23104.953   -3371.0378    80.372266 
   11100    744.56964   -112.03715   0.67370226   -111.36345   -10281.822     4.331688     4.331688     4.331688   -10281.822    17401.384   -36724.917   -11521.935   -3225.8355    -8474.665    1073.2328    81.277718 
   11200    509.76959   -111.82634   0.46125024   -111.36509   -19514.605     4.330666     4.330666     4.330666   -19514.605   -7280.5955   -29674.181   -21589.039    3551.8491    9016.3312   -6869.2651    81.220204 
   11300    460.67714    -111.7821   0.41683036   -111.36527    14156.753    4.3134412    4.3134412    4.3134412    14156.753     26785.99    13694.429    1989.8385   -4275.5345    23218.955    -1752.582    80.254916 
   11400    1029.4853   -112.29226   0.93149997   -111.36076   -3049.4787    4.3330048    4.3330048    4.3330048   -3049.4787    14153.339   -16941.401   -6360.3734     4091.157   -1167.2411   -4350.8309    81.351866 
   11500    640.39412   -111.94502   0.57944205   -111.36558    4863.4108    4.3278883    4.3278883    4.3278883    4863.4108    37811.172    -5388.712   -17832.227    3798.8986    19742.603   -6214.9494    81.064019 
   11600     876.8979   -112.15731   0.79343564   -111.36387     2122.532    4.3149602    4.3149602    4.3149602     2122.532    2746.1233    6349.4449   -2727.9723    1362.3423    12754.351   -203.87244     80.33973 
   11700    708.49138   -112.00523   0.64105789   -111.36417    -4990.274    4.3337056    4.3337056    4.3337056    -4990.274    32540.168   -36293.941   -11217.049    3521.0176   -11952.947   -3072.5666    81.391343 
   11800     465.3535   -111.78638   0.42106163   -111.36531    -21973.78    4.3307579    4.3307579    4.3307579    -21973.78   -11737.033   -23699.499   -30484.808   -1905.5121     18497.38   -5796.7908    81.225373 
   11900    502.07994   -111.81606   0.45429248   -111.36177    17471.679    4.3108887    4.3108887    4.3108887    17471.679    39071.329    10355.037    2988.6703   -2743.6915    9242.7408    864.94285    80.112529 
   12000     1006.125   -112.27159   0.91036303   -111.36122   -15517.677    4.3353289    4.3353289    4.3353289   -15517.677   -19335.528   -9840.6974   -17376.805   -4766.3167   -2234.8968    216.11654    81.482839 
   12100    667.69787   -111.97058   0.60414707   -111.36644   -10727.514    4.3297688    4.3297688    4.3297688   -10727.514   -5765.4533   -3990.7852   -22426.303   -3582.3201    26527.095   -4372.0582    81.169732 
   12200    849.47817   -112.12752    0.7686257   -111.35889     20746.01    4.3087142    4.3087142    4.3087142     20746.01    28288.452    20588.753    13360.826    5778.0195   -1509.3783    3899.0622    79.991356 
   12300    700.91905   -111.99504   0.63420629   -111.36084    -11862.61    4.3394888    4.3394888    4.3394888    -11862.61    10136.266   -32403.089   -13321.008   -1898.6782   -7646.6162    2329.7623    81.717621 
   12400    302.29842   -111.63983   0.27352596   -111.36631   -187.31268    4.3196259    4.3196259    4.3196259   -187.31268     9196.348   -8651.7965   -1106.4896    1108.4248    22237.305   -1337.2481    80.600624 
   12500    698.58878   -111.99634   0.63209781   -111.36425    8558.1825    4.3148414    4.3148414    4.3148414    8558.1825    11342.308    1213.4429    13118.797   -1382.8479    3101.2012    6438.3591    80.333098 
   12600    779.55414   -112.06491   0.70535697   -111.35955   -13512.192    4.3419518    4.3419518    4.3419518   -13512.192   -12359.035   -10932.229   -17245.312   -4254.5884   -51.841676   -4070.0184    81.856846 
   12700    741.89327   -112.03043   0.67128062   -111.35915     8405.602    4.3145031    4.3145031    4.3145031     8405.602    13578.772    19560.062   -7922.0276   -1049.2516     29113.66    141.04792    80.314202 
   12800    926.17705    -112.1991   0.83802446   -111.36108    7653.8259    4.3209962    4.3209962    4.3209962    7653.8259    26008.766    3540.9319   -6588.2201   -2519.9011   -6779.4566     2735.949    80.677356 
   12900    740.15581   -112.02997   0.66970853   -111.36026   -7739.4833    4.3336244    4.3336244    4.3336244   -7739.4833    7156.8122   -16869.904   -13505.358    2350.7273   -1339.8879   -6022.2414    81.386766 
   13000    400.48551   -111.72534    0.3623677   -111.36297   -8189.9174    4.3222897    4.3222897    4.3222897   -8189.9174    1982.7001   -16325.559   -10226.894    3862.3725     21479.59    1238.9307    80.749832 
   13100    759.26075   -112.04705   0.68699508   -111.36006   -428.88348    4.3210505    4.3210505    4.3210505   -428.88348    8327.6392   -18955.975    9341.6857    1849.8298   -4982.6738   -179.51615      80.6804 
   13200    630.34959   -111.93413   0.57035356   -111.36378    7476.2665    4.3277745    4.3277745    4.3277745    7476.2665    21004.354    643.57605    780.86937    576.12009    12799.656    179.86071    81.057625 
   13300    684.14112   -111.98486   0.61902526   -111.36583   -13311.875    4.3313482    4.3313482    4.3313482   -13311.875   -9741.7338   -5210.0922   -24983.798   -2135.8656     21287.22    1564.1053    81.258594 
   13400    1003.5602   -112.26596   0.90804232   -111.35792    16770.111    4.3107067    4.3107067    4.3107067    16770.111    29045.999    6199.8877    15064.446    1048.8521   -6101.5124    1491.4534    80.102382 
   13500    690.46916   -111.99334     0.624751   -111.36858   -10097.366      4.32922      4.32922      4.32922   -10097.366   -5835.5893   -4968.4895   -19488.019   -1043.2779    15293.279   -822.37048     81.13887 
   13600    463.13514   -111.78611   0.41905441   -111.36706   -26662.736    4.3330293    4.3330293    4.3330293   -26662.736   -12580.143   -33705.076   -33702.988   -1681.3292    18541.052    270.78425    81.353246 
   13700    716.29635   -112.00377   0.64811999   -111.35565    20788.528    4.3042073    4.3042073    4.3042073    20788.528    36161.503    -4059.593    30263.672   -2134.6786   -9340.4283     5359.908    79.740608 
   13800    621.26028   -111.92906   0.56212936   -111.36693   -13230.064    4.3348134    4.3348134    4.3348134   -13230.064   -14625.976    -1605.373   -23458.844    1939.7302    18183.481    -4635.387    81.453774 
   13900    599.77491    -111.9099   0.54268894   -111.36721   -10625.569    4.3293658    4.3293658    4.3293658   -10625.569   -4656.7567    -4609.627   -22610.324   -6655.0872    14790.547    3379.1784    81.147068 
   14000    1019.8138   -112.27574   0.92274895   -111.35299    18752.205      4.30417      4.30417      4.30417    18752.205    20669.578    15035.237    20551.799   -8512.7893   -5738.9864     4793.685    79.738534 
   14100    650.50378   -111.94935   0.58858949   -111.36076   -17997.171    4.3365981    4.3365981    4.3365981   -17997.171   -11963.664   -7355.0359   -34672.814     1847.977    18593.876   -2010.1469    81.554425 
   14200     551.9362   -111.86497   0.49940347   -111.36557   -8513.4454    4.3208393    4.3208393    4.3208393   -8513.4454    13218.492   -28872.403    -9886.426   -5935.7217    6547.7313    4366.8767    80.668567 
   14300    694.41291   -111.98796    0.6283194   -111.35964    18402.368    4.3085092    4.3085092    4.3085092    18402.368    42124.323   -12331.952    25414.733    1128.5094   -89.179875   -210.62555    79.979939 
   14400    692.35192   -111.98811   0.62645456   -111.36165   -18639.524    4.3371876    4.3371876    4.3371876   -18639.524   -12925.424   -16046.361   -26946.788    3184.6479    14832.528     966.8226    81.587689 
   14500    716.16204   -112.01048   0.64799847   -111.36248    6185.9632     4.317422     4.317422     4.317422    6185.9632    11883.259    5148.8761    1525.7547   -525.17737    6074.9488   -368.15372     80.47732 
   14600    937.18967   -112.20722   0.84798891   -111.35923    11060.049    4.3152422    4.3152422    4.3152422    11060.049    17079.397    5096.6046    11004.146   -1843.2777   -4864.9911    -4456.718    80.355487 
   14700    615.53235   -111.91964    0.5569466   -111.36269   -4151.5398    4.3317908    4.3317908    4.3317908   -4151.5398    5656.6151    523.18126   -18634.416   -524.89822    12325.269    3037.1145    81.283504 
   14800    558.69823   -111.86775    0.5055219   -111.36223    9291.2112    4.3164597    4.3164597    4.3164597    9291.2112    36742.705    -25410.62    16541.549    288.34285    240.97549   -2522.3497    80.423517 
   14900    690.88937   -111.98694   0.62513122   -111.36181    1852.7943    4.3194859    4.3194859    4.3194859    1852.7943    17438.347   -18643.423    6763.4593   -6587.1475   -1114.7182   -1495.6627    80.592787 
   15000    642.01018     -111.945   0.58090431    -111.3641   -6450.1542    4.3280561    4.3280561    4.3280561   -6450.1542   -2077.7855   -12182.994   -5089.6828    7763.8375    14994.953    5739.6128    81.073446 
   15100    849.45963    -112.1305   0.76860892   -111.36189    1143.8955    4.3207204    4.3207204    4.3207204    1143.8955    2865.9863    3324.0757   -2758.3754    1707.0879    2139.3763    682.75313    80.661911 
   15200    943.00147   -112.21362   0.85324755   -111.36037    6744.6701      4.31821      4.31821      4.31821    6744.6701    20166.502    6079.9644   -6012.4558   -3337.0041   -2483.4151   -426.48407    80.521391 
   15300    518.97152   -111.83491   0.46957634   -111.36534    -2020.701    4.3290308    4.3290308    4.3290308    -2020.701    6653.5448   -3102.4974   -9613.1505    5515.7063    8025.9203    2099.2719    81.128235 
   15400    676.70554   -111.97308   0.61229739   -111.36079   -241.38701    4.3208337    4.3208337    4.3208337   -241.38701    24807.248   -27586.155    2054.7459   -5969.0263   -5392.5075    1837.8671    80.668256 
   15500    579.55517   -111.88434    0.5243937   -111.35995    8406.1878    4.3162505    4.3162505    4.3162505    8406.1878    26164.429   -17573.195     16627.33    -1226.839   -8029.6709   -262.79957    80.411828 
   15600    529.05403    -111.8444    0.4786992    -111.3657   -21300.913    4.3305337    4.3305337    4.3305337   -21300.913   -30987.037   -20718.725   -12196.978    -220.0695    13298.531    2.6486185    81.212761 
   15700    910.31414   -112.18552   0.82367137   -111.36184    6579.7779    4.3167504    4.3167504    4.3167504    6579.7779    13335.665    11438.608   -5034.9391    372.53247    1660.3251    565.47794    80.439769 
   15800    946.95016   -112.21866    0.8568204   -111.36184    5819.7395    4.3179004    4.3179004    4.3179004    5819.7395    14247.696    11223.362   -8011.8391    7385.7633   -3680.8557   -648.85493    80.504076 
   15900    540.59215   -111.85605   0.48913914   -111.36691   -10617.102    4.3299721    4.3299721    4.3299721   -10617.102    5554.9898   -6275.7113   -31130.584    1498.0544    13767.644    3450.2955    81.181165 
   16000    740.63976   -112.03113   0.67014642   -111.36099    6654.8346    4.3179954    4.3179954    4.3179954    6654.8346    35484.609   -14751.904   -768.20092    2773.2803   -836.64303   -1048.3759    80.509388 
   16100    544.47387   -111.85561    0.4926514   -111.36296   -5959.5301    4.3201932    4.3201932    4.3201932   -5959.5301   -1969.9152   -22310.878    6402.2028    1619.3949   -11108.259    814.34755    80.632383 
   16200    459.75675   -111.78303   0.41599757   -111.36703   -15457.767    4.3244135    4.3244135    4.3244135   -15457.767   -10074.003   -25003.812   -11295.486    556.19704    12030.028     4786.629    80.868923 
   16300    861.06709   -112.14209    0.7791116   -111.36298    7265.4274    4.3206966    4.3206966    4.3206966    7265.4274    15506.496    4800.7665    1489.0196   -1592.6446    4164.7698   -1920.2547    80.660575 
   16400    882.59322   -112.16266   0.79858889   -111.36407      3327.98    4.3187848    4.3187848    4.3187848      3327.98    11455.916    8250.2513   -9722.2271   -1138.0537    -6442.367     4006.852    80.553552 
   16500    670.87355   -111.97572   0.60702049    -111.3687   -3378.6525    4.3226894    4.3226894    4.3226894   -3378.6525     15819.36    350.97133   -26306.289    10778.909    10483.361    2196.1772    80.772234 
   16600    745.99635   -112.03801   0.67499318   -111.36301   -3011.6142    4.3253309    4.3253309    4.3253309   -3011.6142    15690.075   -17816.677   -6908.2409   -7041.2619   -1936.2588   -1246.5211    80.920398 
   16700    637.77123   -111.93837   0.57706881    -111.3613   -3939.2239    4.3140982    4.3140982    4.3140982   -3939.2239    5505.0145   -20259.697    2937.0104   -3452.9594   -3931.2451    4072.1843    80.291593 
   16800    395.91069   -111.72602   0.35822831    -111.3678   -9913.8814    4.3270948    4.3270948    4.3270948   -9913.8814     10192.03   -27984.592   -11949.082    4290.4917    11762.377   -781.86193    81.019441 
   16900     825.4681   -112.10927   0.74690089   -111.36237    4041.9745    4.3231032    4.3231032    4.3231032    4041.9745    7104.5026   -2077.8526    7099.2734   -11384.331    3213.0451   -2644.1956     80.79543 
   17000    834.86551   -112.11667   0.75540386   -111.36126    15011.484    4.3136186    4.3136186    4.3136186    15011.484    24490.101    14660.266    5884.0841    -2625.686     3709.374    2892.8119    80.264821 
   17100    726.97158   -112.02341   0.65777916   -111.36563   -8690.4963    4.3299281    4.3299281    4.3299281   -8690.4963    758.66903   -8519.3384   -18310.819    790.45681     12838.81    4110.3713    81.178692 
   17200    829.74225   -112.11089   0.75076822   -111.36012    8072.5668     4.317945     4.317945     4.317945    8072.5668    9965.4244   -1642.8655    15895.141   -2903.3774   -5605.0335   -3138.5825    80.506571 
   17300    555.20379   -111.86486   0.50236006    -111.3625   -5813.4833    4.3215137    4.3215137    4.3215137   -5813.4833    14746.055   -25729.576   -6456.9289    2586.6804   -387.20969     1366.353    80.706343 
   17400    481.44404   -111.79969   0.43562069   -111.36407   -13293.784    4.3248422    4.3248422    4.3248422   -13293.784   -9197.2425   -21090.294    -9593.816    1822.8327    8883.8447     583.7147    80.892974 
   17500     757.2372   -112.04781   0.68516413   -111.36265    16541.534    4.3149505    4.3149505    4.3149505    16541.534    24401.937   -828.93006    26051.595    -3069.986   -3601.6878   -6260.7681    80.339191 
   17600    878.68714   -112.15924   0.79505459   -111.36418   -4079.6175    4.3279859    4.3279859    4.3279859   -4079.6175   -4508.8076    3970.6247    -11700.67   -2535.0235    7214.9627   -1261.0308    81.069505 
   17700    748.16088   -112.04174   0.67695169   -111.36478    10629.542    4.3154771    4.3154771    4.3154771    10629.542    6499.5815    11211.731    14177.313    987.13406    12125.165    -1647.359    80.368609 
   17800    804.50962   -112.09241   0.72793721   -111.36447    5118.8188    4.3213725    4.3213725    4.3213725    5118.8188    15739.283   -6614.5763    6231.7495   -7380.0275   -4039.6164    2812.8229    80.698433 
   17900    621.54281   -111.92527     0.562385   -111.36289   -16138.637    4.3289393    4.3289393    4.3289393   -16138.637   -15456.253   -27074.075   -5885.5835   -688.69149    812.41052    4825.9729    81.123091 
   18000    394.93142   -111.71888   0.35734225   -111.36154    10330.275    4.3090066    4.3090066    4.3090066    10330.275    15280.675   -5465.6679    21175.818   -3098.9615    5916.0518   -2553.7458    80.007645 
   18100    786.02867   -112.07551   0.71121526   -111.36429   -9733.0786    4.3286945    4.3286945    4.3286945   -9733.0786   -5193.9751   -24945.736    940.47572    -8196.204   -1470.2482    4031.3417     81.10933 
   18200    815.47738   -112.10164   0.73786107   -111.36377    11083.278    4.3215874    4.3215874    4.3215874    11083.278    374.89454    15780.014    17094.927     2938.719    3468.0685    244.37573    80.710475 
   18300    854.50487    -112.1361   0.77317397   -111.36293    9649.5433    4.3111065    4.3111065    4.3111065    9649.5433    15898.943    11132.786    1916.9014   -8816.4386    11401.311   -8562.2229    80.124672 
   18400    692.63151   -111.99004   0.62670755   -111.36333   -7237.2248    4.3312791    4.3312791    4.3312791   -7237.2248   -14038.222   -19022.226    11348.774   -3880.6878   -2490.4934   -2196.9948    81.254702 
   18500    706.82505    -111.9998   0.63955016   -111.36025    4894.0189    4.3144201    4.3144201    4.3144201    4894.0189    8199.0435   -7203.2514    13686.265    3232.5889    1138.8414    3120.1103     80.30957 
   18600    405.37793   -111.73195   0.36679447   -111.36515   -11107.342    4.3195651    4.3195651    4.3195651   -11107.342   -7446.4738   -27182.331    1306.7774   -7198.4957     6135.898   -4857.9785     80.59722 
   18700     588.2113   -111.89687   0.53222595   -111.36465   -12279.163    4.3283314    4.3283314    4.3283314   -12279.163   -22201.817   -31749.986    17114.314    885.43745   -2104.8731   -2514.3068     81.08892 
   18800    1061.7937   -112.31891   0.96073323   -111.35818    19448.144    4.3106387    4.3106387    4.3106387    19448.144    20036.025     25479.77    12828.637     1878.602    3594.0862    7674.2989    80.098589 
   18900    709.76257   -112.01013   0.64220809   -111.36793    -6886.166    4.3273853    4.3273853    4.3273853    -6886.166   -9924.9695   -16643.657     5910.129   -9374.9236    9129.0148   -4812.4946    81.035757 
   19000    654.04968   -111.95765    0.5917979   -111.36586     88.93921    4.3218533    4.3218533    4.3218533     88.93921   -24.403511   -10662.097    10953.318    1118.9351    5196.1806   -4842.6022    80.725376 
   19100    862.94126   -112.14047   0.78080739   -111.35966    9173.6361    4.3126314    4.3126314    4.3126314    9173.6361    18743.782   -4863.9359    13641.063    1097.6704   -2339.0636   -269.33992    80.209727 
   19200    290.50593   -111.63023   0.26285587   -111.36737   -24516.192     4.330178     4.330178     4.330178   -24516.192    -23975.21   -48910.126   -663.24005   -9125.8192    5288.4603   -3246.0867    81.192749 
   19300    551.03036   -111.86496   0.49858385   -111.36637   -3504.1889    4.3156035    4.3156035    4.3156035   -3504.1889   -10330.721   -16350.375    16168.529    3918.7968   -4726.1318   -1864.8985    80.375671 
   19400    1026.7653   -112.29046   0.92903885   -111.36142    8154.0563    4.3195778    4.3195778    4.3195778    8154.0563    4431.3287    13546.805    6484.0347    1749.8605   -1313.1534     -1772.86    80.597935 
   19500    794.31272   -112.08646   0.71871084   -111.36775   -10346.481    4.3267149    4.3267149    4.3267149   -10346.481   -9223.8882   -22866.572    1051.0156   -6310.4336    2420.1983   -336.15837    80.998104 
   19600    685.11853   -111.98538   0.61990965   -111.36547    16913.138    4.3124358    4.3124358    4.3124358    16913.138    16284.994    14240.758    20213.663    3134.7516   -647.80191    749.70844    80.198809 
   19700    811.54012   -112.09691   0.73429855   -111.36262   -2631.5918    4.3263319    4.3263319    4.3263319   -2631.5918    14160.119   -17332.148   -4722.7465    495.61103    255.66174    324.69795    80.976593 
   19800    376.84605   -111.70682   0.34097823   -111.36584   -2094.7703    4.3198922    4.3198922    4.3198922   -2094.7703    13026.281   -36999.373    17688.781   -2834.3946     3927.855   -2046.9927    80.615531 
   19900    502.35205   -111.82068   0.45453869   -111.36614   -4780.2466    4.3179813    4.3179813    4.3179813   -4780.2466   -5797.9457    -9568.224    1025.4298    3533.7352   -9705.9854   -869.43017    80.508597 
   20000    880.87427   -112.15786   0.79703355   -111.36082    -5565.246    4.3278755    4.3278755    4.3278755    -5565.246   -4432.8379    4393.6971   -16656.597   -1466.4581   -5600.1214    2359.3326      81.0633 
   20100    989.97978   -112.25662   0.89575451   -111.36087     9274.108    4.3151149    4.3151149    4.3151149     9274.108    18251.179   -4329.9919    13901.137   -2364.5933    574.44815   -5599.1597    80.348373 
   20200    760.22284   -112.05368    0.6878656   -111.36581    2261.7048    4.3233299    4.3233299    4.3233299    2261.7048    8582.9403    7157.8397   -8955.6656    6199.0248   -8341.0204     60.33857    80.808143 
   20300    682.74814   -111.98103   0.61776486   -111.36327    2820.1795    4.3240441    4.3240441    4.3240441    2820.1795    21832.921   -10687.981   -2684.4017   -7327.4216   -5562.1176    4491.8622    80.848198 
   20400    531.18656   -111.84257   0.48062877   -111.36194    5146.8153    4.3143269    4.3143269    4.3143269    5146.8153    14879.565   -22529.117    23089.998    2868.2937    7075.3436   -3364.3355    80.304362 
   20500     397.9177     -111.727    0.3600443   -111.36696   -13075.513    4.3252816    4.3252816    4.3252816   -13075.513   -13292.287   -19042.823    -6891.429    8124.3487   -9342.0388     96.73209    80.917631 
   20600    754.42042   -112.04642   0.68261545    -111.3638    144.63676    4.3208002    4.3208002    4.3208002    144.63676   -2338.9208    12357.856   -9585.0249   -5934.6449    -8145.801    1751.0387    80.666379 
   20700    1087.2546   -112.34509   0.98377083   -111.36132    4228.6852    4.3172079    4.3172079    4.3172079    4228.6852    12689.457    85.260893   -88.662492    9884.7945    4394.2289    1564.0509    80.465349 
   20800    732.53357   -112.02918   0.66281176   -111.36637   -3269.8641     4.324866     4.324866     4.324866   -3269.8641    1332.8604    7376.9248   -18519.378    6078.1816   -9011.5957   -1639.8855     80.89431 
   20900    688.34764   -111.98662   0.62283141   -111.36379   -1523.0284    4.3205378    4.3205378    4.3205378   -1523.0284    3553.6964     3341.724   -11464.505    969.93544   -6030.9607   -711.09614    80.651682 
   21000    558.91261   -111.86732   0.50571588    -111.3616    5657.8816    4.3176215    4.3176215    4.3176215    5657.8816    12400.387   -23093.015    27666.272    8801.6323    7796.8732    634.90967    80.488474 
   21100    411.02549   -111.73868    0.3719045   -111.36677   -11901.302    4.3238064    4.3238064    4.3238064   -11901.302   -13982.331   -21353.061   -368.51613   -489.57718   -10073.342    -662.0706    80.834865 
   21200    644.67575   -111.94933   0.58331616   -111.36601   -4862.3889     4.323676     4.323676     4.323676   -4862.3889   -12351.313    4306.2528    -6542.107    4190.2272   -4126.9756   -1560.4868    80.827555 
   21300    1095.2564   -112.35112   0.99101099   -111.36011    8904.6967    4.3159392    4.3159392    4.3159392    8904.6967    15281.293    4614.9005    6817.8969   -156.35894    1731.6751   -281.68508    80.394428 
   21400    850.85001   -112.13536   0.76986697    -111.3655   -6948.0986    4.3237699    4.3237699    4.3237699   -6948.0986    -1432.406    5277.5366   -24689.426   -3413.2373    -8545.923    3620.4564     80.83282 
   21500    552.01829   -111.86666   0.49947775   -111.36718   -2034.8724    4.3248141    4.3248141    4.3248141   -2034.8724   -9295.3968    7102.4061   -3911.6266    -1149.426    3614.4483     555.2104    80.891399 
   21600    739.63027   -112.02959   0.66923302   -111.36036    10468.535    4.3111229    4.3111229    4.3111229    10468.535    18623.145   -10193.039      22975.5    237.68832    4614.1506   -4081.6705    80.125587 
   21700    302.84241   -111.64208   0.27401818   -111.36806   -11619.153    4.3284025    4.3284025    4.3284025   -11619.153   -21188.877   -23989.716    10321.135    1502.9092   -6897.5903    1718.6489    81.092914 
   21800    642.99818   -111.94865   0.58179827   -111.36685    -8824.925    4.3225453    4.3225453    4.3225453    -8824.925   -14652.954   -2266.9666   -9554.8542   -5926.1569    105.53522   -344.63984    80.764153 
   21900    1131.9867   -112.38336    1.0242454   -111.35912    22894.722    4.3083591    4.3083591    4.3083591    22894.722    29923.811    19173.177    19587.179    7807.8824   -1689.4615   -4410.4916    79.971581 
   22000    772.68338   -112.06472   0.69914016   -111.36558   -20970.698    4.3363896    4.3363896    4.3363896   -20970.698   -25391.392   -7614.1814   -29906.521    2519.7285   -8151.6319    2292.2799    81.542663 
   22100    624.39094   -111.93029   0.56496205   -111.36533    2570.4907    4.3153676    4.3153676    4.3153676    2570.4907   -10293.143    21782.969   -3778.3537   -3832.2737    3854.2091    1803.8836    80.362488 
   22200    725.95247   -112.01682   0.65685705   -111.35996    20093.747    4.3107406    4.3107406    4.3107406    20093.747    24173.682   -4415.3799    40522.939    6259.0302    6875.0376   -2753.2452    80.104273 
   22300    345.42922   -111.67704   0.31255161   -111.36449   -26183.124    4.3379907    4.3379907    4.3379907   -26183.124    -26922.97   -34818.197   -16808.206    -2782.622   -10178.314   -626.43119    81.633016 
   22400    608.84957   -111.91253   0.55089989   -111.36163    12883.397    4.3073599    4.3073599    4.3073599    12883.397    14677.827     6904.825     17067.54    1513.5333    3373.1641   -1039.7422    79.915952 
   22500    1089.8393   -112.34689   0.98610946   -111.36078    6168.1768    4.3192089    4.3192089    4.3192089    6168.1768    20259.516    5659.1713   -7414.1567    -1046.185   -3165.0993   -2103.7414    80.577283 
   22600    726.09926   -112.02298   0.65698987   -111.36599    -22700.16    4.3312125    4.3312125    4.3312125    -22700.16   -28959.298   -4360.8698   -34780.313    -4462.491    -15389.45    493.59848    81.250957 
   22700    641.98877   -111.94272   0.58088493   -111.36183    18763.028    4.3073778    4.3073778    4.3073778    18763.028    11444.563    33975.921      10868.6   -1361.7154    5815.3928    2497.3655    79.916948 
   22800     769.6137   -112.05584   0.69636265   -111.35947   -5511.9638    4.3289153    4.3289153    4.3289153   -5511.9638   -6218.7688   -20070.579    9753.4562    -4910.379    1826.5118    3282.6227    81.121741 
   22900     385.8933   -111.71483   0.34916437   -111.36566   -3416.7211    4.3193038    4.3193038    4.3193038   -3416.7211    566.05299   -16067.201    5250.9846   -4136.3063   -5618.5125    1647.7524    80.582596 
   23000     628.1523   -111.93318    0.5683654   -111.36482    6564.2599    4.3161392    4.3161392    4.3161392    6564.2599    22509.313   -8871.6545     6055.121   -5573.2414    9345.7103    1188.3564    80.405605 
   23100     958.6008   -112.22626   0.86736215    -111.3589   -3913.2356    4.3272115    4.3272115    4.3272115   -3913.2356    11721.864   -9473.4837   -13988.087    827.97148   -2967.8191    275.97351    81.025996 
   23200    704.24609   -111.99963   0.63721666   -111.36242     3874.105    4.3135032    4.3135032    4.3135032     3874.105    7105.2328    17391.791   -12874.709    1546.3113    -15114.52    -2402.732    80.258378 
   23300    705.43493   -112.00179   0.63829235    -111.3635   -9024.3208    4.3262412    4.3262412    4.3262412   -9024.3208   -23407.793    7186.8039   -10851.973    406.34733     4404.007   -1225.4949    80.971499 
   23400    796.54355   -112.08154   0.72072934   -111.36082    5518.8858    4.3165761    4.3165761    4.3165761    5518.8858    8491.6876   -1028.1803    9093.1499    10127.124   -2600.0097   -3417.1742    80.430027 
   23500    457.62784   -111.77963   0.41407128   -111.36556      2019.87    4.3189689    4.3189689    4.3189689      2019.87    5875.2717   -11451.704    11636.042   -1501.4194   -7911.1041    724.56529    80.563856 
   23600    720.85542   -112.01456   0.65224514   -111.36232   -10191.126      4.32737      4.32737      4.32737   -10191.126    1146.0763   -25797.819   -5921.6349    3781.6849    13970.595    1779.3022      81.0349 
   23700     803.3658    -112.0857   0.72690226    -111.3588    21182.098    4.3089317    4.3089317    4.3089317    21182.098    39727.011    3029.7844      20789.5    4737.1992    764.46676   -278.74759    80.003471 
   23800    714.32939   -112.01029   0.64634024   -111.36395   -15509.598    4.3291281    4.3291281    4.3291281   -15509.598   -23324.871    2981.4671    -26185.39   -7749.0284   -12993.341    2893.0621    81.133708 
   23900    770.82733   -112.05911   0.69746077   -111.36165    386.57113    4.3182608    4.3182608    4.3182608    386.57113   -7229.1137    14297.061   -5908.2336    6282.2677     4153.157    689.79109    80.524235 
   24000    736.00833   -112.02719   0.66595581   -111.36123    11369.317    4.3114567    4.3114567    4.3114567    11369.317      5821.44    8363.3362    19923.176    1380.2038   -3589.8241   -1854.4555      80.1442 
   24100    569.19985   -111.87795   0.51502399   -111.36292   -20803.446    4.3323393    4.3323393    4.3323393   -20803.446   -23042.553   -16999.493   -22368.293   -1577.4217   -13320.483    1995.6687    81.314384 
   24200    680.01898   -111.97507   0.61529546   -111.35977    18906.423    4.3076295    4.3076295    4.3076295    18906.423    35022.192     -6287.45    27984.527    2601.8921    9371.2337   -4177.5543    79.930959 
   24300    800.97122   -112.08909   0.72473559   -111.36436   -2087.3387    4.3223908    4.3223908    4.3223908   -2087.3387    11232.293   -14627.486    -2866.824     3407.772   -295.89335   -233.20528    80.755496 
   24400    578.39581   -111.88857   0.52334469   -111.36522   -7931.5339    4.3244445    4.3244445    4.3244445   -7931.5339   -13231.491    10032.607   -20595.718    2150.2011   -10282.765   -1524.6162    80.870659 
   24500    843.78564   -112.12214   0.76347498   -111.35866    10986.903    4.3059522    4.3059522    4.3059522    10986.903    578.33556    21882.493    10499.879   -4533.7111    6181.1824   -2305.8672    79.837625 
   24600      704.017   -111.99878   0.63700937   -111.36177   -18709.837    4.3308218    4.3308218    4.3308218   -18709.837   -19877.817   -9529.0731    -26722.62    5886.6009   -8448.7827     2129.174    81.228967 
   24700    574.61305   -111.88507   0.51992196   -111.36514   -1135.6356    4.3142401    4.3142401    4.3142401   -1135.6356   -1268.2741    5837.0095   -7975.6421   -1919.8676    -11352.03    -1033.121    80.299519 
   24800    801.18287   -112.08676    0.7249271   -111.36183    8147.4979    4.3137741    4.3137741    4.3137741    8147.4979    26004.717   -15078.572    13516.349    187.90342    7952.2104    848.67379      80.2735 
   24900    698.39191   -111.99314   0.63191968   -111.36122   -8150.8808    4.3289352    4.3289352    4.3289352   -8150.8808    13911.396   -25461.843   -12902.195     4142.311   -6594.8747   -3680.2569    81.122859 
   25000    586.41044   -111.89302   0.53059649   -111.36242    11513.028    4.3086931    4.3086931    4.3086931    11513.028    1602.1885    24922.272    8014.6229   -2648.4906   -9337.3521   -323.27403    79.990182 
   25100    828.19232   -112.11109   0.74936582   -111.36173   -8014.8174    4.3239797    4.3239797    4.3239797   -8014.8174   -9218.7453   -4872.7425   -9952.9643    4194.0794    8137.4582   -3128.1791    80.844583 
   25200    691.87296   -111.98724    0.6260212   -111.36122   -6521.8682    4.3216064    4.3216064    4.3216064   -6521.8682   -6247.5941    7767.3412   -21085.352   -1678.9767   -14354.538   -6431.0304     80.71154 
   25300    615.86241   -111.91933   0.55724525   -111.36209    5320.9722    4.3120224    4.3120224    4.3120224    5320.9722    2641.6168    18651.302    -5330.002   -2979.0193   -9609.7953    4297.5981    80.175748 
   25400    859.66409   -112.13711   0.77784213   -111.35927   -6432.4331    4.3272485    4.3272485    4.3272485   -6432.4331    17081.953   -26049.191   -10330.061   -3170.6834    10366.796   -2640.5588     81.02807 
   25500    659.27901   -111.95854   0.59652951   -111.36201    10663.617    4.3132533    4.3132533    4.3132533    10663.617    30073.482   -3105.0508    5022.4208   -1793.7046   -13839.163    -1738.073    80.244429 
   25600     547.1181   -111.86083   0.49504396   -111.36579     2637.504    4.3193184    4.3193184    4.3193184     2637.504   -6069.0387    8494.5392    5487.0114    -4320.939   -8089.2861    3488.5349    80.583415 
   25700    803.78892    -112.0874    0.7272851   -111.36011   -4393.5048    4.3219831    4.3219831    4.3219831   -4393.5048   -6390.6526   -13698.533    6908.6712   -6773.8808    8998.8833   -4666.5361    80.732646 
   25800    601.39356    -111.9081   0.54415353   -111.36395   -446.09309    4.3140389    4.3140389    4.3140389   -446.09309   -10450.355    12638.592   -3526.5161    2662.3337   -19116.376   -3967.5005    80.288284 
   25900    734.32273    -112.0284   0.66443064   -111.36397   -11298.621    4.3233845    4.3233845    4.3233845   -11298.621   -15894.328    952.22472   -18953.761   -6502.5591   -12919.906    -2320.785    80.811202 
   26000    926.87214    -112.1986   0.83865339   -111.35995    1410.3686    4.3178678    4.3178678    4.3178678    1410.3686    20721.552   -17082.504    592.05878    1424.8308    7511.2775   -5579.9835    80.502249 
   26100    643.10575   -111.94538    0.5818956   -111.36348   -2791.8061     4.319529     4.319529     4.319529   -2791.8061    13596.283   -11602.056   -10369.645    1744.4489   -14982.673   -2824.0399    80.595198 
   26200    631.68496    -111.9337   0.57156183   -111.36214     -1725.87    4.3209346    4.3209346    4.3209346     -1725.87   -11443.575    351.40646    5914.5583   -7511.8064   -8103.6772    3323.7366    80.673904 
   26300    706.93008   -111.99983    0.6396452   -111.36019    252.71341    4.3155522    4.3155522    4.3155522    252.71341    -10043.68   -11574.533    22376.353    5683.5825    6608.3641   -3286.9423    80.372805 
   26400    455.51033   -111.77822   0.41215532   -111.36606   -7262.6655    4.3214641    4.3214641    4.3214641   -7262.6655   -17911.784     6071.721   -9947.9335   -19.530527   -22185.578    1256.6584    80.703564 
   26500    793.06929   -112.08078   0.71758576    -111.3632   -47.172826    4.3177384    4.3177384    4.3177384   -47.172826   -9264.6696    7279.8496    1843.3015   -5076.5927   -7579.8378    6911.6528    80.495016 
   26600    868.97309   -112.14852   0.78626512   -111.36225    2735.2071    4.3183686    4.3183686    4.3183686    2735.2071    21283.273   -10381.948   -2695.7036    5837.0316    2381.6405   -9579.7862    80.530262 
   26700    636.40981   -111.94163   0.57583697   -111.36579   -11482.427    4.3235386    4.3235386    4.3235386   -11482.427    7432.4306   -12762.857   -29116.856    3450.6715   -18749.438   -1851.4204    80.819849 
   26800    742.73866   -112.03322   0.67204555   -111.36118    4382.1357    4.3152421    4.3152421    4.3152421    4382.1357    6973.0921   -2277.7764    8451.0915   -9381.8907   -1220.6302    2196.0363     80.35548 
   26900    710.59562   -112.00421   0.64296185   -111.36125   -7976.8749    4.3225817    4.3225817    4.3225817   -7976.8749   -6198.5608   -19296.708    1564.6439      85.5111    1134.6675   -12364.791    80.766196 
   27000     438.1744   -111.76116   0.39646941   -111.36469   -10065.383    4.3212276    4.3212276    4.3212276   -10065.383   -21104.572    775.32554    -9866.902   -492.29057   -20382.064   -149.75647     80.69032 
   27100    792.50353    -112.0793   0.71707385   -111.36223    7652.6992    4.3132424    4.3132424    4.3132424    7652.6992    3311.1499    2401.7132    17245.235   -10228.278   -3098.2694    3235.7946     80.24382 
   27200    840.12049   -112.12253   0.76015867   -111.36237   -360.00715     4.324751     4.324751     4.324751   -360.00715    15877.478   -12142.868   -4814.6317    1761.1385   -5909.3097   -3543.2421    80.887856 
   27300    643.08867   -111.94755   0.58188015   -111.36567   -218.59546    4.3187295    4.3187295    4.3187295   -218.59546    21566.857   -7933.6835    -14288.96    1848.7534   -19469.637    4243.9721    80.550458 
   27400    822.71304   -112.10601   0.74440805    -111.3616    8631.9393    4.3153992    4.3153992    4.3153992    8631.9393     16003.05   -660.10387    10552.872   -801.07266    3264.1816     5231.675    80.364256 
   27500    718.82233    -112.0106   0.65040555    -111.3602   -11712.865    4.3261579    4.3261579    4.3261579   -11712.865    -6540.593    -18340.32   -10257.682     6326.902   -4556.7105   -2941.9074    80.966826 
   27600      445.497   -111.76642   0.40309505   -111.36333   -8111.3084     4.316551     4.316551     4.316551   -8111.3084   -20613.536     5375.896   -9096.2849   -2737.5824   -14799.536    4780.7211    80.428623 
   27700    766.38321   -112.05592   0.69343964   -111.36248    4395.6644    4.3165722    4.3165722    4.3165722    4395.6644    7654.8817   -1131.4182    6663.5296   -2430.6246    5388.1886    5103.0258    80.429806 
   27800    799.29538   -112.08587   0.72321925   -111.36265   -369.94417    4.3245745    4.3245745    4.3245745   -369.94417    8792.7375    1538.6109   -11441.181    1530.8024   -10938.686   -5717.2003    80.877952 
   27900     703.3458   -112.00129   0.63640206   -111.36489    5854.8087    4.3126302    4.3126302    4.3126302    5854.8087    19206.353   -1844.4521    202.52509   -4918.1364   -20585.943    7509.8985    80.209658 
   28000    859.25333   -112.14138   0.77747047   -111.36391    5353.4713    4.3199348    4.3199348    4.3199348    5353.4713    14913.854   -5583.3849    6729.9452    -7114.031    8120.6239    3513.5799     80.61792 
   28100    718.91052   -112.01471   0.65048534   -111.36422   -8540.6435    4.3217536    4.3217536    4.3217536   -8540.6435   -19350.428   -9503.5301    3232.0277    5202.6538   -9344.4455   -5322.7009    80.719789 
   28200    386.49427   -111.71516   0.34970813   -111.36545    805.63766    4.3121877    4.3121877    4.3121877    805.63766   -6173.3283    968.32113    7621.9202   -465.75894   -14122.948    9929.7001    80.184972 
   28300    709.27767   -112.00426   0.64176934   -111.36249   -9126.6033    4.3251326    4.3251326    4.3251326   -9126.6033   -9406.2186    -12542.79   -5430.8009    -6494.065    10892.109    2772.4962    80.909272 
   28400    723.79131   -112.01725   0.65490159   -111.36235    5273.7131    4.3165492    4.3165492    4.3165492    5273.7131   -1781.9644    18083.385   -480.28094    5802.7947   -10719.925     -8.29055    80.428521 
   28500    778.45007   -112.06943   0.70435798   -111.36507   -3192.3969    4.3167312    4.3167312    4.3167312   -3192.3969    10981.154   -4734.0754   -15824.269   -6842.5418   -18051.264    9619.2665    80.438696 
   28600     874.5672   -112.15276   0.79132678   -111.36143   -3184.2806    4.3242913    4.3242913    4.3242913   -3184.2806    5856.1961   -9085.2114   -6323.8265    -4416.378    5850.8698    3035.9738    80.862067 
   28700    713.02699   -112.00665   0.64516181   -111.36149    2750.2791    4.3125941    4.3125941    4.3125941    2750.2791   -8059.5525    4808.7938    11501.596    1524.8616   -13046.418   -2078.9947    80.207644 
   28800    406.72238   -111.73325   0.36801096   -111.36524   -13740.975    4.3227385    4.3227385    4.3227385   -13740.975   -16471.905   -18245.053   -6505.9678   -4133.6055   -9438.7079    10419.076    80.774986 
   28900    623.15314   -111.92577   0.56384206   -111.36192   -6002.4312    4.3199131    4.3199131    4.3199131   -6002.4312   -18167.098   -7497.6882    7657.4924     503.7164    13168.952    5937.5331    80.616701 
   29000    678.40965   -111.97646    0.6138393   -111.36262    5076.7993    4.3119439    4.3119439    4.3119439    5076.7993   -7564.7962    25374.305   -2579.1111    1910.0347   -13449.982   -2656.8377    80.171372 
   29100    785.91588   -112.07639   0.71111321   -111.36528    -13284.99    4.3254055    4.3254055    4.3254055    -13284.99    8329.9564   -17512.123   -30672.805    -981.2582    -7206.832     17404.15    80.924587 
   29200     982.2214   -112.24976   0.88873456   -111.36103    5853.0921    4.3160947    4.3160947    4.3160947    5853.0921    16312.786    6211.8534   -4965.3631    -3148.922    3670.3089    4244.7425    80.403119 
   29300    731.01042   -112.02421   0.66143359   -111.36278   -2352.0144    4.3163599    4.3163599    4.3163599   -2352.0144   -3816.8899    1324.9697   -4564.1228    4693.3867   -20126.851   -2987.7238    80.417942 
   29400     440.9833   -111.76317   0.39901096   -111.36416   -12119.754    4.3228301    4.3228301    4.3228301   -12119.754    -9663.988   -21136.939   -5558.3352   -596.03912   -3889.0003    16331.024    80.780119 
   29500    585.86802    -111.8917   0.53010569    -111.3616    3866.4207    4.3144908    4.3144908    4.3144908    3866.4207   -13003.059    5471.6868    19130.634   -4615.5806    7103.7609   -1480.9779    80.313519 
   29600    564.93852   -111.87454   0.51116825   -111.36337   -4041.2466    4.3203951    4.3203951    4.3203951   -4041.2466   -20821.544    16523.285   -7825.4804     5352.305   -12859.613    95.273895    80.643691 
   29700    808.82865   -112.09581   0.73184516   -111.36397   -4716.1021    4.3189997    4.3189997    4.3189997   -4716.1021    12480.043   -11107.324   -15521.025   -3581.7899   -630.50248    14914.175    80.565578 
   29800    1008.9663   -112.27406   0.91293394   -111.36112    9078.7711    4.3176042    4.3176042    4.3176042    9078.7711    20647.498    9606.1317   -3017.3164   -4679.4879    2624.2745    2.3088428    80.487506 
   29900    845.17829   -112.12754   0.76473508    -111.3628    -7801.096    4.3210664    4.3210664    4.3210664    -7801.096    865.57945   -4684.1988   -19584.668   -3060.1252   -18048.276    5783.4544    80.681289 
   30000    479.12228   -111.79789    0.4335199   -111.36437    195.05368    4.3164379    4.3164379    4.3164379    195.05368    7133.7641   -14828.487    8279.8837   -1861.3064   -4208.0767    16096.651      80.4223 
   30100    594.05524   -111.89955   0.53751367   -111.36204   -2722.4065    4.3189666    4.3189666    4.3189666   -2722.4065    -21731.24    2521.5322    11042.488   -1826.8214    3863.8701   -1741.1743    80.563727 
   30200    478.26222   -111.79657   0.43274171   -111.36383   -897.64563     4.318624     4.318624     4.318624   -897.64563   -26167.013    17674.361    5799.7159    952.82708   -11230.365    4090.1324    80.544552 
   30300    721.18282   -112.01716   0.65254137   -111.36462   -2004.0207     4.319256     4.319256     4.319256   -2004.0207    10028.019   -9218.3019   -6821.7796     4306.331    3816.4733    16346.638    80.579922 
   30400    1049.5729   -112.31117   0.94967558    -111.3615     6040.254    4.3184286    4.3184286    4.3184286     6040.254    15536.139    12319.038   -9734.4154   -92.793793    4344.5886   -4603.4346     80.53362 
   30500     896.2932   -112.17421   0.81098493   -111.36322     1351.062    4.3182405    4.3182405    4.3182405     1351.062    13492.956   -744.05006   -8695.7197    6051.4704   -13792.286     8286.478    80.523099 
   30600     568.9888   -111.87822   0.51483302   -111.36339   -5989.8425    4.3235631    4.3235631    4.3235631   -5989.8425    9656.7481   -20833.087   -6793.1883   -1795.4614   -2425.5996    18959.984    80.821219 
   30700    570.53149   -111.87625   0.51622888   -111.36002    4569.6348    4.3148056    4.3148056    4.3148056    4569.6348   -16020.928    6246.8258    23483.006   -4220.1098    -3368.369   -7269.5637    80.331097 
   30800    402.98237   -111.72836   0.36462691   -111.36373   -2044.0664    4.3196005    4.3196005    4.3196005   -2044.0664   -25541.612    9988.2114    9421.2014    739.77458    -12193.95    9245.7473    80.599201 
   30900    656.23688   -111.95729   0.59377692   -111.36351   -7725.8028    4.3226799    4.3226799    4.3226799   -7725.8028    -3136.592   -13053.916   -6986.9002   -6414.8409    1372.9526    13369.077    80.771701 
   31000     993.1588   -112.25906   0.89863096   -111.36043    11451.968    4.3124717    4.3124717    4.3124717    11451.968    9914.9929    21162.505    3278.4064   -1194.4558    2143.6778   -10351.603    80.200812 
   31100    970.31795   -112.24065   0.87796407   -111.36268     -8433.85     4.322427     4.322427     4.322427     -8433.85     4829.378   -3157.4379    -26973.49   -1668.3233   -6102.1025     12284.79    80.757527 
   31200    666.01845   -111.96589   0.60262749   -111.36326    -838.3301    4.3189958    4.3189958    4.3189958    -838.3301    10796.664   -6914.0968   -6397.5577    1314.1371    2728.7088    14975.019    80.565357 
   31300    562.89015   -111.87097   0.50931484   -111.36166   -109.97509    4.3161667    4.3161667    4.3161667   -109.97509   -20347.327    5377.5704    14639.831   -2032.9458   -3071.4608   -6591.2933    80.407145 
   31400    382.83486   -111.70985   0.34639703   -111.36345   -3490.3261     4.321566     4.321566     4.321566   -3490.3261   -26011.448    7117.9775    8422.4924    818.36919   -10966.246    12438.852    80.709274 
   31500     644.4109   -111.94616   0.58307652   -111.36309    2386.9963    4.3157104    4.3157104    4.3157104    2386.9963   -3994.2336   -5584.2626    16739.485    1848.2682     2745.438     10184.28    80.381641 
   31600    846.59313   -112.12977   0.76601526   -111.36375   -1241.5016     4.320906     4.320906     4.320906   -1241.5016    1138.8759    2689.5521   -7552.9327   -3358.8484   -4827.4055   -10764.097    80.672301 
   31700    1038.0621   -112.30153   0.93926038   -111.36227    141.03392    4.3164678    4.3164678    4.3164678    141.03392    14406.477    1125.3763   -15108.752      3507.47   -4169.2612    7824.8851    80.423969 
   31800     731.8375   -112.02598   0.66218195   -111.36379    188.76281    4.3183605    4.3183605    4.3183605    188.76281    6026.9633   -9051.1277    3590.4528    -3493.647      7651.27    7700.4952    80.529809 
   31900    501.18962   -111.81716    0.4534869   -111.36367   -11719.681     4.323075     4.323075     4.323075   -11719.681   -30533.839   -4667.3601    42.156124    85.838294   -3460.5795   -10135.676    80.793852 
   32000    511.31783   -111.82361   0.46265112   -111.36096    11486.852    4.3113746    4.3113746    4.3113746    11486.852   -12580.299    19945.299    27095.556   -1401.2574   -6406.5065     7919.239    80.139621 
   32100    632.77029   -111.93726   0.57254386   -111.36472   -2392.4366    4.3206941    4.3206941    4.3206941   -2392.4366     -11118.9   -9135.4834    13077.073   -2221.4215    2258.7695    4606.3471    80.660434 
   32200    758.56024   -112.05196   0.68636125    -111.3656    669.38876     4.320681     4.320681     4.320681    669.38876    5372.4222    593.88714    -3958.143   -2481.6978   -5145.7126   -9976.6107    80.659702 
   32300    1066.1829   -112.32496   0.96470469   -111.36026    10972.654    4.3143718    4.3143718    4.3143718    10972.654    24322.113    5071.7198    3524.1286   -5238.1715   -5722.9273    2926.2079    80.306869 
   32400     708.1955   -112.00489   0.64079017    -111.3641   -10218.308    4.3230222    4.3230222    4.3230222   -10218.308   -4860.6303   -16851.802   -8942.4918    824.29418    10423.221    3328.2112    80.790894 
   32500    416.42076   -111.74162   0.37678625   -111.36483    -2465.271     4.317041     4.317041     4.317041    -2465.271   -14262.949    2995.2832    3871.8523   -4066.4014    841.17298   -8724.0313    80.456013 
   32600    690.21352   -111.98489    0.6245197   -111.36037    5087.2117    4.3185322    4.3185322    4.3185322    5087.2117     -17669.8     14822.82    18108.615    329.35464   -1582.8982      749.513    80.539415 
   32700    648.55368   -111.94951     0.586825   -111.36269   -1525.3066    4.3217988    4.3217988    4.3217988   -1525.3066   -15064.276   -1919.9784    12408.334    190.82309    11017.013    6307.1651    80.722317 
   32800    726.66418   -112.02088   0.65750102   -111.36337    7387.4495    4.3166789    4.3166789    4.3166789    7387.4495    10768.892    5220.9737    6172.4826    1467.4987   -4702.1652   -12357.092    80.435774 
   32900    1044.7862   -112.30443   0.94534455   -111.35909    955.76728    4.3200412    4.3200412    4.3200412    955.76728    10844.055     -5636.05   -2340.7032    4488.5925   -6994.1662   -747.82097    80.623874 
   33000     614.6623   -111.91992   0.55615936   -111.36376   -3845.3307    4.3171703    4.3171703    4.3171703   -3845.3307    2481.7343   -13778.883    -238.8439    -3734.935    7356.6786   -62.109847    80.463245 
   33100    464.65249   -111.78627   0.42042734   -111.36584   -10216.579    4.3209539    4.3209539    4.3209539   -10216.579    -7808.754   -7620.3759   -15220.606    1656.9875    521.44985   -15589.209    80.674986 
   33200    797.83668   -112.08223    0.7218994   -111.36033   -753.72929    4.3203143    4.3203143    4.3203143   -753.72929       -15192    10121.785    2809.0278   -2854.1726   -2703.2998   -1457.7403    80.639169 
   33300    698.57599    -111.9949   0.63208624   -111.36282    8444.7052    4.3148866    4.3148866    4.3148866    8444.7052    459.93518    10700.546    14173.635   -4043.6889    12112.762   -620.08605     80.33562 
   33400    646.10142   -111.95002   0.58460614   -111.36541   -3078.3132    4.3239992    4.3239992    4.3239992   -3078.3132    1599.2654   -5433.0203   -5401.1846   -3247.0545    381.31653   -12694.843     80.84568 
   33500    830.80753   -112.11165   0.75173211   -111.35991    9342.7093    4.3152705    4.3152705    4.3152705    9342.7093    11690.937    171.36501    16165.825   -5191.5534   -3811.0963    3394.0679    80.357066 
   33600    582.05755   -111.89037    0.5266579   -111.36371   -7624.0732     4.319649     4.319649     4.319649   -7624.0732   -11038.096   -13325.503    1491.3796    2829.0768    6926.8389   -1362.1252    80.601917 
   33700    493.38411   -111.81019   0.44642431   -111.36377   -14817.652     4.323344     4.323344     4.323344   -14817.652    -17610.31   -6978.2932   -19864.352    -1883.993   -5827.4413   -18655.948    80.808932 
   33800    949.53599   -112.21792   0.85916012   -111.35876    5912.6944    4.3107891    4.3107891    4.3107891    5912.6944    -7428.933    20572.821    4594.1954    3421.7446   -824.50032    1801.1641    80.106975 
   33900    793.55276   -112.08157   0.71802321   -111.36354   -4093.1732    4.3245357    4.3245357    4.3245357   -4093.1732   -13805.893    1897.0011   -370.62765    558.73715    8100.0019   -4129.3538    80.875777 
   34000    678.19236   -111.97816    0.6136427   -111.36451   -769.48146     4.318615     4.318615     4.318615   -769.48146    8350.2094   -4679.9489   -5978.7049    2271.7819   -1655.0023   -16918.272    80.544053 
   34100    671.28635   -111.96823     0.607394   -111.36084    10513.707    4.3135393    4.3135393    4.3135393    10513.707     11880.09   -3598.2773    23259.309   -1503.2321    3546.9395    8344.7011    80.260389 
   34200    552.95887    -111.8624   0.50032881   -111.36207   -8109.6412    4.3247062    4.3247062    4.3247062   -8109.6412   -10701.701   -17165.627    3538.4045   -5601.4642    9148.1428   -4716.6824    80.885342 
   34300    540.47651   -111.85203    0.4890345   -111.36299    5868.8417    4.3147788    4.3147788    4.3147788    5868.8417    6906.1805    17106.851   -6406.5068    759.67782   -2451.7791   -13724.159    80.329601 
   34400    958.62939   -112.22813   0.86738802   -111.36075   -2888.1419    4.3195709    4.3195709    4.3195709   -2888.1419   -9994.7388    7218.1749   -5887.8619   -4114.9123   -2023.0149    7554.6036    80.597548 
   34500    848.49011   -112.12933   0.76773168    -111.3616    669.60463    4.3199929    4.3199929    4.3199929    669.60463    9.9656276     11727.75   -9728.9015    28.816286    2863.0038   -8806.0476     80.62117 
   34600    631.26953   -111.93382   0.57118594   -111.36263   -2586.8158    4.3178694    4.3178694    4.3178694   -2586.8158    12591.367   -14691.697   -5660.1174   -677.38674   -6843.4693   -9359.7303    80.502342 
   34700    587.03272   -111.89291   0.53115954   -111.36175   -3917.1953    4.3201296    4.3201296    4.3201296   -3917.1953       4093.7   -25027.122    9181.8357    1743.6435   -1406.7724    12227.061    80.628826 
   34800    562.71658   -111.87163   0.50915779   -111.36247    10801.761    4.3136449    4.3136449    4.3136449    10801.761    2682.3895     10719.07    19003.823    3904.6845    2466.5486     -4073.72    80.266289 
   34900    610.28148   -111.91689   0.55219551    -111.3647   -4444.6275    4.3247343    4.3247343    4.3247343   -4444.6275   -9488.2763    5047.5992   -8893.2055    -2247.051   -2629.0296   -4877.8885    80.886919 
   35000    947.64191   -112.21817   0.85744632   -111.36072    83.023977    4.3171323    4.3171323    4.3171323    83.023977   -13035.234    15669.885   -2385.5796    1670.6947    503.41713    10495.315    80.461119 
   35100    949.02638   -112.22013   0.85869901   -111.36143    6217.7971    4.3124004    4.3124004    4.3124004    6217.7971   -200.80616    17494.061    1360.1368    2064.5945    4390.5288   -14949.885    80.196834 
   35200    568.18048   -111.87762   0.51410164   -111.36352   -22815.381    4.3289752    4.3289752    4.3289752   -22815.381   -2098.3564   -36213.439   -30134.347    206.55217   -826.01107   -2541.5465    81.125107 
   35300    558.01697   -111.86635   0.50490548   -111.36145    525.70357     4.311281     4.311281     4.311281    525.70357    7570.9573   -14611.273    8617.4267    412.39994   -2348.3985    13800.841    80.134401 
   35400    621.33806   -111.92472   0.56219973   -111.36252    12900.186    4.3151189    4.3151189    4.3151189    12900.186     248.5012    19277.194    19174.862    1973.9634    3099.6316   -7177.9478    80.348597 
   35500    683.49548   -111.98242   0.61844108   -111.36398   -12246.688    4.3289337    4.3289337    4.3289337   -12246.688   -10101.542   -8439.9187   -18198.604    1457.0097   -3381.6026    8606.9442    81.122776 
   35600    861.30523   -112.13953   0.77932708    -111.3602    18135.532    4.3083131    4.3083131    4.3083131    18135.532   -463.12583     37459.47    17410.253    1397.4471   -6147.0299    14527.411    79.969018 
   35700    981.39384   -112.24814   0.88798577   -111.36016    -4251.029    4.3192747    4.3192747    4.3192747    -4251.029   -8752.5903   -1983.6906   -2016.8061     3712.827   -214.00605   -13392.009    80.580967 
   35800    420.48612   -111.74502   0.38046468   -111.36456   -16852.869    4.3233519    4.3233519    4.3233519   -16852.869    6071.5108   -31014.825   -25615.292   -2387.8165   -6040.0017    5008.5917    80.809376 
   35900    514.16582   -111.82715   0.46522804   -111.36192    4076.3105    4.3120767    4.3120767    4.3120767    4076.3105    7303.0208    3119.2605    1806.6501    3083.5719   -3536.4866    10433.578    80.178781 
   36000     751.5123   -112.04109   0.67998412   -111.36111    2899.0217    4.3198099    4.3198099    4.3198099    2899.0217   -4921.3529    11014.687    2603.7316    1743.0148    2162.9909   -8862.6763    80.610928 
   36100    684.20585   -111.98468   0.61908384   -111.36559    315.10659    4.3186359    4.3186359    4.3186359    315.10659     201.7856    10850.631   -10107.097   -3720.4182   -4385.4277    14393.009     80.54522 
   36200    881.18706   -112.16212   0.79731657    -111.3648    6766.3564    4.3171183    4.3171183    4.3171183    6766.3564   -12065.395    19903.999    12460.465    3430.6911   -2698.0862     11784.05    80.460335 
   36300    884.49982   -112.16195   0.80031402   -111.36164    2474.8375    4.3173854    4.3173854    4.3173854    2474.8375   -5021.3987   -4542.4206    16988.332    2856.5382    4129.1206   -6081.0784     80.47527 
   36400    427.30055   -111.75323   0.38663052    -111.3666   -10955.093    4.3181043    4.3181043    4.3181043   -10955.093    8552.0451   -29066.497   -12350.826    1489.1643    -3814.033    10225.125    80.515482 
   36500     466.6965   -111.78738    0.4222768    -111.3651   -4921.9876    4.3203063    4.3203063    4.3203063   -4921.9876   -7520.1299   -1091.0038    -6154.829    6122.5796   -4798.1168    3697.0899    80.638719 
   36600     875.2416   -112.15267     0.791937   -111.36074    3984.6445    4.3139371    4.3139371    4.3139371    3984.6445    301.53203    9776.6886     1875.713    5614.2945    1856.5056    -1190.981      80.2826 
   36700    722.54517   -112.02031   0.65377406   -111.36654   -7048.2577    4.3216466    4.3216466    4.3216466   -7048.2577   -5578.3214    1082.7095   -16649.161    837.22849   -6214.8224    13803.435    80.713792 
   36800    808.23113   -112.09661   0.73130451   -111.36531   -816.21363    4.3187291    4.3187291    4.3187291   -816.21363   -18112.115    6388.0341    9275.4405    6276.5662   -4691.1675    5373.7517    80.550432 
   36900    839.21833   -112.12013   0.75934238   -111.36078    10974.857    4.3104321    4.3104321    4.3104321    10974.857    4342.8445   -2177.5288    30759.254   -2264.8496    3421.3057    3786.0313    80.087071 
   37000    477.45721   -111.79791   0.43201332   -111.36589   -16520.373    4.3264747    4.3264747    4.3264747   -16520.373   -4016.2124   -38733.092   -6811.8136   -1310.1259   -6603.4736    13824.668     80.98461 
   37100    475.38506   -111.79478   0.43013839   -111.36464   -635.00564    4.3150905    4.3150905    4.3150905   -635.00564   -6851.6388    2999.5539     1947.068    4815.5402   -3097.1557   -656.38209    80.347013 
   37200    906.94336   -112.18096   0.82062142   -111.36034    3939.8045    4.3116385    4.3116385    4.3116385    3939.8045    4910.4285    3322.2016    3586.7834   -5096.9109    5531.7175    726.70066    80.154338 
   37300    775.78404   -112.06536    0.7019457   -111.36341   -14864.927    4.3275687    4.3275687    4.3275687   -14864.927   -18606.546   -3433.6419   -22554.595     3262.493   -8612.3783    10461.415    81.046058 
   37400    665.25178   -111.96738   0.60193379   -111.36545     7978.108    4.3109325    4.3109325    4.3109325     7978.108   -6810.3482    14351.598    16393.074    5455.0712   -5002.2952   -4820.3104    80.114967 
   37500    836.23129   -112.11721   0.75663964   -111.36057    4611.4826    4.3179132    4.3179132    4.3179132    4611.4826    657.23238   -9112.9607    22290.176    307.49041    5279.9012    3512.5577    80.504792 
   37600    557.67609   -111.86878   0.50459705   -111.36418   -9345.6237    4.3230345    4.3230345    4.3230345   -9345.6237   -5275.2724   -26435.581    3673.9819    3709.0563   -10725.713    9999.3266     80.79158 
   37700    451.62728   -111.77468   0.40864186   -111.36604    8003.0797    4.3081512    4.3081512    4.3081512    8003.0797    3453.7309    7699.5658    12855.942      5098.93   -4823.9506    -3096.642    79.960005 
   37800    957.98106   -112.22848   0.86680139   -111.36168   -9875.9142     4.323448     4.323448     4.323448   -9875.9142   -7247.3297   -10305.023    -12075.39    1980.2377    7172.1456     2683.106    80.814764 
   37900    730.64602   -112.02596   0.66110388   -111.36485   -5804.0709    4.3177627    4.3177627    4.3177627   -5804.0709   -19323.503    11392.736   -9481.4454    1310.1116   -13453.684     6134.511    80.496374 
   38000    557.16605    -111.8718   0.50413555   -111.36766    5674.1421     4.311472     4.311472     4.311472    5674.1421   -4563.5625    10717.323    10868.666    5082.3704   -3881.4056     -1268.56    80.145053 
   38100    890.79864   -112.16829   0.80601333   -111.36228   -3395.0716    4.3229458    4.3229458    4.3229458   -3395.0716   -8883.2032   -11484.881     10182.87   -3579.5027    5376.8681    -7210.884    80.786606 
   38200    552.70456   -111.86578    0.5000987   -111.36568    7531.1943     4.314516     4.314516     4.314516    7531.1943    1471.5645   -4976.7572    26098.776    3114.5128   -16844.733    5987.2227    80.314923 
   38300    581.71756   -111.89276   0.52635027   -111.36641   -4632.6667    4.3199799    4.3199799    4.3199799   -4632.6667   -7100.6579   -13625.089    6827.7466    875.92301   -1505.0867   -2941.8057    80.620445 
   38400    911.21057   -112.18478   0.82448247    -111.3603    88.829804    4.3170402    4.3170402    4.3170402    88.829804    1354.7812   -3334.3115    2246.0197   -4310.1301    4996.7354   -9218.6182    80.455968 
   38500    683.22064   -111.98309    0.6181924   -111.36489   -3106.1223    4.3154513    4.3154513    4.3154513   -3106.1223   -21556.719    11294.503    943.84866     7959.038   -12328.362    4954.5975    80.367165 
   38600    596.11493   -111.90464   0.53937731   -111.36526   -8618.6082    4.3225781    4.3225781    4.3225781   -8618.6082   -14449.309   -4276.7182   -7129.7971   -1987.1705   -2398.7035   -3070.3033    80.765997 
   38700    805.38466   -112.08945   0.72872897   -111.36072    9177.6951    4.3110341    4.3110341    4.3110341    9177.6951    2288.1639    2104.4244    23140.497    2726.4296    4560.1079   -8896.6585    80.120633 
   38800    606.99521   -111.91539   0.54922202   -111.36617   -4161.0786    4.3224154    4.3224154    4.3224154   -4161.0786   -14722.664    -11990.61    14230.039    4522.3985   -16612.951    3055.4889    80.756873 
   38900    703.28824   -112.00073   0.63634998   -111.36438   -3055.8118    4.3188536    4.3188536    4.3188536   -3055.8118    1066.1695   -18733.121    8499.5158   -2033.7316   -8983.5839   -1217.0836    80.557401 
   39000      838.536   -112.11941     0.758725   -111.36068    11386.492    4.3074954    4.3074954    4.3074954    11386.492     18002.66    3906.5908    12250.225    677.34146     2042.665   -12032.306    79.923493 
   39100    691.55551   -111.98973   0.62573396     -111.364   -16029.529    4.3276519    4.3276519    4.3276519   -16029.529   -30237.396   -1849.6394    -16001.55   -1008.6718   -15485.567    3390.9525    81.050738 
   39200    584.61015   -111.89231   0.52896755   -111.36334    1073.0546    4.3155312    4.3155312    4.3155312    1073.0546    1995.1233    2427.2844   -1203.2439   -416.24872   -1069.6038   -4451.4234    80.371631 
   39300    686.37693   -111.98143   0.62104827   -111.36038    3436.5321    4.3108383    4.3108383    4.3108383    3436.5321    391.49773    1360.0608    8558.0378   -3107.3713     3729.343   -11522.965    80.109715 
   39400    658.87444   -111.95868   0.59616344   -111.36252   -8635.1384    4.3254492    4.3254492    4.3254492   -8635.1384   -22216.341   -10980.585    7291.5107    3132.7563   -10869.443    5057.1164     80.92704 
   39500    716.16125   -112.01112   0.64799775   -111.36312    6876.0246    4.3140943    4.3140943    4.3140943    6876.0246    15026.572    -9128.108     14729.61   -2357.9738   -2806.2418   -6722.8722    80.291374 
   39600    844.70206   -112.12625   0.76430417   -111.36195    1562.3586    4.3153072    4.3153072    4.3153072    1562.3586    11867.427   -6003.1213   -1177.2297    887.30627   -4154.3463   -9745.2192    80.359119 
   39700    760.46668   -112.05063   0.68808623   -111.36254   -3452.1477    4.3205562    4.3205562    4.3205562   -3452.1477    -14188.79    8602.5241   -4770.1768    4606.1845   -13382.589    4439.3405    80.652713 
   39800    585.98988   -111.89394   0.53021596   -111.36372   -895.04351    4.3154861    4.3154861    4.3154861   -895.04351    3110.5929    2070.5487   -7866.2721   -5384.0757   -410.27797   -9918.9444    80.369111 
   39900    587.65686   -111.89471   0.53172427   -111.36299    -6332.605    4.3171835    4.3171835    4.3171835    -6332.605   -11228.772   -4602.9791    -3166.064    4153.8069    367.29701   -10966.787    80.463983 
   40000    657.64525   -111.95817   0.59505124   -111.36312   -2347.5386    4.3179309    4.3179309    4.3179309   -2347.5386   -16540.603   -103.44515    9601.4325   -4208.4747   -11279.627    2816.4377    80.505779 
   40100     672.2082   -111.97276   0.60822811   -111.36453    2942.3722    4.3186237    4.3186237    4.3186237    2942.3722    21200.935   -17291.017    4917.1994   -1715.9847    3497.0775   -12419.997    80.544537 
   40200     881.4755   -112.16014   0.79757756   -111.36256    3177.0267    4.3149324    4.3149324    4.3149324    3177.0267    12475.316   -5476.5332    2532.2975   -39.336537   -6828.4661   -5059.0146     80.33818 
   40300    844.73506    -112.1281   0.76433403   -111.36377    1485.7382    4.3172049    4.3172049    4.3172049    1485.7382   -1877.8495    12130.032    -5794.968   -4500.0884   -18011.948    2675.6154    80.465181 
   40400    630.62804   -111.93424    0.5706055   -111.36364    -7274.325    4.3210856    4.3210856    4.3210856    -7274.325   -318.15112   -6109.8504   -15394.973   -423.07992    1800.6669   -13043.396    80.682361 
   40500    595.77404   -111.90052   0.53906887   -111.36145   -5191.9414    4.3142037    4.3142037    4.3142037   -5191.9414   -13256.588    1930.1413   -4249.3776   -1151.6754   -6141.4044   -494.68483    80.297482 
   40600    549.82084   -111.86115   0.49748945   -111.36366   -1921.6263    4.3173432    4.3173432    4.3173432   -1921.6263   -13787.785    1093.9051    6929.0013    3020.9309   -10673.737    901.44073     80.47291 
   40700    624.71276   -111.92961   0.56525323   -111.36436    5160.2824    4.3193214    4.3193214    4.3193214    5160.2824    26570.747   -16057.994    4968.0934   -3266.2004    8289.2095   -12668.137    80.583582 
   40800    883.53205    -112.1617   0.79943836   -111.36226    3243.6308    4.3157161    4.3157161    4.3157161    3243.6308    10509.202   -5419.6313     4641.322     2270.518   -4692.5009    1037.4283    80.381965 
   40900    824.65087   -112.10984   0.74616144   -111.36368    2251.8976    4.3169888    4.3169888    4.3169888    2251.8976    4465.9105    8847.8774   -6558.0951   -831.25838   -16263.837   -1896.6602    80.453098 
   41000    806.42746   -112.09184   0.72967251   -111.36216   -5906.2513    4.3183473    4.3183473    4.3183473   -5906.2513   -2415.9076   -3778.2046   -11524.642   -2883.8735    2938.7508   -13918.116    80.529073 
   41100    572.18123   -111.87998    0.5177216   -111.36226   -9568.8519    4.3185407    4.3185407    4.3185407   -9568.8519   -23126.455    1509.8461   -7089.9469    2769.0256   -11201.976    6520.9754    80.539896 
   41200    502.05566   -111.81796   0.45427051   -111.36369    -3193.439    4.3150811    4.3150811    4.3150811    -3193.439   -12524.492    2564.9129    379.26248   -7188.3479    -12268.86   -2604.9906    80.346488 
   41300    607.95662   -111.91363   0.55009193   -111.36353    10385.243    4.3168403    4.3168403    4.3168403    10385.243    30172.414   -12629.546    13612.861    1007.8617    8532.6305   -8691.6624    80.444793 
   41400    797.48244   -112.08542   0.72157887   -111.36384   -4413.2319    4.3211833    4.3211833    4.3211833   -4413.2319      4548.94   -12526.068   -5262.5675    -795.2119   -9449.1008    9324.7129    80.687837 
   41500    806.01411   -112.09357   0.72929851   -111.36427    6916.1345    4.3117277    4.3117277    4.3117277    6916.1345    7990.7627    10578.045    2179.5959   -2524.1864    -7926.129   -3087.7212    80.159314 
   41600    952.21099   -112.22373   0.86158051   -111.36215   -5182.3191    4.3189818    4.3189818    4.3189818   -5182.3191   -1191.0652   -2960.0788   -11395.813   -138.60782    2753.7974   -6286.0281    80.564577 
   41700    590.26891   -111.89782   0.53408771   -111.36373   -14375.621    4.3226782    4.3226782    4.3226782   -14375.621    -27002.83   -1487.7559   -14636.279   -529.70596    -16553.04    5921.1591    80.771604 
   41800    477.97544   -111.79561   0.43248222   -111.36312    2634.6441    4.3110259    4.3110259    4.3110259    2634.6441   -6070.3871    6601.3692    7372.9503    75.905133   -6394.2395   -4334.3298    80.120176 
   41900       682.06   -111.97891   0.61714222   -111.36177    3822.1105    4.3188021    4.3188021    4.3188021    3822.1105    19503.583   -17256.818    9219.5664   -594.83756    7947.8058   -6147.7999    80.554522 
   42000    611.22849   -111.91718   0.55305238   -111.36413    -317.3116    4.3207037    4.3207037    4.3207037    -317.3116     7610.339   -13841.197    5278.9229    1005.3541   -12443.338     7933.341    80.660975 
   42100    845.83898    -112.1293   0.76533289   -111.36397    2164.1649    4.3133072    4.3133072    4.3133072    2164.1649    8402.1711    2728.9495   -4638.6259   -4578.6782    1639.0206    -5313.385    80.247439 
   42200    977.27041   -112.24536   0.88425481    -111.3611    3724.8186    4.3170421    4.3170421    4.3170421    3724.8186    12486.675   -812.30867   -499.91084    1700.8125    4882.2687   -1248.3566     80.45608 
   42300    647.01036   -111.95033   0.58542857    -111.3649   -13750.185    4.3212917    4.3212917    4.3212917   -13750.185   -23687.705    1028.2663   -18591.117   -119.90907   -18914.578    7852.0647     80.69391 
   42400    515.46576   -111.83072   0.46640425   -111.36432    1238.7808     4.315088     4.315088     4.315088    1238.7808    1220.5989    2867.0168   -371.27323   -3826.5554   -113.42563   -4954.8449    80.346874 
   42500     698.7907   -111.99409   0.63228051   -111.36181    5164.5868     4.314844     4.314844     4.314844    5164.5868    13442.528    -16365.02    18416.252     4192.037    4344.6367    2435.4465    80.333245 
   42600    508.42564   -111.82702    0.4600342   -111.36698   -4449.3396    4.3205767    4.3205767    4.3205767   -4449.3396    6104.3648   -18195.348   -1257.0362    294.31118   -14148.201    6679.6502     80.65386 
   42700    823.00196   -112.10882   0.74466947   -111.36416    3455.4584    4.3163784    4.3163784    4.3163784    3455.4584    13610.495   -2392.4749   -851.64484    -756.2921    2719.2997   -4373.2987    80.418977 
   42800     1019.472   -112.28363   0.92243968   -111.36119    3835.1234    4.3140872    4.3140872    4.3140872    3835.1234    10345.971    1023.7405    135.65842    4590.3883    3718.1677    2626.6673     80.29098 
   42900    620.78005    -111.9277   0.56169483     -111.366   -10243.467    4.3212427    4.3212427    4.3212427   -10243.467   -11020.157    2973.0451   -22683.291   -112.67885   -17767.333    8906.6889    80.691161 
   43000    673.74966   -111.97213   0.60962285   -111.36251   -578.75048    4.3165197    4.3165197    4.3165197   -578.75048   -2021.6456    5018.4778   -4733.0837   -3933.7013    3569.0096   -4706.1404     80.42687 
   43100    617.44312   -111.92034   0.55867551   -111.36167    3039.1156    4.3143163    4.3143163    4.3143163    3039.1156     4530.178   -15888.573    20475.741    7756.0728    4467.3736    5217.2184     80.30377 
   43200    454.09459   -111.77697   0.41087433    -111.3661   -4813.1774    4.3212012    4.3212012    4.3212012   -4813.1774    5920.9496   -18996.534   -1363.9476   -2070.4379   -10826.829    4796.7841    80.688837 
   43300    805.05921   -112.09082   0.72843449   -111.36239    3897.3293    4.3180988    4.3180988    4.3180988    3897.3293    9280.8548   -7348.9062    9760.0392   -1064.2461    6585.7607   -1499.3468    80.515172 
   43400    878.28407   -112.15638   0.79468988   -111.36169    3224.3931     4.313004     4.313004     4.313004    3224.3931    11390.285     -8555.93    6838.8247    13327.621    1799.6353    6645.9457    80.230514 
   43500    691.79976   -111.99145   0.62595496   -111.36549   -9559.1228    4.3203238    4.3203238    4.3203238   -9559.1228   -10979.672    5410.0462   -23107.743   -1106.7049   -17708.295     5049.884    80.639697 
   43600    776.95105    -112.0648   0.70300164    -111.3618   -7891.5108    4.3187162    4.3187162    4.3187162   -7891.5108   -20047.022    994.70755   -4622.2177    2269.0406   -1877.4956   -1569.3597    80.549711 
   43700    571.43865   -111.88012    0.5170497   -111.36307   -3564.4901    4.3139116    4.3139116    4.3139116   -3564.4901   -1816.4559   -20076.191    11199.176    12203.078    446.32317    4922.1678    80.281177 
   43800    549.44554   -111.86222   0.49714988   -111.36507    -5030.898    4.3189963    4.3189963    4.3189963    -5030.898    3690.3952   -14357.822    -4425.267   -1655.2703   -15785.125     5250.801    80.565386 
   43900    744.89984   -112.03728   0.67400103   -111.36328    2526.4668    4.3182448    4.3182448    4.3182448    2526.4668    9056.0733   -17850.477    16373.804    4224.6703    6957.7189   -4109.5139    80.523339 
   44000    767.65984   -112.05835   0.69459476   -111.36375      2997.87    4.3147684    4.3147684    4.3147684      2997.87    9945.0942   -15585.483    14633.999    10794.914    167.16548    5883.2493    80.329018 
   44100    780.76015   -112.07022   0.70644819   -111.36377   -4085.4298    4.3183908    4.3183908    4.3183908   -4085.4298   -7611.3624     6956.859   -11601.786   -2618.1729   -15308.187   -424.22284    80.531504 
   44200    705.92965   -112.00145   0.63873998   -111.36271    -1648.822    4.3166871    4.3166871    4.3166871    -1648.822   -14579.626   -1994.9325    11628.093    12632.207    1276.7757   -708.89784    80.436231 
   44300    640.15868    -111.9422   0.57922903   -111.36297   -5272.6441    4.3161637    4.3161637    4.3161637   -5272.6441    905.79477   -18550.231     1826.504    10292.836   -586.88241    4339.1838    80.406974 
   44400    602.07873   -111.90914   0.54477349   -111.36437    1654.6307     4.316665     4.316665     4.316665    1654.6307    12713.295   -9445.8512    1696.4484   -5586.9607   -16698.621     2395.789    80.434994 
   44500    705.76887   -112.00253   0.63859451   -111.36394    3192.0632    4.3163084    4.3163084    4.3163084    3192.0632    14233.475   -26478.294    21821.008    17004.442    2693.7541   -343.91017    80.415064 
   44600    744.12888   -112.03675   0.67330345   -111.36344    2816.0482    4.3180185    4.3180185    4.3180185    2816.0482    10398.281   -20625.877     18675.74    6177.4948     662.9398    5704.1436    80.510682 
   44700    785.27059   -112.07313   0.71052933    -111.3626    2503.7109    4.3159253    4.3159253    4.3159253    2503.7109   -1045.9833    6505.1466    2051.9695   -5352.9285   -20389.193    5669.6478    80.393654 
   44800    682.26388   -111.98025   0.61732669   -111.36293    711.28326    4.3168199    4.3168199    4.3168199    711.28326   -5410.8502   -6006.5512    13551.251     17702.43    1396.5785   -1405.3153    80.443654 
   44900    736.50008   -112.02878   0.66640075   -111.36238   -5637.9223    4.3179088    4.3179088    4.3179088   -5637.9223    358.75068   -13704.318   -3568.1993    4550.8894    -2921.355    3366.9223    80.504545 
   45000    571.38602   -111.88098   0.51700207   -111.36398    2542.8565    4.3149716    4.3149716    4.3149716    2542.8565    23797.977   -10954.041   -5215.3669    294.62309   -10478.307    1011.6317    80.340371 
   45100    653.15117    -111.9558    0.5909849   -111.36481    -3934.558    4.3201925    4.3201925    4.3201925    -3934.558   -695.04712   -36211.097    25102.471    17825.431    3300.2265    -1151.254    80.632347 
   45200    821.93441   -112.10543   0.74370352   -111.36172    5689.0648    4.3155153    4.3155153    4.3155153    5689.0648    13297.049   -18098.052    21868.197   -1403.6088    4464.3351    435.79149    80.370741 
   45300    645.88118    -111.9491   0.58440686   -111.36469     3289.077    4.3166842    4.3166842    4.3166842     3289.077   -3074.4756   -1643.9882    14585.695    2937.4827   -11494.316   -432.79288    80.436069 
   45400    734.93715   -112.02748   0.66498658   -111.36249   -8932.3502    4.3221631    4.3221631    4.3221631   -8932.3502   -31725.585   -11957.188    16885.723    15164.611   -3350.3801   -1310.5597    80.742734 
   45500    793.58226   -112.07721   0.71804991   -111.35916    5947.9685    4.3121087    4.3121087    4.3121087    5947.9685    12025.771   -873.76011    6691.8949   -8582.0627   -2014.8667    5040.8566    80.180564 
   45600     490.6665   -111.80867   0.44396536    -111.3647   -8511.3464     4.319072     4.319072     4.319072   -8511.3464   -1597.9349   -19605.761   -4330.3429     11822.26   -16368.736   -1142.4994    80.569623 
   45700    642.71256   -111.94495   0.58153983   -111.36341    -9052.869     4.320448     4.320448     4.320448    -9052.869   -5738.0596   -35776.433    14355.885    14255.585   -1779.7544     2011.809    80.646655 
   45800    851.97359     -112.131    0.7708836   -111.36012     8633.252    4.3102708    4.3102708    4.3102708     8633.252    21796.818   -14345.789    18448.727   -9768.4322    4190.9085     3943.861    80.078085 
   45900    637.52951   -111.94388    0.5768501   -111.36703   -9215.8919    4.3208531    4.3208531    4.3208531   -9215.8919   -24765.791   -13590.329    10708.445    19692.224   -9470.5499   -2751.5869    80.669341 
   46000    765.63238   -112.05827   0.69276027   -111.36551    2336.4082    4.3181492    4.3181492    4.3181492    2336.4082   -25792.868   -1636.7405    34438.833    9176.6038   -1296.8143     66.87953    80.517989 
   46100    930.19499   -112.20273   0.84165997   -111.36107    11723.107    4.3108818    4.3108818    4.3108818    11723.107    7735.2149    5150.9976    22283.108     -11641.3    3206.6386   -133.73846    80.112142 
   46200    397.23411   -111.72718   0.35942577   -111.36775   -8662.8037    4.3216753    4.3216753    4.3216753   -8662.8037   -22684.316   -20334.949    17030.854    19209.371   -12464.264   -1732.5236    80.715397 
   46300    617.19583   -111.92333   0.55845175   -111.36488   -6360.6368    4.3167131    4.3167131    4.3167131   -6360.6368   -1031.5912   -26530.239    8479.9201    665.28258    -2641.417   -5303.3643    80.437682 
   46400    869.90166   -112.14741    0.7871053   -111.36031    3399.2826    4.3127595    4.3127595    4.3127595    3399.2826    13116.258   -15885.675    12967.265   -8212.2606   -264.57018    3608.9104    80.216874 
   46500    507.17652   -111.82597   0.45890397   -111.36706   -10983.121    4.3233737    4.3233737    4.3233737   -10983.121   -29029.777   -14989.844    11070.259    19511.824   -9068.2798   -1491.9798    80.810597 
   46600    860.38381   -112.14227   0.77849336   -111.36378     7387.842    4.3137887    4.3137887    4.3137887     7387.842   -11195.318    10501.327    22857.518   -2158.9702   -4217.3581    167.94274    80.274315 
   46700    943.22544   -112.21498    0.8534502   -111.36153    14934.966    4.3135021    4.3135021    4.3135021    14934.966    1774.6831    5796.5738     37233.64    2542.1868    1070.5842    3289.4427    80.258313 
   46800    488.37098   -111.81052   0.44188833   -111.36863   -10973.928    4.3210827    4.3210827    4.3210827   -10973.928   -25542.401   -18760.147    11380.763    19069.874    -11818.72    2866.9288    80.682199 
   46900     615.3057   -111.92181   0.55674153   -111.36507    1755.5667    4.3135347    4.3135347    4.3135347    1755.5667    12787.161   -15159.705     7639.244   -5508.9474   -4271.1131   -1230.1938    80.260135 
   47000    808.31028   -112.09359   0.73137613   -111.36221    -2087.586    4.3164874    4.3164874    4.3164874    -2087.586    8300.5481   -26291.597    11728.291    8081.0592    3555.5254   -628.49549     80.42507 
   47100    466.10592   -111.78917   0.42174243   -111.36743    -12815.05    4.3205066    4.3205066    4.3205066    -12815.05   -17310.641   -15287.749   -5846.7594    13484.116   -12580.039   -744.39892    80.649935 
   47200    801.29312   -112.08966   0.72502685   -111.36463    5427.1226    4.3129331    4.3129331    4.3129331    5427.1226    3624.7435    10726.112    1930.5117   -8478.6262    1896.6257   -4376.8395    80.226561 
   47300    936.03163   -112.20854   0.84694109    -111.3616    898.30339    4.3192399    4.3192399    4.3192399    898.30339   -13077.426   -8473.9413    24246.277    10497.364    -1760.247   -2939.4588    80.579018 
   47400    560.39142   -111.87271   0.50705394   -111.36565   -2389.9895    4.3196828    4.3196828    4.3196828   -2389.9895   -13377.578   -11104.712    17312.322    9665.0954   -15095.564   -1266.4664     80.60381 
   47500    757.39514   -112.04638   0.68530704   -111.36107    4482.6746    4.3134646    4.3134646    4.3134646    4482.6746     11291.46    -13585.73    15742.294   -7411.5213   -3486.2464    1831.3549    80.256221 
   47600    665.78041   -111.96413   0.60241211   -111.36172   -787.54624    4.3190071    4.3190071    4.3190071   -787.54624    14140.396   -36071.583    19568.549     13507.19   -365.25783    1522.9776     80.56599 
   47700    527.74835   -111.84188    0.4775178   -111.36436   -7046.8232    4.3192265    4.3192265    4.3192265   -7046.8232    132.26666   -13219.687   -8053.0488    4262.4998   -13783.256    1872.6438    80.578268 
   47800    785.53779   -112.07216    0.7107711   -111.36139    4405.2224    4.3132163    4.3132163    4.3132163    4405.2224    6751.3548    7667.2597   -1202.9472   -3447.5542   -322.13817    1191.8964    80.242365 
   47900     810.9084   -112.09636   0.73372696   -111.36263   -3550.4716    4.3191951    4.3191951    4.3191951   -3550.4716   -7704.2308   -11331.617    8384.4332    17247.305    5360.9182    3226.3399    80.576511 
   48000    693.51927   -111.99171   0.62751081    -111.3642    279.68242    4.3168661    4.3168661    4.3168661    279.68242   -17932.894    542.00811    18229.933   -1415.9681   -17271.789   -3208.2476    80.446237 
   48100    765.03321   -112.05421   0.69221813     -111.362    7531.6421    4.3142298    4.3142298    4.3142298    7531.6421    14799.751   -14860.652    22655.827   -2192.5517   -2503.1652   -1331.4422     80.29894 
   48200    600.33298   -111.90641    0.5431939   -111.36322   -3504.8155    4.3212053    4.3212053    4.3212053   -3504.8155    15086.633   -41685.704    16084.625      17671.5    21.422717    3352.2646    80.689066 
   48300    589.89325   -111.89805   0.53374781    -111.3643    1175.1178    4.3123064    4.3123064    4.3123064    1175.1178    4356.5729    -8710.065    7878.8454   -4793.5147   -13514.606   -4494.2889    80.191591 
   48400    764.95351   -112.05587   0.69214601   -111.36373    1877.2133    4.3162008    4.3162008    4.3162008    1877.2133    12074.345   -2752.8148   -3689.8902   -3117.5943   -3633.5123    3928.4653     80.40905 
   48500    814.60622   -112.10034   0.73707283   -111.36327   -13656.719    4.3223792    4.3223792    4.3223792   -13656.719   -23374.215   -13376.053   -4219.8891    16586.713    1499.6416    2022.1159    80.754844 
   48600    666.57622   -111.96679   0.60313218   -111.36366    6931.8147    4.3077382    4.3077382    4.3077382    6931.8147   -11185.917    12585.644    19395.717   -7860.8425   -13347.479   -245.08749    79.937011 
   48700    722.59008   -112.01769   0.65381469   -111.36388   -4809.0849    4.3217222    4.3217222    4.3217222   -4809.0849    12780.038   -25939.568   -1267.7246   -1051.9027   -6640.8912    2154.0926    80.718028 
   48800    653.53262   -111.95556   0.59133005   -111.36423   -2361.2203    4.3181881    4.3181881    4.3181881   -2361.2203    15361.502   -36307.374    13862.211    12357.993   -457.16199    2961.2235    80.520168 
   48900    543.68648   -111.85621   0.49193895   -111.36427     9202.586    4.3083632    4.3083632    4.3083632     9202.586    20706.814   -4902.8355    11803.779   -13145.946   -18688.433   -1403.5065    79.971809 
   49000    812.64059   -112.09651   0.73529429   -111.36121   -12520.325    4.3265328    4.3265328    4.3265328   -12520.325   -9084.0814   -19156.598   -9320.2952    2608.2531     230.5994    2154.9141    80.987876 
   49100     800.5259   -112.08595   0.72433266   -111.36162    4378.6752    4.3112458    4.3112458    4.3112458    4378.6752   -9611.5675    5384.6288    17362.964    10966.563    253.81303    4574.3222    80.132439 
   49200    598.25523   -111.90733    0.5413139   -111.36601   -85.918928    4.3128676    4.3128676    4.3128676   -85.918928    -8635.183    7496.6154    880.81081   -13875.182   -13197.682   -1617.1963    80.222906 
   49300    698.29233   -111.99438   0.63182958   -111.36255   -11587.374    4.3257228    4.3257228    4.3257228   -11587.374    3394.7207   -28095.379   -10061.463    4801.3888    3336.4515    5343.8228    80.942399 
   49400    734.38355   -112.02436   0.66448567   -111.35987    10771.721    4.3057479    4.3057479    4.3057479    10771.721    33071.902   -14913.893    14157.154    5441.9972   -4467.0868    906.60213     79.82626 
   49500    501.79139   -111.82177   0.45403139   -111.36774   -15678.772    4.3216478    4.3216478    4.3216478   -15678.772   -10385.809   -25903.439   -10747.067   -17343.554   -18570.445   -192.43017    80.713859 
   49600    868.72637   -112.14932   0.78604188   -111.36328    -5890.326    4.3185865    4.3185865    4.3185865    -5890.326   -1670.3851   -9771.8602   -6228.7329    3021.8089   -2820.9598    2639.9082    80.542454 
   49700    884.49417    -112.1611   0.80030891   -111.36079    14315.808    4.3062574    4.3062574    4.3062574    14315.808    2779.0428    15715.092     24453.29   -4984.2697   -573.58203   -734.40648    79.854604 
   49800     501.2605   -111.82067   0.45355103   -111.36712   -14963.832    4.3259979    4.3259979    4.3259979   -14963.832   -30605.639   -4383.2765   -9902.5809   -14953.476   -16291.298   -700.97434     80.95784 
   49900    739.26907   -112.03131   0.66890619    -111.3624    7813.2476    4.3117707    4.3117707    4.3117707    7813.2476    14293.801   -436.76033    9582.7019    5632.3563    7468.7928    3344.1272    80.161711 
   50000    681.21951   -111.97923   0.61638173   -111.36285    312.69271    4.3131141    4.3131141    4.3131141    312.69271    12716.577   -19778.777     8000.278   -6769.2028   -1165.0291    2704.3611    80.236662 
   50100    403.29868   -111.73136   0.36491313   -111.36644   -17964.458    4.3232317    4.3232317    4.3232317   -17964.458   -13604.684    -30648.39   -9640.2997   -11533.148   -18646.136   -1411.6583    80.802639 
   50200     917.7119   -112.19121   0.83036501   -111.36085    6179.6349    4.3093038    4.3093038    4.3093038    6179.6349    14967.218    2171.3365    1400.3503    5579.8116    6445.0369    8903.1716    80.024201 
   50300    872.14312   -112.15231   0.78913342   -111.36318   -1260.9877    4.3182185    4.3182185    4.3182185   -1260.9877   -7252.6115     698.7234    2770.9251   -9222.4183   -6501.1793   -1789.0815    80.521867 
   50400    632.98545   -111.94026   0.57273854   -111.36752   -3322.8276    4.3169566    4.3169566    4.3169566   -3322.8276   -13871.349    8393.0946   -4490.2288   -13290.921   -12359.624   -1913.5078    80.451297 
   50500    805.57508   -112.09166   0.72890126   -111.36276    8899.6421    4.3132537    4.3132537    4.3132537    8899.6421    9554.3284     7131.385    10013.213    4227.8274    7255.4344    2187.5744    80.244451 
   50600    595.07213   -111.90275   0.53843377   -111.36432   -2280.8188    4.3185204    4.3185204    4.3185204   -2280.8188    5309.4487   -23958.396     11806.49   -9483.0979   -432.41839   -1050.8926    80.538756 
   50700    421.47307     -111.747   0.38135769   -111.36565   -1263.8992    4.3140192    4.3140192    4.3140192   -1263.8992    5989.0274    -17993.47    8212.7454   -9470.5158   -13971.632   -3440.3286    80.287184 
   50800    830.32779   -112.11332   0.75129803   -111.36202   -3700.5048    4.3183795    4.3183795    4.3183795   -3700.5048    3903.0861   -11994.222   -3010.3784    4281.1612    4225.6266    3511.7572    80.530876 
   50900    818.31324   -112.10396   0.74042702   -111.36354    1240.6771    4.3148514    4.3148514    4.3148514    1240.6771    1854.9068    113.52883    1753.5955   -9424.2283   -4698.2838    1492.8957    80.333656 
   51000    757.46967   -112.05135   0.68537447   -111.36597   -358.11784    4.3162331    4.3162331    4.3162331   -358.11784   -16955.432    16881.848   -1000.7698   -5830.0511   -15997.594   -897.80658    80.410853 
   51100    889.44911    -112.1662   0.80479224   -111.36141    1267.9597    4.3188479    4.3188479    4.3188479    1267.9597    -1016.669    5557.9087    -737.3606    2005.7965    8874.6925    4989.3083    80.557083 
   51200     517.4516   -111.83299   0.46820108   -111.36479    8477.3941    4.3109749    4.3109749    4.3109749    8477.3941    11453.827   -13080.335    27058.691   -9833.7665   -1681.8405   -3491.7045    80.117332 
   51300    437.57794   -111.76298   0.39592972   -111.36705   -10195.081    4.3199841    4.3199841    4.3199841   -10195.081   -5655.1519   -24964.234    34.142517   -3458.9882    -14437.09    2093.5326    80.620676 
   51400     802.5135   -112.08787   0.72613108   -111.36173    4001.7313    4.3140915    4.3140915    4.3140915    4001.7313    10372.142   -9777.9945    11411.046    1729.3723    2347.0229    865.61105    80.291221 
   51500    711.96462   -112.00987   0.64420055   -111.36567    1519.0387    4.3140827    4.3140827    4.3140827    1519.0387   -6262.6388   -179.24171    10998.997    -8627.686   -6729.2783   -3379.0115    80.290728 
   51600    770.80349   -112.06265    0.6974392   -111.36521   -11645.889    4.3225113    4.3225113    4.3225113   -11645.889   -26239.411    11287.855    -19986.11   -2971.0159   -21398.331   -587.98062     80.76225 
   51700    982.66131   -112.24842    0.8891326   -111.35928    10888.582    4.3089596    4.3089596    4.3089596    10888.582    6462.7063    19561.417    6641.6231    958.38893    4361.3661    645.92725    80.005024 
   51800    489.20839   -111.80947   0.44264603   -111.36682   -5173.6864    4.3187933    4.3187933    4.3187933   -5173.6864    -4067.295   -20401.573     8947.809   -9517.8278   -5418.1787   -4086.4279    80.554028 
   51900    497.94617   -111.81686   0.45055216   -111.36631    -9222.247    4.3198088    4.3198088    4.3198088    -9222.247   -4928.9491   -21779.537   -958.25481   -1484.3436    -18372.88   -4950.9601    80.610866 
   52000    901.79315   -112.17524   0.81596139   -111.35927    13044.497    4.3089099    4.3089099    4.3089099    13044.497    16772.609   -7436.1868    29797.067    449.08372    8873.7075    6999.0779    80.002255 
   52100    579.26322    -111.8903   0.52412953   -111.36618   -12347.874    4.3222314    4.3222314    4.3222314   -12347.874    -24615.15   -14704.938     2276.465   -8974.3412   -13388.385   -5129.1871    80.746563 
   52200    685.83296   -111.98724   0.62055607   -111.36668   -4385.1644    4.3135449    4.3135449    4.3135449   -4385.1644   -17688.785    18862.335   -14329.043    1408.5093   -22574.838    -2425.492    80.260705 
   52300     953.6594   -112.22416   0.86289107   -111.36127    6237.3916    4.3123101    4.3123101    4.3123101    6237.3916    5424.3833    11985.273    1302.5186   -3635.9629    4481.3753    3323.6623    80.191796 
   52400    420.84554   -111.74861   0.38078989   -111.36782    -13878.99    4.3231953    4.3231953    4.3231953    -13878.99   -6688.2743   -18368.587   -16580.108   -7558.1386   -14213.188   -3750.7025    80.800599 
   52500    648.99182   -111.95321   0.58722144   -111.36599    2858.7058    4.3099518    4.3099518    4.3099518    2858.7058     9231.461   -4077.4089    3422.0655    1624.9215   -17396.968   -5689.1188    80.060305 
   52600    1042.6361   -112.30491   0.94339908   -111.36151    4975.8996    4.3164636    4.3164636    4.3164636    4975.8996    9611.5515     -14753.7    20069.847   -2861.9227    8469.5935   -1837.0436    80.423734 
   52700    550.36867   -111.86724   0.49798514   -111.36925   -8803.1196    4.3191213    4.3191213    4.3191213   -8803.1196   -20120.043    -9332.732    3043.4163   -5925.2766   -17768.766   -3738.2677     80.57238 
   52800    666.68864   -111.96929   0.60323389   -111.36606    2365.2484    4.3118959    4.3118959    4.3118959    2365.2484   -2016.4337    13471.712   -4359.5334    1975.5146   -15990.605   -6408.6957    80.168691 
   52900    790.27435   -112.07581   0.71505684   -111.36075   -368.62064    4.3201447    4.3201447    4.3201447   -368.62064    6093.2031    1183.4378   -8382.5028   -1263.8146    5427.8641    3515.9151    80.629668 
   53000    315.94722   -111.65484   0.28587569   -111.36896   -3949.8373     4.313291     4.313291     4.313291   -3949.8373   -1636.8215    427.18276   -10639.873    -4498.589   -23364.451   -4433.8233    80.246532 
   53100    731.36864   -112.02975   0.66175771   -111.36799    674.22955    4.3140024    4.3140024    4.3140024    674.22955     4016.916   -2372.9242    378.69687     1703.295   -5586.7143   -4143.0164    80.286247 
   53200    1171.6394   -112.42057     1.060124   -111.36045    -3555.366    4.3215041    4.3215041    4.3215041    -3555.366    1204.9542   -12910.149    1039.0966   -3249.8116    3645.0013    5183.6843    80.705805 
   53300     600.0224   -111.91138   0.54291288   -111.36846   -2626.6592     4.312596     4.312596     4.312596   -2626.6592   -4937.8233   -1714.8125   -1227.3419   -687.61238    -23231.29    -4310.605    80.207751 
   53400    752.51584   -112.04657   0.68089215   -111.36568    1787.5887    4.3144741    4.3144741    4.3144741    1787.5887    13375.984    511.80298   -8525.0211   -509.11475   -2369.0231    -6927.508    80.312583 
   53500     624.6969   -111.92817   0.56523888   -111.36293    2056.4746      4.31987      4.31987      4.31987    2056.4746    16722.091    5219.9689   -15772.636    1257.1633   -833.34155    584.95188    80.614292 
   53600    185.94426   -111.53765   0.16824627    -111.3694   -6111.4527    4.3137817    4.3137817    4.3137817   -6111.4527   -14439.451    7171.7093   -11066.617   -3427.0193   -26059.185   -6035.2786    80.273924 
   53700    825.76929   -112.11236    0.7471734   -111.36519   -1173.5473    4.3153281    4.3153281    4.3153281   -1173.5473    2178.6294   -3349.3614   -2349.9099    512.17103    4147.9982   -7845.3147    80.360283 
   53800     1072.628   -112.33391   0.97053632   -111.36337    808.60676    4.3181045    4.3181045    4.3181045    808.60676     3132.182    1206.1707   -1912.5324    1105.8903   -4285.2015    713.81989     80.51549 
   53900    739.44184    -112.0382   0.66906252   -111.36914   -3825.0701    4.3133219    4.3133219    4.3133219   -3825.0701    2175.2836   -2151.7148   -11498.779   -3613.7312   -25027.411   -7476.3337    80.248259 
   54000    849.15998   -112.13345   0.76833779   -111.36511    4327.8745    4.3175698    4.3175698    4.3175698    4327.8745    33784.621   -6756.1071   -14044.891    -1099.491    6124.7861   -5681.4866    80.485586 
   54100    610.91539   -111.91697   0.55276908    -111.3642   -5763.2205    4.3182242    4.3182242    4.3182242   -5763.2205   -7324.9561    9861.6002   -19826.306   -1163.4471   -11094.009    5144.6424    80.522189 
   54200    195.42407   -111.54436    0.1768238   -111.36753   -5921.3537    4.3130059    4.3130059    4.3130059   -5921.3537   -11952.364    4901.8819   -10713.579   -2995.9572   -22792.052   -9637.0745    80.230619 
   54300    741.28891   -112.03431   0.67073378   -111.36358   -1327.6608    4.3175336    4.3175336    4.3175336   -1327.6608    2188.0766   -6282.6581    111.59915   -1884.1711    7329.2923   -3713.1192    80.483559 
   54400    892.95818   -112.17114   0.80796733   -111.36317   -753.69453    4.3175779    4.3175779    4.3175779   -753.69453   -7170.8723    8164.7541   -3254.9654    2061.1138   -10773.501    3811.5268    80.486039 
   54500    812.27118   -112.10063   0.73496003   -111.36567   -2865.5696    4.3152657    4.3152657    4.3152657   -2865.5696    8205.3956   -5551.7434   -11250.361   -2098.1312   -14892.157   -10075.281    80.356799 
   54600    966.16818   -112.23583   0.87420928   -111.36162     2822.739    4.3159551    4.3159551    4.3159551     2822.739    24567.991   -7756.8177   -8342.9566     1429.444    6470.9859   -2908.2041    80.395318 
   54700    574.99983   -111.88486   0.52027193   -111.36459   -2731.5282    4.3161796    4.3161796    4.3161796   -2731.5282   -1439.0092    14931.945    -21687.52    2677.0553   -20307.162    401.56697    80.407863 
   54800    360.83594    -111.6926   0.32649194   -111.36611    -4263.367      4.31662      4.31662      4.31662    -4263.367   -3729.1102     1517.895   -10578.886    -2037.501   -12673.145    -8927.573    80.432482 
   54900    599.77912   -111.90501   0.54269276   -111.36232    3406.7541    4.3158712    4.3158712    4.3158712    3406.7541    9121.0462   -307.30506    1406.5211   -198.12155    991.29855   -170.10168     80.39063 
   55000    706.58218   -112.00315   0.63933041   -111.36382   -3138.1666    4.3171568    4.3171568    4.3171568   -3138.1666   -14380.391    12965.581   -7999.6905   -1901.1527   -19538.258    3360.2331    80.462492 
   55100    931.04118   -112.20532   0.84242562    -111.3629   -569.18634    4.3171687    4.3171687    4.3171687   -569.18634    6774.7058   -9569.5528     1087.288    -1709.407    488.74963   -10774.046    80.463153 
   55200    979.93705   -112.24845   0.88666763   -111.36178    2655.4679    4.3142868    4.3142868    4.3142868    2655.4679    19091.007   -7276.4741   -3848.1296   -3027.2585   -575.50301    459.63675    80.302126 
   55300     652.1087   -111.95503   0.59004165   -111.36499   -3735.7551    4.3173814    4.3173814    4.3173814   -3735.7551   -5199.0328    9808.9406   -15817.173     728.0911   -24137.717    3372.5777     80.47505 
   55400    565.75298   -111.87473   0.51190519   -111.36282   -1201.2688    4.3174539    4.3174539    4.3174539   -1201.2688    5101.8909   -4946.2519   -3759.4454   -1272.4205   -1138.3291   -11637.895    80.479101 
   55500     400.4523   -111.72635   0.36233766   -111.36401    335.87233    4.3132157    4.3132157    4.3132157    335.87233    204.68148    3884.4358   -3081.5002   -1856.1006   -8372.5755    1674.9693    80.242329 
   55600    546.91122   -111.86101   0.49485676   -111.36616   -6018.5259    4.3184522    4.3184522    4.3184522   -6018.5259   -21481.334    9606.5656   -6180.8096    2618.2047   -24114.987    2848.3218    80.534943 
   55700    1013.7722   -112.27895   0.91728238   -111.36167    3735.9258    4.3171343    4.3171343    4.3171343    3735.9258    7169.8264   -9683.5832    13721.534   -1949.0118    8611.9972   -5661.3964    80.461234 
   55800    947.35598   -112.22188    0.8571876   -111.36469    1547.2631    4.3114181    4.3114181    4.3114181    1547.2631    6936.8537   -2327.6628    32.598349   -2821.5198   -9200.0168    1959.8337    80.142048 
   55900     762.1886   -112.05615   0.68964426   -111.36651   -4804.0035    4.3205083    4.3205083    4.3205083   -4804.0035   -9266.1542    3247.9571   -8393.8135    61.217023   -18654.676    3387.6944    80.650029 
   56000    776.71001   -112.06425   0.70278354   -111.36147   -1163.3531    4.3166545    4.3166545    4.3166545   -1163.3531    2687.9091   -4450.7278   -1727.2406   -2486.2382     5576.808   -6062.3072    80.434408 
   56100    242.91635   -111.58612   0.21979582   -111.36632   -934.77042    4.3104704    4.3104704    4.3104704   -934.77042   -10714.094    9161.9727   -1252.1898   -4935.0179   -20926.753     1433.965    80.089206 
   56200     438.6368   -111.76407   0.39688779   -111.36718   -5904.4078    4.3206353    4.3206353    4.3206353   -5904.4078   -18779.331     4301.612   -3235.5042    116.06643   -15721.588    4452.0067    80.657144 
   56300    985.96869   -112.25303   0.89212519    -111.3609    3548.5198    4.3150914    4.3150914    4.3150914    3548.5198    5925.3762   -4824.1293    9544.3127   -2974.5825    5104.8141   -7325.0553    80.347061 
   56400    729.01409   -112.02751   0.65962727   -111.36788   -2135.5741    4.3131881    4.3131881    4.3131881   -2135.5741   -607.04513   -80.366343   -5719.3107   -5250.4136    -22222.41    2462.2846     80.24079 
   56500    955.04253   -112.22971   0.86414255   -111.36557   -5677.4619    4.3185865    4.3185865    4.3185865   -5677.4619   -5050.7132   -4608.8499   -7372.8226     3331.176   -4662.0878    4593.2814    80.542456 
   56600    874.02193   -112.15351   0.79083341   -111.36267    4684.1564    4.3144705    4.3144705    4.3144705    4684.1564    102.44008    -203.2352    14153.264   -2982.3562    4232.9041   -733.41953    80.312383 
   56700    300.82042   -111.64119   0.27218864     -111.369   -5975.7052    4.3163975    4.3163975    4.3163975   -5975.7052    -20319.09    7001.5129   -4609.5389    -3895.638    -31923.36    3602.9283    80.420043 
   56800    570.54436    -111.8809   0.51624053   -111.36466   -313.67629    4.3159619    4.3159619    4.3159619   -313.67629   -6749.8101    6479.2413   -670.46011     3722.812   -2349.6653     5246.651    80.395695 
   56900    762.04852   -112.05241   0.68951752   -111.36289   -2479.9859    4.3162001    4.3162001    4.3162001   -2479.9859    3996.6601   -2667.0608   -8769.5571   -6557.6563    529.89017   -2329.6037     80.40901 
   57000    597.12536   -111.90884   0.54029158   -111.36855   -8070.9327    4.3151269    4.3151269    4.3151269   -8070.9327      -3057.4   -4641.3202   -16514.078   -4359.0209   -26735.132    2925.3942    80.349046 
   57100     960.9278   -112.23373   0.86946767   -111.36426    2544.1238    4.3153498    4.3153498    4.3153498    2544.1238    6680.6842   -10631.209    11582.896      961.694    7092.8143    3090.6924    80.361499 
   57200    850.26105   -112.13304   0.76933407    -111.3637   -4686.3128    4.3196632    4.3196632    4.3196632   -4686.3128   -10675.409   -9110.2908    5726.7616   -6462.4678   -2562.4039   -3581.1341    80.602711 
   57300     478.2492       -111.8   0.43272992   -111.36727   -2580.3308     4.313381     4.313381     4.313381   -2580.3308   -17442.863    7952.0571    1749.8134   -2723.4967   -29035.472     3122.849    80.251559 
   57400    776.22055   -112.06518   0.70234066   -111.36284     2353.749    4.3149859    4.3149859    4.3149859     2353.749    1990.6411    6510.8669   -1440.2609    3438.0271    4658.8081    3965.6367    80.341168 
   57500    656.73619   -111.95885    0.5942287   -111.36462    -4694.562    4.3190036    4.3190036    4.3190036    -4694.562   -750.46522    4300.0138   -17633.235   -2602.0273   -8547.9682    79.967424    80.565793 
   57600    501.58327   -111.82054   0.45384308    -111.3667   -571.49177    4.3134679    4.3134679    4.3134679   -571.49177    6927.9805   -1198.0767   -7444.3792   -1361.8364   -24567.562    656.23752    80.256406 
   57700    858.43655   -112.13811   0.77673143   -111.36137    392.90048    4.3173514    4.3173514    4.3173514    392.90048    10143.271   -22048.211    13083.641    7551.6993    9776.2699    5786.6983    80.473373 
   57800    725.97335   -112.02072   0.65687594   -111.36384   -5185.7315    4.3159993    4.3159993    4.3159993   -5185.7315   -5961.3175   -9425.6325   -170.24436   -5200.3142   -11181.242   -1244.3913    80.397788 
   57900    596.84724   -111.90781   0.54003992   -111.36777   -1658.5043    4.3139634    4.3139634    4.3139634   -1658.5043   -10669.674    1933.5343     3760.627   -2012.2146   -19019.172    3040.1596    80.284069 
   58000     923.1369   -112.19853   0.83527366   -111.36325    3246.3625    4.3178514    4.3178514    4.3178514    3246.3625     7146.906    4964.1685   -2371.9869    3749.2087    7146.3796     5971.029    80.501331 
   58100    717.23815   -112.01442   0.64897215   -111.36545    5260.8007    4.3142088    4.3142088    4.3142088    5260.8007    8940.5499    18836.799   -11994.946    -6158.617   -14811.567   -3266.5192    80.297769 
   58200    506.47512   -111.82584   0.45826933   -111.36757    807.48309     4.315132     4.315132     4.315132    807.48309    2922.4278   -2076.1018    1576.1232    -347.5077   -13779.564    4348.6391    80.349332 
   58300    712.32185   -112.00695   0.64452378   -111.36242    -3792.587    4.3177227    4.3177227    4.3177227    -3792.587     12970.55   -29854.756    5506.4454    3491.2358    6482.5512    1359.0146    80.494135 
   58400    621.26143    -111.9254    0.5621304   -111.36327   -5826.5182    4.3145945    4.3145945    4.3145945   -5826.5182   -5165.4616   -14020.538    1706.4454   -2211.1722   -15830.303   -1768.9373    80.319308 
   58500    654.61098   -111.95807   0.59230577   -111.36577    -5823.054    4.3167107    4.3167107    4.3167107    -5823.054   -3774.6319   -11536.171   -2158.3591    56.152837   -11557.483    3617.7057    80.437547 
   58600    922.77904   -112.19874   0.83494987   -111.36379    7136.8398    4.3155846    4.3155846    4.3155846    7136.8398    14665.818    7152.5803   -407.87851    7098.7726    5611.6358    3498.8963    80.374613 
   58700    882.89938   -112.16326   0.79886591    -111.3644    6925.3009    4.3140584    4.3140584    4.3140584    6925.3009    3552.6973    25512.777    -8289.572   -6144.8726   -16131.417   -127.21259    80.289369 
   58800     532.1736   -111.84833   0.48152185   -111.36681    2736.9176    4.3176285    4.3176285    4.3176285    2736.9176     11105.38   -3400.5709    505.94333    1578.5529   -10261.566    6634.0871     80.48887 
   58900    606.50525   -111.91151    0.5487787   -111.36274   -4825.3012    4.3159428    4.3159428    4.3159428   -4825.3012    7802.5541    -29328.94    7050.4819    10391.004     4643.549    5505.4905    80.394627 
   59000    547.16809   -111.85781   0.49508919   -111.36272   -1729.5927    4.3133089    4.3133089    4.3133089   -1729.5927    4609.1337   -14464.157    4666.2447   -3766.4063   -15012.348   -3174.9342    80.247532 
   59100     668.9389   -111.97051   0.60526998   -111.36524   -7169.1712     4.318502     4.318502     4.318502   -7169.1712   -1731.7943   -15951.544   -3824.1752    3999.2155   -4049.5749    9345.4625    80.537728 
   59200    898.98969   -112.17802   0.81342477    -111.3646    5184.4103    4.3150313    4.3150313    4.3150313    5184.4103    6228.1649    8607.4446    717.62147    9877.0912    2893.9672    2210.1818    80.343703 
   59300    976.90626   -112.24711   0.88392531   -111.36318    6895.0377    4.3145814    4.3145814    4.3145814    6895.0377    3084.7909    27947.711   -10347.388   -1868.6177   -13906.697   -5074.4277    80.318577 
   59400    631.64661   -111.93686   0.57152712   -111.36533   -213.65086    4.3179144    4.3179144    4.3179144   -213.65086    5206.6679   -2252.2717   -3595.3488    2039.4603   -4614.2713    9523.1256     80.50486 
   59500    484.40645   -111.80278   0.43830114   -111.36448   -2132.0917    4.3138453    4.3138453    4.3138453   -2132.0917    11079.539   -26269.377    8793.5624    9556.2783   -1318.3594   -525.95563    80.277475 
   59600    549.29451   -111.85991   0.49701322    -111.3629   -3968.3727    4.3160229    4.3160229    4.3160229   -3968.3727    2145.4886   -18309.139     4258.532   -3566.7792   -15119.658   -2082.2408    80.399109 
   59700    659.77886   -111.96154   0.59698178   -111.36456   -4193.6828    4.3174538    4.3174538    4.3174538   -4193.6828   -5754.7026   -9500.6399    2674.2942    6567.6629   -3334.3585    10507.759    80.479099 
   59800    852.70687   -112.13678    0.7715471   -111.36523    4655.1188    4.3138551    4.3138551    4.3138551    4655.1188   -4374.2236    7497.2587    10842.321    11969.908    3314.7283    837.36061    80.278023 
   59900     1024.098   -112.29011   0.92662538   -111.36348     2620.265    4.3166696    4.3166696    4.3166696     2620.265   -6205.3845    23674.982   -9608.8025   -3701.4509   -12588.584   -677.16734    80.435254 
   60000    684.24012   -111.98436   0.61911484   -111.36524    2860.6737    4.3156029    4.3156029    4.3156029    2860.6737    5876.5303    2409.6316    295.85927    9154.3989    211.39845    10026.431    80.375635 
   60100    428.81766   -111.75321   0.38800323   -111.36521   -7815.9541    4.3166089    4.3166089    4.3166089   -7815.9541    9424.4984   -36834.115    3961.7541    8377.5214   -212.38882    508.35719    80.431861 
   60200    518.73565   -111.83243   0.46936292   -111.36307   -8015.6296    4.3156388    4.3156388    4.3156388   -8015.6296    2846.7506   -20464.126   -6429.5133   -4638.7629   -14872.046    -5659.524    80.377642 
   60300    672.49289   -111.97255    0.6084857   -111.36407   -578.67702    4.3140585    4.3140585    4.3140585   -578.67702    421.85473    -4126.056    1968.1702    9862.2004   -3327.3728    9721.2766    80.289377 
   60400    870.76841   -112.15301   0.78788956   -111.36512     -6663.54    4.3194187    4.3194187    4.3194187     -6663.54   -15349.023   -6602.9452     1961.348    4964.7454   -1432.4071   -3388.5317    80.589026 
   60500    993.22979    -112.2613   0.89869519    -111.3626    3491.7954    4.3141081    4.3141081    4.3141081    3491.7954   -10681.107    22316.694    -1160.201   -6157.0595   -9974.4678   -7031.5402    80.292148 
   60600    751.70932   -112.04398   0.68016239   -111.36381    -219.7805    4.3140692    4.3140692    4.3140692    -219.7805   -2152.3193   -6662.6303    8155.6081    11631.119    1156.5377    11252.968    80.289973 
   60700    380.33601      -111.71   0.34413602   -111.36586    -10747.61    4.3193416    4.3193416    4.3193416    -10747.61    7211.2072   -47335.227    7881.1903     4878.862    3203.6913   -1682.3388    80.584713 
   60800    486.48514   -111.80388   0.44018198    -111.3637   -2631.4746    4.3131381    4.3131381    4.3131381   -2631.4746    13544.435   -20143.719   -1295.1394    -9498.346    -8756.163   -4359.4914    80.237998 
   60900    670.44806   -111.97089   0.60663549   -111.36426   -818.65742    4.3167895    4.3167895    4.3167895   -818.65742    6333.6852   -7633.8473   -1155.8101    14340.992    1250.8631    10965.651    80.441957 
   61000    875.10258    -112.1562   0.79181121   -111.36439   -4437.7833    4.3175542    4.3175542    4.3175542   -4437.7833   -4887.5761   -4550.8073   -3874.9666    2566.8622   -1760.3435    1978.3245    80.484713 
   61100    981.35841    -112.2509   0.88795371   -111.36294    2653.0531    4.3134176    4.3134176    4.3134176    2653.0531   -5454.2713     22757.39   -9343.9597   -9347.0712   -12217.656   -6853.1358    80.253599 
   61200    794.82862   -112.08204   0.71917764   -111.36286   -6997.4368     4.318097     4.318097     4.318097   -6997.4368   -5765.4234   -14735.803   -491.08358    14458.408      383.411    6799.1962     80.51507 
   61300      439.919   -111.76241   0.39804795   -111.36436   -7413.3586    4.3148742    4.3148742    4.3148742   -7413.3586    3101.5186     -38028.4    12686.806    580.54531   -1814.9388   -526.00741     80.33493 
   61400     476.4681   -111.79595   0.43111835   -111.36484   -1951.4601    4.3149261    4.3149261    4.3149261   -1951.4601    7405.9825   -16334.777    3074.4136   -8603.1299   -5388.9685   -11081.529    80.337827 
   61500    711.48964   -112.00803   0.64377078   -111.36425    5543.6549    4.3169878    4.3169878    4.3169878    5543.6549    10610.863   -602.50712    6622.6087    10818.123    1330.0528    5092.9155    80.453043 
   61600    812.76248    -112.1009   0.73540457   -111.36549     8155.844    4.3140071    4.3140071    4.3140071     8155.844    13047.106    8207.7019    3212.7238    784.63431    4879.8725   -1403.5889    80.286506 
   61700    880.40892   -112.16149   0.79661249   -111.36488    3088.2607    4.3169949    4.3169949    4.3169949    3088.2607    3427.5781    15618.539   -9781.3346   -11771.397   -6070.9375   -9132.1577    80.453438 
   61800     787.2625   -112.07544   0.71233165   -111.36311    767.36331    4.3149418    4.3149418    4.3149418    767.36331    6892.1226   -8917.0362    4327.0034    9931.0071   -222.02111    7718.0247    80.338705 
   61900    450.20071   -111.77272   0.40735106   -111.36537   -5648.0943      4.31447      4.31447      4.31447   -5648.0943    5257.3207   -32153.228    9951.6248   -376.35995     2120.226   -207.00505    80.312354 
   62000    530.28841   -111.84542    0.4798161   -111.36561   -8623.7481    4.3176028    4.3176028    4.3176028   -8623.7481     27.52686   -22569.163   -3329.6078   -10858.742   -9372.7614   -7678.3242    80.487431 
   62100    818.53139   -112.10383    0.7406244    -111.3632    11096.538    4.3133734    4.3133734    4.3133734    11096.538    12530.303    11775.377    8983.9337    10982.833     402.2668    6843.3804    80.251133 
   62200    868.24614   -112.15063   0.78560736   -111.36502   -1067.9538    4.3170625    4.3170625    4.3170625   -1067.9538    3496.3347    1040.3325   -7740.5286   -2175.2464   -1383.9772    256.35625    80.457216 
   62300    739.28406   -112.03588   0.66891976   -111.36696     2465.284    4.3142356    4.3142356    4.3142356     2465.284    9946.5303    5444.2869   -7994.9653   -10129.593   -4730.4311   -13132.828    80.299265 
   62400    789.49576   -112.07758   0.71435235   -111.36323    4154.0706    4.3129522    4.3129522    4.3129522    4154.0706    11974.551   -5496.8658    5984.5268    7060.4877   -1885.7893    2534.1508    80.227626 
   62500     408.3809   -111.73634   0.36951162   -111.36683   -10954.756    4.3198714    4.3198714    4.3198714   -10954.756    4423.5729   -44911.101    7623.2594    -1797.124    1851.6613    1627.4763    80.614367 
   62600    472.13238   -111.79454    0.4271953   -111.36735   -3251.2012    4.3116576    4.3116576    4.3116576   -3251.2012    3112.3763   -16117.176    3251.1958   -13717.278    -6162.602   -16299.482    80.155405 
   62700    956.45168   -112.22922   0.86541758    -111.3638    6077.9883    4.3149524    4.3149524    4.3149524    6077.9883    1579.8899    10040.763    6613.3114    6588.6987   -3193.8854    4052.7625    80.339297 
   62800    925.99287   -112.20425   0.83785781   -111.36639   -7169.1814    4.3189018    4.3189018    4.3189018   -7169.1814   -4687.8388   -3905.4526   -12914.253    -3275.899    3570.0854    3353.8197    80.560098 
   62900    655.20136   -111.96147   0.59283996   -111.36863    3535.6025      4.31092      4.31092      4.31092    3535.6025    9267.6444    7300.7516   -5961.5885    -13317.67   -7305.2409    -12312.83     80.11427 
   63000    814.18367   -112.09907    0.7366905   -111.36238   -2150.4902    4.3193186    4.3193186    4.3193186   -2150.4902    5798.2055   -10757.227   -1492.4493    6885.8843    1038.1802    4300.2679    80.583422 
   63100    393.30335   -111.72277   0.35586914    -111.3669   -2275.9836    4.3139464    4.3139464    4.3139464   -2275.9836    18766.699   -37046.251    11451.602   -4222.8311     2006.406   -381.53318    80.283118 
   63200    316.46166   -111.65778   0.28634116   -111.37144    -289.7194    4.3123884    4.3123884    4.3123884    -289.7194    10516.491   -15828.453    4442.8037    -11782.45   -4224.5259   -10901.547    80.196165 
   63300    1062.4904   -112.32434   0.96136365   -111.36298    740.78166    4.3208784    4.3208784    4.3208784    740.78166   -4212.1696     8361.128   -1926.6135     2798.246   -3432.1673    406.63185    80.670759 
   63400    972.57079   -112.24604   0.88000249   -111.36604    6279.3465    4.3115408    4.3115408    4.3115408    6279.3465    6142.5774    13589.887   -894.42436   -4324.5669    734.26706   -3499.9181     80.14889 
   63500    624.13935    -111.9346    0.5647344   -111.36986   -9101.5709    4.3162413    4.3162413    4.3162413   -9101.5709   -12974.393   -2959.0546   -11371.265   -15294.615    -8771.547    -10430.51    80.411311 
   63600    799.75016   -112.08663   0.72363075     -111.363   -2835.0713    4.3176202    4.3176202    4.3176202   -2835.0713   -173.65447   -9721.2796    1389.7203    2794.1869   -7017.1788    890.61399    80.488406 
   63700    492.96905   -111.81163   0.44604876   -111.36558    977.54877    4.3117868    4.3117868    4.3117868    977.54877    18507.765   -25031.671    9456.5531   -5403.6311    3459.5494   -3389.3145    80.162609 
   63800    309.44646   -111.65059   0.27999366   -111.37059   -7954.2253     4.319125     4.319125     4.319125   -7954.2253    6625.4647   -23760.363   -6727.7778   -13158.862   -7707.0167   -10559.878     80.57259 
   63900    998.08911   -112.26662     0.903092   -111.36352    8645.8354    4.3153921    4.3153921    4.3153921    8645.8354    10102.067    14859.747    975.69238    7239.5755    217.75969    3572.4593    80.363861 
   64000    987.59585   -112.25792   0.89359748   -111.36433     8354.511    4.3135808    4.3135808    4.3135808     8354.511    10255.275    11577.239    3231.0196     -5622.63    6203.2837   -5217.5943    80.262706 
   64100     572.2951   -111.88657   0.51782463   -111.36875   -7973.8294    4.3185249    4.3185249    4.3185249   -7973.8294   -10381.098   -11856.629   -1683.7613   -6775.6684   -4722.4191   -9397.3923    80.539012 
   64200    680.18757   -111.97854   0.61544801    -111.3631   -763.39795    4.3135772    4.3135772    4.3135772   -763.39795   -3569.7569   -11663.608    12943.171    5940.5769   -5557.6654      4633.15    80.262506 
   64300    597.79074   -111.90434   0.54089362   -111.36345   -7960.1342    4.3166174    4.3166174    4.3166174   -7960.1342    4723.2688   -33182.482    4578.8102   -6265.9996    2736.9739   -9389.8572    80.432333 
   64400    453.43383    -111.7781   0.41027645   -111.36782   -7796.6386    4.3166966    4.3166966    4.3166966   -7796.6386    2537.4705   -21467.365   -4460.0215   -6508.2352   -8596.1717   -6508.6561    80.436763 
   64500    930.32119   -112.20677   0.84177416     -111.365    3519.6594    4.3126274    4.3126274    4.3126274    3519.6594    1817.7022    13552.739   -4811.4633    7654.2085   -9542.8292    2980.8291    80.209499 
   64600    974.28214   -112.24556   0.88155096   -111.36401    4011.8163    4.3176901    4.3176901    4.3176901    4011.8163    8850.9664    5652.6451   -2468.1626   -7240.3685    5688.8936   -5982.6709    80.492313 
   64700    575.98989    -111.8882   0.52116776   -111.36703    -3173.931    4.3164604    4.3164604    4.3164604    -3173.931   -211.13472   -6690.6937   -2619.9645   -5099.1894   -8063.6091   -5752.1063    80.423555 
   64800    590.10964   -111.89775    0.5339436   -111.36381   -3814.5127    4.3133417    4.3133417    4.3133417   -3814.5127    -8188.491   -13655.109    10400.062    15129.708   -4467.3858    3399.7297     80.24936 
   64900    637.51634   -111.93971   0.57683818   -111.36287   -4188.8853    4.3164714    4.3164714    4.3164714   -4188.8853    9244.8313   -29711.922     7900.435   -7804.8631    5014.5581   -6114.8545    80.424174 
   65000    580.88481   -111.89181   0.52559679   -111.36622   -4701.1569    4.3154243    4.3154243    4.3154243   -4701.1569   -3631.1234   -11982.357    1510.0096   -1663.8762   -7627.2529   -6407.5388    80.365658 
   65100    856.32329    -112.1398   0.77481931   -111.36498    29.746158    4.3151549    4.3151549    4.3151549    29.746158    -2523.757    10429.714   -7816.7188    12829.156   -6387.8201     5319.457    80.350609 
   65200    935.37989   -112.20911   0.84635138   -111.36276    2935.7846    4.3161787    4.3161787    4.3161787    2935.7846    8534.0027    7242.5188   -6969.1678   -7501.1114    7050.9713   -12390.153    80.407813 
   65300    601.51705   -111.91006   0.54426527    -111.3658   -3222.2234    4.3149269    4.3149269    4.3149269   -3222.2234    -2503.632   -1386.0407   -5776.9975   -2583.7175   -7626.3708   -4135.1887    80.337871 
   65400    527.46618   -111.84264   0.47726249   -111.36538   -4806.8938    4.3152796    4.3152796    4.3152796   -4806.8938   -3941.3922   -13551.233    3071.9439    7994.9173   -6112.3773    6593.7002    80.357575 
   65500    646.55478    -111.9482   0.58501635   -111.36318   -3294.5567    4.3161805    4.3161805    4.3161805   -3294.5567    8756.4938   -23244.844    4604.6805     -2242.73    9923.8904   -9930.4389    80.407915 
   65600    657.23724   -111.95977   0.59468207   -111.36509   -3111.1644    4.3154337    4.3154337    4.3154337   -3111.1644   -9293.3648   -5844.0626    5803.9341   -1941.6574   -11903.881   -3248.5406    80.366182 
   65700    864.17475   -112.14638   0.78192347   -111.36446   -907.53259    4.3152649    4.3152649    4.3152649   -907.53259   -5281.4266    6038.9491   -3480.1203    11823.536   -4856.7377    6208.4641    80.356756 
   65800    852.46542   -112.13553   0.77132862   -111.36421    3436.7937    4.3152427    4.3152427    4.3152427    3436.7937    12195.446    8195.0069   -10080.072   -2434.8346     8022.258   -5453.2382    80.355511 
   65900     658.2337   -111.96067   0.59558368   -111.36508   -1526.3685    4.3155044    4.3155044    4.3155044   -1526.3685    371.73169    2640.3391   -7591.1762    503.37061   -5865.1082   -6450.6775    80.370135 
   66000     524.0675   -111.83794   0.47418729   -111.36376   -2377.3951    4.3176859    4.3176859    4.3176859   -2377.3951    10672.064   -12872.028   -4932.2208    8938.1546    279.24926    6353.9406    80.492078 
   66100    597.05278   -111.90393    0.5402259   -111.36371   -5535.0532    4.3141531    4.3141531    4.3141531   -5535.0532   -54.190228   -16966.487    415.51801   -6405.1318    13135.308   -5483.5669    80.294658 
   66200    711.46169   -112.00864   0.64374549   -111.36489    3802.7659    4.3126607    4.3126607    4.3126607    3802.7659   -7875.8153    2179.9758    17104.137    1237.3015   -4922.1635    -5917.224     80.21136 
   66300    903.67534   -112.18178   0.81766444   -111.36412   -2459.0281    4.3203293    4.3203293    4.3203293   -2459.0281   -4694.6107     -3351.44    668.96639    3588.0052   -1059.7962    7269.4792    80.640008 
   66400    775.99567   -112.06725   0.70213719   -111.36511    3120.2145    4.3146282    4.3146282    4.3146282    3120.2145    6778.8847    7960.2611   -5378.5024   -2098.2072    10591.795   -9173.7393    80.321189 
   66500     742.6622   -112.03529   0.67197637   -111.36331    6507.0829    4.3118806    4.3118806    4.3118806    6507.0829     13390.49    3616.6588    2514.1003    487.27382   -8126.0468   -990.34131    80.167838 
   66600    557.63197   -111.86794   0.50455712   -111.36338   -5923.8896     4.321253     4.321253     4.321253   -5923.8896    9555.8194   -20125.494   -7201.9943    5066.3536    2090.8087    6971.9866     80.69174 
   66700    443.23221   -111.76654   0.40104582   -111.36549   -4574.4171    4.3125595    4.3125595    4.3125595   -4574.4171   -941.47757   -12632.085   -149.68923   -2330.1558     13430.56   -8076.6268    80.205713 
   66800    730.35529   -112.02481   0.66084081   -111.36397    3693.6283    4.3136388    4.3136388    4.3136388    3693.6283    -5125.221   -1017.2679    17223.374   -1566.1644    725.23523   -1481.6841    80.265944 
   66900    899.59721   -112.17619   0.81397446   -111.36221   -4897.8644    4.3219629    4.3219629    4.3219629   -4897.8644   -4510.8197   -9346.0676   -836.70591    5921.7267    4120.3792    7343.4272    80.731515 
   67000    790.19621   -112.07947   0.71498614   -111.36449    4732.0844    4.3102628    4.3102628    4.3102628    4732.0844    5552.3214     11138.64   -2494.7085   -6116.9401    13533.551   -6566.4151    80.077636 
   67100    879.59499    -112.1596   0.79587604   -111.36372     4298.247    4.3152892    4.3152892    4.3152892     4298.247    9381.7103   -1580.2911    5093.3219   -1474.6023    -1767.855   -6563.9275     80.35811 
   67200     636.9979   -111.94043   0.57636909   -111.36406   -5147.7037    4.3199274    4.3199274    4.3199274   -5147.7037    7567.8282   -18725.306   -4285.6336    3766.8035   -1119.7835     9377.091    80.617503 
   67300      343.594   -111.67662   0.31089107   -111.36573   -1339.1907    4.3102147    4.3102147    4.3102147   -1339.1907    4999.2866   -11249.066    2232.2074   -3939.8678    13345.443   -4586.9722    80.074958 
   67400    614.04222   -111.91986    0.5555983   -111.36426   -1841.0868    4.3171597    4.3171597    4.3171597   -1841.0868   -8853.5231   -9992.9963    13323.259   -2925.2123    -3869.691   -3562.0659    80.462653 
   67500    740.26472   -112.03368   0.66980708   -111.36387   -924.43295    4.3175419    4.3175419    4.3175419   -924.43295    6042.0516   -7408.6967   -1406.6538    3713.2492    4340.3687    11053.786    80.484026 
   67600    832.57641    -112.1186   0.75333263   -111.36527   -2525.7642    4.3127357    4.3127357    4.3127357   -2525.7642   -2195.2198    4295.5702   -9677.6431   -3072.7468    11385.404    -3188.096    80.215544 
   67700    977.14401    -112.2482   0.88414044   -111.36406    583.11824    4.3160499    4.3160499    4.3160499    583.11824    425.89375   -2863.7206    4187.1816   -10749.519   -3836.8183    535.88551    80.400617 
   67800     789.9238    -112.0796   0.71473966   -111.36487   -3238.6449    4.3162892    4.3162892    4.3162892   -3238.6449    11355.098   -10620.153   -10450.879    4673.8364   -990.70946    3289.3725    80.413988 
   67900    491.31155   -111.81028   0.44454901   -111.36574    -4145.332    4.3150222    4.3150222    4.3150222    -4145.332     3575.344    -15808.32   -203.01944   -7965.1787    10292.942   -3989.6349    80.343197 
   68000    468.30504   -111.78767   0.42373224   -111.36393    4839.6526    4.3139611    4.3139611    4.3139611    4839.6526    6002.7419   -6473.9512    14990.167   -7753.1312   -4655.2703    17.236746    80.283941 
   68100    555.04654   -111.86642   0.50221778   -111.36421   -4137.7054    4.3166575    4.3166575    4.3166575   -4137.7054    3356.7333   -8315.1685   -7454.6808    4520.3811   -2970.4299    2709.5881    80.434578 
   68200    733.83785    -112.0286   0.66399191    -111.3646   -8317.5049    4.3167611    4.3167611    4.3167611   -8317.5049   -16731.497   -5075.7426   -3145.2754   -9460.5447    13385.252   -234.99393    80.440367 
   68300    972.34771   -112.24347   0.87980064   -111.36366    4410.3144    4.3119277    4.3119277    4.3119277    4410.3144    760.29028    5708.6127    6762.0403    -5294.961   -5778.4312    797.65995    80.170469 
   68400    937.92001   -112.21305   0.84864974    -111.3644   -2392.1802    4.3187897    4.3187897    4.3187897   -2392.1802    13463.907   -3621.9881    -17018.46    4410.1811   -3561.1265     11294.33    80.553828 
   68500    679.32647   -111.97975   0.61466886   -111.36508    2657.4226     4.315178     4.315178     4.315178    2657.4226    12643.115   -15047.592    10376.745   -11832.722    5715.4675    923.98913    80.351897 
   68600    553.83293   -111.86578   0.50111968   -111.36467    8423.3364     4.310373     4.310373     4.310373    8423.3364    12142.038   -1984.1808    15112.152   -9162.0851   -4472.2652    900.89064    80.083781 
   68700      450.892   -111.77227   0.40797656    -111.3643   -8292.2167    4.3207403    4.3207403    4.3207403   -8292.2167   -9285.1471   -15994.554    403.05145    6023.5973   -8565.6475    7245.3567     80.66302 
   68800    546.94178   -111.85927   0.49488441   -111.36439   -6114.7918    4.3151033    4.3151033    4.3151033   -6114.7918   -19647.063   -13622.159    14924.847   -17745.647     8436.893   -1459.4307    80.347725 
   68900    839.55778     -112.123   0.75964952   -111.36335    7987.0635     4.310218     4.310218     4.310218    7987.0635   -363.51009    8406.8945    15917.806   -8850.8888   -4599.0163   -2941.2801    80.075142 
   69000    947.22927   -112.22107   0.85707295     -111.364   -2818.4092    4.3208391    4.3208391    4.3208391   -2818.4092    9475.4431    -5383.931    -12546.74     4552.466   -7677.1129    2851.9061    80.668554 
   69100    795.53796   -112.08494   0.71981946   -111.36512    1370.0615     4.315014     4.315014     4.315014    1370.0615    9810.3116    -14162.04    8461.9124   -21835.723    5813.7245    2753.5904    80.342736 
   69200    777.66073   -112.06626   0.70364377   -111.36262     10400.37    4.3103806    4.3103806    4.3103806     10400.37    13032.727    1543.2394    16625.142    -2604.829    -11280.76   -1607.5894      80.0842 
   69300     525.0187   -111.83897   0.47504795   -111.36392   -8346.7499    4.3210491    4.3210491    4.3210491   -8346.7499   -8774.7277   -20931.492    4665.9703    285.55362   -4242.4522    5945.5113    80.680317 
   69400    382.72828   -111.71258   0.34630059   -111.36628   -6352.5556    4.3148387    4.3148387    4.3148387   -6352.5556   -24351.169    -20862.19    26155.692   -22561.986    3351.2091    1894.5701    80.332948 
   69500    793.14266   -112.08029   0.71765215   -111.36264    9510.2296    4.3100575    4.3100575    4.3100575    9510.2296    922.71251    7606.9453    20001.031    1889.1132   -1029.4295    2554.1089    80.066194 
   69600     782.2716   -112.07275   0.70781579   -111.36494    -6914.025    4.3221037    4.3221037    4.3221037    -6914.025   -715.61444   -11302.765   -8723.6958   -4959.2127   -2260.3017    4057.4719    80.739408 
   69700    689.22966   -111.99059   0.62362948   -111.36696    512.09363    4.3145328    4.3145328    4.3145328    512.09363    9308.7754   -13917.697    6145.2023   -21115.022    6976.9437    867.84202    80.315861 
   69800    964.56327   -112.23355   0.87275711   -111.36079    13248.402    4.3120508    4.3120508    4.3120508    13248.402    25465.948    1758.3084    12520.951    5180.9272   -1618.6314     835.6275    80.177331 
   69900    634.16489   -111.93895   0.57380572   -111.36514   -10820.958    4.3218441    4.3218441    4.3218441   -10820.958   -7241.1342   -25858.324    636.58306   -13026.673   -9307.5261    5436.5395    80.724861 
   70000    436.47325   -111.76102   0.39493017   -111.36609   -2788.7612      4.31173      4.31173      4.31173   -2788.7612   -13009.406   -19426.419    24069.541   -16303.985    5681.6173    2586.5218    80.159441 
   70100    865.15082   -112.14439   0.78280665   -111.36159    532.48472    4.3156245    4.3156245    4.3156245    532.48472   -2893.9048   -3757.6861    8249.0451    9074.9655   -5487.4388   -4617.4681    80.376845 
   70200     671.8057   -111.97315   0.60786391   -111.36529   -8053.8697    4.3194217    4.3194217    4.3194217   -8053.8697   -6035.1391    -10244.46   -7882.0104    -18474.79   -4045.7796    4105.3101    80.589194 
   70300      644.751   -111.94976   0.58338425   -111.36638    6153.6758    4.3099508    4.3099508    4.3099508    6153.6758    17185.891   -1670.0098     2945.146   -8971.4016    6486.8258    374.67396    80.060252 
   70400    892.86089    -112.1703    0.8078793   -111.36242    6211.1625    4.3188977    4.3188977    4.3188977    6211.1625     17575.71   -3648.9596    4706.7372     13218.97    1851.4348   -2497.3157    80.559867 
   70500    648.81926   -111.95279    0.5870653   -111.36573    2534.8707    4.3134331    4.3134331    4.3134331    2534.8707    6839.0599   -13866.251    14631.803   -23548.386    786.47139   -375.30196    80.254464 
   70600    523.23449   -111.84038   0.47343356   -111.36695   -2158.5499    4.3143829    4.3143829    4.3143829   -2158.5499   -8033.0717   -20633.577    22190.999   -6605.3355     2519.587    1702.0127     80.30749 
   70700     799.4924   -112.08643   0.72339753   -111.36304   -4255.7978    4.3176768    4.3176768    4.3176768   -4255.7978   -13377.361   -10983.155    11593.122    14466.675    6296.6878    2609.9662    80.491566 
   70800    690.64192   -111.99016   0.62490733   -111.36526    6077.9382    4.3104522    4.3104522    4.3104522    6077.9382    2971.6087    1543.1922    13719.014   -25441.673   -5262.0009     559.9837    80.088196 
   70900    721.58838   -112.01936   0.65290833   -111.36645    -2981.414    4.3188367    4.3188367    4.3188367    -2981.414    5589.2744   -6107.3579   -8426.1586    163.73445    2099.0469    4746.9182    80.556456 
   71000    804.14669    -112.0913   0.72760882   -111.36369    7849.5794     4.313308     4.313308     4.313308    7849.5794    10967.137    6521.8263    6059.7746    16122.301    4540.2585   -867.85311    80.247481 
   71100    661.42224   -111.96278   0.59846874   -111.36431   -70.974069    4.3134773    4.3134773    4.3134773   -70.974069    8478.5443   -9940.6883    1249.2217   -24362.524   -3038.8485    5013.9352     80.25693 
   71200    583.20204   -111.89189   0.52769346    -111.3642   -13489.555    4.3195687    4.3195687    4.3195687   -13489.555   -15264.149   -25002.803   -201.71255    4954.4027    1143.5963    1536.5404    80.597425 
   71300    641.19275   -111.94435   0.58016468   -111.36418     6109.703    4.3081105    4.3081105    4.3081105     6109.703    -1249.346   -1425.5251     21003.98    11209.321    3616.9158   -3121.6171    79.957738 
   71400    749.54708    -112.0433   0.67820595    -111.3651     263.0062    4.3187881    4.3187881    4.3187881     263.0062    2054.4401   -11506.274    10240.852   -20695.088   -282.74496    3098.9213    80.553739 
   71500    813.09234   -112.10079   0.73570303   -111.36509    1505.9228    4.3160145    4.3160145    4.3160145    1505.9228    6145.0574   -2012.9093     385.6202    5890.5366   -3021.2387    1704.5885    80.398639 
   71600    779.49105   -112.07062   0.70529988   -111.36532    10648.274     4.308353     4.308353     4.308353    10648.274    12885.482    10649.315    8410.0244    10181.597    5618.5619   -2480.1395    79.971244 
   71700    792.75212   -112.08034   0.71729877   -111.36304   -10508.724    4.3214191    4.3214191    4.3214191   -10508.724   -3202.6327   -15721.694   -12601.846   -16227.016    -988.3005   -2010.0476    80.701045 
   71800    497.71446   -111.81551    0.4503425   -111.36516   -3950.4602    4.3118422    4.3118422    4.3118422   -3950.4602     4328.554   -14697.089   -1482.8451    9245.5524   -1533.2766    4944.2464    80.165695 
   71900    483.01139   -111.80442   0.43703886   -111.36739   -666.51581    4.3125164    4.3125164    4.3125164   -666.51581    1007.6825   -8549.4456    5542.2157    11442.374    7947.1179   -1673.0413    80.203307 
   72000    778.12295    -112.0671     0.704062   -111.36304    492.29357    4.3194143    4.3194143    4.3194143    492.29357    12564.222   -15291.366    4204.0247   -14501.403   -373.16526    1344.9166    80.588782 
   72100    732.10647   -112.02729   0.66242532   -111.36486    2071.3338    4.3116229    4.3116229    4.3116229    2071.3338    5717.5583   -3776.8376    4273.2807     13002.19   -6690.7154    6059.2614    80.153469 
   72200    855.02606   -112.14015   0.77364554   -111.36651   -3914.8718    4.3154633    4.3154633    4.3154633   -3914.8718   -9564.1602    2354.2588    -4534.714    6505.8425    8142.9639   -78.553183    80.367835 
   72300    987.75904   -112.25564   0.89374514   -111.36189    650.98125    4.3149207    4.3149207    4.3149207    650.98125    10418.571    1422.7023   -9888.3296   -9178.7609    788.87523     6090.587    80.337527 
   72400    473.93884   -111.79658   0.42882982   -111.36775    -10068.91    4.3147671    4.3147671    4.3147671    -10068.91   -3203.6494   -14827.471   -12175.611    15421.474   -7461.5655    436.23123    80.328945 
   72500      396.225   -111.72679   0.35851271   -111.36827   -1348.0744    4.3148473    4.3148473    4.3148473   -1348.0744    6531.2647   -6414.8817   -4160.6063    7022.7613    12234.003   -1724.0623    80.333427 
   72600    750.00713   -112.04102   0.67862221   -111.36239    4183.8472    4.3150014    4.3150014    4.3150014    4183.8472    24839.394   -16919.487    4631.6354   -2197.5814    3240.3419    1643.0574    80.342035 
   72700    588.31635   -111.90013     0.532321   -111.36781   -9377.1402    4.3165558    4.3165558    4.3165558   -9377.1402   -5590.3207   -20866.739   -1674.3608    14725.052   -7744.0993   -1302.9757    80.428892 
   72800    875.97251   -112.16002   0.79259834   -111.36742   -485.89004    4.3126765    4.3126765    4.3126765   -485.89004   -6382.9217    7604.1049   -2678.8533    9059.1124    9426.3425   -2822.4599    80.212242 
   72900    1084.0663   -112.34397   0.98088599   -111.36308    1869.3347    4.3159816    4.3159816    4.3159816    1869.3347    12295.327    7652.6565    -14339.98   -3599.7171    3158.2992    1955.9726      80.3968 
   73000    594.95191   -111.90636   0.53832499   -111.36804    -8246.191    4.3156629    4.3156629    4.3156629    -8246.191    1913.8224   -8154.7882   -18497.607    11677.705   -8909.1048     3685.251    80.378989 
   73100    424.04898   -111.75066   0.38368843   -111.36698    3126.8671     4.313367     4.313367     4.313367    3126.8671    14979.383    2461.4154   -8060.1966    4266.6337    13933.356   -958.48236    80.250776 
   73200    622.03883   -111.92596   0.56283381   -111.36312   -717.43403    4.3167163    4.3167163    4.3167163   -717.43403     18606.58   -21362.156    603.27431   -8660.2294    3630.9012    4343.7581    80.437864 
   73300    590.80721   -111.89996   0.53457478   -111.36538   -1997.0362    4.3132141    4.3132141    4.3132141   -1997.0362    9516.1666   -20912.499    5405.2242    9889.3027   -3197.3094    1055.8343    80.242239 
   73400    807.14339   -112.09669    0.7303203   -111.36637     -1664.81    4.3152819    4.3152819    4.3152819     -1664.81   -6906.2742    3422.8338   -1510.9897    2207.0696    12645.143    2375.7986    80.357701 
   73500    974.73764   -112.24633    0.8819631   -111.36437     536.6304    4.3148641    4.3148641    4.3148641     536.6304    4367.8076    2105.0371   -4862.9535   -7887.5963    239.55475    641.14054    80.334363 
   73600    846.25746   -112.13013   0.76571153   -111.36442   -2032.4067    4.3152233    4.3152233    4.3152233   -2032.4067    8094.7406   -939.12016   -13252.841    10219.293   -3211.4038   -5166.4819    80.354431 
   73700    506.83928   -111.82378   0.45859883   -111.36518   -3959.5362    4.3165199    4.3165199    4.3165199   -3959.5362   -2141.2698    2132.0197   -11869.359    502.68653    9350.5141    1004.4738    80.426886 
   73800    435.58535   -111.75923   0.39412678    -111.3651   -4123.6572    4.3128119    4.3128119    4.3128119   -4123.6572    16629.457   -29853.163    852.73409    -11217.78    3189.4419    -730.7682    80.219797 
   73900    675.39055   -111.97489   0.61110756   -111.36378   -6083.8236    4.3161535    4.3161535    4.3161535   -6083.8236    8089.0675   -24860.814    -1479.724    2815.8521   -1826.5708   -2623.8164    80.406404 
   74000    701.36145   -112.00107   0.63460658   -111.36646   -1216.1157    4.3140295    4.3140295    4.3140295   -1216.1157   -4470.7824    162.32384    660.11145   -2237.2597    13182.821    1987.7325    80.287758 
   74100    828.37703   -112.11676   0.74953295   -111.36722   -527.54863    4.3145146    4.3145146    4.3145146   -527.54863     985.1874   -5960.9281    3393.0949   -17275.341    474.83647    3458.6526    80.314844 
   74200    1064.0482   -112.32487    0.9627732   -111.36209   -126.05086    4.3178666    4.3178666    4.3178666   -126.05086    4559.7736    3974.5747   -8912.5008    1334.7847   -603.28825    380.51294    80.502185 
   74300    615.74618   -111.92408   0.55714009   -111.36694    6076.4184    4.3092939    4.3092939    4.3092939    6076.4184    6336.8287    13299.996   -1407.5692   -2622.6786     10530.08    599.93151    80.023646 
   74400    391.39337   -111.72344   0.35414095    -111.3693   -9820.2821    4.3170576    4.3170576    4.3170576   -9820.2821    11535.763   -39184.466   -1812.1425   -18073.194   -1606.7641   -2175.3934    80.456943 
   74500    626.12781   -111.93031    0.5665336   -111.36378   -2906.4696    4.3170502    4.3170502    4.3170502   -2906.4696    17553.204   -24269.225   -2003.3882    4864.8388    949.30931   -3392.1274    80.456532 
   74600    596.69604   -111.90564   0.53990311   -111.36574    2708.0774    4.3089338    4.3089338    4.3089338    2708.0774    2514.6851    759.96175    4849.5855   -8197.1158    9340.9677    468.38874     80.00359 
   74700    744.23813   -112.04096    0.6734023   -111.36756   -8116.0617     4.319485     4.319485     4.319485   -8116.0617   -5932.4217   -17185.328   -1230.4352   -13177.738    1514.8507   -6260.1676    80.592741 
   74800     1082.845   -112.34298   0.97978093    -111.3632     5051.428    4.3136141    4.3136141    4.3136141     5051.428    6803.6981    10094.382   -1743.7961    8006.9869    440.94462   -2318.7406    80.264568 
   74900    801.97586    -112.0913   0.72564461   -111.36566    7437.3737     4.311561     4.311561     4.311561    7437.3737      12602.5    10497.327   -787.70611   -5614.8401    9819.7705     4693.505    80.150012 
   75000    569.53737   -111.88124   0.51532938   -111.36591   -7566.5356    4.3192162    4.3192162    4.3192162   -7566.5356    11685.206   -33958.666   -426.14661   -7350.7602    -2244.389   -1806.3151    80.577691 
   75100     465.7946   -111.78537   0.42146074   -111.36391    2809.9046    4.3106623    4.3106623    4.3106623    2809.9046    20937.844   -18058.225    5550.0948    9553.2236    3654.6342   -1022.1747    80.099903 
   75200    522.64476   -111.83801   0.47289996   -111.36511   -6857.5399    4.3158748    4.3158748    4.3158748   -6857.5399   -8853.1614   -8850.4594   -2868.9989   -3073.9864    7737.4566    1927.6312    80.390832 
   75300    728.95464    -112.0244   0.65957348   -111.36483   -2720.5525    4.3153312    4.3153312    4.3153312   -2720.5525   -3938.1436   -8928.4348     4704.921   -7752.2048   -2362.6456   -2148.7824    80.360458 
   75400    846.20394   -112.13167   0.76566311     -111.366    3225.9792    4.3116495    4.3116495    4.3116495    3225.9792    3132.3372    3694.6538    2850.9467    12659.728    5048.7654   -4723.9849    80.154949 
   75500     998.8422   -112.26845   0.90377342   -111.36468    -1446.617    4.3186503    4.3186503    4.3186503    -1446.617    132.76128    5005.3696   -9477.9818   -3134.7231    4496.0262   -1113.9182    80.546024 
   75600    815.07616   -112.10207   0.73749804   -111.36457    4885.4248     4.311649     4.311649     4.311649    4885.4248    24926.561   -16509.055    6238.7686   -799.91545   -2737.7639   -7943.6966    80.154922 
   75700    410.83536   -111.73932   0.37173247   -111.36758   -6458.2701    4.3145329    4.3145329    4.3145329   -6458.2701    5065.5138   -28100.674    3660.3503    18933.173    1841.9417   -179.70582    80.315869 
   75800    540.54964   -111.85354   0.48910068   -111.36444    -5417.477    4.3171347    4.3171347    4.3171347    -5417.477   -6505.3334   -5502.2982   -4244.7993   -3286.6578    7837.6177   -118.50571    80.461255 
   75900    586.56125   -111.89443   0.53073294    -111.3637    5602.5396    4.3110416    4.3110416    4.3110416    5602.5396    5355.9781   -3597.6717    15049.312    6855.0723   -3457.7997   -8163.1058    80.121051 
   76000    658.91004   -111.96374   0.59619565   -111.36754   -10878.504    4.3173681    4.3173681    4.3173681   -10878.504   -16729.634   -9640.5055   -6265.3724    16675.178    7829.8367    210.65786    80.474303 
   76100     1023.383   -112.29019   0.92597841   -111.36422    3276.6248    4.3135092    4.3135092    4.3135092    3276.6248   -415.22006    16999.951    -6754.857   -4724.9241    7657.2921     2721.584    80.258712 
   76200    935.97406   -112.21173     0.846889   -111.36484    3384.1668    4.3128907    4.3128907    4.3128907    3384.1668    20248.518   -8480.0849   -1615.9327    7605.6738   -4193.3958   -10014.781    80.224192 
   76300    606.98656   -111.91629   0.54921419   -111.36708   -8438.6542    4.3179991    4.3179991    4.3179991   -8438.6542    4398.2311   -25493.331   -4220.8629     13018.14    6094.8582    -4640.048    80.509597 
   76400    560.78639    -111.8713   0.50741131   -111.36389      4419.81    4.3124215    4.3124215    4.3124215      4419.81    4837.4062    6439.2631    1982.7606   -2485.3738    -387.9245    3333.8011    80.198015 
   76500    466.28626   -111.78628   0.42190561   -111.36437    -410.9171     4.314876     4.314876     4.314876    -410.9171    466.85776   -11739.966    10040.357    6068.7321   -5452.1994   -9603.7363    80.335032 
   76600    584.67211   -111.89422   0.52902361    -111.3652   -7421.9012    4.3166752    4.3166752    4.3166752   -7421.9012   -14515.129   -8080.8407    330.26623    11023.531    5873.9006   -2827.5197    80.435563 
   76700     855.9119   -112.13844   0.77444708   -111.36399    4437.4037    4.3123064    4.3123064    4.3123064    4437.4037    -7092.091    22109.393   -1705.0914   -6113.6811    3029.5355    1685.6798    80.191594 
   76800    917.77003   -112.19518   0.83041761   -111.36476   -2626.0161    4.3170214    4.3170214    4.3170214   -2626.0161    7269.4945   -7150.2533   -7997.2896    6299.2954   -1130.2862   -9071.9786    80.454919 
   76900    844.36027   -112.12795   0.76399492   -111.36396    343.27342    4.3152608    4.3152608    4.3152608    343.27342    9065.1726    -9115.547    1080.1947    9623.4332    8083.2999   -1319.2155    80.356522 
   77000    664.83752   -111.96486   0.60155896    -111.3633    3996.5644    4.3127936    4.3127936    4.3127936    3996.5644    6738.6114    8008.0664   -2756.9844   -6160.3675    2444.3935   -2198.1801    80.218773 
   77100     447.5158   -111.76993    0.4049217   -111.36501   -6869.6632    4.3168806    4.3168806    4.3168806   -6869.6632    3959.8076   -25851.107    1282.3095    10040.643    -6437.439   -12757.926    80.447049 
   77200    547.65707   -111.85961   0.49553162   -111.36408   -2049.8633    4.3138551    4.3138551    4.3138551   -2049.8633   -6826.5147   -4676.5263    5353.4511    8047.5775    6311.5717   -1209.7758    80.278019 
   77300    738.50849   -112.03256   0.66821801   -111.36434   -683.91787      4.31473      4.31473      4.31473   -683.91787   -13852.156    18634.744   -6834.3411   -3488.5875   -1206.9628    21.599753    80.326874 
   77400    831.48225   -112.11781   0.75234261   -111.36546    90.645221    4.3153395    4.3153395    4.3153395    90.645221    3661.6993   -698.54335   -2691.2203     4977.639   -6314.9428   -14389.252    80.360919 
   77500    911.63052   -112.18922   0.82486245   -111.36436    3804.2596     4.314613     4.314613     4.314613    3804.2596    4602.4581    4402.3953    2407.9252    2226.8148    10382.498    2459.1978    80.320339 
   77600    802.49062   -112.09004   0.72611037   -111.36393    1108.2453    4.3143392    4.3143392    4.3143392    1108.2453    4165.3199    7550.3882   -8390.9722    -4616.202    689.97437    2782.1191    80.305054 
   77700    484.81659   -111.80459   0.43867224   -111.36592   -4223.3185    4.3145411    4.3145411    4.3145411   -4223.3185    8945.1872   -25172.163    3557.0203    2168.0779   -4470.8007   -13757.298    80.316327 
   77800    484.70277   -111.80357   0.43856925     -111.365   -5273.6991    4.3155497    4.3155497    4.3155497   -5273.6991   -4623.0998   -11796.106    598.10872    6786.5677    7066.2086    3834.3002    80.372664 
   77900    695.53358   -111.99276    0.6293334   -111.36342    691.43801    4.3134558    4.3134558    4.3134558    691.43801   -6425.2448    14213.111   -5713.5518   -3552.3229   -1963.1927    479.67677    80.255731 
   78000    741.00217   -112.03604   0.67047433   -111.36557    1400.0638    4.3151049    4.3151049    4.3151049    1400.0638    38.374447    1642.4652    2519.3516    6263.3118   -5500.7468   -10017.057    80.347815 
   78100     900.3112   -112.17968    0.8146205   -111.36506   -332.16011    4.3154223    4.3154223    4.3154223   -332.16011    1231.1472    6057.2277   -8284.8552    7603.9025    7051.2882    5475.6368    80.365545 
   78200     880.5225   -112.16044   0.79671527   -111.36373     7477.703    4.3124038    4.3124038    4.3124038     7477.703    7175.4415    17326.328   -2068.6609   -3465.6084   -2246.3907   -2227.9533    80.197024 
   78300    619.16675   -111.92599   0.56023509   -111.36575   -5895.8709    4.3158306    4.3158306    4.3158306   -5895.8709    6924.2037   -20979.788   -3632.0288    4431.4913   -4073.5985   -8249.5057    80.388362 
   78400    417.17088   -111.74448   0.37746498   -111.36701   -4868.0782    4.3146386    4.3146386    4.3146386   -4868.0782    706.90101    -12876.86   -2434.2752    2700.9176     8969.797    6322.1428     80.32177 
   78500    684.61607   -111.98325   0.61945501    -111.3638    1446.6925    4.3136674    4.3136674    4.3136674    1446.6925   -8572.2959    14696.352   -1783.9782   -797.46815   -7715.7299   -668.43437     80.26754 
   78600    739.94465   -112.03428   0.66951747   -111.36477    1837.6176    4.3164333    4.3164333    4.3164333    1837.6176   -3057.9447    7478.8133     1091.984    2986.8001     -4372.86   -5096.1086    80.422041 
   78700    781.58049   -112.07349   0.70719045    -111.3663    1801.4557    4.3135791    4.3135791    4.3135791    1801.4557    4882.6864     10474.56   -9952.8793     5624.942     5329.012    13169.835    80.262614 
   78800    895.06829   -112.17432    0.8098766   -111.36444    8159.1873    4.3132074    4.3132074    4.3132074    8159.1873    6168.9542     18921.77   -613.16272   -475.86964   -9576.4586    1001.1091    80.241865 
   78900    703.46236   -112.00128   0.63650753   -111.36477   -3187.8122    4.3162061    4.3162061    4.3162061   -3187.8122    6824.5472   -11372.384   -5015.5999    3489.7157   -2720.0052   -4600.1736    80.409345 
   79000    352.78583    -111.6867   0.31920803   -111.36749   -7852.5448    4.3148717    4.3148717    4.3148717   -7852.5448   -4488.7451   -16517.208   -2551.6808    4807.5751    7415.7416    12747.464    80.334792 
   79100    691.81195   -111.99035   0.62596599   -111.36438   -501.31991    4.3139587    4.3139587    4.3139587   -501.31991   -16377.693    17831.343   -2957.6099   -5565.7636   -7018.3856   -4107.7398    80.283805 
   79200    889.95482   -112.16853   0.80524982   -111.36328    870.81028    4.3152883    4.3152883    4.3152883    870.81028   -7900.6769    13289.891   -2776.7837    6176.0011   -1762.0478   -1706.6512    80.358061 
   79300    715.01155   -112.01516   0.64695748    -111.3682   -887.37968    4.3137196    4.3137196    4.3137196   -887.37968    1458.8126     6235.236   -10356.188    2308.6559    5480.5396    9978.1455    80.270457 
   79400    867.09393   -112.14959   0.78456481   -111.36503    1327.0135    4.3160836    4.3160836    4.3160836    1327.0135    2142.9282    10153.604   -8315.4918   -4362.2714    -9911.905    1730.0451    80.402498 
   79500    729.58708   -112.02293   0.66014572   -111.36279    895.97061    4.3158046    4.3158046    4.3158046    895.97061     8165.445   -9815.8618    4338.3287    8538.1195   -677.27818    5887.4658     80.38691 
   79600    272.25297   -111.61391   0.24634021   -111.36757   -1660.9609    4.3123951    4.3123951    4.3123951   -1660.9609    1714.2284   -12307.468     5610.357     4466.263   -431.26117    9475.4274     80.19654 
   79700    570.80823   -111.88289   0.51647928   -111.36641    -3592.656    4.3166184    4.3166184    4.3166184    -3592.656   -15151.959    9560.3438   -5186.3529   -7105.3681   -12574.365    3308.0208    80.432391 
   79800    966.87516   -112.23723   0.87484896   -111.36238     4284.548    4.3155183    4.3155183    4.3155183     4284.548   -6170.6549    11187.445    7836.8537    6002.6694    698.42451    1641.6585    80.370908 
   79900     810.7913   -112.10048   0.73362101   -111.36686   -4516.1069    4.3134864    4.3134864    4.3134864   -4516.1069   -4304.4135    2343.9543   -11587.862    3234.9598   -2069.8275    7812.3834    80.257441 
   80000    800.68667   -112.09022   0.72447812   -111.36575   -4954.4659    4.3159492    4.3159492    4.3159492   -4954.4659   -4036.8481    1033.1013   -11859.651    -10277.04   -9309.0805   -6480.7199    80.394985 
   80100    786.96245   -112.07421   0.71206016   -111.36215   -462.34951     4.315163     4.315163     4.315163   -462.34951    3526.3031   -11863.723    6950.3719      7771.85    1896.1955   -506.63844    80.351061 
   80200    354.72089   -111.68819   0.32095892   -111.36724   -2195.5318    4.3121222    4.3121222    4.3121222   -2195.5318    3882.4232   -12627.684    2158.6651    2935.1351    51.243258    10531.762    80.181316 
   80300    471.75076   -111.79572      0.42685   -111.36887   -5506.3142    4.3176645    4.3176645    4.3176645   -5506.3142   -7688.1656   -5679.7079    -3151.069   -6257.0554   -9559.8638   -5589.7131     80.49088 
   80400    1019.3681   -112.28475   0.92234564   -111.36241    4531.3632    4.3147978    4.3147978    4.3147978    4531.3632   -2506.4886    9294.5332     6806.045    8333.2135    1310.2085     5128.468    80.330662 
   80500    856.53806   -112.14117   0.77501364   -111.36616    3595.1681    4.3113329    4.3113329    4.3113329    3595.1681    2791.3159    12479.485   -4485.2968    2031.4491     -2989.09    10880.133    80.137296 
   80600    673.59594   -111.97705   0.60948376   -111.36756   -8868.8214    4.3178073    4.3178073    4.3178073   -8868.8214   -4432.4524    -8739.728   -13434.284   -8584.9116    -11356.58   -7073.6814    80.498869 
   80700    705.66645   -112.00127   0.63850184   -111.36277    1732.4846     4.313517     4.313517     4.313517    1732.4846    6923.8317   -14864.527    13138.149    6468.9357    1906.2443    -3969.137    80.259148 
   80800     452.0526    -111.7742   0.40902669   -111.36518   -4131.9628    4.3130939    4.3130939    4.3130939   -4131.9628    3574.8062   -17493.778    1523.0833    377.36309   -6036.7956    9207.5269    80.235533 
   80900    447.99261   -111.77398   0.40535313   -111.36863   -8746.3106    4.3176802    4.3176802    4.3176802   -8746.3106   -7942.0036   -11746.212   -6550.7167   -9111.0823   -7568.0924   -9462.5532    80.491761 
   81000    1085.5193   -112.34534   0.98220067   -111.36314     4626.228    4.3129531    4.3129531    4.3129531     4626.228   -2218.1825    16677.426    -580.5593    6986.6835    1290.0233   -7356.0596    80.227677 
   81100    943.33717    -112.2192    0.8535513   -111.36565    4708.4762    4.3129313    4.3129313    4.3129313    4708.4762    707.82387    17077.358   -3659.7533    2489.0103   -5849.9819    11643.887    80.226457 
   81200    591.82437   -111.90457   0.53549513   -111.36907   -9841.5168    4.3167066    4.3167066    4.3167066   -9841.5168   -2194.6811   -13234.598   -14095.271   -7663.0446     -6108.04   -9759.1648    80.437319 
   81300    629.21491   -111.93311   0.56932688   -111.36379    1875.4949    4.3145984    4.3145984    4.3145984    1875.4949    6415.5121    -12906.79    12117.763    4796.3689     2490.432   -3719.8465    80.319524 
   81400    511.71497    -111.8273   0.46301046   -111.36429   -3746.1289    4.3137346    4.3137346    4.3137346   -3746.1289    6791.2188   -17584.048   -445.55684   -320.06273     -2643.14    6518.2794    80.271296 
   81500    430.91707   -111.75959   0.38990282   -111.36969   -7598.7012    4.3149216    4.3149216    4.3149216   -7598.7012    3290.4351   -16090.989   -9995.5494   -9337.2973   -6947.6518   -10364.304    80.337574 
   81600    1054.7968   -112.31919   0.95440235   -111.36479    4372.3327    4.3150059    4.3150059    4.3150059    4372.3327    319.53836     19863.69   -7066.2309    648.70399     7157.929   -257.40174    80.342285 
   81700    981.71798   -112.25336   0.88827906   -111.36508    3655.5032    4.3144682    4.3144682    4.3144682    3655.5032    2862.6191    17450.414   -9346.5234   -192.16554   -3308.8711    3132.9133    80.312257 
   81800    491.95263   -111.81373   0.44512908    -111.3686   -8711.3325    4.3159443    4.3159443    4.3159443   -8711.3325   -718.36132   -14259.733   -11155.904   -7887.6853   -5823.2698   -12555.982    80.394713 
   81900    622.26223   -111.92634   0.56303594    -111.3633    904.23709    4.3141175    4.3141175    4.3141175    904.23709   -1580.3266   -5112.6646    9405.7024    971.39807    6358.9091   -2336.4818    80.292674 
   82000    602.84788   -111.90959   0.54546943   -111.36412   -3657.9759    4.3140188    4.3140188    4.3140188   -3657.9759    3492.1274   -17915.202    3449.1469     4509.018   -3372.8821   -1369.1854    80.287159 
   82100    488.02558   -111.81095    0.4415758   -111.36937   -8991.2366    4.3169073    4.3169073    4.3169073   -8991.2366    2012.7717   -15733.788   -13252.694   -10062.449   -5615.9797    -15336.32    80.448539 
   82200    1062.1766    -112.3256   0.96107972   -111.36452    6167.0088    4.3141252    4.3141252    4.3141252    6167.0088   -333.90742    28760.067   -9925.1327    645.29295    8201.0509    1014.7856      80.2931 
   82300    1016.7757   -112.28366         0.92   -111.36366    4763.7393    4.3144018    4.3144018    4.3144018    4763.7393    4895.7877    18416.156   -9020.7256   -260.09178    1141.0408    2530.0943    80.308546 
   82400     440.7907   -111.76797   0.39883668   -111.36914   -4830.1325    4.3154702    4.3154702    4.3154702   -4830.1325     3593.294   -9120.1316   -8963.5601   -11084.594   -3747.6833   -11946.169    80.368222 
   82500    546.82157   -111.85968   0.49477564   -111.36491    101.20796     4.313568     4.313568     4.313568    101.20796    -1551.751   -1968.6365    3824.0113   -2165.7225    13784.998     1997.393    80.261993 
   82600    598.00148   -111.90426   0.54108431   -111.36318   -2005.9137    4.3161105    4.3161105    4.3161105   -2005.9137    10201.236   -21127.102    4908.1252   -552.96132    2381.3093    -2146.323    80.404002 
   82700    529.41726   -111.84686   0.47902786   -111.36783   -7537.7514    4.3160399    4.3160399    4.3160399   -7537.7514    8719.7491   -19875.148   -11457.855   -6532.4709   -2051.8526   -15082.869    80.400055 
   82800    988.15791   -112.25953   0.89410604   -111.36542    7167.4716     4.311473     4.311473     4.311473    7167.4716   -4054.8953     28373.24   -2815.9296   -2972.5105    12147.823   -380.87893    80.145105 
   82900    1077.1589   -112.33809     0.974636   -111.36346    3993.1726    4.3166743    4.3166743    4.3166743    3993.1726    242.64301    18898.108   -7161.2335    3347.1099   -2199.2761   -6864.4861    80.435513 
   83000    511.03348   -111.83113   0.46239383   -111.36874   -4924.1742    4.3154802    4.3154802    4.3154802   -4924.1742   -5365.6803   -1158.0495   -8248.7929   -7815.8013   -1352.2281   -7507.7062     80.36878 
   83100    483.71862   -111.80398   0.43767877    -111.3663   -2824.8326    4.3117651    4.3117651    4.3117651   -2824.8326   -10554.494    1594.4938    485.50274   -1276.5262     13824.58    4186.7192    80.161395 
   83200     655.1162   -111.95522   0.59276291   -111.36246   -4599.0169    4.3180343    4.3180343    4.3180343   -4599.0169    8885.0198   -22580.303   -101.76758    467.71946   -291.34143   -5696.4053    80.511562 
   83300    603.53885   -111.91318   0.54609463   -111.36708   -5757.2744    4.3135991    4.3135991    4.3135991   -5757.2744    7856.7741   -15147.607   -9980.9897   -8791.9929    3198.7942   -5501.8428    80.263732 
   83400    784.33362   -112.07853   0.70968154   -111.36885    7994.3313    4.3114357    4.3114357    4.3114357    7994.3313     1166.022     25131.15   -2314.1785   -708.64752    18150.004    4040.5106    80.143026 
   83500    1132.7681    -112.3878    1.0249524   -111.36285    2499.5229    4.3184694    4.3184694    4.3184694    2499.5229    3982.9083    13151.634   -9635.9738   -1681.2348    105.15123    -4907.835    80.535906 
   83600    517.42587    -111.8371    0.4681778   -111.36893    115.36137    4.3137659    4.3137659    4.3137659    115.36137   -8576.2705    7421.1412    1501.2134   -4239.2881    1854.9685   -7736.0692     80.27304 
   83700    416.67485   -111.74486   0.37701616   -111.36784   -8705.8123    4.3127933    4.3127933    4.3127933   -8705.8123   -13049.072   -4127.3576   -8941.0069   -3363.1777    16967.647    10553.707    80.218759 
   83800    794.46889   -112.08103   0.71885215   -111.36218   -2493.9438     4.316031     4.316031     4.316031   -2493.9438    8660.9008   -16999.311    856.57906    2891.3358   -4344.4357   -4986.3649    80.399558 
   83900    625.17754   -111.93376   0.56567377   -111.36808   -422.10812    4.3133098    4.3133098    4.3133098   -422.10812    4395.1355   -1928.0806   -3733.3793   -5145.5484    4811.9697   -4036.2743    80.247584 
   84000    700.86986   -112.00475   0.63416178   -111.37058   -2092.4829    4.3149512    4.3149512    4.3149512   -2092.4829    1005.9986     10629.52   -17912.967   -484.69752    18630.222    9918.8582     80.33923 
   84100    1092.0654   -112.35031   0.98812373   -111.36219    8538.6062    4.3153371    4.3153371    4.3153371    8538.6062    7945.4274    17564.191    106.20052    2750.7824   -3164.7816   -4230.5216    80.360785 
   84200    545.34414   -111.86228   0.49343884   -111.36884   -617.51931    4.3132208    4.3132208    4.3132208   -617.51931   -8218.7272    8586.3577   -2220.1884   -6809.0981    10417.096   -3386.5777    80.242615 
   84300    318.21168   -111.65911   0.28792462   -111.37119   -8919.4674    4.3153051    4.3153051    4.3153051   -8919.4674    -8720.538   -4222.3627   -13815.501    173.13369    14935.636    6577.0649    80.358997 
   84400    933.92123   -112.20701   0.84503156   -111.36198    4647.3258    4.3145566    4.3145566    4.3145566    4647.3258    9002.7863   -2137.7932    7076.9844   -1839.8642   -4460.2557    3013.3577    80.317192 
   84500    714.80234   -112.01425   0.64676818   -111.36749   -122.01071    4.3159094    4.3159094    4.3159094   -122.01071    3928.6148     5785.623    -10080.27     -5110.89    11812.128   -1939.8879    80.392761 
   84600    665.96684   -111.97189   0.60258079   -111.36931   -7193.8816    4.3155721    4.3155721    4.3155721   -7193.8816    4418.6065   -713.93404   -25286.317   -5263.2297    10403.837    11673.264    80.373917 
   84700    1015.6658   -112.28096   0.91899572   -111.36196    8955.7508     4.311969     4.311969     4.311969    8955.7508    10389.267    15383.925      1094.06    3035.8794   -5463.8286    3453.6411    80.172767 
   84800    506.18037   -111.82597   0.45800264   -111.36796   -5051.4566    4.3171811    4.3171811    4.3171811   -5051.4566    -11781.81    6632.9515   -10005.511   -2486.2456    16997.925    111.28342    80.463849 
   84900    320.10088   -111.65939     0.289634   -111.36975   -7018.6413     4.316187     4.316187     4.316187   -7018.6413   -11598.645   -3468.5009   -5988.7779   -2207.6944    10484.809    8872.4232    80.408278 
   85000    937.22745   -112.21005   0.84802309   -111.36202    7743.7391    4.3124978    4.3124978    4.3124978    7743.7391    10454.573    5924.1731    6852.4711    6074.7516   -3792.4782   -3008.4462    80.202271 
   85100    827.98213   -112.11514   0.74917563   -111.36597    2818.7388    4.3155944    4.3155944    4.3155944    2818.7388    5864.3122    12276.944   -9685.0401   -2405.7851    17057.242    300.90229    80.375161 
   85200    712.06984   -112.01219   0.64429576    -111.3679    -6345.512    4.3166855    4.3166855    4.3166855    -6345.512    3860.4743    1865.5919   -24762.602   -1776.5831    3046.6882    7876.4149    80.436141 
   85300    858.39446   -112.13853   0.77669335   -111.36184    4524.0557    4.3137135    4.3137135    4.3137135    4524.0557    8948.4787    17064.281   -12440.592   -1698.8287   -5227.6665   -1142.7096    80.270118 
   85400    522.88963   -111.83751   0.47312153   -111.36439   -7215.4265    4.3161172    4.3161172    4.3161172   -7215.4265   -24858.505    16081.013   -12868.788   -3736.1366    15629.212    2302.1978    80.404378 
   85500    339.14193   -111.67373   0.30686275   -111.36687   -8968.2428    4.3157303    4.3157303    4.3157303   -8968.2428    -19135.61   -3316.7013   -4452.4175   -4831.8607    304.77014    13209.218    80.382755 
   85600    809.74753    -112.0961   0.73267659   -111.36342    637.74522    4.3145752    4.3145752    4.3145752    637.74522    2374.3899    3568.2958     -4029.45    16.192619    -89.98578   -1702.9135    80.318232 
   85700    902.40805   -112.18025   0.81651777   -111.36373    3137.5369    4.3159668    4.3159668    4.3159668    3137.5369    5143.8901    9168.7535    -4900.033   -1644.7231    16861.056    227.15261    80.395974 
   85800    812.52548   -112.10044   0.73519013   -111.36525   -625.99844    4.3147083    4.3147083    4.3147083   -625.99844    16603.159   -3665.7851   -14815.369   -3111.6198   -3287.7666    12229.074    80.325662 
   85900    820.58998    -112.1056   0.74248706   -111.36311    315.16476    4.3148938    4.3148938    4.3148938    315.16476    8238.9596    10505.886   -17799.352    3138.8261    2204.8693   -7679.5298    80.336025 
   86000    585.33382   -111.89377   0.52962234   -111.36415   -4003.0421    4.3146341    4.3146341    4.3146341   -4003.0421   -27721.028     22405.41   -6693.5086   -2567.9912    12089.505    357.70742    80.321521 
   86100    348.71103   -111.68165   0.31552107   -111.36613   -7568.7782    4.3146738    4.3146738    4.3146738   -7568.7782   -24444.077    6104.0442   -4366.3021   -2491.7556    -7647.385    10840.722    80.323735 
   86200    635.29355   -111.93942   0.57482696    -111.3646   -5513.9737    4.3176289    4.3176289    4.3176289   -5513.9737   -11324.906    7835.9183   -13052.933   -687.67069    2884.5545   -7556.1009    80.488887 
   86300    927.45181   -112.20178   0.83917789    -111.3626    6166.4381    4.3123671    4.3123671    4.3123671    6166.4381    3048.8661     13007.02    2443.4283   -927.92724    10972.533     1554.125    80.194979 
   86400    844.71799   -112.13093   0.76431859   -111.36661    852.21905    4.3138641    4.3138641    4.3138641    852.21905    21260.233   -4855.5787   -13847.997   -1618.9698   -6818.7972    9808.3616    80.278521 
   86500    839.78846   -112.12526   0.75985825    -111.3654   -1912.8283    4.3185672    4.3185672    4.3185672   -1912.8283    14493.943   -1398.2307   -18834.197   -261.34699    4544.2471   -11970.298    80.541377 
   86600    711.01215   -112.00619   0.64333874   -111.36285     4695.662    4.3124213    4.3124213    4.3124213     4695.662   -8559.2142    18176.415    4469.7856    3437.9875    7645.0541      2398.34    80.197999 
   86700    323.41333   -111.65887   0.29263117   -111.36624   -6888.6686    4.3140501    4.3140501    4.3140501   -6888.6686   -19788.919    6787.8442   -7664.9306   -4810.6835    -7440.838    9145.3611    80.288909 
   86800    488.91876   -111.80755   0.44238397   -111.36517   -8541.5113      4.31845      4.31845      4.31845   -8541.5113   -21815.499    8404.1982   -12213.233    1581.8125      3852.48   -11153.208    80.534821 
   86900    880.29866   -112.15861   0.79651273   -111.36209    4363.1477    4.3121173    4.3121173    4.3121173    4363.1477    -4408.163    14538.467    2959.1396    277.76764    1679.4783    5722.5026    80.181043 
   87000    827.69007    -112.1154   0.74891137   -111.36649   -4006.5725    4.3146403    4.3146403    4.3146403   -4006.5725    12157.336   -7797.3898   -16379.664   -5123.5723    -7465.254    8211.6531    80.321867 
   87100    939.35542   -112.21583   0.84994853   -111.36588    1287.2152    4.3168085    4.3168085    4.3168085    1287.2152    21060.943   -5161.3374    -12037.96    3056.5182    2717.1409   -12455.194    80.443015 
   87200    879.16681   -112.15898   0.79548861   -111.36349     5204.938    4.3130472    4.3130472    4.3130472     5204.938     -592.522    11381.531    4825.8051    2010.1404   -1948.4437    797.86882    80.232928 
   87300    332.27891   -111.66864   0.30065294   -111.36799   -2918.3547    4.3137318    4.3137318    4.3137318   -2918.3547   -10608.383    11450.678   -9597.3589   -860.71888   -7162.6795    5420.9246    80.271136 
   87400    448.81586   -111.77123   0.40609802   -111.36514   -4278.0387     4.318055     4.318055     4.318055   -4278.0387    -14922.74    9120.5675    -7031.944   -147.27822    3181.0208   -13730.092    80.512719 
   87500    712.05486   -112.00675    0.6442822   -111.36247    3885.5943    4.3129446    4.3129446    4.3129446    3885.5943   -7131.1408    17875.495    912.42841     9623.714   -2737.0047    4339.8585    80.227201 
   87600    721.74765   -112.01996   0.65305244   -111.36691   -922.82756    4.3120256    4.3120256    4.3120256   -922.82756    9397.3517    1299.1464   -13464.981   -5219.1878    -7981.659    5168.2401    80.175928 
   87700    1017.3562   -112.28517   0.92052523   -111.36464   -3138.7485    4.3192759    4.3192759    4.3192759   -3138.7485    14599.242   -11074.091   -12941.396   -1069.9695    4034.4135   -9603.9598    80.581034 
   87800    913.69932   -112.19015   0.82673434   -111.36342    4722.1438    4.3133127    4.3133127    4.3133127    4722.1438    5547.5654     6609.887    2008.9791    11917.246   -2547.0526    4656.6809    80.247742 
   87900    540.61591   -111.85474   0.48916064   -111.36558    4.1984564    4.3117155    4.3117155    4.3117155    4.1984564    544.97601    9136.5041   -9668.8848   -3889.1156   -6379.1684   -931.49278    80.158634 
   88000    455.16905   -111.77675   0.41184652    -111.3649   -3105.8098     4.318787     4.318787     4.318787   -3105.8098    -10073.95    6966.9594   -6210.4389    4104.2493    3142.4384   -9018.4944    80.553673 
   88100     555.9309   -111.86644   0.50301796   -111.36342    3381.6587     4.313142     4.313142     4.313142    3381.6587   -14767.751    22072.504    2840.2233    11864.956   -4204.4027    559.15093    80.238216 
   88200    703.05447   -112.00069   0.63613846   -111.36456   -730.41421    4.3130697    4.3130697    4.3130697   -730.41421   -1800.4867    8656.2794   -9047.0353   -935.51123   -5020.3309   -1627.6925    80.234181 
   88300    897.97863   -112.17654   0.81250994   -111.36403   -2365.1062    4.3170915    4.3170915    4.3170915   -2365.1062    10920.306   -11043.913    -6971.711    4133.4018    1402.1979   -6947.0735    80.458841 
   88400    882.86514   -112.16241   0.79883494   -111.36358    683.90608    4.3142941    4.3142941    4.3142941    683.90608    1758.5789   -981.23377    1274.3731    13398.682   -6245.0877    2413.2417    80.302532 
   88500    771.25267   -112.06086   0.69784562   -111.36301   -2154.8459     4.313946     4.313946     4.313946   -2154.8459    2003.0328    1490.3945    -9957.965   -3704.8696   -7326.1922    923.10703    80.283096 
   88600    491.98818   -111.80934   0.44516124   -111.36418   -3290.6642    4.3165489    4.3165489    4.3165489   -3290.6642   -6514.4245    364.11018   -3721.6785    8970.2439    2804.4547    -6090.837    80.428504 
   88700    553.36287   -111.86442   0.50069435   -111.36373   -5617.8547    4.3155527    4.3155527    4.3155527   -5617.8547   -31561.037    16697.469    -1989.996    16304.458   -7043.2938    2065.5164    80.372831 
   88800    732.08748   -112.02501   0.66240813    -111.3626    3819.8659    4.3116943    4.3116943    4.3116943    3819.8659   -4640.2175    21715.072    -5615.257   -5510.4989   -6106.0407    540.69462    80.157447 
   88900     734.0489   -112.02949   0.66418287    -111.3653   -2814.0291    4.3169789    4.3169789    4.3169789   -2814.0291    4682.6659   -10485.274   -2639.4797    15558.049    6252.5223    -6470.646    80.452545 
   89000    781.23242   -112.07171   0.70687551   -111.36484   -3440.6462    4.3165859    4.3165859    4.3165859   -3440.6462   -1599.7957    -7771.506   -950.63683    10865.498   -8098.7449    1997.0193    80.430576 
   89100    840.26511    -112.1222   0.76028953   -111.36191    4062.1149     4.310379     4.310379     4.310379    4062.1149    14134.538   -2837.2808    889.08715   -7529.7695   -2878.0331   -1794.8982    80.084116 
   89200    561.81887   -111.87377   0.50834552   -111.36543   -7381.4034    4.3172343    4.3172343    4.3172343   -7381.4034    -10608.08   -14677.787    3141.6571    16247.858    1418.4655   -3946.4606    80.466825 
   89300    584.12509   -111.89372   0.52852865   -111.36519   -7444.9444    4.3160719    4.3160719    4.3160719   -7444.9444   -36865.605    13286.735     1244.037     6900.877    -9947.598       554.96    80.401845 
   89400     734.6038   -112.02765   0.66468495   -111.36297    5990.9732    4.3100008    4.3100008    4.3100008    5990.9732   -10614.687    23524.307    5063.2997   -5747.2011   -3952.0407   -4337.1667    80.063036 
   89500    726.98593   -112.02287   0.65779214   -111.36507   -3969.6955    4.3185025    4.3185025    4.3185025   -3969.6955   -1576.4022   -7493.0107   -2839.6735    14430.705    649.95757   -2100.9975    80.537756 
   89600     717.3425   -112.01404   0.64906657   -111.36497    543.53311    4.3146618    4.3146618    4.3146618    543.53311    3737.2609   -1599.5619    -507.0997    3608.1551   -8684.0343   -708.16394    80.323068 
   89700    791.37381   -112.07928   0.71605165   -111.36323    3708.9692    4.3104377    4.3104377    4.3104377    3708.9692    14488.449   -8131.4716    4769.9306   -7717.7305   -2688.8301     -733.132    80.087387 
   89800    689.80446   -111.98742   0.62414957   -111.36327   -5256.5557    4.3195759    4.3195759    4.3195759   -5256.5557   -4711.5876   -16350.497    5292.4177    11476.056     3544.816   -3059.2663    80.597828 
   89900    578.53427   -111.88799   0.52346997   -111.36452   -2637.2285    4.3127087    4.3127087    4.3127087   -2637.2285   -32672.472    15077.482    9683.3041   -1584.4454   -13330.525    2545.8388    80.214036 
   90000    622.68458   -111.92863    0.5634181   -111.36521    740.45804    4.3121341    4.3121341    4.3121341    740.45804   -18189.872    13101.882    7309.3639   -5864.6541   -2831.8547   -1828.4664    80.181978 
   90100    812.90543   -112.09806   0.73553392   -111.36252    1474.8845      4.31856      4.31856      4.31856    1474.8845    987.81484    3079.4817    357.35705    10871.913   -95.442429    -4693.145    80.540975 
   90200    701.78972   -112.00018   0.63499409   -111.36519    3258.0256    4.3118996    4.3118996    4.3118996    3258.0256   -2089.7366    7612.3766    4251.4369   -8288.0448   -14806.317    3882.3744    80.168897 
   90300    706.55639   -112.00556   0.63930707   -111.36625   -1120.6131    4.3147885    4.3147885    4.3147885   -1120.6131    13922.074   -10807.004   -6476.9095   -7315.6268    743.24752   -4992.1239    80.330143 
   90400    868.71854    -112.1479   0.78603479   -111.36186    873.22105    4.3157383    4.3157383    4.3157383    873.22105    3189.6441   -5724.2588    5154.2779    5787.7083    563.91666   -2944.5513    80.383201 
   90500    517.00944   -111.83391   0.46780101   -111.36611   -7477.0147    4.3135247    4.3135247    4.3135247   -7477.0147   -27383.292     4486.683    465.56457   -12232.308   -10908.647    691.48735    80.259579 
   90600    503.01642    -111.8223   0.45513983   -111.36716   -6875.1264    4.3163996    4.3163996    4.3163996   -6875.1264   -19307.377    3403.5781     -4721.58   -7862.9633    3497.0917   -4074.7962    80.420159 
   90700    906.60606   -112.18137   0.82031621   -111.36105    6693.0955    4.3129183    4.3129183    4.3129183    6693.0955   -652.06124    15127.121    5604.2266    8051.7759     -1359.34   -2403.0051     80.22573 
   90800    625.86579   -111.93336   0.56629652   -111.36707   -3083.2225    4.3168445    4.3168445    4.3168445   -3083.2225   -8596.2303    3693.0989   -4346.5362   -9148.0097   -14444.526    870.76981    80.445031 
   90900    802.33661   -112.09294   0.72597102   -111.36697    994.84572    4.3130762    4.3130762    4.3130762    994.84572    7436.7693   -2651.3342   -1800.8979   -9773.5647    6315.9665   -2079.1412    80.234548 
   91000    965.68973   -112.23587   0.87377636   -111.36209    8128.9179    4.3132529    4.3132529    4.3132529    8128.9179    15740.987    3094.0854    5551.6813    5484.7906   -2673.5468   -1208.1542    80.244408 
   91100    451.79894   -111.77616   0.40879718   -111.36736   -14918.201    4.3212857    4.3212857    4.3212857   -14918.201   -26938.089   -4197.3148     -13619.2    -13363.21   -13944.005    1352.8835    80.693571 
   91200    480.74565    -111.7995   0.43498877   -111.36451    2913.4258    4.3088101    4.3088101    4.3088101    2913.4258   -8175.1958    14719.777    2195.6961   -11384.204    9051.1288   -3364.1426    79.996698 
   91300    708.78022   -112.00357   0.64131923   -111.36225    3519.4451    4.3147417    4.3147417    4.3147417    3519.4451   -416.51974    14180.969   -3206.1139    2764.4987   -6864.6991   -1986.2557    80.327531 
   91400    603.20007   -111.91255    0.5457881   -111.36676   -10091.048    4.3208922    4.3208922    4.3208922   -10091.048   -21515.448   -806.72235    -7950.975   -10946.182   -15423.255   -1060.7007    80.671532 
   91500    970.78936   -112.24127   0.87839061   -111.36287    13958.642    4.3071606    4.3071606    4.3071606    13958.642    23489.053    4347.2285    14039.646   -4712.8868    5651.0682   -2652.2065     79.90486 
   91600    1020.6238   -112.28561   0.92348188   -111.36213   -2153.3953    4.3193221    4.3193221    4.3193221   -2153.3953    2938.8757   -8498.5927   -900.46894    4806.6256   -8679.6352    126.47421    80.583623 
   91700    579.19274   -111.88998   0.52406576   -111.36592   -7396.6175    4.3162597    4.3162597    4.3162597   -7396.6175   -20537.171   -5945.7847    4293.1036    -12149.29   -12122.405    1298.4308    80.412339 
   91800    563.33559   -111.87149   0.50971788   -111.36177    8043.3864    4.3093822    4.3093822    4.3093822    8043.3864    3769.3327      8595.57    11765.256   -3510.0388    9305.7647   -543.62905    80.028568 
   91900    469.63856    -111.7874   0.42493884   -111.36246   -13450.416     4.322024     4.322024     4.322024   -13450.416   -29262.032    2235.1843   -13324.401    5531.2196   -7694.9571    1959.1358    80.734937 
   92000    463.46605   -111.78485   0.41935382    -111.3655    2927.2513    4.3104787    4.3104787    4.3104787    2927.2513   -9356.8222    10840.666    7297.9103   -17662.871   -11104.692    2090.3986    80.089673 
   92100    1048.7461   -112.31065   0.94892754   -111.36172    5727.9497     4.314691     4.314691     4.314691    5727.9497    18691.257   -628.60579   -878.80258   -1585.2626    7257.2126   -1562.3417    80.324695 
   92200    923.05799    -112.1997   0.83520226    -111.3645   -5539.9415    4.3190108    4.3190108    4.3190108   -5539.9415   -3650.6611   -2663.2367   -10305.927    7152.0648   -15994.018   -513.12781    80.566197 
   92300    696.52454   -111.99599   0.63023004   -111.36576    5396.5258    4.3084429    4.3084429    4.3084429    5396.5258    20.257672    1836.7576    14332.562   -18964.022   -9572.7897   -1567.2644    79.976248 
   92400    765.22604   -112.05318    0.6923926   -111.36079    -4409.816    4.3194723    4.3194723    4.3194723    -4409.816   -9116.4993   -7650.5294    3537.5808    439.48669    6801.5319   -539.28959    80.592025 
   92500    344.59262   -111.67803   0.31179465   -111.36623   -5688.0034    4.3124167    4.3124167    4.3124167   -5688.0034   -22595.397    4708.0703    823.31624    5806.0574    -14546.45   -1827.8724    80.197743 
   92600    430.13135    -111.7582   0.38919189   -111.36901    288.20379    4.3114705    4.3114705    4.3114705    288.20379   -9477.2574   -5520.8881    15862.757    -19893.19   -6330.7014   -353.23394    80.144967 
   92700     1018.047   -112.28257   0.92115028   -111.36142   -3541.1412    4.3210177    4.3210177    4.3210177   -3541.1412    13532.607   -14312.916   -9843.1147   -1252.3741    3049.4024    2415.8666     80.67856 
   92800    813.33002    -112.1015   0.73591809   -111.36558    5905.7261    4.3081669    4.3081669    4.3081669    5905.7261    13147.103    4545.1586    24.916758    3571.8594   -14043.016    1859.0116    79.960881 
   92900    770.76476   -112.06464   0.69740415   -111.36724   -4331.1022    4.3174725    4.3174725    4.3174725   -4331.1022    -7243.125   -9162.4605     3412.279   -15543.413   -9847.4423    78.768239     80.48014 
   93000    816.73121   -112.10115   0.73899556   -111.36215   -132.91592    4.3171616    4.3171616    4.3171616   -132.91592   -3706.8995    1299.3297    2008.8221    3812.9904    4303.3894    3086.2846     80.46276 
   93100    425.37445   -111.75002   0.38488774   -111.36513    901.76068    4.3079455    4.3079455    4.3079455    901.76068   -16853.791    11989.657    7569.4168   -580.56725   -10528.795    2122.0863    79.948554 
   93200    459.54302   -111.78197   0.41580418   -111.36617   -10553.495    4.3207528    4.3207528    4.3207528   -10553.495   -19923.591   -14096.427    2359.5319   -16815.727   -3077.6331   -1465.5848    80.663724 
   93300    902.64129   -112.17762   0.81672881   -111.36089    2891.3214    4.3125877    4.3125877    4.3125877    2891.3214    19309.837     -1167.35   -9468.5228    1649.1141     10336.76    2417.6876    80.207286 
   93400    791.92982   -112.08086   0.71655475   -111.36431   -788.21948    4.3121446    4.3121446    4.3121446   -788.21948     6675.479     -3326.55   -5713.5874   -7588.5011   -13623.053    717.65391    80.182563 
   93500    766.50226   -112.05796   0.69354736   -111.36442   -6994.2971    4.3189888    4.3189888    4.3189888   -6994.2971   -8793.4987   -15112.817    2923.4249   -15909.025    -97.50216   -985.80931    80.564966 
   93600     765.1319    -112.0541   0.69230743   -111.36179    6540.3221     4.310601     4.310601     4.310601    6540.3221    165.45567    9630.4552    9825.0554    4448.5941    7485.6267    2259.4205    80.096491 
   93700    551.93007   -111.86386   0.49939793   -111.36446   -4207.7802    4.3156757    4.3156757    4.3156757   -4207.7802   -20971.891    1013.4113    7335.1391   -3868.1095   -14507.497   -970.68148    80.379703 
   93800    505.07636   -111.82138    0.4570037   -111.36438   -2669.0801    4.3159045    4.3159045    4.3159045   -2669.0801   -10814.639   -4754.9649    7562.3638   -13197.317    4446.5118    605.47237    80.392489 
   93900    800.01647   -112.08654   0.72387171   -111.36267   -1030.3658    4.3117825    4.3117825    4.3117825   -1030.3658    8493.4373    8560.1542   -20144.689    5872.6267    11963.966     3374.018     80.16237 
   94000    822.16977   -112.10748   0.74391648   -111.36356   -2368.9877    4.3158957    4.3158957    4.3158957   -2368.9877    10902.229   -2747.1279   -15262.064   -10260.451   -10272.914   -17.682141       80.392 
   94100    701.51482   -111.99992   0.63474535   -111.36518   -406.90231    4.3143588    4.3143588    4.3143588   -406.90231    1457.6045   -2090.2148   -588.09664   -14400.136    4739.7419    240.49356    80.306146 
   94200    700.51137   -111.99747   0.63383741   -111.36363    125.43778    4.3141817    4.3141817    4.3141817    125.43778   -5158.7503    8763.3462   -3228.2826    3455.7748     15566.33    5140.6543    80.296255 
   94300    660.70665   -111.96036   0.59782126   -111.36254    2345.0115    4.3136805    4.3136805    4.3136805    2345.0115   -9493.7609   -105.33858    16634.134   -11428.474   -10672.334     1704.252    80.268277 
   94400    525.62342   -111.84123   0.47559512   -111.36564   -7793.0387    4.3152057    4.3152057    4.3152057   -7793.0387   -25199.145   -212.17582    2032.2053   -7182.5212    9819.0882   -587.78658    80.353449 
   94500    780.20721   -112.06975   0.70594788    -111.3638   -6366.3914     4.314547     4.314547     4.314547   -6366.3914    634.51753    3232.9593   -22966.651    2238.2878    18302.298    4873.6122    80.316653 
   94600    933.62477   -112.20645   0.84476331   -111.36168    774.84292    4.3139471    4.3139471    4.3139471    774.84292    17781.889   -4529.8236   -10927.537   -10935.618   -7840.6405    1027.9968    80.283155 
   94700    635.58481   -111.94068   0.57509049   -111.36559   -6603.1178    4.3163829    4.3163829    4.3163829   -6603.1178   -3198.3191   -656.44671   -15954.588   -8216.1636    14967.866   -195.26865    80.419229 
   94800    667.65248   -111.96796     0.604106   -111.36385    3210.7706    4.3121126    4.3121126    4.3121126    3210.7706    4505.2721    12056.557   -6929.5179    2820.5309    9341.8355    2541.3739    80.180782 
   94900    674.86549   -111.97279   0.61063248   -111.36216    276.52028     4.316034     4.316034     4.316034    276.52028   -13648.532    2286.2346    12191.858   -11664.926    -6960.742   -702.48814    80.399728 
   95000     472.7057   -111.79381   0.42771405   -111.36609   -9006.4284    4.3157518    4.3157518    4.3157518   -9006.4284   -37407.525    14030.151   -3641.9109    -7570.178    17435.841   -1209.4469    80.383959 
   95100    792.44352   -112.08047   0.71701955   -111.36345    1723.3428    4.3118195    4.3118195    4.3118195    1723.3428     3868.263    11791.394   -10489.628    8053.7073    5414.9617    2840.2173    80.164432 
   95200     888.0801   -112.16591   0.80355353   -111.36235   -664.13957    4.3176105    4.3176105    4.3176105   -664.13957    15327.725   -5945.5623   -11374.581   -9558.7223   -359.59428    348.24998    80.487862 
   95300    632.95539   -111.93876   0.57271134   -111.36604     572.4293    4.3126496    4.3126496    4.3126496     572.4293    5331.2233    12272.886   -15886.821   -4169.5355    21687.253   -1257.5922    80.210742 
   95400    720.12891   -112.01447   0.65158777   -111.36288      3820.21    4.3143523    4.3143523    4.3143523      3820.21    12358.007    4078.5622   -4975.9391    6522.0234    3570.4731    7021.7678    80.305782 
   95500    612.56697   -111.91711   0.55426347   -111.36285   -8329.5392    4.3173922    4.3173922    4.3173922   -8329.5392   -24742.497   -5079.7243    4833.6038    -7984.231    828.93423    28.983802    80.475653 
   95600    534.60365   -111.84832   0.48372062    -111.3646   -6272.4863    4.3110354    4.3110354    4.3110354   -6272.4863   -36010.101    17658.699   -466.05703   -8439.2353    20474.717   -2.8129229    80.120705 
   95700    892.29679   -112.16946   0.80736889   -111.36209   -1998.9437    4.3167072    4.3167072    4.3167072   -1998.9437    1119.1986   -170.72328   -6945.3065    6869.9484   -760.06875    5406.3821    80.437355 
   95800    799.29558   -112.08811   0.72321944   -111.36489   -599.86516     4.314659     4.314659     4.314659   -599.86516    13484.375   -3653.8591   -11630.112   -5631.3116    4863.3402     148.5309    80.322909 
   95900     683.0711   -111.98458   0.61805708   -111.36652    4258.0293    4.3119525    4.3119525    4.3119525    4258.0293    9292.9125    16277.518   -12796.343   -6745.6109    20303.987    282.21383    80.171848 
   96000    791.25006   -112.07732   0.71593969   -111.36138    2666.2324    4.3172337    4.3172337    4.3172337    2666.2324    7685.0116    2398.9694   -2085.2837     9608.844   -4424.4788    755.82508    80.466789 
   96100    414.90963   -111.74098   0.37541896   -111.36557   -6854.2077    4.3127009    4.3127009    4.3127009   -6854.2077   -32228.369    5674.5047    5991.2414   -7518.9936    11069.386    49.966673    80.213603 
   96200    535.49598   -111.85162   0.48452801   -111.36709   -8499.8439     4.313813     4.313813     4.313813   -8499.8439   -40923.274    13493.937    1929.8053   -8358.7027    15886.418   -1259.4827    80.275673 
   96300    931.56743   -112.20436   0.84290179   -111.36145    4318.8407    4.3160534    4.3160534    4.3160534    4318.8407    3961.3548   -1581.6414    10576.809    7651.6686   -7196.2235     2416.136    80.400811 
   96400    722.83822   -112.02098   0.65403921   -111.36694   -5121.3305    4.3135826    4.3135826    4.3135826   -5121.3305   -2216.0222   -6103.6425   -7044.3267   -8766.9718    16237.345   -25.263164    80.262809 
   96500    771.71374   -112.06584   0.69826281   -111.36758      2518.29     4.313465     4.313465     4.313465      2518.29      8210.47    5683.6724   -6339.2723   -8873.1334    15650.093   -1212.4256    80.256245 
   96600    976.46023   -112.24485   0.88352174   -111.36133    2944.1774     4.314702     4.314702     4.314702    2944.1774    5375.5729     3565.398   -108.43864    8377.1836   -4590.8318    5259.9669    80.325313 
   96700    322.76829   -111.66164   0.29204753    -111.3696   -15524.005    4.3156768    4.3156768    4.3156768   -15524.005   -43362.261    2363.8131   -5573.5668   -8289.8586    19645.508   -2863.8401    80.379767 
   96800    521.87517   -111.84057   0.47220362   -111.36837   -2873.8814    4.3121159    4.3121159    4.3121159   -2873.8814   -28590.753     12625.89    7343.2184   -10323.195    11935.568   -1114.9179    80.180962 
   96900    890.20925   -112.16749   0.80548003   -111.36201    8176.4112    4.3148365    4.3148365    4.3148365    8176.4112    2732.1856    3262.9818    18534.066    6857.7637   -6739.6586   -685.49708    80.332823 
   97000    539.27024   -111.85816   0.48794304   -111.37021   -9338.3096    4.3160042    4.3160042    4.3160042   -9338.3096   -14546.305   -9061.0217   -4407.6019   -13016.339    17982.419   -620.49275    80.398062 
   97100    840.93781    -112.1294    0.7608982    -111.3685    6713.6725    4.3107726    4.3107726    4.3107726    6713.6725    12463.623    3782.3533    3895.0411   -7638.1324    6641.5094   -3487.6824    80.106056 
   97200    1069.3668   -112.32973   0.96758557   -111.36215    2592.5845    4.3164754    4.3164754    4.3164754    2592.5845    4459.8537    6406.6779   -3088.7782    4285.2399   -4986.3313   -1488.4913    80.424398 
   97300    410.89803   -111.74248   0.37178917   -111.37069   -13448.035    4.3152126    4.3152126    4.3152126   -13448.035   -36409.196    3972.4794   -7907.3866   -14291.059    21681.563    3244.1679    80.353831 
   97400    585.07996   -111.89737   0.52939265   -111.36797    4007.5778    4.3103136    4.3103136    4.3103136    4007.5778   -8188.6073    14042.383    6168.9582   -6572.8283    4018.9529   -3847.0296    80.080469 
   97500     819.7573   -112.10402   0.74173363   -111.36229   -1218.4595    4.3175206    4.3175206    4.3175206   -1218.4595    -11713.07   -1255.6888    9313.3804     1253.223   -2235.8563    2880.9446    80.482834 
   97600    400.79781   -111.73263   0.36265028   -111.36998   -9508.8876    4.3135775    4.3135775    4.3135775   -9508.8876   -15675.288   -15153.465    2302.0901    -14651.29    19230.882   -1054.2105    80.262527 
   97700    785.36934   -112.07855   0.71061869   -111.36793    5775.3617    4.3114316    4.3114316    4.3114316    5775.3617     16881.46   -4166.1018    4610.7271   -8879.4364    -258.4748   -3603.9001    80.142797 
   97800    1041.6826   -112.30519   0.94253635   -111.36265    3425.3857    4.3176396    4.3176396    4.3176396    3425.3857    7920.7861    7838.9961    -5483.625    2147.8811   -349.44697   -532.73671     80.48949 
   97900    579.23319   -111.89316   0.52410237   -111.36905   -4215.1236    4.3125687    4.3125687    4.3125687   -4215.1236   -17997.415    10057.247   -4705.2033   -14478.566    18390.595   -2499.0679    80.206226 
   98000    704.40705   -112.00391    0.6373623   -111.36654    1669.0911    4.3124258    4.3124258    4.3124258    1669.0911   -9482.7591    14643.201   -153.16844   -739.88855    499.84102   -5936.5324    80.198254 
   98100    761.61415   -112.05165   0.68912449   -111.36253   -3391.3384    4.3172474    4.3172474    4.3172474   -3391.3384   -16998.396    4084.3819    2739.9985    2815.0795    715.61077    -2099.847    80.467555 
   98200    375.93293   -111.70753   0.34015202   -111.36738   -9724.6465    4.3137865    4.3137865    4.3137865   -9724.6465   -13252.751   -16718.359    797.17025   -15440.447    17332.092    2368.7607    80.274192 
   98300    676.43279   -111.97801    0.6120506   -111.36596    4740.2515    4.3125799    4.3125799    4.3125799    4740.2515    22450.443   -6890.4079   -1339.2801   -49.378199   -3095.1904   -7860.2896    80.206853 
   98400    950.74295   -112.22274    0.8602522   -111.36249    3183.6026    4.3154588    4.3154588    4.3154588    3183.6026    11557.464    1227.5073   -3234.1631    -2904.995    871.65394    472.90629    80.367584 
   98500    662.20465    -111.9672   0.59917669   -111.36802   -2935.0084    4.3142174    4.3142174    4.3142174   -2935.0084   -9774.7268    6010.5952   -5040.8937   -17187.042    14944.719    544.05117    80.298248 
   98600     846.0193      -112.13   0.76549604   -111.36451    1654.5199    4.3133144    4.3133144    4.3133144    1654.5199   -5380.8841    15142.516   -4798.0719   -2399.3114   -3540.8587   -6311.3319    80.247836 
   98700     770.1751   -112.05992   0.69687061   -111.36305   -1359.9622    4.3150921    4.3150921    4.3150921   -1359.9622   -20518.053    13262.165    3176.0012    5559.3631    4889.7449   -697.71674    80.347098 
   98800    412.84322   -111.74076   0.37354922   -111.36721   -7824.5723    4.3139734    4.3139734    4.3139734   -7824.5723    -16391.37    -6511.356   -570.99087   -12939.034    14531.108   -2221.8842    80.284626 
   98900    579.33338   -111.88951   0.52419302   -111.36532    5847.5536    4.3130899    4.3130899    4.3130899    5847.5536    22946.539   -3711.8989   -1691.9792   -550.08607   -1417.5162    -8750.223    80.235312 
   99000    810.88804   -112.09694   0.73370854   -111.36323   -2429.7198     4.315091     4.315091     4.315091   -2429.7198    7690.9042   -15600.818    620.75445    5974.5225    6058.8864    265.54569    80.347037 
   99100    682.58285    -111.9846   0.61761531   -111.36698   -2766.7717    4.3139783    4.3139783    4.3139783   -2766.7717   -964.32748   -510.74158    -6825.246   -15340.928    12401.554   -3874.9317    80.284901 
   99200    923.64389   -112.19997    0.8357324   -111.36424    1506.1718    4.3137285    4.3137285    4.3137285    1506.1718     1529.418    11923.551   -8934.4533    962.87281   -1640.3484   -13338.461    80.270952 
   99300    859.52997   -112.14145   0.77772078   -111.36373    32.951019    4.3138196    4.3138196    4.3138196    32.951019    -20431.02    17693.625    2836.2477    907.16611    3173.7298    3610.2856    80.276039 
   99400    513.18046   -111.83096   0.46433646   -111.36663     87.37955    4.3141797    4.3141797    4.3141797     87.37955   -8376.8727     11187.45   -2548.4389    -8738.162    11896.666   -4413.6476    80.296144 
   99500     549.8488   -111.86219   0.49751475   -111.36468   -1908.4938    4.3140181    4.3140181    4.3140181   -1908.4938     13994.24   -18256.153   -1463.5676    1043.0164   -4103.0428   -11124.288    80.287124 
   99600     571.4647   -111.88079   0.51707327   -111.36371   -4169.1757    4.3134957    4.3134957    4.3134957   -4169.1757    3642.2432   -23947.568    7797.7972    2980.8021    4623.6632    2284.8328    80.257958 
   99700     677.5785   -111.97866   0.61308727   -111.36558   -4386.2384    4.3150496    4.3150496    4.3150496   -4386.2384    4527.3321   -8663.2852   -9022.7621   -7069.0277     9742.549   -3016.6986    80.344726 
   99800    840.45933   -112.12576   0.76046527    -111.3653    5796.2262    4.3132915    4.3132915    4.3132915    5796.2262     12718.98    11092.614   -6422.9158    776.48702   -3984.7347   -13667.261    80.246562 
   99900     996.7829   -112.26581   0.90191011    -111.3639    3378.1985    4.3132432    4.3132432    4.3132432    3378.1985   -11362.727    21930.863   -433.53999    8347.9278    4699.4839    2632.2435    80.243867 
  100000    727.52097   -112.02358   0.65827626   -111.36531    59.988225    4.3161347    4.3161347    4.3161347    59.988225    91.162669    9535.6613   -9446.8593   -6810.1424    5616.8183   -11599.246    80.405355 
Loop time of 22.2871 on 1 procs for 100000 steps with 8 atoms

Pair  time (%) = 7.08253 (31.7786)
Kspce time (%) = 5.35868 (24.0439)
Neigh time (%) = 0 (0)
Comm  time (%) = 1.08575 (4.87165)
Outpt time (%) = 0.0275173 (0.123468)
Other time (%) = 8.73262 (39.1824)

Nlocal:    8 ave 8 max 8 min
Histogram: 1 0 0 0 0 0 0 0 0 0
Nghost:    2189 ave 2189 max 2189 min
Histogram: 1 0 0 0 0 0 0 0 0 0
Neighs:    2344 ave 2344 max 2344 min
Histogram: 1 0 0 0 0 0 0 0 0 0

Total # of neighbors = 2344
Ave neighs/atom = 293
Neighbor list builds = 0
Dangerous builds = 0
unfix 20
unfix 21
print "seeds:9894952"
seeds:9894952
