LAMMPS (10 Feb 2015)
# ---- initialize simulations
clear
units metal
dimension 3
boundary p p p
atom_style charge
atom_modify map array
# ---- create atoms
read_data /Users/eugeneragasa/pyflamestk_git/pypospack/tests/tests_integration/workflow/WorkflowLammpsThermalExpansion/param_9215/MgO_NaCl_unit.npt.T600/lammps.structure
  triclinic box = (0 0 0) to (4.2565 4.2565 4.2565) with tilt (0 0 0)
  1 by 1 by 1 MPI processor grid
  reading atoms ...
  8 atoms
# ---- define interatomic potential
include potential.mod
mass 1 24.305
mass 2 15.999

group Mg type 1
4 atoms in group Mg
group O type 2
4 atoms in group O

set group Mg charge 1.57990545172
  4 settings made for charge
set group O charge -1.57990545172
  4 settings made for charge

variable R_cut equal 10.0

pair_style buck/coul/long ${R_cut}
pair_style buck/coul/long 10
pair_coeff 1 1 0.0 0.5 0.0 ${R_cut}
pair_coeff 1 1 0.0 0.5 0.0 10
pair_coeff 1 2 1322.20855758 0.285006791586 0.0 ${R_cut}
pair_coeff 1 2 1322.20855758 0.285006791586 0.0 10
pair_coeff 2 2 14469.0891926 0.219096223147 48.5612274161 ${R_cut}
pair_coeff 2 2 14469.0891926 0.219096223147 48.5612274161 10

kspace_style pppm 1.0e-5

neighbor 1.0 bin
neigh_modify every 1 delay 0 check yes
# ---- define settings
compute eng all pe/atom
compute eatoms all reduce sum c_eng
# ---- run minimization
reset_timestep 0
fix 1 all box/relax iso 0.0 vmax 0.001
thermo 10
thermo_style custom step pe lx ly lz xy xz yz press pxx pyy pzz pxy pxz pyz c_eatoms
min_style cg
minimize 1e-25 1e-25 5000 10000
PPPM initialization ...
  G vector (1/distance) = 0.352172
  grid = 8 8 8
  stencil order = 5
  estimated absolute RMS force accuracy = 3.68665e-05
  estimated relative force accuracy = 2.56024e-06
  using double precision FFTs
  3d grid and FFT values/proc = 3375 512
Neighbor list info ...
  1 neighbor list requests
  update every 1 steps, delay 0 steps, check yes
  master list distance cutoff = 11
Memory usage per processor = 4.06549 Mbytes
Step PotEng Lx Ly Lz Xy Xz Yz Press Pxx Pyy Pzz Pxy Pxz Pyz eatoms 
       0   -101.30442       4.2565       4.2565       4.2565            0            0            0    88329.967    88329.967    88329.967    88329.967 -1.1961844e-11 -2.4099438e-10 5.9240466e-12   -101.30442 
      10    -101.3918     4.299065     4.299065     4.299065            0            0            0    35693.934    35693.934    35693.934    35693.934 1.4632835e-11 -2.3788485e-11 -3.8066587e-11    -101.3918 
      20   -101.41159    4.3315082    4.3315082    4.3315082            0            0            0   -5.9294003   -5.9294003   -5.9294003   -5.9294003 1.7198652e-10 1.1926792e-10 -5.3176444e-11   -101.41159 
Loop time of 0.0126121 on 1 procs for 20 steps with 8 atoms

Minimization stats:
  Stopping criterion = linesearch alpha is zero
  Energy initial, next-to-last, final = 
        -101.304424021     -101.411593199     -101.411593199
  Force two-norm initial, final = 12.7549 0.00088671
  Force max component initial, final = 12.7549 0.000886651
  Final line search alpha, max atom move = 0.015625 1.38539e-05
  Iterations, force evaluations = 20 34

Pair  time (%) = 0.00333333 (26.4296)
Kspce time (%) = 0.00219011 (17.3652)
Neigh time (%) = 0 (0)
Comm  time (%) = 0.000381708 (3.02652)
Outpt time (%) = 2.09808e-05 (0.166355)
Other time (%) = 0.00668597 (53.0123)

Nlocal:    8 ave 8 max 8 min
Histogram: 1 0 0 0 0 0 0 0 0 0
Nghost:    2189 ave 2189 max 2189 min
Histogram: 1 0 0 0 0 0 0 0 0 0
Neighs:    2344 ave 2344 max 2344 min
Histogram: 1 0 0 0 0 0 0 0 0 0

Total # of neighbors = 2344
Ave neighs/atom = 293
Neighbor list builds = 0
Dangerous builds = 0
unfix 1
# ---- define output variables ----
variable natoms equal "count(all)"
variable tot_energy equal "c_eatoms"
variable length_x equal "lx"
variable length_y equal "ly"
variable length_z equal "lz"
variable tilt_xy equal "xy"
variable tilt_xz equal "xz"
variable tilt_yz equal "yz"
variable tot_press equal "press"
variable press_xx equal "pxx"
variable press_yy equal "pyy"
variable press_zz equal "pzz"
variable press_xy equal "pxy"
variable press_xz equal "pxz"
variable press_yz equal "pyz"

# ---- output ----
print "pypospack:output_section:begin"
pypospack:output_section:begin
print "tot_energy = ${tot_energy}"
tot_energy = -101.411593198701
print "num_atoms = ${natoms}"
num_atoms = 8
print "xx = ${length_x}"
xx = 4.33150823558717
print "yy = ${length_y}"
yy = 4.33150823558717
print "zz = ${length_z}"
zz = 4.33150823558717
print "xy = ${tilt_xy}"
xy = 0
print "xz = ${tilt_xz}"
xz = 0
print "yz = ${tilt_yz}"
yz = 0
print "tot_press = ${tot_press}"
tot_press = -5.92940031006952
print "pxx = ${press_xx}"
pxx = -5.92940030994687
print "pyy = ${press_yy}"
pyy = -5.92940031012476
print "pzz = ${press_zz}"
pzz = -5.92940031013695
print "pxy = ${press_xy}"
pxy = 1.71986520125442e-10
print "pxz = ${press_xz}"
pxz = 1.19267916823708e-10
print "pyz = ${press_yz}"
pyz = -5.31764436793611e-11
print "pypospack:output_section:done"
pypospack:output_section:done
print "pypospack:lammps_sim:done"
pypospack:lammps_sim:done
#------------------------------------------------------------------------------
# RUN THERMOSTAT
# running using an NPT Nose-Hoover style thermostat
#------------------------------------------------------------------------------
variable tempdamp equal 0.1
variable pressdamp equal 1.0
# set initial velocities
velocity all create 600 8251105 mom yes dist gaussian loop all
# fix for Nose-Hoover style thermostat
fix 20 all npt temp 600 600 0.1 aniso 0.0 0.0 1.0 drag 1.0 couple xyz
variable boxx equal lx
variable boxy equal ly
variable boxz equal lz
variable boxp equal press
variable boxt equal temp
# calculate averages every 10000 steps
reset_timestep 0
fix 21 all ave/time 10 10 100 v_boxx v_boxy v_boxz v_boxp v_boxt file lattice.out
thermo_style custom step temp pe ke etotal press lx ly lz press pxx pyy pzz pxy pxz pyz vol
thermo_modify flush yes
thermo 100
run 100000
PPPM initialization ...
  G vector (1/distance) = 0.351443
  grid = 8 8 8
  stencil order = 5
  estimated absolute RMS force accuracy = 3.81088e-05
  estimated relative force accuracy = 2.64651e-06
  using double precision FFTs
  3d grid and FFT values/proc = 3375 512
Memory usage per processor = 3.06549 Mbytes
Step Temp PotEng KinEng TotEng Press Lx Ly Lz Press Pxx Pyy Pzz Pxy Pxz Pyz Volume 
       0          600    -101.4116   0.54289261   -100.86871     7127.659    4.3315082    4.3315082    4.3315082     7127.659    5648.7824    7063.2483    8670.9463   -3533.3767   -3174.2574    275.49043      81.2676 
     100    121.15915   -100.90149   0.10962735   -100.79186   -8739.5955     4.357262     4.357262     4.357262   -8739.5955   -20925.194    -3077.175   -2216.4175    5101.5082   -303.73931   -4035.8443    82.725812 
     200     535.7087   -101.12758   0.48472049   -100.64286   -5922.4508     4.353424     4.353424     4.353424   -5922.4508   -17013.654    7532.6225   -8286.3214   -1910.5356    -5143.229    1206.7575    82.507398 
     300    340.36486    -100.8308   0.30796928   -100.52283    19501.889     4.349394     4.349394     4.349394    19501.889   -4506.0074     33512.91    29498.765    1508.3355    2753.3854    1775.3091    82.278476 
     400    576.03851   -100.94065   0.52121175   -100.41944   -18883.405    4.3692073    4.3692073    4.3692073   -18883.405   -30966.803   -10420.289   -15263.122    827.45182   -4257.5661   -3462.7567    83.408048 
     500    594.75354      -100.89    0.5381455   -100.35185    19533.437    4.3537922    4.3537922    4.3537922    19533.437    3795.8896     14257.33    40547.093   -1234.2769    1182.0141   -786.37241    82.528337 
     600    650.61887   -100.91485   0.58869362   -100.32615   -21311.936    4.3693161    4.3693161    4.3693161   -21311.936   -31025.147   -14262.613   -18648.048    7687.7881    1512.5932   -7191.7472    83.414278 
     700    604.79878   -100.86168   0.54723465   -100.31445    15044.568    4.3599642    4.3599642    4.3599642    15044.568   -7485.5294    21536.377    31082.856   -2239.1216    -346.3566    3839.1439    82.879814 
     800    467.96706   -100.74055   0.42342643   -100.31713   -4529.0626    4.3625484    4.3625484    4.3625484   -4529.0626   -15922.653    20052.739   -17717.274    4428.0016    2381.7348   -1803.4853    83.027271 
     900    599.61738   -100.86355   0.54254641   -100.32101   -7477.3472    4.3661121    4.3661121    4.3661121   -7477.3472   -20861.005   -7174.5427    5603.5056    783.26025    1122.3374     -2360.76    83.230911 
    1000    805.20658   -101.04645   0.72856784   -100.31788   -427.95836    4.3575788    4.3575788    4.3575788   -427.95836   -9526.0963    11424.824   -3182.6029   -2927.3109    4142.6136   -1399.2941    82.743854 
    1100     418.6195   -100.70169   0.37877572   -100.32291   -19049.522    4.3717829    4.3717829    4.3717829   -19049.522   -20203.469   -17854.103   -19090.995    3019.4879   -361.82044   -11715.325    83.555638 
    1200    747.32366   -100.99459   0.67619415   -100.31839    12463.734    4.3559647    4.3559647    4.3559647    12463.734   -13480.294    44197.249    6674.2453   -1736.3633    5672.1084    3481.8346    82.651939 
    1300    486.82234    -100.7669   0.44048709   -100.32642   -1413.4183    4.3653478    4.3653478    4.3653478   -1413.4183   -15772.611    6277.6756    5254.6805    2612.5583    399.71906   -1929.9692    83.187206 
    1400    561.74653   -100.83004   0.50828006   -100.32176    1368.8052    4.3688346    4.3688346    4.3688346    1368.8052   -22855.012    17632.238    9329.1887   -1092.6423    2954.6178     400.7563    83.386701 
    1500    685.29086   -100.94162   0.62006557   -100.32156    6603.5938    4.3550748    4.3550748    4.3550748    6603.5938   -10022.164   -4240.4274    34073.373    3432.8011    214.66674   -3212.4876    82.601296 
    1600     614.2909   -100.88294   0.55582332   -100.32712    126.81853    4.3649216    4.3649216    4.3649216    126.81853   -15719.127    81.783164      16017.8   -409.89621    2345.5773    -8407.878    83.162844 
    1700    626.88438   -100.88875   0.56721816   -100.32153   -7778.3967    4.3701611    4.3701611    4.3701611   -7778.3967   -30018.025    5126.4151    1556.4201    276.73815   -5764.9119    954.76787    83.462681 
    1800    415.65677   -100.70043   0.37609498   -100.32433     15650.16    4.3501861    4.3501861    4.3501861     15650.16   -10443.945    26739.482    30654.945   -1339.8826    361.78054    -5566.127    82.323438 
    1900    807.70856   -101.05654   0.73083168   -100.32571   -13640.638    4.3687621    4.3687621    4.3687621   -13640.638   -24041.515   -1313.4336   -15566.965   -1922.1861    -4298.563    7951.1728    83.382555 
    2000    342.08354   -100.63627   0.30952437   -100.32674   -2061.2286    4.3619444    4.3619444    4.3619444   -2061.2286   -21931.456   -1153.7166    16901.487     552.8157    3736.0741   -1068.2659    82.992794 
    2100    808.79488   -101.05607    0.7318146   -100.32426   -1168.7135    4.3565988    4.3565988    4.3565988   -1168.7135   -13450.917    6069.4643    3875.3123   -2197.7816   -7008.7568    -4295.065    82.688043 
    2200    574.94278   -100.84545   0.52022031   -100.32523    -11798.51    4.3720961    4.3720961    4.3720961    -11798.51    -33319.12   -10989.659    8913.2497    3162.5585    3286.0509     3810.804    83.573596 
    2300    309.86698   -100.60813   0.28037416   -100.32775    24026.089    4.3514409    4.3514409    4.3514409    24026.089   -4417.0972    37317.028    39178.337    -756.9802   -3532.3774   -8304.4405    82.394697 
    2400    888.82708   -101.13406   0.80422942   -100.32983   -16408.708    4.3669872    4.3669872    4.3669872   -16408.708    -24060.81   -14368.964   -10796.351    1917.8923    4485.4885    9712.3633    83.280965 
    2500    439.42286   -100.72581   0.39759904   -100.32821    1170.5749    4.3694346    4.3694346    4.3694346    1170.5749   -28129.409     4929.238    26711.896     2944.377   -330.55847     -10107.8    83.421068 
    2600    763.92252   -101.01424   0.69121315   -100.32302   -6373.9365    4.3531198    4.3531198    4.3531198   -6373.9365   -3601.9289   -8244.1749   -7275.7058    1103.0434    1791.2676    2014.2092    82.490106 
    2700    565.80753   -100.84422   0.51195454   -100.33227   -5262.5927    4.3657945    4.3657945    4.3657945   -5262.5927   -21929.144    2885.9031    3255.4632    1669.2028    3732.2702   -5761.1207    83.212748 
    2800    607.79831    -100.8759   0.54994868   -100.32595   -12048.589    4.3703381    4.3703381    4.3703381   -12048.589   -25984.541   -3066.6621   -7094.5646    960.51003     1464.961   -11377.773    83.472825 
    2900    654.90403   -100.91199   0.59257093   -100.31942    7358.8195    4.3475127    4.3475127    4.3475127    7358.8195   -7022.6288    34321.334   -5222.2471    2012.1207    506.23925    5198.3736    82.171757 
    3000    524.00259   -100.80081   0.47412855   -100.32668    -6384.985    4.3705839    4.3705839    4.3705839    -6384.985   -17850.095   -11854.243    10549.383   -249.66923   -2018.5884   -9935.6024     83.48691 
    3100    737.70419   -100.99271   0.66749026   -100.32522   -4042.8977    4.3593642    4.3593642    4.3593642   -4042.8977   -25889.546    10803.097    2957.7554   -102.39226     1885.556    6887.9133      82.8456 
    3200    527.36786   -100.80332   0.47717352   -100.32615    11298.894    4.3561766    4.3561766    4.3561766    11298.894   -6329.7598    14632.402     25594.04    1028.0944   -2630.3592   -7662.0996    82.664005 
    3300    611.10562   -100.87861   0.55294121   -100.32567   -13012.867    4.3707524    4.3707524    4.3707524   -13012.867   -33894.188   -1515.3803   -3629.0312   -2457.7574   -2638.5329   -3569.6328    83.496568 
    3400    685.83898   -100.94495   0.62056152   -100.32439    6866.7889    4.3506564    4.3506564    4.3506564    6866.7889    -12771.59    22639.085    10732.872    2982.6269   -2491.7242   -1801.6295     82.35014 
    3500    505.38989   -100.79072   0.45728739   -100.33343   -8015.0018    4.3673906    4.3673906    4.3673906   -8015.0018   -22291.736   -10251.204    8497.9348   -3510.2056    739.20709   -3840.7688    83.304049 
    3600    670.17017   -100.93468   0.60638405    -100.3283   -11040.616    4.3645949    4.3645949    4.3645949   -11040.616   -28561.134   -5223.1454    662.43154    1223.3543   -751.84794    5260.8562    83.144175 
    3700     726.2152   -100.97849   0.65709477    -100.3214    5885.7454    4.3522942    4.3522942    4.3522942    5885.7454   -7390.8306   -4221.2022    29269.269   -1861.4692    2977.7051   -5452.9107    82.443181 
    3800    373.52236   -100.66666   0.33797088   -100.32869    390.10794    4.3695604    4.3695604    4.3695604    390.10794   -25413.208    6650.2637    19933.268    1540.9053    100.90912    1099.1299    83.428269 
    3900    741.00431   -100.99404   0.67047628   -100.32357    3811.2575    4.3588457    4.3588457    4.3588457    3811.2575   -19065.851    14100.024    16399.599   -1448.3401    3635.7329   -8259.1038    82.816045 
    4000    336.12407   -100.63203   0.30413212    -100.3279    15113.358     4.361571     4.361571     4.361571    15113.358   -16802.413    29491.551    32650.935    2035.3262    1558.1782    58.425205     82.97148 
    4100    808.03536   -101.05251   0.73112738   -100.32139   -14914.407    4.3655651    4.3655651    4.3655651   -14914.407   -23125.549   -15308.131   -6309.5408    63.265707    1657.6409    2919.6369    83.199632 
    4200    453.45625   -100.73046   0.41029674   -100.32016    8632.6563    4.3591868    4.3591868    4.3591868    8632.6563   -12156.311    19499.296    18554.984    3258.8689   -813.31447   -2395.5151    82.835487 
    4300    800.47281   -101.04508   0.72428462   -100.32079   -17176.884    4.3652945    4.3652945    4.3652945   -17176.884   -27786.768   -11396.172   -12347.713    1956.7095    1780.6362    4614.3083    83.184161 
    4400    426.56146   -100.71031   0.38596178   -100.32435    10184.164      4.35981      4.35981      4.35981    10184.164   -11445.028    28691.224    13306.296    857.46736   -43.230942   -8268.5569    82.871021 
    4500    560.77018   -100.83477   0.50739665   -100.32737    -2416.904    4.3587959    4.3587959    4.3587959    -2416.904   -22321.708    13757.869    1313.1278    5452.9221   -73.128354   -2524.3569    82.813209 
    4600    584.22174   -100.85242   0.52861611    -100.3238    2706.4183    4.3671154    4.3671154    4.3671154    2706.4183    -15607.35    3398.6156    20327.989   -392.31342    1247.9689    1937.5591    83.288304 
    4700    743.82333   -100.99337   0.67302698   -100.32034   -7319.3134    4.3574882    4.3574882    4.3574882   -7319.3134   -16173.135   -1216.6014   -4568.2039    3716.0658    -2342.829   -832.53406    82.738692 
    4800    529.95012   -100.80154      0.47951   -100.32203    6658.7917    4.3615238    4.3615238    4.3615238    6658.7917   -14071.338    -3597.156    37644.869    1835.1186    648.76936    8780.0591    82.968787 
    4900    712.18951   -100.96785   0.64440403   -100.32344   -6297.0072    4.3681638    4.3681638    4.3681638   -6297.0072   -26715.054    11649.028   -3824.9957   -229.36013   -5036.1817    -3771.588    83.348298 
    5000    619.04317   -100.88688   0.56012327   -100.32676    8805.5389    4.3525267    4.3525267    4.3525267    8805.5389   -10622.497    15530.208    21508.906     4722.671   -4285.7665    949.68208    82.456391 
    5100    318.42775   -100.62059   0.28812012   -100.33247    10367.156    4.3672937    4.3672937    4.3672937    10367.156   -22952.409    24428.306     29625.57   -1973.7382   -442.73505    1617.0376    83.298501 
    5200    902.70981   -101.14374   0.81679081   -100.32694   -22022.831    4.3674623    4.3674623    4.3674623   -22022.831   -33237.485   -24157.896   -8673.1124    6229.1026   -5902.8027   -1663.0972    83.308149 
    5300    525.15103   -100.80297   0.47516769    -100.3278    14218.199    4.3528125    4.3528125    4.3528125    14218.199   -7327.7306    28734.953    21247.373   -2580.0586    5710.4917    5715.7802    82.472638 
    5400    497.20184   -100.78798   0.44987868    -100.3381   -5578.5457    4.3688924    4.3688924    4.3688924   -5578.5457   -37068.373   -15168.625    35501.361     6775.463   -3014.1723   -3640.8884    83.390014 
    5500    762.46464   -101.02522   0.68989403   -100.33533    -3895.162    4.3632291    4.3632291    4.3632291    -3895.162   -20651.733    17408.208   -8441.9607    107.91736    8551.4255    2907.6394    83.066142 
    5600     347.3875   -100.64798   0.31432351   -100.33365    11080.773    4.3584256    4.3584256    4.3584256    11080.773   -19178.614    2789.9253    49631.008    6365.8036   -3255.7553   -2447.2236    82.792101 
    5700    662.73675   -100.92521   0.59965814   -100.32555   -10396.272    4.3698564    4.3698564    4.3698564   -10396.272   -30277.146   -1768.5362    856.86579    525.59055    5171.0786   -3926.7127    83.445227 
    5800    717.32812   -100.97318   0.64905355   -100.32413   -3151.2204    4.3590221    4.3590221    4.3590221   -3151.2204   -16082.814   -5121.4655    11750.619    5149.9549   -655.40963     5421.509    82.826101 
    5900    474.00717   -100.75531   0.42889165   -100.32642   -187.26383    4.3654566    4.3654566    4.3654566   -187.26383   -22551.255   -6817.7581    28807.221    2311.6623    1600.1307    2044.5567    83.193429 
    6000    789.42537   -101.03941   0.71428866   -100.32512   -12981.064    4.3662384    4.3662384    4.3662384   -12981.064   -22243.211   -4.7727372   -16695.209   -1523.9083   -5499.5724    6731.6181    83.238131 
    6100    395.68617   -100.68488   0.35802516   -100.32686    11346.733    4.3619013    4.3619013    4.3619013    11346.733   -19741.112    5570.6796     48210.63    5928.7257    1295.5745    2449.0771    82.990331 
    6200    651.13228   -100.91279   0.58915817   -100.32363    359.37788    4.3648554    4.3648554    4.3648554    359.37788   -23887.153    21344.846    3620.4414   -6319.5926   -6734.1044   -1156.7005    83.159063 
    6300    528.48601   -100.80528   0.47818525    -100.3271   -286.60528     4.365538     4.365538     4.365538   -286.60528   -20055.512   -1584.6037      20780.3    5601.9878   -1274.8154     1169.888    83.198085 
    6400    542.76054   -100.81896   0.49110114   -100.32786    7700.1196    4.3612523    4.3612523    4.3612523    7700.1196   -19478.122    8043.0475    34535.433   -4744.9999   -1756.0904   -116.95348    82.953293 
    6500    788.12011   -101.04137   0.71310764   -100.32826    -17377.28    4.3619885    4.3619885    4.3619885    -17377.28   -26874.986   -11994.745   -13262.109    5384.1507    2292.0006    4598.8555    82.995307 
    6600     532.1807   -100.81023   0.48152828    -100.3287   -1318.8061    4.3693692    4.3693692    4.3693692   -1318.8061   -25427.695   -9420.5671    30891.844   -1185.6643   -510.34659    270.38478    83.417321 
    6700    621.17778   -100.89032   0.56205471   -100.32826    1959.7895    4.3577831    4.3577831    4.3577831    1959.7895   -21789.817   -454.40896    28123.594      3434.26    2212.8741   -2994.3976    82.755492 
    6800    603.46341   -100.87898   0.54602638   -100.33295   -7276.9253    4.3644743    4.3644743    4.3644743   -7276.9253   -23967.537    196.28712    1940.4737    5364.3883    3958.7027   -1041.4304    83.137281 
    6900    583.30219   -100.85475   0.52778408   -100.32696    9645.1278    4.3601063    4.3601063    4.3601063    9645.1278   -15749.224   -12.754071    44697.362     271.1087    179.11132   -4290.6874     82.88792 
    7000    533.88875    -100.8064   0.48307376   -100.32333   -8367.6704    4.3667609    4.3667609    4.3667609   -8367.6704   -27351.537   -526.94403      2775.47    7078.4611    4521.2376    6850.0942     83.26802 
    7100    767.41541   -101.00913   0.69437359   -100.31475   -4045.7148    4.3622098    4.3622098    4.3622098   -4045.7148   -14200.631   -14233.057    16296.543    1214.6643    -2464.354    4600.6291    83.007941 
    7200    574.39517   -100.83876   0.51972482   -100.31904    5765.4177    4.3576338    4.3576338    4.3576338    5765.4177   -17015.469    10864.965    23446.757     3664.789    5389.8994    4587.9608    82.746986 
    7300    592.18358   -100.85609   0.53582014   -100.32026   -12395.605    4.3739875    4.3739875    4.3739875   -12395.605   -30470.692   -18516.611    11800.488    609.67549   -5191.6717    3559.2434    83.682111 
    7400    574.66271   -100.83844   0.51996689   -100.31848    16218.612    4.3537152    4.3537152    4.3537152    16218.612   -7316.9712    26496.073    29476.734    1651.7541     1854.488   -2356.2926    82.523957 
    7500     643.7716   -100.90457   0.58249807   -100.32207   -12321.801    4.3700091    4.3700091    4.3700091   -12321.801   -23419.156   -13464.704   -81.541473    128.22426   -1488.5869    8179.8559    83.453975 
    7600    561.35825   -100.82698   0.50792874   -100.31905    12272.314    4.3608201    4.3608201    4.3608201    12272.314   -12764.446    12214.823    37366.566    574.01889   -2310.5324    7482.9324    82.928636 
    7700     582.8827    -100.8488   0.52740451   -100.32139   -2101.5433    4.3619571    4.3619571    4.3619571   -2101.5433   -15570.242   -14255.416    23521.028    2376.1752    5022.9757    7532.9575    82.993518 
    7800    554.35003   -100.82224   0.50158756   -100.32065    2096.8968    4.3662605    4.3662605    4.3662605    2096.8968   -13825.309    -9339.769    29455.769   -274.58803   -2395.7476     3903.536    83.239398 
    7900     766.0594   -101.01454   0.69314664    -100.3214   -11350.402    4.3593674    4.3593674    4.3593674   -11350.402    -18064.89    -7682.874   -8303.4404    4566.3542    3740.5054    672.22423    82.845787 
    8000    472.89873   -100.75298   0.42788871   -100.32509   -3669.9516    4.3655775    4.3655775    4.3655775   -3669.9516   -9618.7824    -17793.02    16401.947   -1489.8927   -3809.6448    7884.3941    83.200338 
    8100    670.73777   -100.93042   0.60689763   -100.32352   -4861.5404    4.3612907    4.3612907    4.3612907   -4861.5404   -20628.594   -6863.5391    12907.512    6594.0469   -992.80846     137.4733    82.955488 
    8200    387.54344   -100.67448   0.35065745   -100.32382    1941.9145    4.3649191    4.3649191    4.3649191    1941.9145   -13540.446     2126.071    17240.119    891.38267   -527.24611    14128.638    83.162701 
    8300     792.0477   -101.03576    0.7166614    -100.3191   -7421.6486    4.3608101    4.3608101    4.3608101   -7421.6486   -10605.099   -14686.748    3026.9011     5499.499   -4110.9764     -1965.88    82.928064 
    8400    414.45065   -100.69544   0.37500366   -100.32043     2236.468    4.3676758    4.3676758    4.3676758     2236.468   -9766.6013    11654.162    4821.8438    1763.1082    4378.0092    6229.6717    83.320371 
    8500    823.06901   -101.06025   0.74473013   -100.31552   -2470.3823    4.3584803    4.3584803    4.3584803   -2470.3823   -9489.8079    -8631.433    10710.094    558.26667    42.290729   -2383.8897     82.79522 
    8600    428.85849   -100.71144   0.38804017    -100.3234    10307.037    4.3645637    4.3645637    4.3645637    10307.037   -10171.345    15923.025     25169.43    1207.2494    9704.2798    6669.8226    83.142389 
    8700    585.00507   -100.84918   0.52932488   -100.31985    -4437.414    4.3696647    4.3696647    4.3696647    -4437.414   -19862.474   -10598.914    17149.146    -3199.007    3031.9507    6818.3372    83.434242 
    8800    613.03153   -100.87017   0.55468381   -100.31549    10264.372    4.3561294    4.3561294    4.3561294    10264.372   -8569.4136    29286.885    10075.643    3124.7135    5323.6997   -1502.9358    82.661315 
    8900    558.03837   -100.82276   0.50492484   -100.31784   -8980.6711    4.3683482    4.3683482    4.3683482   -8980.6711   -15862.742   -7320.6667   -3758.6043    -4791.263    2591.5429     7265.656    83.358853 
    9000    640.74838   -100.89533    0.5797626   -100.31557   -2192.3189    4.3641607    4.3641607    4.3641607   -2192.3189   -18272.688    3962.9056    7732.8259    4852.5158   -2656.6425   -6205.6344    83.119361 
    9100    574.52937   -100.83702   0.51984625   -100.31717    5197.0355    4.3594245    4.3594245    4.3594245    5197.0355   -9440.2161   -2371.0336    27402.356   -4883.3064    -374.7386    2606.0175    82.849042 
    9200    612.18639   -100.87455   0.55391911   -100.32064    -11884.01    4.3657619    4.3657619    4.3657619    -11884.01   -25755.812   -21556.267    11660.048    5937.5944   -3263.7436    4982.7605    83.210882 
    9300    609.49414   -100.87118   0.55148311    -100.3197     7146.115    4.3589459    4.3589459    4.3589459     7146.115   -9644.3589    3014.8606    28067.843   -628.24477   -795.73895    1560.9518    82.821757 
    9400    672.76929   -100.92996    0.6087358   -100.32123   -9437.5175     4.365781     4.365781     4.365781   -9437.5175   -21534.276   -1420.9345   -5357.3423    5305.9812   -191.48209    8159.7222    83.211975 
    9500    501.69162   -100.77549   0.45394112   -100.32155    4131.0678    4.3619175    4.3619175    4.3619175    4131.0678   -21040.632   -13401.557    46835.392    2078.8052    1988.3972   -5925.4426    82.991255 
    9600    507.97626    -100.7828    0.4596276   -100.32317    6333.0455    4.3576974    4.3576974    4.3576974    6333.0455   -12983.985    19934.132     12048.99    3133.4298   -661.05583    9353.1945     82.75061 
    9700    768.38284   -101.01868   0.69524894   -100.32343   -12922.885    4.3675398    4.3675398    4.3675398   -12922.885   -25319.728   -13364.001   -84.925847    6468.6002   -1228.5782   -2233.2929    83.312584 
    9800     506.7186   -100.78265   0.45848964   -100.32417    8470.9929    4.3593745    4.3593745    4.3593745    8470.9929    -6333.174    22367.149    9379.0035   -5482.8667   -1581.1229    10375.425    82.846187 
    9900    720.13491   -100.97536    0.6515932   -100.32377   -11787.163    4.3643082    4.3643082    4.3643082   -11787.163   -24614.451   -13160.921    2413.8824    9867.8987    -8001.324    389.93052    83.127788 
   10000    410.80751   -100.69176   0.37170726   -100.32005    21964.859    4.3613016    4.3613016    4.3613016    21964.859   -6589.9079    28821.067    43663.419   -3492.3821   -4427.9435    1759.5892    82.956107 
   10100    645.58346   -100.90349   0.58413748   -100.31935   -9408.6815    4.3632857    4.3632857    4.3632857   -9408.6815   -17448.139   -17359.014    6581.1087    4249.0052   -6368.3829    1074.2653    83.069377 
   10200    559.86502   -100.82473   0.50657763   -100.31815    9639.1294     4.363863     4.363863     4.363863    9639.1294   -10722.347    19857.358    19782.377   -14.487102   -1110.3533   -2296.5603    83.102355 
   10300    737.08422   -100.98492    0.6669293     -100.318   -3315.0441    4.3599351    4.3599351    4.3599351   -3315.0441   -7116.4302   -6396.2376    3567.5356    3640.0579    3508.6651    8066.8305    82.878154 
   10400    444.96977   -100.72597   0.40261799   -100.32335   -1623.4555    4.3663352    4.3663352    4.3663352   -1623.4555   -17243.711   -18459.545    30832.889    233.77823    3412.8758   -710.14839    83.243667 
   10500    660.25747   -100.91815   0.59741483   -100.32074    12352.465    4.3563715    4.3563715    4.3563715    12352.465   -7870.1634    3827.5678     41099.99    5318.7949    5399.6032    5166.6816    82.675099 
   10600    573.55051   -100.84077   0.51896056   -100.32181   -10632.567    4.3705188    4.3705188    4.3705188   -10632.567   -17068.139   -16333.894    1504.3324     2729.375   -941.46941   -1317.8028    83.483176 
   10700    723.21568   -100.97159   0.65438074   -100.31721    43.288973    4.3582848    4.3582848    4.3582848    43.288973     -6441.27   -13856.731    20427.867    1386.4169    2443.7831   -3351.9255    82.784076 
   10800     559.0655   -100.82805   0.50585422    -100.3222    8091.0095    4.3590774    4.3590774    4.3590774    8091.0095    -13097.71     15067.29    22303.448    8106.1665   -4610.2433    7854.4897     82.82925 
   10900    522.70392    -100.7908   0.47295349   -100.31785   -2471.9607    4.3741437    4.3741437    4.3741437   -2471.9607   -24667.767   -26653.995     43905.88   -1889.6185   -1164.0377   -918.09678    83.691076 
   11000    673.86929   -100.92887   0.60973109   -100.31914    8592.7897    4.3468153    4.3468153    4.3468153    8592.7897   -2170.7459    12849.473    15099.642    7256.7192    649.51663    8794.3885    82.132218 
   11100    614.01244    -100.8831   0.55557136   -100.32752   -157.50207    4.3685568    4.3685568    4.3685568   -157.50207   -24183.067    1851.1647    21859.396    1789.1476   -5029.7422   -703.90945    83.370799 
   11200    619.18804   -100.88358   0.56025436   -100.32333   -7780.7518    4.3683239    4.3683239    4.3683239   -7780.7518   -21389.354   -18664.628    16711.726    4732.8852    5158.9948     4719.143    83.357466 
   11300    548.22189   -100.81727   0.49604269   -100.32122    13482.564    4.3465512    4.3465512    4.3465512    13482.564   -11125.882    17175.851    34397.722     1213.133   -9352.7929     1679.829    82.117252 
   11400    660.29598   -100.92139   0.59744968   -100.32394   -14092.759    4.3756995    4.3756995    4.3756995   -14092.759   -27869.788   -10583.513   -3824.9742    3933.1447    247.36116    3727.7797    83.780409 
   11500    627.29225   -100.88973   0.56758721   -100.32214   -7531.3558    4.3578928    4.3578928    4.3578928   -7531.3558     -19154.9   -9945.6965    6506.5296   -123.94409   -8517.5412    10300.745    82.761742 
   11600    523.34961   -100.79623   0.47353772    -100.3227    6973.8851    4.3572324    4.3572324    4.3572324    6973.8851   -19657.801   -3433.0821    44012.538   -516.11512   -4816.9077    1222.7575    82.724124 
   11700    581.57307   -100.85027   0.52621953   -100.32405   -11216.452    4.3715626    4.3715626    4.3715626   -11216.452   -21566.395   -23845.495    11762.533    2474.1535   -745.80952    8484.7278    83.543006 
   11800    695.73656   -100.94558   0.62951706   -100.31606   -19.395223    4.3547242    4.3547242    4.3547242   -19.395223   -11231.137   -16754.826    27927.777   -1830.2982   -1847.6289   -3662.9333    82.581346 
   11900    593.55129   -100.85898   0.53705768   -100.32192    -8227.762    4.3664711    4.3664711    4.3664711    -8227.762   -23886.063   -23604.229    22807.006     2936.985    4139.0131    2015.7523    83.251445 
   12000    644.54009   -100.90491   0.58319342   -100.32172   -2107.3227    4.3596455    4.3596455    4.3596455   -2107.3227   -6106.9124   -19818.398    19603.342   -2218.5273   -996.09517    4763.8361    82.861641 
   12100    401.01597   -100.68402   0.36284768   -100.32118   -1445.7922    4.3617972    4.3617972    4.3617972   -1445.7922    -19629.32   -25994.532    41286.475     5179.107    277.92371   -913.39469    82.984389 
   12200    870.02723   -101.10876   0.78721892   -100.32155   -16507.172    4.3605894    4.3605894    4.3605894   -16507.172   -16431.536   -21788.937   -11301.042    -1419.896    690.38471    3549.2399    82.915471 
   12300    488.34873   -100.77066   0.44186819   -100.32879    7385.2138    4.3596702    4.3596702    4.3596702    7385.2138   -2480.6802   -7981.8882     32618.21    5033.2496   -6043.8566   -113.59682     82.86305 
   12400    507.74879   -100.78573   0.45942178   -100.32631    1427.5908    4.3643376    4.3643376    4.3643376    1427.5908   -21683.702   -29033.051    54999.525    1016.6071    8809.9626   -3195.2239    83.129471 
   12500    623.92167   -100.89048   0.56453744   -100.32595    6490.1206    4.3578386    4.3578386    4.3578386    6490.1206    -3314.467   -4101.0751    26885.904    3987.3924   -3722.8457    3340.4022    82.758654 
   12600    643.95285   -100.91037   0.58266207    -100.3277    1971.1387    4.3658875    4.3658875    4.3658875    1971.1387    -11660.69   -12948.205    30522.311    2149.4332    930.59141    2187.2411    83.218064 
   12700    529.83339   -100.80312   0.47940439   -100.32372    4512.3612    4.3607943    4.3607943    4.3607943    4512.3612    -7586.554   -13166.848    34290.486    686.59734   -11520.662    10690.869    82.927164 
   12800    518.56648   -100.79478   0.46920985   -100.32557    8553.7121    4.3609348    4.3609348    4.3609348    8553.7121   -6519.2212   -9368.5779    41548.936    4661.7749   -8188.8301     4036.966    82.935176 
   12900    688.17796   -100.94949   0.62267788   -100.32681   -2841.6206    4.3661596    4.3661596    4.3661596   -2841.6206   -11573.545   -11465.166    14513.849   -608.26979   -3271.5401    4578.3166    83.233626 
   13000    597.21308   -100.86747   0.54037095    -100.3271   -3173.5345    4.3611339    4.3611339    4.3611339   -3173.5345   -10338.184   -10175.636    10993.217    7598.1926   -2500.1294   -4547.5629    82.946535 
   13100    428.12628   -100.71267   0.38737766   -100.32529    15718.275    4.3646621    4.3646621    4.3646621    15718.275   -11194.757   -16880.555    75230.138   -2373.6395    7285.1841   -3252.2738    83.148012 
   13200    635.56799   -100.90359   0.57507527   -100.32852   -11855.486    4.3642652    4.3642652    4.3642652   -11855.486   -25795.373   -12403.612    2632.5278    9434.3946    -4910.134    864.56916    83.125336 
   13300     694.8097   -100.95273   0.62867842   -100.32405     7297.356    4.3571959    4.3571959    4.3571959     7297.356   -2197.6613   -12076.843    36166.573   -4158.8737    2896.3343   -3273.8302    82.722045 
   13400    412.21566   -100.70152   0.37298139   -100.32854   -10630.374    4.3707685    4.3707685    4.3707685   -10630.374   -34850.884   -26278.444    29238.206    8024.1077   -4387.4715    2609.1696    83.497489 
   13500    785.18326   -101.03693   0.71045031   -100.32648    -249.9896    4.3542673    4.3542673    4.3542673    -249.9896   -13160.117   -13118.696    25528.844   -1442.8078    3786.6857   -6713.0002    82.555358 
   13600    535.77293   -100.81376   0.48477861   -100.32898   -9466.4487    4.3695018    4.3695018    4.3695018   -9466.4487   -21653.521   -29108.443    22362.618    1829.5542    563.40171    2137.8051    83.424914 
   13700    750.16992   -101.00279   0.67876951   -100.32402   -11435.396     4.365569     4.365569     4.365569   -11435.396   -29918.884   -24041.834    19654.531    3251.6258    3732.4429   -4717.0731    83.199854 
   13800    532.32791    -100.8046   0.48166148   -100.32293    10544.843    4.3587233    4.3587233    4.3587233    10544.843   -10756.012   -22570.297    64960.838   -1090.1161    -499.7061    739.80314    82.809071 
   13900     523.3666   -100.79892    0.4735531   -100.32536   -8451.5445    4.3712286    4.3712286    4.3712286   -8451.5445   -27592.063   -23161.981     25399.41    2630.4061   -3926.6014    2081.6511    83.523857 
   14000    959.40353   -101.18288   0.86808847   -100.31479   -8437.2844    4.3623014    4.3623014    4.3623014   -8437.2844    -13924.25    -17852.48    6464.8767   -2618.9002   -8186.8551    1041.2852    83.013173 
   14100    396.45409   -100.68183      0.35872   -100.32311   -3162.1666     4.363305     4.363305     4.363305   -3162.1666   -16483.583   -26047.554    33044.637    5224.8737   -3037.2167    5321.8938    83.070477 
   14200    777.61176   -101.02518   0.70359946   -100.32158    624.78872    4.3616302    4.3616302    4.3616302    624.78872   -6558.4195   -9435.8407    17868.626   -4232.4521   -6562.8334    -1289.964    82.974857 
   14300    510.47784   -100.78459   0.46189107    -100.3227   -5425.6616     4.369441     4.369441     4.369441   -5425.6616   -20513.979   -21839.744    26076.738    5749.8215    5087.2248    1074.0295    83.421429 
   14400    690.54801   -100.94654   0.62482235   -100.32171    7434.8658    4.3550744    4.3550744    4.3550744    7434.8658   -3785.7467   -12170.503    38260.847   -3585.3265   -6328.5314   -2229.8628    82.601272 
   14500    621.83025   -100.89023   0.56264508   -100.32759    540.37921    4.3658142    4.3658142    4.3658142    540.37921   -9534.1057   -10609.732    21764.975     6320.405    1905.5508     1198.186    83.213873 
   14600    477.57932   -100.75581    0.4321238   -100.32369    2538.4917    4.3694765    4.3694765    4.3694765    2538.4917   -22082.983   -18842.639    48541.097   -568.20894   -10892.379    5900.5866    83.423464 
   14700    665.45967   -100.92518   0.60212189   -100.32305    5356.3495    4.3478521    4.3478521    4.3478521    5356.3495    2444.2807   -250.44013    13875.208    6316.4264    2303.4799   -4779.3709    82.191002 
   14800    551.26763   -100.82888   0.49879853   -100.33008   -6377.3445    4.3747606    4.3747606    4.3747606   -6377.3445   -20593.775   -4161.2508    5622.9926    2968.3174   -187.05234    3131.8002     83.72649 
   14900    561.21289   -100.83156   0.50779722   -100.32377   -5099.7177    4.3625267    4.3625267    4.3625267   -5099.7177   -16064.871   -22837.818    23603.536    4897.1272    1877.0591   -12392.576    83.026036 
   15000    494.04564   -100.76561   0.44702287   -100.31858    17093.406    4.3484262    4.3484262    4.3484262    17093.406    5620.0482    13124.975    32535.195    7399.7456    9041.4842   -2643.5918    82.223565 
   15100     666.3456   -100.92089    0.6029235   -100.31796    -21265.05    4.3822371    4.3822371    4.3822371    -21265.05   -29254.061   -25679.388   -8861.7006    2282.0314   -5299.6543   -2558.0856    84.156491 
   15200    592.27172   -100.85096    0.5358999   -100.31506    11261.811    4.3484066    4.3484066    4.3484066    11261.811    6569.7121   -462.62468    27678.347    8537.3731     -24.7304    -4049.843    82.222457 
   15300    400.98459   -100.68573   0.36281929   -100.32291    16224.586    4.3603273    4.3603273    4.3603273    16224.586   -16193.602   -4634.7911    69502.151    506.75757   -9786.9715    4778.4412    82.900522 
   15400    614.14006    -100.8828   0.55568683   -100.32711   -22045.188    4.3736047    4.3736047    4.3736047   -22045.188   -29386.329   -30862.122   -5887.1136    7645.2446   -240.62927   -8460.7948    83.660137 
   15500    751.70579   -100.99909   0.68015919   -100.31893    16310.878    4.3457593    4.3457593    4.3457593    16310.878    4663.8098    10369.698    33899.127   -2562.8263   -4357.3839    4226.2507    82.072376 
   15600     515.3155   -100.79181   0.46626829   -100.32554   -20707.842    4.3733397    4.3733397    4.3733397   -20707.842   -34528.818   -33765.026    6170.3162    7578.4726   -75.496881   -5281.4642    83.644933 
   15700    622.05591   -100.88248   0.56284926   -100.31963    4339.0935    4.3610166    4.3610166    4.3610166    4339.0935   -5745.7892   -9346.4745    28109.544   -1491.7221   -740.04303    8634.0881    82.939846 
   15800    609.60231   -100.86982   0.55158098   -100.31824    1755.4465     4.357198     4.357198     4.357198    1755.4465   -11255.036   -20811.992    37333.367    4017.8705   -6084.8312    1445.1065    82.722163 
   15900    721.46312   -100.97319   0.65279499   -100.32039   -17487.841    4.3738526    4.3738526    4.3738526   -17487.841    -27314.01   -27367.045    2217.5312    2136.6458   -4971.8626    2298.7788    83.674366 
   16000    590.69231   -100.85404   0.53447081   -100.31957    17054.529    4.3543207    4.3543207    4.3543207    17054.529    3448.8836   -5790.0892    53504.792    2319.7309   -5083.6438    1757.5746    82.558392 
   16100     516.8454   -100.79219   0.46765258   -100.32453   -10066.486    4.3690766    4.3690766    4.3690766   -10066.486   -19089.192   -27372.002    16261.737     3534.384   -7176.6193   -8986.6356    83.400565 
   16200    738.05008   -100.98382   0.66780322   -100.31602    825.45878    4.3632931    4.3632931    4.3632931    825.45878   -21403.799   -11974.472    35854.647    2460.3309    6515.2712   -323.83479    83.069798 
   16300    462.16744   -100.73861   0.41817882   -100.32044   -528.47733    4.3552983    4.3552983    4.3552983   -528.47733   -5077.1343   -4430.7737     7922.476     8692.471    -5214.946   -3004.3196    82.614014 
   16400    772.38941    -101.0201   0.69887417   -100.32122   -16798.207    4.3717055    4.3717055    4.3717055   -16798.207   -21882.517   -29566.136    1054.0334    -437.3805    8447.6979    1566.2145      83.5512 
   16500    329.45683   -100.62268   0.29809947   -100.32458     13665.22    4.3556185    4.3556185    4.3556185     13665.22   -20555.584    2441.0579    59110.185    11643.356   -3570.0975    960.28649    82.632238 
   16600    734.13254   -100.99053   0.66425855   -100.32627   -3529.3889    4.3604997    4.3604997    4.3604997   -3529.3889   -5601.0961   -20982.591    15995.521    578.51365    6105.1568   -10693.895    82.910357 
   16700    533.36956   -100.80756   0.48260399   -100.32495   -5817.5346    4.3714193    4.3714193    4.3714193   -5817.5346    -23509.44   -15222.154     21278.99    8198.5476    -2660.303    252.29168    83.534792 
   16800    726.79333     -100.976   0.65761788   -100.31838     3698.524    4.3553696    4.3553696    4.3553696     3698.524   -7115.0335   -5314.3401    23524.946    1651.6655    1803.9056   -10388.329    82.618068 
   16900     512.2796   -100.78592   0.46352135    -100.3224    7187.1795    4.3627488    4.3627488    4.3627488    7187.1795   -12818.841   -12437.883    46818.263    7599.5727    4011.6008    3811.1933    83.038713 
   17000    454.02238   -100.73082   0.41080899   -100.32001   -6442.6085    4.3716604    4.3716604    4.3716604   -6442.6085   -15971.904   -11491.179    8135.2577   -1099.3662    1752.6296   -2239.4357    83.548614 
   17100     931.1393   -101.15732   0.84251441   -100.31481    -800.2607    4.3507162    4.3507162    4.3507162    -800.2607   -2864.7433   -5464.7813    5928.7425    7358.6369   -3320.7309    3601.2177    82.353538 
   17200    466.44363   -100.74844   0.42204799   -100.32639   -7193.9456    4.3705415    4.3705415    4.3705415   -7193.9456    -16436.81   -8931.9842    3786.9576    1734.2571   -5852.6325   -89.054031     83.48448 
   17300    637.87041   -100.89947   0.57715856   -100.32231    1970.6747     4.356715     4.356715     4.356715    1970.6747   -7277.2961   -10142.396    23331.716    1906.9904   -3596.6278   -3001.6086     82.69466 
   17400    513.62243   -100.78697   0.46473637   -100.32223    10831.825    4.3616308    4.3616308    4.3616308    10831.825   -14455.424    -4926.933    51877.832    8380.2917   -2881.0841   -5260.0624    82.974892 
   17500    682.38128   -100.93407   0.61743292   -100.31664   -13011.012    4.3660827    4.3660827    4.3660827   -13011.012   -21172.024   -20095.298    2234.2854    -932.8086   -5795.2444   -4191.0269    83.229232 
   17600    624.26292    -100.8804   0.56484621   -100.31555    8752.3413    4.3508022    4.3508022    4.3508022    8752.3413    2020.9811   -3689.8775     27925.92    11953.781    5506.7729   -1000.2554     82.35842 
   17700    605.88842   -100.87341   0.54822057   -100.32519   -9603.9453    4.3721321    4.3721321    4.3721321   -9603.9453   -25550.797   -19636.525    16375.486    677.96179   -2379.9025     1456.688    83.575664 
   17800    620.07156   -100.88787   0.56105378   -100.32682   -7340.0801     4.357063     4.357063     4.357063   -7340.0801   -10617.906   -24769.211    13366.877    12248.589    1134.5775    354.55656    82.714478 
   17900    508.79477   -100.78723    0.4603682   -100.32686    10380.349    4.3546514    4.3546514    4.3546514    10380.349    2763.7022   -5375.3453    33752.689   -144.15153   -2971.9969   -716.09045    82.577203 
   18000    687.38081   -100.94048   0.62195661   -100.31852   -24384.339    4.3777541    4.3777541    4.3777541   -24384.339   -24597.222   -37806.317   -10749.477     10510.29   -1052.5248   -3668.3973    83.898479 
   18100    598.39329    -100.8528   0.54143882   -100.31136    10051.269     4.348002     4.348002     4.348002    10051.269    13237.605   -8372.3758    25288.578    1837.4143    761.29231   -2795.2147    82.199506 
   18200    544.63943    -100.8161   0.49280121    -100.3233   -1184.3272    4.3652502    4.3652502    4.3652502   -1184.3272   -2965.7695   -12779.898    12192.686    4368.3611    5666.6741   -3698.4618    83.181631 
   18300    574.02109   -100.84001   0.51938635   -100.32062   -5143.5828     4.371032     4.371032     4.371032   -5143.5828   -11537.959    -26752.24     22859.45    4911.1864    6860.5022   -3497.4189    83.512589 
   18400    504.82127   -100.77238    0.4567729   -100.31561    22573.813    4.3477252    4.3477252    4.3477252    22573.813    15240.649    6277.2111    46203.578    -1965.733     4243.682   -638.64712    82.183807 
   18500    634.71616   -100.89088   0.57430452   -100.31657    -18308.15    4.3742784    4.3742784    4.3742784    -18308.15   -26158.907   -15424.351   -13341.191    7403.9132    -4177.478   -2660.8867    83.698807 
   18600    680.90742   -100.93097   0.61609934   -100.31487    2227.5047    4.3543488    4.3543488    4.3543488    2227.5047   -3518.7674    -1257.983    11459.265   -4124.5254    1435.4576   -2849.8675    82.559994 
   18700    559.87252   -100.82822   0.50658442   -100.32164   -2987.0392    4.3599573    4.3599573    4.3599573   -2987.0392   -15727.766   -6100.5975    12867.246    11097.989   -5842.5347   -4269.7685    82.879423 
   18800    684.76395   -100.93838   0.61958881   -100.31879   -14500.323    4.3688529    4.3688529    4.3688529   -14500.323   -25464.423   -15431.385   -2605.1623   -4350.8209    4500.1069   -336.96138     83.38775 
   18900    448.03617   -100.72687   0.40539254   -100.32148    12147.962    4.3527954    4.3527954    4.3527954    12147.962    287.44811    6098.4319    30058.006    9475.0548   -1416.7763   -3500.1581    82.471665 
   19000     810.7328   -101.05148   0.73356807   -100.31792   -14070.299    4.3671789    4.3671789    4.3671789   -14070.299   -16422.042    -17108.06   -8680.7939    660.29233    2357.3297    1215.6116    83.291935 
   19100    412.53281   -100.69087   0.37326836    -100.3176    5224.1741    4.3630046    4.3630046    4.3630046    5224.1741   -2537.1198   -6167.4986    24377.141    3676.2114   -2427.5432    3580.3133    83.053322 
   19200    742.56782   -100.98646   0.67189097   -100.31457   -4068.2672    4.3589484    4.3589484    4.3589484   -4068.2672   -4613.7967   -12614.466    5023.4608    2769.7496   -787.70099   -172.24496    82.821901 
   19300    353.74124   -100.64457   0.32007251    -100.3245    11155.313    4.3614795    4.3614795    4.3614795    11155.313   -1714.4658   -7953.9846    43134.389   -5019.4819   -1665.3071     4125.425    82.966256 
   19400    650.38405   -100.91443   0.58848116   -100.32595   -5661.9606    4.3639545    4.3639545    4.3639545   -5661.9606   -8493.9982   -10891.458    2399.5743    3487.5075   -4975.1034   -2203.5567    83.107581 
   19500    547.12377   -100.81795   0.49504908   -100.32291   -486.69614    4.3629077    4.3629077    4.3629077   -486.69614   -4931.7352   -12275.089    15746.735   -8241.3156    3930.3168    481.16468    83.047787 
   19600    629.27337   -100.88921   0.56937977   -100.31983   -4311.6858     4.358646     4.358646     4.358646   -4311.6858   -9670.5565   -6398.6415    3134.1405    6556.0018    3455.3011     4838.843    82.804665 
   19700    737.65153   -100.98386   0.66744261   -100.31642   -4145.8278    4.3651532    4.3651532    4.3651532   -4145.8278   -18094.032   -9211.2354    14867.784   -6078.7524    1177.4954   -5660.3869    83.176087 
   19800    501.47185   -100.76973   0.45374227   -100.31599   -6147.0944    4.3632928    4.3632928    4.3632928   -6147.0944   -16827.991    -7018.418    5405.1256    6297.2671    7017.2753    4937.9281    83.069785 
   19900     726.9411   -100.97079   0.65775158   -100.31304    10340.654     4.355284     4.355284     4.355284    10340.654   -8146.7103    2506.9235     36661.75   -3922.2363    -1713.457   -3002.2788    82.613198 
   20000    518.29113   -100.78593   0.46896071   -100.31697   -5426.7942    4.3717745    4.3717745    4.3717745   -5426.7942   -20237.392   -5183.3203    9140.3296     3094.666    63.979282   -1735.5639    83.555155 
   20100    654.18251   -100.90682   0.59191809    -100.3149    2922.3947    4.3551608    4.3551608    4.3551608    2922.3947    274.10073   -7318.3338    15811.417    2590.1187   -1326.8463   -1870.3825     82.60619 
   20200    517.19707   -100.78789   0.46797078   -100.31992    12175.679    4.3611012    4.3611012    4.3611012    12175.679    3087.4006    11621.622    21818.016   -3337.5747    1433.0723   -3111.1119    82.944672 
   20300    650.42076   -100.90669   0.58851437   -100.31818   -11800.608    4.3686607    4.3686607    4.3686607   -11800.608   -4099.1993   -24210.545   -7092.0789    5909.3849    3653.1408   -5183.1505    83.376749 
   20400    369.80011   -100.65062   0.33460291   -100.31601    21545.312       4.3535       4.3535       4.3535    21545.312    6083.8166    21969.978    36582.142   -9879.0724    2070.5244    2321.2136    82.511723 
   20500    725.86061   -100.97603   0.65677394   -100.31926   -16938.062    4.3674458    4.3674458    4.3674458   -16938.062   -17634.165   -28178.247   -5001.7759    7368.7676    1967.2774   -3178.7454    83.307204 
   20600    550.17695   -100.81368   0.49781167   -100.31587    10969.144    4.3612634    4.3612634    4.3612634    10969.144   -9841.7905    13148.945    29600.278   -8360.7229    491.70348   -3025.9931    82.953928 
   20700    733.64833   -100.97906   0.66382043   -100.31524   -15832.247    4.3646213    4.3646213    4.3646213   -15832.247   -23557.332   -12465.311   -11474.097    6846.7428   -3993.3007    3810.9403    83.145681 
   20800    613.09963   -100.86848   0.55474543   -100.31373     5097.042    4.3609706    4.3609706    4.3609706     5097.042   -13209.485     -4659.36    33159.971   -4331.1404   -1924.7377   -755.16543    82.937218 
   20900    743.06702   -100.98989   0.67234265   -100.31755   -4749.1095    4.3631471    4.3631471    4.3631471   -4749.1095   -22302.409   -4137.7544    12192.835    3779.4823   -4123.0696    1057.7535    83.061459 
   21000    545.92489   -100.81416   0.49396431   -100.32019   -5554.2751    4.3648528    4.3648528    4.3648528   -5554.2751   -20433.603   -16994.851    20765.629    6111.1477    3633.8304    1609.2818    83.158915 
   21100    630.50134   -100.88981   0.57049086   -100.31932    2099.8828    4.3591487    4.3591487    4.3591487    2099.8828   -6707.1128   -6421.7349    19428.496   -1478.5849    850.29496     1641.009    82.833319 
   21200    574.39992   -100.83955   0.51972912   -100.31982   -4718.9932    4.3622806    4.3622806    4.3622806   -4718.9932   -13609.528   -6663.3976    6115.9456    11886.037    11044.271    9413.3303    83.011982 
   21300    615.16692   -100.87289   0.55661595   -100.31627   -7501.6205    4.3615765    4.3615765    4.3615765   -7501.6205    1095.4521    -19271.58   -4328.7332   -8444.2216    41.004748   -4081.5162    82.971797 
   21400    511.15909   -100.77972   0.46250749   -100.31722   -1218.2858     4.363013     4.363013     4.363013   -1218.2858   -6917.8783    6461.5222   -3198.5013    8458.0107    10522.888    12191.827    83.053801 
   21500    642.07417   -100.89828    0.5809622   -100.31732    3024.2415     4.357067     4.357067     4.357067    3024.2415    897.87978    2865.2444    5309.6004   -4718.5011   -2555.5133   -3919.6297    82.714703 
   21600    542.39403   -100.81223   0.49076952   -100.32146   -65.593578    4.3658761    4.3658761    4.3658761   -65.593578    -6420.853    15430.195   -9206.1226    666.97346    4072.4644    13.633763    83.217416 
   21700    475.96263   -100.74978   0.43066099   -100.31912    4717.9663     4.363669     4.363669     4.363669    4717.9663   -9852.1041    3898.1165    20107.887    2134.7985    175.28818    3510.8961    83.091273 
   21800    798.56486   -101.03675   0.72255827   -100.31419    2682.4808    4.3556274    4.3556274    4.3556274    2682.4808   -5738.6395    8997.5127    4788.5692   -1840.8295    3251.1233   -4927.1649    82.632744 
   21900    443.37769   -100.71863   0.40117745   -100.31745   -2424.5806    4.3701496    4.3701496    4.3701496   -2424.5806   -24214.379   -1595.1412    18535.778    9513.6151    7013.6733    8777.1741    83.462026 
   22000    825.55897    -101.0586    0.7469831   -100.31162   -6944.5264    4.3605087    4.3605087    4.3605087   -6944.5264   -14884.532   -986.82653   -4962.2211   -3148.6841    2138.4043   -5950.2967    82.910868 
   22100    571.31569   -100.83326   0.51693844   -100.31632    4896.8554    4.3590024    4.3590024    4.3590024    4896.8554   -20527.423    12104.542    23113.447    7073.5308    6896.6118    3604.8513    82.824976 
   22200    611.99724   -100.86867   0.55374797   -100.31492   -12235.628    4.3697342    4.3697342    4.3697342   -12235.628   -22434.301   -9252.8661    -5019.716   -5994.9988    2826.8199   -6428.6979    83.438229 
   22300    751.97025   -100.99263   0.68039848   -100.31223   -8530.4747    4.3590336    4.3590336    4.3590336   -8530.4747   -15296.053   -6398.1074   -3897.2643   -281.00324     2098.692   -2003.0843    82.826758 
   22400     521.5188   -100.79212   0.47188117   -100.32024    1275.3741    4.3611648    4.3611648    4.3611648    1275.3741   -10397.874    10765.415    3458.5809    2684.7903    4597.9231    1872.8905    82.948298 
   22500    689.48719   -100.94118    0.6238625   -100.31731   -15432.081    4.3693202    4.3693202    4.3693202   -15432.081   -15321.934   -21347.657   -9626.6514   -5227.8785   -2865.2074    2333.4042    83.414511 
   22600    402.17644   -100.68279   0.36389769   -100.31889    9141.0964     4.355349     4.355349     4.355349    9141.0964     -2794.63    33118.344   -2900.4246    12859.513    5575.2188   -329.07323    82.616897 
   22700     671.3227   -100.92427   0.60742689   -100.31684    3164.6808    4.3631796    4.3631796    4.3631796    3164.6808    -1422.653   -7059.5051      17976.2   -6744.0708    419.91989    6623.3592    83.063317 
   22800    387.71098   -100.67012   0.35080904   -100.31931   -3282.0117    4.3675156    4.3675156    4.3675156   -3282.0117   -16681.919    32670.443   -25834.558    16028.321    3531.0305   -2214.5123      83.3112 
   22900    649.29266   -100.90906   0.58749365   -100.32157    8195.8967    4.3534991    4.3534991    4.3534991    8195.8967   -791.98106    4170.5591    21209.112   -11003.543    1419.3991    3272.6283    82.511669 
   23000    608.10057   -100.87692   0.55022218    -100.3267   -6218.6511    4.3656002    4.3656002    4.3656002   -6218.6511    -19150.89   -433.88192    928.81849    4835.8687    760.84965   -6768.3122    83.201642 
   23100    659.74334   -100.91603   0.59694964   -100.31908   -12658.052    4.3657889    4.3657889    4.3657889   -12658.052   -21534.896   -7195.6235   -9243.6367   -3068.1532    4911.8225    4482.3898    83.212429 
   23200    686.40924   -100.93538    0.6210775    -100.3143    3235.7542     4.355983     4.355983     4.355983    3235.7542   -14695.061    9741.0854    14661.238   -4570.2669   -3376.7925   -5760.5841    82.652979 
   23300    446.82325   -100.72528   0.40429507   -100.32099   -1129.4917    4.3663981    4.3663981    4.3663981   -1129.4917   -26517.288    21793.352    1335.4608    5709.2157     5902.721    -149.2383    83.247265 
   23400    852.95656   -101.08935   0.77177302   -100.31758    -9946.559    4.3645301    4.3645301    4.3645301    -9946.559   -19890.593    44.466067   -9993.5504    2160.1508   -3956.4184   -5836.7147    83.140471 
   23500    400.13019   -100.68307   0.36204621   -100.32103    12535.733    4.3607048    4.3607048    4.3607048    12535.733   -12438.714    42423.483    7622.4298    9521.5378    3978.1712    4908.3948    82.922058 
   23600    805.26524   -101.04485   0.72862091   -100.31623   -12227.132    4.3712458    4.3712458    4.3712458   -12227.132   -14920.926   -22184.429     423.9592   -820.78772   -2767.1047   -4607.9366    83.524847 
   23700    509.33686   -100.77517   0.46085869   -100.31431    10530.303    4.3563814    4.3563814    4.3563814    10530.303    1030.9731    31469.624   -909.68955    6589.6385     2311.994   -937.57209    82.675663 
   23800    653.85677   -100.90726   0.59162334   -100.31564   -7797.3825    4.3706475    4.3706475    4.3706475   -7797.3825   -13711.258   -9288.7018   -392.18817   -2329.5985   -332.70027    3497.5376    83.490553 
   23900    512.36084   -100.77748   0.46359485   -100.31389    14577.366     4.359506     4.359506     4.359506    14577.366    1065.1732    25342.379    17324.545   -4562.6755    1352.8935   -813.54261    82.853686 
   24000    617.12576   -100.87688   0.55838836   -100.31849    -2381.521    4.3616771    4.3616771    4.3616771    -2381.521   -5152.6877     -296.432   -1695.4433    2743.7642    162.52137   -1055.3451    82.977535 
   24100    449.66137   -100.72347   0.40686305    -100.3166    7157.5607     4.370678     4.370678     4.370678    7157.5607   -3925.8913    2578.2767    22820.297   -7589.1175    -4600.007   -1915.1014      83.4923 
   24200    783.62824   -101.02638    0.7090433   -100.31734   -2938.5279    4.3525591    4.3525591    4.3525591   -2938.5279   -2778.1812   -176.97204   -5860.4304    9329.2867    6521.2413     2995.214    82.458235 
   24300    424.36097   -100.70616   0.38397072   -100.32219    4850.1812    4.3709316    4.3709316    4.3709316    4850.1812   -6340.3206   -1727.7483    22618.613   -842.25666    2994.9981    -670.1128    83.506835 
   24400    719.93788   -100.97103   0.65141493   -100.31961   -13363.368    4.3624245    4.3624245    4.3624245   -13363.368    -21741.02    41.917654   -18391.002    10061.736    5213.6734   -2063.2334      83.0202 
   24500    563.54252   -100.82934   0.50990512   -100.31943     14344.84    4.3549464    4.3549464    4.3549464     14344.84    -6582.935    25236.591    24380.864     1114.306    591.49742    675.98728    82.593987 
   24600     648.1418   -100.90568   0.58645232   -100.31922   -15868.217    4.3725161    4.3725161    4.3725161   -15868.217   -32782.727   -1409.5042    -13412.42   -137.81149    5131.2736    -4467.365    83.597686 
   24700    515.72839   -100.78039   0.46664188   -100.31375    7663.5773    4.3593888    4.3593888    4.3593888    7663.5773   -12030.044    28119.157     6901.619    2907.9949   -408.31623   -2361.6517    82.847008 
   24800     939.7873   -101.16198    0.8503393   -100.31165   -8240.0222     4.358787     4.358787     4.358787   -8240.0222   -19192.054   -9627.9867    4099.9738   -4271.5736    3446.5928    1899.8871    82.812699 
   24900    353.59932   -100.63744   0.31994409    -100.3175   -5737.8537    4.3709753    4.3709753    4.3709753   -5737.8537   -29617.136    22721.604   -10318.029    6427.9969   -417.08312   -585.46246    83.509344 
   25000    926.58016   -101.14934    0.8383892   -100.31095   -2003.3733    4.3582864    4.3582864    4.3582864   -2003.3733   -5632.9168   -2370.4652    1993.2621   -5163.2033    1087.0579    3650.0908    82.784172 
   25100    371.71354   -100.65796   0.33633422   -100.32162     1911.419    4.3631974    4.3631974    4.3631974     1911.419   -27304.704    22296.789    10742.172    14350.861    3380.8322   -4478.6855    83.064336 
   25200    729.42877   -100.97897   0.66000248   -100.31896   -2866.2865    4.3635379    4.3635379    4.3635379   -2866.2865   -9259.6701    2361.6339   -1700.8233    249.31381    4811.8035   -722.81255    83.083784 
   25300    408.25306    -100.6913   0.36939595    -100.3219    1770.5359    4.3635818    4.3635818    4.3635818    1770.5359   -14015.462    3274.0714    16052.998    8104.1876    4776.3845   -4284.4772    83.086292 
   25400    680.41909   -100.93429   0.61565749   -100.31863    2425.7813    4.3585827    4.3585827    4.3585827    2425.7813    -8513.212    18315.713   -2525.1572    5278.5414    7812.0218    2788.6467    82.801055 
   25500    540.32897   -100.80847   0.48890101   -100.31957   -1496.2057    4.3686897    4.3686897    4.3686897   -1496.2057    -3251.056    -19834.06    18596.499    1219.9055    1207.1918   -1412.2284    83.378407 
   25600    476.99313   -100.74911   0.43159341   -100.31752   -3292.9152    4.3640615    4.3640615    4.3640615   -3292.9152   -10902.225    12571.457   -11547.977    8341.4404    6726.7467   -4678.0652    83.113693 
   25700    728.85115    -100.9722   0.65947983   -100.31272    16851.404    4.3545277    4.3545277    4.3545277    16851.404    9155.9441    17296.038    24102.231   -2489.7469   -3949.1697    4232.8437    82.570171 
   25800    493.33965   -100.76337   0.44638408   -100.31698   -22440.523    4.3743548    4.3743548    4.3743548   -22440.523   -32594.858   -11875.041    -22851.67    9833.4258     1493.051   -2850.8092    83.703192 
   25900    572.25003   -100.82851   0.51778386   -100.31073    21239.707    4.3515323    4.3515323    4.3515323    21239.707    2200.3829    37946.634    23572.105   -3938.3242    -3448.484   -7520.5149    82.399891 
   26000    664.80447   -100.92362   0.60152905    -100.3221   -19479.811    4.3689082    4.3689082    4.3689082   -19479.811   -41423.656   -12445.575   -4570.2017    15580.345    556.34373    5396.3626    83.390917 
   26100    485.61055   -100.76003   0.43939063   -100.32064    932.58822    4.3616485    4.3616485    4.3616485    932.58822   -20910.442    11194.145    12514.062    4508.7343    1857.0299   -1983.5882    82.975905 
   26200    793.72843   -101.03935   0.71818216   -100.32117    -11191.48    4.3600611    4.3600611    4.3600611    -11191.48    -26429.48   -3789.7134   -3355.2449    2679.7074    1703.3592    8246.0403    82.885341 
   26300    508.29768   -100.78426   0.45991842   -100.32434   -5956.4865    4.3658922    4.3658922    4.3658922   -5956.4865   -32768.229    5390.9568    9507.8126    9037.6719    7107.9825   -7385.1299    83.218337 
   26400    847.13134   -101.08316   0.76650224   -100.31665    -61.29633    4.3603543    4.3603543    4.3603543    -61.29633   -15623.253     16728.87   -1289.5058   -7423.3882   -3401.2363    12767.871    82.902064 
   26500    406.66078   -100.68628   0.36795522   -100.31833   -5276.9421    4.3692994    4.3692994    4.3692994   -5276.9421    -33525.97   -8736.5436    26431.687    11187.812    6366.8761   -4925.5094    83.413321 
   26600    700.54773   -100.94865    0.6338703   -100.31478    14527.598    4.3524718    4.3524718    4.3524718    14527.598   -4865.4696    36904.537    11543.725    -5385.456   -7050.7803    11082.111    82.453271 
   26700    537.45319      -100.81   0.48629894    -100.3237   -2898.7178    4.3712743    4.3712743    4.3712743   -2898.7178   -19229.124   -15832.986    26365.956    9489.7962   -5345.2534    987.69969     83.52648 
   26800    627.31458   -100.88624   0.56760742   -100.31863   -1094.2296    4.3624252    4.3624252    4.3624252   -1094.2296   -13679.894    1606.4141     8790.791    1069.0383   -8115.5948    3056.2357    83.020241 
   26900    625.55407   -100.88546   0.56601447   -100.31944    9015.9406    4.3603907    4.3603907    4.3603907    9015.9406     5871.469    13498.004    7678.3484    4075.6741   -325.59977   -2222.6702     82.90414 
   27000    646.90442   -100.90155   0.58533271   -100.31621   -7128.3176     4.370198     4.370198     4.370198   -7128.3176   -13911.705    -17613.62    10140.372    4477.7606    -1216.218   -6407.2065    83.464797 
   27100    564.65958   -100.82299   0.51091585   -100.31207    9556.2944    4.3584308    4.3584308    4.3584308    9556.2944    10225.415    6844.5391     11598.93    -3070.441   -3047.7949   -57.559457    82.792399 
   27200    554.43466   -100.81388   0.50166413   -100.31222    5584.5891    4.3683884    4.3683884    4.3683884    5584.5891    -3833.086   -6225.0216    26811.875    3714.3009    1436.6873   -187.24069    83.361159 
   27300    707.26968   -100.95443   0.63995247   -100.31448    -4415.804    4.3624924    4.3624924    4.3624924    -4415.804    4573.0947    -15709.18    -2111.327   -9095.1498    2745.3721    -5882.158    83.024076 
   27400    444.43014    -100.7206   0.40212973   -100.31847    15442.615    4.3642941    4.3642941    4.3642941    15442.615     1151.766    3584.0743    41592.006    1999.4001    10175.309    10441.685    83.126982 
   27500    628.46882   -100.89282    0.5686518   -100.32417   -11184.906    4.3654262    4.3654262    4.3654262   -11184.906   -17866.031   -458.73285   -15229.955   -13725.634    7437.7869   -1716.1176    83.191693 
   27600    518.03001   -100.78998   0.46872444   -100.32126    24349.432    4.3529099    4.3529099    4.3529099    24349.432    5299.4753    31519.205    36229.615   -2903.8543    3005.2717     8780.052    82.478175 
   27700    533.35587   -100.80134    0.4825916   -100.31875   -18248.877    4.3765807    4.3765807    4.3765807   -18248.877   -34275.396    2806.6286   -23277.863   -6390.2287    9814.5449    6982.0668    83.831034 
   27800    605.14008   -100.85935   0.54754346    -100.3118    8672.1831    4.3527321    4.3527321    4.3527321    8672.1831   -3997.3554    11762.589    18251.316   -6758.8664    2161.8668    9149.0627    82.468067 
   27900    655.52802   -100.91021   0.59313552   -100.31707   -1911.3559    4.3628564    4.3628564    4.3628564   -1911.3559   -15031.093    9922.2718   -625.24694    2720.1788    7753.4089    192.43531    83.044861 
   28000    505.73122   -100.77641   0.45759623   -100.31882   -17886.864    4.3705346    4.3705346    4.3705346   -17886.864   -26915.816    -20678.86    -6065.916   -9357.7979   -2692.8049    2522.0895    83.484085 
   28100    814.25323   -101.04907   0.73675344   -100.31232    16645.663    4.3474335    4.3474335    4.3474335    16645.663    182.15959    26761.438    22993.392    3425.1873    4021.4434    7277.0992    82.167264 
   28200    392.89751   -100.67699   0.35550192   -100.32149   -9510.8703    4.3737211    4.3737211    4.3737211   -9510.8703   -37450.115    4617.9173    4299.5872   -9430.7824   -1470.7087    320.14986    83.666817 
   28300    816.04517   -101.05093   0.73837482   -100.31256    2496.5393     4.357992     4.357992     4.357992    2496.5393   -14250.802    3887.1572    17853.263   -558.56567    4318.8977    9651.2512    82.767397 
   28400    422.36744   -100.69928   0.38216694   -100.31711    8377.2025    4.3601706    4.3601706    4.3601706    8377.2025   -16564.833    32891.799    8804.6407   -11646.614    2316.8146   -1470.8012    82.891583 
   28500    801.28055   -101.03932   0.72501548   -100.31431   -14196.405    4.3667604    4.3667604    4.3667604   -14196.405     -25466.6   -11042.012   -6080.6017    -5222.915    295.55969    3428.6389    83.267991 
   28600    586.35747   -100.84627   0.53054856   -100.31572    9530.3134    4.3577437    4.3577437    4.3577437    9530.3134   -9372.1319    22872.703    15090.369   -5206.8644    6252.6009   -2892.7345    82.753247 
   28700    560.79055   -100.82546   0.50741507   -100.31805   -13964.116    4.3669882    4.3669882    4.3669882   -13964.116   -24541.979    2209.5101   -19559.881   -5710.2379   -3896.0831    1100.7136    83.281026 
   28800    697.00058     -100.945   0.63066077   -100.31434    12282.651    4.3550161    4.3550161    4.3550161    12282.651   -5329.6836    25882.286    16295.351    6308.5212    2981.2931    1144.7638    82.597955 
   28900    409.81576   -100.69173   0.37080992   -100.32092   -13368.041    4.3708202    4.3708202    4.3708202   -13368.041   -25977.515    503.34377   -14629.951   -6640.6592   -944.50975   -11.108504     83.50045 
   29000    805.51934   -101.04624   0.72885083   -100.31739   -147.75167    4.3520258    4.3520258    4.3520258   -147.75167   -4033.5649    2985.1444    605.16553    6157.2915   -7539.5368    2098.4014    82.427931 
   29100    449.51251   -100.73252   0.40672837    -100.3258    798.13167    4.3672405    4.3672405    4.3672405    798.13167   -16655.401    22334.811   -3285.0146   -7125.0727    6299.0596   -7653.7387    83.295461 
   29200    611.24051   -100.87337   0.55306326   -100.32031    -3537.498     4.361285     4.361285     4.361285    -3537.498   -15463.365    8007.4932   -3156.6223   -455.93593   -6195.1818   -2692.7173    82.955161 
   29300     544.4139   -100.81467   0.49259714   -100.32208    17485.344    4.3487461    4.3487461    4.3487461    17485.344    981.90602    38437.956    13036.171   -4718.0451    4409.4595   -5328.0788    82.241713 
   29400    589.81969   -100.85721   0.53368125   -100.32353   -3375.1671     4.372857     4.372857     4.372857   -3375.1671    -22535.69    15263.524   -2853.3353   -7100.0029   -8726.5249   -3152.9184    83.617241 
   29500    590.70037    -100.8543   0.53447811   -100.31982    6956.4159    4.3566644    4.3566644    4.3566644    6956.4159   -6493.0102    16021.075    11341.183    4156.8356    6200.5217    3523.1572    82.691775 
   29600    636.47561   -100.89592   0.57589651   -100.32003    2807.0543    4.3551942    4.3551942    4.3551942    2807.0543    -7625.958    10955.855    5091.2663   -7504.5188   -2656.8909    1222.6715    82.608091 
   29700    626.71376   -100.88645   0.56706378   -100.31938   -4097.9515     4.368968     4.368968     4.368968   -4097.9515   -17139.287    7340.8993   -2495.4667    11836.096    2187.5314    5082.2371    83.394342 
   29800    509.40902   -100.77786   0.46092399   -100.31693    11746.747    4.3524567    4.3524567    4.3524567    11746.747   -10883.939    38466.888    7657.2903   -4464.4898    4754.2169   -3344.5095    82.452413 
   29900    631.24232   -100.88914   0.57116132   -100.31798    1208.8895    4.3618754    4.3618754    4.3618754    1208.8895   -10831.992    12461.618    1997.0423    2021.1653   -2831.0295    5057.1486    82.988855 
   30000    625.47903   -100.88088   0.56594657   -100.31493    -7774.551    4.3683478    4.3683478    4.3683478    -7774.551   -23360.456    16811.006   -16774.203   -1934.7642    6120.4462    4506.2395    83.358835 
   30100    727.39474   -100.96946   0.65816205   -100.31129    7575.2075    4.3476693    4.3476693    4.3476693    7575.2075   -6594.8354    16269.513    13050.945   -7422.9404   -4745.2684    1831.7827     82.18064 
   30200    484.74858   -100.76008    0.4386107   -100.32147   -5888.0254    4.3720424    4.3720424    4.3720424   -5888.0254   -22884.156     31344.33    -26124.25    1813.9696    6657.0873    5329.3559    83.570518 
   30300    776.50988   -101.02186   0.70260246   -100.31926   -5704.9553    4.3600555    4.3600555    4.3600555   -5704.9553   -25708.309    11686.224   -3092.7806   -8720.5911   -5828.6217     717.9606    82.885022 
   30400    549.97541   -100.81474   0.49762931   -100.31711    16342.538    4.3425576    4.3425576    4.3425576    16342.538    2973.4638    44470.199    1583.9519    12206.185    6133.6368    5738.1484     81.89111 
   30500    652.31557   -100.90714   0.59022883   -100.31691   -23137.643    4.3796773    4.3796773    4.3796773   -23137.643   -35320.743   -9237.2784   -24854.908   -2697.7129   -4021.9285    -3263.685    84.009101 
   30600    759.04758   -101.00174    0.6868022   -100.31493    12147.202    4.3446455    4.3446455    4.3446455    12147.202   -5537.4699    29304.205    12674.872    8823.8276    3702.8167   -1928.4144    82.009286 
   30700    464.83912   -100.74962    0.4205962   -100.32903   -4369.8335    4.3617071    4.3617071    4.3617071   -4369.8335   -11813.545    4842.1628   -6138.1179   -2252.7067    1805.3621    126.22405    82.979248 
   30800    664.38029   -100.92458   0.60114525   -100.32344   -3379.2906    4.3648596    4.3648596    4.3648596   -3379.2906   -20684.801    16952.213   -6405.2839   -2678.4388    1954.9735   -8264.2631    83.159303 
   30900    537.73043   -100.80795   0.48654979    -100.3214    12225.391    4.3463816    4.3463816    4.3463816    12225.391     2659.096    16740.322    17276.756    6580.2517    7160.1192    11040.515    82.107636 
   31000    633.84367    -100.8899   0.57351508   -100.31638   -15441.106    4.3722901    4.3722901    4.3722901   -15441.106   -17193.198   -9774.3248   -19355.795   -4839.6539   -605.79546    -17832.51    83.584722 
   31100    533.42183    -100.7979   0.48265128   -100.31524    11889.566    4.3477648    4.3477648    4.3477648    11889.566   -1029.2674     34735.41    1962.5558    12851.993    8064.9557    10795.321    82.186053 
   31200    527.89164   -100.79968   0.47764745   -100.32203    3296.1726    4.3637323    4.3637323    4.3637323    3296.1726   -12578.591    35688.952   -13221.843    1401.7009    649.08231   -12589.704    83.094888 
   31300    483.33292   -100.76147   0.43732978   -100.32414   -1056.2388    4.3586915    4.3586915    4.3586915   -1056.2388   -13112.416     20827.02   -10883.321    10495.272    6141.0991    2333.7112    82.807259 
   31400    613.53387   -100.88246   0.55513834   -100.32732   -3253.5112    4.3572796    4.3572796    4.3572796   -3253.5112   -6838.3492    7471.0579   -10393.242   -1063.2986    4733.1388   -2720.3466    82.726811 
   31500    647.91802   -100.90738   0.58624984   -100.32113   -1886.6428      4.36288      4.36288      4.36288   -1886.6428   -11679.737    18668.906   -12649.097    -1248.628     5224.855   -6048.0964    83.046205 
   31600    416.72186   -100.70106   0.37705869     -100.324   -9168.7415    4.3618155    4.3618155    4.3618155   -9168.7415   -15525.521    9763.1007   -21743.805     4598.782    5563.5191    8430.3845    82.985432 
   31700    742.80074   -100.99163   0.67210172   -100.31953    7308.4189    4.3531622    4.3531622    4.3531622    7308.4189    213.16187    30711.715   -8999.6199   -2038.3368    2086.2505   -18438.483    82.492517 
   31800    467.39607    -100.7503   0.42290978   -100.32739   -9463.9912    4.3665694    4.3665694    4.3665694   -9463.9912   -23064.865     11345.59   -16672.698     11479.65    2672.7769    10689.377    83.257067 
   31900    619.61652    -100.8834   0.56064205   -100.32276   -5307.9437    4.3608638    4.3608638    4.3608638   -5307.9437   -6216.3413    19995.299   -29702.789    697.32334     35.61797   -12213.379    82.931127 
   32000    668.16714   -100.92737   0.60457167   -100.32279    8669.1989      4.34911      4.34911      4.34911    8669.1989    -9588.014    31666.073    3929.5376    5134.0757    3763.4407    7022.5913    82.262363 
   32100    443.44033   -100.72384   0.40123413    -100.3226   -17667.991    4.3757935    4.3757935    4.3757935   -17667.991   -21244.433    1231.5339   -32991.075    1526.6413   -1625.8538     4609.985    83.785806 
   32200    787.30917     -101.025   0.71237389   -100.31263    10405.833    4.3432598    4.3432598    4.3432598    10405.833   -2719.8132    26245.221    7692.0923   -482.21272     1149.485   -11648.691    81.930842 
   32300    536.61745   -100.80571   0.48554275   -100.32017   -12013.736    4.3695895    4.3695895    4.3695895   -12013.736   -27801.414    12020.592   -20260.387    8778.9575      1377.27    11015.321    83.429935 
   32400    641.68353   -100.89711   0.58060875    -100.3165    1571.7451     4.355798     4.355798     4.355798    1571.7451   -8910.5717    6929.6533    6696.1537   -1164.9179   -534.34238   -9525.8939    82.642451 
   32500    469.17624   -100.74804   0.42452052   -100.32352    6619.2351    4.3543458    4.3543458    4.3543458    6619.2351   -21903.332    51121.369    -9360.331    8983.2017    2766.0597    7509.5027    82.559822 
   32600    821.62611   -101.06841   0.74342458   -100.32499   -7130.6008    4.3605037    4.3605037    4.3605037   -7130.6008   -16542.814   -1820.5754   -3028.4134   -2343.0473    780.24144   -6923.9605    82.910586 
   32700     385.8547   -100.67772   0.34912944   -100.32859    11611.797    4.3597033    4.3597033    4.3597033    11611.797   -12661.367    51583.237   -4086.4773    2118.8382    2468.5385   -9143.2531    82.864937 
   32800    852.24947   -101.09198   0.77113323   -100.32085   -4479.9366      4.35292      4.35292      4.35292   -4479.9366   -13855.704    11921.436   -11505.542    1857.4793   -357.50962   -1465.2733    82.478746 
   32900     412.9456   -100.70111   0.37364186   -100.32746     16837.76    4.3563668    4.3563668    4.3563668     16837.76   -6565.1157    64799.956   -7721.5599   -1002.1597     3939.452   -7621.9328     82.67483 
   33000    811.87589   -101.05385   0.73460236   -100.31925   -17112.153    4.3686887    4.3686887    4.3686887   -17112.153   -25114.804   -11338.657   -14882.998    5639.0773   -277.35217   -450.82525    83.378348 
   33100    462.23132   -100.73687   0.41823661   -100.31863     23013.54    4.3390676    4.3390676    4.3390676     23013.54    7093.4872    68463.218   -6516.0847   -3712.7817    2357.0309   -4266.5415    81.693827 
   33200    793.78285   -101.03724    0.7182314   -100.31901   -13636.651    4.3711231    4.3711231    4.3711231   -13636.651   -27784.191    5848.1128   -18973.874   -200.44051     1856.027   -2046.9606    83.517815 
   33300     445.9383   -100.72692   0.40349435   -100.32342    5474.1449    4.3517866    4.3517866    4.3517866    5474.1449   -7845.7736    41469.296   -17201.087   -5170.4823    48.281471   -2632.8276    82.414335 
   33400    732.93117   -100.99067   0.66317153    -100.3275    -751.1699    4.3465353    4.3465353    4.3465353    -751.1699   -7575.8489    9341.2589   -4018.9196   -6142.6917    3006.6525   -4354.5364     82.11635 
   33500    661.97605   -100.92134   0.59896984   -100.32237   -13030.854    4.3738006    4.3738006    4.3738006   -13030.854   -26693.915     21594.66   -33993.307   -1149.5082    -1826.195    4188.2558    83.671379 
   33600    404.92784   -100.69123   0.36638722   -100.32484   -1931.5324    4.3489678    4.3489678    4.3489678   -1931.5324   -8910.1647    19719.342   -16603.775   -4326.6684    4463.3492   -11701.784    82.254294 
   33700    827.53606   -101.06961   0.74877202   -100.32084    17507.411    4.3455665    4.3455665    4.3455665    17507.411   -4509.9374    56259.927    772.24372    726.44099   -4258.6781   -856.99224    82.061452 
   33800    405.76867   -100.69366   0.36714802   -100.32652   -39162.161    4.3798563    4.3798563    4.3798563   -39162.161   -36084.395   -30676.989   -50725.098   -2387.4757      4913.65    -13624.83    84.019402 
   33900    672.65614   -100.92705   0.60863341   -100.31841    26433.242    4.3302774    4.3302774    4.3302774    26433.242    8609.2026     45559.35    25131.173   -5778.2008   -2080.6763   -4709.2673    81.198343 
   34000    632.71882   -100.90451   0.57249728   -100.33202    -17717.11    4.3683569    4.3683569    4.3683569    -17717.11   -28506.942    10107.336   -34751.725    -1875.419    1068.9305   -5537.9087    83.359356 
   34100    437.30595   -100.72286   0.39568361   -100.32718   -10495.124    4.3597386    4.3597386    4.3597386   -10495.124   -15307.182    577.79304   -16755.982   -9075.9644    2328.1076   -11448.188     82.86695 
   34200    811.20126   -101.04625   0.73399195   -100.31226    19690.204    4.3325366    4.3325366    4.3325366    19690.204    5264.4304    40159.554    13646.628   -340.37128    -5189.376    811.85156    81.325498 
   34300    480.64732   -100.75222    0.4348998   -100.31732   -34434.866    4.3804146    4.3804146    4.3804146   -34434.866   -32899.703   -26408.549   -43996.347   -4465.4874     4846.628   -15873.486    84.051533 
   34400     564.8016   -100.82297   0.51104436   -100.31193    26493.182    4.3364372    4.3364372    4.3364372    26493.182   -1299.7052    62529.949    18249.302   -1129.8815   -9407.3059    5947.7248    81.545347 
   34500    570.49874   -100.83894   0.51619925   -100.32274   -10633.125    4.3559384    4.3559384    4.3559384   -10633.125   -8727.1349    1566.1834   -24738.424    2955.4736     4921.726   -9171.3616    82.650441 
   34600     719.6339   -100.96869   0.65113988   -100.31755   -10307.442    4.3644671    4.3644671    4.3644671   -10307.442   -27152.806     8848.639    -12618.16   -4985.6884    -8454.433   -2849.7604     83.13687 
   34700    489.70839   -100.76128   0.44309844   -100.31818    10306.817    4.3416696    4.3416696    4.3416696    10306.817    10908.818    21255.538    -1243.906   -488.48668    640.16513   -3536.4155    81.840881 
   34800    562.36209   -100.83527   0.50883704   -100.32644   -9165.6818     4.358582     4.358582     4.358582   -9165.6818   -13749.174    10391.177   -24139.049   -9309.8191   -1823.4345   -11049.051    82.801014 
   34900    671.49125   -100.92984   0.60757939   -100.32226   -5031.3371     4.360658     4.360658     4.360658   -5031.3371   -18483.434    16024.156   -12634.734   -3980.9575    -6817.227     384.7119    82.919388 
   35000      504.311    -100.7756   0.45631119   -100.31929    10839.755    4.3395842    4.3395842    4.3395842    10839.755    11413.175     24351.42   -3245.3307    -2594.782    7382.0363   -6828.8085    81.723013 
   35100    668.67277   -100.92564   0.60502918   -100.32061   -14676.302    4.3674233    4.3674233    4.3674233   -14676.302    -23246.02   -3342.4412   -17440.443   -4471.3687   -8393.1248    2811.3926    83.305917 
   35200    556.77205   -100.82754   0.50377905   -100.32376    8764.8175     4.345488     4.345488     4.345488    8764.8175    5721.6272    10864.218    9708.6079    5735.9438    10333.918   -8846.3754    82.057008 
   35300     555.7135   -100.82877   0.50282125   -100.32595    7198.6743    4.3491177    4.3491177    4.3491177    7198.6743   -7766.7556    28171.999    1190.7789   -4081.4941   -7446.2145    -4124.583    82.262798 
   35400    515.54977   -100.78718   0.46648026    -100.3207   -7171.1502    4.3640503    4.3640503    4.3640503   -7171.1502   -20298.269    5469.6551    -6684.837    5709.7079    3829.3798   -1697.9333    83.113057 
   35500    666.41698   -100.91919   0.60298809    -100.3162    8308.8837    4.3381367    4.3381367    4.3381367    8308.8837   -1095.2655    19161.836    6860.0804    -1637.889   -747.19782   -7577.3127     81.64126 
   35600    661.86115   -100.91707   0.59886588   -100.31821   -14720.636    4.3634711    4.3634711    4.3634711   -14720.636   -27885.587    1289.9753   -17566.296   -3570.3187    -8343.412    6252.5003    83.079965 
   35700    652.23249   -100.90856   0.59015366   -100.31841   -3579.4557     4.346995     4.346995     4.346995   -3579.4557    294.58736     -6808.11   -4224.8445    4912.6861    5233.4663   -9881.4487    82.142404 
   35800     538.4002   -100.81051   0.48715582   -100.32336    470.72588    4.3533584    4.3533584    4.3533584    470.72588   -26428.407    36114.747   -8274.1617   -4375.8594   -11741.696    351.39602     82.50367 
   35900    693.73281   -100.94982   0.62770403   -100.32211     2104.284    4.3517968    4.3517968    4.3517968     2104.284    -398.2029    10245.583   -3534.5286    8102.8753    5494.3064   -11290.374    82.414919 
   36000    410.80296   -100.69609   0.37170315   -100.32438    5348.5685    4.3555257    4.3555257    4.3555257    5348.5685   -11125.693    41718.536   -14547.138    1978.5284   -9350.7077   -7404.8708    82.626955 
   36100    685.68938   -100.93905   0.62042616   -100.31862   -4206.1853    4.3532981    4.3532981    4.3532981   -4206.1853   -17069.344    2697.1217    1753.6662    2544.3642    1370.7384   -2341.7801     82.50024 
   36200    529.77604   -100.80214    0.4793525   -100.32279    12975.589    4.3431254    4.3431254    4.3431254    12975.589    11406.113    36363.907   -8843.2525    3840.7727   -3068.3679   -10598.671    81.923237 
   36300    724.12549   -100.97434   0.65520396   -100.31914   -21966.883    4.3668698    4.3668698    4.3668698   -21966.883   -29741.394   -8602.6869   -27556.567   -7050.5064   -11228.338    5535.3421    83.274249 
   36400    507.24179   -100.77518   0.45896303   -100.31622    27379.761    4.3330228    4.3330228    4.3330228    27379.761    25230.778    44193.552    12714.953    5029.4705    2452.1963   -5925.5781    81.352876 
   36500    582.82744   -100.85379   0.52735452   -100.32644   -21673.695    4.3649215    4.3649215    4.3649215   -21673.695   -29405.751    2368.1035   -37983.439   -8252.8936   -19709.068   -2064.1817    83.162841 
   36600    769.05724   -101.01754   0.69585915   -100.32168    19878.287    4.3426891    4.3426891    4.3426891    19878.287    16196.369     33220.34    10218.153    4561.4588    738.81941   -2307.4857    81.898549 
   36700    420.60741   -100.71255   0.38057442   -100.33198   -3720.9398    4.3499521    4.3499521    4.3499521   -3720.9398   -10613.859    7635.9018   -8184.8618    3053.9577   -15238.218   -6924.8265    82.310158 
   36800    685.47334   -100.94215   0.62023068   -100.32192    -9327.358    4.3626279    4.3626279    4.3626279    -9327.358   -13986.804   -5338.1645    -8657.106    243.08519   -3655.3168     3530.957    83.031812 
   36900    646.50827   -100.90252   0.58497427   -100.31755    20137.978    4.3347619    4.3347619    4.3347619    20137.978    18740.596    25645.682    16027.657    6003.1322   -3850.8785   -4473.0013     81.45087 
   37000    499.33389   -100.77101   0.45180779    -100.3192   -25340.461    4.3686731    4.3686731    4.3686731   -25340.461   -31748.094    -15674.75   -28598.539     -1565.61   -11493.482     8890.217    83.377458 
   37100    675.48772   -100.92441   0.61119548   -100.31321    18326.863    4.3384461    4.3384461    4.3384461    18326.863    16270.651    24064.973    14644.964    1713.8741    3281.9578    2118.6753    81.658729 
   37200     559.2831   -100.83174    0.5060511   -100.32569   -24276.935    4.3594977    4.3594977    4.3594977   -24276.935   -27971.392   -6890.7595   -37968.654    2173.3118   -21277.828    240.16385    82.853215 
   37300    684.33925   -100.93846   0.61920454   -100.31925    6980.9635    4.3491268    4.3491268    4.3491268    6980.9635   -1739.2698    13858.262    8823.8983    116.51843    3849.0198    3467.6511    82.263317 
   37400    508.99841   -100.78674   0.46055246   -100.32618    -9467.117     4.350679     4.350679     4.350679    -9467.117   -23500.275   -794.83469   -4106.2416    548.41172   -17068.622   -6465.8649    82.351424 
   37500    523.49255   -100.79748   0.47366706   -100.32382    -541.4182    4.3558817    4.3558817    4.3558817    -541.4182    -7962.098   -4934.9933    11272.837    4705.5623   -2285.5783    772.65576    82.647214 
   37600     717.0754   -100.97008   0.64882489   -100.32125    10705.045    4.3391942    4.3391942    4.3391942    10705.045   -6815.4903    17488.611    21442.015   -5612.9324   -2311.1642   -2784.4196    81.700979 
   37700    491.83654   -100.76561   0.44502404   -100.32058   -23104.701    4.3661274    4.3661274    4.3661274   -23104.701   -28349.376   -20656.181   -20308.546    5145.7935   -13759.845   -2788.7693    83.231783 
   37800    756.33962    -101.0009   0.68435199   -100.31655    15125.181    4.3324418    4.3324418    4.3324418    15125.181    15467.963    14318.701    15588.878   -2754.0043    8428.5356    3063.0305    81.320159 
   37900    562.24293   -100.84092   0.50872922    -100.3322   -17121.996    4.3596593    4.3596593    4.3596593   -17121.996   -32413.883   -7102.9955   -11849.109   -667.81692   -20108.084   -6378.9813    82.862427 
   38000    602.96599   -100.86953    0.5455763   -100.32395   -8225.9791    4.3558433    4.3558433    4.3558433   -8225.9791   -8011.9892   -22140.952    5475.0042    1071.0071    7129.3061   -888.85121    82.645031 
   38100    454.38558   -100.73008   0.41113762   -100.31895    10250.557     4.335176     4.335176     4.335176    10250.557   -3116.2205    14684.854    19183.037   -2138.3853   -10763.758    -2317.735    81.474219 
   38200    699.59199    -100.9504   0.63300554   -100.31739   -21102.687    4.3662543    4.3662543    4.3662543   -21102.687   -26483.612   -20733.277   -16091.173   -1471.6834   -4265.3796   -10427.971    83.239042 
   38300    561.35034   -100.82867   0.50792159   -100.32075    1182.5606    4.3418006    4.3418006    4.3418006    1182.5606   -1657.5248    9002.3807   -3797.1742   -631.70871    7898.8233    8716.7313     81.84829 
   38400    584.59366   -100.85607   0.52895263   -100.32712   -4645.8656    4.3454094    4.3454094    4.3454094   -4645.8656   -9012.4182   -2523.2321   -2401.9465   -826.01927   -13930.467   -13351.548    82.052553 
   38500    578.34662   -100.84842   0.52330017   -100.32512   -12521.437    4.3639145    4.3639145    4.3639145   -12521.437   -20659.282   -15283.182   -1621.8475   -2812.2915    14040.006    10535.693    83.105295 
   38600    571.97946   -100.83693   0.51753904   -100.31939     16668.03    4.3336034    4.3336034    4.3336034     16668.03    1200.7905    16997.417    31805.882    4899.6577   -8230.4427   -4864.1529    81.385587 
   38700    518.86513   -100.79249   0.46948007   -100.32301   -16780.001    4.3610764    4.3610764    4.3610764   -16780.001   -16088.118    -23133.85   -11118.035   -4739.8948    1954.6336   -5886.1596    82.943254 
   38800    717.56325   -100.97245   0.64926631   -100.32318   -4732.2947    4.3473266    4.3473266    4.3473266   -4732.2947   -9600.7083    8407.2447   -13003.421    3234.4224    9100.4963    6742.4742    82.161207 
   38900    660.31609   -100.92187   0.59746787    -100.3244    4354.4986     4.341576     4.341576     4.341576    4354.4986    2734.1373    4354.1915     5975.167    1226.4969   -12052.519   -16965.356    81.835593 
   39000    494.40479   -100.77036   0.44734785   -100.32301   -20231.366    4.3633258    4.3633258    4.3633258   -20231.366   -25537.936   -26426.501   -8729.6613   -2324.8134    14436.156    9607.9662    83.071667 
   39100    613.66891   -100.87316   0.55526052    -100.3179    23191.831    4.3330159    4.3330159    4.3330159    23191.831    11192.802    15286.244    43096.448    2903.1794   -8558.9398   -7480.2829    81.352491 
   39200    578.03379    -100.8442   0.52301712   -100.32119   -21935.047    4.3648082    4.3648082    4.3648082   -21935.047   -25435.341   -26777.681   -13592.118   -1380.1307    7051.2624    1288.9343    83.156363 
   39300    605.75707   -100.86633   0.54810172   -100.31823    6874.3565    4.3386289    4.3386289    4.3386289    6874.3565   -829.60496    5116.8306    16335.844   -458.07407    4999.2695    4562.3851    81.669054 
   39400    631.08767   -100.89593   0.57102139   -100.32491   -9489.8718     4.353001     4.353001     4.353001   -9489.8718   -7842.8985   -13211.933   -7414.7842   -1182.6782   -3825.5747   -14030.991    82.483352 
   39500    667.75612   -100.92719   0.60419977   -100.32299   -3826.4523    4.3516632    4.3516632    4.3516632   -3826.4523   -17446.638   -4936.9298    10904.211   -1626.2371    11664.511    6592.2801    82.407326 
   39600    497.18215   -100.77425   0.44986086   -100.32438    5820.3005    4.3407628    4.3407628    4.3407628    5820.3005     2905.639   -5592.6091    20147.872   -2419.4127   -8545.2744    -11751.04    81.789613 
   39700    562.41805   -100.83069   0.50888767    -100.3218   -6426.5091    4.3588491    4.3588491    4.3588491   -6426.5091   -16112.125    -9660.435    6493.0328   -2469.1133    5355.7459   -5072.0079    82.816241 
   39800    721.33395   -100.97178   0.65267812   -100.31911    9993.8452    4.3387436    4.3387436    4.3387436    9993.8452    348.88373    11927.181    17705.471    15.321635   -2563.1156    1178.4354    81.675527 
   39900     521.7641   -100.79604   0.47210313   -100.32394   -16599.958    4.3575197    4.3575197    4.3575197   -16599.958    -13509.81   -18177.076   -18112.987   -2496.9337   -6197.1784   -18887.132     82.74049 
   40000    752.79768   -101.00048   0.68114717   -100.31933    11188.699    4.3428807    4.3428807    4.3428807    11188.699   -7113.8088    6238.2866     34441.62   -2320.4307    7329.8333    1673.9945    81.909389 
   40100    367.04486   -100.66079    0.3321099   -100.32868   -7556.4592    4.3544399    4.3544399    4.3544399   -7556.4592   -12703.711   -12079.279     2113.612    745.87746   -11492.095   -22805.236    82.565175 
   40200    713.41931    -100.9674   0.64551678   -100.32188    4051.0695    4.3460655    4.3460655    4.3460655    4051.0695   -9971.7579   -13927.634      36052.6   -5213.4785    7388.1939   -1266.0208    82.089726 
   40300    492.07499   -100.77277   0.44523979   -100.32753   -9398.4873    4.3491436    4.3491436    4.3491436   -9398.4873   -10627.656   -5866.0826   -11701.723     2863.551   -6471.2901   -11748.795    82.264271 
   40400    667.54622   -100.92888   0.60400985   -100.32487   -12349.001    4.3530019    4.3530019    4.3530019   -12349.001   -15376.337   -17402.899   -4267.7659   -5837.1534   -7164.5432   -8919.2834    82.483402 
   40500    713.88781   -100.96796    0.6459407   -100.32202    9860.8307    4.3402828    4.3402828    4.3402828    9860.8307    2646.7838   -5641.8444    32577.553    1305.6482    3127.0978    3105.9893    81.762484 
   40600    256.17669   -100.56513   0.23179405   -100.33333    -8558.129    4.3550818    4.3550818    4.3550818    -8558.129   -14469.686    -22690.51    11485.809   -3062.9156   -15308.337   -18053.878    82.601696 
   40700    836.91451   -101.08057   0.75725784   -100.32332    6231.8832    4.3512294    4.3512294    4.3512294    6231.8832   -8801.2169   -9086.3225    36583.189   -546.58606    3655.5184    5832.4313    82.382687 
   40800    586.95514   -100.86003   0.53108934   -100.32894   -2229.4487    4.3406094    4.3406094    4.3406094   -2229.4487    9007.8893   -12406.011   -3290.2244   -679.92237   -9552.7691   -17533.701    81.780946 
   40900    534.10071   -100.81305   0.48326555   -100.32978   -3772.4587    4.3589176    4.3589176    4.3589176   -3772.4587   -20973.196    -14745.73    24401.549   -4572.8632   -1331.8408   -624.68224    82.820144 
   41000    743.75294   -100.99939   0.67296329   -100.32643    8946.5883    4.3427028    4.3427028    4.3427028    8946.5883    3132.8524   -3689.9245    27396.837    3312.5226    3675.5437   -4427.9926    81.899323 
   41100    342.72262   -100.64617   0.31010263   -100.33607    6509.6653    4.3444869    4.3444869    4.3444869    6509.6653    576.52746   -11174.615    30127.084   -6391.8365     -8449.82   -9590.2416    82.000305 
   41200    822.77979   -101.06763   0.74446845   -100.32316   -5223.9003    4.3572284    4.3572284    4.3572284   -5223.9003   -17213.864   -8306.7096    9848.8731    3781.8948    6497.9043    6070.9354    82.723898 
   41300      474.812   -100.75602   0.42961987    -100.3264    4919.8958     4.340375     4.340375     4.340375    4919.8958    4181.0716   -3579.0188    14157.635   -3314.9817    -10011.95   -16859.158    81.767697 
   41400    781.78523   -101.03095    0.7073757   -100.32357   -9676.4595    4.3566666    4.3566666    4.3566666   -9676.4595   -14425.029   -19856.242    5251.8923    1200.5239    3818.4832    4868.7043      82.6919 
   41500    479.01576   -100.75618   0.43342353   -100.32276    17156.225    4.3412827    4.3412827    4.3412827    17156.225    1923.7443    5092.2561    44452.675    308.40439    -2537.306   -10879.799    81.819007 
   41600    435.88541   -100.72263   0.39439828   -100.32823    -10225.35    4.3554377    4.3554377    4.3554377    -10225.35   -9851.4416   -23221.662    2397.0523   -2942.1756   -2479.4528   -3032.9604    82.621948 
   41700     862.4199   -101.10171   0.78033565   -100.32137    8722.7216    4.3421958    4.3421958    4.3421958    8722.7216     4593.145    5405.7061    16169.314    3880.3279    6100.6098    2227.9405    81.870643 
   41800     439.1774   -100.72783   0.39737694   -100.33046   -8259.6465    4.3497124    4.3497124    4.3497124   -8259.6465    -4457.221   -11630.591   -8691.1277   -5732.7598   -9585.1453    -11667.34    82.296548 
   41900    717.71579   -100.97326   0.64940433   -100.32386   -6205.2914    4.3527534    4.3527534    4.3527534   -6205.2914   -6264.0427   -8407.8335   -3943.9979     2261.675    5275.8646    4586.3304    82.469279 
   42000    526.24176   -100.79914    0.4761546   -100.32298    12024.242    4.3422018    4.3422018    4.3422018    12024.242    2647.2183    6048.1269     27377.38   -2694.4725   -5870.4609   -8296.6308    81.870985 
   42100    468.81626   -100.74861   0.42419481   -100.32442   -5440.8612    4.3554378    4.3554378    4.3554378   -5440.8612   -12631.853   -17522.913    13832.182   -2169.6264   -2037.4388   -2516.5423    82.621954 
   42200    692.01896   -100.94755    0.6261533    -100.3214    6805.7431    4.3440552    4.3440552    4.3440552    6805.7431   -9847.1536    9540.7488    20723.634   -597.97235    10264.834    1665.5773    81.975866 
   42300    582.69679   -100.85342    0.5272363   -100.32618   -4968.8536    4.3507372    4.3507372    4.3507372   -4968.8536    -4352.425   -3122.7295   -7431.4065   -3967.0036   -11558.384   -8065.8284    82.354734 
   42400    737.29367   -100.99006    0.6671188   -100.32294   -2500.8477    4.3489069    4.3489069    4.3489069   -2500.8477   -13733.178   -6070.0648    12300.699    -1200.393    12348.985      6611.43    82.250839 
   42500    455.80615   -100.73786   0.41242298   -100.32544    6225.2251    4.3467293    4.3467293    4.3467293    6225.2251   -17290.276    6649.9231    29316.028    -4017.994   -7380.7532   -5914.7954    82.127346 
   42600    581.51417   -100.84941   0.52616624   -100.32325    1945.4129    4.3507091    4.3507091    4.3507091    1945.4129   -7247.7368   -7652.5088    20736.484    344.04819    625.70684    1677.2411    82.353136 
   42700    648.91133   -100.90999   0.58714861   -100.32284   -5102.3868    4.3464868    4.3464868    4.3464868   -5102.3868   -20749.355   -3638.5338    9080.7289   -7344.6712    6100.7112    2952.3011    82.113601 
   42800    610.89544   -100.87809   0.55275103   -100.32534   -817.76814    4.3481769    4.3481769    4.3481769   -817.76814     -17496.3    3779.6484    11263.347   -1111.0993    -7232.836   -8031.9267    82.209423 
   42900     728.3205   -100.98225    0.6589997   -100.32325   -12812.598    4.3551186    4.3551186    4.3551186   -12812.598   -12102.072   -16210.691    -10125.03   -3214.4856     7597.982    6776.5906    82.603786 
   43000    490.32981   -100.76684   0.44366072   -100.32318    12723.028     4.339425     4.339425     4.339425    12723.028   -13437.169    9027.9281    42578.326   -7152.6226   -4229.4983   -5676.6653    81.714017 
   43100    591.07505   -100.85898   0.53481713   -100.32416   -1983.5323    4.3559541    4.3559541    4.3559541   -1983.5323    -14775.42   -8374.9118    17199.735    3575.7151   -1399.0472    666.79239    82.651335 
   43200    571.31663   -100.84171   0.51693929   -100.32477    1077.5187    4.3462907    4.3462907    4.3462907    1077.5187   -2994.5299   -10467.359    16694.445   -8815.2753     2519.812    7940.7489    82.102489 
   43300    709.24025   -100.96449   0.64173548   -100.32275    2473.8738    4.3423817    4.3423817    4.3423817    2473.8738    -7498.809    12378.761    2541.6692    2425.2767   -8303.3581   -9514.4008    81.881159 
   43400    595.52224   -100.86235   0.53884103   -100.32351    -12999.48    4.3573994    4.3573994    4.3573994    -12999.48    -7685.453   -22435.869    -8877.119   -3348.1536    10068.477    14443.102    82.733638 
   43500    626.47297   -100.88929   0.56684591   -100.32245    6093.8055    4.3426267    4.3426267    4.3426267    6093.8055   -4286.4873    1878.7496    20689.154   -3370.3832   -6015.9351   -5759.2982    81.895018 
   43600    476.03098   -100.75511   0.43072284   -100.32438    130.01312    4.3520941    4.3520941    4.3520941    130.01312   -7058.4267   -6466.3144    13914.781    2619.4279    6959.5361    5200.3492    82.431811 
   43700    570.56849   -100.83926   0.51626236     -100.323   -1057.4255     4.348061     4.348061     4.348061   -1057.4255   -6934.8834   -18234.089    21996.696   -6525.7435    3948.9498    9224.5431    82.202851 
   43800    715.90905   -100.96943   0.64776955   -100.32166   -6718.4743    4.3504264    4.3504264    4.3504264   -6718.4743   -9827.6311   -58.164199   -10269.628     2374.733   -5894.5673    -5210.344     82.33708 
   43900    524.21479   -100.80141   0.47432055   -100.32709   -1000.7922    4.3427074    4.3427074    4.3427074   -1000.7922    2059.5568   -10307.507    5245.5737     -5593.26    9595.5371    13228.987    81.899584 
   44000    708.08328   -100.96611   0.64068863   -100.32542   -5516.4275    4.3549167    4.3549167    4.3549167   -5516.4275   -18606.331    -12181.52    14238.568   -106.55733   -7750.4619   -3556.3551      82.5923 
   44100    425.39256   -100.71319   0.38490413   -100.32829    4742.3959    4.3453003    4.3453003    4.3453003    4742.3959   -5062.7419   -9726.1313    29016.061   -3078.8268    2278.1816    6974.4449    82.046374 
   44200    604.03177   -100.87328   0.54654064   -100.32674    3075.0179    4.3441339    4.3441339    4.3441339    3075.0179    491.44293    -7333.379     16066.99   -2515.6074    3505.4859    6968.8622    81.980321 
   44300    765.11578   -101.01445   0.69229284   -100.32216   -18327.073    4.3588311    4.3588311    4.3588311   -18327.073   -25941.076   -19092.903   -9947.2413    -472.8639   -8631.9468   -668.87345    82.815211 
   44400    434.73542   -100.71822   0.39335775   -100.32486    10715.965    4.3377893    4.3377893    4.3377893    10715.965    15194.913   -4003.4703    20956.451   -5785.2783    12250.241    14433.222    81.621645 
   44500    886.33565   -101.12355   0.80197512   -100.32158   -4842.0742    4.3540654    4.3540654    4.3540654   -4842.0742   -14991.585    -10182.79    10648.151    2194.9055   -12481.211    -4585.939    82.543871 
   44600    276.89778   -100.57852   0.25054293   -100.32798     11773.11    4.3469998    4.3469998    4.3469998     11773.11   -5862.9635   -9399.1814    50581.476   -8292.9824    7530.9033    10693.067    82.142678 
   44700    678.84286   -100.93886   0.61423128   -100.32463    3898.5038    4.3470706    4.3470706    4.3470706    3898.5038    4242.0862   -6755.5959    14209.021     2583.093   -1328.6765    1687.7276    82.146695 
   44800    799.03481   -101.04658   0.72298349   -100.32359   -807.68699    4.3504544    4.3504544    4.3504544   -807.68699    -11937.12   -9225.2896    18739.349   -6145.9118   -2834.5386    631.93361    82.338675 
   44900    433.87877   -100.72289   0.39258263   -100.33031   -2206.9638    4.3464191    4.3464191    4.3464191   -2206.9638    975.14425   -6130.0923   -1465.9432   -2438.2888    12572.196    12768.737    82.109766 
   45000    748.16753   -101.00001   0.67695771   -100.32305    4349.2422    4.3514768    4.3514768    4.3514768    4349.2422   -9842.2724    -12386.75    35276.749    785.38272   -6131.9976   -4060.6778    82.396739 
   45100    392.99452    -100.6854    0.3555897   -100.32981   -4139.8798     4.349952     4.349952     4.349952   -4139.8798   -14095.346   -13462.135    15137.841   -7058.8529    14541.755    10081.564    82.310148 
   45200    711.28831   -100.96782   0.64358861   -100.32423    11004.754    4.3407308    4.3407308    4.3407308    11004.754   -1649.5664    11719.589    22944.239    4036.9866    1242.3717    1014.4395    81.787805 
   45300    603.65508   -100.87333    0.5461998   -100.32713   -18253.185    4.3575607    4.3575607    4.3575607   -18253.185   -21779.447   -22404.742   -10575.366    -6031.115    2315.7577    4136.9084    82.742825 
   45400    555.56186    -100.8335   0.50268405   -100.33082    653.47612    4.3405771    4.3405771    4.3405771    653.47612   -3662.3434    6813.8709   -1191.0992    1880.0718    13684.518    9260.7162    81.779119 
   45500    746.51425    -101.0013   0.67546178   -100.32584    12156.463    4.3469703    4.3469703    4.3469703    12156.463   -13231.451    1755.9013    47944.939   -721.83979   -7781.5545   -707.99347    82.141004 
   45600    229.10422   -100.53946   0.20729831   -100.33216   -11395.737    4.3560113    4.3560113    4.3560113   -11395.737   -18021.248   -22872.174    6706.2104   -826.55946    15736.144    12820.772    82.654594 
   45700    906.40213   -101.14109   0.82013169   -100.32096    13096.618    4.3398599    4.3398599    4.3398599    13096.618    2204.5683    11930.293    25154.993    2119.1329   -4348.0312   -3633.0475    81.738586 
   45800    601.16517   -100.86999   0.54394688   -100.32605   -13490.163    4.3549547    4.3549547    4.3549547   -13490.163   -21149.049   -9844.9406   -9476.5007    59.463556     11296.34    7482.9586    82.594459 
   45900    425.89651   -100.71336   0.38536012     -100.328     6745.322    4.3437942    4.3437942    4.3437942     6745.322    205.71422   -12680.571    32710.823    2476.6421    5428.9302    769.65432     81.96109 
   46000    787.45673   -101.03623    0.7125074   -100.32372    3458.9472    4.3505145    4.3505145    4.3505145    3458.9472   -12204.755   -1572.5879    24154.184   -1970.9107   -1537.6654   -6402.1527    82.342086 
   46100    415.24233   -100.70624   0.37571998   -100.33052     3360.667    4.3437015    4.3437015    4.3437015     3360.667   -8806.4204   -8782.6244    27671.046    6784.8188    12601.807    11695.217     81.95584 
   46200     774.2433   -101.02329   0.70055161   -100.32273   -8872.0962    4.3548355    4.3548355    4.3548355   -8872.0962   -6472.7379   -19441.404   -702.14703   -2513.6212   -5182.5469   -7595.7745    82.587682 
   46300    549.15519   -100.82351   0.49688716   -100.32662   -1752.4487    4.3449675    4.3449675    4.3449675   -1752.4487    -11027.83   -3216.2678    8986.7513    2831.1465    11605.594    9404.8616    82.027524 
   46400    666.38431   -100.92926   0.60295853    -100.3263    459.24481     4.347084     4.347084     4.347084    459.24481   -4385.3749   -14781.821     20544.93    5399.8344    3237.3499    2011.4956     82.14745 
   46500    449.37941   -100.72926   0.40660793   -100.32265   -2858.9525    4.3559918    4.3559918    4.3559918   -2858.9525   -15046.068   -17447.022    23916.233   -3531.6529     261.1146   -2129.2067    82.653483 
   46600    512.63504   -100.79062   0.46384295   -100.32677    -318.8573    4.3376738    4.3376738    4.3376738    -318.8573   -1513.4904   -5156.2945    5713.2131    7852.6822    14520.064     14419.69    81.615131 
   46700    866.41095   -101.10645   0.78394683    -100.3225   -7107.9147    4.3534916    4.3534916    4.3534916   -7107.9147   -10114.349   -6977.8742   -4231.5206   -673.49773   -10543.289   -9513.3782    82.511246 
   46800    406.16437   -100.69479   0.36750606   -100.32728   -18575.998    4.3527899    4.3527899    4.3527899   -18575.998   -15699.489   -25936.403   -14092.101    2526.7406    12178.314    16397.233    82.471354 
   46900     674.1637   -100.93247   0.60999749   -100.32247    10708.188    4.3383339    4.3383339    4.3383339    10708.188     1984.156    1011.8436    29128.565    2910.9199   -5578.9761    2300.4307    81.652394 
   47000    551.18643   -100.82494   0.49872507   -100.32621    -13216.32    4.3594411    4.3594411    4.3594411    -13216.32   -27234.587   -18988.267    6573.8933    551.28782    -1146.075    5019.0197    82.849984 
   47100     426.1263   -100.71278   0.38556803   -100.32721    -2088.111    4.3427336    4.3427336    4.3427336    -2088.111    1685.9198   -19198.187    11247.934    3199.4316    7670.7141    17973.041     81.90107 
   47200    832.10198   -101.07678   0.75290336   -100.32388   -3193.1495    4.3454945    4.3454945    4.3454945   -3193.1495   -13335.545    1971.3416     1784.755    199.62297   -8316.5353   -6793.8495    82.057373 
   47300    467.48142   -100.75194   0.42298701   -100.32895   -21422.613    4.3583027    4.3583027    4.3583027   -21422.613   -16237.261    -27598.74   -20431.838    4152.6798    12421.476    19481.915    82.785098 
   47400    716.41401   -100.96748   0.64822645   -100.31925    20487.083    4.3320015    4.3320015    4.3320015    20487.083    9931.3718    7928.6424    43601.234   -3082.7547   -3611.7296   -6104.4638    81.295365 
   47500    369.57085   -100.66134   0.33439547   -100.32694   -17225.926    4.3617217    4.3617217    4.3617217   -17225.926   -26807.532   -27143.212    2272.9666     5183.975    2037.6563    10137.788    82.980081 
   47600    718.55819   -100.97325   0.65016655   -100.32308    6331.9156    4.3395679    4.3395679    4.3395679    6331.9156    7457.9987   -1525.0809    13062.829   -2135.3577    7095.5767    9757.7754    81.722093 
   47700    744.36659   -100.99829   0.67351853   -100.32477   -7076.2449    4.3506621    4.3506621    4.3506621   -7076.2449   -9765.3521   -11828.201     364.8189    1447.3906   -8506.7405   -1606.2806    82.350468 
   47800    401.97114   -100.69277   0.36371193   -100.32906   -9996.4018     4.350262     4.350262     4.350262   -9996.4018   -7530.7271   -20029.583   -2428.8957    3648.5885    8086.4924    18108.559    82.327747 
   47900    758.15289   -101.00836   0.68599266   -100.32237     14478.36    4.3413847    4.3413847    4.3413847     14478.36   -4982.0145    5681.1487    42735.945   -3237.0687   -5592.9532   -6310.7046    81.824775 
   48000    437.75572   -100.72445   0.39609057   -100.32836   -15923.752       4.3561       4.3561       4.3561   -15923.752    -13779.69    -26617.12   -7374.4465    6069.1407    228.60295    9422.5156    82.659641 
   48100    676.36011    -100.9351   0.61198484   -100.32312    8209.6299    4.3372989    4.3372989    4.3372989    8209.6299    2412.3267    6530.0152    15686.548     -1691.32    6529.9486    3887.9578    81.593968 
   48200    696.09908   -100.95421   0.62984507   -100.32437   -18066.816    4.3587255    4.3587255    4.3587255   -18066.816   -27428.877   -15744.122    -11027.45     3044.194   -8893.3967   -255.28346    82.809191 
   48300    518.21894   -100.79751   0.46889539   -100.32861   -1905.8684    4.3434574    4.3434574    4.3434574   -1905.8684    1682.7985   -8998.5319    1598.1281     1421.671    13491.108    16898.846    81.942025 
   48400    696.29426   -100.95274   0.63002167   -100.32272    11009.592    4.3442689    4.3442689    4.3442689    11009.592   -13109.232    6652.7036    39485.304    2653.7022   -3514.9911   -4165.0341    81.987965 
   48500    302.62994   -100.60341   0.27382593   -100.32958   -14896.406    4.3570615    4.3570615    4.3570615   -14896.406    -23774.83    -21339.06     424.6707    1093.7089    8355.1462     19223.55    82.714391 
   48600    886.65178   -101.12486   0.80226117   -100.32259    6099.3397    4.3394074    4.3394074    4.3394074    6099.3397    3227.3648    11515.725    3554.9297    2392.0756    9471.9479   -118.70046    81.713025 
   48700     597.7205   -100.86771   0.54083007   -100.32688   -10614.583    4.3505873    4.3505873    4.3505873   -10614.583   -16541.058   -13063.937   -2238.7539    3215.0974   -2348.7016    6688.4731     82.34622 
   48800     407.2923   -100.70042   0.36852663    -100.3319   -9010.6878    4.3505954    4.3505954    4.3505954   -9010.6878   -18242.111    -9500.526    710.57333   -1378.5176    16746.457     7417.798    82.346676 
   48900    828.98758   -101.07304   0.75008538   -100.32295    11505.178    4.3446615    4.3446615    4.3446615    11505.178   -234.39935   -2101.5069    36851.441    5499.1422   -5813.9237   -3633.5455    82.010192 
   49000     299.3973   -100.60221   0.27090097   -100.33131   -16621.845    4.3527379    4.3527379    4.3527379   -16621.845   -15696.693   -19962.141     -14206.7   -3234.3601    15440.107    17338.477    82.468395 
   49100    820.57284   -101.06497   0.74247155    -100.3225    7299.0775    4.3401319    4.3401319    4.3401319    7299.0775    1855.8717    5233.3585    14808.002    2747.0941    2237.2984   -4725.4158    81.753959 
   49200    601.08477   -100.87113   0.54387413   -100.32726   -18315.942    4.3565886    4.3565886    4.3565886   -18315.942   -9385.1827   -25393.715   -20168.929    2287.7361    5411.9278    15603.005    82.687459 
   49300    467.93832   -100.75186   0.42340042   -100.32846    8036.7096    4.3386126    4.3386126    4.3386126    8036.7096    6928.0379    4114.1016    13067.989   -3058.8568    12340.389       1661.3     81.66813 
   49400    681.55129   -100.94141   0.61668193   -100.32473   -1496.5202    4.3531864    4.3531864    4.3531864   -1496.5202   -12257.521   -15890.639    23658.599    4829.3846   -3662.8353    314.50774    82.493891 
   49500    401.45429   -100.69309   0.36324427   -100.32984   -10220.403    4.3484686    4.3484686    4.3484686   -10220.403   -3407.0084   -11841.946   -15412.255   -1617.0704    18324.262    12680.669    82.225973 
   49600    843.22404    -101.0852   0.76296683   -100.32223    11386.052    4.3400615    4.3400615    4.3400615    11386.052    11310.055    5232.0211     17616.08    3303.4811   -4342.9791   -6762.6463    81.749981 
   49700    514.45877   -100.79098   0.46549311   -100.32549   -21506.087    4.3596418    4.3596418    4.3596418   -21506.087   -25462.835   -17900.462   -21154.963    201.98323    13628.724    16511.306    82.861431 
   49800    452.51664   -100.73348   0.40944657   -100.32403    24295.176    4.3339283    4.3339283    4.3339283    24295.176    10835.375    5456.1885    56593.965    3918.7429    4574.0015   -156.53739     81.40389 
   49900    720.51293   -100.97685   0.65193524   -100.32491   -4008.5836    4.3539071    4.3539071    4.3539071   -4008.5836   -11340.397   -11774.315    11088.961    506.63135   -2295.1483    7050.1008    82.534871 
   50000     423.7946   -100.71149   0.38345826   -100.32803   -5021.7566    4.3511617    4.3511617    4.3511617   -5021.7566   -20198.846   -3518.0345    8651.6108    2142.9474    16918.527    6655.0815    82.378841 
   50100    854.50954   -101.09211   0.77317819   -100.31893    7709.8813      4.33723      4.33723      4.33723    7709.8813    13954.692   -3352.2487    12527.201    5661.3722   -8889.8654   -2988.2098    81.590081 
   50200    433.95414   -100.71837   0.39265083   -100.32572   -11362.371    4.3586167    4.3586167    4.3586167   -11362.371    -25219.48   -13688.467    4820.8349   -2884.3107     16792.24    8793.9303    82.802995 
   50300    663.52385   -100.92424   0.60037032   -100.32387    7813.7205    4.3421331    4.3421331    4.3421331    7813.7205   -5811.7293    57.331725    29195.559    8923.9516    287.36408   -1992.4461    81.867096 
   50400    583.71882   -100.85236   0.52816105    -100.3242    9060.4987    4.3402663    4.3402663    4.3402663    9060.4987    5440.3847   -9638.5808    31379.692    -3485.902    4733.3484    5767.7606    81.761552 
   50500    509.16869   -100.78758   0.46070653   -100.32687    -15866.71    4.3575337    4.3575337    4.3575337    -15866.71    -27502.67   -13277.628   -6819.8322    7453.0425     13786.33    8741.0187    82.741288 
   50600     897.5984     -101.131    0.8121659   -100.31884    13372.161    4.3380079    4.3380079    4.3380079    13372.161    11053.411    2797.5726    26265.501    626.58957   -4237.6804   -3778.7676     81.63399 
   50700    329.29779   -100.62626   0.29795556    -100.3283   -10483.916    4.3531148    4.3531148    4.3531148   -10483.916   -21460.757   -23613.055    13622.064    1903.3164    16510.487    12751.675    82.489822 
   50800    700.30747   -100.95564   0.63365292   -100.32199     8728.311     4.345602     4.345602     4.345602     8728.311   -5489.2428   -5355.4102    37029.586    6109.3923   -4415.9967   -7401.6684    82.063466 
   50900    545.15317   -100.81993   0.49326604   -100.32666   -7754.1579    4.3476914    4.3476914    4.3476914   -7754.1579   -9234.5347   -5202.9421   -8824.9969   -2810.8835    12344.088    8811.8967     82.18189 
   51000    566.61922   -100.84158   0.51268898   -100.32889   -7473.7171     4.345635     4.345635     4.345635   -7473.7171   -15984.426   -13284.224    6847.4981    9755.4846    6254.7513    4994.8252    82.065331 
   51100    809.24007    -101.0568   0.73221742   -100.32458   -4989.1063    4.3510021    4.3510021    4.3510021   -4989.1063   -5989.6521   -4947.1513   -4030.5154   -3177.8057   -1030.9502    1418.4774    82.369775 
   51200    235.50493    -100.5457   0.21308981   -100.33261   -5959.1291     4.347763     4.347763     4.347763   -5959.1291   -20341.379   -9997.9294    12461.921    9268.0764     16065.85    15606.995    82.185952 
   51300    868.28318   -101.10695   0.78564087   -100.32131    15948.017    4.3403991    4.3403991    4.3403991    15948.017   -941.57945    4195.5388    44590.092   -131.73131   -9567.2914    632.81732    81.769057 
   51400    327.43003   -100.62437   0.29626557    -100.3281   -16383.554    4.3595661    4.3595661    4.3595661   -16383.554   -30524.645   -15458.164   -3167.8534    6901.8956    17602.375     8296.713    82.857116 
   51500    696.11552   -100.95086   0.62985995     -100.321     5157.391    4.3370705    4.3370705    4.3370705     5157.391   -1384.6008    5615.6661    11241.108    5573.1184   -1881.3239    3886.3083    81.581079 
   51600    797.00068   -101.04465   0.72114296    -100.3235   -8236.9051    4.3499931    4.3499931    4.3499931   -8236.9051   -17774.107   -3718.5326    -3218.076    269.16985    9071.9662   -3713.6738    82.312485 
   51700    358.31068   -100.65449   0.32420703   -100.33028   -8608.1178     4.351152     4.351152     4.351152   -8608.1178   -25615.069   -15976.139    15766.854    12110.975    9222.6144    7073.1773    82.378288 
   51800    755.26316   -101.00347   0.68337798   -100.32009    9357.3843    4.3427242    4.3427242    4.3427242    9357.3843   -1795.8037    4362.7281    25505.229    -4098.408   -911.97093   -8993.4746    81.900537 
   51900    381.27728   -100.67503   0.34498769   -100.33004   -4566.7713    4.3483568    4.3483568    4.3483568   -4566.7713    -25991.37   -15479.419    27770.475    11985.133    12620.978    8940.9016     82.21963 
   52000    920.74314    -101.1591   0.83310774   -100.32599   -5339.6044    4.3509765    4.3509765    4.3509765   -5339.6044   -11104.163   -10973.467    6058.8167    900.11414   -3243.2545   -3076.7706    82.368321 
   52100    479.59017   -100.76324   0.43394327    -100.3293     5449.759    4.3441192    4.3441192    4.3441192     5449.759   -10894.578   -2441.1114    29684.967    5707.1329    8006.5245    6506.2081    81.979488 
   52200    442.70116   -100.73375   0.40056531   -100.33318   -5932.4889    4.3517503    4.3517503    4.3517503   -5932.4889   -19233.229   -15932.429    17368.191    8248.3242    5112.6635    5150.4158    82.412273 
   52300    877.65497   -101.11776   0.79412067   -100.32364    13340.092    4.3404821    4.3404821    4.3404821    13340.092   -291.75197   -474.22695    40786.254   -1237.3749   -3285.1279   -1359.4887    81.773752 
   52400    310.77191   -100.61309   0.28119295    -100.3319   -22306.259    4.3539643    4.3539643    4.3539643   -22306.259   -23800.205   -14120.205   -28998.366    13412.471    13201.265    9188.1784    82.538124 
   52500    864.41455   -101.10455   0.78214045   -100.32241    6858.8102    4.3421288    4.3421288    4.3421288    6858.8102    6179.9414    4464.2915    9932.1977   -3953.6208    -9118.068   -571.49896    81.866854 
   52600    516.91869   -100.79715    0.4677189   -100.32943   -5042.0559    4.3473649    4.3473649    4.3473649   -5042.0559   -20248.764   -17081.727    22204.323    11679.189    12144.267    6588.9744    82.163376 
   52700    508.75935   -100.78662   0.46033616   -100.32628    1680.7067    4.3506328    4.3506328    4.3506328    1680.7067   -6582.7176   -4555.7493    16180.587    768.77706   -2360.2178    7177.9209    82.348801 
   52800    595.07857   -100.86201    0.5384396   -100.32357    9511.1469    4.3412495    4.3412495    4.3412495    9511.1469    1251.4904   -2845.5162    30127.467    4150.9532    4595.2533   -1352.4213    81.817129 
   52900    551.13526   -100.82571   0.49867877   -100.32704   -20321.041     4.355447     4.355447     4.355447   -20321.041   -24923.092   -21574.426   -14465.605    7220.3417    10722.267    12371.967    82.622475 
   53000     912.7643   -101.14384   0.82588832   -100.31796    10322.881    4.3379566    4.3379566    4.3379566    10322.881     12225.91    4301.6393    14441.094    -1076.027   -3557.7107   -8790.6541    81.631091 
   53100    252.05141   -100.55852   0.22806141   -100.33046   -18677.927    4.3562109    4.3562109    4.3562109   -18677.927   -23462.055   -24724.876   -7846.8515    9891.4343    13338.114    8441.0691    82.665955 
   53200    780.44388   -101.02954   0.70616202   -100.32338    14563.004    4.3399513    4.3399513    4.3399513    14563.004    2161.7708   -2045.8779     43573.12   -3720.8134   -752.90382   -3546.3008    81.743755 
   53300    519.14177   -100.79728   0.46973038   -100.32755   -9942.0132    4.3539118    4.3539118    4.3539118   -9942.0132   -12889.871    -21921.53    4985.3616    10896.036    3432.5354     1374.337    82.535139 
   53400      576.246    -100.8445   0.52139949   -100.32311     1131.968    4.3433847    4.3433847    4.3433847     1131.968   -224.47271   -3276.9911    6897.3677   -1762.0592    12735.722    7294.4285     81.93791 
   53500    752.11795    -101.0031   0.68053212   -100.32256    5977.6158    4.3450953    4.3450953    4.3450953    5977.6158    495.05744   -8759.1002     26196.89    5966.0294   -4873.3248   -4869.3439    82.034763 
   53600    509.17456   -100.78802   0.46071184   -100.32731   -7670.4042    4.3531204    4.3531204    4.3531204   -7670.4042   -15136.667   -18076.996     10202.45    5534.9578    16464.864    9732.2801    82.490138 
   53700    649.92894   -100.90941   0.58806937   -100.32134    16975.739    4.3352687    4.3352687    4.3352687    16975.739    14678.947    5444.7202     30803.55   -397.33317   -6090.4822   -2214.0757    81.479444 
   53800    443.70743   -100.73001    0.4014758   -100.32853   -8853.0627    4.3537036    4.3537036    4.3537036   -8853.0627   -16513.049   -14523.874    4477.7349    8293.8386    6638.6178   -1136.7375    82.523298 
   53900    858.81374    -101.0984   0.77707272   -100.32133   -1562.6413    4.3468488    4.3468488    4.3468488   -1562.6413   -1151.2087   -8284.6127    4747.8975   -1073.1834    684.70544      6883.74     82.13412 
   54000    505.06207   -100.77893   0.45699078   -100.32194    -267.3917    4.3434809    4.3434809    4.3434809    -267.3917    529.41481   -2182.6588    851.06891    7877.7126   -1411.5017    -6737.861    81.943356 
   54100    486.76979    -100.7661   0.44043953   -100.32566   -676.81262    4.3505047    4.3505047    4.3505047   -676.81262   -14945.297   -6212.7088    19127.568   -938.35036     10485.24    13940.154    82.341529 
   54200    777.00234   -101.02566   0.70304805   -100.32261    3377.6674    4.3479611    4.3479611    4.3479611    3377.6674   -2618.5427   -14565.709    27317.254    6185.4125   -4781.1896   -6029.6366    82.197186 
   54300    381.70358    -100.6742   0.34537342   -100.32882    4834.7169    4.3418424    4.3418424    4.3418424    4834.7169   -5265.7188    7259.0576    12510.812    1094.4046     11899.05    7101.2268    81.850658 
   54400    770.99909   -101.02286   0.69761618   -100.32524   -12129.409    4.3540804    4.3540804    4.3540804   -12129.409   -8741.3491   -12588.129   -15058.749    1767.3721    4010.2319    1789.5375    82.544728 
   54500    598.44494   -100.86726   0.54148556   -100.32577    11279.236     4.340733     4.340733     4.340733    11279.236    2466.5715   -2133.9459    33505.083    3889.0644    2843.0006    -8523.482    81.787929 
   54600    396.01903    -100.6862   0.35832635   -100.32787   -7831.3362    4.3508557    4.3508557    4.3508557   -7831.3362   -14719.951   -8275.9387   -498.11879   -1070.8393    12979.804    9424.6728    82.361461 
   54700    742.28735   -100.99377    0.6716372   -100.32213   -1005.3531    4.3473917    4.3473917    4.3473917   -1005.3531   -552.77686   -8481.5715     6018.289    4242.1323   -3156.4997   -8730.6394    82.164895 
   54800    528.49859   -100.80733   0.47819663   -100.32913   -5105.9957    4.3424695    4.3424695    4.3424695   -5105.9957     -3274.56   -2678.1377   -9365.2895   -657.60755    18090.486    10781.974    81.886125 
   54900    728.87583   -100.98419   0.65950217   -100.32469   -8270.3409    4.3495949    4.3495949    4.3495949   -8270.3409   -8677.5348   -11493.616   -4639.8724    3956.9957   -3078.4623    4225.6172    82.289879 
   55000    465.88449   -100.74783   0.42154208   -100.32628     2084.778     4.348866     4.348866     4.348866     2084.778   -3947.1008   -8268.7492    18470.184   -332.93578     12473.48    1744.6378     82.24852 
   55100    565.01277   -100.83851   0.51123543   -100.32727   -1475.6285    4.3434899    4.3434899    4.3434899   -1475.6285   -4292.5915   -11880.612    11746.318    2726.6432    364.86301    12873.527    81.943864 
   55200    757.64742   -101.00928   0.68553531   -100.32374      2175.59    4.3474637    4.3474637    4.3474637      2175.59   -7012.9835    -5958.134    19497.888    1488.2376    2191.7439   -4664.0199    82.168979 
   55300     463.4347   -100.74735   0.41932546   -100.32803   -19640.642     4.353515     4.353515     4.353515   -19640.642   -3704.8611   -16213.398   -39003.665   -500.68954    7748.2113    14492.773    82.512576 
   55400    743.58107    -100.9958   0.67280778     -100.323    10897.214    4.3369317    4.3369317    4.3369317    10897.214    1384.5761   -3088.9438     34396.01    4882.8362    -5011.156    -407.6755    81.573249 
   55500    522.35876   -100.80028   0.47264118   -100.32764   -5309.0592    4.3519856    4.3519856    4.3519856   -5309.0592    -11557.94   -8963.9513    4594.7133   -2723.8869    11146.299     7413.161    82.425645 
   55600     462.2771   -100.74592   0.41827804   -100.32764   -5861.7771    4.3500569    4.3500569    4.3500569   -5861.7771   -2102.8126   -18720.623    3238.1044    5335.4589   -3717.1454    9825.2906    82.316104 
   55700    827.24099   -101.06894   0.74850504   -100.32044    8774.1145    4.3391451    4.3391451    4.3391451    8774.1145    404.73178    6117.1262    19800.486   -756.16757    6813.2583   -998.99477    81.698208 
   55800    451.58878   -100.73745   0.40860702   -100.32884   -11106.133    4.3544588    4.3544588    4.3544588   -11106.133   -12374.293   -16632.703   -4311.4039    2259.1885    3250.4419    12096.679    82.566248 
   55900    739.44656   -100.99337   0.66906679   -100.32431    6658.7303    4.3431216    4.3431216    4.3431216    6658.7303   -237.75816    -5693.118    25907.067    1913.3378   -3399.5067   -5769.6577    81.923022 
   56000    430.35825   -100.71707   0.38939719   -100.32767    8932.9958    4.3434284    4.3434284    4.3434284    8932.9958   -1864.0201    2676.2007    25986.807   -46.592875    10435.203    7062.3938    81.940383 
   56100    611.11963    -100.8805   0.55295388   -100.32755   -11271.121    4.3540331    4.3540331    4.3540331   -11271.121   -17665.473   -18380.542    2232.6513    4763.7436   -6945.1457    2634.3587    82.542037 
   56200    820.19129   -101.06243   0.74212632    -100.3203    7700.7667    4.3401386    4.3401386    4.3401386    7700.7667    7395.4006    7480.9017    8225.9978   -3486.0651    9147.0658    -377.7132    81.754338 
   56300    347.04811   -100.64301   0.31401643   -100.32899   -15094.056    4.3523186    4.3523186    4.3523186   -15094.056   -16369.675   -17297.696   -11614.796    8099.5233   -3866.1794    13048.471    82.444565 
   56400    797.16577   -101.04549   0.72129234    -100.3242    9669.1926    4.3452457    4.3452457    4.3452457    9669.1926    -8691.784   -2632.3829    40331.745   -2842.7307   -2610.0197   -3736.7253    82.043279 
   56500    476.05355   -100.76127   0.43074326   -100.33053   -928.62765    4.3453205    4.3453205    4.3453205   -928.62765    225.68654   -12404.934     9393.365    4634.7783    1270.6164    16743.962    82.047518 
   56600    469.19828   -100.75266   0.42454046   -100.32812    636.59166    4.3483658    4.3483658    4.3483658    636.59166   -12611.921   -8212.0574    22733.753    3739.9404   -6630.0967   -1889.9496    82.220139 
   56700    954.33935   -101.18516    0.8635063   -100.32165    -6699.891    4.3488547    4.3488547    4.3488547    -6699.891   -3378.7042   -9377.4258   -7343.5428   -1397.7459   -1533.6486    10449.315    82.247876 
   56800    365.35208   -100.65952   0.33057824   -100.32894    -3533.714    4.3441618    4.3441618    4.3441618    -3533.714   -8861.0592   -15712.337    13972.254    9319.2284    -1102.432    8858.2337    81.981897 
   56900    698.97008   -100.95458   0.63244281   -100.32213    117.75756    4.3492499    4.3492499    4.3492499    117.75756   -6660.5624   -5994.8912    13008.726   -3738.2497   -5241.5686   -302.48134    82.270298 
   57000    467.23333   -100.74975   0.42276254   -100.32699   -5418.9345    4.3489371    4.3489371    4.3489371   -5418.9345   -9213.7346   -25113.846    18070.777    9098.6651    2432.7265    19259.214    82.252553 
   57100    634.71874   -100.89884   0.57430685   -100.32453    1512.2421    4.3400151    4.3400151    4.3400151    1512.2421     -4054.67   -1917.8625    10509.259   -2058.4375   -7296.6211     -4161.63    81.747359 
   57200    651.05513   -100.91445   0.58908836   -100.32536    -16502.44    4.3550146    4.3550146    4.3550146    -16502.44   -6368.3827   -24416.822   -18722.115    6083.0836     2579.246    15240.408    82.597871 
   57300    543.63452   -100.81906   0.49189194   -100.32717    1561.6386    4.3418815    4.3418815    4.3418815    1561.6386   -3982.1763    66.519078    8600.5729    2575.1038    -5513.259   -425.21864    81.852868 
   57400    694.86475   -100.95207   0.62872823   -100.32335    802.22792    4.3486963    4.3486963    4.3486963    802.22792   -5967.2389   -12738.591    21112.514   -656.33486   -241.96522    875.46007     82.23889 
   57500    420.25715   -100.70701    0.3802575   -100.32676   -515.14604    4.3493855    4.3493855    4.3493855   -515.14604   -118.43031   -17677.628     16250.62    7698.6516   -2021.2511    5280.4281    82.277997 
   57600    603.29674   -100.87073   0.54587557   -100.32485    1971.1227    4.3452402    4.3452402    4.3452402    1971.1227   -3854.2188    5304.5635    4463.0234   -5828.1306   -3665.3225   -6719.2887     82.04297 
   57700     780.7052   -101.02896   0.70639847   -100.32256   -6369.0942    4.3483321    4.3483321    4.3483321   -6369.0942    4407.8703   -18658.604   -4856.5486    7771.1191   -790.87524    14922.666    82.218229 
   57800    435.36886   -100.71965   0.39393089   -100.32572   -2029.9598     4.348448     4.348448     4.348448   -2029.9598   -1204.1665   -208.04274   -4677.6701   -5125.5994   -4537.4424   -7466.9418    82.224801 
   57900    718.52096   -100.97153   0.65013287    -100.3214    728.66437     4.345547     4.345547     4.345547    728.66437    2206.8897   -5560.9101    5540.0135    2770.0602   -2032.4783    11414.385    82.060348 
   58000    457.80998   -100.73921   0.41423609   -100.32497    6913.3713    4.3465218    4.3465218    4.3465218    6913.3713    3363.6112   -10555.029    27931.532   -1329.4761   -4315.6623    1081.2238    82.115583 
   58100    626.23169   -100.89283   0.56662759    -100.3262   -4883.4063    4.3488603    4.3488603    4.3488603   -4883.4063   -4309.4865   -2836.8826   -7503.8498   -2577.0108   -2092.5802   -1155.7067    82.248193 
   58200    748.38286   -101.00064   0.67715254   -100.32349    6439.3683    4.3464595    4.3464595    4.3464595    6439.3683      8953.01   -3773.4481    14138.543    1026.6256    737.94175    6209.9778    82.112053 
   58300    497.25696   -100.77774   0.44992855   -100.32781   -6646.9296    4.3473894    4.3473894    4.3473894   -6646.9296   -7689.9983   -4077.5864   -8173.2041   -6669.3176   -3414.1109   -6517.4007    82.164766 
   58400    640.77935    -100.9031   0.57979062   -100.32331    10748.875    4.3469575    4.3469575    4.3469575    10748.875    8251.4722   -11503.617    35498.771    3520.0861    4721.2828    10654.385    82.140278 
   58500    562.14128   -100.83526   0.50863725   -100.32663   -7548.8546    4.3499372    4.3499372    4.3499372   -7548.8546   -12232.886    428.84629   -10842.525   -7417.7827    -5153.705   -3146.5297    82.309311 
   58600    576.53423   -100.84726   0.52166029    -100.3256    5236.1997    4.3431678    4.3431678    4.3431678    5236.1997    4857.6608   -2382.8701    13233.808    1412.4055    5106.3006    5823.4716    81.925636 
   58700    779.32343   -101.02772   0.70514822   -100.32257   -10128.666    4.3538613    4.3538613    4.3538613   -10128.666   -3925.5925   -14367.881   -12092.525   -4176.0766   -3916.4621    37.419698    82.532263 
   58800    385.36424   -100.67802   0.34868566   -100.32933    3366.7925    4.3435718    4.3435718    4.3435718    3366.7925   -9028.1039    11618.793    7509.6885   -1172.4382    3655.1022    -4563.912    81.948504 
   58900    749.67563   -101.00008   0.67832226   -100.32176    9654.4901    4.3458801    4.3458801    4.3458801    9654.4901    10151.654   -10146.048    28957.864   -1290.9517    2128.3644    3392.7917    82.079218 
   59000     401.0878   -100.69117   0.36291267   -100.32826   -6952.2717     4.352424     4.352424     4.352424   -6952.2717   -17070.511    210.17388   -3996.4783   -3396.8987   -2100.6899   -8130.5667    82.450557 
   59100    793.60659   -101.03992   0.71807192   -100.32185    6735.8528     4.342811     4.342811     4.342811    6735.8528    5793.7108    12249.308    2164.5401    1563.9137    4564.8564    2137.7328    81.905447 
   59200    563.62843   -100.83597   0.50998285   -100.32599   -1181.5512    4.3489929    4.3489929    4.3489929   -1181.5512   -3625.2221   -3819.0178    3899.5862   -6009.1044   -4656.6249   -482.87725    82.255715 
   59300    479.19123   -100.76369    0.4335823   -100.33011   -1667.4154    4.3486649    4.3486649    4.3486649   -1667.4154   -12545.152    12816.509   -5273.6033    4012.4423    2794.0997   -564.92063    82.237106 
   59400    773.34898   -101.02118   0.69974241   -100.32144    10707.883    4.3440569    4.3440569    4.3440569    10707.883    7011.6459   -917.86263    26029.866   -6731.7468    -233.6731    3979.3421    81.975959 
   59500    344.42726   -100.64256   0.31164502   -100.33091   -8661.5661    4.3500065    4.3500065    4.3500065   -8661.5661   -16474.846    12880.661   -22390.513    1548.6531    2338.0446   -7086.3306    82.313242 
   59600     874.8727    -101.1138   0.79160321    -100.3222    2274.9136    4.3479586    4.3479586    4.3479586    2274.9136    1772.0499   -4706.5729    9759.2638   -2848.7004    1616.1623    1191.3656    82.197043 
   59700    537.64915   -100.81292   0.48647625   -100.32644   -843.50928    4.3452099    4.3452099    4.3452099   -843.50928   -7252.5789    7776.8181   -3054.7671    -3260.517    77.968607   -9424.7051    82.041252 
   59800    433.85988   -100.72089   0.39256554   -100.32832    1654.3753    4.3499217    4.3499217    4.3499217    1654.3753   -12404.796    1665.3155    15702.606    2052.2378    2238.6955   -3013.0298    82.308432 
   59900    814.39924   -101.06013   0.73688555   -100.32325    1294.1211    4.3466084    4.3466084    4.3466084    1294.1211    1590.9944   -15449.719    17741.088   -5059.6059   -1972.4751   -1869.8145    82.120494 
   60000    397.17701   -100.68983   0.35937411   -100.33046   -5927.0633     4.346047     4.346047     4.346047   -5927.0633   -15311.461    10017.752   -12487.482      2063.27    2875.2216   -2662.4378    82.088678 
   60100    857.63941   -101.09675   0.77601016   -100.32074   -5821.5845    4.3499363    4.3499363    4.3499363   -5821.5845   -329.67211   -13598.766   -3536.3153   -2106.2366    682.31244    6461.1971    82.309262 
   60200    455.37173   -100.73876   0.41202991   -100.32673      -5831.4    4.3469837    4.3469837    4.3469837      -5831.4   -12379.798   -5231.9852    117.58352    239.57421    2688.3582   -2598.0852    82.141767 
   60300    651.33325   -100.91543   0.58934002   -100.32609   -319.54595    4.3465264    4.3465264    4.3465264   -319.54595   -8792.7946    -5335.161    13169.318   -492.30129    1832.8705    3790.4591    82.115845 
   60400    576.68476   -100.84728   0.52179649   -100.32549    1035.9409    4.3485415    4.3485415    4.3485415    1035.9409   -2046.2194   -2714.4495    7868.4915   -48.540575     359.6445    721.50925    82.230107 
   60500    571.90747   -100.84524    0.5174739   -100.32776   -7908.0165    4.3464723    4.3464723    4.3464723   -7908.0165   -9765.8128   -3722.8857   -10235.351    17.714606    2064.8647   -5175.1448    82.112776 
   60600    766.94521   -101.01643   0.69394814   -100.32248    4154.8789    4.3481514    4.3481514    4.3481514    4154.8789    1361.6841    -580.5355    11683.488   -139.58607   -837.40994    10227.424     82.20798 
   60700    377.94392   -100.66934   0.34197161   -100.32736    1567.0881    4.3464947    4.3464947    4.3464947    1567.0881   -10878.197    6644.7498    8934.7115     1031.601    4566.4736   -5043.3504    82.114049 
   60800    645.70166   -100.90773   0.58424443   -100.32349    5091.1039    4.3488474    4.3488474    4.3488474    5091.1039    1498.4876   -4048.0183    17822.842     1158.455   -1682.2622    11139.096    82.247459 
   60900    664.29872   -100.92519   0.60107144   -100.32412   -1101.1199     4.344918     4.344918     4.344918   -1101.1199   -8543.4589    10150.731   -4910.6321    1388.2985     5022.582    114.75567    82.024721 
   61000      479.909   -100.76207   0.43423175   -100.32784   -5456.9611    4.3490917    4.3490917    4.3490917   -5456.9611   -6652.0454    3817.9447   -13536.783    1997.5908    93.100766    1676.5362    82.261322 
   61100    759.86252   -101.01035   0.68753958   -100.32281    2532.5427    4.3457518    4.3457518    4.3457518    2532.5427    3364.3542   -574.33552    4807.6095    733.88633    3802.3225    4241.2251    82.071953 
   61200    419.76877   -100.70568   0.37981561   -100.32586   -45.571935    4.3489749    4.3489749    4.3489749   -45.571935   -20419.246    3169.7686    17112.762    2577.2282      1484.41   -5675.0492    82.254698 
   61300    632.57667   -100.89376   0.57236867   -100.32139    961.55431    4.3474443    4.3474443    4.3474443    961.55431    6718.4484   -11173.902    7340.1168    1434.5436   -88.515197    13603.726    82.167877 
   61400    669.55548   -100.92781   0.60582787   -100.32198   -889.25007    4.3450153    4.3450153    4.3450153   -889.25007   -9429.8711    3357.0357    3405.0852    2336.8971    7168.6334   -1549.7751    82.030228 
   61500    583.91476   -100.85286   0.52833835   -100.32452    -8886.379    4.3507538    4.3507538    4.3507538    -8886.379   -5955.9716   -18123.667   -2579.4986    3033.3853   -1477.7594    12757.207    82.355674 
   61600    683.92749   -100.94155   0.61883197   -100.32272    4513.1232    4.3446516    4.3446516    4.3446516    4513.1232    170.97408   -1355.6844     14724.08   -525.78211    2884.3114      7633.82    82.009635 
   61700    453.26431   -100.73644   0.41012307   -100.32632   -2214.4297    4.3485351    4.3485351    4.3485351   -2214.4297   -8958.6718   -7895.8076     10211.19    5197.6916   -1539.9599   -1982.3704    82.229745 
   61800    656.32725   -100.91705   0.59385869   -100.32319    800.46154    4.3459654    4.3459654    4.3459654    800.46154    3098.2641   -7975.7322    7278.8527   -2279.4697   -2708.3612     13662.09    82.084052 
   61900    656.18278   -100.91616   0.59372797   -100.32244   -4355.5792    4.3493462    4.3493462    4.3493462   -4355.5792   -16154.005    8431.9945   -5344.7268    3134.8101    3313.1477   -5507.1393    82.275768 
   62000    561.13027   -100.83325   0.50772246   -100.32553    -2445.629    4.3460315    4.3460315    4.3460315    -2445.629    9884.8316   -11582.567   -5639.1516   -1942.6597   -4677.5172    17101.724      82.0878 
   62100    685.34785   -100.94078   0.62011714   -100.32067    2564.2471    4.3492334    4.3492334    4.3492334    2564.2471   -17335.547    5473.2838    19555.004    401.43407    6419.8417    2948.2457    82.269365 
   62200    437.69392   -100.72177   0.39603466   -100.32573   -744.66864    4.3450648    4.3450648    4.3450648   -744.66864   -7729.0562   -13444.004    18939.055    438.26477   -4613.5043    8412.1936    82.033034 
   62300    665.09532   -100.92597   0.60179223   -100.32418     6090.869      4.34688      4.34688      4.34688     6090.869    3042.5714   -6706.4271    21936.463   -3421.3944     5029.252    9747.1422    82.135885 
   62400    626.91076   -100.89104   0.56724203    -100.3238   -11791.047    4.3501358    4.3501358    4.3501358   -11791.047   -25864.411   -11262.362    1753.6335    4081.2803    423.48661   -2393.2068    82.320584 
   62500    527.29124   -100.80377   0.47710419   -100.32666   -1304.5968    4.3436763    4.3436763    4.3436763   -1304.5968    3351.4603     -13385.6    6120.3493    -7654.429   -732.96827    14664.076    81.954415 
   62600    900.56965    -101.1358   0.81485434   -100.32094   -5338.3479    4.3511036    4.3511036    4.3511036   -5338.3479    -9985.504   -8863.9775    2834.4379    7127.8515    4431.7742   -4337.1006    82.375537 
   62700    244.75835   -100.55025    0.2214625   -100.32879   -2438.1826     4.345662     4.345662     4.345662   -2438.1826   -12052.382   -16582.334    21320.168   -7300.1653   -2248.8829    16902.149    82.066863 
   62800    715.30209    -100.9705   0.64722036   -100.32328    6789.3379    4.3461146    4.3461146    4.3461146    6789.3379    1106.3644   -5228.7722    24490.422    3605.9296     2881.591    4469.7934    82.092505 
   62900    617.34035   -100.88463   0.55858252   -100.32604   -4880.3772    4.3503535    4.3503535    4.3503535   -4880.3772   -10882.971   -11955.729     8197.568   -43.397322   -4027.9398    7379.0612    82.332944 
   63000    507.65621   -100.78673   0.45933801   -100.32739   -2287.7539    4.3419863    4.3419863    4.3419863   -2287.7539    4944.9195   -5811.1318   -5997.0495   -6102.7269   -1968.8326    15162.983    81.858792 
   63100    749.34303   -101.00117   0.67802132   -100.32315    1511.6623    4.3501881    4.3501881    4.3501881    1511.6623   -11990.664   -3132.9244    19658.575    9027.1341   -3032.6189   -7323.8814    82.323554 
   63200    477.42147   -100.76084   0.43198098   -100.32886    -8320.688    4.3496499    4.3496499    4.3496499    -8320.688   -2251.6228   -21295.851   -1414.5902   -8798.9002   -5187.6385     18054.91    82.293003 
   63300    637.52593   -100.89954   0.57684686   -100.32269    14395.407    4.3403992    4.3403992    4.3403992    14395.407   -2047.6337    4790.3066    40443.549    9870.5018   -369.33121    -5584.525    81.769063 
   63400    529.05607    -100.8036   0.47870105    -100.3249   -16649.468    4.3553073    4.3553073    4.3553073   -16649.468   -19880.629    -25971.58   -4096.1968   -4455.1654    -4370.256    17261.458    82.614525 
   63500    691.79362   -100.94993    0.6259494   -100.32398    298.11478    4.3407832    4.3407832    4.3407832    298.11478     7585.954   -8213.8033    1522.1937    4778.9988   -1327.4153     8885.503    81.790766 
   63600    724.72192   -100.97788   0.65574363   -100.32214   -3556.0913    4.3490088    4.3490088    4.3490088   -3556.0913   -19291.074   -7882.7225    16505.522    2201.3152   -1708.6366    1965.6534    82.256619 
   63700     306.0708    -100.6061    0.2769393   -100.32916   -8453.3478    4.3487587    4.3487587    4.3487587   -8453.3478     -12637.5   -20444.635    7722.0923   -1120.1651   -1046.3376    19563.876    82.242429 
   63800    802.77018   -101.04857   0.72636333   -100.32221     10465.91    4.3434511    4.3434511    4.3434511     10465.91   -3448.4307   -2935.4114    37781.571    7499.1782   -237.46138   -10361.358    81.941667 
   63900    474.69544   -100.75806   0.42951441   -100.32855     -11774.9    4.3508165    4.3508165    4.3508165     -11774.9    -14283.18   -13063.086    -7978.433   -5142.1724    439.70663    18844.576    82.359233 
   64000    616.25687   -100.88278   0.55760217   -100.32518    2088.1191    4.3450125    4.3450125    4.3450125    2088.1191   -9927.9316   -854.25981    17046.549    9059.9216   -3372.1936    270.00815     82.03007 
   64100    698.57552   -100.95628   0.63208581    -100.3242   -6209.8513    4.3488936    4.3488936    4.3488936   -6209.8513   -2533.0486   -15954.067   -142.43824    -5853.715    1098.6124    7263.2408    82.250082 
   64200    443.25632   -100.72819   0.40106763   -100.32712    8924.3976     4.343107     4.343107     4.343107    8924.3976   -6968.2483   -5954.9929    39696.434    4888.7382   -4720.9958    16104.966    81.922195 
   64300    726.82877   -100.97937   0.65764994   -100.32172   -6833.4001    4.3540577    4.3540577    4.3540577   -6833.4001   -12220.148   -16528.656    8248.6041   -547.06682     515.2502   -12186.843    82.543436 
   64400    431.28797   -100.71696   0.39023842   -100.32672    2788.3527     4.340773     4.340773     4.340773    2788.3527    4120.1487   -16138.623    20383.532   -1766.2234    368.48171    22370.924    81.790194 
   64500    933.71396   -101.16706   0.84484401   -100.32222   -1471.4552    4.3491264    4.3491264    4.3491264   -1471.4552   -8660.8472   -6334.4794    10580.961    4024.0088   -2598.7608   -14068.938    82.263295 
   64600    278.67105   -100.58049   0.25214742   -100.32834   -1005.4606    4.3502004    4.3502004    4.3502004   -1005.4606   -6222.0029   -26434.856    29640.477   -3995.9544    1976.7115    18443.218    82.324252 
   64700    657.78748   -100.92031   0.59517994   -100.32513    3818.7212    4.3408974    4.3408974    4.3408974    3818.7212   -267.64813   -12639.086    24362.897    3521.2363   -3159.7366    6418.1172    81.797226 
   64800    702.63568   -100.96218   0.63575953   -100.32642   -2559.8633    4.3501276    4.3501276    4.3501276   -2559.8633   -8908.3493   -13466.452    14695.211   -3381.5092    782.32919    2972.9434     82.32012 
   64900      491.267   -100.77231   0.44450871    -100.3278   -10713.304    4.3503781    4.3503781    4.3503781   -10713.304   -6777.9067   -23245.735   -2116.2696     2499.514   -347.48525    21751.323    82.334341 
   65000    668.00454   -100.92595   0.60442455   -100.32152    13509.723    4.3399921    4.3399921    4.3399921    13509.723   -4528.2773    -7650.883     52708.33   -2985.5072   -720.16802   -12039.836    81.746058 
   65100    450.46625   -100.73916   0.40759133   -100.33157    -11072.56    4.3530483    4.3530483    4.3530483    -11072.56   -6229.9572   -28482.818    1495.0957    1180.5346    613.91379    29730.479    82.486043 
   65200    837.77885   -101.07951   0.75803991   -100.32147      2580.83    4.3454234    4.3454234    4.3454234      2580.83   -12355.261   -9369.5988     29467.35    -1702.012   -2354.6656   -6460.4456    82.053346 
   65300    382.89751    -100.6759   0.34645371   -100.32945   -4028.8953    4.3438407    4.3438407    4.3438407   -4028.8953    901.34128   -24034.552    11046.525   -494.72716    534.52953    20746.854     81.96372 
   65400    741.63146    -100.9982   0.67104373   -100.32716   -2527.3747    4.3533574    4.3533574    4.3533574   -2527.3747   -15029.638   -17092.045    24539.559   -46.029517   -2076.1359    4864.3675    82.503616 
   65500    582.33081   -100.85302   0.52690515   -100.32612    7155.3297    4.3423967    4.3423967    4.3423967    7155.3297   -7718.8181   -8856.8575    38041.665   -2713.5256   -548.74672   -366.53447    81.882008 
   65600    420.02395   -100.71029    0.3800465   -100.33024   -12644.362     4.350049     4.350049     4.350049   -12644.362     -3478.44   -23944.602   -10510.044    2157.4091   -1576.0797    21333.532    82.315654 
   65700    896.03328    -101.1345   0.81074974   -100.32375    7407.2815    4.3467168    4.3467168    4.3467168    7407.2815   -16080.637   -3718.4522    42020.934   -4610.0979   -1635.8343   -5623.3166    82.126635 
   65800      324.737   -100.62719   0.29382886   -100.33336   -2009.9595    4.3451916    4.3451916    4.3451916   -2009.9595    672.24616   -23850.197    17148.072    2262.6844   -787.29426    31862.842    82.040215 
   65900    675.29323   -100.93527    0.6110195   -100.32425    2312.5075    4.3520262    4.3520262    4.3520262    2312.5075   -21342.511   -18069.115    46349.148   -3996.6046    -996.2013   -6322.1084    82.427952 
   66000    654.70398   -100.92104   0.59238992   -100.32865   -8165.8383    4.3433026    4.3433026    4.3433026   -8165.8383    3524.3441   -19542.777    -8479.082    -421.7284   -275.90151    26212.692    81.933265 
   66100    566.93208   -100.84169   0.51297206   -100.32872    5787.7791    4.3460594    4.3460594    4.3460594    5787.7791   -7935.8276   -16910.224    42209.389    -2122.667    -322.0986    783.70399     82.08938 
   66200    617.23976   -100.88436   0.55849151   -100.32587   -12297.458    4.3543053    4.3543053    4.3543053   -12297.458   -16332.663   -34529.297    13969.587   -2887.8271   -1089.3781    10666.086     82.55752 
   66300    500.40226   -100.78049   0.45277448   -100.32772    9303.7528    4.3386776    4.3386776    4.3386776    9303.7528     9186.606   -9404.3146    28128.967   -101.73501    1063.3449    21849.176    81.671803 
   66400    908.26284    -101.1429    0.8218153   -100.32108   -11123.145    4.3536198    4.3536198    4.3536198   -11123.145   -16956.526   -19829.091    3416.1804   -4312.0369   -2199.0741   -9002.5704    82.518533 
   66500    247.59498     -100.553   0.22402914   -100.32898    733.45753      4.34623      4.34623      4.34623    733.45753    499.30274   -21389.869    23090.939    1079.9407    3456.5066    27719.065    82.099045 
   66600    824.79827    -101.0692   0.74629481   -100.32291    10826.718    4.3420882    4.3420882    4.3420882    10826.718   -1430.6172    2390.1162    31520.655   -4172.0115     96.75771   -19211.895    81.864559 
   66700    479.83642   -100.76014   0.43416608   -100.32598   -6474.4283    4.3550556    4.3550556    4.3550556   -6474.4283   -11121.799   -21719.622    13418.136     573.6609    2949.5321    21089.316    82.600203 
   66800    606.79457   -100.87313   0.54904048   -100.32409    1652.2932    4.3401982    4.3401982    4.3401982    1652.2932    4255.4024    -3956.553    4658.0303   -3133.4535    1843.3743    627.96426    81.757702 
   66900    674.02784   -100.93497   0.60987456    -100.3251    1292.5188    4.3499621    4.3499621    4.3499621    1292.5188     -10857.8   -12711.841    27447.198    688.52494   -2667.1897     7093.076    82.310726 
   67000    533.07813   -100.80919   0.48234029   -100.32685   -8163.9466    4.3504287    4.3504287    4.3504287   -8163.9466   -2101.4811   -20659.366   -1730.9933   -1030.1723    1725.5786    21720.257    82.337214 
   67100    590.77362   -100.85549   0.53454439   -100.32094     12725.29    4.3384221    4.3384221    4.3384221     12725.29   -1035.2334   -6823.1081    46034.211   -1823.8451   -4327.4121    -13474.25    81.657373 
   67200    632.99943   -100.89802   0.57275118   -100.32527   -21496.084    4.3575183    4.3575183    4.3575183   -21496.084   -11139.545   -25993.961   -27354.745    1502.8347   -692.70501    27364.689     82.74041 
   67300    673.43481   -100.93207   0.60933797   -100.32273    5920.5714    4.3422268    4.3422268    4.3422268    5920.5714   -4399.0624   -8261.6931     30422.47   -3087.1463   -1213.9944   -12216.718    81.872396 
   67400    524.47482   -100.79734   0.47455584   -100.32279   -3319.5849    4.3442826    4.3442826    4.3442826   -3319.5849   -135.41654   -21147.252    11323.914    655.99716   -2355.1368    17820.577    81.988737 
   67500     478.5413   -100.75715   0.43299422   -100.32415   -3676.1093    4.3542841    4.3542841    4.3542841   -3676.1093   -21424.837   -17818.565    28215.073   -706.22169    2918.9073    6237.5624    82.556312 
   67600    808.98751   -101.05327    0.7319889   -100.32128    30.287262    4.3424307    4.3424307    4.3424307    30.287262    7374.3126    -12364.99    5081.5392   -2136.1017   -1502.5394   -2544.1438    81.883933 
   67700    441.32317   -100.72533   0.39931848   -100.32601   -5867.5091    4.3460124    4.3460124    4.3460124   -5867.5091   -7967.7536   -14760.158    5125.3847    1694.3445    104.43359    17488.449    82.086718 
   67800    695.47601   -100.95303   0.62928131   -100.32375   -4304.8219    4.3511915    4.3511915    4.3511915   -4304.8219   -9050.9514   -11029.017    7165.5027   -4276.2942    193.26908   -16931.851     82.38053 
   67900    606.59714   -100.87258   0.54886184   -100.32372    4932.3244    4.3447838    4.3447838    4.3447838    4932.3244    6171.2056    -13442.66    22068.428    234.64156   -1617.1225    14655.861    82.017121 
   68000    441.51706   -100.72716   0.39949391   -100.32766    629.17098    4.3441878    4.3441878    4.3441878    629.17098   -8791.5844   -8793.0291    19472.126   -1580.6733      1390.29   -6164.2656    81.983371 
   68100    748.27872   -100.99974   0.67705831   -100.32268   -4508.1312    4.3537374    4.3537374    4.3537374   -4508.1312     1179.811   -16160.788    1456.5838   -2578.8964    282.37183    3788.6532    82.525221 
   68200    641.99108   -100.90353   0.58088702   -100.32265    2655.7534    4.3399851    4.3399851    4.3399851    2655.7534    -862.7596   -3441.1015    12271.121   -1793.4171   -989.05229    9536.8204    81.745662 
   68300    482.83384   -100.76232    0.4368782   -100.32544   -4.0001068    4.3500983    4.3500983    4.3500983   -4.0001068   -345.92235   -15469.809    15803.731   -2024.0478    4602.7703   -10811.919    82.318457 
   68400    696.26383   -100.95311   0.62999415   -100.32312    4185.2068    4.3469078    4.3469078    4.3469078    4185.2068   -2843.0687   -9704.6786    25103.368   -1609.4931    -604.9962    12119.177    82.137464 
   68500    464.51303   -100.74826   0.42030115   -100.32796    2996.3614    4.3437765    4.3437765    4.3437765    2996.3614   -1004.4904   -8551.8511    18545.426   -3000.1542    4204.4291    -12319.55    81.960089 
   68600    693.55832   -100.94784   0.62754615    -100.3203   -2328.0747    4.3501633    4.3501633    4.3501633   -2328.0747   -389.68957   -14358.303    7763.7687    1037.9407   -126.97271    1742.5175    82.322147 
   68700    574.71143    -100.8456   0.52001097   -100.32559   -7362.1515    4.3448383    4.3448383    4.3448383   -7362.1515   -11103.245   -12275.453    1292.2439   -6589.2787     1796.524    1516.8497    82.020207 
   68800    651.74368   -100.91589   0.58971138   -100.32618   -282.15696    4.3465946    4.3465946    4.3465946   -282.15696   -937.16346   -12872.532    12963.225    3402.6101    4134.3759   -8097.9272    82.119709 
   68900    599.83348   -100.86583   0.54274194   -100.32309   -5107.2099    4.3485915    4.3485915    4.3485915   -5107.2099   -7903.4921   -20573.451    13155.313   -5219.7935    281.26798    8116.4997    82.232945 
   69000    394.58033   -100.68568   0.35702457   -100.32865   -4350.8142    4.3468099    4.3468099    4.3468099   -4350.8142   -11695.897   -17035.232    15678.687    212.63098    6269.4856   -14007.257    82.131913 
   69100    910.43717   -101.14413   0.82378268   -100.32034    3830.1455    4.3427749    4.3427749    4.3427749    3830.1455    5716.6689    -5938.611    11712.379    562.54589    1791.1048   -227.41543    81.903407 
   69200    341.70081   -100.63765   0.30917807   -100.32847   -17171.447    4.3528971    4.3528971    4.3528971   -17171.447   -16314.209   -28059.997   -7140.1341   -3164.2625    2170.4266   -11035.215    82.477448 
   69300    752.16745   -101.00533   0.68057691   -100.32475    4879.6268    4.3419045    4.3419045    4.3419045    4879.6268    9334.3411    1941.3384    3363.2008    5700.7355    4511.3408   -8088.8927     81.85417 
   69400    703.16668   -100.95967   0.63623999   -100.32343   -2295.6601    4.3477453    4.3477453    4.3477453   -2295.6601   -5927.6553   -14900.169    13940.844   -5848.5991   -4011.2607   -195.37237    82.184949 
   69500    214.48256   -100.52343   0.19406833   -100.32936   -2486.3629    4.3494724    4.3494724    4.3494724   -2486.3629    -3670.925   -17487.254     13699.09    8027.8161    5248.2305   -11795.865    82.282926 
   69600    951.87981   -101.18033   0.86128085   -100.31905    11376.945     4.341957     4.341957     4.341957    11376.945    11218.107    1062.5525    21850.176    -4484.849   -5492.8928     4319.421    81.857137 
   69700    318.86384   -100.61827    0.2885147   -100.32975   -9291.0657    4.3508999    4.3508999    4.3508999   -9291.0657   -7768.9561   -21533.735    1429.4937    4662.8402    6576.1486   -13910.543    82.363972 
   69800    700.25013    -100.9571   0.63360103    -100.3235    4088.7456    4.3444468    4.3444468    4.3444468    4088.7456    13868.719   -2891.2328    1288.7502    1128.5754   -2430.5669   -1545.4714    81.998036 
   69900     771.0445   -101.02174   0.69765727   -100.32408   -6449.6323     4.348572     4.348572     4.348572   -6449.6323     1388.696   -21025.298    287.70529   -792.74831    1501.4344   -11221.631    82.231838 
   70000    344.25463   -100.64002   0.31148883   -100.32853    2300.2713    4.3451839    4.3451839    4.3451839    2300.2713    8989.1215   -13265.698     11177.39    7099.0739    2442.8691   -8858.1032    82.039777 
   70100    815.94461   -101.05817   0.73828383   -100.31988    1773.4516    4.3472553    4.3472553    4.3472553    1773.4516   -1634.0029   -15638.845    22593.202    -4700.376   -5773.6044    24.144487    82.157162 
   70200    354.86188   -100.65068   0.32108648    -100.3296   -378.48319    4.3472446    4.3472446    4.3472446   -378.48319    10132.984   -23804.081    12535.648    8453.9743    4201.5996   -13667.089    82.156556 
   70300     846.2197   -101.08476   0.76567737   -100.31908   -2966.7883    4.3476229    4.3476229    4.3476229   -2966.7883   -7789.9478   -7593.7313    6483.3142   -3200.1106   -6885.3298    6820.4522    82.178005 
   70400     469.1086   -100.74926   0.42445932    -100.3248   -6275.9889    4.3458188    4.3458188    4.3458188   -6275.9889    3522.6724   -22314.692   -35.947233    4822.0375    4573.7228   -15292.949    82.075748 
   70500    728.11883   -100.98528   0.65881722   -100.32646   -2445.8229    4.3463156    4.3463156    4.3463156   -2445.8229   -4895.2565   -8973.9539    6531.7418   -119.06215   -3319.0984    831.24211    82.103901 
   70600    570.17595   -100.83744   0.51590719   -100.32153   -4495.3466     4.351802     4.351802     4.351802   -4495.3466   -8485.6287   -18721.404    13720.993    621.29051     -599.783   -10847.628    82.415215 
   70700    391.07985   -100.67951   0.35385727   -100.32565   -3326.4538    4.3412562    4.3412562    4.3412562   -3326.4538   -7413.9304   -15635.067    13069.636    2940.2124   -913.88283   -11549.708    81.817507 
   70800    814.29507   -101.05693   0.73679129   -100.32014    6379.8225    4.3476984    4.3476984    4.3476984    6379.8225    4486.2965   -1863.7845    16516.955   -4568.4295   -5785.3878    76.347709     82.18229 
   70900    451.20309   -100.73229   0.40825804   -100.32403   -15396.996    4.3532032    4.3532032    4.3532032   -15396.996   -14810.468    -23306.34   -8074.1807    4017.4172    1954.2476   -19647.449    82.494847 
   71000    661.17626   -100.91799   0.59824617   -100.31975    8476.7332    4.3408705    4.3408705    4.3408705    8476.7332    10357.954    6191.8642    8880.3808   -5005.3041   -4766.2234    8290.1931    81.795703 
   71100     717.8779   -100.97056   0.64955101   -100.32101   -286.47434    4.3480286    4.3480286    4.3480286   -286.47434    8811.8936   -14341.076    4669.7598    1329.5575    1339.3089    -16432.99    82.201014 
   71200    478.89081     -100.756   0.43331047   -100.32269   -2071.6764    4.3519161    4.3519161    4.3519161   -2071.6764   -6961.0697   -10833.771    11579.811   -991.15778   -1199.6715    3110.3403    82.421693 
   71300    538.94187   -100.80741   0.48764593   -100.31977    15667.508    4.3389538    4.3389538    4.3389538    15667.508    22263.784   -4778.5271    29517.267    -3441.192    322.69643   -8255.0794    81.687402 
   71400    685.14836   -100.94344   0.61993664    -100.3235   -10314.474    4.3538729    4.3538729    4.3538729   -10314.474   -2415.8766    -22470.04   -6057.5061    3197.7575     543.2852   -14145.198    82.532925 
   71500    593.00917   -100.85741   0.53656716   -100.32084    5989.1108    4.3434414    4.3434414    4.3434414    5989.1108     8721.337    497.26424    8748.7313   -4018.4224   -215.57989    1659.9816    81.941121 
   71600     567.5665   -100.83482   0.51354609   -100.32127    -9809.773    4.3463111    4.3463111    4.3463111    -9809.773    402.45095   -19063.157   -10768.613     2568.504    2392.4096   -22020.235    82.103644 
   71700    750.86158   -100.99904   0.67939533   -100.31964   -3007.5557    4.3510878    4.3510878    4.3510878   -3007.5557   -8813.1452   -4632.1125    4422.5906    1384.1917    670.09236    7913.1812    82.374641 
   71800    483.12016   -100.76004   0.43713728    -100.3229    2309.5379    4.3417076    4.3417076    4.3417076    2309.5379    3408.6847   -3726.9545    7246.8836    -1945.074    1840.9882   -14760.499    81.843031 
   71900    508.29564    -100.7824   0.45991657   -100.32248   -5328.2868    4.3516719    4.3516719    4.3516719   -5328.2868   -18304.012   -14458.662    16777.814     6911.475    1403.1928    2664.4819    82.407823 
   72000    635.23888   -100.89683   0.57477749   -100.32206    6333.6948    4.3435086    4.3435086    4.3435086    6333.6948    3200.8337    4793.5972    11006.653   -3985.4823     1687.623    -6812.752    81.944924 
   72100    624.76487   -100.88745   0.56530038   -100.32215   -11078.552    4.3513552    4.3513552    4.3513552   -11078.552   -5248.1067   -16308.772   -11678.777    7193.2926   -673.77202   -12328.099    82.389832 
   72200    637.58816    -100.8962   0.57690317    -100.3193    4785.9426     4.342804     4.342804     4.342804    4785.9426   -6906.2029    9380.2016    11883.829   -1887.8765     3301.438    70.508474    81.905053 
   72300    562.55481    -100.8339   0.50901141   -100.32489   -7056.4514    4.3499739    4.3499739    4.3499739   -7056.4514    13624.381   -16113.776   -18679.959    2455.4939   -2635.0809   -20590.946    82.311393 
   72400    794.11502   -101.03884   0.71853196   -100.32031    4065.3454     4.347197     4.347197     4.347197    4065.3454   -13400.557    5351.5941    20244.999    6484.7506    3552.7851    6505.2696    82.153858 
   72500     314.5169   -100.60997    0.2845815   -100.32539    7521.8107    4.3434798    4.3434798    4.3434798    7521.8107    19646.475   -1410.3705     4329.328   -4930.0666    -2644.716   -15466.061    81.943295 
   72600    615.82095    -100.8805   0.55720774   -100.32329   -5015.4191    4.3530851    4.3530851    4.3530851   -5015.4191   -13182.704   -14137.321    12273.768    12182.849    2.1057327    530.62986    82.488134 
   72700    775.74749    -101.0222   0.70191263   -100.32028    6947.3573    4.3422847    4.3422847    4.3422847    6947.3573    9918.8941    9627.1108     1296.067   -6333.8659    657.57258   -7631.0198    81.875675 
   72800    357.97358   -100.64934   0.32390201   -100.32544   -12642.885    4.3498256    4.3498256    4.3498256   -12642.885   -1518.9905   -25416.738   -10992.928    10930.572   -2258.4618   -18097.663    82.302974 
   72900    892.67945   -101.12602   0.80771512    -100.3183   -1682.0538    4.3464038    4.3464038    4.3464038   -1682.0538   -10292.532   -2332.9977    7579.3686   -25.135965    3416.5238    2286.0523    82.108894 
   73000    495.70979   -100.77483   0.44852863    -100.3263     -3478.32    4.3458154    4.3458154    4.3458154     -3478.32    7132.4864   -4358.6155   -13208.831    3243.3479   -2664.0786   -22853.934    82.075553 
   73100    589.57163   -100.85718    0.5334568   -100.32372   -729.11152    4.3484442    4.3484442    4.3484442   -729.11152   -20423.002   -6698.1157    24933.783    10315.252    1922.8458    7066.5217    82.224586 
   73200    505.36518   -100.77994   0.45726504   -100.32268    7129.2113    4.3463427    4.3463427    4.3463427    7129.2113   -1089.2139    15439.717    7037.1313   -3481.0375   -1491.8279   -11613.169    82.105432 
   73300    567.26002   -100.83849   0.51326879   -100.32522   -4488.7222    4.3488631    4.3488631    4.3488631   -4488.7222   -14334.613   -8329.0576    9197.5037    16282.256   -105.87198   -3341.8572     82.24835 
   73400    765.11542   -101.01022   0.69229251   -100.31793    4958.1183    4.3454855    4.3454855    4.3454855    4958.1183   -2055.1033    16944.857   -15.398453   -4571.0855    -1402.997   -959.49295    82.056862 
   73500    386.26418   -100.67586   0.34949995   -100.32636   -13840.649    4.3467056    4.3467056    4.3467056   -13840.649    -10644.91   -22573.237   -8303.8012    16019.303    863.85968   -20185.622    82.125999 
   73600    882.23829   -101.12019   0.79826774   -100.32192     3131.154    4.3470871    4.3470871    4.3470871     3131.154   -2813.7026    10301.764    1905.4005    2461.8545   -1698.1622    8763.4205    82.147627 
   73700    519.08456   -100.79539   0.46967862   -100.32571    -5899.448    4.3460031    4.3460031    4.3460031    -5899.448   -2474.7359   -12644.658     -2578.95    6407.0665    1698.9596   -16044.185    82.086187 
   73800    395.06358   -100.68374   0.35746183   -100.32628    1349.2069    4.3476173    4.3476173    4.3476173    1349.2069   -7975.2053   -11750.565    23773.391    11351.696   -671.64138     7958.942    82.177691 
   73900    784.20955   -101.03021   0.70956928   -100.32064    2274.5014    4.3476412    4.3476412    4.3476412    2274.5014    6107.3381   -2362.8291    3078.9953   -1835.3038   -760.41568   -4062.4075    82.179043 
   74000     390.1811   -100.67794   0.35304406    -100.3249   -2815.0491    4.3457383    4.3457383    4.3457383   -2815.0491   -5337.9085   -14725.173    11617.934    15229.994    1835.4892   -5648.1207    82.071184 
   74100    749.33429   -100.99606   0.67801342   -100.31805   -3137.8641    4.3488314    4.3488314    4.3488314   -3137.8641     5650.973   -8953.8821   -6110.6833   -3717.0746   -850.03771    3919.5371    82.246555 
   74200    605.37972   -100.87181   0.54776029   -100.32405     -3753.16    4.3444088    4.3444088    4.3444088     -3753.16   -2533.5472   -7931.1541   -794.77879    12634.018    721.49798   -16541.456    81.995885 
   74300    693.20099   -100.94992   0.62722282   -100.32269   -1637.7042    4.3489738    4.3489738    4.3489738   -1637.7042    3249.0465   -5452.7421   -2709.4169   -224.00421   -1211.3453    6332.9024    82.254634 
   74400    504.92723   -100.77908   0.45686877   -100.32221    1291.9365    4.3468015    4.3468015    4.3468015    1291.9365   -3696.9074   -4646.4712    12219.188     6210.733    363.42945   -8345.0195    82.131437 
   74500    526.01468   -100.79972   0.47594913   -100.32377    3238.4012    4.3461688    4.3461688    4.3461688    3238.4012   -3887.5676   -630.24517    14233.016    5250.6658   -318.58789    570.02305    82.095578 
   74600    699.66762   -100.95312   0.63307396   -100.32004   -1480.9904    4.3500572    4.3500572    4.3500572   -1480.9904   -3347.7345    5.4223067   -1100.6589   -2971.3168    -573.1739    5172.8151    82.316122 
   74700    379.06071    -100.6651   0.34298209   -100.32212    3706.9544    4.3423101    4.3423101    4.3423101    3706.9544   -1107.5719    -3591.016    15819.451     11269.26   -50.527897   -8446.1364    81.877111 
   74800    777.41977   -101.02421   0.70342575   -100.32078   -12395.312    4.3522768    4.3522768    4.3522768   -12395.312   -11543.992   -6163.6883   -19478.255   -7424.2778   -3657.5821    6946.3699    82.442192 
   74900    608.86961   -100.87306   0.55091802   -100.32214    3290.9298    4.3433549    4.3433549    4.3433549    3290.9298    11936.116   -4897.8192    2834.4928     12959.23    1786.1317   -10704.509    81.936225 
   75000    616.71207   -100.87841   0.55801404    -100.3204   -11832.308    4.3507327    4.3507327    4.3507327   -11832.308   -6479.1207   -16917.134   -12100.668   -3425.5016   -8754.4594    1124.5942    82.354474 
   75100    569.59843   -100.83674   0.51538463   -100.32136    3273.8722    4.3453602    4.3453602    4.3453602    3273.8722    11889.421   -12479.624     10411.82    6334.8751      3679.73   -884.12792    82.049765 
   75200    681.84441   -100.93809   0.61694715   -100.32115    3926.8465    4.3445058    4.3445058    4.3445058    3926.8465    10338.751   -8258.0171    9699.8057    6026.2638   -7741.9555   -3662.0773    82.001376 
   75300    472.12877   -100.74876   0.42719203   -100.32157   -3909.9667    4.3526119    4.3526119    4.3526119   -3909.9667    7090.9203   -15696.109    -3124.711   -2425.7654    69.038397    10179.462    82.461235 
   75400    581.03479    -100.8461   0.52573249   -100.32036    11576.334    4.3403524    4.3403524    4.3403524    11576.334    18943.269   -4345.5848    20131.318     12823.79   -216.90702   -3732.9755    81.766416 
   75500    708.01896    -100.9612   0.64063043   -100.32057   -7455.9236    4.3539248    4.3539248    4.3539248   -7455.9236    1197.2229    231.68733   -23796.681   -5545.0842   -7701.0084    8108.0342    82.535877 
   75600    486.62518   -100.76159   0.44030869   -100.32128    5440.6309    4.3421457    4.3421457    4.3421457    5440.6309    13942.077    -5293.756    7673.5717    15310.943    4508.9534    424.79975    81.867812 
   75700     681.8087   -100.93599   0.61691484   -100.31907   -2023.8068    4.3493896    4.3493896    4.3493896   -2023.8068    5118.7869    -3262.922   -7927.2853   -2539.8551   -7603.2934   -3403.4631    82.278229 
   75800    618.97234   -100.88106   0.56005918     -100.321   -3944.2085    4.3483728    4.3483728    4.3483728   -3944.2085   -466.30285    -2661.659   -8704.6637     12308.48    4138.0164    4448.7823    82.220535 
   75900    561.02311   -100.82773    0.5076255   -100.32011     9673.366    4.3421221    4.3421221    4.3421221     9673.366    21761.829   -7650.3309      14908.6    1938.3998   -1875.0483   -9504.2676    81.866473 
   76000    608.30823   -100.87115   0.55041007   -100.32074   -10262.598    4.3538895    4.3538895    4.3538895   -10262.598   -11188.401   -15559.107   -4040.2855      3297.59    461.18541    2206.9589    82.533868 
   76100    570.19535   -100.83792   0.51592474     -100.322    17175.261    4.3380949    4.3380949    4.3380949    17175.261    30105.892   -7508.8295    28928.721     8256.008    4212.6886   -2229.6147    81.638899 
   76200    645.51651   -100.90408   0.58407691   -100.32001   -10415.644    4.3554828    4.3554828    4.3554828   -10415.644   -3172.2434   -16849.963   -11224.724    -7445.588   -2134.0606    -2665.345    82.624511 
   76300    492.87877   -100.76788   0.44596707   -100.32191     10063.96    4.3396795    4.3396795    4.3396795     10063.96    25804.976    -11155.52    15542.423    14011.318     3125.965    4470.1554    81.728394 
   76400     738.5348   -100.99108    0.6682418   -100.32284   -3883.4609    4.3486721    4.3486721    4.3486721   -3883.4609    1704.9926   -13774.634    419.25904   -11591.485   -943.46181   -2664.9584    82.237517 
   76500    599.88925   -100.86406    0.5427924   -100.32127   -799.17562    4.3484264    4.3484264    4.3484264   -799.17562    19056.056   -6432.1894   -15021.393    9508.3986    1456.0713   -646.01194    82.223579 
   76600    518.25838   -100.79146   0.46893107   -100.32253    3051.9877    4.3421161    4.3421161    4.3421161    3051.9877    8375.2534   -17959.412    18740.122   -6186.5048    4190.8868   -770.44857    81.866137 
   76700    769.13363   -101.01588   0.69592827   -100.31995    -1546.226    4.3511815    4.3511815    4.3511815    -1546.226    6459.8161   -8098.5489   -2999.9452   -1293.1819   -3396.7049   -6073.2877    82.379965 
   76800    457.21079   -100.73673   0.41369393   -100.32304    6423.7156    4.3429171    4.3429171    4.3429171    6423.7156    3620.4226   -12368.224    28018.948    910.48245    6073.7741   -2517.9888    81.911452 
   76900    518.91915   -100.79316   0.46952895   -100.32363   -3433.8563    4.3507205    4.3507205    4.3507205   -3433.8563   -504.81082   -27964.086    18167.328   -13573.979   -6784.9553   -5381.3879     82.35378 
   77000    740.84696   -100.99072    0.6703339   -100.32039    9791.5642    4.3438351    4.3438351    4.3438351    9791.5642    7350.1424   -3361.2423    25385.793    5706.6883       1071.9   -2201.0332    81.963405 
   77100    392.79574   -100.68095   0.35540984   -100.32554   -9004.6225    4.3490099    4.3490099    4.3490099   -9004.6225   -4984.8943   -31114.068    9085.0949   -17035.649    -1124.919   -881.88408    82.256685 
   77200    733.32321   -100.98165   0.66352625   -100.31813    3196.2021    4.3451907    4.3451907    4.3451907    3196.2021    18703.738   -6073.5965    -3041.535     4944.995   -1893.7618   -1305.1503    82.040165 
   77300    590.64727   -100.85813   0.53443006    -100.3237   -8933.4794    4.3491668    4.3491668    4.3491668   -8933.4794   -12190.784   -21702.475    7092.8207   -12701.716    4619.1395    2589.8687    82.265588 
   77400    672.77254   -100.92956   0.60873874   -100.32082   -2880.7773    4.3451851    4.3451851    4.3451851   -2880.7773    12444.475   -10053.634   -11033.172   -1904.3623   -1565.5479   -5100.2387    82.039845 
   77500    584.87195   -100.85139   0.52920443   -100.32218    547.28069    4.3449406    4.3449406    4.3449406    547.28069   -305.14651   -8503.2887    10450.277   -5184.7761    7412.0707    2831.5852    82.026002 
   77600     537.9916   -100.81304   0.48678611   -100.32625   -7844.9291    4.3515693    4.3515693    4.3515693   -7844.9291   -12453.241   -28168.603    17087.057   -10059.241   -165.48531   -8753.4401     82.40199 
   77700    723.90069   -100.97492   0.65500056   -100.31992    13876.997    4.3389694    4.3389694    4.3389694    13876.997     17561.45    4070.3191    19999.222    201.86458    5367.3332   -253.68402    81.688283 
   77800    316.03495   -100.61176   0.28595506    -100.3258   -4483.0194    4.3515046    4.3515046    4.3515046   -4483.0194   -15074.018   -30890.222    32515.181   -14200.731      454.462   -3796.5186    82.398314 
   77900    832.45557   -101.07357    0.7532233   -100.32034    2194.9032     4.345399     4.345399     4.345399    2194.9032    12755.956   -10775.871    4604.6248    2396.7586    2369.2273   -3046.4628    82.051965 
   78000    566.48111   -100.83542   0.51256401   -100.32286    1128.4235    4.3451509    4.3451509    4.3451509    1128.4235   -7709.8254   -15045.631    26140.727    -12747.34    3962.1741     1632.317    82.037911 
   78100    555.47094   -100.82434   0.50260178   -100.32173   -13000.213    4.3501628    4.3501628    4.3501628   -13000.213    885.01233   -31869.355   -8016.2958    3031.6382    2553.2062   -1986.7705    82.322116 
   78200    738.06329   -100.98857   0.66781517   -100.32076    4723.9687    4.3433776    4.3433776    4.3433776    4723.9687   -447.60109   -9886.4752    24505.982   -8861.1252    3019.4081    4107.7513     81.93751 
   78300    550.10882   -100.81998   0.49775002   -100.32223    -7638.736    4.3508816    4.3508816    4.3508816    -7638.736   -14670.492   -28323.106    20077.391    952.19279    4546.4019    -4265.998    82.362933 
   78400    524.66729   -100.79507   0.47472999   -100.32034    1925.9803     4.344209     4.344209     4.344209    1925.9803    8240.5861   -17517.903    15055.258   -1374.6282   -4399.4471    50.150944    81.984573 
   78500    676.34102   -100.93367   0.61196757    -100.3217   -2005.2584    4.3474561    4.3474561    4.3474561   -2005.2584   -19139.571   -8492.6672    21616.463   -7576.3826    8327.9602   -878.18483    82.168551 
   78600    668.72003   -100.92592   0.60507194   -100.32085   -1202.6536    4.3453535    4.3453535    4.3453535   -1202.6536    4869.5225   -17442.478    8964.9946    6537.4443    -8115.244   -1857.2497    82.049387 
   78700     466.2988    -100.7447   0.42191696   -100.32279    1746.8355    4.3481214    4.3481214    4.3481214    1746.8355   -8531.8031   -7061.6847    20833.994   -11811.635    9906.6457     6051.505    82.206275 
   78800    719.56141   -100.97193   0.65107428   -100.32086    2400.1448    4.3470042    4.3470042    4.3470042    2400.1448   -5379.9712   -13218.944     25799.35    8689.4707   -1028.2572   -2035.8363    82.142928 
   78900    489.43635   -100.76663    0.4428523   -100.32377    5474.0847    4.3450762    4.3450762    4.3450762    5474.0847   -3246.8018   -11567.131    31236.187   -8479.9324    4618.4736    7965.8598    82.033681 
   79000    515.51701   -100.79056   0.46645063   -100.32411   -3389.4227    4.3475747    4.3475747    4.3475747   -3389.4227    -11982.82   -15838.335    17652.886     5344.172    5844.3412   -2625.0087    82.175276 
   79100     752.2289   -101.00209   0.68063251   -100.32146    -2016.465    4.3461454    4.3461454    4.3461454    -2016.465    11.017539   -10782.405    4721.9922   -249.66629   -2805.0233    3595.7313    82.094252 
   79200    573.36328   -100.84178   0.51879114   -100.32299   -10653.926    4.3493887    4.3493887    4.3493887   -10653.926   -20000.136   -16528.037     4566.396   -355.49278    6792.1892   -1255.9831     82.27818 
   79300    700.45929   -100.95224   0.63379028   -100.31845   -1345.4682    4.3430908    4.3430908    4.3430908   -1345.4682    1618.0382   -17225.763     11571.32    8789.2734    -2031.628    1243.5634    81.921281 
   79400    482.12849    -100.7614   0.43623999   -100.32516   -2509.1341    4.3478266    4.3478266    4.3478266   -2509.1341    -11134.66   -12179.589    15786.847   -7222.9874    5913.1106    1723.2798    82.189559 
   79500    662.85742   -100.92265   0.59976732   -100.32288   -1478.8113    4.3484004    4.3484004    4.3484004   -1478.8113   -16202.951   -21345.625    33112.143    15321.886    5247.3499    4052.1805    82.222104 
   79600    527.89379   -100.79971   0.47764939   -100.32206    4650.2854    4.3433705    4.3433705    4.3433705    4650.2854    8058.0482   -11512.815    17405.623   -10811.085    3304.9866    3679.4702    81.937106 
   79700    480.43176   -100.76073   0.43470475   -100.32603   -5707.7602    4.3476897    4.3476897    4.3476897   -5707.7602    -15280.25   -7498.7896    5655.7593    11987.131    7293.1708    4046.4726    82.181796 
   79800    856.01867   -101.09329   0.77454368   -100.31875    581.89419    4.3485674    4.3485674    4.3485674    581.89419    2175.9643   -10326.755    9896.4735   -3500.5881   -393.17358   -544.40312    82.231576 
   79900    325.80432   -100.61986   0.29479459   -100.32507   -6065.9071    4.3458011    4.3458011    4.3458011   -6065.9071   -12577.696   -10465.647    4845.6219    338.89572    2523.7191    4216.0387    82.074742 
   80000    703.46828    -100.9577   0.63651288   -100.32119    2390.5041    4.3431832    4.3431832    4.3431832    2390.5041    319.16036   -430.09178    7282.4437    9126.9894    270.38712   -5576.6859     81.92651 
   80100    665.82259    -100.9276   0.60245027   -100.32515   -5895.9384     4.348558     4.348558     4.348558   -5895.9384   -16382.923   -12843.265    11538.372   -7223.9602   -927.73511    6016.8942    82.231043 
   80200    431.07803   -100.71643   0.39004846   -100.32638   -1465.7004    4.3450962    4.3450962    4.3450962   -1465.7004   -9440.0187   -9112.2522     14155.17    14609.293     7667.623   -3804.8022    82.034813 
   80300    812.10113   -101.05464   0.73480617   -100.31983   -4529.9141    4.3473669    4.3473669    4.3473669   -4529.9141   -1488.7807   -10152.489   -1948.4722   -7978.4035   -4405.3067    2510.9361    82.163494 
   80400    459.80709   -100.74087   0.41604312   -100.32483   -1134.0944    4.3462716    4.3462716    4.3462716   -1134.0944   -12515.875   -6519.2954    15632.887    10898.756    10842.411     2733.383    82.101407 
   80500    765.43545   -101.01162   0.69258208   -100.31904   -500.44366    4.3462922    4.3462922    4.3462922   -500.44366    6488.5283   -16902.658    8912.7987   -3656.8799    -6790.143   -8347.7175     82.10257 
   80600    481.76263   -100.75775   0.43590896   -100.32185    2653.4418    4.3465245    4.3465245    4.3465245    2653.4418   -6957.7504   -7042.6404    21960.716    3354.0767    6618.5888    4419.9609    82.115737 
   80700     543.7014   -100.81501   0.49195245   -100.32306    296.91077    4.3459256    4.3459256    4.3459256    296.91077    2695.5822    -11109.85    9305.0006    3695.3148   -4108.1544   -14869.094      82.0818 
   80800    696.16092   -100.94948   0.62990103   -100.31958     3518.777    4.3465995    4.3465995    4.3465995     3518.777   -8212.5539   -13505.316    32274.201   -4449.8553    2743.4703   -3101.2157    82.119987 
   80900    403.20935   -100.68942   0.36483229   -100.32459    -3288.055    4.3449288    4.3449288    4.3449288    -3288.055   -2675.9046   -8226.0751    1037.8147    11237.189    4734.8709   -8314.5491    82.025334 
   81000    770.97138   -101.01689   0.69759111    -100.3193   -7838.3276    4.3506634    4.3506634    4.3506634   -7838.3276   -4381.7244   -14503.009   -4630.2497   -5715.0091    1869.9825   -8861.1121    82.350541 
   81100    638.52092   -100.89932   0.57774715   -100.32157   -2022.3673     4.342337     4.342337     4.342337   -2022.3673    -5160.913   -13676.462    12770.273    11143.114    6948.5991    922.31246    81.878629 
   81200    541.60409   -100.81449   0.49005477   -100.32444   -9584.6529    4.3494345    4.3494345    4.3494345   -9584.6529     3363.696   -16834.412   -15283.242    158.33867     3859.186   -13480.097    82.280775 
   81300    745.37965   -100.99409   0.67443517   -100.31966    6246.3861    4.3442254    4.3442254    4.3442254    6246.3861    1997.5502   -7057.1355    23798.744    4022.2016   -98.046319    2163.3163    81.985498 
   81400     402.1201    -100.6901   0.36384672   -100.32625    1083.7749    4.3447571    4.3447571    4.3447571    1083.7749    156.06319   -14955.375    18050.636    6297.9616    3613.4088   -14916.896    82.015607 
   81500     755.7832    -101.0032   0.68384852   -100.31936    1981.8043    4.3513759    4.3513759    4.3513759    1981.8043     5406.015   -5581.9802     6121.378   -3622.1534   -2162.6631   -3424.8424    82.391008 
   81600    439.00914   -100.72125    0.3972247   -100.32402    8759.6426    4.3391969    4.3391969    4.3391969    8759.6426   -641.47115    3714.7921    23205.607    9512.2916    1315.9723   -9545.7661    81.701134 
   81700    615.28672    -100.8814   0.55672435   -100.32468   -7493.0098    4.3530032    4.3530032    4.3530032   -7493.0098   -3474.0402   -11112.676   -7892.3134   -4570.7158    4036.0173   -7941.4165    82.483479 
   81800    729.92114   -100.98161   0.66044799   -100.32117    4891.2534    4.3427368    4.3427368    4.3427368    4891.2534   -6063.8322    786.16333    19951.429    8194.6954   -3996.0669    5150.2008    81.901248 
   81900       378.39   -100.66842   0.34237522   -100.32605   -9491.1602    4.3475938    4.3475938    4.3475938   -9491.1602    1534.9851   -17044.198   -12964.268    1561.3045    7530.6615   -13869.733    82.176358 
   82000    826.21447   -101.06584   0.74757622   -100.31826   -648.04782    4.3473328    4.3473328    4.3473328   -648.04782   -12088.845   -9296.0027    19440.704    2252.0902   -7527.2871    8769.5623     82.16156 
   82100    445.38479   -100.72714   0.40299352   -100.32415   -2702.1618     4.345341     4.345341     4.345341   -2702.1618    7061.4233   -16232.718    1064.8095    7854.6096    4592.9342   -17602.279     82.04868 
   82200    714.34009   -100.96714   0.64634992   -100.32079   -6242.3756    4.3478307    4.3478307    4.3478307   -6242.3756   -1657.8777   -6821.6192    -10247.63   -4768.4301   -5879.3046    948.08567    82.189791 
   82300    529.73434   -100.80136   0.47931477   -100.32204    7817.7474     4.343831     4.343831     4.343831    7817.7474    4120.8145    2430.4858    16901.942    8384.0861    443.84486   -9795.3971    81.963174 
   82400    590.79187   -100.85761    0.5345609   -100.32305   -10115.712    4.3538737    4.3538737    4.3538737   -10115.712   -1300.1958    -8678.926   -20368.015    -5395.089    542.84168   -6044.4918    82.532969 
   82500    655.83194   -100.91208   0.59341052   -100.31867    17206.106    4.3371264    4.3371264    4.3371264    17206.106    10830.929    16692.496    24094.892    2383.3764   -3969.3997    3721.2509    81.584231 
   82600    431.91518   -100.71594   0.39080593   -100.32514   -5769.4028    4.3519385    4.3519385    4.3519385   -5769.4028    1043.8793    -15800.24   -2551.8477     433.8988    6678.0441   -15434.546    82.422966 
   82700    719.78615   -100.97021   0.65127763   -100.31893    1611.3405    4.3484117    4.3484117    4.3484117    1611.3405   -10110.088    3203.5146    11740.595   -1111.9572   -7500.1661     8378.743    82.222742 
   82800    609.12575   -100.87193   0.55114978   -100.32078    3967.9282    4.3387637    4.3387637    4.3387637    3967.9282    12545.604   -1065.8697    424.05051    5108.2128    4882.5578   -19750.443    81.676663 
   82900    553.28465   -100.82104   0.50062358   -100.32042   -11762.462    4.3542161    4.3542161    4.3542161   -11762.462   -19895.643   -5144.1701   -10247.574   -1087.1152   -4003.0673   -1797.7721    82.552446 
   83000    659.68723   -100.91644   0.59689887   -100.31954    1633.4637    4.3418317    4.3418317    4.3418317    1633.4637   -8584.6632    14463.251   -978.19666    3838.0483   -4322.9394   -5191.8809    81.850054 
   83100    561.76602   -100.83044    0.5082977   -100.32214   -6560.3745     4.348866     4.348866     4.348866   -6560.3745    405.72468   -4425.6136   -15661.235   -399.05717    616.53861   -13393.992     82.24852 
   83200    560.93531   -100.82805   0.50754606    -100.3205   -341.08353      4.34391      4.34391      4.34391   -341.08353   -22907.357     12348.12    9535.9859    909.85641   -7451.4174     9532.232    81.967647 
   83300     583.4676   -100.85217   0.52793375   -100.32423   -7417.9172    4.3485381    4.3485381    4.3485381   -7417.9172   -2685.2797   -18140.507    -1427.965    608.36084    2750.3473   -20990.012    82.229916 
   83400    732.27988   -100.98346   0.66258222   -100.32088   -641.04914    4.3452303    4.3452303    4.3452303   -641.04914   -7675.4116     6400.757   -648.49287   -1259.6978    -6361.612    2915.3422    82.042406 
   83500     493.8834   -100.76935   0.44687608   -100.32247   -5110.0363    4.3461131    4.3461131    4.3461131   -5110.0363   -10378.423   -9394.4522    4442.7668    4583.7007   -726.52323   -12760.311    82.092423 
   83600    672.83379   -100.92972   0.60879415   -100.32093   -2213.1931    4.3489238    4.3489238    4.3489238   -2213.1931     -5813.95    9884.2548   -10709.884   -2516.4754   -3741.6969   -10872.431    82.251795 
   83700    643.56843   -100.90312   0.58231424    -100.3208    7199.7237    4.3422681    4.3422681    4.3422681    7199.7237   -5202.7014    15542.411    11259.461    6198.0152    -7053.554    7230.1405    81.874732 
   83800    431.08145   -100.71242   0.39005155   -100.32237   -2081.4804    4.3502762    4.3502762    4.3502762   -2081.4804   -1245.1409   -2363.7951    -2635.505    757.95472   -679.03406   -19833.621    82.328555 
   83900    640.15205    -100.8983   0.57922303   -100.31908    5621.4774    4.3444034    4.3444034    4.3444034    5621.4774   -15957.995    19586.104    13236.323    2324.4204   -13189.121    11854.185    81.995577 
   84000    622.04314     -100.885   0.56283771   -100.32216   -5070.5784    4.3457632    4.3457632    4.3457632   -5070.5784    5940.2678   -15159.602   -5992.4015    5677.8603    1986.4739   -19844.212    82.072598 
   84100    627.63673   -100.88759    0.5678989   -100.31969   -3399.5079    4.3464415    4.3464415    4.3464415   -3399.5079    -10997.21    4693.5941    -3894.908   -991.78326   -12932.308   -483.68866    82.111032 
   84200    579.25743   -100.84634    0.5241243   -100.32221    -8173.667    4.3472716    4.3472716    4.3472716    -8173.667   -15755.982   -6342.1913   -2422.8279    3393.5069    851.37531   -7929.4095    82.158089 
   84300    647.85961   -100.90924   0.58619699   -100.32305   -2478.4813    4.3448877    4.3448877    4.3448877   -2478.4813    2028.2471   -1785.3638   -7678.3273   -725.81733   -5905.6264    -12200.82    82.023004 
   84400    566.58525   -100.83337   0.51265824   -100.32072    894.96982    4.3469062    4.3469062    4.3469062    894.96982   -22017.995    14768.378    9934.5261    1291.6119   -6523.7815    8185.9076    82.137372 
   84500    420.50648   -100.70393    0.3804831   -100.32345   -4931.0542    4.3475913    4.3475913    4.3475913   -4931.0542   -12404.381   -6579.2462    4190.4644    905.40535    1519.9189   -17039.848    82.176217 
   84600    762.13722   -101.00966   0.68959777   -100.32007     8249.916    4.3431249    4.3431249    4.3431249     8249.916   -5690.8152    24771.458    5669.1047     1052.893   -14859.909    8841.9122     81.92321 
   84700    567.07021   -100.83534   0.51309705   -100.32225   -10171.575    4.3503269    4.3503269    4.3503269   -10171.575   -16203.228   -13513.962   -797.53545    2813.1545    5062.3832   -18176.633    82.331435 
   84800    511.58955   -100.78681   0.46289697   -100.32391    534.59847    4.3414099    4.3414099    4.3414099    534.59847   -7726.0079    8229.7188    1100.0845    212.95757   -14909.329   -1927.3743    81.826199 
   84900    856.19885    -101.0946   0.77470672    -100.3199   -2909.4574    4.3497763    4.3497763    4.3497763   -2909.4574   -6926.1741   -2897.5671    1095.3688    1814.9395    1316.2202   -7156.7421    82.300179 
   85000    405.65816   -100.69236   0.36704803   -100.32531    -7530.451    4.3463381    4.3463381    4.3463381    -7530.451   -14303.661   -5298.5061   -2989.1856    12.302891    -5850.046   -10331.264    82.105172 
   85100    613.49671   -100.87603   0.55510471   -100.32093    9157.2448    4.3405104    4.3405104    4.3405104    9157.2448     -4206.49    16596.314     15081.91   -1307.2549    -7415.621    5499.2287    81.775347 
   85200     549.0723   -100.82095   0.49681215   -100.32414   -10142.129    4.3541967    4.3541967    4.3541967   -10142.129   -11848.857   -9724.5017   -8853.0284    1486.9596      3805.13   -9509.3673    82.551342 
   85300    659.44774   -100.91799   0.59668218   -100.32131    3850.5621    4.3388581    4.3388581    4.3388581    3850.5621   -3596.5651    19891.242   -4742.9904   -4400.0545   -14721.579   -99.263118    81.681994 
   85400     567.0185   -100.83296   0.51305026   -100.31991    -7141.245      4.35143      4.35143      4.35143    -7141.245   -13061.714   -8902.5516    540.53108    4173.9989    4053.8702    -4071.171     82.39408 
   85500    563.60415   -100.83382   0.50996088   -100.32386   -7360.2621    4.3446977    4.3446977    4.3446977   -7360.2621   -13248.774     1821.214   -10653.226   -3339.6687   -14004.295   -12580.588    82.012244 
   85600    788.17619   -101.03297   0.71315838   -100.31981    7211.2058    4.3438204    4.3438204    4.3438204    7211.2058   -1016.0242    6261.5297    16388.112    4147.7311    -294.4842    8088.9645    81.962575 
   85700     386.2471   -100.67443    0.3494845   -100.32494   -9854.9121    4.3499352    4.3499352    4.3499352   -9854.9121   -24691.102   -4013.3339   -860.30032    138.60487    -6845.914   -12339.668    82.309196 
   85800    648.38282   -100.90828    0.5866704   -100.32161    7904.0535    4.3435486    4.3435486    4.3435486    7904.0535   -7904.6099    19017.843    12598.928   -190.01903     -6283.49    9719.9244    81.947189 
   85900    707.14629   -100.96109   0.63984082   -100.32125   -6882.3522    4.3490632    4.3490632    4.3490632   -6882.3522   -7789.0015    764.10283   -13622.158    1964.6277    932.50952   -4913.1066    82.259706 
   86000    441.36547   -100.72307   0.39935675   -100.32371    672.93704    4.3435791    4.3435791    4.3435791    672.93704   -18596.335    19639.633    975.51331   -458.89872   -13693.851   -6155.0501    81.948913 
   86100    698.46165   -100.95182   0.63198278   -100.31984   -7944.2583    4.3504235    4.3504235    4.3504235   -7944.2583   -8369.3896   -12077.477   -3385.9082    -415.9189    5947.1676     6360.241    82.336916 
   86200    512.00035   -100.78705   0.46326867   -100.32378   -2560.8845    4.3431645    4.3431645    4.3431645   -2560.8845   -7259.2541   -566.45955    143.06033    2109.6409   -15606.288   -17888.942    81.925452 
   86300    695.86392   -100.95021    0.6296323   -100.32058   -2145.1985      4.34678      4.34678      4.34678   -2145.1985   -12589.809   -507.52196    6661.7352   -1119.1382    1680.5607    17516.142    82.130218 
   86400    528.10949   -100.80088   0.47784456   -100.32304   -4190.6872    4.3471487    4.3471487    4.3471487   -4190.6872    -2421.092   -10113.796   -37.173494   -505.43603   -4727.8849   -15753.148    82.151123 
   86500    637.78639   -100.89982   0.57708253   -100.32273    5746.5306    4.3449112    4.3449112    4.3449112    5746.5306    -2453.143     19746.29   -53.555124     2399.862   -8114.3466    10587.957    82.024334 
   86600     679.0694   -100.93521   0.61443626   -100.32077   -330.78751    4.3488498    4.3488498    4.3488498   -330.78751   -360.80377    2719.9452    -3351.504   -3097.3542    5164.5604   -7916.6605      82.2476 
   86700    396.38245   -100.68275   0.35865517   -100.32409    10928.027    4.3439311    4.3439311    4.3439311    10928.027   -1227.4754     15967.02    18044.536    3100.8483   -11068.017   -10120.803    81.968841 
   86800    721.40711   -100.97227   0.65274431   -100.31953    1461.7573    4.3485063    4.3485063    4.3485063    1461.7573    1967.1846   -3937.6322    6355.7195   -4264.4568    5491.5129    6664.3311    82.228109 
   86900    491.99228   -100.76794   0.44516495   -100.32278    6579.4283    4.3441375    4.3441375    4.3441375    6579.4283    5211.4847    5015.2824    9511.5179    1085.1586   -9885.9959   -18526.531    81.980526 
   87000    735.16224   -100.98295   0.66519024   -100.31776   -8615.8645    4.3494601    4.3494601    4.3494601   -8615.8645   -13112.124   -9030.7719   -3704.6973    -4224.705      403.889    15164.281     82.28223 
   87100    534.32011    -100.8038   0.48346406   -100.32034   -971.14925     4.343045     4.343045     4.343045   -971.14925    11347.992   -13319.327   -942.11283   -653.95701   -3193.1411   -16181.332    81.918689 
   87200    708.96949   -100.96282   0.64149049   -100.32133   -6447.9423    4.3491863    4.3491863    4.3491863   -6447.9423     -14154.4    -4458.267   -731.15966   -2742.8685   -7219.3304    4216.3334    82.266689 
   87300    550.18479   -100.82077   0.49781876   -100.32295    551.58989    4.3458253    4.3458253    4.3458253    551.58989   -5064.9825   -9003.5526    15723.305   -1375.0033    4488.1157   -6776.2061    82.076113 
   87400    511.78009   -100.78914   0.46306938   -100.32607    3515.0309    4.3424907    4.3424907    4.3424907    3515.0309   -1253.8288    439.11254    11359.809   -790.12114   -11312.416   -14334.339    81.887327 
   87500    665.71062   -100.92327   0.60234896   -100.32093   -2025.6904    4.3528263    4.3528263    4.3528263   -2025.6904   -12740.424    6309.1531    354.19935   -417.47933    6156.5026    7045.0772     82.47342 
   87600    611.37244   -100.87374   0.55318263   -100.32056    1360.5036    4.3402069    4.3402069    4.3402069    1360.5036     1400.799   -2390.3405    5071.0523   -688.31719   -6670.4252   -17897.762    81.758197 
   87700    609.50143   -100.87092    0.5514897   -100.31943    1820.9051    4.3485751    4.3485751    4.3485751    1820.9051   -4724.0386    3427.7568    6758.9972    -532.8832   -1860.2617    11496.911    82.232016 
   87800    593.21763   -100.85795   0.53675578    -100.3212   -5853.0183    4.3482688    4.3482688    4.3482688   -5853.0183   -1874.8632   -14451.423   -1232.7687    1382.0369    218.57733   -13877.168    82.214641 
   87900    683.69756   -100.93874   0.61862392   -100.32012     6191.025    4.3416445    4.3416445    4.3416445     6191.025    -1981.513    8541.8183     12012.77   -3915.1806   -5610.6052   -2298.3449    81.839463 
   88000    490.88201   -100.76573   0.44416036   -100.32157   -2263.6266    4.3488319    4.3488319    4.3488319   -2263.6266   -2339.6244   -12207.022    7755.7672     3002.954    5105.2379   -5460.5374    82.246584 
   88100    603.93361   -100.86746   0.54645182   -100.32101   -7374.5548    4.3502198    4.3502198    4.3502198   -7374.5548   -8271.4106   -254.02208   -13598.232   -2075.2175   -6673.3139   -16185.493    82.325354 
   88200    672.65791   -100.92944   0.60863501    -100.3208    10370.717    4.3378896    4.3378896    4.3378896    10370.717    1163.1513    11581.878    18367.121   -106.32209     5858.328    10035.386    81.627308 
   88300    530.09471   -100.80399   0.47964083   -100.32435   -10227.538    4.3525095    4.3525095    4.3525095   -10227.538    -7626.297   -20230.905   -2825.4123     1526.085   -2735.4523   -23775.049    82.455417 
   88400    673.81141   -100.92854   0.60967872   -100.31886     4635.327    4.3465074    4.3465074    4.3465074     4635.327   -11066.028    4932.9223    20039.086   -902.38249    225.05352    13629.542    82.114769 
   88500    536.12562   -100.80809   0.48509773   -100.32299    2671.4762    4.3392424    4.3392424    4.3392424    2671.4762    5837.1795   -6833.0484    9010.2976    1627.8403     3283.204    -25415.07    81.703701 
   88600    753.19601   -101.00142   0.68150758   -100.31991    1017.1294    4.3526645    4.3526645    4.3526645    1017.1294   -16691.927    6126.8083    13616.507    409.03145   -4327.4426   -345.97914    82.464223 
   88700    386.90339   -100.67662   0.35007832   -100.32654      560.641    4.3421628    4.3421628    4.3421628      560.641   -1528.1505    11714.274   -8504.2005    580.97111    3598.9666    -8924.945     81.86878 
   88800    678.64534   -100.93893   0.61405256   -100.32488     1498.885    4.3469441    4.3469441    4.3469441     1498.885     -1242.13    8740.2922   -3001.5071    474.32298   -1684.4624    -11409.31     82.13952 
   88900    715.44455   -100.96982   0.64734926   -100.32247   -4102.3617    4.3478062    4.3478062    4.3478062   -4102.3617   -15479.128   -3636.4278    6808.4707    236.19606    1144.5127    8475.1543      82.1884 
   89000    341.37947   -100.63489   0.30888732   -100.32601   -6085.6255    4.3443026    4.3443026    4.3443026   -6085.6255    8481.4123   -12586.491   -14151.798    813.16358   -690.72622   -22550.677    81.989874 
   89100    935.18803   -101.16402   0.84617778   -100.31784    1733.5224    4.3460156    4.3460156    4.3460156    1733.5224   -9964.7212    207.53431    14957.754    1199.3273    1735.9099    9198.5873    82.086897 
   89200    333.56353   -100.62994   0.30181529   -100.32813    -4920.299    4.3474906    4.3474906    4.3474906    -4920.299   -2954.3376   -6119.5718   -5686.9876   -790.38681   -361.92038   -23353.351    82.170506 
   89300    739.47355   -100.99005   0.66909121   -100.32096    7431.9862    4.3432077    4.3432077    4.3432077    7431.9862   -1776.0784    17241.189    6830.8481     978.4529   -1935.7954    3880.2863    81.927894 
   89400    451.04044   -100.73458   0.40811087   -100.32646    6548.3634    4.3454147    4.3454147    4.3454147    6548.3634   -2104.9088    10304.827    11445.172    78.648418    3736.2575    -11588.59    82.052852 
   89500    723.08774   -100.97809   0.65426499   -100.32383   -6393.4066    4.3519975    4.3519975    4.3519975   -6393.4066    -11555.67   -6162.0254   -1462.5245   -1249.9163   -4038.7442   -6600.0541    82.426323 
   89600    648.59446    -100.9069   0.58686189   -100.32004    11750.788    4.3385139    4.3385139    4.3385139    11750.788    839.36339    9622.0426    24790.958    2388.0275    1573.1778   -3965.3034     81.66256 
   89700    413.54675    -100.7014   0.37418579   -100.32722   -12098.487    4.3519167    4.3519167    4.3519167   -12098.487   -3358.7924    -11300.45   -21636.219   -1296.9476    1470.8313   -20765.517     82.42173 
   89800    883.73151   -101.11719   0.79961884   -100.31757    7161.1311    4.3446204    4.3446204    4.3446204    7161.1311   -15906.556    21619.944    15770.005    1791.6322   -3916.4719     1004.122    82.007865 
   89900    281.27785   -100.57942   0.25450611   -100.32491   -2072.8481     4.341592     4.341592     4.341592   -2072.8481    4484.6255    6374.8063   -17077.976   -370.91635    2952.7545   -22519.599    81.836495 
   90000    688.88994   -100.94469    0.6233221   -100.32137   -7692.4989    4.3516014    4.3516014    4.3516014   -7692.4989   -18031.157    11416.881   -16463.221    1605.5079   -1693.1116    907.33996    82.403814 
   90100    702.00521   -100.95788   0.63518906   -100.32269   -805.51942    4.3424467    4.3424467    4.3424467   -805.51942   -5153.9435    213.95717    2523.4281   -779.83956   -1307.1677   -14404.195    81.884837 
   90200    527.86222    -100.7998   0.47762083   -100.32218   -12254.899     4.347003     4.347003     4.347003   -12254.899   -9595.6669    -2946.849    -24222.18     2316.748     867.0096   -7531.4867     82.14286 
   90300    657.39155   -100.91489   0.59482169   -100.32007    3610.1988    4.3468988    4.3468988    4.3468988    3610.1988    -8415.171    17690.366    1555.4009   -435.72632    -1570.199   -4849.1008    82.136954 
   90400     585.1658   -100.85358   0.52947031   -100.32411   -5635.4201    4.3467145    4.3467145    4.3467145   -5635.4201   -9187.4252    1757.0161   -9475.8512    97.240552   -515.68345   -16010.549    82.126504 
   90500    561.14958   -100.82845   0.50773993   -100.32071    11057.791    4.3421969    4.3421969    4.3421969    11057.791   -12232.835    44113.996     1292.212    2446.7148   -1618.1654     2938.373    81.870708 
   90600    491.44605   -100.76729   0.44467071   -100.32262   -6696.0638    4.3515154    4.3515154    4.3515154   -6696.0638    -2378.339   -10860.186   -6849.6669   -1248.3601    193.84076   -14991.494    82.398929 
   90700    733.25825    -100.9843   0.66346747   -100.32083   -1720.5731    4.3417388    4.3417388    4.3417388   -1720.5731    -21032.45    18038.982   -2168.2506    3127.8868    -2674.096     1148.543    81.844795 
   90800    626.09767   -100.88793   0.56650633   -100.32142    352.27561    4.3443666    4.3443666    4.3443666    352.27561    3982.7408   -5718.7795    2792.8655   -685.07128   -500.48122   -10305.439    81.993495 
   90900    503.65417   -100.77903   0.45571688   -100.32331   -18347.484    4.3524117    4.3524117    4.3524117   -18347.484   -22164.371   -6998.1134   -25879.969    1787.1832   -1411.2268   -7307.5316    82.449857 
   91000    697.55836   -100.95238   0.63116546   -100.32122    11017.708    4.3390397    4.3390397    4.3390397    11017.708   -5818.0345    31992.804    6878.3538   -149.57159    -2258.114   -1358.2113    81.692251 
   91100    550.49038   -100.81948   0.49809526   -100.32138   -10450.538    4.3524869    4.3524869    4.3524869   -10450.538   -11941.708    6205.7035    -25615.61   -559.20924   -2046.6414   -18423.307    82.454128 
   91200     421.4268   -100.70306   0.38131582   -100.32174    3360.1388     4.342749     4.342749     4.342749    3360.1388   -18419.161    41734.843   -13235.266    1406.7762   -3242.8893    6536.7476    81.901938 
   91300    792.27888   -101.03541   0.71687058   -100.31854   -3791.4065    4.3472695    4.3472695    4.3472695   -3791.4065   -2901.0326   -8048.6857   -424.50133   -2373.2155   -1930.2981   -21811.052    82.157971 
   91400    503.57756   -100.77866   0.45564756   -100.32301   -7810.3667    4.3453369    4.3453369    4.3453369   -7810.3667   -24554.171    19178.244   -18055.173    2577.6572   -7977.1575    5361.5505    82.048448 
   91500     673.8926   -100.93105   0.60975219    -100.3213   -2852.8955    4.3459286    4.3459286    4.3459286   -2852.8955   -5585.7669   -5025.6016    2052.6821   -726.17741    1991.5636   -9720.2981    82.081966 
   91600    582.20613   -100.84996   0.52679234   -100.32317   -8209.6223    4.3477137    4.3477137    4.3477137   -8209.6223   -16813.375   -1461.3477    -6354.144    1354.2789   -10078.694   -4820.8462    82.183158 
   91700    555.90147   -100.82763   0.50299134   -100.32464    5444.6691    4.3399802    4.3399802    4.3399802    5444.6691   -14948.424    29830.604    1451.8274    582.05935    187.59442    165.13595    81.745388 
   91800    641.83192   -100.90171   0.58074301   -100.32097   -5527.2822    4.3546073    4.3546073    4.3546073   -5527.2822   -14793.957    7714.2437   -9502.1333    1086.4695   -2934.5662   -8161.4414    82.574699 
   91900    476.15002   -100.75414   0.43083055   -100.32331    6392.1629    4.3383828    4.3383828    4.3383828    6392.1629   -18610.477    35976.293    1810.6727   -1243.9248    -7092.273   -881.32072    81.655155 
   92000    688.92339   -100.94395   0.62335236   -100.32059   -1104.9836    4.3496133    4.3496133    4.3496133   -1104.9836   -6198.6515   -468.96671    3352.6674    1373.7614    3276.7743   -3370.7973    82.290924 
   92100     616.4817   -100.87998    0.5578056   -100.32218   -3896.0114    4.3457449    4.3457449    4.3457449   -3896.0114   -23371.906    19066.886   -7383.0145    -2885.709   -10104.105   -2134.7077    82.071562 
   92200    610.36313    -100.8743   0.55226938   -100.32203    4922.1157    4.3441088    4.3441088    4.3441088    4922.1157   -6619.2054    14177.901    7207.6514    358.61333    4377.8437    6427.7623    81.978897 
   92300    588.21245   -100.85267   0.53222699   -100.32044   -8625.2197    4.3500595    4.3500595    4.3500595   -8625.2197   -18006.877    2685.4074    -10554.19   -723.82293   -9630.2648   -2513.4916    82.316254 
   92400    551.91217   -100.82134   0.49938173   -100.32196    4074.6697    4.3421594    4.3421594    4.3421594    4074.6697   -18447.773    39201.867   -8530.0852    1557.0966     3565.355    6554.4502    81.868587 
   92500    682.72164   -100.93721   0.61774089   -100.31947   -6161.8567    4.3504335    4.3504335    4.3504335   -6161.8567   -10859.441    -6568.943   -1057.1865    -909.0573   -5735.2904  -0.73868361    82.337487 
   92600    448.77225   -100.72898   0.40605856   -100.32292   -3473.7555    4.3424464    4.3424464    4.3424464   -3473.7555   -20100.925    14155.213   -4475.5549      1290.81   -792.40485   -725.48742    81.884819 
   92700    698.81965   -100.95322   0.63230671   -100.32092    1550.8626     4.346414     4.346414     4.346414    1550.8626   -5226.5379    6088.4989    3790.6268   -558.24765    4365.8479    8683.5245    82.109473 
   92800    648.43908    -100.9102    0.5867213   -100.32348   -7035.6993    4.3471005    4.3471005    4.3471005   -7035.6993   -24032.815    2728.4083    197.30864    -459.7037   -9576.6454   -3963.8579    82.148386 
   92900    544.09869   -100.81508   0.49231193   -100.32277    7824.9341    4.3438229    4.3438229    4.3438229    7824.9341   -4956.5223    23417.449    5013.8757   -1345.5346    11238.571    12042.338    81.962715 
   93000    620.91363   -100.88287    0.5618157   -100.32105   -3231.1382    4.3484338    4.3484338    4.3484338   -3231.1382   -17553.291    12735.667   -4875.7905   -245.27969   -10223.909   -5266.3824    82.223999 
   93100    557.03909   -100.82752   0.50402067    -100.3235    4984.1757    4.3458105    4.3458105    4.3458105    4984.1757   -21517.361    35195.105     1274.783   -1448.8437     6401.565    1992.4253    82.075277 
   93200     641.9917   -100.90025   0.58088758   -100.31936    1891.0761    4.3460161    4.3460161    4.3460161    1891.0761   -1131.0933    1847.8591    4956.4626   -356.73165   -3103.1448   -1710.1358    82.086927 
   93300    403.07499   -100.68722   0.36471072   -100.32251   -2928.3056    4.3453668    4.3453668    4.3453668   -2928.3056   -24548.781    17578.376   -1814.5118   -1550.4143   -1136.9397   -4265.3495    82.050138 
   93400     774.3477   -101.02108   0.70064607   -100.32043     -4375.54    4.3491809    4.3491809    4.3491809     -4375.54   -3964.7974   -12123.081    2961.2587    1047.9445    5060.0443    6443.6016    82.266388 
   93500    607.66635   -100.87077   0.54982928   -100.32094    241.00906    4.3411642    4.3411642    4.3411642    241.00906    -9998.818    10346.108    375.73758   -3743.3009   -7885.6798    450.55059    81.812309 
   93600    508.62127   -100.78296   0.46021121   -100.32275   -8737.2433    4.3507823    4.3507823    4.3507823   -8737.2433   -11576.153   -1044.4535   -13591.123    1133.9885    8304.4079    4567.5474    82.357291 
   93700    704.69657   -100.96023   0.63762427   -100.32261    5536.9047    4.3429433    4.3429433    4.3429433    5536.9047   -2464.3442    16307.027    2768.0319   -1486.3709   -9442.1428     8136.623    81.912936 
   93800    581.47633   -100.84974   0.52613201   -100.32361    5272.6328    4.3444545    4.3444545    4.3444545    5272.6328   -10230.419    26298.535   -250.21758   -2266.1645    4492.3141   -4507.7849    81.998473 
   93900    453.33746   -100.73228   0.41018926   -100.32209   -2229.1509     4.350627     4.350627     4.350627   -2229.1509     -8775.34    6087.4377   -3999.5505     3796.391   -1742.0777    14413.643    82.348473 
   94000    637.99706   -100.89739   0.57727315   -100.32011    6591.0084     4.340097     4.340097     4.340097    6591.0084    -11448.41    20224.856    10996.579   -3611.5298   -6194.5076   -5730.5775    81.751987 
   94100    672.25071   -100.93034   0.60826657   -100.32207   -8586.3312    4.3496608    4.3496608    4.3496608   -8586.3312   -9373.7362   -12366.209   -4019.0489     5632.831    7019.5395    17688.198    82.293623 
   94200    586.66951   -100.85112    0.5308309   -100.32029   -6215.0677    4.3456085    4.3456085    4.3456085   -6215.0677   -14776.813    3997.2844   -7865.6747    -1348.658    -10914.46    4777.5409    82.063833 
   94300    647.46811   -100.90576   0.58584275   -100.31992    -7043.362    4.3469411    4.3469411    4.3469411    -7043.362   -12253.051   -4517.6539   -4359.3811    5912.6992    6239.9314    9969.6266    82.139353 
   94400    623.78033   -100.88564   0.56440955   -100.32123   -1805.4673    4.3452014    4.3452014    4.3452014   -1805.4673   -5145.6791    5846.7081   -6117.4308    1298.7789   -5198.2861    14171.471    82.040769 
   94500    589.65902   -100.85389   0.53353587   -100.32036   -1030.7687    4.3464856    4.3464856    4.3464856   -1030.7687   -16819.699    21379.321   -7651.9287    4551.2227   -1257.4032   -5531.6839    82.113532 
   94600    458.24023   -100.73791   0.41462539   -100.32328    6758.6302    4.3452019    4.3452019    4.3452019    6758.6302    3268.6837    11213.783    5793.4233    1798.5718    1897.3272    16482.874      82.0408 
   94700    756.17184   -101.00386   0.68420017   -100.31966     858.8509    4.3461333    4.3461333    4.3461333     858.8509   -13758.727    16787.552   -452.27223    2468.7208   -6958.6905   -7453.3723     82.09357 
   94800    493.08271   -100.76842    0.4461516   -100.32227   -3572.4162    4.3478062    4.3478062    4.3478062   -3572.4162    1066.1621    108.23532   -11891.646    2025.3693    6679.2291    18101.254      82.1884 
   94900    713.25565   -100.96588    0.6453687   -100.32051    1848.6676    4.3425037    4.3425037    4.3425037    1848.6676   -2197.8264    1033.8063    6710.0229    1563.0756   -9554.7618    2980.0842    81.888062 
   95000     631.7316   -100.89416   0.57160402   -100.32255   -5181.3899    4.3489087    4.3489087    4.3489087   -5181.3899   -10863.991    2304.4349   -6984.6137    990.98781    7407.8952    5047.7057    82.250939 
   95100     478.6925   -100.75752   0.43313103   -100.32439    5195.5347    4.3438816    4.3438816    4.3438816    5195.5347    3407.4613    14081.716   -1902.5731    1009.2807   -3891.7574    10979.959    81.966038 
   95200    670.68292   -100.92686     0.606848   -100.32001    1593.0187      4.34843      4.34843      4.34843    1593.0187    -16025.22    11360.799    9443.4777    37.638693   -857.77193   -6771.0344    82.223781 
   95300    458.87655   -100.73882   0.41520114   -100.32362   -1909.8547    4.3444734    4.3444734    4.3444734   -1909.8547    2759.9498   -8020.4198   -469.09431    1144.5056    6160.2608     20267.62    81.999542 
   95400    752.95344   -100.99937    0.6812881   -100.31808    3318.9799    4.3456064    4.3456064    4.3456064    3318.9799   -8481.7757    17227.077    1211.6382   -787.35551   -6705.4709   -3191.2224    82.063716 
   95500    546.35755    -100.8183   0.49435579   -100.32394    -11321.45     4.350326     4.350326     4.350326    -11321.45   -4930.0453   -15518.601   -13515.704    573.82961    7844.2464    19114.958    82.331382 
   95600    688.36097   -100.94388   0.62284347   -100.32104    8993.2094    4.3399827    4.3399827    4.3399827    8993.2094   -308.08414    21868.774    5418.9387    555.24202   -3544.0982    9097.2809    81.745524 
   95700     505.3291   -100.78109   0.45723239   -100.32386   -5786.0803    4.3510635    4.3510635    4.3510635   -5786.0803   -8503.3309    9046.9895     -17901.9   -962.10739    4193.3758    1066.4027    82.373263 
   95800    527.43367   -100.80329   0.47723307   -100.32606    6307.4702    4.3429909    4.3429909    4.3429909    6307.4702    4208.8873    7365.0542    7348.4691    2229.8709     581.5607    18506.017    81.915628 
   95900    821.39949   -101.06297   0.74321952   -100.31975   -2858.8148    4.3481265    4.3481265    4.3481265   -2858.8148   -12857.605   -2877.1974    7158.3576   -533.42189    2635.0269   -6276.2707    82.206567 
   96000    319.62251    -100.6172   0.28920116     -100.328   -4511.3938    4.3442437    4.3442437    4.3442437   -4511.3938    11778.387   -11952.731   -13359.838    1769.9626    4277.7417    28360.976    81.986538 
   96100    962.92504     -101.191   0.87127481   -100.31972    926.03769    4.3488293    4.3488293    4.3488293    926.03769   -8188.1321    730.08846    10236.157    1602.0386   -2326.6799   -6798.5439    82.246434 
   96200    413.97067   -100.70077   0.37456937    -100.3262   -1572.0778     4.344849     4.344849     4.344849   -1572.0778    1391.9411   -1412.7331   -4695.4415   -2711.7877    9133.1998    19401.663    82.020812 
   96300    498.16193   -100.77585   0.45074738    -100.3251    9884.1434    4.3444747    4.3444747    4.3444747    9884.1434    7749.3981    18367.626    3535.4066    3605.2295    -4842.783   -268.50805    81.999614 
   96400    780.20297   -101.02814   0.70594405    -100.3222   -5143.0523    4.3518533    4.3518533    4.3518533   -5143.0523   -8465.7511   -8163.8307    1200.4249   -2190.3117    5231.2728    3558.5131    82.418124 
   96500    418.80897    -100.7047   0.37894716   -100.32575    6588.3684    4.3381345    4.3381345    4.3381345    6588.3684    12785.935    5863.1047    1116.0659    2434.3101    3083.5206    18249.634    81.641138 
   96600    776.58653   -101.02217   0.70267182    -100.3195   -7479.1888    4.3525293    4.3525293    4.3525293   -7479.1888   -2816.1095   -6461.8601   -13159.597     3080.809   -2202.4394   -7058.3574    82.456538 
   96700    473.35328   -100.75425   0.42829999   -100.32595   -321.83941    4.3457424    4.3457424    4.3457424   -321.83941    4107.9328    4347.9044   -9421.3554    1342.9702    8084.1328    28161.405    82.071419 
   96800    743.40062   -100.99296    0.6726445   -100.32031    3457.1172    4.3418039    4.3418039    4.3418039    3457.1172    2231.4457    9041.5641   -901.65826    7703.7565   -2765.8463    -12169.77    81.848479 
   96900    370.71012      -100.66   0.33542631   -100.32457   -3217.6655    4.3511069    4.3511069    4.3511069   -3217.6655    4829.5756    2390.2492   -16872.821   -1773.2598    5488.8111    19404.083    82.375725 
   97000    752.60164   -101.00244   0.68096978   -100.32147   -2384.0734    4.3473969    4.3473969    4.3473969   -2384.0734   -2783.8912   -8768.4277    4400.0988    6808.2996    183.75146   -2428.0693    82.165193 
   97100    639.63741   -100.89847   0.57875737   -100.31971    5732.1181    4.3388771    4.3388771    4.3388771    5732.1181     9790.408    2724.3364    4681.6098   -1841.9156    2561.4463    8141.6483    81.683067 
   97200    431.80066   -100.71496   0.39070231   -100.32426   -5799.9206    4.3540264    4.3540264    4.3540264   -5799.9206     1801.801   -3800.5328    -15401.03    3031.1641    1089.6075    16676.201    82.541657 
   97300    780.42216    -101.0274   0.70614237   -100.32126    3728.6197    4.3446897    4.3446897    4.3446897    3728.6197   -5812.9173    15648.533     1350.243    1559.0189    -1661.117   -5738.1168    82.011788 
   97400     437.4045   -100.72155   0.39577278   -100.32577    10633.964    4.3379877    4.3379877    4.3379877    10633.964    15513.929    21292.501   -4904.5384    342.07524    6539.3088    24210.915    81.632846 
   97500    679.76989   -100.93303   0.61507008   -100.31796   -13532.577     4.358661     4.358661     4.358661   -13532.577    -15909.72   -2946.8181   -21741.193    1825.1174   -3738.4414   -11640.943    82.805516 
   97600    602.63912   -100.86601   0.54528054   -100.32073    6314.5337    4.3341291    4.3341291    4.3341291    6314.5337    10425.728    9053.4935   -535.62013    309.70866    4360.8551    17689.797    81.415206 
   97700    691.53701   -100.94842   0.62571722    -100.3227   -5953.3905    4.3500743    4.3500743    4.3500743   -5953.3905   -7673.1407    2800.4081   -12987.439   -1483.2822    3977.2583    1841.0875    82.317095 
   97800    458.57223    -100.7386   0.41492579   -100.32368   -6696.8898    4.3501409    4.3501409    4.3501409   -6696.8898   -5809.9232    10234.913   -24515.659     1266.445   -4017.8342    5749.1852    82.320874 
   97900    562.50184   -100.83239   0.50896349   -100.32343    9478.5861     4.335678     4.335678     4.335678    9478.5861    6135.7378    24634.507   -2334.4869   -4046.2468    10408.705    16271.569    81.502526 
   98000    717.08031   -100.96738   0.64882934   -100.31855   -8274.7263    4.3548268    4.3548268    4.3548268   -8274.7263   -15293.873    6889.6143    -16419.92    3897.8766   -3878.9691   -3503.2092    82.587185 
   98100    412.56537   -100.69606   0.37329781   -100.32276   -6237.5736    4.3438309    4.3438309    4.3438309   -6237.5736    6648.5552    3261.6739    -28622.95   -1400.4973    5998.5823    18840.132    81.963168 
   98200    886.31134    -101.1184   0.80195313   -100.31645    4450.9987     4.343109     4.343109     4.343109    4450.9987   -10868.333    17841.098    6380.2319    4685.3185    4533.1104   -6402.6124    81.922311 
   98300    427.43918   -100.70968   0.38675595   -100.32292   -6040.7335    4.3503093    4.3503093    4.3503093   -6040.7335   -460.17494    8497.6928   -26159.718    3000.5573   -734.73629    17225.459    82.330432 
   98400    587.52556   -100.85234   0.53160548   -100.32073    6662.2509    4.3446003    4.3446003    4.3446003    6662.2509   -1806.4369    32614.412   -10821.223    2113.1828    8242.2986    1490.0142     82.00673 
   98500     699.4203   -100.95343   0.63285018   -100.32058    3516.4842    4.3443943    4.3443943    4.3443943    3516.4842   -4074.7288    15633.895   -1009.7138    4979.1947   -3547.2127     11309.48    81.995063 
   98600     449.2309   -100.73306   0.40647356   -100.32659   -6302.3782    4.3484549    4.3484549    4.3484549   -6302.3782    -5914.555    5510.0881   -18502.668   -584.61826    13072.404    15553.822    82.225193 
   98700    813.62095   -101.05596   0.73618133   -100.31978    6263.0494    4.3443331    4.3443331    4.3443331    6263.0494    2175.0599    14667.903    1946.1849    652.82247   -2754.6629   -3641.3523      81.9916 
   98800    429.65426   -100.71725    0.3887602   -100.32849   -7107.6679     4.347111     4.347111     4.347111   -7107.6679    -6215.529    1083.8105   -16191.285   -1354.3029    12177.898    19491.746     82.14898 
   98900    729.47835    -100.9817   0.66004734   -100.32165    7807.0112    4.3446842    4.3446842    4.3446842    7807.0112   -2160.9172    27320.622   -1738.6718   -382.36076    5369.0723   -11210.238    82.011479 
   99000    457.75965   -100.73956   0.41419055   -100.32536    -5337.342    4.3476347    4.3476347    4.3476347    -5337.342    4035.0605    9314.2248   -29361.311   -127.82697    4254.0403    18459.033    82.178677 
   99100    632.68714     -100.898   0.57246862   -100.32553   -1465.6602    4.3440039    4.3440039    4.3440039   -1465.6602    -5664.683    12738.322   -11470.619   -833.62852    15559.007   -1082.0338    81.972959 
   99200     758.2188   -101.00692    0.6860523   -100.32087   -1666.2045    4.3465458    4.3465458    4.3465458   -1666.2045    4468.2776    3164.8006   -12631.692     119.8057   -5449.0025     5963.273    82.116946 
   99300    335.78985   -100.63031   0.30382971   -100.32648   -14127.268    4.3490697    4.3490697    4.3490697   -14127.268   -9772.0089    98.228906   -32708.025   -1277.5221    20867.626    13182.519    82.260076 
   99400     934.3253   -101.16381   0.84539716   -100.31841    8801.5917    4.3406836    4.3406836    4.3406836    8801.5917    9279.6372    4551.3877     12573.75    -2550.347   -4676.7001   -9941.0707    81.785137 
   99500    441.73878    -100.7256   0.39969453   -100.32591   -12084.288    4.3503931    4.3503931    4.3503931   -12084.288   -13458.581    6286.1718   -29080.455    3115.2138    16911.943    13902.097    82.335192 
   99600    526.91831   -100.80018   0.47676676   -100.32341    5743.5382    4.3447491    4.3447491    4.3447491    5743.5382    7143.1119     20821.67   -10734.167    -2758.312    4213.5019   -7988.1631    82.015153 
   99700    739.47059   -100.99066   0.66908853   -100.32157    973.57996    4.3457336    4.3457336    4.3457336    973.57996   -2803.9093      14178.3    -8453.651    9126.9923    3829.4629    4340.4407    82.070921 
   99800    427.26228   -100.71057   0.38659589   -100.32397   -914.20021    4.3486018    4.3486018    4.3486018   -914.20021    859.70467    14421.239   -18023.544   -1617.0297    14968.475    7939.1656    82.233529 
   99900    684.00101   -100.93674   0.61889849   -100.31785    4135.6347    4.3436718    4.3436718    4.3436718    4135.6347    10659.385    11393.899     -9646.38    8813.2938   -9619.4643   -4841.3709    81.954164 
  100000    514.10217   -100.78847   0.46517045    -100.3233   -4535.2572    4.3485993    4.3485993    4.3485993   -4535.2572   -3622.7879   -266.48526   -9716.4983    825.19303    18464.803    15222.762    82.233388 
Loop time of 23.3573 on 1 procs for 100000 steps with 8 atoms

Pair  time (%) = 7.19524 (30.8051)
Kspce time (%) = 5.81857 (24.9111)
Neigh time (%) = 0 (0)
Comm  time (%) = 1.20868 (5.17474)
Outpt time (%) = 0.0276766 (0.118492)
Other time (%) = 9.10714 (38.9906)

Nlocal:    8 ave 8 max 8 min
Histogram: 1 0 0 0 0 0 0 0 0 0
Nghost:    2189 ave 2189 max 2189 min
Histogram: 1 0 0 0 0 0 0 0 0 0
Neighs:    2056 ave 2056 max 2056 min
Histogram: 1 0 0 0 0 0 0 0 0 0

Total # of neighbors = 2056
Ave neighs/atom = 257
Neighbor list builds = 0
Dangerous builds = 0
unfix 20
unfix 21
print "seeds:8251105"
seeds:8251105
