LAMMPS (16 Mar 2018)
# ---- initialize simulations
clear
units metal
dimension 3
boundary p p p
atom_style charge
atom_modify map array
# ---- create atoms
read_data /home/manuelesp/repos/pypospack/dev/MgO_iterative_sampler/rank_2/MgO_NaCl_sch.lmps_min_pos/lammps.structure
  triclinic box = (0 0 0) to (13.2406 13.2406 13.2406) with tilt (0 0 0)
  1 by 1 by 1 MPI processor grid
  reading atoms ...
  214 atoms
# ---- define interatomic potential
include potential.mod
mass 1 24.305
mass 2 15.999

group Mg type 1
107 atoms in group Mg
group O type 2
107 atoms in group O

set group Mg charge 2.2951801394729396
  107 settings made for charge
set group O charge -2.2951801394729396
  107 settings made for charge

variable R_cut equal 10.0

pair_style buck/coul/long ${R_cut}
pair_style buck/coul/long 10
pair_coeff 1 1 0.0 0.5 0.0 ${R_cut}
pair_coeff 1 1 0.0 0.5 0.0 10
pair_coeff 1 2 883.4667805417473 0.31166982185035813 0.0 ${R_cut}
pair_coeff 1 2 883.4667805417473 0.31166982185035813 0.0 10
pair_coeff 2 2 19911.75479118061 0.2926020667790446 42.879084588207746 ${R_cut}
pair_coeff 2 2 19911.75479118061 0.2926020667790446 42.879084588207746 10

kspace_style pppm 1.0e-5

neighbor 1.0 bin
neigh_modify every 1 delay 0 check yes
# ---- define settings
compute eng all pe/atom
compute eatoms all reduce sum c_eng

# ---- run minimization
reset_timestep 0
thermo 1
thermo_style custom step pe lx ly lz xy xz yz press pxx pyy pzz pxy pxz pyz c_eatoms
min_style cg
minimize 1e-20 1e-20 1000 100000
PPPM initialization ...
  using 12-bit tables for long-range coulomb (../kspace.cpp:321)
  G vector (1/distance) = 0.353803
  grid = 24 24 24
  stencil order = 5
  estimated absolute RMS force accuracy = 7.45745e-05
  estimated relative force accuracy = 5.17891e-06
  using double precision FFTs
  3d grid and FFT values/proc = 29791 13824
Neighbor list info ...
  update every 1 steps, delay 0 steps, check yes
  max neighbors/atom: 2000, page size: 100000
  master list distance cutoff = 11
  ghost atom cutoff = 11
  binsize = 5.5, bins = 3 3 3
  1 neighbor lists, perpetual/occasional/extra = 1 0 0
  (1) pair buck/coul/long, perpetual
      attributes: half, newton on
      pair build: half/bin/newton/tri
      stencil: half/bin/3d/newton/tri
      bin: standard
Per MPI rank memory allocation (min/avg/max) = 8.676 | 8.676 | 8.676 Mbytes
Step PotEng Lx Ly Lz Xy Xz Yz Press Pxx Pyy Pzz Pxy Pxz Pyz c_eatoms 
       0   -5640.8863      13.2406      13.2406      13.2406            0            0            0   -2821.4179    -2291.717    -2291.717   -3880.8198   -482.36664 9.0633003e-05 9.0633109e-05   -5640.8863 
       1   -5669.5479      13.2406      13.2406      13.2406            0            0            0   -5336.9293   -5208.5788   -5208.5788   -5593.6303    121.85501 -0.00071310899 -0.00071310838   -5669.5479 
       2    -5677.004      13.2406      13.2406      13.2406            0            0            0    311.80553    468.62387    468.62387   -1.8311431    516.65735 -0.0025427528 -0.0025427528    -5677.004 
       3   -5678.9862      13.2406      13.2406      13.2406            0            0            0    1413.8385    1530.8386    1530.8386    1179.8382    239.94565 0.0028085344 0.0028085335   -5678.9862 
       4    -5680.194      13.2406      13.2406      13.2406            0            0            0    6324.9847    6327.7633    6327.7633    6319.4273    152.73749  0.026807537  0.026807537    -5680.194 
       5   -5681.5475      13.2406      13.2406      13.2406            0            0            0    17971.144    17772.034    17772.034    18369.363   -408.08099  0.067268762  0.067268761   -5681.5475 
       6   -5682.4908      13.2406      13.2406      13.2406            0            0            0    21954.415    21834.046    21834.046    22195.153   -1158.2049   0.04627489  0.046274891   -5682.4908 
       7   -5683.4754      13.2406      13.2406      13.2406            0            0            0    29266.111    29013.376    29013.376    29771.581   -1045.9149 0.0096128145 0.0096128142   -5683.4754 
       8   -5684.4465      13.2406      13.2406      13.2406            0            0            0    38702.834    38320.179    38320.179    39468.143   -1617.3595  0.065777585  0.065777585   -5684.4465 
       9   -5685.6751      13.2406      13.2406      13.2406            0            0            0    61854.473    61417.913    61417.913    62727.593   -4396.9463   0.19609614   0.19609614   -5685.6751 
      10   -5687.1848      13.2406      13.2406      13.2406            0            0            0    92460.465    92314.501    92314.501    92752.395   -4451.7695   0.30267028   0.30267028   -5687.1848 
      11   -5689.0011      13.2406      13.2406      13.2406            0            0            0    113989.32    114692.58    114692.58     112582.8   -3650.0085   0.90114086   0.90114086   -5689.0011 
      12   -5690.4902      13.2406      13.2406      13.2406            0            0            0    135629.03    137644.26    137644.26    131598.57   -8611.3888    1.2915162    1.2915162   -5690.4902 
      13    -5692.373      13.2406      13.2406      13.2406            0            0            0    155391.65    158899.67    158899.67    148375.61   -9890.4499    1.9734908    1.9734908    -5692.373 
      14   -5693.4478      13.2406      13.2406      13.2406            0            0            0    158236.62     162370.7     162370.7    149968.45   -6819.1975    2.7915797    2.7915797   -5693.4478 
      15   -5694.8702      13.2406      13.2406      13.2406            0            0            0    162710.92    169471.02    169471.02    149190.73   -7250.3534    3.6466166    3.6466167   -5694.8702 
      16   -5696.2244      13.2406      13.2406      13.2406            0            0            0    174631.08    184350.23    184350.23    155192.77   -9658.4859     5.082369    5.0822911   -5696.2244 
      17   -5698.1139      13.2406      13.2406      13.2406            0            0            0    185954.17    197849.47    197849.47    162163.58   -9146.5486    7.4861957    7.4861889   -5698.1139 
      18    -5699.869      13.2406      13.2406      13.2406            0            0            0    189670.29    201042.92    201042.92    166925.02   -7080.0764    9.5641132    9.5641214    -5699.869 
      19   -5702.4577      13.2406      13.2406      13.2406            0            0            0    208535.83    222152.78    222152.77    181301.95   -5237.8389     14.33918    14.339034   -5702.4577 
      20    -5704.831      13.2406      13.2406      13.2406            0            0            0    221058.73    239265.14    239265.14    184645.92   -5888.0876    20.496012    20.495588    -5704.831 
      21   -5707.6326      13.2406      13.2406      13.2406            0            0            0    239144.26    261279.18    261279.18    194874.41   -3500.3341    28.504392    28.501982   -5707.6326 
      22   -5709.8103      13.2406      13.2406      13.2406            0            0            0    243242.96    265011.13    265011.13    199706.61   -814.36512    32.729484    32.733537   -5709.8103 
      23   -5711.9915      13.2406      13.2406      13.2406            0            0            0    252316.79    276413.12    276413.15     204124.1   -3894.1076     46.27749    46.281777   -5711.9915 
      24   -5714.3808      13.2406      13.2406      13.2406            0            0            0    270645.92    297697.26    297697.28    216543.22   -6889.5072    64.010261    64.012281   -5714.3808 
      25   -5716.2869      13.2406      13.2406      13.2406            0            0            0    279412.67    306553.57    306553.57    225130.86   -5895.4515     88.18771    88.189265   -5716.2869 
      26   -5717.5857      13.2406      13.2406      13.2406            0            0            0    288003.91    316889.82     316889.8     230232.1   -7199.7528    113.93633    113.93977   -5717.5857 
      27   -5718.7681      13.2406      13.2406      13.2406            0            0            0    297436.23    325692.24    325692.24    240924.22   -7655.4645    154.60435    154.61962   -5718.7681 
      28   -5719.8373      13.2406      13.2406      13.2406            0            0            0    307560.36    336002.97    336002.96    250675.14   -8872.3165    227.48521    227.47837   -5719.8373 
      29   -5720.8832      13.2406      13.2406      13.2406            0            0            0    319761.68    349462.51    349462.49    260360.02   -6488.0561    328.80173    328.80501   -5720.8832 
      30    -5721.769      13.2406      13.2406      13.2406            0            0            0    327873.76    357432.57    357432.59    268756.11   -7025.3222    423.14491    423.15529    -5721.769 
      31   -5722.6413      13.2406      13.2406      13.2406            0            0            0    335609.81     364240.6    364240.61     278348.2   -5111.2091     583.9116    583.91029   -5722.6413 
      32   -5723.5154      13.2406      13.2406      13.2406            0            0            0    339968.93    367211.42    367211.41    285483.97   -5243.3198    754.61768    754.63381   -5723.5154 
      33   -5724.2717      13.2406      13.2406      13.2406            0            0            0    342475.17    367287.14    367287.15    292851.23   -5320.7692    958.75849    958.76822   -5724.2717 
      34    -5725.029      13.2406      13.2406      13.2406            0            0            0       343710     367174.5    367174.48    296781.02   -6261.1148    1232.5262    1232.5388    -5725.029 
      35   -5725.5569      13.2406      13.2406      13.2406            0            0            0    342724.82    365419.69     365419.7    297335.06   -4422.4906    1513.4393    1513.4709   -5725.5569 
      36   -5726.0921      13.2406      13.2406      13.2406            0            0            0    339354.86    361637.34    361637.38    294789.88   -4087.1098    2067.9918     2068.025   -5726.0921 
      37   -5726.6477      13.2406      13.2406      13.2406            0            0            0    336729.99    357356.64     357356.7    295476.63   -4230.4162    2933.8094    2933.8532   -5726.6477 
      38   -5727.2751      13.2406      13.2406      13.2406            0            0            0    334987.21    354161.19    354161.25    296639.18   -4946.1194    4004.9378    4004.9792   -5727.2751 
      39   -5728.3438      13.2406      13.2406      13.2406            0            0            0    336012.87    354218.43    354218.52    299601.66   -6059.8927    4760.7479    4760.7806   -5728.3438 
      40   -5729.3322      13.2406      13.2406      13.2406            0            0            0    337696.42    355010.48    355010.57    303068.21   -6611.9436    5062.1212    5062.1578   -5729.3322 
      41    -5730.358      13.2406      13.2406      13.2406            0            0            0    341076.15    357732.19    357732.28    307763.98   -5482.4263      5177.36    5177.4111    -5730.358 
      42    -5731.161      13.2406      13.2406      13.2406            0            0            0     341588.9    359414.73    359414.85    305937.12   -5570.1622    5986.9424    5986.9898    -5731.161 
      43    -5732.149      13.2406      13.2406      13.2406            0            0            0     343282.4    361861.77    361861.88    306123.54   -5570.5599    6530.4791    6530.5478    -5732.149 
      44   -5732.8911      13.2406      13.2406      13.2406            0            0            0    343821.42    361745.88    361745.96    307972.42   -4884.9765    6479.5828    6479.6548   -5732.8911 
      45   -5733.7962      13.2406      13.2406      13.2406            0            0            0    348188.36    366175.93    366176.05    312213.09   -4325.2391    7473.5137    7473.6197   -5733.7962 
      46   -5735.1719      13.2406      13.2406      13.2406            0            0            0     354584.4    373535.29    373535.43    316682.48   -4773.6053    8279.7266    8279.8491   -5735.1719 
      47   -5736.0696      13.2406      13.2406      13.2406            0            0            0    355446.38    374370.97    374371.07    317597.11    -3911.796    8151.3354    8151.4337   -5736.0696 
      48   -5737.1502      13.2406      13.2406      13.2406            0            0            0    357100.42    375477.03    375477.07    320347.17   -3477.1176    9467.4954    9467.6241   -5737.1502 
      49   -5738.5492      13.2406      13.2406      13.2406            0            0            0    359975.74    378025.36    378025.36    323876.52   -2655.8584    10318.713    10318.849   -5738.5492 
      50    -5739.582      13.2406      13.2406      13.2406            0            0            0    363732.66    381519.55    381519.55    328158.89   -567.17478    9778.6674    9778.8172    -5739.582 
      51   -5740.6179      13.2406      13.2406      13.2406            0            0            0    367632.44    385439.39    385439.39    332018.54   -785.33265    9956.9457    9957.1355   -5740.6179 
      52   -5741.7121      13.2406      13.2406      13.2406            0            0            0     371706.4    388841.95    388841.85     337435.4   -546.24914    11343.945      11344.1   -5741.7121 
      53   -5742.9494      13.2406      13.2406      13.2406            0            0            0    377192.44    393730.73    393730.62    344115.97    1075.6066    11339.129    11339.362   -5742.9494 
      54   -5744.5569      13.2406      13.2406      13.2406            0            0            0    382013.71    399375.55    399375.52    347290.08    2098.3894    10977.416    10977.719   -5744.5569 
      55   -5745.8787      13.2406      13.2406      13.2406            0            0            0    392001.69    410433.45    410433.55    355138.08    1367.3874    10718.341    10718.609   -5745.8787 
      56   -5747.8928      13.2406      13.2406      13.2406            0            0            0    399102.08    418782.36    418782.56    359741.33    2778.8919    10731.162     10731.48   -5747.8928 
      57   -5748.8729      13.2406      13.2406      13.2406            0            0            0    400260.31    419690.57    419690.83    361399.52     2842.322    9860.7634    9861.2014   -5748.8729 
      58   -5749.9474      13.2406      13.2406      13.2406            0            0            0    405551.58    424903.98    424904.42    366846.34     3816.171    10833.434    10833.819   -5749.9474 
      59   -5751.5589      13.2406      13.2406      13.2406            0            0            0       412950    431468.22    431468.94    375912.84    3327.8958    10972.417    10972.849   -5751.5589 
      60   -5752.9944      13.2406      13.2406      13.2406            0            0            0    418943.89    438266.59    438267.52    380297.56    3885.3714    9630.7438    9631.4484   -5752.9944 
      61   -5754.1782      13.2406      13.2406      13.2406            0            0            0    431582.64    452187.37    452188.29    390372.26    1692.5411    7689.6623    7690.3404   -5754.1782 
      62   -5756.2495      13.2406      13.2406      13.2406            0            0            0    442281.19     462332.8    462332.76    402178.01    1755.3121    7026.0364    7026.8809   -5756.2495 
      63   -5757.8737      13.2406      13.2406      13.2406            0            0            0    443870.69    462537.53    462535.35    406539.18     1265.935    6572.9742    6574.5708   -5757.8737 
      64   -5758.9333      13.2406      13.2406      13.2406            0            0            0     446822.8    464970.27    464965.66    410532.46   -2018.7095    7307.1645     7308.921   -5758.9333 
      65   -5760.6985      13.2406      13.2406      13.2406            0            0            0    449330.91    467600.93    467594.66    412797.13    -3506.401    7891.2295    7893.0975   -5760.6985 
      66   -5762.1315      13.2406      13.2406      13.2406            0            0            0     450934.6    469089.52     469082.9    414631.39   -5119.2157    6880.6989     6883.251   -5762.1315 
      67   -5763.2971      13.2406      13.2406      13.2406            0            0            0    453248.21    471712.83       471706    416325.81    -6814.198    7360.0643    7362.9359   -5763.2971 
      68   -5764.3559      13.2406      13.2406      13.2406            0            0            0    453454.64    471188.15    471180.92    417994.85     -7353.54    8595.4802    8598.7595   -5764.3559 
      69    -5765.553      13.2406      13.2406      13.2406            0            0            0    453971.93    469622.17       469614    422679.62   -8724.5013    10040.307    10044.781    -5765.553 
      70   -5766.1647      13.2406      13.2406      13.2406            0            0            0    453356.35    469182.82       469174    421712.23   -9128.0831    10626.518    10631.276   -5766.1647 
      71   -5767.0061      13.2406      13.2406      13.2406            0            0            0    453123.33    469857.39    469847.16    419665.44   -10389.139    10873.796    10879.151   -5767.0061 
      72   -5767.5363      13.2406      13.2406      13.2406            0            0            0     453020.6    469384.55    469373.44    420303.82   -10711.617    11012.866    11018.688   -5767.5363 
      73   -5768.1374      13.2406      13.2406      13.2406            0            0            0    453761.39    469231.98    469218.48    422833.71   -11791.558    11409.201    11416.185   -5768.1374 
      74    -5768.517      13.2406      13.2406      13.2406            0            0            0    453792.36    469475.88    469461.56    422439.63   -12504.695    11435.639    11443.069    -5768.517 
      75   -5768.9726      13.2406      13.2406      13.2406            0            0            0    453831.22    469398.56    469381.54    422713.56   -13928.506    11464.886    11473.744   -5768.9726 
      76   -5769.4381      13.2406      13.2406      13.2406            0            0            0    454217.09    468293.96    468275.62     426081.7   -14544.893    10793.967    10804.255   -5769.4381 
      77   -5769.8888      13.2406      13.2406      13.2406            0            0            0    454660.53    467804.01    467781.71    428395.86   -15324.608    10722.866    10735.188   -5769.8888 
      78   -5770.1724      13.2406      13.2406      13.2406            0            0            0    455045.78     468331.5    468309.16    428496.67   -16741.436    10150.736    10163.882   -5770.1724 
      79   -5770.4822      13.2406      13.2406      13.2406            0            0            0    455137.36    468129.23    468102.63    429180.22   -18794.388    8615.6662    8632.9985   -5770.4822 
      80   -5770.9227      13.2406      13.2406      13.2406            0            0            0    454470.15     466140.4    466113.58    431156.47   -21286.481    5532.7037    5552.4425   -5770.9227 
      81   -5771.3957      13.2406      13.2406      13.2406            0            0            0    453493.91    464269.09    464234.17    431978.47   -23474.727    3337.2101     3361.925   -5771.3957 
      82   -5771.7597      13.2406      13.2406      13.2406            0            0            0    453447.74    462665.59    462626.93     435050.7   -26324.656    1161.9212    1183.1455   -5771.7597 
      83   -5772.0714      13.2406      13.2406      13.2406            0            0            0    454303.28    462051.13    461999.76    438858.94    -29513.46   -580.88612   -551.98167   -5772.0714 
      84     -5772.42      13.2406      13.2406      13.2406            0            0            0    454885.51     461782.9     461733.3    441140.33   -32042.024   -2117.7691   -2086.4072     -5772.42 
      85   -5772.7526      13.2406      13.2406      13.2406            0            0            0    454967.84    461042.85    460986.06    442874.61   -33410.266   -3141.3417   -3096.5193   -5772.7526 
      86   -5773.0761      13.2406      13.2406      13.2406            0            0            0     455313.5    460670.74    460615.34    444654.42   -35017.065   -3583.2703   -3540.5296   -5773.0761 
      87   -5773.3092      13.2406      13.2406      13.2406            0            0            0    455624.58    460236.03     460171.4    446466.31   -35945.958   -3852.5951     -3795.63   -5773.3092 
      88   -5773.4758      13.2406      13.2406      13.2406            0            0            0     456696.4    460384.36    460317.61    449387.22   -37325.062   -4442.6533   -4388.6018   -5773.4758 
      89   -5773.6832      13.2406      13.2406      13.2406            0            0            0    457054.43    460356.26    460279.55    450527.49   -38171.952   -4319.0516   -4247.4713   -5773.6832 
      90   -5773.8423      13.2406      13.2406      13.2406            0            0            0    457080.45    460215.72    460132.76    450892.86   -38686.828   -4544.0333   -4463.1392   -5773.8423 
      91   -5774.0064      13.2406      13.2406      13.2406            0            0            0    457280.56    459779.04    459678.36    452384.28   -39794.677   -4075.1243     -3977.85   -5774.0064 
      92   -5774.2143      13.2406      13.2406      13.2406            0            0            0    457535.18     459234.8    459099.99    454270.76   -41540.633   -4027.5387   -3899.3294   -5774.2143 
      93   -5774.4864      13.2406      13.2406      13.2406            0            0            0     457481.9    459398.71    459209.21    453837.78   -42258.504   -3592.7965   -3441.6143   -5774.4864 
      94   -5774.8767      13.2406      13.2406      13.2406            0            0            0    457475.95    459834.06    459573.13    453020.65   -43430.417   -3632.3229   -3437.4918   -5774.8767 
      95   -5775.3356      13.2406      13.2406      13.2406            0            0            0    457460.52     460673.1    460344.72    451363.73   -44675.798   -3268.6386   -3057.8463   -5775.3356 
      96   -5775.7996      13.2406      13.2406      13.2406            0            0            0    457725.65    461440.87    461052.34    450683.73   -46225.098   -2601.2858   -2346.0066   -5775.7996 
      97   -5776.2263      13.2406      13.2406      13.2406            0            0            0    458320.56    462844.95    462399.32     449717.4   -46270.565   -1830.8116   -1553.1966   -5776.2263 
      98   -5776.4973      13.2406      13.2406      13.2406            0            0            0    458068.89    462959.43    462478.06    448769.16   -44990.009   -1616.3589   -1307.6286   -5776.4973 
      99   -5776.7575      13.2406      13.2406      13.2406            0            0            0    458218.62    463458.71    462898.98    448298.17   -45716.851   -1434.6891   -1055.4974   -5776.7575 
     100   -5777.1851      13.2406      13.2406      13.2406            0            0            0     458585.6    464161.88    463410.32    448184.59   -45269.051   -663.24315   -244.25794   -5777.1851 
     101   -5777.6238      13.2406      13.2406      13.2406            0            0            0    457825.43    463150.44    462154.67    448171.18   -43764.735   -814.13527   -207.83461   -5777.6238 
     102   -5777.8899      13.2406      13.2406      13.2406            0            0            0    455805.08    461709.21    460412.65    445293.37   -42885.659   -159.44809     654.5211   -5777.8899 
     103   -5778.2261      13.2406      13.2406      13.2406            0            0            0    453137.93    459531.29    457740.24    442142.25   -42840.795    115.47531    1221.7457   -5778.2261 
     104   -5778.6347      13.2406      13.2406      13.2406            0            0            0    451695.38    458369.11    456004.24    440712.79   -42595.789   -706.29915    542.95197   -5778.6347 
     105   -5779.0193      13.2406      13.2406      13.2406            0            0            0    449488.89    457052.64     454069.8    437344.23    -41401.39    -517.5635    654.24637   -5779.0193 
     106   -5779.3906      13.2406      13.2406      13.2406            0            0            0    446852.78    454355.33    451012.54    435190.46   -40740.143   -45.824436    1476.5217   -5779.3906 
     107   -5779.7241      13.2406      13.2406      13.2406            0            0            0    444913.61    452052.26    448262.65    434425.91   -39447.232    149.46555    2428.8894   -5779.7241 
     108   -5780.1484      13.2406      13.2406      13.2406            0            0            0    444364.24    450899.74    447218.17    434974.83   -38856.121   -467.68823    2485.3133   -5780.1484 
     109   -5780.6113      13.2406      13.2406      13.2406            0            0            0    443851.29    449731.13    446317.89    435504.85    -38833.87   -463.21533    3078.8318   -5780.6113 
     110   -5781.1626      13.2406      13.2406      13.2406            0            0            0    444199.39    448850.69    445842.98    437904.49   -37531.771   -1300.2383    3532.4433   -5781.1626 
     111   -5781.8423      13.2406      13.2406      13.2406            0            0            0    442886.82    446226.27     443242.8    439191.38   -35724.824   -2300.0473    4010.4917   -5781.8423 
     112   -5782.5052      13.2406      13.2406      13.2406            0            0            0    442310.25    445117.27    441475.38    440338.12   -34939.637   -3099.0593    4270.4982   -5782.5052 
     113   -5783.1986      13.2406      13.2406      13.2406            0            0            0    441201.33     443832.1    439002.85    440769.03   -33136.051   -3930.1511    4686.6655   -5783.1986 
     114   -5783.8797      13.2406      13.2406      13.2406            0            0            0    440399.82    443389.77    436934.05    440875.64   -31716.257   -5609.1155    4750.2136   -5783.8797 
     115   -5784.5621      13.2406      13.2406      13.2406            0            0            0    439337.38    443034.73    434360.65    440616.77    -30116.84    -6568.883    5173.4876   -5784.5621 
     116   -5784.9864      13.2406      13.2406      13.2406            0            0            0    437837.95    442278.24    431925.86    439309.75   -30050.178   -6872.2983    5341.9394   -5784.9864 
     117   -5785.4305      13.2406      13.2406      13.2406            0            0            0    436136.34    440922.32    429190.31     438296.4   -29113.659   -7557.5025    5720.5963   -5785.4305 
     118   -5785.8849      13.2406      13.2406      13.2406            0            0            0    435497.11       440116    428569.08    437806.24   -27982.719   -8682.2911    6445.5216   -5785.8849 
     119   -5786.1986      13.2406      13.2406      13.2406            0            0            0    435032.88    439614.34    427488.12    437996.18     -27683.9   -9735.8555     6579.019   -5786.1986 
     120   -5786.6878      13.2406      13.2406      13.2406            0            0            0    433274.26    438287.52    425209.88    436325.38   -27647.482   -10964.677    6377.3156   -5786.6878 
     121   -5787.2255      13.2406      13.2406      13.2406            0            0            0    431729.98    436906.87    422910.51    435372.55   -26680.744   -11525.274    6157.2787   -5787.2255 
     122   -5787.5892      13.2406      13.2406      13.2406            0            0            0    431744.56    436780.95    423007.25    435445.49   -24903.262   -11593.494    6380.1988   -5787.5892 
     123   -5787.9402      13.2406      13.2406      13.2406            0            0            0    431322.69    436575.98    423199.52    434192.56   -23923.649   -11092.643    4986.4727   -5787.9402 
     124   -5788.2959      13.2406      13.2406      13.2406            0            0            0    432392.13    437789.24    424771.81    434615.36   -23089.515   -11137.057    3467.1754   -5788.2959 
     125   -5788.5564      13.2406      13.2406      13.2406            0            0            0     432805.8    438405.42    425269.24    434742.73    -22555.36   -10944.051    2427.1103   -5788.5564 
     126   -5788.7435      13.2406      13.2406      13.2406            0            0            0     432976.8    438520.41    425645.34    434764.64   -21511.883   -10405.629    2852.9702   -5788.7435 
     127   -5788.9044      13.2406      13.2406      13.2406            0            0            0    432893.63    438352.83    425776.46    434551.61   -20360.931   -10185.818    2826.7389   -5788.9044 
     128   -5789.0667      13.2406      13.2406      13.2406            0            0            0    433233.21    438486.19    426113.15    435100.28   -19376.689   -10126.184    2644.3598   -5789.0667 
     129   -5789.1744      13.2406      13.2406      13.2406            0            0            0    433135.74    438545.68    425886.81    434974.74   -18783.092   -10171.478    2215.7296   -5789.1744 
     130   -5789.2773      13.2406      13.2406      13.2406            0            0            0    433226.01     438851.4    425957.84    434868.79   -18258.707   -10552.476    2575.5703   -5789.2773 
     131   -5789.3589      13.2406      13.2406      13.2406            0            0            0    433372.19    439274.04    426223.34     434619.2   -17267.018   -10704.932    3077.5156   -5789.3589 
     132   -5789.4501      13.2406      13.2406      13.2406            0            0            0    433581.28    439876.72     426615.4    434251.72   -16286.248    -10688.69    3932.3447   -5789.4501 
     133   -5789.5537      13.2406      13.2406      13.2406            0            0            0    434097.98    440891.59    427007.52    434394.83   -15549.606   -10105.668    4760.1194   -5789.5537 
     134   -5789.6783      13.2406      13.2406      13.2406            0            0            0     434769.1    441773.66    427264.83    435268.81   -15288.721   -10037.897    5621.4587   -5789.6783 
     135   -5789.8235      13.2406      13.2406      13.2406            0            0            0    435022.52    442648.21    427098.11    435321.25   -14900.548   -9446.2407    6374.6757   -5789.8235 
     136   -5789.9726      13.2406      13.2406      13.2406            0            0            0    435309.31     443457.5    426884.84    435585.57   -14922.017   -9392.8675    7082.9706   -5789.9726 
     137   -5790.1116      13.2406      13.2406      13.2406            0            0            0    435265.68     444052.6    426293.58    435450.85   -14504.753   -8871.3157    7849.7597   -5790.1116 
     138    -5790.233      13.2406      13.2406      13.2406            0            0            0    435010.68    444224.93    425568.29    435238.83   -13826.924   -8870.2531    9045.2697    -5790.233 
     139   -5790.3522      13.2406      13.2406      13.2406            0            0            0    435142.66    444964.91    425183.81    435279.25   -12937.716   -9163.6935    10161.476   -5790.3522 
     140   -5790.5542      13.2406      13.2406      13.2406            0            0            0    435653.22    446057.57    425207.38     435694.7   -12411.481   -9635.1754    11781.169   -5790.5542 
     141   -5790.8783      13.2406      13.2406      13.2406            0            0            0    435680.89    446443.76    425385.05    435213.85     -12426.6   -9657.8851     12903.83   -5790.8783 
     142   -5791.2245      13.2406      13.2406      13.2406            0            0            0    436306.96    447156.86    425922.78    435841.23   -12413.413   -9739.3247    14391.743   -5791.2245 
     143   -5791.5832      13.2406      13.2406      13.2406            0            0            0    436682.72     447824.5    426236.55    435987.12    -12391.83    -9915.693    15373.894   -5791.5832 
     144   -5791.9224      13.2406      13.2406      13.2406            0            0            0    437042.51    448164.72    426463.04    436499.77       -11819   -9856.8507    17111.262   -5791.9224 
     145   -5792.2452      13.2406      13.2406      13.2406            0            0            0    438001.42    449259.36    427070.28    437674.63   -11592.899   -10389.907    18302.555   -5792.2452 
     146   -5792.4596      13.2406      13.2406      13.2406            0            0            0    439376.99    450663.42    428012.62    439454.93   -11447.037   -11423.468    19234.758   -5792.4596 
     147   -5792.7254      13.2406      13.2406      13.2406            0            0            0    440461.77    451812.44    428744.81    440828.04   -11238.646   -11806.236    20717.856   -5792.7254 
     148    -5792.908      13.2406      13.2406      13.2406            0            0            0     440131.6    451449.59    428655.47    440289.73   -10808.217   -11553.187    21373.444    -5792.908 
     149   -5793.0538      13.2406      13.2406      13.2406            0            0            0    440861.39    452483.74    429408.37    440692.07   -10281.483   -11849.954    22090.689   -5793.0538 
     150   -5793.2284      13.2406      13.2406      13.2406            0            0            0    441113.48    453626.68     429395.2    440318.57   -10044.468   -11677.705    22385.414   -5793.2284 
     151   -5793.4457      13.2406      13.2406      13.2406            0            0            0    441448.34    454462.89    429537.78    440344.36    -9552.625   -11413.889    23029.606   -5793.4457 
     152   -5793.5982      13.2406      13.2406      13.2406            0            0            0    441524.02    454348.37    429384.72    440838.98   -9562.8418   -11136.908    23817.245   -5793.5982 
     153   -5793.7499      13.2406      13.2406      13.2406            0            0            0    441660.26    454021.98    429162.39     441796.4    -9577.213   -10684.401     25146.28   -5793.7499 
     154   -5793.9611      13.2406      13.2406      13.2406            0            0            0    441736.99    453881.15       429148    442181.83   -9779.7634   -9811.9662     25780.37   -5793.9611 
     155   -5794.2461      13.2406      13.2406      13.2406            0            0            0    441348.21    452999.14     429124.4    441921.07   -10455.965   -9080.8355    26445.686   -5794.2461 
     156    -5794.515      13.2406      13.2406      13.2406            0            0            0    440453.25    451457.63    428672.03     441230.1   -10708.462   -7875.1789    27443.952    -5794.515 
     157   -5794.8258      13.2406      13.2406      13.2406            0            0            0     439825.2     450160.7    428401.93    440912.98   -11319.596    -7301.085    28640.039   -5794.8258 
     158   -5795.1239      13.2406      13.2406      13.2406            0            0            0    439381.99    448909.55    428346.83     440889.6   -11807.294   -6521.7435    29614.669   -5795.1239 
     159   -5795.3865      13.2406      13.2406      13.2406            0            0            0    438770.54     447582.1    427979.57    440749.96   -12341.974   -6293.8297    30536.779   -5795.3865 
     160   -5795.6153      13.2406      13.2406      13.2406            0            0            0    438538.33    446734.38    427961.45    440919.17    -12738.06   -5489.7085    31285.427   -5795.6153 
     161   -5795.8075      13.2406      13.2406      13.2406            0            0            0    438709.51    446301.28    428317.53    441509.73    -13184.79   -5663.6768    31872.191   -5795.8075 
     162    -5795.954      13.2406      13.2406      13.2406            0            0            0    438676.17    445566.68    428593.36    441868.48   -13542.175   -5138.6023    32366.586    -5795.954 
     163   -5796.0722      13.2406      13.2406      13.2406            0            0            0    438481.22    444330.01    428731.03    442382.62   -13769.823    -4542.101    32772.618   -5796.0722 
     164   -5796.1404      13.2406      13.2406      13.2406            0            0            0     438524.2    443374.12    429104.71    443093.77    -14155.68    -3617.923    33000.088   -5796.1404 
     165   -5796.2219      13.2406      13.2406      13.2406            0            0            0     438137.8    442537.26    429284.37    442591.77   -14392.539   -2794.8128    33070.985   -5796.2219 
     166   -5796.3011      13.2406      13.2406      13.2406            0            0            0    437773.45    441618.55    429496.87    442204.91   -14592.012   -1614.4637    33036.053   -5796.3011 
     167   -5796.3653      13.2406      13.2406      13.2406            0            0            0    437639.11    441191.18    429684.57    442041.58    -14437.68   -800.08907    33053.199   -5796.3653 
     168   -5796.4319      13.2406      13.2406      13.2406            0            0            0    437459.85    440912.68    429776.11    441690.75   -14230.235    217.85143     33288.57   -5796.4319 
     169    -5796.506      13.2406      13.2406      13.2406            0            0            0    437047.19    440803.64    429406.34     440931.6   -14333.522    851.42778    33640.829    -5796.506 
     170   -5796.5804      13.2406      13.2406      13.2406            0            0            0    436838.02    440905.66     429163.8     440444.6   -14150.869     1994.312    34145.246   -5796.5804 
     171   -5796.6366      13.2406      13.2406      13.2406            0            0            0    436496.82    440857.41    428878.47    439754.57   -13969.486    2369.8783    34473.457   -5796.6366 
     172   -5796.6892      13.2406      13.2406      13.2406            0            0            0    435740.91    440600.86    428160.31    438461.56   -13697.346    3079.5981    34837.264   -5796.6892 
     173   -5796.7273      13.2406      13.2406      13.2406            0            0            0    435168.14    440329.82    427421.27    437753.33    -13249.14    3044.0412    34998.243   -5796.7273 
     174    -5796.758      13.2406      13.2406      13.2406            0            0            0    434677.61    440032.51    426958.55    437041.78    -12711.27    3292.1725    34998.699    -5796.758 
     175   -5796.7816      13.2406      13.2406      13.2406            0            0            0    434275.67    439915.52     426730.2    436181.28   -12393.933    3336.4088    35175.054   -5796.7816 
     176   -5796.8031      13.2406      13.2406      13.2406            0            0            0     433864.1    439720.49     426567.5    435304.33   -12206.148    3633.3806    35329.134   -5796.8031 
     177   -5796.8203      13.2406      13.2406      13.2406            0            0            0    433476.08       439487    426360.21    434581.05   -11837.146    3718.7846     35436.37   -5796.8203 
     178   -5796.8435      13.2406      13.2406      13.2406            0            0            0    433024.32    439228.93    426109.87    433734.15   -11332.698    3953.8621    35557.357   -5796.8435 
     179   -5796.8775      13.2406      13.2406      13.2406            0            0            0    432433.39    438918.24    425829.62    432552.32   -10895.491    4214.2094    36104.333   -5796.8775 
     180   -5796.9401      13.2406      13.2406      13.2406            0            0            0    431852.09    438576.26    425586.72     431393.3   -10542.736    5057.6435    36591.419   -5796.9401 
     181   -5797.0672      13.2406      13.2406      13.2406            0            0            0    431611.42    438610.87    425581.59     430641.8   -10100.903    6171.6496    36885.067   -5797.0672 
     182   -5797.2437      13.2406      13.2406      13.2406            0            0            0    431670.97    438815.81    425822.87    430374.24   -9979.1999     7243.958    37806.583   -5797.2437 
     183   -5797.3331      13.2406      13.2406      13.2406            0            0            0    431991.97    438924.66    426328.99    430722.26   -10111.357    7521.1316    38686.799   -5797.3331 
     184    -5797.499      13.2406      13.2406      13.2406            0            0            0    432164.37    438512.11    427041.49     430939.5   -9893.7897     8404.388    39973.008    -5797.499 
     185   -5797.6789      13.2406      13.2406      13.2406            0            0            0    432855.88    438724.84    428099.19     431743.6   -9889.6733    9693.1819    40328.057   -5797.6789 
     186   -5797.7765      13.2406      13.2406      13.2406            0            0            0    433713.21    439244.64    429269.71    432625.29    -9852.344    10474.936    41111.662   -5797.7765 
     187   -5797.8721      13.2406      13.2406      13.2406            0            0            0     434158.3    439580.81    429820.32    433073.78   -9795.7498    11202.122    41818.073   -5797.8721 
     188   -5797.9353      13.2406      13.2406      13.2406            0            0            0    434359.95    439761.67    429869.27    433448.89   -9718.1751     11649.31    41429.592   -5797.9353 
     189   -5797.9804      13.2406      13.2406      13.2406            0            0            0    434373.57    439870.04    429794.37    433456.28   -9580.5042    11897.358    41322.963   -5797.9804 
     190     -5798.02      13.2406      13.2406      13.2406            0            0            0     434581.8    440278.23    429975.54    433491.63   -9686.1044    12275.878    41443.526     -5798.02 
     191   -5798.0446      13.2406      13.2406      13.2406            0            0            0    434627.61    440485.12    429934.43    433463.28   -9589.2996    12465.236    41459.769   -5798.0446 
     192   -5798.0658      13.2406      13.2406      13.2406            0            0            0    434443.59    440380.28    429599.34    433351.15   -9531.2453    12971.763    41358.192   -5798.0658 
     193   -5798.0914      13.2406      13.2406      13.2406            0            0            0    434350.26    440521.47     429186.9     433342.4   -9577.4679    12993.785    41055.719   -5798.0914 
     194   -5798.1296      13.2406      13.2406      13.2406            0            0            0    434150.72    441164.52     428294.1    432993.55   -9331.0167    13273.738    41029.953   -5798.1296 
     195   -5798.1734      13.2406      13.2406      13.2406            0            0            0    434123.54    441994.53    427621.35    432754.75   -9268.3187     13550.21    40933.219   -5798.1734 
     196   -5798.2264      13.2406      13.2406      13.2406            0            0            0    434466.49     443562.1    427254.31    432583.06   -9092.7126    13738.033     40782.79   -5798.2264 
     197   -5798.2893      13.2406      13.2406      13.2406            0            0            0    434722.51     444875.3     426897.2    432395.04   -9453.8475    13925.558    41330.035   -5798.2893 
     198   -5798.3663      13.2406      13.2406      13.2406            0            0            0    435206.03    445575.93    427276.53    432765.62   -9743.0462    13763.171    42026.329   -5798.3663 
     199   -5798.4531      13.2406      13.2406      13.2406            0            0            0    435243.36    445444.24    427328.85    432956.98   -10132.842    14337.946    42644.012   -5798.4531 
     200    -5798.518      13.2406      13.2406      13.2406            0            0            0    435321.54    445098.71    427625.05    433240.85   -10698.904    14110.142    43348.844    -5798.518 
     201    -5798.577      13.2406      13.2406      13.2406            0            0            0    435080.62    444536.29    427532.69    433172.89   -10942.117    14318.311    43800.231    -5798.577 
     202   -5798.6369      13.2406      13.2406      13.2406            0            0            0    434570.31    443452.18    426977.06     433281.7   -11065.331      14722.5    44176.769   -5798.6369 
     203     -5798.71      13.2406      13.2406      13.2406            0            0            0    434278.66    441941.31    427206.74    433687.91   -11159.089    15054.491    44672.273     -5798.71 
     204   -5798.8173      13.2406      13.2406      13.2406            0            0            0    432997.09     438882.3    426916.88    433192.09   -11591.061    15489.404    45799.547   -5798.8173 
     205    -5798.929      13.2406      13.2406      13.2406            0            0            0    432115.13    436735.86    426687.79    432921.74   -11942.849    15930.325    47134.233    -5798.929 
     206   -5799.0758      13.2406      13.2406      13.2406            0            0            0    431798.18    435310.27     426797.1    433287.17   -12228.121    16541.431    48164.581   -5799.0758 
     207   -5799.2316      13.2406      13.2406      13.2406            0            0            0    431850.81    434942.37    426870.43    433739.64   -12125.424    17414.994    49310.205   -5799.2316 
     208   -5799.3783      13.2406      13.2406      13.2406            0            0            0    432545.15       435151    427718.84     434765.6    -12469.96    17689.226    50405.004   -5799.3783 
     209   -5799.4848      13.2406      13.2406      13.2406            0            0            0    432947.74     435129.8    428101.66    435611.76   -12621.208    18055.375    50949.449   -5799.4848 
     210   -5799.6112      13.2406      13.2406      13.2406            0            0            0    434251.33    436003.94    429559.71    437190.34   -12787.351    18374.041    51778.114   -5799.6112 
     211   -5799.7393      13.2406      13.2406      13.2406            0            0            0    435505.67     437109.8    431021.96    438385.25   -12808.277    18700.296     52552.76   -5799.7393 
     212   -5799.8611      13.2406      13.2406      13.2406            0            0            0    436246.49    437460.99    432217.77     439060.7   -12310.941    19139.359    52814.167   -5799.8611 
     213   -5799.9663      13.2406      13.2406      13.2406            0            0            0    437133.37    437859.02    433562.51    439978.56    -12171.54    19453.494    52580.438   -5799.9663 
     214   -5800.0719      13.2406      13.2406      13.2406            0            0            0    437695.47    437815.03    434578.28    440693.09   -11869.421     19873.28    52879.113   -5800.0719 
     215   -5800.1558      13.2406      13.2406      13.2406            0            0            0    438366.04    438002.53    435954.34    441141.26   -11717.546    20241.188    53130.519   -5800.1558 
     216   -5800.2412      13.2406      13.2406      13.2406            0            0            0    438313.08    437352.72    436634.74    440951.78   -11318.787    20442.792    53216.888   -5800.2412 
     217   -5800.3408      13.2406      13.2406      13.2406            0            0            0    437930.84    436312.26    437061.17     440419.1   -11292.804    21150.502    53367.343   -5800.3408 
     218   -5800.4368      13.2406      13.2406      13.2406            0            0            0    437702.86    435644.45    437130.92     440333.2   -11201.223    21674.539     53393.72   -5800.4368 
     219   -5800.5459      13.2406      13.2406      13.2406            0            0            0    437124.73    434757.19    436503.15    440113.87   -10735.716    22469.776    53690.228   -5800.5459 
     220   -5800.6682      13.2406      13.2406      13.2406            0            0            0    436703.75    433727.32    436282.48    440101.45   -10067.681    22968.095    53852.082   -5800.6682 
     221   -5800.7936      13.2406      13.2406      13.2406            0            0            0    436047.85    432732.86     435743.4     439667.3   -9987.1548    23363.487    54183.132   -5800.7936 
     222   -5800.8711      13.2406      13.2406      13.2406            0            0            0    435633.18    432443.12    435229.98    439226.44   -10272.947    23320.515    54289.219   -5800.8711 
     223   -5800.9716      13.2406      13.2406      13.2406            0            0            0    435008.18    431748.76    434824.25    438451.54   -10587.834    23533.577    54275.073   -5800.9716 
     224   -5801.0906      13.2406      13.2406      13.2406            0            0            0    434330.65    430843.27    434207.94    437940.74   -10258.012    23829.011    54289.811   -5801.0906 
     225   -5801.1584      13.2406      13.2406      13.2406            0            0            0    434261.23    430509.54    434088.19    438185.94   -10230.765    23759.209    54366.635   -5801.1584 
     226   -5801.2071      13.2406      13.2406      13.2406            0            0            0    433847.41    429767.45    433623.71    438151.06   -10090.438    23949.889    54254.268   -5801.2071 
     227   -5801.2512      13.2406      13.2406      13.2406            0            0            0    433467.27    429198.99    433366.08    437836.76   -10164.816    24247.511    54010.762   -5801.2512 
     228   -5801.2969      13.2406      13.2406      13.2406            0            0            0    433083.19    428843.28       433115    437291.29   -10141.018    24265.835    53682.552   -5801.2969 
     229   -5801.3306      13.2406      13.2406      13.2406            0            0            0    432841.84    428576.59    432932.43    437016.51   -10394.519    24359.068    53749.815   -5801.3306 
     230   -5801.3547      13.2406      13.2406      13.2406            0            0            0    432772.28     428409.8    432815.31    437091.74   -10600.588    24410.167    53547.823   -5801.3547 
     231   -5801.3737      13.2406      13.2406      13.2406            0            0            0    432760.22    428218.14    432887.59    437174.94   -10926.798    24636.031    53442.633   -5801.3737 
     232   -5801.3911      13.2406      13.2406      13.2406            0            0            0    432877.28    428297.74    433122.88    437211.23   -11269.465    24778.351    53334.021   -5801.3911 
     233   -5801.4085      13.2406      13.2406      13.2406            0            0            0    432932.63    428408.17    433211.12    437178.61    -11495.63    25010.138    53284.634   -5801.4085 
     234   -5801.4231      13.2406      13.2406      13.2406            0            0            0    432918.59    428320.58    433237.31    437197.89   -11766.532    25177.413    53162.369   -5801.4231 
     235   -5801.4369      13.2406      13.2406      13.2406            0            0            0    432997.01    428300.51    433372.91    437317.62   -12234.078      25237.3    53173.576   -5801.4369 
     236   -5801.4508      13.2406      13.2406      13.2406            0            0            0    432962.95     428216.6    433331.68    437340.56   -12630.123    25172.142    53280.029   -5801.4508 
     237   -5801.4643      13.2406      13.2406      13.2406            0            0            0    433020.75    428174.12    433399.06    437489.06   -12940.418    25196.642    53336.325   -5801.4643 
     238   -5801.4759      13.2406      13.2406      13.2406            0            0            0    433011.54    428062.82    433382.12    437589.67   -13156.519    25187.014    53440.334   -5801.4759 
     239   -5801.4869      13.2406      13.2406      13.2406            0            0            0    433131.85    427953.68    433613.32    437828.54   -13417.848    25220.152    53579.322   -5801.4869 
     240   -5801.4967      13.2406      13.2406      13.2406            0            0            0    433199.81    427867.76    433713.82    438017.84   -13499.628     25276.56    53623.789   -5801.4967 
     241   -5801.5053      13.2406      13.2406      13.2406            0            0            0     433232.1    427827.46     433799.8    438069.04    -13782.69    25372.729     53671.74   -5801.5053 
     242   -5801.5122      13.2406      13.2406      13.2406            0            0            0    433225.31    427734.22    433839.64    438102.08   -14023.454    25448.453    53670.668   -5801.5122 
     243   -5801.5172      13.2406      13.2406      13.2406            0            0            0    433233.65    427627.06    433957.84    438116.06   -14285.343    25484.015    53715.789   -5801.5172 
     244   -5801.5213      13.2406      13.2406      13.2406            0            0            0    433312.23     427638.4    434120.15    438178.14   -14443.248    25522.261    53732.889   -5801.5213 
     245   -5801.5244      13.2406      13.2406      13.2406            0            0            0    433373.73    427638.45    434205.28    438277.46   -14536.362    25544.176    53770.469   -5801.5244 
     246   -5801.5269      13.2406      13.2406      13.2406            0            0            0    433404.62    427676.84    434215.77    438321.24   -14607.711    25632.976    53746.243   -5801.5269 
     247   -5801.5286      13.2406      13.2406      13.2406            0            0            0    433431.54    427708.88    434205.53    438380.21   -14680.502    25690.066    53786.758   -5801.5286 
     248   -5801.5299      13.2406      13.2406      13.2406            0            0            0    433405.39    427680.29    434161.61    438374.28    -14704.69    25705.058    53791.786   -5801.5299 
     249   -5801.5309      13.2406      13.2406      13.2406            0            0            0    433355.68    427634.04    434139.51    438293.49   -14714.219    25752.871    53847.356   -5801.5309 
     250   -5801.5317      13.2406      13.2406      13.2406            0            0            0    433297.47    427594.61    434090.21    438207.59   -14707.525    25796.513    53883.029   -5801.5317 
     251   -5801.5325      13.2406      13.2406      13.2406            0            0            0    433245.58    427547.28    434043.89    438145.56    -14705.27    25843.414     53904.04   -5801.5325 
     252   -5801.5329      13.2406      13.2406      13.2406            0            0            0    433169.44     427486.5    433957.18    438064.65   -14694.471    25880.415    53925.576   -5801.5329 
     253   -5801.5332      13.2406      13.2406      13.2406            0            0            0     433126.1    427459.62    433909.94    438008.75   -14693.109    25915.069    53955.272   -5801.5332 
     254   -5801.5337      13.2406      13.2406      13.2406            0            0            0     433072.9    427417.05    433841.84    437959.81   -14682.283    25907.707    53966.788   -5801.5337 
     255   -5801.5339      13.2406      13.2406      13.2406            0            0            0    433040.76    427382.54    433789.32    437950.43     -14682.1    25899.152    53970.328   -5801.5339 
     256   -5801.5341      13.2406      13.2406      13.2406            0            0            0    432998.89    427345.88    433712.33    437938.46   -14665.436    25887.889    53966.205   -5801.5341 
     257   -5801.5343      13.2406      13.2406      13.2406            0            0            0    432961.93    427317.36    433644.64     437923.8   -14643.008    25879.557    53959.722   -5801.5343 
     258   -5801.5346      13.2406      13.2406      13.2406            0            0            0    432913.62    427286.01    433562.79    437892.05   -14620.865    25853.193    53946.891   -5801.5346 
     259   -5801.5347      13.2406      13.2406      13.2406            0            0            0    432878.75    427263.36    433497.21    437875.69   -14616.628     25856.07    53947.664   -5801.5347 
     260   -5801.5349      13.2406      13.2406      13.2406            0            0            0    432845.34    427248.59    433425.73    437861.71   -14603.009     25847.07    53941.809   -5801.5349 
     261   -5801.5349      13.2406      13.2406      13.2406            0            0            0    432845.34    427248.59    433425.73    437861.71   -14603.009     25847.07    53941.809   -5801.5349 
Loop time of 7.27548 on 1 procs for 261 steps with 214 atoms

54.6% CPU use with 1 MPI tasks x no OpenMP threads

Minimization stats:
  Stopping criterion = linesearch alpha is zero
  Energy initial, next-to-last, final = 
        -5640.88631645      -5801.5349201      -5801.5349201
  Force two-norm initial, final = 72.8661 0.0690456
  Force max component initial, final = 13.2942 0.0134426
  Final line search alpha, max atom move = 1.90735e-06 2.56397e-08
  Iterations, force evaluations = 261 455

MPI task timing breakdown:
Section |  min time  |  avg time  |  max time  |%varavg| %total
---------------------------------------------------------------
Pair    | 3.2704     | 3.2704     | 3.2704     |   0.0 | 44.95
Kspace  | 3.7245     | 3.7245     | 3.7245     |   0.0 | 51.19
Neigh   | 0.21111    | 0.21111    | 0.21111    |   0.0 |  2.90
Comm    | 0.029819   | 0.029819   | 0.029819   |   0.0 |  0.41
Output  | 0.023581   | 0.023581   | 0.023581   |   0.0 |  0.32
Modify  | 0          | 0          | 0          |   0.0 |  0.00
Other   |            | 0.01601    |            |       |  0.22

Nlocal:    214 ave 214 max 214 min
Histogram: 1 0 0 0 0 0 0 0 0 0
Nghost:    3809 ave 3809 max 3809 min
Histogram: 1 0 0 0 0 0 0 0 0 0
Neighs:    54311 ave 54311 max 54311 min
Histogram: 1 0 0 0 0 0 0 0 0 0

Total # of neighbors = 54311
Ave neighs/atom = 253.79
Neighbor list builds = 35
Dangerous builds = 0

# ---- define output variables ----
variable natoms equal "count(all)"
variable tot_energy equal "c_eatoms"
variable a11 equal "xhi-xlo"
variable a22 equal "yhi-ylo"
variable a33 equal "zhi-zlo"
variable tilt_xy equal "xy"
variable tilt_xz equal "xz"
variable tilt_yz equal "yz"
variable tot_press equal "press"
variable press_xx equal "pxx"
variable press_yy equal "pyy"
variable press_zz equal "pzz"
variable press_xy equal "pxy"
variable press_xz equal "pxz"
variable press_yz equal "pyz"

# ---- output ----
print "pypospack:output_section:begin"
pypospack:output_section:begin
print "tot_energy = ${tot_energy}"
tot_energy = -5801.5349201042
print "num_atoms = ${natoms}"
num_atoms = 214
print "a11 = ${a11}"
a11 = 13.2406
print "a22 = ${a22}"
a22 = 13.2406
print "a33 = ${a33}"
a33 = 13.2406
print "a12 = ${tilt_xy}"
a12 = 0
print "a13 = ${tilt_xz}"
a13 = 0
print "a23 = ${tilt_yz}"
a23 = 0
print "tot_press = ${tot_press}"
tot_press = 432845.342468831
print "pxx = ${press_xx}"
pxx = 427248.591663255
print "pyy = ${press_yy}"
pyy = 433425.728900305
print "pzz = ${press_zz}"
pzz = 437861.706842934
print "pxy = ${press_xy}"
pxy = -14603.0092527464
print "pxz = ${press_xz}"
pxz = 25847.0704166101
print "pyz = ${press_yz}"
pyz = 53941.8088236616
print "pypospack:output_section:done"
pypospack:output_section:done
print "pypospack:lammps_sim:done"
pypospack:lammps_sim:done
Total wall time: 0:00:07
