LAMMPS (10 Feb 2015)
# ---- initialize simulations
clear
units metal
dimension 3
boundary p p p
atom_style charge
atom_modify map array
# ---- create atoms
read_data /Users/eugeneragasa/pyflamestk_git/pypospack/tests/tests_integration/workflow/WorkflowLammpsThermalExpansion/param_7521/MgO_NaCl_unit.npt.T300/lammps.structure
  triclinic box = (0 0 0) to (4.2565 4.2565 4.2565) with tilt (0 0 0)
  1 by 1 by 1 MPI processor grid
  reading atoms ...
  8 atoms
# ---- define interatomic potential
include potential.mod
mass 1 24.305
mass 2 15.999

group Mg type 1
4 atoms in group Mg
group O type 2
4 atoms in group O

set group Mg charge 1.63791250839
  4 settings made for charge
set group O charge -1.63791250839
  4 settings made for charge

variable R_cut equal 10.0

pair_style buck/coul/long ${R_cut}
pair_style buck/coul/long 10
pair_coeff 1 1 0.0 0.5 0.0 ${R_cut}
pair_coeff 1 1 0.0 0.5 0.0 10
pair_coeff 1 2 1465.92328509 0.282476486176 0.0 ${R_cut}
pair_coeff 1 2 1465.92328509 0.282476486176 0.0 10
pair_coeff 2 2 5816.20442115 0.096233749689 18.932341092 ${R_cut}
pair_coeff 2 2 5816.20442115 0.096233749689 18.932341092 10

kspace_style pppm 1.0e-5

neighbor 1.0 bin
neigh_modify every 1 delay 0 check yes
# ---- define settings
compute eng all pe/atom
compute eatoms all reduce sum c_eng
# ---- run minimization
reset_timestep 0
fix 1 all box/relax iso 0.0 vmax 0.001
thermo 10
thermo_style custom step pe lx ly lz xy xz yz press pxx pyy pzz pxy pxz pyz c_eatoms
min_style cg
minimize 1e-25 1e-25 5000 10000
PPPM initialization ...
  G vector (1/distance) = 0.35267
  grid = 8 8 8
  stencil order = 5
  estimated absolute RMS force accuracy = 3.88211e-05
  estimated relative force accuracy = 2.69597e-06
  using double precision FFTs
  3d grid and FFT values/proc = 3375 512
Neighbor list info ...
  1 neighbor list requests
  update every 1 steps, delay 0 steps, check yes
  master list distance cutoff = 11
Memory usage per processor = 4.06549 Mbytes
Step PotEng Lx Ly Lz Xy Xz Yz Press Pxx Pyy Pzz Pxy Pxz Pyz eatoms 
       0   -108.70031       4.2565       4.2565       4.2565            0            0            0    82041.316    82041.316    82041.316    82041.316 -4.6499549e-11 -1.1702618e-10 1.7098221e-10   -108.70031 
      10   -108.77917     4.299065     4.299065     4.299065            0            0            0    28384.418    28384.418    28384.418    28384.418 -2.893711e-10 1.1285336e-10 8.1895601e-11   -108.77917 
      19   -108.79132    4.3240425    4.3240425    4.3240425            0            0            0 -0.024351241 -0.024351241 -0.024351241 -0.024351241 1.5580285e-11 -3.1606067e-12 1.2588801e-10   -108.79132 
Loop time of 0.00847793 on 1 procs for 19 steps with 8 atoms

Minimization stats:
  Stopping criterion = linesearch alpha is zero
  Energy initial, next-to-last, final = 
        -108.700309346      -108.79131697      -108.79131697
  Force two-norm initial, final = 11.8468 7.13952e-05
  Force max component initial, final = 11.8468 1.5084e-05
  Final line search alpha, max atom move = 0.5 7.54202e-06
  Iterations, force evaluations = 19 24

Pair  time (%) = 0.00237799 (28.0492)
Kspce time (%) = 0.00142288 (16.7834)
Neigh time (%) = 0 (0)
Comm  time (%) = 0.000264883 (3.12438)
Outpt time (%) = 1.19209e-05 (0.140611)
Other time (%) = 0.00440025 (51.9025)

Nlocal:    8 ave 8 max 8 min
Histogram: 1 0 0 0 0 0 0 0 0 0
Nghost:    2189 ave 2189 max 2189 min
Histogram: 1 0 0 0 0 0 0 0 0 0
Neighs:    2344 ave 2344 max 2344 min
Histogram: 1 0 0 0 0 0 0 0 0 0

Total # of neighbors = 2344
Ave neighs/atom = 293
Neighbor list builds = 0
Dangerous builds = 0
unfix 1
# ---- define output variables ----
variable natoms equal "count(all)"
variable tot_energy equal "c_eatoms"
variable length_x equal "lx"
variable length_y equal "ly"
variable length_z equal "lz"
variable tilt_xy equal "xy"
variable tilt_xz equal "xz"
variable tilt_yz equal "yz"
variable tot_press equal "press"
variable press_xx equal "pxx"
variable press_yy equal "pyy"
variable press_zz equal "pzz"
variable press_xy equal "pxy"
variable press_xz equal "pxz"
variable press_yz equal "pyz"

# ---- output ----
print "pypospack:output_section:begin"
pypospack:output_section:begin
print "tot_energy = ${tot_energy}"
tot_energy = -108.791316969709
print "num_atoms = ${natoms}"
num_atoms = 8
print "xx = ${length_x}"
xx = 4.32404254484564
print "yy = ${length_y}"
yy = 4.32404254484564
print "zz = ${length_z}"
zz = 4.32404254484564
print "xy = ${tilt_xy}"
xy = 0
print "xz = ${tilt_xz}"
xz = 0
print "yz = ${tilt_yz}"
yz = 0
print "tot_press = ${tot_press}"
tot_press = -0.0243512411551094
print "pxx = ${press_xx}"
pxx = -0.0243512413415371
print "pyy = ${press_yy}"
pyy = -0.0243512409516822
print "pzz = ${press_zz}"
pzz = -0.024351241172109
print "pxy = ${press_xy}"
pxy = 1.55802849425254e-11
print "pxz = ${press_xz}"
pxz = -3.16060668162342e-12
print "pyz = ${press_yz}"
pyz = 1.25888006757422e-10
print "pypospack:output_section:done"
pypospack:output_section:done
print "pypospack:lammps_sim:done"
pypospack:lammps_sim:done
#------------------------------------------------------------------------------
# RUN THERMOSTAT
# running using an NPT Nose-Hoover style thermostat
#------------------------------------------------------------------------------
variable tempdamp equal 0.1
variable pressdamp equal 1.0
# set initial velocities
velocity all create 300 2154192 mom yes dist gaussian loop all
# fix for Nose-Hoover style thermostat
fix 20 all npt temp 300 300 0.1 aniso 0.0 0.0 1.0 drag 1.0 couple xyz
variable boxx equal lx
variable boxy equal ly
variable boxz equal lz
variable boxp equal press
variable boxt equal temp
# calculate averages every 10000 steps
reset_timestep 0
fix 21 all ave/time 10 10 100 v_boxx v_boxy v_boxz v_boxp v_boxt file lattice.out
thermo_style custom step temp pe ke etotal press lx ly lz press pxx pyy pzz pxy pxz pyz vol
thermo_modify flush yes
thermo 100
run 100000
PPPM initialization ...
  G vector (1/distance) = 0.351996
  grid = 8 8 8
  stencil order = 5
  estimated absolute RMS force accuracy = 4.00454e-05
  estimated relative force accuracy = 2.781e-06
  using double precision FFTs
  3d grid and FFT values/proc = 3375 512
Memory usage per processor = 3.06549 Mbytes
Step Temp PotEng KinEng TotEng Press Lx Ly Lz Press Pxx Pyy Pzz Pxy Pxz Pyz Volume 
       0          300   -108.79133    0.2714463   -108.51988    3584.3897    4.3240425    4.3240425    4.3240425    3584.3897    1314.9796    3277.1312    6161.0584   -979.22598    904.73966    904.33347    80.848111 
     100    77.978738   -108.55185    0.0705568   -108.48129   -4356.6149    4.3388876    4.3388876    4.3388876   -4356.6149   -12907.952   -783.27441    621.38213    599.83777   -853.25261    176.53063    81.683665 
     200      232.563   -108.61824   0.21042789   -108.40781      1582.48    4.3314528    4.3314528    4.3314528      1582.48   -2906.4149    3538.3813    4115.4736     559.4297    275.76842    79.487271    81.264479 
     300    179.84939   -108.50853   0.16273151    -108.3458    5501.6449    4.3365314    4.3365314    4.3365314    5501.6449   -5713.1995    10266.571    11951.564    1076.3124   -1278.9112    637.78561     81.55066 
     400    290.96781   -108.55766   0.26327379   -108.29438   -8920.5293    4.3412334    4.3412334    4.3412334   -8920.5293   -13202.813   -10221.613   -3337.1618    395.73564   -1133.5054   -691.15625    81.816222 
     500    396.43981   -108.61964   0.35870707   -108.26093    3528.7606     4.335827     4.335827     4.335827    3528.7606   -8632.6144    6384.4116    12834.485   -1221.7035   -1338.8378    232.63758    81.510931 
     600    299.98516   -108.51956   0.27143288   -108.24813   -5318.5194    4.3410387    4.3410387    4.3410387   -5318.5194   -12815.503    217.95619   -3358.0112    967.64681    55.041199    663.78986     81.80521 
     700    164.83708   -108.39497   0.14914805   -108.24582    148.15608    4.3422189    4.3422189    4.3422189    148.15608   -14371.631    2115.9412    12700.158    127.65073   -1606.5489    1036.4948     81.87195 
     800     376.9919   -108.58478   0.34111019   -108.24367    7388.5231    4.3330184    4.3330184    4.3330184    7388.5231    -920.6066    8370.5151    14715.661    1919.7453    2285.4035   -332.03431    81.352628 
     900    255.01907   -108.47784   0.23074661    -108.2471   -6389.9616     4.348646     4.348646     4.348646   -6389.9616   -19692.807   -11808.825    12331.747   -1250.5212   -665.85237    2806.2273    82.236038 
    1000    402.90955   -108.61054   0.36456103   -108.24598    5997.3885    4.3302541    4.3302541    4.3302541    5997.3885   -577.07218    11309.216    7260.0216   -652.79061     165.1588    7.5471046    81.197033 
    1100    227.07897   -108.45289   0.20546582   -108.24743   -5197.1914     4.346484     4.346484     4.346484   -5197.1914   -16996.117    -1418.215    2822.7575   -1639.3157     -654.647   -1292.5267    82.113443 
    1200     238.6074   -108.46527   0.21589699   -108.24937     1281.569    4.3374368    4.3374368    4.3374368     1281.569   -9668.4393    1775.3329    11737.813    144.03368   -672.80008    522.24482    81.601751 
    1300    359.14395   -108.57312     0.324961   -108.24816    2666.2419    4.3372284    4.3372284    4.3372284    2666.2419   -9592.0254      3727.53    13863.221    719.58652   -1609.6352    296.69521    81.589991 
    1400    310.59227   -108.52909   0.28103041   -108.24806   -4926.8917    4.3474733    4.3474733    4.3474733   -4926.8917   -17445.992   -5837.9651    8503.2822   -1442.5609   -1016.3153   -2493.6344    82.169523 
    1500    345.22197   -108.55862    0.3123641   -108.24626    5846.6447    4.3297401    4.3297401    4.3297401    5846.6447   -3637.9698    13572.369    7605.5347   -666.42004     -2120.39    2913.8521    81.168121 
    1600     232.5891   -108.45736    0.2104515   -108.24691    -9367.256    4.3493071    4.3493071    4.3493071    -9367.256   -15535.568   -729.76781   -11836.432   -2308.9736    1386.2079   -139.77818    82.273545 
    1700    241.02082    -108.4664   0.21808071   -108.24832    6931.4967    4.3326795    4.3326795    4.3326795    6931.4967   -6441.7567    2314.6141    24921.633    1573.7419     -1665.62   -922.19561    81.333545 
    1800    369.12736   -108.58378    0.3339942   -108.24979   -7186.9407    4.3435772    4.3435772    4.3435772   -7186.9407   -14969.211    2191.9987   -8783.6094    1384.6063    1327.0811    2920.5606    81.948809 
    1900    347.96754   -108.56523   0.31484835   -108.25038     1188.098    4.3406681    4.3406681    4.3406681     1188.098   -15587.845   -3451.8932    22604.032    1706.2345   -184.32687   -4929.2483    81.784262 
    2000    241.89259   -108.46973    0.2188695   -108.25086     5958.708    4.3346186    4.3346186    4.3346186     5958.708   -6472.1509    21163.719    3184.5564    680.01934   -1287.1168    1857.2188    81.442797 
    2100    355.94801   -108.57181   0.32206924   -108.24974   -16679.507    4.3497858    4.3497858    4.3497858   -16679.507   -20413.891   -19311.037   -10313.592   -425.27286   -1402.1483    620.87534    82.300717 
    2200    184.38234   -108.41528   0.16683301   -108.24844    22603.201    4.3273029    4.3273029    4.3273029    22603.201    8275.4715    16623.912    42910.219    1024.0063   -251.39172    592.68571     81.03113 
    2300    393.55266   -108.60363   0.35609472   -108.24753   -19398.334    4.3532046    4.3532046    4.3532046   -19398.334   -25421.596    -21001.54   -11771.866    674.46673    -3054.655    2073.8481    82.494924 
    2400    309.71241   -108.52714    0.2802343    -108.2469    12860.853    4.3311961    4.3311961    4.3311961    12860.853    1579.7792    13527.123    23475.656    1280.9774    1266.5019    3685.7376    81.250031 
    2500    255.32647   -108.47741   0.23102476   -108.24638   -3756.4097    4.3441928    4.3441928    4.3441928   -3756.4097   -17509.198    1196.9262    5043.0424    312.89417   -362.61713   -570.62627    81.983654 
    2600    323.70682   -108.53882   0.29289673   -108.24592   -11015.238    4.3426739    4.3426739    4.3426739   -11015.238   -12979.181   -9508.1369   -10558.396    -1188.986    1309.1185     419.0653    81.897693 
    2700    292.77868   -108.51108   0.26491231   -108.24617    8865.5175    4.3344841    4.3344841    4.3344841    8865.5175   -5247.2407    1376.8407    30466.952   -316.95424   -1005.4504    824.96171    81.435213 
    2800    252.44763   -108.48056   0.22841992   -108.25214   -6762.4244    4.3465825    4.3465825    4.3465825   -6762.4244   -18699.104   -10986.512    9398.3432    1139.0154     69.33737   -328.41879    82.119027 
    2900    410.70899   -108.62444   0.37161813   -108.25282    1761.0746    4.3330627    4.3330627    4.3330627    1761.0746   -3402.5992    8259.5343    426.28875    1773.1798   -730.27572    2536.2549    81.355127 
    3000    181.65976   -108.41909   0.16436957   -108.25472   -2511.6974    4.3469164    4.3469164    4.3469164   -2511.6974   -16533.343   -2832.6777    11830.929    1392.4835   -519.53012    3490.0372    82.137952 
    3100    275.33632   -108.50155   0.24913009   -108.25242    6122.0896    4.3336167    4.3336167    4.3336167    6122.0896    -3707.935     3556.818    18517.386   -130.80641   -1161.6762   -128.01462    81.386335 
    3200    387.94136   -108.60163   0.35101749   -108.25061   -7458.8962    4.3441031    4.3441031    4.3441031   -7458.8962   -15107.813   -10045.305    2776.4293   -541.28136    1748.8444    3020.6572    81.978577 
    3300    249.06718   -108.47599   0.22536122   -108.25063    4582.8947     4.339824     4.339824     4.339824    4582.8947   -12510.471    9024.9196    17234.235    461.57447   -1337.0332   -4519.8333    81.736557 
    3400    351.58381   -108.56581   0.31812042   -108.24769    886.77193    4.3361535    4.3361535    4.3361535    886.77193   -7005.2762    718.36181    8947.2302    701.89123    1160.2845   -767.72783    81.529345 
    3500      261.978    -108.4833    0.2370432   -108.24625    -7649.314    4.3475193    4.3475193    4.3475193    -7649.314   -15398.404    1170.8328   -8720.3704    997.91898   -1004.6803   -91.801212    82.172133 
    3600    271.22332   -108.49037   0.24540856   -108.24496    11544.818    4.3331038    4.3331038    4.3331038    11544.818   -1899.9157    2384.3378    34150.031    628.21874   -3.0971968    496.72541     81.35744 
    3700    349.00142   -108.56175   0.31578382   -108.24597   -6977.6952    4.3456645    4.3456645    4.3456645   -6977.6952   -14719.535    902.07561   -7115.6262   -2197.7803   -3478.3447    1911.1343    82.067004 
    3800    289.66476   -108.50907   0.26209476   -108.24698    5910.4119    4.3381568    4.3381568    4.3381568    5910.4119   -11272.966    5612.7839    23391.417   -91.147691    1404.4748    328.73113    81.642394 
    3900    279.64722   -108.50187   0.25303068   -108.24884    667.98343    4.3378038    4.3378038    4.3378038    667.98343   -10603.831    8320.8129    4286.9688    54.577269   -1640.1455    2389.6363    81.622466 
    4000    404.47956   -108.61692   0.36598161   -108.25093   -14450.405    4.3441689    4.3441689    4.3441689   -14450.405   -16184.345   -13137.561   -14029.307    1313.9996   -174.98415    1061.4101    81.982301 
    4100    159.72373   -108.39739   0.14452139   -108.25287    13896.242    4.3340674    4.3340674    4.3340674    13896.242   -3398.4829    6649.5303    38437.678    1034.9055    980.95419    -3417.262    81.411731 
    4200     396.4993   -108.61095    0.3587609   -108.25219   -12436.645    4.3464464    4.3464464    4.3464464   -12436.645   -16923.052   -8790.5855   -11596.297     -980.192   -63.500869    1508.4995    82.111313 
    4300    299.79562   -108.52265   0.27126137   -108.25139    7804.9442     4.334886     4.334886     4.334886    7804.9442   -4353.6874    8533.2354    19235.285   -238.19733   -872.03421   -3555.2606    81.457867 
    4400    263.10947   -108.48857   0.23806698   -108.25051   -1353.7729     4.341599     4.341599     4.341599   -1353.7729   -11993.872    479.22003    7453.3334    731.05654   -594.66869    4126.5352    81.836892 
    4500    340.22747   -108.55757   0.30784497   -108.24972   -9036.8829    4.3448147    4.3448147    4.3448147   -9036.8829    -13429.67   -11113.057   -2567.9215    1256.2649   -2493.6476   -1200.6003    82.018867 
    4600    281.08952   -108.50232   0.25433571   -108.24798    12474.209    4.3305054    4.3305054    4.3305054    12474.209   -2031.4583    6708.5601    32745.524    2575.0927    -673.4152    3109.7361    81.211168 
    4700    267.36818   -108.48987   0.24192035   -108.24795    -12383.04    4.3542633    4.3542633    4.3542633    -12383.04   -21888.147   -12085.342   -3175.6317   -21.102113   -2394.7324    1788.6795    82.555127 
    4800    375.72871   -108.58572   0.33996723   -108.24576     8803.092    4.3279623    4.3279623    4.3279623     8803.092    160.20141    14561.751    11687.324   -158.95311    2726.0173    1699.9907    81.068178 
    4900    212.40611   -108.43955   0.19218951   -108.24736   -6672.5523    4.3488466    4.3488466    4.3488466   -6672.5523   -13811.056   -13038.992    6832.3905    300.93924   -760.20605   -1696.6966    82.247416 
    5000    345.54045   -108.55959   0.31265226   -108.24694    -2390.796    4.3396862    4.3396862    4.3396862    -2390.796   -9790.4398   -2989.2746    5607.3263    631.19857    1806.4476    1462.4427    81.728776 
    5100     304.9291   -108.52401   0.27590626    -108.2481    5346.4955    4.3348045    4.3348045    4.3348045    5346.4955   -1976.0252   -2785.5554    20801.067    1367.3337   -380.89232     1963.484    81.453274 
    5200    221.73057   -108.45099   0.20062648   -108.25037   -4708.7483    4.3507008    4.3507008    4.3507008   -4708.7483    -20792.97   -1968.0253    8634.7505    298.48672    755.07898    1351.9822    82.352662 
    5300    406.11536   -108.61501   0.36746171   -108.24754    8336.1422    4.3275803    4.3275803    4.3275803    8336.1422    1461.0172    13005.717    10541.693   -1653.6445   -4060.5547    3147.1061     81.04671 
    5400    240.15629   -108.46611   0.21729846   -108.24881   -10652.267    4.3520681    4.3520681    4.3520681   -10652.267   -20406.441   -12581.606    1031.2454    432.84306   -902.48401   -1393.9127    82.430333 
    5500    296.39754   -108.51534   0.26818672   -108.24715    9201.2735    4.3330244    4.3330244    4.3330244    9201.2735   -1887.1038    4357.8957    25133.029    637.48155   -2837.1981    546.87965    81.352966 
    5600    342.38657   -108.55779   0.30979856   -108.24799   -5328.1822    4.3426188    4.3426188    4.3426188   -5328.1822   -13864.633   -767.01713   -1352.8964    919.41569    1089.2529    374.87568    81.894572 
    5700     213.4689   -108.44296   0.19315115   -108.24981    1387.2826    4.3439033    4.3439033    4.3439033    1387.2826   -11452.019   -1418.7236     17032.59    2374.1282   -356.58047   -2506.6455    81.967265 
    5800    364.67458   -108.57827   0.32996523   -108.24831    6467.1119    4.3331927    4.3331927    4.3331927    6467.1119   -4431.6503    13482.775    10350.211   -1524.2034    1663.0697   -149.11714     81.36245 
    5900    335.55427   -108.55261   0.30361656   -108.24899   -14515.242    4.3496754    4.3496754    4.3496754   -14515.242   -17942.886   -16367.796   -9235.0425    1940.5805   -168.70702    2685.0516     82.29445 
    6000    202.99571   -108.43211   0.18367478   -108.24844    15588.897    4.3327554    4.3327554    4.3327554    15588.897    1606.1308    5416.4845    39744.077    155.56979     -561.163   -255.06171    81.337816 
    6100    396.38704   -108.60655   0.35865932   -108.24789   -9748.4765    4.3445685    4.3445685    4.3445685   -9748.4765   -17318.542   -1193.2177    -10733.67    921.01451   -1535.7283    2463.4404    82.004925 
    6200    184.18511   -108.41686   0.16665456    -108.2502    4783.2618     4.341077     4.341077     4.341077    4783.2618   -3712.2787   -3958.5567    22020.621    2226.1805    311.85523    3346.0237    81.807379 
    6300     379.7331   -108.59134   0.34359049   -108.24774    2364.4263    4.3360891    4.3360891    4.3360891    2364.4263   -9236.2701    9514.8823    6814.6666   -1166.0967    -2522.914   -887.80631    81.525712 
    6400    337.67737   -108.55377   0.30553758   -108.24823   -13701.504    4.3484304    4.3484304    4.3484304   -13701.504   -14222.766   -18693.346   -8188.3998   -79.620381    900.85197    950.63068    82.223802 
    6500    203.89215   -108.43192   0.18448591   -108.24744    16109.404    4.3335507    4.3335507    4.3335507    16109.404   -765.96761    8843.4885    40250.692   -893.40782   -289.14805   -160.05946    81.382617 
    6600    392.27948   -108.60159   0.35494271   -108.24665   -10036.836    4.3454638    4.3454638    4.3454638   -10036.836   -16774.965   -4740.9311   -8594.6112    874.99768    1055.1483   -4137.4988    82.055634 
    6700    188.77058   -108.41969   0.17080359   -108.24888    5011.7052    4.3402777    4.3402777    4.3402777    5011.7052   -6002.3442    5023.2703    16014.189    713.23295   -781.65867    1963.4531      81.7622 
    6800    353.65877    -108.5673   0.31999789   -108.24731   -19.226373    4.3381893    4.3381893    4.3381893   -19.226373   -9917.1183   -2502.5073    12361.946     1141.655    801.82962    2228.3439    81.644232 
    6900    391.95705   -108.60305   0.35465098    -108.2484    -11069.76    4.3438488    4.3438488    4.3438488    -11069.76   -14084.112    -8335.751   -10789.418   -914.36259   -1890.6937   -156.81763    81.964182 
    7000    199.74124   -108.43161   0.18073007   -108.25088    9854.1518    4.3371004    4.3371004    4.3371004    9854.1518   -1738.1716   -3045.3229     34345.95    1389.1468   -22.313559    3670.1071    81.582768 
    7100    303.52365   -108.52708   0.27463458   -108.25245   -649.27946    4.3424022    4.3424022    4.3424022   -649.27946   -15021.073    5793.5613    7279.6734    1112.0717   -894.94864   -546.75661    81.882318 
    7200    356.97344   -108.57585   0.32299707   -108.25285   -1952.8997    4.3397777    4.3397777    4.3397777   -1952.8997   -5519.3102   -2713.1154    2373.7265    651.40446    3.8108798   -1393.0901    81.733942 
    7300    232.71268   -108.46346   0.21056332    -108.2529    4373.6095    4.3396401    4.3396401    4.3396401    4373.6095   -12107.767   -290.67087    25519.266    2486.2755   -590.81633    674.96254    81.726171 
    7400    335.42835   -108.55664   0.30350262   -108.25314   -3556.5426     4.343068     4.343068     4.343068   -3556.5426   -12026.953   -7723.3708    9080.6964   -2499.3002   -48.312387   -688.20769    81.919991 
    7500    355.04477   -108.57383   0.32125197   -108.25257   -191.91311    4.3362019    4.3362019    4.3362019   -191.91311   -6990.5029   -1678.6118    8093.3754    754.64008    1087.6616    1907.2769    81.532074 
    7600    153.37928   -108.39145    0.1387808   -108.25267    222.19274    4.3487503    4.3487503    4.3487503    222.19274   -18901.088    6049.6753    13517.991   -1046.5643   -2513.9638     1736.756    82.241955 
    7700    421.31819    -108.6295   0.38121755   -108.24828    5764.8321    4.3307307    4.3307307    4.3307307    5764.8321   -194.21185    8810.0723    8678.6359    368.96309   -1900.0089   -416.33603    81.223843 
    7800    260.71247   -108.48398   0.23589812   -108.24809   -10940.384    4.3526589    4.3526589    4.3526589   -10940.384   -21761.657   -11538.443    478.94807    1378.2192    362.71896    511.98672    82.463904 
    7900    300.62488   -108.51754   0.27201171   -108.24553    11318.927    4.3314521    4.3314521    4.3314521    11318.927    531.63922    2187.7062    31237.435   -1490.5902   -3404.5811    1095.6088    81.264439 
    8000    314.84139   -108.53032   0.28487511   -108.24545   -8173.7699    4.3481113    4.3481113    4.3481113   -8173.7699   -17368.294   -6675.0116   -478.00412    1098.3616    1132.1928   -15.616585    82.205704 
    8100    201.35697   -108.42839   0.18219201    -108.2462     7237.676    4.3384547    4.3384547    4.3384547     7237.676   -8383.1532    8532.0137    21564.168   -1174.9138   -789.23121    207.58557    81.659216 
    8200    414.74693   -108.62049   0.37527174   -108.24521   -1812.5635    4.3403366    4.3403366    4.3403366   -1812.5635   -12698.623    3347.0913    3913.8416    2233.8139    1424.9492   -683.21576    81.765526 
    8300    294.39742   -108.51375   0.26637697   -108.24737   -6949.4854    4.3452124    4.3452124    4.3452124   -6949.4854   -13400.284   -12450.602    5002.4304    1213.7521   -716.05986    536.49034    82.041394 
    8400    231.91021   -108.45844   0.20983723   -108.24861    8304.1034    4.3359803    4.3359803    4.3359803    8304.1034   -5857.5876    439.02111    30330.877    1604.5305    2106.2783    3415.4052    81.519574 
    8500    387.29046   -108.59987   0.35042855   -108.24944   -9560.5629    4.3456146    4.3456146    4.3456146   -9560.5629   -14267.191   -7230.5016   -7183.9958   -1047.8382   -3089.5549   -1067.3661    82.064179 
    8600    234.49553   -108.46486   0.21217648   -108.25268    5631.8309    4.3366379    4.3366379    4.3366379    5631.8309   -8865.7907    5132.8718    20628.412    641.42324   -1140.8706    2328.9326    81.556672 
    8700    272.88114   -108.50136   0.24690859   -108.25445    863.13469    4.3414137    4.3414137    4.3414137    863.13469   -10657.363   -4533.3977    17780.165    556.51935   -1957.3607     916.5244    81.826416 
    8800    429.11578   -108.64242   0.38827297   -108.25415   -11725.308    4.3428696    4.3428696    4.3428696   -11725.308   -16996.054   -10680.176   -7499.6933    264.43872    1527.5356   -1678.1959    81.908766 
    8900    183.98863    -108.4201   0.16647678   -108.25362    10118.314    4.3351318    4.3351318    4.3351318    10118.314   -3924.5091    1097.1568    33182.296    3053.0547    591.96016    1320.1916    81.471725 
    9000    286.15542   -108.51105   0.25891943   -108.25213   -6909.5925     4.347364     4.347364     4.347364   -6909.5925    -18415.87   -3175.5085    862.60098   -3641.1263   -166.31209   -3858.3477    82.163324 
    9100    381.80456   -108.59593   0.34546479   -108.25047    1861.7944    4.3353521    4.3353521    4.3353521    1861.7944   -6789.3503    6094.9174    6279.8161     1589.002    1186.4207    2011.9337    81.484146 
    9200    248.63758   -108.47484   0.22497251   -108.24987    213.93931    4.3426389    4.3426389    4.3426389    213.93931    -9150.598   -7891.2115    17683.627   -1447.8046   -617.23118    4071.8191    81.895711 
    9300    336.92882   -108.55313   0.30486027   -108.24827   -6582.1223    4.3459838    4.3459838    4.3459838   -6582.1223   -16700.224   -4704.1587    1658.0158    988.53095   -966.61924   -345.94691    82.085097 
    9400    291.37961   -108.50959   0.26364639   -108.24594    10512.098    4.3316997    4.3316997    4.3316997    10512.098   -1567.5406    4557.6224    28546.213    2636.2931   -541.10396   -413.11591    81.278377 
    9500    192.10706   -108.42106   0.17382251   -108.24723   -7700.8219    4.3525157    4.3525157    4.3525157   -7700.8219   -21155.205    501.97996   -2449.2412    -1635.595   -2769.1077    2144.7497    82.455767 
    9600    460.49827   -108.66168   0.41666851   -108.24501    2159.8532    4.3315733    4.3315733    4.3315733    2159.8532   -6461.0048     4756.286    8184.2785    703.17781   -386.63188   -2518.4296     81.27126 
    9700    186.64808   -108.41628   0.16888311    -108.2474   -1332.9211    4.3476192    4.3476192    4.3476192   -1332.9211   -10517.582   -6989.2005    13508.019   -1634.4693    17.746453    1865.3866    82.177799 
    9800    382.51671    -108.5928   0.34610916   -108.24669   -2929.4388    4.3391631    4.3391631    4.3391631   -2929.4388   -11035.781   -2015.6666    4263.1314    987.98061   -669.40643   -254.56603    81.699222 
    9900    256.11372    -108.4797   0.23173708   -108.24796    6023.6201    4.3394766    4.3394766    4.3394766    6023.6201   -6552.5156    8511.0742    16112.302    1808.8422    1155.1985     2183.436    81.716931 
   10000    207.79226   -108.43758    0.1880148   -108.24957   -865.89725     4.344669     4.344669     4.344669   -865.89725   -16305.415    217.23713    13490.486    150.84896    94.751932     942.9537    82.010616 
   10100     449.0587   -108.65554   0.40631775   -108.24922   -2141.6835    4.3363559    4.3363559    4.3363559   -2141.6835   -11286.729    1859.5312    3002.1475   -1709.5379   -217.26295    1170.4996    81.540763 
   10200     276.6338   -108.50209   0.25030408   -108.25179   -4313.3478    4.3453152    4.3453152    4.3453152   -4313.3478   -17124.984   -9647.2873    13832.228   -607.33696   -767.63838   -1534.8258    82.047215 
   10300    221.46956     -108.454   0.20039031   -108.25361     7548.854    4.3368573    4.3368573    4.3368573     7548.854   -5871.8693     -1222.79    29741.221   -324.21501   -2112.4755    3357.7403    81.569048 
   10400    326.65644   -108.54831   0.29556562   -108.25275   -3271.8872     4.342469     4.342469     4.342469   -3271.8872   -13170.769    7912.2711   -4557.1634   -647.98284   -1026.9827   -874.06011    81.886101 
   10500    264.08475   -108.49085   0.23894943    -108.2519   -1350.0594    4.3424901    4.3424901    4.3424901   -1350.0594   -9375.4535    -5165.907    10491.182    2385.5846    1894.4449    2080.7743    81.887295 
   10600    311.79232   -108.53132   0.28211625    -108.2492    3860.8015    4.3371125    4.3371125    4.3371125    3860.8015   -8122.9151    2901.2865    16804.033   -3189.8111   -994.32514   -1485.8317    81.583451 
   10700    394.60725   -108.60535   0.35704893    -108.2483   -13670.257    4.3463636    4.3463636    4.3463636   -13670.257   -18450.542   -17048.297   -5511.9331    745.85577    2327.2663    2356.3364     82.10662 
   10800     179.6162   -108.41209   0.16252051   -108.24957    11286.133    4.3365687    4.3365687    4.3365687    11286.133   -4885.2772    4543.0529    34200.622   -1072.7709   -835.19664    475.95747    81.552768 
   10900    351.19703    -108.5661   0.31777045   -108.24833   -8010.4847    4.3441848    4.3441848    4.3441848   -8010.4847   -18940.193    2830.7819   -7922.0431    1748.9836   -394.86477    2484.0188    81.983203 
   11000    270.64728    -108.4928   0.24488735   -108.24791    316.69359    4.3420367    4.3420367    4.3420367    316.69359   -7560.7232   -1309.4536    9820.2576    2749.9751   -1505.2169    2176.8565    81.861645 
   11100    330.50475   -108.54569   0.29904764   -108.24664   -121.13428    4.3380967    4.3380967    4.3380967   -121.13428     -8588.39   -2320.4087    10545.396   -675.54812   -2145.2022    424.85726    81.639002 
   11200    339.04308   -108.55362    0.3067733   -108.24684   -9697.9269    4.3455403    4.3455403    4.3455403   -9697.9269    -14516.28   -5820.8869   -8756.6139    487.03769    51.466985   -1539.2941     82.05997 
   11300    216.00273   -108.44364   0.19544381    -108.2482    10653.538    4.3365059    4.3365059    4.3365059    10653.538   -7456.2217    3218.9428    36197.893   -1799.0209   -105.17229    2915.6471    81.549223 
   11400     312.6194   -108.53235    0.2828646   -108.24948   -5373.4243    4.3437604    4.3437604    4.3437604   -5373.4243   -15408.782    8467.7373   -9179.2286    429.75751   -475.99502   -3492.6779    81.959174 
   11500    376.42617   -108.58938   0.34059831   -108.24879   -2601.9145    4.3409987    4.3409987    4.3409987   -2601.9145   -13130.195   -8578.0332    13902.484    89.987137    980.72201    1686.7647     81.80295 
   11600    231.65194   -108.45872   0.20960354   -108.24912    6923.0732    4.3383648    4.3383648    4.3383648    6923.0732   -1635.6587    6433.8581     15971.02    393.97359    206.47523   -254.99779    81.654141 
   11700    397.40855   -108.60777   0.35958361   -108.24819   -12268.419     4.345892     4.345892     4.345892   -12268.419   -17555.192   -10674.296   -8575.7701   -2889.2902   -36.874605    1609.2937    82.079894 
   11800    152.96494   -108.38792   0.13840589   -108.24951    18925.757    4.3353131    4.3353131    4.3353131    18925.757    2971.0628    13489.313    40316.896   -278.32847    987.57565   -353.71914    81.481951 
   11900    363.63291   -108.57993    0.3290227   -108.25091   -10348.579    4.3450764    4.3450764    4.3450764   -10348.579   -16722.941   -2839.0588   -11483.737   -2135.9365   -2178.4153    2497.8392    82.033691 
   12000    351.65196   -108.56896   0.31818208   -108.25078   -1079.2216    4.3396056    4.3396056    4.3396056   -1079.2216   -9364.9427    -7252.895    13380.173    1392.8672   -1356.8162   -3591.3056    81.724221 
   12100    271.18314   -108.49437   0.24537221     -108.249     4131.668    4.3405842    4.3405842    4.3405842     4131.668   -7626.9517    5507.5333    14514.422    1557.1632    -917.0987    1999.0156    81.779522 
   12200    360.13934   -108.57325   0.32586164   -108.24739   -9395.5556    4.3437837    4.3437837    4.3437837   -9395.5556   -14844.901   -9844.5087   -3497.2568   -2601.2772   -185.85807    694.69075    81.960492 
   12300    199.31279   -108.42742    0.1803424   -108.24708    14867.238    4.3380477    4.3380477    4.3380477    14867.238    -1983.355    15136.246    31448.824   -1078.3191    715.25887    699.84594    81.636236 
   12400    366.38833   -108.57881   0.33151586   -108.24729   -7253.5196    4.3425307    4.3425307    4.3425307   -7253.5196   -10689.944   -10350.759   -719.85615   -2608.1283    1940.6621   -881.33636    81.889587 
   12500    290.03178   -108.51138   0.26242685   -108.24896   -4066.4177    4.3420507    4.3420507    4.3420507   -4066.4177   -11431.705   -9570.6286    8803.0809    -862.5355   -1486.8488    1142.2251    81.862438 
   12600    282.73351   -108.50383   0.25582322   -108.24801    4769.9359    4.3383542    4.3383542    4.3383542    4769.9359   -7360.6647   -2329.4127    23999.885    723.08638    1303.7964   -32.280698     81.65354 
   12700    342.69917    -108.5601   0.31008142   -108.25002   -11491.565    4.3456082    4.3456082    4.3456082   -11491.565   -18299.731   -4678.8693   -11496.094   -1740.0899   -906.09402    3819.5549    82.063815 
   12800    309.97147   -108.53198    0.2804687   -108.25151    5980.8368    4.3353312    4.3353312    4.3353312    5980.8368   -6665.2246    5003.6925    19604.042   -1769.8662   -2675.2391   -3336.1661    81.482968 
   12900     202.5298   -108.43626   0.18325322   -108.25301   -2817.0539    4.3477471    4.3477471    4.3477471   -2817.0539   -14175.524   -8168.8057    13893.168   -1235.0655    841.16943    1319.8572    82.185048 
   13000    415.84439   -108.62782   0.37626474   -108.25156   -3362.1005    4.3327603    4.3327603    4.3327603   -3362.1005   -3658.3262    -8646.829    2218.8536   -2288.8314   -2064.9027    1042.8301    81.338096 
   13100    228.45723   -108.45894    0.2067129   -108.25223   -2470.5724    4.3494896    4.3494896    4.3494896   -2470.5724   -18121.454   -5331.0562    16040.792    2779.2195    1382.6993     3346.518    82.283903 
   13200    295.57196   -108.51822   0.26743972   -108.25078    10764.119     4.331694     4.331694     4.331694    10764.119   -1800.7948    8707.2826    25385.871   -342.45184    645.22358    -1761.369    81.278055 
   13300    322.20256     -108.542   0.29153565   -108.25046   -10492.992    4.3489159    4.3489159    4.3489159   -10492.992   -22730.367   -4171.3399   -4577.2677     -1317.03     5.788332    1530.3699     82.25135 
   13400    305.32705   -108.52465   0.27626633   -108.24838    5624.6072    4.3357494    4.3357494    4.3357494    5624.6072   -4097.8357    622.30253    20349.355   -126.13262   -1315.7973   -3716.0336    81.506552 
   13500    303.81215   -108.52315   0.27489562   -108.24825   -5393.6193    4.3439734    4.3439734    4.3439734   -5393.6193   -12707.031   -7812.6624     4338.836   -1548.3115   -1118.0714   -54.721887    81.971232 
   13600     345.4801   -108.55959   0.31259766     -108.247   -4448.1823    4.3411058    4.3411058    4.3411058   -4448.1823   -11540.838   -1656.9926   -146.71606    1927.2672   -1771.4998   -192.51098    81.809003 
   13700    191.93493   -108.42084   0.17366676   -108.24718    12916.946     4.338744     4.338744     4.338744    12916.946    -2679.523    12579.843    28850.517    1697.9987   -1464.5142   -467.29181    81.675554 
   13800    369.10599   -108.58143   0.33397485   -108.24745   -11850.278    4.3450712    4.3450712    4.3450712   -11850.278   -18851.723   -6306.1489   -10392.963   -83.149821    151.32532    1684.7225    82.033396 
   13900    255.25132   -108.47929   0.23095676   -108.24833    7128.3547    4.3366117    4.3366117    4.3366117    7128.3547   -6216.5831    3781.5698    23820.077   -1319.2687    -853.3414    2155.3884    81.555194 
   14000    374.21846   -108.58758   0.33860073   -108.24898    -8842.034    4.3451709    4.3451709    4.3451709    -8842.034   -18432.214   -4487.2729    -3606.615   -866.58415    1562.0368    571.06652    82.039043 
   14100    294.55351   -108.51598   0.26651821   -108.24946   -2676.1552    4.3381054    4.3381054    4.3381054   -2676.1552   -11345.331    1050.0067     2266.859   -767.63595   -1703.2487   -80.168314    81.639491 
   14200    212.44625   -108.44133   0.19222583    -108.2491    7881.8363    4.3425619    4.3425619    4.3425619    7881.8363   -8023.1142    7218.7414    24449.882    1146.9125     1995.343   -1707.9494    81.891352 
   14300    367.66712   -108.58065   0.33267293   -108.24797    -7112.068    4.3402841    4.3402841    4.3402841    -7112.068   -9427.7957   -11037.249   -871.15929   -459.76279   -2139.9273   -2350.9046     81.76256 
   14400    231.58518   -108.45779   0.20954314   -108.24824    2160.8435    4.3433434    4.3433434    4.3433434    2160.8435   -10039.075   -334.75306    16856.359   -2295.4491   -1428.7531    1142.4376    81.935573 
   14500    393.60663   -108.60144   0.35614355    -108.2453    1072.7297    4.3374163    4.3374163    4.3374163    1072.7297   -7534.7132   -495.05271    11247.955   -617.06867   -1704.9197   -2118.4778    81.600596 
   14600    264.39475   -108.48576   0.23922993   -108.24653   -9109.6452    4.3466496    4.3466496    4.3466496   -9109.6452   -19700.548   -611.10624   -7017.2809   -2975.7337   -1380.5788    1708.2112    82.122828 
   14700    225.94325   -108.45053    0.2044382   -108.24609    12311.819    4.3360105    4.3360105    4.3360105    12311.819   -5635.1579    3988.2657    38582.348     2265.768   -171.77327    1313.6352    81.521277 
   14800    396.69241   -108.60651   0.35893563   -108.24757   -10959.534    4.3453799    4.3453799    4.3453799   -10959.534   -14374.661   -15710.689   -2793.2511    89.728681    671.86567    209.25749    82.050884 
   14900    285.23967   -108.50846   0.25809085   -108.25037    3270.9255    4.3387475    4.3387475    4.3387475    3270.9255   -8577.9282   -1684.6892    20075.394   -1670.5424    729.35808    1448.3906     81.67575 
   15000    284.49554   -108.50874   0.25741754   -108.25133    3977.3055    4.3405246    4.3405246    4.3405246    3977.3055    -6298.807   -3371.9158    21602.639    265.85469   -1323.9638   -2510.3891    81.776154 
   15100    331.82097   -108.55341   0.30023859   -108.25317   -6921.1344    4.3436145    4.3436145    4.3436145   -6921.1344   -16986.707    1710.0326   -5486.7284   -3685.6081     641.8645    -617.0182    81.950915 
   15200    259.36095   -108.48771   0.23467524   -108.25303    7851.3108    4.3353502    4.3353502    4.3353502    7851.3108   -4585.2539    314.65307    27824.533    1319.8454   -2993.2045    2945.8421     81.48404 
   15300    288.74474   -108.51273   0.26126231   -108.25147   -9935.1539    4.3503843    4.3503843    4.3503843   -9935.1539    -20404.85   -12452.963    3052.3515   -1166.4149    346.42053    -2712.223    82.334695 
   15400     384.4877   -108.59629   0.34789255    -108.2484     3711.908    4.3305272    4.3305272    4.3305272     3711.908    56.063894   -1816.0729    12895.733   -766.38831   -2232.9441   -945.87622    81.212393 
   15500    251.74935   -108.47502   0.22778811   -108.24723   -8022.7344    4.3526766    4.3526766    4.3526766   -8022.7344   -19802.938   -6622.2145    2356.9492   -1911.6179    370.07826    740.60591    82.464914 
   15600    269.35094    -108.4883   0.24371439   -108.24458    10002.719    4.3333009    4.3333009    4.3333009    10002.719    2328.4821    6832.6217    20847.054   -3621.8369    1191.4417   -2612.4189    81.368544 
   15700    289.58737   -108.50641   0.26202474   -108.24438    -4201.377    4.3459778    4.3459778    4.3459778    -4201.377   -17058.823   -1072.0174    5526.7091   -1788.1026   -918.47305    1853.1148    82.084755 
   15800    240.74909   -108.46288   0.21783483   -108.24504    3609.2172    4.3411676    4.3411676    4.3411676    3609.2172   -4736.0134   -5837.8804    21401.545    19.377674    1251.1836   -672.87123      81.8125 
   15900    471.38328   -108.67273    0.4265175   -108.24621   -7476.5127    4.3392657    4.3392657    4.3392657   -7476.5127   -15291.039   -9097.5999    1959.1007    1268.5797   -1228.3082   -315.62534     81.70502 
   16000    201.31865    -108.4317   0.18215735   -108.24954     177.0861    4.3447378    4.3447378    4.3447378     177.0861   -9975.4591   -2282.1321    12788.849   -476.96576   -2706.3173   -748.97479    82.014516 
   16100     286.4309   -108.50833    0.2591687   -108.24916    5438.7105    4.3379992    4.3379992    4.3379992    5438.7105   -8991.6261    978.99888    24328.759    39.617808     1527.131    3242.7258    81.633497 
   16200    312.85532   -108.53424   0.28307807   -108.25117   -4669.6221    4.3417077    4.3417077    4.3417077   -4669.6221   -11051.438    2578.5325   -5535.9603   -3001.6388   -2761.7982   -1982.3733    81.843038 
   16300    273.19256   -108.50004   0.24719037   -108.25285    -427.0546    4.3414681    4.3414681    4.3414681    -427.0546   -10931.394   -7690.4284    17340.659    1749.9213   -855.82992    2165.0856    81.829491 
   16400    344.73522    -108.5634   0.31192367   -108.25148   -882.46444    4.3399152    4.3399152    4.3399152   -882.46444   -10225.921    -3368.699    10947.226    -267.0516    566.88483    158.39434    81.741714 
   16500    341.73051   -108.55933   0.30920495   -108.25013   -10062.864    4.3437204    4.3437204    4.3437204   -10062.864   -15582.396   -9233.4951   -5372.6998   -136.68764    714.19044   -921.45521    81.956913 
   16600    204.53613   -108.43389   0.18506859   -108.24882    9748.0883    4.3398487    4.3398487    4.3398487    9748.0883   -5824.9443     4548.791    30520.418   -517.65265   -320.60214    497.01433    81.737956 
   16700     333.7901   -108.54965   0.30202029   -108.24763   -3708.1667    4.3415147    4.3415147    4.3415147   -3708.1667   -10820.699    281.16166   -584.96295    -4319.158     200.9169   -3824.5776    81.832125 
   16800    280.35963    -108.5016   0.25367529   -108.24793   -1724.7384     4.344022     4.344022     4.344022   -1724.7384   -7330.4702   -9390.9048     11547.16    49.125415   -4299.3696   -1203.9375    81.973982 
   16900    330.17824   -108.54493   0.29875221   -108.24618    5422.8229    4.3370257    4.3370257    4.3370257    5422.8229   -3147.4524    1269.7213      18146.2   -359.88276   -927.39095    1177.5884    81.578552 
   17000     357.3969   -108.56945   0.32338023   -108.24607   -13835.667    4.3475458    4.3475458    4.3475458   -13835.667   -16637.733   -17205.485   -7663.7816    788.59027   -1747.6059     -375.389    82.173634 
   17100    127.54483   -108.36211   0.11540524    -108.2467    16694.357    4.3365221    4.3365221    4.3365221    16694.357   -829.17687    9209.2911    41702.958    1067.2605   -2273.5589   -581.15511    81.550134 
   17200    451.52348   -108.65515   0.40854793    -108.2466   -9925.3893    4.3436827    4.3436827    4.3436827   -9925.3893   -16331.383   -5933.7291   -7511.0561   -1542.4183    497.64152     2577.365    81.954777 
   17300    215.69371   -108.44491    0.1951642   -108.24975    3333.0213    4.3424645    4.3424645    4.3424645    3333.0213   -4450.3495   -4749.6256    19199.039   -780.63865     94.71344   -1045.1767    81.885843 
   17400    371.50493   -108.58505   0.33614547   -108.24891   -275.86491    4.3380057    4.3380057    4.3380057   -275.86491   -8106.4337   -2427.2221     9706.061    1454.2833    1725.2216    573.66263    81.633864 
   17500     321.7492   -108.54023   0.29112544    -108.2491   -7727.3237    4.3457409    4.3457409    4.3457409   -7727.3237   -10446.789   -9440.4777   -3294.7043   -160.42834    1491.6458   -3564.3832    82.071336 
   17600    175.62178    -108.4073   0.15890628    -108.2484    9590.8491    4.3376138    4.3376138    4.3376138    9590.8491    -6804.561    9609.4059    25967.702    1463.9732   -2099.3385   -2082.4033    81.611741 
   17700    410.78775   -108.61789   0.37168939    -108.2462   -7075.1558    4.3439745    4.3439745    4.3439745   -7075.1558    -13609.07   -1275.8543   -6340.5431   -2081.0553   -689.00387    17.665993    81.971298 
   17800    254.59782   -108.47729   0.23036545   -108.24692    1285.4621    4.3415779    4.3415779    4.3415779    1285.4621   -7755.9152   -6319.3327    17931.634   -2026.4972    -1269.813    557.68975    81.835696 
   17900    326.64331   -108.54228   0.29555373   -108.24672   -1120.9482     4.339658     4.339658     4.339658   -1120.9482   -6653.6728    1451.7633     1839.065   -305.99361   -4209.1011   -1700.0244    81.727179 
   18000    337.19113   -108.55126   0.30509762   -108.24616   -5075.4489     4.344055     4.344055     4.344055   -5075.4489   -9349.5029   -4756.1646   -1120.6793    619.34051    555.81409    1482.0809    81.975855 
   18100    152.51984   -108.38533   0.13800316   -108.24733    10437.219    4.3396152    4.3396152    4.3396152    10437.219   -5440.2606    12900.354    23851.562    70.299492   -3968.7709     711.4048    81.724762 
   18200    430.06717   -108.63514   0.38913382     -108.246   -4639.9533    4.3419577    4.3419577    4.3419577   -4639.9533   -12807.436    99.227913    -1211.652    641.53118    315.30448      143.012    81.857177 
   18300    267.99789   -108.49028   0.24249012   -108.24779    2365.6531    4.3418325    4.3418325    4.3418325    2365.6531   -6360.9186   -6576.5953    20034.473   -1632.0257    258.05376   -299.46232    81.850095 
   18400    317.48193   -108.53568   0.28726432   -108.24841   -107.74252    4.3398772    4.3398772    4.3398772   -107.74252   -9093.8643   -2447.8506    11218.487   -175.40739    122.73692    -1718.526    81.739566 
   18500    364.01352   -108.57787   0.32936708    -108.2485   -3819.6756    4.3433596    4.3433596    4.3433596   -3819.6756   -8137.3096    -194.6729   -3127.0441    1327.8664   -761.27005    1718.1841    81.936491 
   18600    153.29193   -108.38981   0.13870176    -108.2511     14302.39    4.3386487    4.3386487    4.3386487     14302.39   -4844.6002    10941.167    36810.604    511.75663   -1661.4185     1267.539    81.670169 
   18700     345.7945   -108.56676   0.31288213   -108.25388   -5447.3673    4.3421058    4.3421058    4.3421058   -5447.3673   -10429.377   -4742.0533   -1170.6714    2044.6912   -1469.4997   -3809.5098    81.865555 
   18800    382.82677   -108.60089   0.34638971    -108.2545   -3041.3367    4.3402355    4.3402355    4.3402355   -3041.3367   -5104.4534   -8757.6395    4738.0828   -2039.2533    478.91621   -101.26301    81.759812 
   18900    242.73753   -108.47332   0.21963402   -108.25369   -4519.1072    4.3426779    4.3426779    4.3426779   -4519.1072   -13583.663   -11256.573    11282.914   -252.51527    -1954.849   -1679.0552    81.897916 
   19000    298.38502   -108.52173   0.26998503   -108.25175    3085.7356    4.3393151    4.3393151    4.3393151    3085.7356   -2833.3624    10682.277    1408.2925    197.36408     455.8496    2042.9931    81.707808 
   19100    312.60015   -108.53239   0.28284718   -108.24954   -772.20144    4.3434279    4.3434279    4.3434279   -772.20144   -14139.754   -1475.3239    13298.474   -448.04454   -901.21768    1125.9027    81.940355 
   19200    202.66603   -108.43278   0.18337649   -108.24941    4950.7115    4.3392782    4.3392782    4.3392782    4950.7115   -1874.0693    4063.8419    12662.362    353.27726    -531.2502   -4567.9052    81.705727 
   19300     438.4613   -108.64244     0.396729   -108.24571   -7872.0049    4.3423149    4.3423149    4.3423149   -7872.0049   -11008.898    -15256.61     2649.494   -1617.9845   -147.56176    1143.3114    81.877383 
   19400    190.07622   -108.41829   0.17198496   -108.24631    1848.4205    4.3428179    4.3428179    4.3428179    1848.4205    -7940.091    626.63171    12858.721   -2059.8952   -385.64595    -656.0971    81.905837 
   19500    377.73515   -108.58723    0.3417827   -108.24545   -2377.2487    4.3392632    4.3392632    4.3392632   -2377.2487   -9215.4757    4635.3473   -2551.6175   -446.67393   -4475.5393   -2026.2218    81.704876 
   19600    228.15578   -108.45288   0.20644015   -108.24644    3976.3799    4.3448515    4.3448515    4.3448515    3976.3799   -10247.411    2346.1002    19830.451    535.65217    1644.2671    -2275.042    82.020951 
   19700    327.26842   -108.54197   0.29611934   -108.24585    2003.6425    4.3374452    4.3374452    4.3374452    2003.6425   -6245.3896    1162.5448    11093.772    17.896177   -2675.8724   -1663.8113    81.602226 
   19800    353.93476   -108.56652   0.32024761   -108.24628    -7303.443    4.3454229    4.3454229    4.3454229    -7303.443   -9946.2885   -9890.4261   -2073.6144    203.45002    320.58375    178.47509    82.053317 
   19900    219.35283   -108.44576   0.19847505   -108.24728    7515.8327    4.3373267    4.3373267    4.3373267    7515.8327   -7227.2153    10277.406    19497.307   -1936.1582   -1041.9137   -338.11455    81.595537 
   20000    341.92949   -108.55795   0.30938498   -108.24857   -9372.1543    4.3452724    4.3452724    4.3452724   -9372.1543   -13403.937   -2532.1894   -12180.336   -22.042594    588.85925   -3934.6356    82.044792 
   20100    249.76486   -108.47417   0.22599249   -108.24818    7612.2307    4.3367338    4.3367338    4.3367338    7612.2307   -6334.2728      5450.14    23720.825    1466.7526   -272.78954    2394.3794    81.562082 
   20200    362.47934    -108.5759   0.32797892   -108.24793   -9071.5251    4.3480117    4.3480117    4.3480117   -9071.5251   -16338.415   -7914.3504   -2961.8101   -224.94928     1145.899    901.22395    82.200058 
   20300    316.70564   -108.53415   0.28656192   -108.24759    5139.3953    4.3338496    4.3338496    4.3338496    5139.3953    -619.2737    6774.8842    9262.5755    830.05977    -3390.518   -1037.7737    81.399455 
   20400    178.78469   -108.41111   0.16176814   -108.24934    -927.2507    4.3489939    4.3489939    4.3489939    -927.2507   -18454.326    1657.1817    14015.392   -3303.1574   -171.46873   -3233.5036    82.255777 
   20500    367.46308   -108.58217   0.33248831   -108.24969    7583.4172    4.3317263    4.3317263    4.3317263    7583.4172    1481.2002    14959.311    6309.7399    67.687185   -4153.2274   -3527.1537    81.279873 
   20600    292.58244   -108.51624   0.26473474   -108.25151   -11088.682    4.3502605    4.3502605    4.3502605   -11088.682   -21037.851   -17897.543    5669.3477   -718.01071    1219.8676    338.94815    82.327663 
   20700    279.21856   -108.50337   0.25264282   -108.25073     14176.75    4.3326429    4.3326429    4.3326429     14176.75    1774.7596    13629.306    27126.183    286.70531   -731.09942   -1801.9926    81.331481 
   20800    378.08515   -108.59084   0.34209939   -108.24874   -11589.738    4.3476825    4.3476825    4.3476825   -11589.738   -19270.865   -9546.6114   -5951.7387   -209.68953    127.63394    532.56369    82.181388 
   20900    123.42341   -108.36015   0.11167609   -108.24847    9402.7292    4.3370051    4.3370051    4.3370051    9402.7292   -3188.1359    15053.729    16342.594   -874.57131   -1380.2242   -5165.6894    81.577391 
   21000    440.17977    -108.6443    0.3982839   -108.24602   -6840.1499     4.342999     4.342999     4.342999   -6840.1499   -13750.431   -3764.0449   -3005.9739   -233.72888    2521.1826     2991.882    81.916083 
   21100    227.11861   -108.45349   0.20550169   -108.24799   -1054.2522    4.3406926    4.3406926    4.3406926   -1054.2522   -8204.4844   -4484.4474    9526.1753    1222.9843   -3715.9307   -2518.4932    81.785646 
   21200    345.78271   -108.55983   0.31287146   -108.24696   -2349.6459    4.3428408    4.3428408    4.3428408   -2349.6459   -14423.823   -5775.3129    13150.199    2129.3207    1976.1759   -2619.3798    81.907133 
   21300    322.41019   -108.53798   0.29172351   -108.24626     1927.856    4.3389483    4.3389483    4.3389483     1927.856   -8742.4724    13506.565    1019.4757   -1632.4116   -4645.1062   -1779.8296     81.68709 
   21400    168.40949       -108.4   0.15238045   -108.24762   -2906.8382    4.3445362    4.3445362    4.3445362   -2906.8382   -14776.767    2406.7513    3649.5014     655.7774   -891.87652   -1513.6472    82.003099 
   21500    441.15045   -108.64464    0.3991622   -108.24547   -3658.3421    4.3392439    4.3392439    4.3392439   -3658.3421   -9520.2372   -2832.1089    1377.3199   -4242.3054    -1015.683     562.4972    81.703787 
   21600    221.74374    -108.4484   0.20063839   -108.24777    434.62428    4.3415607    4.3415607    4.3415607    434.62428   -9799.1187   -5201.5171    16304.509    1718.0275   -979.10592   -2014.9317    81.834723 
   21700    311.10777   -108.53031   0.28149685   -108.24881   -3100.5207    4.3433633    4.3433633    4.3433633   -3100.5207   -14869.866   -3848.4417     9416.746    -1090.409   -578.43209   -395.23609    81.936699 
   21800    338.25536   -108.55411   0.30606056   -108.24805    7831.6389    4.3352862    4.3352862    4.3352862    7831.6389   -7313.0085    17306.392    13501.534   -988.36175    799.09467    1633.0073     81.48043 
   21900    168.74072   -108.40239   0.15268015   -108.24971    -4721.551    4.3493296    4.3493296    4.3493296    -4721.551   -18575.793   -3897.6039    8308.7433   -914.16723  -0.66217262   -799.77351    82.274825 
   22000     451.1678   -108.65413   0.40822611   -108.24591    1254.0696     4.332805     4.332805     4.332805    1254.0696   -5298.6099    2681.4964    6379.3223   -3320.9617    1161.7656   -487.84278    81.340613 
   22100    258.72643   -108.48192   0.23410111   -108.24782   -2262.8245    4.3475204    4.3475204    4.3475204   -2262.8245   -14969.808   -3394.5634    11575.898     2679.158   -58.052943   -1804.0049    82.172194 
   22200    224.89875   -108.45331   0.20349311   -108.24982    5610.7223    4.3368523    4.3368523    4.3368523    5610.7223   -7814.9542    12167.836    12479.285   -40.087063   -3605.6179    910.74485    81.568768 
   22300    387.90689   -108.59997    0.3509863   -108.24899   -3739.4682    4.3423957    4.3423957    4.3423957   -3739.4682   -13644.954     2437.864   -11.314929    1320.6786   -1339.2838    554.60138    81.881953 
   22400    190.16865    -108.4226   0.17206859   -108.25053   -372.73296     4.343281     4.343281     4.343281   -372.73296   -13608.854    1231.3809    11259.274   -90.831065   -2148.8156     31.54807    81.932045 
   22500    414.08764   -108.62362    0.3746752   -108.24895   -3652.1157    4.3372786    4.3372786    4.3372786   -3652.1157   -10134.015   -2566.4562    1744.1237   -1510.7182   -431.44923   -1505.4227     81.59282 
   22600    287.84761    -108.5094   0.26045057   -108.24895   -393.01291    4.3454288    4.3454288    4.3454288   -393.01291   -15188.951    5933.2302    8076.6822    462.70576    1834.2462   -1339.3586    82.053654 
   22700    229.17049    -108.4568   0.20735827   -108.24944    5468.9531    4.3385753    4.3385753    4.3385753    5468.9531    -9167.734    6395.5566    19179.037    1666.1675    -2159.791    1071.5487    81.666023 
   22800    336.57564   -108.55226   0.30454071   -108.24772   -586.03472    4.3402355    4.3402355    4.3402355   -586.03472   -9095.8393    4937.1212    2400.6139    1195.0769    1314.1056   -1797.0265    81.759813 
   22900    293.07454   -108.51251      0.26518   -108.24733   -5454.3644    4.3459608    4.3459608    4.3459608   -5454.3644   -13438.694   -12175.727    9251.3279   -1301.4937   -1731.7455    305.67126    82.083792 
   23000    328.42891   -108.54403   0.29716938   -108.24686    2707.5631    4.3351907    4.3351907    4.3351907    2707.5631   -6143.6651      11860.7    2405.6541    61.753079   -100.61242   -3345.9588    81.475045 
   23100    288.14206   -108.50708   0.26071699   -108.24636   -4525.3216    4.3480205    4.3480205    4.3480205   -4525.3216   -18659.812   -2227.9136    7311.7607   -2233.8375   -817.59838     3808.276    82.200556 
   23200    268.87176   -108.48922   0.24328082   -108.24594    6057.7604    4.3370172    4.3370172    4.3370172    6057.7604   -5653.1003    10026.632    13799.749     3590.186   -3658.8532    1069.8816    81.578069 
   23300     335.5605   -108.54906    0.3036222   -108.24544   -5322.1928    4.3424806    4.3424806    4.3424806   -5322.1928   -12478.944   -7335.9962    3848.3614    50.256748   -226.10117   -1836.3654    81.886757 
   23400    260.03839   -108.48137    0.2352882   -108.24608   -638.21896    4.3436205    4.3436205    4.3436205   -638.21896   -6426.6843   -4572.3725       9084.4   -630.66381   -766.06975    1043.4714    81.951258 
   23500    349.17703   -108.56265   0.31594271   -108.24671    -1958.265    4.3380314    4.3380314    4.3380314    -1958.265   -12253.907    9542.7606   -3163.6486     750.3655    776.32726    1085.4395    81.635316 
   23600    204.85647   -108.43339   0.18535844   -108.24803    1296.5258    4.3438421    4.3438421    4.3438421    1296.5258   -8166.0661    3115.5155    8940.1282   -3132.0837    750.46761   -3412.3165    81.963798 
   23700    392.94948   -108.60151   0.35554895   -108.24596   -5920.1536    4.3420559    4.3420559    4.3420559   -5920.1536   -16218.244    2789.7353   -4331.9524    4320.0446    357.56592    653.33829    81.862733 
   23800    276.21181    -108.4967   0.24992225   -108.24678    3294.8307    4.3374087    4.3374087    4.3374087    3294.8307   -5138.1837   -2333.8394    17356.515   -731.19946   -728.40727   -2432.1294    81.600164 
   23900    248.14604   -108.47262   0.22452775   -108.24809   -3003.5701    4.3474622    4.3474622    4.3474622   -3003.5701   -16628.604    2815.0309    4802.8633    917.98289    2140.9359   -559.51459    82.168892 
   24000    401.33226   -108.61127   0.36313386   -108.24814    3482.3579    4.3337748    4.3337748    4.3337748    3482.3579   -2347.0844    11169.939    1624.2187   -2122.0684   -2344.8308    4524.0304    81.395242 
   24100    194.71957    -108.4276   0.17618636   -108.25142   -1953.9671    4.3473052    4.3473052    4.3473052   -1953.9671   -14288.331   -2583.4098     11009.84   -232.74585   -2099.9723   -4315.2627     82.15999 
   24200    388.82945   -108.60142   0.35182106    -108.2496    1821.9361    4.3369032    4.3369032    4.3369032    1821.9361   -3904.3064    3977.1553    5392.9593   -125.28254   -1436.6219   -1249.9355    81.571641 
   24300    269.61962   -108.49331    0.2439575   -108.24935    1452.1292    4.3423917    4.3423917    4.3423917    1452.1292   -13155.036    2279.3785    15232.046    1718.0944   -2195.6596    1898.3654    81.881729 
   24400    246.42872   -108.47164   0.22297389   -108.24867   -386.07849     4.343013     4.343013     4.343013   -386.07849   -10630.741    4724.7002    4747.8052   -1533.2576    1630.5777    -2643.354    81.916878 
   24500    405.90928   -108.61443   0.36727524   -108.24715    665.07063    4.3379475    4.3379475    4.3379475    665.07063   -8715.2815    11207.998   -497.50492   -2207.0609    948.80396   -177.01271    81.630578 
   24600    242.63698   -108.46964   0.21954304    -108.2501   -4540.0381     4.343853     4.343853     4.343853   -4540.0381   -8799.6779   -11113.498    6293.0618   -46.339733    108.59845   -1348.2511     81.96442 
   24700    299.30716   -108.52117   0.27081941   -108.25035    2225.4167    4.3407642    4.3407642    4.3407642    2225.4167   -6327.1279    10430.151    2573.2266     348.7422    1003.3417   -1762.7739    81.789694 
   24800     307.1696   -108.52669   0.27793351   -108.24875    1119.0961    4.3400356    4.3400356    4.3400356    1119.0961   -9779.9977    2631.5543    10505.732    3066.5209   -1109.9751     2468.755    81.748513 
   24900     201.9885   -108.43061   0.18276344   -108.24784   -704.14385    4.3435781    4.3435781    4.3435781   -704.14385   -8748.1362    4957.5233    1678.1814   -604.56464    2327.2629   -2244.4808    81.948858 
   25000    468.54868   -108.66807   0.42395269   -108.24411   -4718.7783    4.3398381    4.3398381    4.3398381   -4718.7783    -12679.37   -3989.7365    2512.7716    1284.3655    -3307.058   -2106.7519    81.737355 
   25100    184.06539   -108.41315   0.16654623    -108.2466    1028.2398    4.3418406    4.3418406    4.3418406    1028.2398   -6131.6913    5380.1344    3836.2763    209.76014    363.99082    3035.7629    81.850553 
   25200    353.30441   -108.56622   0.31967725   -108.24654   -4546.7262     4.343285     4.343285     4.343285   -4546.7262    -12334.87    3309.2174   -4614.5257    2137.4552   -2998.5548    -656.8942    81.932267 
   25300    239.19197   -108.46367   0.21642593   -108.24724    9256.6027    4.3377077    4.3377077    4.3377077    9256.6027   -1817.7814    13648.945    15938.644    2036.9862    409.30597   -1659.2319    81.617042 
   25400    303.53077   -108.52232   0.27464102   -108.24768   -5691.6337    4.3449361    4.3449361    4.3449361   -5691.6337   -13512.918   -6571.9505    3009.9671    -189.7987   -1931.3695    3044.8174    82.025744 
   25500    398.83876   -108.60676   0.36087769   -108.24589   -842.34734    4.3394975    4.3394975    4.3394975   -842.34734   -7450.0573    420.29337    4502.7219   -1918.1226    2492.2261   -6073.1289    81.718113 
   25600    190.16749   -108.42006   0.17206754   -108.24799    4083.0078    4.3404305    4.3404305    4.3404305    4083.0078   -10664.543    10422.845    12490.721   -1459.5332   -1577.6224    5044.0144    81.770831 
   25700    348.45355   -108.56476   0.31528809   -108.24948   -6175.8007    4.3439695    4.3439695    4.3439695   -6175.8007   -12369.178    6084.3655    -12242.59    1291.5873     1767.914   -2862.4502     81.97101 
   25800    314.08144   -108.53448   0.28418748   -108.25029    6356.0517    4.3356888    4.3356888    4.3356888    6356.0517   -2328.7582    1483.4258    19913.488    525.05486   -1101.6472   -2654.2356    81.503136 
   25900     246.2478   -108.47488   0.22281018   -108.25207   -5482.7178    4.3480576    4.3480576    4.3480576   -5482.7178   -12741.147   -1224.2717   -2482.7348    194.91462    121.32178    2600.6855    82.202659 
   26000    392.96407   -108.60381   0.35556215   -108.24825    1280.0294    4.3346251    4.3346251    4.3346251    1280.0294   -3024.0121    497.79697    6366.3033   -952.56766   -1230.9634   -1172.2142     81.44316 
   26100    167.12753   -108.39919    0.1512205   -108.24797    195.63608    4.3459338    4.3459338    4.3459338    195.63608   -10809.778    12224.648   -827.96165    220.00312   -548.30651    -1602.327    82.082261 
   26200    397.37502   -108.60545   0.35955327   -108.24589   -6058.9263    4.3407062    4.3407062    4.3407062   -6058.9263   -13894.449   -1114.2379   -3168.0923    1680.3265   -663.39704    2842.3268    81.786415 
   26300    274.41103   -108.49383   0.24829287   -108.24553    3817.4524    4.3395957    4.3395957    4.3395957    3817.4524   -5270.0072    3175.2415    13547.123     1367.705    85.848581    -6122.902    81.723658 
   26400    309.44148   -108.52612   0.27998915   -108.24613   -4778.0823    4.3455641    4.3455641    4.3455641   -4778.0823   -13168.157   -517.48261   -648.60698    15.239914     1126.965    2063.8971    82.061319 
   26500    302.97154   -108.52041   0.27413502   -108.24627    4278.8497    4.3368974    4.3368974    4.3368974    4278.8497   -4739.7565    8390.1661    9186.1395   -2051.0145    779.03896   -1734.7047     81.57131 
   26600    202.59549    -108.4304   0.18331265   -108.24708    1129.7247    4.3440275    4.3440275    4.3440275    1129.7247   -4775.8092    3159.6485    5005.3348   -419.16208    1479.7821   -1262.2868    81.974297 
   26700    450.34191   -108.65329   0.40747883   -108.24581   -11140.642    4.3423774    4.3423774    4.3423774   -11140.642   -14204.487   -12048.333   -7169.1066   -314.49718   -2577.3888   -664.93281    81.880917 
   26800    170.98045   -108.40251    0.1547067    -108.2478    11947.932    4.3371938    4.3371938    4.3371938    11947.932   -1492.2875    11568.405    25767.679    1971.8126    470.14321     2172.439    81.588037 
   26900     383.7251   -108.59546   0.34720254   -108.24826   -8584.1321    4.3458113    4.3458113    4.3458113   -8584.1321   -18304.762   -675.01585   -6772.6184    -1706.881   -2519.1618   -888.40824    82.075321 
   27000    268.27268   -108.49255   0.24273876   -108.24981    6442.2713    4.3375013    4.3375013    4.3375013    6442.2713   -4858.1656    9958.1506    14226.829   -530.04002    -1069.791    2396.1852    81.605393 
   27100    277.75076   -108.50102   0.25131472    -108.2497   -1891.0965    4.3427026    4.3427026    4.3427026   -1891.0965   -7682.4779   -768.21197    2777.4004   -1235.6804     -694.838   -1992.5996    81.899312 
   27200    382.52738   -108.59464   0.34611881   -108.24852   -8917.3588    4.3439127    4.3439127    4.3439127   -8917.3588   -9199.9374   -10217.445   -7334.6941    1406.1305   -799.78915   -1142.8564    81.967795 
   27300    190.55158   -108.42065   0.17241508   -108.24823    13706.636    4.3348776    4.3348776    4.3348776    13706.636   -3830.2919    25319.622    19630.578    3022.7581    775.06493    1124.5527    81.457397 
   27400    358.33323   -108.57118   0.32422744   -108.24695   -12308.476    4.3508162    4.3508162    4.3508162   -12308.476   -17172.049   -3967.0565   -15786.323   -855.92214    1248.7282   -4766.1616    82.359219 
   27500    308.45929    -108.5244   0.27910044    -108.2453    8851.8398    4.3318982    4.3318982    4.3318982    8851.8398   -4535.0684    10072.198     21018.39   -592.17125   -120.72734    197.43114    81.289551 
   27600    297.00388    -108.5147   0.26873536   -108.24596   -9004.5412    4.3496305    4.3496305    4.3496305   -9004.5412   -13034.935   -3168.4047   -10810.284   -289.74224    1457.0662   -356.81047    82.291902 
   27700    328.55212   -108.54257   0.29728086   -108.24529   -667.04728    4.3372062    4.3372062    4.3372062   -667.04728   -6104.6924    1876.7721    2226.7785    1737.7355   -2902.7674   -497.90056     81.58874 
   27800    166.12558   -108.39701   0.15031392    -108.2467    8033.3572    4.3417393    4.3417393    4.3417393    8033.3572   -5852.4787    22510.078    7442.4721    424.28677   -1045.8729    3163.1241    81.844824 
   27900    469.74285   -108.66997   0.42503321   -108.24493   -11732.803    4.3444401    4.3444401    4.3444401   -11732.803   -10829.065   -11113.151   -13256.193    843.84067   -1985.8042   -1399.3009    81.997655 
   28000    173.70783   -108.40457   0.15717449   -108.24739    9196.6252    4.3379439    4.3379439    4.3379439    9196.6252    -5982.361    12336.766    21235.471   -3144.6398   -1073.4865   -717.22126    81.630378 
   28100    400.30009   -108.61003   0.36219994   -108.24783   -7675.6933    4.3426008    4.3426008    4.3426008   -7675.6933   -12004.549   -1103.3079   -9919.2226    672.83671   -2627.9742    2440.4174    81.893554 
   28200    216.23804   -108.44543   0.19565672   -108.24977    359.71141    4.3434103    4.3434103    4.3434103    359.71141   -9798.5842    5451.6506    5426.0678     -219.781     1892.691   -3833.4594     81.93936 
   28300    304.12983    -108.5238   0.27518306   -108.24862    3364.7977    4.3370073    4.3370073    4.3370073    3364.7977   -2879.2636    10677.157    2296.4991    836.67951    -1964.171    262.16226    81.577513 
   28400    388.46516   -108.59895   0.35149144   -108.24746   -9927.9465    4.3467933    4.3467933    4.3467933   -9927.9465   -12804.225   -11019.181    -5960.434   -84.099544    4100.3411    -739.1468    82.130976 
   28500    190.18855    -108.4208    0.1720866   -108.24872    10961.678    4.3371074    4.3371074    4.3371074    10961.678   -1076.1305    17893.369    16067.795     -3617.13    186.98044   -497.69315     81.58316 
   28600    349.07557   -108.56384   0.31585091   -108.24799   -6200.0065    4.3434579    4.3434579    4.3434579   -6200.0065   -16883.639    5251.2174   -6967.5974    2035.4924    1668.2978     2893.345    81.942055 
   28700     276.1959   -108.49792   0.24990786   -108.24801    189.05069    4.3429098    4.3429098    4.3429098    189.05069    -5389.078   -3550.6038    9506.8338    1062.2554   -909.67995   -239.64746    81.911036 
   28800    354.54929   -108.56835   0.32080365   -108.24755    66.024014    4.3381375    4.3381375    4.3381375    66.024014   -10489.747     12230.47   -1542.6505    1102.3305   -2218.0022   -1731.4478    81.641307 
   28900    286.43752    -108.5068   0.25917469   -108.24762    -1453.977     4.344462     4.344462     4.344462    -1453.977   -5728.3586     289.4361    1076.9914    24.025353    188.76746    4034.3533    81.998898 
   29000     256.3656   -108.47837   0.23196498   -108.24641    8244.1316    4.3401534    4.3401534    4.3401534    8244.1316   -8883.6391     26992.36    6623.6742   -673.64524   -2693.5792   -285.06063    81.755173 
   29100    339.36044   -108.55276   0.30706045    -108.2457   -2569.7411    4.3409395    4.3409395    4.3409395   -2569.7411    -4772.461   -4954.8056    2018.0433   -600.15638   -139.22387   -1266.4923    81.799603 
   29200    278.85257   -108.49827   0.25231167   -108.24596    441.09571    4.3436648    4.3436648    4.3436648    441.09571   -11798.445    4053.3492    9068.3828    1662.9709   -2121.9511    1897.1561    81.953765 
   29300    375.89242   -108.58605   0.34011536   -108.24594   -984.46788     4.339088     4.339088     4.339088   -984.46788   -6592.9949    8446.6939   -4807.1027   -1290.2807     2397.894   -1978.5756    81.694981 
   29400    195.51968   -108.42529   0.17691031   -108.24838    3009.4662    4.3428899    4.3428899    4.3428899    3009.4662   -10328.198    10467.607    8888.9896   -3064.1843   -1901.5528    715.77032    81.909914 
   29500    348.46783   -108.56293   0.31530102   -108.24763   -2525.1431    4.3421829    4.3421829    4.3421829   -2525.1431   -6918.1794    7131.9523   -7789.2021   -690.70152    3797.2946    2664.8433    81.869912 
   29600    294.12568   -108.51419   0.26613109   -108.24806    1787.0166    4.3377887    4.3377887    4.3377887    1787.0166   -2993.1665   -4654.3251    13008.541   -1572.1143    -1991.725   -1995.9864    81.621612 
   29700    269.15202   -108.49275    0.2435344   -108.24922   -5320.8003    4.3475603    4.3475603    4.3475603   -5320.8003   -13295.406   -210.28335    -2456.711    2854.1934    820.93526     3045.299    82.174457 
   29800    331.45317   -108.54805    0.2999058   -108.24814    5436.4422    4.3341646    4.3341646    4.3341646    5436.4422   -3240.8201    17920.165    1629.9819   -433.51732   -2486.0629    4835.6211    81.417208 
   29900    264.71355   -108.48878   0.23951839   -108.24926   -7789.5694    4.3486453    4.3486453    4.3486453   -7789.5694   -15302.834   -11505.838    3439.9641   -818.10755    125.95354   -1468.1811    82.235995 
   30000    348.76005   -108.56368   0.31556542   -108.24811    2573.7952    4.3355931    4.3355931    4.3355931    2573.7952   -2143.8287    13614.059   -3748.8441    1260.5921   -1576.9718    3079.4301    81.497738 
   30100    268.32893   -108.49094   0.24278965   -108.24815    -1647.708    4.3448414    4.3448414    4.3448414    -1647.708    -11642.85   -3407.9797    10107.705    64.268791   -176.08639   -3126.0215     82.02038 
   30200    268.42177   -108.48971   0.24287366   -108.24684     1061.772     4.341831     4.341831     4.341831     1061.772   -8437.2657    17282.348   -5659.7666    1359.8455   -1801.0658    976.34327    81.850014 
   30300     355.4527   -108.56691   0.32162108   -108.24529    1834.3206    4.3387471    4.3387471    4.3387471    1834.3206   -7480.7068     378.0285     12605.64     402.9305     703.3004    2503.4088    81.675728 
   30400    271.54198   -108.49212   0.24569689   -108.24642   -4351.0934     4.345863     4.345863     4.345863   -4351.0934     -11301.3    3185.6175   -4937.5983   -2669.8338   -924.45922   -1765.2153    82.078251 
   30500    358.02485   -108.56973   0.32394841   -108.24578    1126.2177    4.3379168    4.3379168    4.3379168    1126.2177   -8496.9287    12580.187   -704.60559   -801.01027    2059.2107    507.65517    81.628847 
   30600     226.9915   -108.45315   0.20538668   -108.24776     4391.566     4.343671     4.343671     4.343671     4391.566   -7203.5408    9870.4591     10507.78    1214.1434   -526.26001     5108.806    81.954116 
   30700    364.73553   -108.57738   0.33002037   -108.24736   -4535.8097    4.3408345    4.3408345    4.3408345   -4535.8097   -11969.518    2694.7311   -4332.6419   -1707.6446   -840.64317   -1976.7246    81.793667 
   30800    239.33293   -108.46383   0.21655346   -108.24727    6466.9829    4.3413701    4.3413701    4.3413701    6466.9829   -4332.6015    1980.4558    21753.094   -75.390462   -219.35604    3507.2781    81.823947 
   30900    393.81241     -108.603   0.35632974   -108.24667   -7633.3643    4.3417923    4.3417923    4.3417923   -7633.3643   -13375.434    1785.3869   -11310.046   -1997.1346   -1591.5929   -2313.0891    81.847823 
   31000    154.43571   -108.38809   0.13973667   -108.24835    7453.2648    4.3418241    4.3418241    4.3418241    7453.2648   -7503.9948     18620.45     11243.34   -917.76736    33.257519    1835.0952    81.849621 
   31100    425.67452   -108.63217   0.38515925   -108.24701   -5185.4319    4.3405166    4.3405166    4.3405166   -5185.4319   -11012.304   -4459.1534    -84.83799    2888.5733   -3007.0893    1398.6357    81.775698 
   31200    266.34885   -108.48976   0.24099803   -108.24876   -1715.6274    4.3422759    4.3422759    4.3422759   -1715.6274    -6286.768    541.67286     598.2131   -1390.0596   -203.20785   -612.80506    81.875174 
   31300    289.91264   -108.51015   0.26231905   -108.24783    539.77819    4.3424313    4.3424313    4.3424313    539.77819   -10671.476    1244.9345    11045.876   -373.95062    -1619.522   -2248.3675    81.883964 
   31400    325.84578   -108.54131   0.29483211   -108.24648    -2345.496    4.3402141    4.3402141    4.3402141    -2345.496   -5184.1817    3389.3468   -5241.6531   -980.71443    1904.3624    6808.0095    81.758605 
   31500    198.78265    -108.4272   0.17986272   -108.24734     3084.538    4.3434102    4.3434102    4.3434102     3084.538   -12543.067    2660.9088    19135.772   -990.54936   -924.24891   -2001.1374    81.939355 
   31600    435.89699   -108.63967   0.39440876   -108.24526   -6206.2862    4.3405495    4.3405495    4.3405495   -6206.2862   -9434.2917   -2945.0806   -6239.4864    1423.5011    2938.7447    3943.3599    81.777561 
   31700    234.90573   -108.45956   0.21254764   -108.24702    1061.9309    4.3419961    4.3419961    4.3419961    1061.9309   -9300.1534    3513.4025    8972.5435   -714.22365    -3976.476    97.846949    81.859348 
   31800    290.12788   -108.51013    0.2625138   -108.24762   -333.67021    4.3416238    4.3416238    4.3416238   -333.67021   -10567.983    4542.2948    5024.6776   -1982.7688    2674.3435    1083.0707    81.838294 
   31900    329.73765   -108.54594   0.29835356   -108.24759   -1219.2062    4.3409213    4.3409213    4.3409213   -1219.2062   -6489.2367   -597.53729    3429.1554   -1671.7165   -2252.3506     4412.751    81.798576 
   32000    242.05298   -108.46723   0.21901462   -108.24821    457.74294    4.3428006    4.3428006    4.3428006    457.74294   -8657.4086   -2983.9525     13014.59   -209.62745    800.93354   -2065.7739    81.904856 
   32100    409.72561   -108.61707   0.37072834   -108.24634   -4577.5005    4.3399609    4.3399609    4.3399609   -4577.5005   -8657.4929    2554.7918   -7629.8003   -919.86901   -1302.9139   -2096.2567    81.744295 
   32200     190.3777   -108.41947   0.17225774   -108.24721    2375.1222    4.3442314    4.3442314    4.3442314    2375.1222   -11746.479    7867.0373    11004.808    1947.1096    55.215086    2933.3011    81.985837 
   32300    365.95131   -108.57776   0.33112044   -108.24664    -1427.365    4.3385863    4.3385863    4.3385863    -1427.365   -6493.6521    2014.5034    197.05353   -3984.9349    1357.3963   -329.04734    81.666644 
   32400    267.24766   -108.48894    0.2418113   -108.24713    790.71409    4.3438923    4.3438923    4.3438923    790.71409   -9720.7967   -2538.1374    14631.076    255.52651    2075.4944    766.73114    81.966643 
   32500     325.2145   -108.54176   0.29426092    -108.2475   -69.803871    4.3413162    4.3413162    4.3413162   -69.803871   -1474.3454   -2169.4285    3434.3623    579.27767    736.53472    3062.8354    81.820902 
   32600    326.73046   -108.54299   0.29563258   -108.24735    295.12185     4.340119     4.340119     4.340119    295.12185   -10691.371    5550.2384    6026.4977    885.28234   -1642.9456   -1206.3326     81.75323 
   32700    155.94856   -108.38916   0.14110553   -108.24806    5248.3109    4.3435144    4.3435144    4.3435144    5248.3109   -3767.3169    10966.465    8545.7845    1259.0544    528.35633    6530.7128    81.945251 
   32800    456.62711    -108.6592   0.41316581   -108.24603   -8502.0093    4.3403327    4.3403327    4.3403327   -8502.0093   -13517.868   -5043.4296   -6944.7304   -1853.0159   -2977.5246   -1311.3207    81.765304 
   32900    201.33289   -108.42998   0.18217023   -108.24781    6036.9127    4.3411695    4.3411695    4.3411695    6036.9127   -2290.1252    2937.6072    17463.256   -1768.5743    1254.6923   -2728.1183    81.812607 
   33000    392.29075   -108.60191   0.35495291   -108.24695   -7893.6101    4.3439951    4.3439951    4.3439951   -7893.6101   -12929.307   -2605.8602   -8145.6636    -100.6677   -3817.6163    2129.4656    81.972465 
   33100    211.75046   -108.43959   0.19159627   -108.24799    7443.2782    4.3384857    4.3384857    4.3384857    7443.2782    569.22929    4732.9937    17027.612   -619.99982   -627.26744     2068.105    81.660968 
   33200    304.20947   -108.52296   0.27525512    -108.2477   -4504.0389    4.3432778    4.3432778    4.3432778   -4504.0389   -9132.8554    1469.7727    -5849.034   -1648.9372   -674.05501   -4393.4612    81.931863 
   33300     364.9881    -108.5769    0.3302489   -108.24665   -7198.2485    4.3432199    4.3432199    4.3432199   -7198.2485   -8546.5467   -6486.6916   -6561.5071   -919.61596    1886.8281    6581.9556    81.928587 
   33400    240.51612   -108.46432   0.21762404    -108.2467    6292.1432    4.3379255    4.3379255    4.3379255    6292.1432   -6480.0266    7271.7202    18084.736   -2710.3027    1173.5944    -3620.939    81.629335 
   33500    360.02861   -108.57178   0.32576145   -108.24602   -9750.6703    4.3467711    4.3467711    4.3467711   -9750.6703   -15033.481   -1195.6861   -13022.843     2019.491    647.29912     6237.776    82.129713 
   33600    199.18566   -108.42593   0.18022737    -108.2457    9652.4231    4.3372256    4.3372256    4.3372256    9652.4231    88.875332    4909.9921    23958.402    330.61194    220.69389   -320.90297    81.589829 
   33700    417.11139   -108.62241   0.37741115     -108.245   -9568.8258    4.3442228    4.3442228    4.3442228   -9568.8258   -11672.371   -6322.8526   -10711.254    399.47562    362.85921    -1675.718     81.98535 
   33800    203.76324    -108.4313   0.18436926   -108.24693    4274.5281    4.3417042    4.3417042    4.3417042    4274.5281   -3246.1181    3770.3466    12299.356   -318.39708     620.3721    3118.5582    81.842842 
   33900    331.69144   -108.54638   0.30012139   -108.24626    1061.2391    4.3392013    4.3392013    4.3392013    1061.2391   -9223.7085     8827.096    3580.3299   -1715.3329   -2059.2093    574.77982    81.701379 
   34000    340.42337   -108.55431   0.30802222   -108.24629    -6051.248    4.3450193    4.3450193    4.3450193    -6051.248   -11882.422   -2478.1865   -3793.1352    630.43088   -1589.2521   -2446.3074    82.030456 
   34100    242.05801   -108.46568   0.21901918   -108.24666    4231.8259    4.3394087    4.3394087    4.3394087    4231.8259   -6827.1053     636.6153    18885.968    771.16016   -1645.3206    2088.7495    81.713098 
   34200    409.03513   -108.61596   0.37010358   -108.24585   -5044.0358    4.3424205    4.3424205    4.3424205   -5044.0358   -9598.0418   -3431.3002   -2102.7654   -2066.0995   -869.18325     263.7668    81.883354 
   34300    167.85402    -108.3999   0.15187785   -108.24802    6864.5152     4.341869     4.341869     4.341869    6864.5152   -6982.8535    11956.624    15619.775   -2083.6764    1516.4352    3601.4444     81.85216 
   34400    359.05385   -108.57244   0.32487947   -108.24756    -1437.664    4.3399879    4.3399879    4.3399879    -1437.664   -3308.5563    6905.0926   -7909.5282   -1521.0235   -934.70758    3021.7856    81.745821 
   34500    302.66169   -108.52168   0.27385466   -108.24783   -2081.2618    4.3428598    4.3428598    4.3428598   -2081.2618   -12018.861   -4185.7072    9960.7826   -1291.6475    1405.7303   -2843.7617    81.908206 
   34600    256.71105   -108.48093   0.23227755   -108.24865    1167.3102    4.3406101    4.3406101    4.3406101    1167.3102   -3279.8459    3098.1015    3683.6749     1555.592    1057.5988       5852.9    81.780986 
   34700    358.81222   -108.57139   0.32466084   -108.24673     -2496.43    4.3420691    4.3420691    4.3420691     -2496.43   -13836.861    5222.9848    1124.5866    -1824.791    2187.9244     195.0685     81.86348 
   34800    238.04425    -108.4624   0.21538744   -108.24702      2636.05    4.3416556    4.3416556    4.3416556      2636.05   -2277.4684    1775.6798    8409.9386   -2153.8091    349.19411   -2941.3554    81.840093 
   34900    363.45545   -108.57544   0.32886213   -108.24658   -3403.3531    4.3410657    4.3410657    4.3410657   -3403.3531   -8274.6451    3471.6037   -5407.0178    1232.9446   -1668.4009    635.85929     81.80674 
   35000    216.67732   -108.44287   0.19605419   -108.24682    2843.2834    4.3427443    4.3427443    4.3427443    2843.2834   -1599.6893   -3461.9651    13591.505   -1187.8235   -1072.8032    738.41212    81.901672 
   35100    366.96462   -108.57806    0.3320373   -108.24602   -2239.3441     4.339947     4.339947     4.339947   -2239.3441   -8916.9211    12358.209    -10159.32    2094.4706   -1818.0151   -2744.8499     81.74351 
   35200    241.99159   -108.46568   0.21895908   -108.24672    1326.3741    4.3435191    4.3435191    4.3435191    1326.3741   -4706.1564    -2661.056    11346.335   -467.94481    569.97688    4404.8974    81.945518 
   35300    323.82889   -108.53865   0.29300719   -108.24564   -9.0329568    4.3394465    4.3394465    4.3394465   -9.0329568   -8375.7503    2570.9915    5777.6599   -1955.8547   -2999.4539   -5901.2339    81.715231 
   35400    334.58185   -108.54905   0.30273669   -108.24631   -3680.6822    4.3436917    4.3436917    4.3436917   -3680.6822     -7151.44   -8289.7486    4399.1419    541.57722    1088.8369    6355.0511    81.955289 
   35500    208.10544   -108.43601   0.18829818   -108.24772    4098.7686    4.3401716    4.3401716    4.3401716    4098.7686   -2033.8717    9907.5917    4422.5858    451.91063   -1760.3353    2008.9638      81.7562 
   35600    404.68794   -108.61241   0.36617015   -108.24624    -6292.541    4.3427903    4.3427903    4.3427903    -6292.541    -11867.84   -361.22725   -6648.5561   -1474.8667    4523.5349   -2139.1728    81.904275 
   35700    202.18644    -108.4297   0.18294254   -108.24676     5760.794    4.3410421    4.3410421    4.3410421     5760.794   -962.08325   -263.39637    18507.862    126.66709   -218.83058      1686.12    81.805402 
   35800    382.03901   -108.59161   0.34567693   -108.24593   -7367.6745    4.3410747    4.3410747    4.3410747   -7367.6745   -12262.163   -4142.7263   -5698.1338   -3520.0142     1584.465    1051.9886    81.807246 
   35900    258.08697   -108.48023   0.23352252   -108.24671    2957.4094    4.3429869    4.3429869    4.3429869    2957.4094   -4767.8677   -430.79852    14070.894    74.643018   -761.91224   -663.20961    81.915402 
   36000     295.1066   -108.51379   0.26701865   -108.24677   -502.45301    4.3394779    4.3394779    4.3394779   -502.45301    -7807.299    10182.184    -3882.244    1716.5938   -105.79072    641.99467    81.717003 
   36100    305.64227   -108.52444   0.27655155   -108.24789   -2856.5718     4.343738     4.343738     4.343738   -2856.5718   -9543.3891   -8873.0466    9846.7203   -3745.2653    917.54131    -2122.156    81.957906 
   36200     295.0782   -108.51407   0.26699295   -108.24708    2582.4052     4.339464     4.339464     4.339464    2582.4052   -6410.9014    7080.9112    7077.2057    1823.0076   -1771.7423    3141.7354    81.716217 
   36300     340.8476   -108.55499   0.30840607   -108.24659   -9091.6909    4.3434159    4.3434159    4.3434159   -9091.6909   -9076.6774   -8533.4127   -9664.9825   -3126.2009   -176.16995     5392.382    81.939677 
   36400    242.38385   -108.46579     0.219314   -108.24648    5741.2073    4.3408561    4.3408561    4.3408561    5741.2073   -10632.926    8365.3583     19491.19   -10.943112   -1679.9404   -3502.1825    81.794888 
   36500    350.17464   -108.56277   0.31684538   -108.24592    -3300.576    4.3414444    4.3414444    4.3414444    -3300.576   -4084.2003   -2376.6293   -3440.8985    1377.0703    3479.6661    5477.2117    81.828152 
   36600    256.57176   -108.47846   0.23215152    -108.2463    72.888806    4.3425197    4.3425197    4.3425197    72.888806   -11945.076    450.89251     11712.85   -2942.4495   -489.52235    1173.4994    81.888967 
   36700    349.42567   -108.56165   0.31616769   -108.24548    347.72183    4.3406945    4.3406945    4.3406945    347.72183   -5694.3377    9357.6439   -2620.1407   -1252.9677    2549.0093    1351.4348    81.785755 
   36800    273.44177   -108.49443   0.24741586   -108.24701   -1603.7164     4.341664     4.341664     4.341664   -1603.7164   -11446.428    3823.8106    2811.4685   -1835.7074   -2530.2472   -600.26251    81.840567 
   36900    250.60412   -108.47361   0.22675187   -108.24686    2301.6296    4.3424815    4.3424815    4.3424815    2301.6296   -10778.464    3136.0861    14547.267   -2628.9571    2272.3483   -676.15181    81.886807 
   37000    433.23665   -108.63731   0.39200162   -108.24531     -2724.26    4.3391874    4.3391874    4.3391874     -2724.26   -7156.2127    1087.3875   -2103.9548    1213.3002   -1306.9843   -2444.9134    81.700596 
   37100    199.63097   -108.42829    0.1806303   -108.24766     107.7973    4.3449554    4.3449554    4.3449554     107.7973   -10428.423    -998.3289    11750.144   -2422.8282    383.88025    4912.1986    82.026839 
   37200    336.12108   -108.55001   0.30412942   -108.24588    3718.0808    4.3378084    4.3378084    4.3378084    3718.0808   -6817.3536    16664.817    1306.7785   -3625.2872   -1923.6728   -4591.9739    81.622727 
   37300    264.10366   -108.48662   0.23896654   -108.24765   -1366.9491    4.3441813    4.3441813    4.3441813   -1366.9491   -10747.935     -6335.27    12982.358     1482.162   -1724.9585    1819.9079    81.983005 
   37400    307.42295    -108.5264   0.27816275   -108.24824   -2747.3164      4.33989      4.33989      4.33989   -2747.3164   -8593.8345    1577.7243   -1225.8389   -1785.7674   -52.905949    5572.1859     81.74029 
   37500    366.78917   -108.57835   0.33187855   -108.24647   -3644.9021    4.3427476    4.3427476    4.3427476   -3644.9021   -14287.861    1115.9174    2237.2373    2080.9595    1500.4793   -331.34535    81.901859 
   37600    246.46124   -108.47012   0.22300331   -108.24711    -2309.741    4.3427533    4.3427533    4.3427533    -2309.741   -9765.6518   -3822.6618    6659.0905    52.705739     671.2976    2290.2952    81.902183 
   37700    295.83156   -108.51471   0.26767461   -108.24703    1228.4239    4.3381861    4.3381861    4.3381861    1228.4239   -9369.4143    7821.2271    5233.4589   -3415.4452   -166.30771    -299.7698     81.64405 
   37800    329.59217    -108.5446   0.29822192   -108.24638   -4765.4056    4.3459443    4.3459443    4.3459443   -4765.4056   -9680.1728   -10955.124    6339.0801    3337.8872   -213.91896    228.40767    82.082858 
   37900    291.28086    -108.5101   0.26355704   -108.24654   -2394.6574    4.3381825    4.3381825    4.3381825   -2394.6574   -8952.7728      8022.58   -6253.7793   -1824.9989     109.8141    3795.5982    81.643843 
   38000    279.25844   -108.49941    0.2526789   -108.24673   -1604.5139    4.3435195    4.3435195    4.3435195   -1604.5139   -12195.996   -5653.8432    13036.297   -340.67993    101.25858   -3325.7871    81.945544 
   38100    291.93281   -108.51068   0.26414694   -108.24653    -3485.547    4.3421797    4.3421797    4.3421797    -3485.547   -13500.975    2722.1752    322.15888    970.55509   -891.09131     1326.121    81.869733 
   38200    303.01756   -108.52089   0.27417666   -108.24672   -1407.9374     4.339146     4.339146     4.339146   -1407.9374   -5938.2118   -4242.2534    5956.6531    -4312.801   -1727.8934    5179.5385    81.698254 
   38300    360.86545   -108.57232   0.32651864    -108.2458   -5084.5309    4.3461428    4.3461428    4.3461428   -5084.5309   -16081.955    1417.7838   -589.42187    267.84795   -1.1358558   -62.755949    82.094108 
   38400    244.04514   -108.46658   0.22081717   -108.24577    3805.3435    4.3379516    4.3379516    4.3379516    3805.3435   -1519.6602     7507.037    5428.6538    1463.3559     939.3783    4245.0444    81.630811 
   38500    277.52508   -108.49674   0.25111053   -108.24563   -681.19114    4.3427434    4.3427434    4.3427434   -681.19114   -12866.218   -2377.5266    13200.171   -2512.2712    2061.1946    6.1407862    81.901626 
   38600    348.37958   -108.56079   0.31522117   -108.24557   -3734.0233    4.3429341    4.3429341    4.3429341   -3734.0233   -7208.1167    1909.8992   -5903.8524    2159.9717    1746.9671    2061.8869    81.912413 
   38700    302.34318   -108.52077   0.27356646    -108.2472   -305.78141    4.3390772    4.3390772    4.3390772   -305.78141   -10601.238   -2463.1564     12147.05   -1341.5396   -911.00753    2842.0473    81.694368 
   38800    270.95848   -108.49274   0.24516892   -108.24757    983.38306    4.3441551    4.3441551    4.3441551    983.38306   -10291.802    12039.598    1202.3537     -1015.09    2718.4107    -2849.029    81.981522 
   38900    336.95916   -108.55167   0.30488773   -108.24678    2084.0168    4.3390212    4.3390212    4.3390212    2084.0168   -8716.8752    3121.4664    11847.459    4655.8384   -1082.9428   -2040.2501    81.691208 
   39000     238.1125   -108.46307   0.21544919   -108.24762     674.1222    4.3428921    4.3428921    4.3428921     674.1222    -4205.201    2874.1009    3353.4667   -3097.0131    1844.2994    3208.4898    81.910034 
   39100    384.67846     -108.594   0.34806516   -108.24594   -4773.9236    4.3421314    4.3421314    4.3421314   -4773.9236   -7851.9389   -2365.3518     -4104.48    760.43947   -4183.7538   -138.61843    81.867004 
   39200    245.60178   -108.46932   0.22222565   -108.24709    3846.6924    4.3405192    4.3405192    4.3405192    3846.6924   -7495.8043    3565.4589    15470.423    -1034.736    -224.1046   -485.43546    81.775845 
   39300    285.80069   -108.50576   0.25859847   -108.24717   -2915.9305    4.3420633    4.3420633    4.3420633   -2915.9305   -8165.6554    2663.5307   -3245.6668   -1612.0934    -2045.264    2039.3157    81.863151 
   39400    345.61411   -108.55878   0.31271891   -108.24606   -1591.3214    4.3417727    4.3417727    4.3417727   -1591.3214   -11292.238   -1718.1809    8236.4549      2074.74    3412.1572    1505.7664    81.846712 
   39500    302.50042   -108.51987   0.27370873   -108.24617   -2144.1142    4.3418688    4.3418688    4.3418688   -2144.1142    -4419.868    4199.6651   -6212.1398   -1345.4157   -880.90565    3520.3674    81.852149 
   39600    260.89072   -108.48221   0.23605941   -108.24615   -1284.8365    4.3415413    4.3415413    4.3415413   -1284.8365   -7252.9338   -509.28161    3907.7059    -1526.244    2702.0117    1979.9979    81.833628 
   39700    321.07523   -108.53625   0.29051562   -108.24573    132.89748    4.3420774    4.3420774    4.3420774    132.89748   -6544.5244   -659.43466    7602.6515    1477.0552    249.01584   -2824.1145    81.863949 
   39800     292.1253   -108.51108   0.26432111   -108.24676   -3939.7265    4.3405159    4.3405159    4.3405159   -3939.7265   -6151.9638    -1410.067   -4257.1486   -1127.9902    1063.3982    5611.9328    81.775659 
   39900    329.47296   -108.54474   0.29811406   -108.24662   -4955.3759    4.3439838    4.3439838    4.3439838   -4955.3759    -7107.342   -10668.784    2909.9979    485.97323    2287.8726    52.306392    81.971823 
   40000    311.09526    -108.5283   0.28148553   -108.24682    4107.2074    4.3384181    4.3384181    4.3384181    4107.2074   -5825.1381    18650.141   -503.38081    1566.3382   -2900.2797    -1620.283     81.65715 
   40100    193.91355   -108.42419   0.17545705   -108.24873    965.75502     4.344027     4.344027     4.344027    965.75502   -1388.3951   -7158.0024    11443.663   -4646.6655   -783.95246    1546.7758    81.974267 
   40200    389.73441   -108.59884   0.35263989    -108.2462   -734.98033    4.3410607    4.3410607    4.3410607   -734.98033   -9997.6281    5919.6457    1873.0414    3437.5554   -4067.1609   -991.08947    81.806454 
   40300    277.34277   -108.49744   0.25094557   -108.24649     1611.474    4.3401555    4.3401555    4.3401555     1611.474    2804.7922    16.243061    2013.3868   -1046.5181    1631.6816     5230.412    81.755292 
   40400    302.17063   -108.52067   0.27341033   -108.24726   -5595.7566    4.3448851    4.3448851    4.3448851   -5595.7566   -13260.392   -6268.0757    2741.1981   -209.69679   -1007.1743    1953.9231    82.022854 
   40500    310.81011   -108.52793   0.28122752    -108.2467    8492.9346    4.3370393    4.3370393    4.3370393    8492.9346   -33.631989    17617.296    7895.1402    145.52636    2460.2822   -1504.1159    81.579321 
   40600    270.34834    -108.4921   0.24461686   -108.24748   -1988.9178    4.3448398    4.3448398    4.3448398   -1988.9178   -7729.1075   -10712.597    12474.951   -2535.3465    -1773.167    3693.9226    82.020291 
   40700    324.17982    -108.5396   0.29332471   -108.24628     80.47002    4.3409487    4.3409487    4.3409487     80.47002   -6959.7229    13007.454   -5806.3208   -509.27963    3468.6191    668.96098    81.800122 
   40800    332.07704   -108.54622   0.30047029   -108.24575    4010.5337     4.339209     4.339209     4.339209    4010.5337    1524.3081   -3870.6024    14377.895    714.64878    1031.3849   -1988.3909    81.701814 
   40900    225.17956   -108.45094    0.2037472   -108.24719   -4383.7307    4.3462398    4.3462398    4.3462398   -4383.7307   -15787.345     2903.682   -267.52914   -2235.4546    1499.2838    923.81707    82.099604 
   41000    320.98829   -108.53632   0.29043695   -108.24589    6393.1536    4.3365402    4.3365402    4.3365402    6393.1536     3173.892    4689.0239    11316.545    75.230849   -1994.9183   -2573.3805    81.551157 
   41100    352.18383   -108.56422   0.31866333   -108.24556    -5327.938    4.3459711    4.3459711    4.3459711    -5327.938   -14210.726   -2902.3207    1129.2322   -146.25771   -1799.4461    2070.5426    82.084375 
   41200    240.75665   -108.46423   0.21784168   -108.24639    646.28841    4.3396683    4.3396683    4.3396683    646.28841   -1929.0904    7388.4553   -3520.4996   -2197.1308   -217.75667    3392.5445     81.72776 
   41300    321.51672   -108.53655   0.29091508   -108.24563    3100.7972    4.3408268    4.3408268    4.3408268    3100.7972   -7132.0092   -2259.6379    18694.039    3215.2195   -344.50545   -1434.8596     81.79323 
   41400    255.89974   -108.47847   0.23154346   -108.24692   -4167.4722    4.3445346    4.3445346    4.3445346   -4167.4722   -11000.851     1441.242   -2942.8078   -2250.4302    1053.3196    2327.5669    82.003008 
   41500    335.48884   -108.55037   0.30355736   -108.24681   -1975.7531    4.3383379    4.3383379    4.3383379   -1975.7531    -5203.288   -4738.2776    4014.3062   -748.75654   -1197.0212    5818.3108    81.652618 
   41600    348.56281   -108.56244   0.31538696   -108.24705   -2216.6602    4.3445732    4.3445732    4.3445732   -2216.6602   -10633.984    3453.4397    530.56367    543.04456    699.84404   -1835.0235    82.005196 
   41700    255.00715   -108.47933   0.23073583   -108.24859     1073.368    4.3388579    4.3388579    4.3388579     1073.368   -5933.4606    3779.7907    5373.7741   -1362.6597    2156.3964    2902.2949    81.681985 
   41800      251.206   -108.47512   0.22729646   -108.24782    2576.0398    4.3444028    4.3444028    4.3444028    2576.0398   -6163.8014   -1804.3306    15696.251    1962.4031    2978.7938   -1193.9995    81.995544 
   41900      364.739    -108.5759   0.33002351   -108.24588   -1945.2111    4.3395812    4.3395812    4.3395812   -1945.2111   -5848.1059    3652.5473   -3640.0746   -696.95453    819.17955    261.49247    81.722841 
   42000    282.59958   -108.50322   0.25570204   -108.24752   -4770.0188    4.3433566    4.3433566    4.3433566   -4770.0188   -9257.1877   -10162.664    5109.7957   -2510.6559   -1251.8128    4535.8936    81.936323 
   42100    277.81791   -108.49807   0.25137548   -108.24669    4964.8656     4.340364     4.340364     4.340364    4964.8656   -7749.2441    12816.304    9827.5366    1500.8843    -1181.187   -3663.2144    81.767075 
   42200    344.91952   -108.55897   0.31209043   -108.24688   -4126.6275    4.3420039    4.3420039    4.3420039   -4126.6275    -11782.53   -8548.5391    7951.1868   -1574.4175    330.65579    2297.2194     81.85979 
   42300     229.2519   -108.45497   0.20743194   -108.24754     4310.571    4.3421558    4.3421558    4.3421558     4310.571    -4311.143    7299.3351     9943.521   -278.71282   -144.18146    3107.0349     81.86838 
   42400    412.27318    -108.6186   0.37303344   -108.24557   -3700.9883    4.3408147    4.3408147    4.3408147   -3700.9883   -9296.0148   -247.54167   -1559.4085    895.03148   -1155.6453      384.549    81.792547 
   42500    185.11066   -108.41512   0.16749201   -108.24763    4486.3322    4.3420769    4.3420769    4.3420769    4486.3322    -7738.928   -449.14889    21647.073   -3937.5417    -1520.051    299.22205    81.863917 
   42600    332.37625   -108.54685   0.30074102   -108.24611   -2946.1844    4.3423411    4.3423411    4.3423411   -2946.1844   -12314.571    3951.7249   -475.70738    2271.7362   -151.32202    1236.2171    81.878862 
   42700    342.63119   -108.55535   0.31001991   -108.24533   -354.61952    4.3398105    4.3398105    4.3398105   -354.61952   -6749.1321   -7932.2018    13617.475    222.58923    1434.4359   -728.57218    81.735795 
   42800    268.75063   -108.49039   0.24317122   -108.24722   -1813.2826    4.3443547    4.3443547    4.3443547   -1813.2826   -12963.717     14687.09   -7163.2205   -1546.9759    2775.8186    2599.2602    81.992821 
   42900    330.64447     -108.546   0.29917406   -108.24683    1743.4279    4.3388017    4.3388017    4.3388017    1743.4279   -3683.5857   -3179.3949    12093.264    673.98719   -1709.0763   -2819.4104    81.678808 
   43000    208.83993   -108.43633   0.18896276   -108.24737    2099.1887    4.3447392    4.3447392    4.3447392    2099.1887   -12811.539    11242.246     7866.859    -3362.724    159.83151    283.97241    82.014594 
   43100    370.65628   -108.58135   0.33537759   -108.24597   -4331.3657    4.3388524    4.3388524    4.3388524   -4331.3657   -3808.3774   -5547.3723   -3638.3476     261.3309   -1974.2062    4104.8522    81.681676 
   43200    281.42782    -108.5011   0.25464181   -108.24646   -2444.4851    4.3437598    4.3437598    4.3437598   -2444.4851   -12285.448    2178.8069    2773.1864    447.11854    1963.1883    512.49195    81.959141 
   43300    304.59374   -108.52232   0.27560282   -108.24671   -751.11773    4.3408314    4.3408314    4.3408314   -751.11773   -11389.618    8136.5319     999.7328   -1531.2631   -1687.9738    2509.1765    81.793492 
   43400    305.04988   -108.52324   0.27601554   -108.24722   -1190.6597    4.3411808    4.3411808    4.3411808   -1190.6597   -6998.3302   -6731.8753    10158.227     241.0628    138.09856    425.75273    81.813244 
   43500    247.22963   -108.47138   0.22369857   -108.24768    2632.3425    4.3431391    4.3431391    4.3431391    2632.3425   -10215.287    13517.472     4594.843    775.35296   -2831.0965    1763.6012    81.924013 
   43600    391.46975   -108.60046   0.35421006   -108.24625   -4914.1599    4.3394342    4.3394342    4.3394342   -4914.1599   -357.89992   -9677.2745   -4707.3052   -960.62917    1613.0529    2115.2391    81.714535 
   43700    202.36038   -108.43034   0.18309993   -108.24724    1790.7227    4.3438824    4.3438824    4.3438824    1790.7227    -10462.36    10268.418    5566.1103    4736.7842    1172.6562   -756.55841    81.966081 
   43800     354.5856   -108.56658   0.32083651   -108.24574   -2847.6775    4.3411216    4.3411216    4.3411216   -2847.6775   -8649.7775   -4914.8452    5021.5903   -2356.1713    1527.6066    -1473.322    81.809896 
   43900    270.43839   -108.49087   0.24469834   -108.24617    1301.1536    4.3406271    4.3406271    4.3406271    1301.1536   -8364.0959    3200.9733    9066.5834     875.1905   -585.46892    3937.6958    81.781943 
   44000    328.48358   -108.54343   0.29721885   -108.24622   -3056.9089    4.3440348    4.3440348    4.3440348   -3056.9089   -10844.102    5854.3535   -4180.9786    1956.1859   -912.38441   -825.81618    81.974707 
   44100    343.39131   -108.55651   0.31070767   -108.24581    1084.3846    4.3390295    4.3390295    4.3390295    1084.3846    -2314.122    122.41492     5444.861   -1162.0002    83.383162    2046.3959    81.691675 
   44200    192.49142    -108.4217   0.17417028   -108.24753    3728.7051    4.3430657    4.3430657    4.3430657    3728.7051   -6213.8094    10122.223    7277.7016    1928.8181    471.14064    2144.8535    81.919857 
   44300    401.43785   -108.60922    0.3632294   -108.24599   -5333.8135    4.3415654    4.3415654    4.3415654   -5333.8135    -9546.944   -7895.8793    1441.3829   -889.29363    1462.1014    706.49003    81.834994 
   44400     215.7199   -108.44211    0.1951879   -108.24692    6959.8011    4.3403686    4.3403686    4.3403686    6959.8011   -3571.1596    15410.882    9039.6812   -1240.3124   -2682.5728    4150.2024    81.767333 
   44500    402.83374   -108.61145   0.36449243   -108.24696   -7198.8537    4.3433618    4.3433618    4.3433618   -7198.8537   -14373.465    2304.3812    -9527.477    624.80542    1251.1282    625.59222    81.936617 
   44600    276.01382   -108.49785    0.2497431   -108.24811     5858.906    4.3392195    4.3392195    4.3392195     5858.906   -2298.8155    4047.9792    15827.554    1134.1949   -722.46581   -3687.2494    81.702406 
   44700    229.53785    -108.4575   0.20769067   -108.24981    1250.2337    4.3432157    4.3432157    4.3432157    1250.2337   -7322.5833    12821.573    -1748.289   -1408.9752    4157.5676    3779.9077    81.928347 
   44800    360.90316   -108.57555   0.32655276   -108.24899   -3127.6613    4.3397764    4.3397764    4.3397764   -3127.6613   -2890.8714   -5655.7322   -836.38037    2313.0874   -865.98405   -1047.8106    81.733871 
   44900     257.3051   -108.48131   0.23281506    -108.2485    2771.4175    4.3427119    4.3427119    4.3427119    2771.4175   -5991.3422    15914.013   -1608.4185   -2443.3709   -111.09905   -160.12044    81.899843 
   45000     363.5706   -108.57619   0.32896632   -108.24722   -5376.0816    4.3418717    4.3418717    4.3418717   -5376.0816   -10164.523    224.68149   -6188.4036    2116.8512   -2799.4621    3511.0659    81.852315 
   45100    266.47429   -108.48796   0.24111154   -108.24685    3683.0319    4.3400238    4.3400238    4.3400238    3683.0319   -7267.0887    6891.5945     11424.59    440.73016    546.33028   -4002.2101     81.74785 
   45200    296.16693   -108.51495   0.26797806   -108.24698   -763.24789    4.3437892    4.3437892    4.3437892   -763.24789   -11028.371    9670.9397   -932.31234   -1449.8798    166.80639    5772.6378    81.960805 
   45300    309.68554   -108.52728   0.28020999   -108.24707   -285.60462    4.3388718    4.3388718    4.3388718   -285.60462    1574.8147   -1314.8573   -1116.7712    685.60171    722.51923   -1072.3295    81.682769 
   45400    292.45307    -108.5114   0.26461768   -108.24679   -1017.1767    4.3442218    4.3442218    4.3442218   -1017.1767   -12515.076    14020.067   -4556.5211   -2472.5442   -562.20899    344.98179    81.985299 
   45500    322.88073   -108.53853   0.29214927   -108.24638   -1857.4007    4.3402586    4.3402586    4.3402586   -1857.4007   -2584.6591   -5254.0296    2266.4865    466.77791   -1675.5218   -89.417581    81.761115 
   45600    257.06636   -108.47918   0.23259904   -108.24659     284.5411    4.3419054    4.3419054    4.3419054     284.5411   -13465.298    13166.463    1152.4585    1252.3555    1999.8137    3869.0101    81.854219 
   45700    318.26283   -108.53344   0.28797089   -108.24547   -266.74013    4.3426876    4.3426876    4.3426876   -266.74013   -10443.715    5043.8699    4599.6246   -3134.0476    808.85497    -1721.796    81.898463 
   45800    351.40242   -108.56364    0.3179563   -108.24568   -3677.4189    4.3401628    4.3401628    4.3401628   -3677.4189    -3233.144   -1383.0516   -6416.0612    868.16315    2334.3322    5615.7614    81.755701 
   45900    235.99552   -108.46068   0.21353371   -108.24715    834.24046    4.3435766    4.3435766    4.3435766    834.24046   -11487.857    13222.836    767.74261    1069.3178   -1694.6261   -2087.4803    81.948774 
   46000    324.95779   -108.54077   0.29402863   -108.24675    368.02575    4.3394459    4.3394459    4.3394459    368.02575   -2381.7803   -2822.3527    6308.2102   -708.39141   -1585.9083    5709.6985    81.715195 
   46100      257.782   -108.48193   0.23324657   -108.24868    -1232.779    4.3429866    4.3429866    4.3429866    -1232.779   -11953.254    12529.299   -4274.3826    2790.0625   -1350.7744    297.76181    81.915386 
   46200    294.18339   -108.51472   0.26618331   -108.24854    1860.0086     4.340678     4.340678     4.340678    1860.0086   -9385.2762    10506.919    4458.3833     -164.739    889.83288    1730.5769    81.784821 
   46300    465.01682   -108.66965   0.42075699    -108.2489   -9060.0612    4.3408957    4.3408957    4.3408957   -9060.0612   -8845.2894   -7794.3089   -10540.585   -1255.5352   -203.44647   -3.1336493     81.79713 
   46400    133.08468   -108.37342   0.12041782     -108.253    5053.5293    4.3425547    4.3425547    4.3425547    5053.5293   -10449.974    21661.783    3948.7793    3879.8242   -1220.6977    2905.7474    81.890945 
   46500    324.48433   -108.54568   0.29360024   -108.25208    722.59931    4.3393208    4.3393208    4.3393208    722.59931   -6303.4993    4618.5737    3852.7235   -3495.6849   -958.52713   -185.35257    81.708133 
   46600    307.00571   -108.52922   0.27778522   -108.25144   -3316.4644    4.3429496    4.3429496    4.3429496   -3316.4644   -9537.1981    3484.2894   -3896.4847    2347.9847    -138.6057    4524.7815    81.913292 
   46700    251.75527   -108.47696   0.22779346   -108.24916    2091.4488    4.3412023    4.3412023    4.3412023    2091.4488    -11282.41    16149.367    1407.3893    -1809.189    2346.8369   -1209.1645    81.814462 
   46800    442.39669   -108.64634   0.40028982   -108.24605   -5472.1204    4.3404615    4.3404615    4.3404615   -5472.1204   -7835.2342   -598.31381   -7982.8131   -1491.4994     1700.099    2830.8928    81.772586 
   46900      167.273   -108.39892   0.15135213   -108.24757    2576.4297    4.3442616    4.3442616    4.3442616    2576.4297   -12832.172    11816.202    8745.2586    1557.8746     224.2356    2716.0173    81.987547 
   47000    338.72498   -108.55227   0.30648548   -108.24579    2196.7937     4.337823     4.337823     4.337823    2196.7937   -4718.1943    8204.5731    3104.0022   -1458.9468   -785.07209   -939.68995    81.623548 
   47100    307.19623     -108.524    0.2779576   -108.24604   -3738.6829    4.3456076    4.3456076    4.3456076   -3738.6829   -11887.988    1688.6331   -1016.6938     696.3897   -1776.8624    1640.7925    82.063781 
   47200    250.56295   -108.47317   0.22671462   -108.24645    3820.2464    4.3381021    4.3381021    4.3381021    3820.2464   -4202.4222    19588.743   -3925.5818    666.44735    1636.0592   -1694.0301    81.639305 
   47300    436.48053   -108.64066   0.39493676   -108.24573    -8436.584    4.3441574    4.3441574    4.3441574    -8436.584   -15442.227    -5009.282   -4858.2435   -1360.5565    -1052.381   -1367.3167    81.981648 
   47400    162.23321   -108.39543   0.14679202   -108.24864    6795.5789    4.3398515    4.3398515    4.3398515    6795.5789   -2740.8214    16690.535    6437.0231    2584.7823    33.041571    4630.2448    81.738114 
   47500    316.56355   -108.53623   0.28643336   -108.24979   -582.28798    4.3404127    4.3404127    4.3404127   -582.28798   -9814.8962    7609.7557    458.27653    2409.2733    -2265.971    -1667.382    81.769828 
   47600    374.80475   -108.58924   0.33913121   -108.25011   -4376.4442     4.343432     4.343432     4.343432   -4376.4442   -6714.8334   -5028.6296   -1385.8696   -4010.5169   -395.15268    1599.8821     81.94059 
   47700     199.7263    -108.4314   0.18071655   -108.25069    4367.8212    4.3390574    4.3390574    4.3390574    4367.8212    -5530.025    25600.912   -6967.4234    6283.5728    1482.1258    2724.1559     81.69325 
   47800    394.39642   -108.60623   0.35685817   -108.24937   -7118.3998     4.343225     4.343225     4.343225   -7118.3998   -15491.427   -7804.8906     1941.118   -4162.7813    2710.9703    639.20776    81.928876 
   47900    263.04244   -108.48826   0.23800633   -108.25025    1979.2843    4.3409649    4.3409649    4.3409649    1979.2843   -4999.9633    10052.409    885.40731    3348.2214    970.23551     1336.397    81.801038 
   48000    237.59638   -108.46579    0.2149822   -108.25081    2743.7829    4.3400825    4.3400825    4.3400825    2743.7829    -10858.76    11987.509    7102.5997    905.72233   -1353.0257    256.35877    81.751169 
   48100    409.77892   -108.62043   0.37077658   -108.24965    -6106.736    4.3436436    4.3436436    4.3436436    -6106.736   -2375.7984   -6169.9807   -9774.4287    -3067.447    293.20935   -3919.5197    81.952566 
   48200    221.89907   -108.45038   0.20077894    -108.2496    5709.9804    4.3391131    4.3391131    4.3391131    5709.9804   -4802.5547    21233.072    699.42365    1367.8209    -1562.769    5079.0802    81.696399 
   48300    316.33962    -108.5342   0.28623073   -108.24797   -5095.4233    4.3432429    4.3432429    4.3432429   -5095.4233     -6374.88   -5811.3435   -3100.0464    653.28183    2670.7855   -1087.3516    81.929889 
   48400    321.73745   -108.53733    0.2911148   -108.24622   -60.583399    4.3416511    4.3416511    4.3416511   -60.583399    -8514.852    6631.3359    1701.7659   -1113.0531   -3890.7008    2102.8771    81.839839 
   48500     231.6475   -108.45576   0.20959953   -108.24616    3108.6852     4.339913     4.339913     4.339913    3108.6852   -3677.0327    7218.9837    5784.1046    2645.0263   -117.51032    3263.5574    81.741586 
   48600    399.27507   -108.60594   0.36127247   -108.24467   -8533.8459    4.3451457    4.3451457    4.3451457   -8533.8459   -5464.4345   -4975.6093   -15161.494   -842.88658   -3217.5042     580.6183    82.037614 
   48700    232.06241   -108.45554   0.20997494   -108.24557    8969.0489    4.3381527    4.3381527    4.3381527    8969.0489    1222.0978    17204.695    8480.3542    1070.2868     2956.285    3351.1215    81.642165 
   48800    324.80914   -108.54007   0.29389413   -108.24617   -7313.2907    4.3443346    4.3443346    4.3443346   -7313.2907   -5155.9678   -8870.1501   -7913.7542    2322.0706     871.3329    1078.2168    81.991684 
   48900    268.39397   -108.48946   0.24284851   -108.24661    3296.8382    4.3406621    4.3406621    4.3406621    3296.8382    -7551.912    13466.732    3975.6945   -1731.8561    1848.8991   -2058.1348    81.783922 
   49000    316.88229   -108.53413   0.28672175   -108.24741    -187.9974    4.3402396    4.3402396    4.3402396    -187.9974   -4172.8648    2626.8818    981.99071    1056.7908   -124.51852   -438.74541    81.760044 
   49100    378.78742   -108.59091   0.34273482   -108.24818   -9537.4459     4.343884     4.343884     4.343884   -9537.4459   -10245.344   -3740.8281   -14626.166   -1021.8169   -1730.0168   -124.35366    81.966172 
   49200     169.8733   -108.40473   0.15370493   -108.25102    13463.201     4.338269     4.338269     4.338269    13463.201    3611.1459     26174.76    10603.698   -1047.2515    2073.4543   -3434.6874    81.648728 
   49300    383.26873   -108.59874    0.3467896   -108.25195   -8061.2602    4.3422524    4.3422524    4.3422524   -8061.2602   -8239.9196   -11140.495   -4803.3659    2218.8639   -1143.2759    1861.8894    81.873845 
   49400    215.10727   -108.44712   0.19463358   -108.25249    1788.8028    4.3426377    4.3426377    4.3426377    1788.8028   -8392.0661    11660.238    2098.2367   -1780.3906     684.3193    1252.2416    81.895641 
   49500    379.55942   -108.59258   0.34343334   -108.24915    69.599631    4.3385409    4.3385409    4.3385409    69.599631   -4517.7962    6793.9998   -2067.4047    261.56339   -4817.5602     490.5533    81.664085 
   49600    344.84457   -108.56037   0.31202261   -108.24834   -9980.6182    4.3457368    4.3457368    4.3457368   -9980.6182    -12922.79   -4280.8254   -12738.239    1665.8151    976.65075     2941.724    82.071101 
   49700    192.73725    -108.4226   0.17439271    -108.2482    10986.682    4.3386485    4.3386485    4.3386485    10986.682    2855.8321    21129.724    8974.4887    1199.4466    102.25065   -2659.2705    81.670159 
   49800    379.26202   -108.58983   0.34316425   -108.24667    -4462.421    4.3423689    4.3423689    4.3423689    -4462.421   -8089.7828   -4434.8305   -862.64982    2065.6811    4206.2771   -4026.4567    81.880437 
   49900    189.32783   -108.41914    0.1713078   -108.24783    1409.3478    4.3432743    4.3432743    4.3432743    1409.3478   -7064.7711    8655.1727    2637.6419    1637.6681     305.9662    1952.3653    81.931663 
   50000    398.50569   -108.60631   0.36057632   -108.24573   -103.19993    4.3384375    4.3384375    4.3384375   -103.19993   -7121.1788    12933.103   -6121.5238   -1676.1712    762.17491   -4795.8234    81.658245 
   50100     342.3866   -108.55684   0.30979859   -108.24704   -8306.5932    4.3451201    4.3451201    4.3451201   -8306.5932   -12645.179    -6077.794   -6196.8067    1780.2032    -704.4461    2988.1153    82.036164 
   50200    182.44862   -108.41342   0.16508335   -108.24833    7523.7128    4.3386686    4.3386686    4.3386686    7523.7128   -5838.2797    24982.113    3427.3049    2310.6457    1435.5362   -1098.1761    81.671296 
   50300    395.46085   -108.60448   0.35782129   -108.24666   -5512.0564    4.3429658    4.3429658    4.3429658   -5512.0564   -6505.9902   -12363.417    2333.2379   -1612.2819    1595.4425    613.93262    81.914209 
   50400    185.31264   -108.41653   0.16767477   -108.24885    2121.1714     4.341031     4.341031     4.341031    2121.1714    -8717.377    15503.811   -422.92026    3846.4716   -706.28753    2060.6793    81.804776 
   50500    378.83688   -108.59019   0.34277957   -108.24741   -4881.4562    4.3415932    4.3415932    4.3415932   -4881.4562   -7949.0676    2992.8215   -9688.1226   -2222.5749    -831.8133    618.69548    81.836562 
   50600     363.0654   -108.57599   0.32850921   -108.24748   -4715.4396    4.3419806    4.3419806    4.3419806   -4715.4396   -12566.676    1132.7903   -2712.4326    3276.0131    -2693.467   -4684.6706    81.858471 
   50700    183.42696   -108.41518   0.16596857   -108.24921    2880.9503    4.3426463    4.3426463    4.3426463    2880.9503   -7773.2468    21089.177   -4673.0796    1020.4693      1729.94    3741.5573     81.89613 
   50800    369.94433   -108.58269    0.3347334   -108.24796     2335.777    4.3378354    4.3378354    4.3378354     2335.777   -2851.8881   -219.19941    10078.419   -357.00094     1891.532   -3358.4944     81.62425 
   50900    251.01432   -108.47629   0.22712303   -108.24916   -1785.7702    4.3468562    4.3468562    4.3468562   -1785.7702   -6536.3075    13302.407    -12123.41     675.3407    2725.4466    573.83561    82.134537 
   51000    291.82749   -108.51227   0.26405164   -108.24822    6051.3622    4.3351008    4.3351008    4.3351008    6051.3622    752.10181    14414.258    2987.7272    2096.9653   -741.41491    965.24057    81.469977 
   51100    401.43989   -108.61008   0.36323125   -108.24685   -9378.7998    4.3472235    4.3472235    4.3472235   -9378.7998   -12756.155   -1563.3184   -13816.926   -2025.9707    232.45951   -2151.3756     82.15536 
   51200    181.75787   -108.41222   0.16445834   -108.24776    8465.4471    4.3372535    4.3372535    4.3372535    8465.4471   -4232.2109    24957.626    4670.9259      2490.76    807.33259    1935.8619    81.591405 
   51300    369.13126   -108.58147   0.33399772   -108.24747   -5480.9524     4.343301     4.343301     4.343301   -5480.9524   -8668.0609   -5352.0264   -2422.7699   -1599.2912    1642.3978    746.80572    81.933172 
   51400    261.66565   -108.48525   0.23676058   -108.24849    3323.2373    4.3415738    4.3415738    4.3415738    3323.2373   -605.81913    15337.904   -4762.3724   -1613.3343    827.47334   -1318.0688    81.835464 
   51500     282.9095   -108.50524   0.25598246   -108.24926    264.81201    4.3402329    4.3402329    4.3402329    264.81201   -5870.1868    8100.1176   -1435.4948    1542.2284   -1340.6706    1858.6579    81.759668 
   51600    384.60762   -108.59631   0.34800106   -108.24831   -4904.5977    4.3425362    4.3425362    4.3425362   -4904.5977   -3624.2527   -3943.3558   -7146.1848   -581.04369   -2506.0557    -2820.108    81.889901 
   51700    193.00602   -108.42323    0.1746359    -108.2486    5089.7795     4.341573     4.341573     4.341573    5089.7795   -12342.738    20657.053    6955.0236    1958.3851   -1188.7515   -104.47216    81.835421 
   51800    397.73033   -108.60673   0.35987476   -108.24686   -5608.7223    4.3407694    4.3407694    4.3407694   -5608.7223   -5459.2301   -5745.7763   -5621.1606   -101.06219    974.74111    1985.4022    81.789991 
   51900    217.64826    -108.4435   0.19693272   -108.24657    2886.9858    4.3433093    4.3433093    4.3433093    2886.9858   -4359.9445    14762.954   -1742.0525    515.38958    1427.0355   -3486.5539    81.933643 
   52000    353.27958   -108.56554   0.31965479   -108.24588   -2132.9914    4.3394386    4.3394386    4.3394386   -2132.9914   -2211.7092    2545.3093   -6732.5742    1070.3201    41.896906    1904.2428    81.714787 
   52100    264.80603   -108.48607   0.23960206   -108.24647    146.06527    4.3436125    4.3436125    4.3436125    146.06527   -3863.6936    3934.1253    367.76415    2539.6822   -891.73812    1263.1551    81.950806 
   52200    255.80641   -108.47743   0.23145902   -108.24597    4024.7903    4.3400929    4.3400929    4.3400929    4024.7903   -7668.9863    14756.581    4986.7763   -1495.7954    -207.5356   -2109.0302    81.751754 
   52300    399.26075   -108.60658   0.36125952   -108.24532   -6032.5702    4.3425328    4.3425328    4.3425328   -6032.5702   -9439.7486   -4209.7916   -4448.1705    2639.8521    1162.9062    2101.6731    81.889706 
   52400    208.30037   -108.43509   0.18847455   -108.24662    4596.1439    4.3414503    4.3414503    4.3414503    4596.1439    -6699.951    22933.807   -2445.4242   -1133.6604    2275.5561   -2099.4083    81.828486 
   52500    413.84528   -108.62058   0.37445591   -108.24613   -5393.9671    4.3411545    4.3411545    4.3411545   -5393.9671   -3416.6674    -1212.965   -11552.269    2181.1392   -1495.8862   -2650.2958    81.811756 
   52600    197.00006   -108.42646   0.17824979   -108.24821    4707.0281    4.3431579    4.3431579    4.3431579    4707.0281   -6840.4114    14079.083    6882.4127    438.73979   -1844.6198    2803.5863    81.925078 
   52700    297.80539   -108.51746   0.26946058   -108.24799    4742.3166    4.3377058    4.3377058    4.3377058    4742.3166    400.07846    12817.905    1008.9663   -104.55984   -3045.7797   -4027.7583    81.616932 
   52800    345.87624   -108.56106   0.31295609    -108.2481   -5731.6015    4.3460386    4.3460386    4.3460386   -5731.6015   -13368.615   -2423.9283   -1402.2617    952.29956   -696.47798    293.46096    82.088203 
   52900    254.29862   -108.47752   0.23009473   -108.24743    5583.6264    4.3369759    4.3369759    4.3369759    5583.6264   -4476.3484    24667.502   -3440.2739    306.95159     838.1113    2738.7372    81.575742 
   53000    395.83357   -108.60505   0.35815853   -108.24689     -10564.3    4.3453999    4.3453999    4.3453999     -10564.3   -9636.3441   -9161.1294   -12895.426    1325.2214    583.11523    -2525.848    82.052014 
   53100    226.11712   -108.45229   0.20459552    -108.2477    5891.0129    4.3383908    4.3383908    4.3383908    5891.0129   -4000.1977    12709.671    8963.5659    1211.6991   -1064.2006    1830.0668    81.655605 
   53200    272.99156   -108.49462    0.2470085   -108.24761   -1942.0869    4.3437721    4.3437721    4.3437721   -1942.0869   -3797.3471    5215.0269   -7243.9405    223.12725   -1219.2617   -2519.2628    81.959841 
   53300    340.58986   -108.55536   0.30817287   -108.24719   -196.76672    4.3392787    4.3392787    4.3392787   -196.76672   -3567.7085    -1245.952    4223.3603    361.58009    976.07261   -4050.4673     81.70575 
   53400    276.61807   -108.49771   0.25028984   -108.24742   -2159.7236    4.3438369    4.3438369    4.3438369   -2159.7236   -12597.707    18775.841   -12657.305    3757.7441    1633.4631    1629.8864    81.963508 
   53500    339.58681   -108.55484   0.30726529   -108.24758   -1388.8964    4.3393248    4.3393248    4.3393248   -1388.8964   -4955.7811    1441.1125   -652.02063   -3091.5855    1803.4186   -4472.3704    81.708358 
   53600    356.64386   -108.57111   0.32269886   -108.24841   -4721.1194    4.3430614    4.3430614    4.3430614   -4721.1194    -12424.01    2592.4178   -4331.7661    3843.5604   -1283.8926    1770.8944    81.919615 
   53700    138.59577   -108.37639   0.12540437   -108.25099    10325.045    4.3391773    4.3391773    4.3391773    10325.045   -2299.5346    27192.599    6082.0707   -3776.2406   -1990.4399    406.54684    81.700026 
   53800    410.84776    -108.6225   0.37174368   -108.25076   -9074.0998    4.3435775    4.3435775    4.3435775   -9074.0998   -4993.9905   -12551.065   -9677.2442   -435.66549   -1934.4526   -1956.2634    81.948823 
   53900    257.66574   -108.48446   0.23314138   -108.25132    5663.9504    4.3383498    4.3383498    4.3383498    5663.9504   -5358.6756    22937.028   -586.50096    1658.6725    270.57883    1168.0918    81.653289 
   54000    277.64991   -108.50216   0.25122348   -108.25094   -3201.3415    4.3441213    4.3441213    4.3441213   -3201.3415   -6786.9193    4797.3711   -7614.4764   -531.02154    1760.5032    900.11704    81.979606 
   54100    415.91515    -108.6255   0.37632877   -108.24917   -3980.4941    4.3389573    4.3389573    4.3389573   -3980.4941   -10899.704    -1386.131    344.35245    1015.4685   -618.45274   -5458.3677    81.687596 
   54200    152.63768   -108.38801   0.13810978    -108.2499    6878.3518    4.3422402    4.3422402    4.3422402    6878.3518    -3801.937     20982.09    3454.9028    2144.2301   -66.947198    2865.2988    81.873154 
   54300    406.38736    -108.6153   0.36770783   -108.24759   -7555.8738    4.3423501    4.3423501    4.3423501   -7555.8738   -6647.1254   -3572.5199   -12447.976   -516.25769   -965.77486   -5528.7817    81.879374 
   54400    246.60732   -108.47016   0.22313549   -108.24702    5828.3662    4.3400883    4.3400883    4.3400883    5828.3662    189.82286    15334.444    1960.8315    748.47264     2385.496     177.2787    81.751492 
   54500    294.92249   -108.51353   0.26685206   -108.24668   -1926.8251    4.3420693    4.3420693    4.3420693   -1926.8251    -9848.716    9095.5195   -5027.2789    3403.5428    3177.1131    1520.9087    81.863487 
   54600    351.38509   -108.56409   0.31794061   -108.24615   -3862.1715    4.3429942    4.3429942    4.3429942   -3862.1715   -10965.049    -5775.892    5154.4268   -1208.1007    1024.1273   -3831.0486    81.915812 
   54700    202.16762   -108.42979   0.18292551   -108.24687    6614.0812    4.3385472    4.3385472    4.3385472    6614.0812   -6700.4348    23518.859    3023.8193    2853.2849    185.30573    448.63042    81.664441 
   54800    394.85138    -108.6049   0.35726983   -108.24763   -9893.8611     4.344741     4.344741     4.344741   -9893.8611   -13404.503   -3673.6042   -12603.476   -1403.1947   -2112.2098    4299.0823    82.014696 
   54900    307.69516   -108.52697   0.27840905   -108.24857    1182.9516    4.3393474    4.3393474    4.3393474    1182.9516   -1443.8186    8024.2607   -3031.5874    3100.0397    1005.5803   -4999.5371    81.709634 
   55000    227.77403    -108.4559   0.20609473   -108.24981    2767.1188    4.3406496    4.3406496    4.3406496    2767.1188   -8020.4553    19719.598   -3397.7859   -201.91988   -223.82036    3787.8429    81.783217 
   55100    344.07841   -108.56122   0.31132937   -108.24989   -5693.1084    4.3439693    4.3439693    4.3439693   -5693.1084   -7477.3853   -11019.609    1417.6689    690.51598    2522.6846   -3184.4778    81.971004 
   55200    273.27834   -108.49824   0.24726799   -108.25097    4259.2148    4.3364202    4.3364202    4.3364202    4259.2148   -4294.6992    18752.134   -1679.7899    1098.1276   -671.49673   -3548.7039     81.54439 
   55300     261.7242   -108.48908   0.23681356   -108.25227   -3082.5644    4.3461395    4.3461395    4.3461395   -3082.5644    -13857.93    11846.569   -7236.3319    672.59568   -567.99004    4120.5869    82.093917 
   55400    436.63546   -108.64597   0.39507694   -108.25089   -4286.1546    4.3365226    4.3365226    4.3365226   -4286.1546   -2015.1242   -681.04294   -10162.297     975.4128   -267.10249    -4139.654    81.550165 
   55500    220.65675   -108.45148   0.19965486   -108.25182    594.07294    4.3444849    4.3444849    4.3444849    594.07294   -11761.586    14222.338   -678.53276    1039.6115    1212.0703   -154.77283    82.000194 
   55600    253.65456   -108.47978   0.22951198   -108.25027    5832.5057    4.3392209    4.3392209    4.3392209    5832.5057   -667.32874    13672.267    4492.5788    631.29932     3614.689     2648.238    81.702489 
   55700     343.7601    -108.5601   0.31104136   -108.24906   -2359.3988    4.3414092    4.3414092    4.3414092   -2359.3988    -7850.565    1098.9235   -326.55497    278.98163     889.2831   -5659.0746     81.82616 
   55800    229.30076   -108.45627   0.20747615   -108.24879    4426.8728    4.3429288    4.3429288    4.3429288    4426.8728   -7109.5176    24891.469   -4501.3324    2961.1069    1054.6076    1308.1234     81.91211 
   55900    393.17826   -108.60383   0.35575595   -108.24808   -2251.1897     4.337971     4.337971     4.337971   -2251.1897   -2408.6275    7415.3727   -11760.314   -1127.6781   -3005.9435    1553.6274    81.631906 
   56000    349.18684   -108.56505   0.31595159    -108.2491   -7466.7986    4.3457042    4.3457042    4.3457042   -7466.7986   -14018.316   -1009.5899   -7372.4901    1676.7671    761.68847   -3913.0221    82.069252 
   56100    174.42636   -108.40802   0.15782464    -108.2502    11653.766    4.3357713    4.3357713    4.3357713    11653.766    6088.9414    27701.476    1170.8816    327.67317   -569.94403    5281.7887    81.507787 
   56200    375.42764   -108.58911   0.33969481   -108.24941   -10299.105    4.3463855    4.3463855    4.3463855   -10299.105   -13156.042   -13541.204    -4200.068   -583.37942    1912.7049   -1655.4497    82.107857 
   56300    246.84022   -108.47262   0.22334622   -108.24928    7118.3212    4.3358562    4.3358562    4.3358562    7118.3212    4177.0591    19981.209   -2803.3046    1082.9037   -125.81737   -1597.5236    81.512572 
   56400    299.34969   -108.51987   0.27085789   -108.24901   -5645.4244    4.3465739    4.3465739    4.3465739   -5645.4244   -11265.073    5435.1454   -11106.345   -484.54931   -712.48732    4309.1675    82.118535 
   56500    426.05228   -108.63325   0.38550106   -108.24775   -3412.0823    4.3358207    4.3358207    4.3358207   -3412.0823   -4770.8775    71.149667   -5536.5191    340.81504   -903.57842   -7897.9079    81.510574 
   56600    162.12788   -108.39646   0.14669671   -108.24977    3800.4817    4.3467958    4.3467958    4.3467958    3800.4817   -9414.3453    22732.145   -1916.3543     3327.022    2.7388409    1724.0646    82.131117 
   56700    371.53289   -108.58437   0.33617077    -108.2482    2917.8501    4.3349164    4.3349164    4.3349164    2917.8501   -3747.9855    3524.5158      8977.02   -863.32205    2985.6781    641.87164     81.45958 
   56800     282.7979   -108.50549   0.25588149   -108.24961   -3094.6385    4.3466065    4.3466065    4.3466065   -3094.6385   -5295.5222    9038.1244   -13026.518    760.10358    656.56333   -1738.0312    82.120386 
   56900    259.29414   -108.48338   0.23461478   -108.24876    7250.2028    4.3365929    4.3365929    4.3365929    7250.2028   -2762.8416    21806.618    2706.8318    2783.2096    672.52355    1826.9177    81.554133 
   57000    415.53716   -108.62407   0.37598675   -108.24808   -9914.5599    4.3439288    4.3439288    4.3439288   -9914.5599   -7803.8803   -7063.8943   -14875.905    -599.7328   -2639.2284    1623.9005    81.968712 
   57100    178.28995   -108.40992   0.16132049    -108.2486    8782.6914    4.3400775    4.3400775    4.3400775    8782.6914   -5513.6911    26469.091    5392.6744    1512.5928    378.98854   -1489.4313    81.750885 
   57200    363.44222   -108.57705   0.32885016    -108.2482   -3828.9316    4.3409202    4.3409202    4.3409202   -3828.9316   -11492.669    1156.6606    -1150.786    1267.8027   -672.89818    5117.1963    81.798511 
   57300    295.78784   -108.51712   0.26763505   -108.24949    244.72277    4.3414442    4.3414442    4.3414442    244.72277   -81.860131    7511.4709   -6695.4424   -1241.7684    2135.7653   -3456.9372    81.828138 
   57400    265.54467    -108.4898    0.2402704   -108.24953   -1353.9939    4.3421233    4.3421233    4.3421233   -1353.9939   -9077.1586    12446.295   -7431.1178    2894.5514   -293.77307   -856.51375    81.866542 
   57500    392.57122   -108.60332   0.35520669   -108.24811   -3191.3705    4.3391506    4.3391506    4.3391506   -3191.3705    -1484.295   -2207.9151   -5881.9013    772.62411   -714.06617    1187.1393    81.698519 
   57600    202.72398   -108.43157   0.18342892   -108.24814    958.24413    4.3442478    4.3442478    4.3442478    958.24413   -10189.563    13652.308   -588.01264    644.38974   -741.07089   -3512.2954    81.986767 
   57700    340.96666   -108.55499    0.3085138   -108.24647   -1108.0246    4.3386602    4.3386602    4.3386602   -1108.0246   -9989.4266     5067.962    1597.3907    2147.1078    1158.2715    2043.4876    81.670819 
   57800     286.4064   -108.50518   0.25914653   -108.24604   -1867.2885    4.3430675    4.3430675    4.3430675   -1867.2885   -5436.2021    6234.6273   -6400.2909   -436.24895    1558.0452   -1258.0548     81.91996 
   57900    276.09838   -108.49574   0.24981961   -108.24593   -1341.4814    4.3415359    4.3415359    4.3415359   -1341.4814   -7267.2081    14445.668   -11202.904    2485.6554    812.56632   -1514.5805    81.833325 
   58000    382.44283    -108.5918   0.34604231   -108.24576   -3601.8951    4.3402906    4.3402906    4.3402906   -3601.8951   -4480.4235   -2123.6786   -4201.5833     2163.383   -353.65919    3479.5057    81.762924 
   58100     227.8254   -108.45398   0.20614121   -108.24784    738.98939    4.3432122    4.3432122    4.3432122    738.98939   -7258.2272    15331.732   -5856.5371   -1698.4134   -2898.9133   -3641.5296     81.92815 
   58200    272.41566   -108.49528   0.24648741    -108.2488    4229.3964    4.3386828    4.3386828    4.3386828    4229.3964   -10477.745    14659.293     8506.641    5086.3993    401.87017   -546.45183    81.672098 
   58300     379.1895    -108.5923   0.34309863    -108.2492   -6493.7229    4.3428702    4.3428702    4.3428702   -6493.7229    -10895.48    503.61911   -9089.3076   -1408.1857   -252.03397    1115.2091    81.908798 
   58400    226.04102   -108.45533   0.20452667   -108.25081    2822.2146    4.3401059    4.3401059    4.3401059    2822.2146   -8770.8435    25373.252   -8135.7647    3876.2581    1946.0508   -4311.1067    81.752491 
   58500    347.04283   -108.56613   0.31401165   -108.25212   -1040.7499    4.3398395    4.3398395    4.3398395   -1040.7499    -7082.054    8064.7761   -4104.9717    -149.8143   -886.16967    1854.7543    81.737437 
   58600    384.22931   -108.60023   0.34765875   -108.25257   -6497.5876    4.3428519    4.3428519    4.3428519   -6497.5876   -11309.888    380.06247   -8562.9368   -1774.4405   -28.779619   -833.39775    81.907759 
   58700    113.85701   -108.35618   0.10302021   -108.25316    12910.065    4.3383965    4.3383965    4.3383965    12910.065   -3552.1216    29436.292    12846.025    253.57605   -2020.3264   -2922.2022    81.655928 
   58800    407.69046   -108.61848    0.3688869    -108.2496   -7646.0966    4.3427574    4.3427574    4.3427574   -7646.0966   -13593.276   -3260.2786   -6084.7355    365.05625    536.78567    3537.8619    81.902412 
   58900    285.32658    -108.5066   0.25816949   -108.24843     -647.717     4.341155     4.341155     4.341155     -647.717   -8582.7889    12121.409   -5481.7715   -192.72803    1132.5266   -1642.0008    81.811785 
   59000    292.17433   -108.51168   0.26436547   -108.24731     1430.988    4.3400055    4.3400055    4.3400055     1430.988   -7417.3445    17618.026   -5907.7178    1656.6111    803.45119   -1519.0105    81.746815 
   59100    399.62519   -108.60789   0.36158927    -108.2463   -8156.9026    4.3432974    4.3432974    4.3432974   -8156.9026   -14104.711   -4198.1808   -6167.8157    1090.0696   -618.15468    800.50149     81.93297 
   59200    126.06239   -108.36194    0.1140639   -108.24788    11915.644    4.3396269    4.3396269    4.3396269    11915.644    415.02531    26165.919    9165.9886   -1406.5388   -2020.9087   -3493.5926    81.725422 
   59300    389.81953   -108.59954    0.3527169   -108.24683   -6072.4399    4.3410356    4.3410356    4.3410356   -6072.4399    -15169.05   -4198.2028    1149.9333     5717.331    -782.7645    1818.7864    81.805035 
   59400    295.70682   -108.51642   0.26756174   -108.24885   -1757.4628     4.342782     4.342782     4.342782   -1757.4628   -6067.2202    8066.6307   -7271.7989   -1704.6453    -677.9583    3586.3162    81.903809 
   59500    266.48006   -108.49085   0.24111676   -108.24973    974.20502    4.3384348    4.3384348    4.3384348    974.20502   -9511.5686     18063.96   -5629.7761    2950.9886     1873.108   -5144.8691    81.658093 
   59600    429.72545   -108.63742   0.38882462   -108.24859   -9716.5111    4.3434892    4.3434892    4.3434892   -9716.5111   -15912.699   -7388.0845   -5848.7497    316.79566    725.30813    2620.6259    81.943828 
   59700    180.04719   -108.41244   0.16291048   -108.24953    7818.1847    4.3402765    4.3402765    4.3402765    7818.1847    -5622.909      28411.6    665.86269   -200.21752   -155.25927   -1548.1919    81.762127 
   59800    254.89591    -108.4805   0.23063518   -108.24986    4922.8116     4.338728     4.338728     4.338728    4922.8116   -9994.4878    18976.615    5786.3076    3349.1401   -1386.4551    536.97029     81.67465 
   59900    443.83739   -108.65336    0.4015934   -108.25177   -9446.3402    4.3430138    4.3430138    4.3430138   -9446.3402   -8445.9011   -9667.7516   -10225.368    1508.0044   -617.68488    1866.0163    81.916924 
   60000    228.51558    -108.4618    0.2067657   -108.25503    5379.1941    4.3382867    4.3382867    4.3382867    5379.1941   -3249.3474    24836.108   -5449.1784   -2158.9245   -198.24844   -1405.3304    81.649731 
   60100     327.8282   -108.55076   0.29662585   -108.25413   -6672.7416     4.343712     4.343712     4.343712   -6672.7416   -13542.317    3478.8548   -9954.7623    3440.9299    1672.3009   -787.42079    81.956439 
   60200    347.34055   -108.56582   0.31428103   -108.25154   -1103.4971    4.3382786    4.3382786    4.3382786   -1103.4971   -5383.3826      3506.44   -1433.5487   -1778.4594   -417.52831    6162.6316     81.64927 
   60300    160.78187   -108.39629   0.14547882   -108.25081    2740.7589    4.3432866    4.3432866    4.3432866    2740.7589   -13451.157     19602.82    2070.6138    3101.8412   -1043.5643   -566.78802    81.932362 
   60400    400.65049   -108.61187   0.36251699   -108.24935    -2786.267    4.3390525    4.3390525    4.3390525    -2786.267   -2341.1311   -1872.5335   -4145.1365    1265.0562   -2327.2118    824.93352    81.692975 
   60500    296.45238   -108.51924   0.26823635     -108.251   -2100.9098    4.3419519    4.3419519    4.3419519   -2100.9098   -6190.3409    9649.9351   -9762.3238   -2393.9965   -208.42138    763.53534    81.856848 
   60600    232.73327   -108.46153   0.21058195   -108.25095    6263.5138    4.3395311    4.3395311    4.3395311    6263.5138   -685.70128    26765.852   -7289.6092    1028.0521    1628.1407   -1410.5593     81.72001 
   60700    397.15827   -108.60689   0.35935715   -108.24753   -6889.1289    4.3435539    4.3435539    4.3435539   -6889.1289   -9042.0343   -6896.0643    -4729.288    1931.7454    1020.5975    2497.7968    81.947487 
   60800    192.04125   -108.42123   0.17376296   -108.24747    6853.7484    4.3380742    4.3380742    4.3380742    6853.7484   -5930.1738    24965.089    1526.3298   -2065.7163      1049.21   -1158.3108    81.637732 
   60900    342.17413   -108.55502   0.30960634   -108.24542   -4031.1459    4.3436689    4.3436689    4.3436689   -4031.1459   -7229.0766    560.33486   -5424.6959     2916.801    -2135.751   -3698.1694    81.953999 
   61000    313.03917   -108.52887   0.28324442   -108.24562   -2206.7717    4.3405532    4.3405532    4.3405532   -2206.7717   -5769.3888    9035.3998   -9886.3262    -2785.048   -207.96189    5930.3681    81.777766 
   61100    263.89781   -108.48583   0.23878029   -108.24705    2705.9877    4.3397013    4.3397013    4.3397013    2705.9877     1655.811     14819.96   -8357.8083    1542.9062   -438.87002   -692.47308    81.729628 
   61200    385.85276   -108.59621   0.34912768   -108.24708   -7414.2756    4.3438491    4.3438491    4.3438491   -7414.2756   -10770.448   -4566.7982   -6905.5809    2917.5768    1326.1202    283.38467    81.964199 
   61300    181.07375   -108.41159   0.16383933   -108.24775    8621.8429    4.3374658    4.3374658    4.3374658    8621.8429   -1492.0182    25214.596    2142.9512   -1027.1611   -276.54916    2268.8178    81.603388 
   61400     382.1539   -108.59219   0.34578088   -108.24641   -9426.7956    4.3450064    4.3450064    4.3450064   -9426.7956   -9572.8449   -11241.812     -7465.73    713.69702   -1468.3366   -1514.7778    82.029727 
   61500    263.82211   -108.48525   0.23871179   -108.24653    3971.6137    4.3380896    4.3380896    4.3380896    3971.6137   -4809.5532    21958.984   -5234.5899    2718.4859   -1750.8128    3986.8444    81.638601 
   61600    278.86991   -108.49953   0.25232735    -108.2472    -2350.429    4.3436487    4.3436487    4.3436487    -2350.429    359.30877    5352.5778   -12763.174     156.0093   -300.74536   -175.42091    81.952855 
   61700    404.18165    -108.6115   0.36571205   -108.24579   -3017.2052    4.3392697    4.3392697    4.3392697   -3017.2052   -6983.6651     3242.589   -5310.5396    1780.9188    2571.6588   -4137.5953    81.705242 
   61800    150.44993   -108.38447   0.13613026   -108.24834    6845.7246    4.3423662    4.3423662    4.3423662    6845.7246    -3229.531    22991.678    775.02679   -1610.0371    1035.4076    6326.2465    81.880283 
   61900    399.09713    -108.6089   0.36111147   -108.24778   -3347.1658    4.3385367    4.3385367    4.3385367   -3347.1658   -6264.8731   -2072.6004   -1704.0237   -806.49293    1378.0024    651.63734    81.663847 
   62000    229.92157   -108.45591   0.20803787   -108.24788   -266.29938    4.3450859    4.3450859    4.3450859   -266.29938    -12444.46    15743.753   -4098.1915     3091.112   -1047.9333   -993.29183    82.034228 
   62100    348.76632   -108.56221    0.3155711   -108.24664    1103.0412    4.3359273    4.3359273    4.3359273    1103.0412    4737.0384    6014.8562   -7442.7711   -2218.4778   -533.82166    4286.7609    81.516584 
   62200    320.77891   -108.53694    0.2902475   -108.24669   -6297.5835    4.3461008    4.3461008    4.3461008   -6297.5835    -14988.47    7997.7667   -11902.047    -477.3864    480.44763   -620.33673    82.091728 
   62300    210.04821   -108.43731   0.19005604   -108.24725     8291.672    4.3372326    4.3372326    4.3372326     8291.672    2595.0076    17191.467    5088.5411    1902.1896    1151.2426     4768.792    81.590227 
   62400    412.34465   -108.61953    0.3730981   -108.24643   -9581.7534    4.3434851    4.3434851    4.3434851   -9581.7534   -12829.684   -11376.772   -4538.8044   -30.862923     113.4673    1389.3822    81.943596 
   62500    158.76899   -108.39218   0.14365752   -108.24853    7635.2745    4.3397471    4.3397471    4.3397471    7635.2745   -7459.5363    25801.003    4564.3568    1753.9085   -1421.4756   -4858.8162    81.732215 
   62600    407.51883   -108.61673    0.3687316   -108.24799   -4821.4675    4.3407111    4.3407111    4.3407111   -4821.4675   -4910.4954    2587.4749   -12141.382   -424.84112   -1243.5675    2429.4918    81.786693 
   62700     288.0268   -108.50874   0.26061271   -108.24812   -1761.9061    4.3422054    4.3422054    4.3422054   -1761.9061   -7694.0885    9744.2613    -7335.891   -1643.2391    163.20664    2325.9839    81.871186 
   62800    253.44459   -108.47703     0.229322   -108.24771    5193.9991     4.339425     4.339425     4.339425    5193.9991    -2630.839    19865.624   -1652.7879    1725.3162    2530.6683   -3753.7205    81.714015 
   62900    356.06879   -108.56892   0.32217852   -108.24674   -3141.0224    4.3424748    4.3424748    4.3424748   -3141.0224   -11218.278     922.3655    872.84552    222.69502     2061.898    4173.2904    81.886429 
   63000    174.77202   -108.40554   0.15813739    -108.2474    5133.5737    4.3398207    4.3398207    4.3398207    5133.5737   -7585.0009    20350.756    2634.9665   -2912.1433    1006.3098   -2902.7756    81.736372 
   63100    445.54915    -108.6492   0.40314223   -108.24605   -7835.5641    4.3416087    4.3416087    4.3416087   -7835.5641   -10769.205   -3967.4914   -8769.9959    2523.1089    448.15503    4083.7012    81.837441 
   63200     228.1249   -108.45423    0.2064122   -108.24782    2481.8007    4.3406705    4.3406705    4.3406705    2481.8007   -6737.9749    22038.286   -7854.9089   -1775.0723    -910.1765    1862.0257    81.784396 
   63300    301.47726   -108.52072   0.27278296   -108.24794   -2856.4255    4.3419854    4.3419854    4.3419854   -2856.4255   -7192.7244    7143.9394   -8520.4913    3094.8257    2399.3349   -2614.4679    81.858746 
   63400    356.66389   -108.56972   0.32271698     -108.247   -328.76982    4.3392475    4.3392475    4.3392475   -328.76982   -7994.3818    1066.0116    5942.0607   -303.74028    575.77062    805.48212    81.703987 
   63500    148.89315   -108.38333   0.13472165   -108.24861    1967.1392    4.3433014    4.3433014    4.3433014    1967.1392   -8920.1746    19302.883   -4481.2908   -1324.6785    581.08098    5266.8172    81.933198 
   63600    429.03027   -108.63515   0.38819561   -108.24695   -5422.2268    4.3384081    4.3384081    4.3384081   -5422.2268   -11641.013   -2606.7082   -2018.9586    2592.9707   -228.38101   -3961.5922    81.656585 
   63700    260.90399   -108.48293   0.23607141   -108.24685    384.98676    4.3434968    4.3434968    4.3434968    384.98676   -5828.3545    19667.407   -12684.093    266.60948   -1927.4087    3509.5965    81.944257 
   63800    310.14289   -108.52729   0.28062381   -108.24667   -2596.7836    4.3398787    4.3398787    4.3398787   -2596.7836   -8304.9196    8244.2674   -7729.6987   -2014.3356    2213.5374   -395.07829     81.73965 
   63900    329.71539    -108.5448   0.29833342   -108.24646    1622.1486    4.3408109    4.3408109    4.3408109    1622.1486    -7348.554    11000.832    1214.1677    1083.4898    1270.6451    2807.5733    81.792332 
   64000    179.35119   -108.41048   0.16228072    -108.2482    3299.8315     4.342219     4.342219     4.342219    3299.8315   -4409.5578    13486.964     822.0885   -1022.1471    2781.4013    3575.1967    81.871959 
   64100    395.60455   -108.60509   0.35795131   -108.24714   -4549.9704    4.3386182    4.3386182    4.3386182   -4549.9704   -12897.253   -1783.1679    1030.5094   -808.52979    928.58673   -2489.2758    81.668446 
   64200    231.46551   -108.45583   0.20943486    -108.2464    5138.9993    4.3438633    4.3438633    4.3438633    5138.9993   -4839.1307    29889.012   -9632.8839    3158.2052    809.01961    631.21552    81.965001 
   64300    384.91442   -108.59429   0.34827866   -108.24601   -6280.8951    4.3387812    4.3387812    4.3387812   -6280.8951   -11498.394   -722.05699   -6622.2343   -4937.7731   -422.66424    3273.2025    81.677652 
   64400    315.28901   -108.53245   0.28528013   -108.24717    73.910775    4.3420125    4.3420125    4.3420125    73.910775   -6468.7188    9967.6796   -3277.2285    2373.9874    1398.0918   -1352.8349    81.860279 
   64500    194.59758   -108.42599   0.17607598   -108.24991    6474.5469    4.3390044    4.3390044    4.3390044    6474.5469   -4581.8097    16055.909    7949.5413   -643.65639     867.6765   -2473.6338    81.690258 
   64600    352.55194    -108.5698   0.31899641    -108.2508   -7259.5239     4.343243     4.343243     4.343243   -7259.5239   -12307.461   -5790.9828   -3680.1285   -1079.8349    1036.4521    1483.6491    81.929894 
   64700    254.52541    -108.4795   0.23029994    -108.2492    7783.9093     4.337793     4.337793     4.337793    7783.9093   -346.42398    22945.871     752.2808    797.12686   -1174.4658   -1714.4691    81.621858 
   64800    382.86119   -108.59406   0.34642085   -108.24764   -7806.2247     4.344212     4.344212     4.344212   -7806.2247   -14252.779    3704.1658   -12870.061   -1488.5751   -1030.3221    5483.6753    81.984744 
   64900    309.22647   -108.52669   0.27979461   -108.24689    3688.2896    4.3384635    4.3384635    4.3384635    3688.2896   -1878.4637    13334.378   -391.04587    -690.0802    53.353149   -1110.4953    81.659712 
   65000     211.8502   -108.43876   0.19168652   -108.24708    6453.4587    4.3423293    4.3423293    4.3423293    6453.4587   -5669.1898     21752.38    3277.1854    2644.6306    1567.3127   -2460.6339    81.878193 
   65100    386.09049   -108.59748   0.34934279   -108.24814   -3999.2694    4.3387032    4.3387032    4.3387032   -3999.2694   -6321.2064   -6785.7641    1109.1621   -1799.0231    2230.0665    2125.3715    81.673247 
   65200    203.04753   -108.43405   0.18372167   -108.25033    6237.7893    4.3422869    4.3422869    4.3422869    6237.7893    -826.9939    21774.082   -2233.7206   -811.75931    1738.2893    907.30661      81.8758 
   65300    384.12312   -108.59641   0.34756267   -108.24885   -3930.6943    4.3402096    4.3402096    4.3402096   -3930.6943   -10594.862     7520.376    -8717.597   -147.74254    89.912656   -258.66062    81.758349 
   65400     305.2477   -108.52579   0.27619453    -108.2496    -1922.942    4.3401263    4.3401263    4.3401263    -1922.942     -4385.03    2876.4196   -4260.2154   -3141.3227   -750.71373    2661.9379    81.753639 
   65500    246.94877   -108.47166   0.22344443   -108.24822     1516.568    4.3430368    4.3430368    4.3430368     1516.568   -9030.7894    13185.756    394.73688    1686.7811    1343.4255   -1669.7632    81.918224 
   65600    364.13844   -108.57608   0.32948011    -108.2466    -2083.439    4.3380541    4.3380541    4.3380541    -2083.439   -5561.0097   -1797.6076    1108.3002     -885.929   -765.37548    2812.6357    81.636599 
   65700    173.63947   -108.40467   0.15711264   -108.24756    3945.0075    4.3433168    4.3433168    4.3433168    3945.0075   -2435.5843    17397.487   -3126.8806   -3249.6877    1988.6792     4720.415    81.934068 
   65800    377.60375    -108.5876   0.34166381   -108.24594   -1515.9473    4.3396977    4.3396977    4.3396977   -1515.9473   -8060.3151    14103.445   -10590.972    2435.0773   -2021.5915   -1985.1256    81.729425 
   65900    379.60405   -108.59167   0.34347372   -108.24819   -4918.7172     4.340379     4.340379     4.340379   -4918.7172   -4378.3874    -4472.364   -5905.4002   -2734.4643    -535.8891    1153.6727    81.767923 
   66000    209.74978   -108.44123   0.18978601   -108.25144    1038.1123      4.34266      4.34266      4.34266    1038.1123   -11479.162    22702.644    -8109.145    1600.9541   -1874.2908   -1604.7118    81.896904 
   66100     338.1273   -108.55639   0.30594469   -108.25044    2818.9256    4.3377191    4.3377191    4.3377191    2818.9256   -6498.9634    7423.7365    7532.0038      1004.62    2024.2487   -252.13589    81.617688 
   66200    255.75386   -108.48209   0.23141146   -108.25068   -2297.7023     4.344077     4.344077     4.344077   -2297.7023   -8947.3987    8556.2531   -6501.9614   -3235.1648    2378.6624    1476.1288      81.9771 
   66300    280.71179   -108.50191   0.25399393   -108.24791    5302.6439    4.3377261    4.3377261    4.3377261    5302.6439   -1846.3504    19840.613   -2086.3307    350.64193    2060.6385   -918.21662    81.618083 
   66400    403.02954   -108.61171    0.3646696   -108.24704   -5695.0713    4.3429196    4.3429196    4.3429196   -5695.0713   -5522.5246   -2186.8322   -9375.8572    514.12872    1296.9104   -305.92177    81.911595 
   66500    200.92272   -108.43103    0.1817991   -108.24923    2709.0395    4.3401994    4.3401994    4.3401994    2709.0395   -9873.3178    24581.747   -6581.3105   -2173.2262    -2104.754     5141.507     81.75777 
   66600    320.27653   -108.53897   0.28979293   -108.24918    2573.4657    4.3393735    4.3393735    4.3393735    2573.4657   -5114.3575    8974.0343    3860.7203    695.08536     1931.213    422.75077     81.71111 
   66700    360.19376   -108.57487   0.32591088   -108.24896   -6557.2568    4.3435184    4.3435184    4.3435184   -6557.2568   -13315.567   -684.58666   -5671.6164   -2907.9087   -967.19312    761.19278    81.945478 
   66800    161.17441   -108.39475   0.14583399   -108.24892    8538.7191    4.3380762    4.3380762    4.3380762    8538.7191    261.89724    25971.935   -617.67527    803.14099    2975.2371   -709.82008    81.637844 
   66900    445.75159   -108.64984   0.40332541   -108.24651   -7592.4579    4.3426432    4.3426432    4.3426432   -7592.4579   -6691.4279   -3830.7705   -12255.175    2257.9383   -2010.8358   -3819.0965    81.895952 
   67000    212.53497   -108.44009   0.19230611   -108.24778    498.66769    4.3406321    4.3406321    4.3406321    498.66769   -4577.7761    12150.575   -6076.7954   -3272.6598    378.06852    4714.0079    81.782224 
   67100    313.11938   -108.53066     0.283317   -108.24735   -615.85525    4.3400694    4.3400694    4.3400694   -615.85525   -9912.6558    10851.438   -2786.3481   -1529.7245   -690.24529   -4693.6337    81.750426 
   67200    354.50821   -108.56797   0.32076648   -108.24721   -3747.9142    4.3425658    4.3425658    4.3425658   -3747.9142   -11827.851    3471.4731   -2887.3651    1306.1337    1053.1181   -1175.4379    81.891573 
   67300    180.12021   -108.41164   0.16297655   -108.24866    3848.3299    4.3397688    4.3397688    4.3397688    3848.3299   -6132.2897     21117.05   -3439.7711   -3826.1531    4093.2846    2981.8007    81.733441 
   67400    418.14384   -108.62469   0.37834533   -108.24634   -5746.2328    4.3414087    4.3414087    4.3414087   -5746.2328   -5034.6076   -1951.5145   -10252.576    2184.2658    1434.9414    447.01087    81.826129 
   67500    227.72845   -108.45392   0.20605349   -108.24787    1492.6389    4.3417749    4.3417749    4.3417749    1492.6389    -3102.493    17768.301   -10187.891   -3072.0743    1557.2144    1420.2823     81.84684 
   67600    262.98705   -108.48663   0.23795621   -108.24867    1524.4477    4.3388999    4.3388999    4.3388999    1524.4477    -5829.377     19752.84   -9350.1195   -3196.0399   -1090.0316    1772.4821    81.684358 
   67700    449.20977   -108.65645   0.40645444   -108.24999   -8677.5858    4.3427595    4.3427595    4.3427595   -8677.5858   -10783.221   -9585.5494   -5663.9867    2988.0452    50.996613    -5099.028    81.902531 
   67800    235.31492   -108.46775   0.21291789   -108.25483    4672.6633    4.3362757    4.3362757    4.3362757    4672.6633   -4860.0125    24579.183    -5701.181   -2689.4558    396.17784    4587.0837    81.536237 
   67900    225.32406    -108.4593   0.20387794   -108.25542   -1906.8572    4.3445482    4.3445482    4.3445482   -1906.8572   -5987.1109    10404.021   -10137.482   -2870.0101     1606.372   -1074.7151    82.003778 
   68000     395.5327   -108.60897    0.3578863   -108.25108   -1086.4848    4.3371285    4.3371285    4.3371285   -1086.4848    3227.2008    5182.6127   -11669.268    1370.7929    -552.6492   -1098.1307    81.584354 
   68100    198.77178   -108.42958   0.17985288   -108.24973    720.06495    4.3431678    4.3431678    4.3431678    720.06495   -5389.9637    20175.542   -12625.384   -3994.3086   -541.27738    3046.7293     81.92564 
   68200    389.62927   -108.59996   0.35254475   -108.24741   -2524.1337    4.3401969    4.3401969    4.3401969   -2524.1337   -4759.7846    4855.6804   -7668.2969    2030.4425   -1464.9366   -1194.2002     81.75763 
   68300    303.44489   -108.52222   0.27456331   -108.24765     1508.992    4.3398091    4.3398091    4.3398091     1508.992   -7052.9156    18869.072    -7289.181   -2164.6602    2440.9022    1329.0078    81.735715 
   68400    212.32076   -108.44052   0.19211229   -108.24841    1833.9561    4.3423738    4.3423738    4.3423738    1833.9561   -1942.9433    10959.106   -3514.2948   -3586.4577    1212.8849    3540.9921    81.880711 
   68500    381.77739   -108.59118   0.34544021   -108.24574   -869.70327    4.3402013    4.3402013    4.3402013   -869.70327    4371.5909     1246.797   -8227.4977    1193.3125    4100.3377   -5784.1642    81.757881 
   68600    188.28909   -108.41731   0.17036793   -108.24695    5549.3876    4.3401238    4.3401238    4.3401238    5549.3876   -88.771726    25202.038   -8465.1032    370.68768   -264.62509    2322.6398    81.753502 
   68700    375.68015   -108.58637   0.33992329   -108.24645   -5097.5904    4.3418506    4.3418506    4.3418506   -5097.5904   -5727.6346       1259.2   -10824.337   -2554.9665   -139.06241    -1495.951    81.851118 
   68800    367.27908   -108.57844   0.33232183   -108.24612   -1747.4881    4.3409718    4.3409718    4.3409718   -1747.4881   -7086.0706    11998.086    -10154.48    135.96366   -335.30884    195.76031     81.80143 
   68900    193.78463   -108.42426   0.17534041   -108.24891    4125.2498    4.3385629    4.3385629    4.3385629    4125.2498    2506.5488    17754.394   -7885.1932    -1802.549   -852.83424    973.79256    81.665326 
   69000     369.2018    -108.5828   0.33406154   -108.24874   -7057.6105    4.3447224    4.3447224    4.3447224   -7057.6105   -4453.7224    -8935.153   -7783.9563    888.25349    2530.0547    94.306011    82.013642 
   69100    199.90441   -108.42963   0.18087771   -108.24875    10304.419    4.3351101    4.3351101    4.3351101    10304.419    10700.757    26059.141   -5846.6416    294.22995   -1324.0719   -1662.0644    81.470504 
   69200     344.3073   -108.55992   0.31153648   -108.24838   -11061.295    4.3466485    4.3466485    4.3466485   -11061.295   -15009.131   -8040.1421   -10134.611   -2716.3076    1125.9506     4946.573    82.122763 
   69300    366.46713   -108.57844   0.33158716   -108.24685    1806.8652    4.3358435    4.3358435    4.3358435    1806.8652    172.56245    13300.995   -8052.9613   -566.40794   -3025.0216   -5111.5873    81.511856 
   69400    211.07005   -108.43962   0.19098062   -108.24864   -272.17688    4.3442038    4.3442038    4.3442038   -272.17688   -9117.1057    17093.879   -8793.3044    997.92352    952.85197    1602.1417    81.984277 
   69500    383.00828   -108.59533   0.34655394   -108.24878   -3189.3653    4.3388007    4.3388007    4.3388007   -3189.3653    2066.8676   -7061.6188   -4573.3447   -1144.6351    1047.7972    -2438.675    81.678753 
   69600    211.13913   -108.44084   0.19104312    -108.2498    5518.8521    4.3415113    4.3415113    4.3415113    5518.8521    2521.5836    18513.198   -4478.2253    54.579941    3823.1535   -1245.5243    81.831934 
   69700    293.75482   -108.51492   0.26579554   -108.24912    1295.1693    4.3398637    4.3398637    4.3398637    1295.1693   -5141.3254    8300.3047    726.52852   -3160.0462      778.132    2838.0408    81.738801 
   69800    356.34062   -108.57015   0.32242448   -108.24773   -4653.4991    4.3417992    4.3417992    4.3417992   -4653.4991    -9576.583    7384.9601   -11768.874   -2201.0632   -892.46424    1704.1045    81.848213 
   69900      273.254   -108.49442   0.24724596   -108.24718    4679.6865    4.3390434    4.3390434    4.3390434    4679.6865   -5112.1286    18635.038    516.14963    2810.9509   -498.01272   -2658.0493    81.692459 
   70000    388.25768    -108.5979   0.35130371   -108.24659   -9908.5128    4.3440793    4.3440793    4.3440793   -9908.5128   -8229.0762   -7875.6513   -13620.811   -4267.0227    -1569.138    5427.6073    81.977226 
   70100    179.02838   -108.40983   0.16198864   -108.24784    10991.482    4.3359032    4.3359032    4.3359032    10991.482    6297.9566    25760.563    915.92642   -2251.8482    1958.1436   -2571.5737    81.515225 
   70200     325.2599   -108.54143     0.294302   -108.24712   -4125.0803    4.3450935    4.3450935    4.3450935   -4125.0803   -4009.6702   -1531.3635   -6834.2073   -588.64038   -111.22752    1237.3787    82.034657 
   70300    317.84016   -108.53464   0.28758845   -108.24705   -1631.9705    4.3382746    4.3382746    4.3382746   -1631.9705   -4451.7314    8023.2396   -8467.4197   -701.33019    636.35959   -64.868576    81.649048 
   70400    254.19688   -108.47679   0.23000268   -108.24679    2576.9673    4.3412033    4.3412033    4.3412033    2576.9673   -7041.9121    18550.457   -3777.6432    886.92408   -1696.4857   -4697.7798    81.814517 
   70500    450.14003   -108.65362   0.40729616   -108.24632   -12164.498    4.3429011    4.3429011    4.3429011   -12164.498   -11964.264   -9969.1651   -14560.064     -1756.71    1332.4821    3973.9301    81.910548 
   70600    128.57525   -108.36535   0.11633759   -108.24901    9373.1167    4.3367859    4.3367859    4.3367859    9373.1167    4845.2917    21093.122    2180.9368   -3937.1989    1133.7688   -673.41285    81.565022 
   70700     384.1507   -108.59434   0.34758763   -108.24675   -8293.9077    4.3458735    4.3458735    4.3458735   -8293.9077   -6215.1797   -6245.7207   -12420.823    3617.6671    2941.7982   -2505.4396    82.078844 
   70800     227.4854   -108.45339   0.20583357   -108.24755    4902.8757    4.3357714    4.3357714    4.3357714    4902.8757    1622.2438    15226.719   -2140.3363   -2538.4524    1413.2944    4427.6192    81.507789 
   70900    298.76254   -108.51763   0.27032663    -108.2473   -5794.2458    4.3453586    4.3453586    4.3453586   -5794.2458   -11256.307    5555.3214   -11681.751   -2959.6988   -1118.0472   -346.66363    82.049674 
   71000    451.29781   -108.65404   0.40834374    -108.2457   -5605.0327    4.3380109    4.3380109    4.3380109   -5605.0327    -9447.448    508.59116   -7876.2413     1074.289   -1740.1961    909.76363    81.634157 
   71100    121.11691   -108.35826   0.10958912   -108.24867    4929.8191    4.3418395    4.3418395    4.3418395    4929.8191   -2048.1994    23289.987   -6452.3307   -2674.5855   -541.40073    3304.6506    81.850492 
   71200    431.49625   -108.63675   0.39042687   -108.24633   -5676.6991    4.3406152    4.3406152    4.3406152   -5676.6991   -1788.3771   -6302.2935   -8939.4267    2286.2764    1101.6677   -4750.2769    81.781273 
   71300    169.86522   -108.40095   0.15369762   -108.24725    7132.7126    4.3410835    4.3410835    4.3410835    7132.7126    3081.9681    20581.699   -2265.5289   -656.87627    558.54158    3542.3243    81.807746 
   71400    339.39298   -108.55427    0.3070899   -108.24718   -4076.1181    4.3393501    4.3393501    4.3393501   -4076.1181   -6732.0821    4713.1696   -10209.442   -4947.5221   -30.899298    675.65632    81.709788 
   71500    370.59107   -108.58221   0.33531858   -108.24689   -4456.2442    4.3430834    4.3430834    4.3430834   -4456.2442   -12592.723     5575.443   -6351.4522    1830.5905   -981.07742   -2609.0888     81.92086 
   71600    238.47761   -108.46419   0.21577955   -108.24841    3873.2525    4.3379161    4.3379161    4.3379161    3873.2525   -2782.6459     18628.43   -4226.0267   -527.36878    587.12308    2895.2211    81.628808 
   71700    373.35637   -108.58518   0.33782069   -108.24736   -7357.4313    4.3434242    4.3434242    4.3434242   -7357.4313   -7448.6123   -8065.5388   -6558.1429   -4705.4794    1970.7434    577.76485    81.940149 
   71800    180.10937   -108.41012   0.16296674   -108.24715    11098.437    4.3393475    4.3393475    4.3393475    11098.437    5844.0254    27125.803    325.48146   -1230.0159    1931.3998    1148.2893    81.709639 
   71900    341.59714   -108.55688   0.30908427    -108.2478   -5915.7952    4.3397765    4.3397765    4.3397765   -5915.7952    -4160.565   -4197.7672   -9389.0535   -3861.8227    565.60381    3952.5605    81.733873 
   72000    304.50249   -108.52343   0.27552026   -108.24791   -2313.4633    4.3435821    4.3435821    4.3435821   -2313.4633   -11137.819    7348.6891   -3151.2599    104.58397   -1026.9976   -3127.1386    81.949087 
   72100    313.05633   -108.53039   0.28325994   -108.24713    827.49092    4.3376055    4.3376055    4.3376055    827.49092   -8984.9857    18667.687   -7200.2287    1074.6622   -1883.1411    3106.2854    81.611275 
   72200     347.8566   -108.56232   0.31474796   -108.24757   -8037.7477    4.3435095    4.3435095    4.3435095   -8037.7477   -10396.978    -9394.328   -4321.9376    -5900.073   -237.69589    1667.3402    81.944978 
   72300    225.45703   -108.45133   0.20399826   -108.24733    7928.3927    4.3395545    4.3395545    4.3395545    7928.3927   -904.77327    26248.702   -1558.7508    1832.9585     776.5917   -1051.1051    81.721335 
   72400    304.29024   -108.52341    0.2753282   -108.24808    1809.7549    4.3395293    4.3395293    4.3395293    1809.7549    2305.6182    8648.7443   -5525.0977    1173.2616    1386.6399     371.0117    81.719911 
   72500    315.06519   -108.53585    0.2850776   -108.25078   -2811.0232    4.3408746    4.3408746    4.3408746   -2811.0232   -9414.8539    6152.0574    -5170.273   -1996.2532   -544.25576    455.20785    81.795937 
   72600    299.55106   -108.52269    0.2710401   -108.25165    5014.7511    4.3397778    4.3397778    4.3397778    5014.7511   -7123.4636    30291.652   -8123.9352   -470.35829   -828.08708   -396.62589    81.733949 
   72700    356.80894   -108.57448   0.32284823   -108.25163   -7990.4273    4.3415789    4.3415789    4.3415789   -7990.4273   -13149.006   -5136.8167   -5685.4589   -2259.6504   -657.64578    3923.2218    81.835757 
   72800    293.33748   -108.51564   0.26541791   -108.25022     317.3448     4.339253     4.339253     4.339253     317.3448   -6061.6552    14320.234    -7306.544   -4987.1887     1306.301   -1253.1798      81.7043 
   72900    225.09698   -108.45324   0.20367248   -108.24956     6059.636    4.3411351    4.3411351    4.3411351     6059.636    3430.9723    18285.206   -3537.2705    4491.5094    2479.6951   -852.39959    81.810659 
   73000    331.97779   -108.55094   0.30038048   -108.25056   -5984.7454    4.3398061    4.3398061    4.3398061   -5984.7454   -4777.8758   -6641.8218   -6534.5385   -6114.1938    1558.7699    1777.9479    81.735549 
   73100    265.93325   -108.49015   0.24062199   -108.24953    2761.4675    4.3414631    4.3414631    4.3414631    2761.4675   -4372.2391    20456.938   -7800.2965   -2533.5078    89.830096    172.03121    81.829207 
   73200    346.25376   -108.56208   0.31329767   -108.24878    387.23995     4.338884     4.338884     4.338884    387.23995   -11083.299     15691.59   -3446.5711    901.12314   -1991.8416    1005.0579    81.683457 
   73300     317.4062   -108.53622    0.2871958   -108.24903   -8399.1873    4.3432508    4.3432508    4.3432508   -8399.1873   -13365.447    2433.7855     -14265.9   -5386.5045   -685.78421    1169.8743    81.930335 
   73400    289.88216   -108.51051   0.26229147   -108.24822    8205.3223    4.3374804    4.3374804    4.3374804    8205.3223    1075.3513    22010.577    1530.0383    974.14825   -63.573141   -1399.9996    81.604209 
   73500    245.38378   -108.47159    0.2220284   -108.24956    293.00046    4.3424047    4.3424047    4.3424047    293.00046   -270.14334    11475.632   -10326.487   -2335.8482    2564.2684    3765.6719    81.882461 
   73600    339.06531   -108.55616   0.30679341   -108.24937   -2972.7986    4.3397925    4.3397925    4.3397925   -2972.7986   -6088.7712   -308.20835   -2521.4163   -4964.9997    394.65023    -1628.922    81.734781 
   73700    248.50747   -108.47394   0.22485478   -108.24908     9828.461    4.3392303    4.3392303    4.3392303     9828.461   -4492.4331     39709.58   -5731.7641    593.02221    986.49194    1885.7205    81.703016 
   73800     355.7129   -108.57326    0.3218565    -108.2514    -8849.978    4.3425012    4.3425012    4.3425012    -8849.978   -15033.593    -629.5654   -10886.775   -2648.6821   -1784.0309    1419.0731    81.887921 
   73900      353.673   -108.57085   0.32001076   -108.25084    2542.6022    4.3382756    4.3382756    4.3382756    2542.6022    -6029.791    19788.407   -6130.8091   -4869.8996    506.33964   -968.01699    81.649102 
   74000    252.08771   -108.47921   0.22809426   -108.25112    5031.6334    4.3411947    4.3411947    4.3411947    5031.6334    2750.1945    20445.603   -8100.8972    2362.1256    1362.0558    2739.4293    81.814034 
   74100    261.78947   -108.48769   0.23687262   -108.25082   -1792.0501     4.340391     4.340391     4.340391   -1792.0501   -6060.3878    6169.4951   -5485.2576   -5595.8267    1598.1836    889.82619      81.7686 
   74200    363.68264   -108.57707   0.32906769   -108.24801    818.22879    4.3407474    4.3407474    4.3407474    818.22879   -2274.6795    7703.8236   -2974.4578    1193.4929       2454.6   -1545.4091    81.788744 
   74300    212.75606   -108.44175   0.19250616   -108.24924     2287.902    4.3392473    4.3392473    4.3392473     2287.902   -8106.2295    22302.357   -7332.4216   -3065.1978   -1076.8793    3594.5114    81.703977 
   74400    369.54587   -108.58395   0.33437287   -108.24958   -9727.1494    4.3427908    4.3427908    4.3427908   -9727.1494   -13995.175   -6034.9188   -9151.3542    -5271.332   -1152.4486     1455.281    81.904307 
   74500    349.67141   -108.56489   0.31639004    -108.2485    2224.2752    4.3386963    4.3386963    4.3386963    2224.2752    359.00112    19661.491   -13347.666    3880.2983   -2124.1857   -2194.7405    81.672859 
   74600    182.57226   -108.41654   0.16519522   -108.25134   -296.33076    4.3408942    4.3408942    4.3408942   -296.33076    -5787.471    11783.255   -6884.7768   -6322.7277    1151.1344    3575.7565    81.797041 
   74700    359.84818    -108.5757    0.3255982   -108.25011    -1960.098    4.3413987    4.3413987    4.3413987    -1960.098    -6015.282    7398.2039   -7263.2159   -2342.5133    1669.4813   -245.75836    81.825568 
   74800    309.92776   -108.52996   0.28042915   -108.24953    3581.0474    4.3387518    4.3387518    4.3387518    3581.0474   -6920.3995    19661.834   -1998.2928    1436.9508    1688.9294    1298.4381    81.675992 
   74900    191.07307   -108.42426   0.17288693   -108.25137    1880.7685    4.3415513    4.3415513    4.3415513    1880.7685   -11787.014    19742.419   -2313.0995    -5782.209   -186.14778    739.77165    81.834192 
   75000    432.56936   -108.64018   0.39139785   -108.24878   -1232.7116    4.3394053    4.3394053    4.3394053   -1232.7116   -7617.6576    12753.524   -8834.0009   -1869.6311   -964.04366    1048.7848    81.712905 
   75100    251.79931   -108.47798   0.22783331   -108.25015     2674.706    4.3410023    4.3410023    4.3410023     2674.706   -2564.4985    19698.412   -9109.7951    1545.1198   -204.00992    1646.7298    81.803154 
   75200     231.7014   -108.46059    0.2096483   -108.25094    -199.7091    4.3398204    4.3398204    4.3398204    -199.7091   -4978.4651     15849.21   -11469.872   -6727.4109    1706.9014    1698.8219    81.736356 
   75300    444.43217   -108.65089   0.40213156   -108.24876   -2658.8986    4.3409006    4.3409006    4.3409006   -2658.8986    -5673.938    4900.3884   -7203.1464    1018.0127    2039.9306   -581.67147    81.797405 
   75400    186.47334   -108.41938     0.168725   -108.25065    274.16231    4.3412616    4.3412616    4.3412616    274.16231   -11008.838    16148.931   -4317.6058   -3872.7887    1043.5671    6279.6368    81.817811 
   75500    273.38417   -108.49788   0.24736374   -108.25051   -180.74009    4.3386989    4.3386989    4.3386989   -180.74009   -8732.1671    7588.0918      601.855    -3438.631   -1562.2272   -193.32481    81.673003 
   75600    414.24842   -108.62288   0.37482068   -108.24806   -6158.1989     4.342742     4.342742     4.342742   -6158.1989   -10727.222    1522.8717   -9270.2467    671.50287   -1692.8435   -92.804064    81.901542 
   75700     173.0199   -108.40702   0.15655204   -108.25047   -625.26343    4.3387889    4.3387889    4.3387889   -625.26343   -4965.7682    11174.269   -8084.2915   -6617.0667    -1067.727    4588.7947    81.678086 
   75800    331.93438    -108.5504   0.30034121   -108.25005   -562.60255    4.3417554    4.3417554    4.3417554   -562.60255   -8427.6185    19595.594   -12855.783    897.20746    559.49874     -2714.74    81.845738 
   75900    421.52552   -108.63144   0.38140515   -108.25004   -3238.6577    4.3378885    4.3378885    4.3378885   -3238.6577   -5258.5368    556.81216   -5014.2484    804.45853    2519.9926    834.61423    81.627247 
   76000    113.25808   -108.35589   0.10247829   -108.25342    2228.4211    4.3446221    4.3446221    4.3446221    2228.4211   -14925.551    29192.384   -7581.5696   -5803.1181   -320.35461    267.16329    82.007962 
   76100    408.34894   -108.61922    0.3694827   -108.24974    6086.6813    4.3338675    4.3338675    4.3338675    6086.6813   -545.99479    11626.036    7180.0031    1117.4773    165.27396   -89.374018    81.400468 
   76200     265.9849   -108.49131   0.24066873   -108.25064   -5379.8541    4.3477483    4.3477483    4.3477483   -5379.8541   -11483.352    13512.108   -18168.318   -3098.4582   -1863.0889    2023.7625     82.18512 
   76300    260.27731   -108.48377   0.23550438   -108.24827     4706.479     4.333857     4.333857     4.333857     4706.479   -432.07019    15874.878    -1323.371   -6110.3644    1079.6545    1789.4757    81.399874 
   76400    405.03351   -108.61212   0.36648283   -108.24564   -5845.0257    4.3455948    4.3455948    4.3455948   -5845.0257   -9811.0761        11731   -19455.001    899.04911    1620.7605    -480.2227    82.063057 
   76500    267.05012   -108.48873   0.24163256    -108.2471   -3523.9915    4.3384551    4.3384551    4.3384551   -3523.9915   -12155.982    3850.5321   -2266.5246   -5178.8019    1861.3201    3706.6099     81.65924 
   76600    218.08263   -108.44543   0.19732575   -108.24811     3858.739    4.3404179    4.3404179    4.3404179     3858.739   -6760.5294    21155.868   -2819.1211   -2209.3802    277.06735    1118.6773     81.77012 
   76700    453.24054   -108.65616   0.41010157   -108.24606   -7366.7529    4.3428391    4.3428391    4.3428391   -7366.7529   -11154.849   -6596.9627   -4348.4467    3329.7031     -3122.74   -818.13102    81.907035 
   76800    64.289513   -108.30866  0.058170502   -108.25049    7442.8789    4.3380098    4.3380098    4.3380098    7442.8789    2166.2005    25710.445   -5548.0089   -7981.5977   -1085.2063    2753.2885    81.634094 
   76900    467.48106   -108.67144   0.42298669   -108.24845   -8315.4733    4.3420544    4.3420544    4.3420544   -8315.4733   -10429.502   -2859.0275    -11657.89    427.99409   -1368.8747   -1876.2905    81.862646 
   77000    282.29559   -108.50509   0.25542698   -108.24966   -2292.3673    4.3410271    4.3410271    4.3410271   -2292.3673   -4857.4561    12300.805   -14320.451   -1719.7926     2556.794    6350.4419    81.804558 
   77100    253.46171   -108.47932   0.22933748   -108.24999    165.73136    4.3391837    4.3391837    4.3391837    165.73136   -12315.413    17306.511   -4493.9037   -5392.2602    102.30501    231.64941    81.700385 
   77200    392.20278   -108.60314   0.35487332   -108.24826    -1376.713    4.3414486    4.3414486    4.3414486    -1376.713   -7254.8973    5676.2909   -2551.5326   -189.51875    820.70133    390.71447    81.828386 
   77300    231.78383   -108.45969   0.20972288   -108.24996    2718.9586    4.3401697    4.3401697    4.3401697    2718.9586   -3544.8184    12934.076   -1232.3822   -2738.8372   -2793.0409    2505.5421    81.756093 
   77400    199.56514   -108.43045   0.18057073   -108.24988    4236.3908    4.3396287    4.3396287    4.3396287    4236.3908   -5660.4767    20378.138   -2008.4894   -2578.5523    128.81159    3842.9955    81.725526 
   77500    441.64591   -108.64827    0.3996105   -108.24866   -5949.9211    4.3421771    4.3421771    4.3421771   -5949.9211   -7640.4408    1708.7133   -11918.036     1833.614    409.38181   -3846.5936    81.869587 
   77600    277.40452    -108.5027   0.25100144    -108.2517   -409.64516    4.3371509    4.3371509    4.3371509   -409.64516   -11123.372    18423.408   -8528.9719   -8064.1633    1350.0496    3588.9579    81.585615 
   77700    265.84051    -108.4929   0.24053808   -108.25236    389.49296    4.3448369    4.3448369    4.3448369    389.49296   -11311.191     20123.95   -7644.2798   -275.27259    1619.2632    -3053.567    82.020124 
   77800    421.14548   -108.63108   0.38106128   -108.25001    1850.1679    4.3342243    4.3342243    4.3342243    1850.1679    -1230.737    7854.7282   -1073.4875    43.893814   -2662.0471     3196.155     81.42057 
   77900    88.415102   -108.33318  0.079999842   -108.25318    3098.1575    4.3466484    4.3466484    4.3466484    3098.1575   -7851.5566    18636.491   -1490.4625   -3202.1389   -1526.6686    2281.7719    82.122761 
   78000    390.46825   -108.60288   0.35330388   -108.24958    6753.0007    4.3333791    4.3333791    4.3333791    6753.0007    149.77166     16744.31    3364.9208    1613.8158   -2758.4196   -1679.5131    81.372947 
   78100    324.64132   -108.54473   0.29374229   -108.25099   -8573.0654    4.3464784    4.3464784    4.3464784   -8573.0654   -13292.021    1218.7232   -13645.898   -3067.4975    1880.2568   -243.04208    82.113125 
   78200    250.93417   -108.47569   0.22705051   -108.24864    3304.6384    4.3361319    4.3361319    4.3361319    3304.6384   -8832.8508    19029.823   -283.05703   -3655.6141     181.9429    1742.5813    81.528122 
   78300    412.80898   -108.61944   0.37351824   -108.24592   -6446.0504    4.3435625    4.3435625    4.3435625   -6446.0504   -9902.5555    2381.2629   -11816.859    3210.4253    1167.5137   -1210.4821    81.947973 
   78400    216.54571   -108.44335   0.19593511   -108.24741    2581.4307    4.3386239    4.3386239    4.3386239    2581.4307   -3836.7682    7553.2311    4027.8292   -8421.8323   -1445.1243    1712.5618    81.668767 
   78500    226.41003   -108.45247   0.20486056   -108.24761    1871.4606    4.3414469    4.3414469    4.3414469    1871.4606   -8836.2734    17599.431   -3148.7757   -2479.6821   -933.62053   -2027.4712    81.828289 
   78600    394.07948    -108.6043   0.35657139   -108.24773   -100.09663    4.3391928    4.3391928    4.3391928   -100.09663    -4280.888    4226.4507   -245.85255    1523.4003    188.19884    4432.7606      81.7009 
   78700    304.71819   -108.52772   0.27571543     -108.252   -7081.3669    4.3411879    4.3411879    4.3411879   -7081.3669   -17528.383    5175.5937   -8891.3118   -7074.8831    1472.2387    1939.6558    81.813647 
   78800     244.8015     -108.474   0.22150154    -108.2525    6949.2094    4.3395818    4.3395818    4.3395818    6949.2094   -5581.5895    35099.749   -8670.5308    537.06033    2733.5858   -466.35611    81.722876 
   78900    436.00049   -108.64532   0.39450241   -108.25082   -9042.8587    4.3412654    4.3412654    4.3412654   -9042.8587   -10280.133   -10630.451   -6217.9926   -3122.5051   -1347.8588    6.9943483    81.818031 
   79000    132.45861   -108.37183   0.11985133   -108.25197    7887.4194    4.3393946    4.3393946    4.3393946    7887.4194   -913.51157    28430.078   -3854.3076   -4837.8424   -51.194013    65.313857    81.712298 
   79100    345.41964   -108.56292   0.31254295   -108.25038    2305.3451    4.3399782    4.3399782    4.3399782    2305.3451   -6800.2622    14521.677   -805.37946    6385.7617   -3191.2953    1020.0011     81.74527 
   79200     327.9069   -108.54985   0.29669706   -108.25315   -6770.2798    4.3412767    4.3412767    4.3412767   -6770.2798    -9621.063   -2884.0905   -7805.6859   -5213.5396    866.52105    4317.3686    81.818665 
   79300    274.62712   -108.50093   0.24848839   -108.25244    798.94459    4.3376548    4.3376548    4.3376548    798.94459    -9884.282    17110.978   -4829.8621   -3024.2314    1213.1063   -1807.8537    81.614055 
   79400    351.32321   -108.56823   0.31788462   -108.25034   -3274.0773    4.3442483    4.3442483    4.3442483   -3274.0773   -7247.2571    9746.9165   -12321.891    1575.3116    690.84721     1388.852    81.986797 
   79500    262.74353   -108.48698   0.23773586   -108.24924    694.76898    4.3358839    4.3358839    4.3358839    694.76898   -2572.6855    8994.5882   -4337.5958   -5138.4912   -187.45389    3177.4314    81.514135 
   79600    267.64336   -108.48971   0.24216934   -108.24754   -1086.1874     4.345484     4.345484     4.345484   -1086.1874   -10010.723    13620.962   -6868.8005   -590.91294   -1183.0255   -820.58803    82.056781 
   79700    317.18076   -108.53306   0.28699181   -108.24606    6029.8544      4.33552      4.33552      4.33552    6029.8544    623.66855    17095.881    370.01355    -2238.322    337.78059   -1251.5429    81.493617 
   79800    321.23906   -108.53875   0.29066385   -108.24809   -9765.0396    4.3448946    4.3448946    4.3448946   -9765.0396   -18862.237    1375.2877    -11808.17   -3652.5144    1746.1618   -205.64866    82.023397 
   79900    260.46918   -108.48431   0.23567799   -108.24863    11522.035    4.3369078    4.3369078    4.3369078    11522.035    4145.0268    34828.648   -4407.5706    1864.0751    1867.2184    1877.6395    81.571898 
   80000    392.11592   -108.60532   0.35479473   -108.25053    -8632.733    4.3417641    4.3417641    4.3417641    -8632.733   -9297.7872    -2229.536   -14370.876   -2541.8571    278.72479    1248.2373    81.846229 
   80100     197.4773   -108.43051   0.17868161   -108.25183    4995.6016    4.3410184    4.3410184    4.3410184    4995.6016   -496.83762    24291.367   -8807.7242   -3809.4161   -1872.8287    4116.0204    81.804067 
   80200    345.59904   -108.56248   0.31270527   -108.24977     3006.844    4.3380914    4.3380914    4.3380914     3006.844   -6262.1092    15940.259   -657.61786    3175.9165   -1566.4575   -2439.4486      81.6387 
   80300    310.24768   -108.53252   0.28071862    -108.2518   -6648.0607    4.3428282    4.3428282    4.3428282   -6648.0607   -10593.382   -438.03673   -8912.7631   -4934.5203   -321.42948    2926.0258    81.906422 
   80400    270.96331   -108.49616    0.2451733   -108.25099    4464.7375    4.3379221    4.3379221    4.3379221    4464.7375   -3241.2946    18057.581   -1422.0734    1722.6948    932.56145   -15.998291    81.629146 
   80500    309.96713   -108.53042   0.28046477   -108.24995   -864.03302    4.3419451    4.3419451    4.3419451   -864.03302   -2787.7085    11043.174   -10847.565   -2047.7174    1331.0275    133.18916    81.856462 
   80600    284.72374   -108.50722   0.25762402   -108.24959    -5005.747     4.339564     4.339564     4.339564    -5005.747    401.62749   -3745.9008   -11672.968   -3780.4224   -719.69163    1323.0028    81.721869 
   80700    320.44235    -108.5377   0.28994297   -108.24776     1112.856     4.340459     4.340459     4.340459     1112.856   -7928.3407    15300.747   -4033.8379    2675.8869   -403.97602    466.78306    81.772444 
   80800    284.30773   -108.50604   0.25724761   -108.24879   -2715.6506    4.3412709    4.3412709    4.3412709   -2715.6506   -6845.7892    4841.9705   -6143.1332   -2942.9788    -1535.068    3939.0003    81.818337 
   80900    326.35476    -108.5443   0.29529264   -108.24901   -4219.6784    4.3383886    4.3383886    4.3383886   -4219.6784   -10662.133   -3042.9247    1046.0223   -5032.6579    3073.9785    2160.3173    81.655481 
   81000    256.86777    -108.4811   0.23241936   -108.24868      4213.41    4.3441473    4.3441473    4.3441473      4213.41   -1258.4675    20338.298    -6439.601    2862.3513    1184.8346   -528.39882    81.981077 
   81100    346.54449    -108.5619   0.31356074   -108.24834    -3527.343    4.3360504    4.3360504    4.3360504    -3527.343   -93.594739   -3960.2678   -6528.1664   -4329.3872    1901.7811    1446.7116    81.523526 
   81200    234.34254   -108.46018   0.21203805   -108.24814    1168.7838     4.344648     4.344648     4.344648    1168.7838   -6171.2142    18377.699   -8700.1333   -691.93164   -1545.3064    808.43106     82.00943 
   81300     385.9953   -108.59519   0.34925666   -108.24593    1319.5912    4.3375562    4.3375562    4.3375562    1319.5912   -3730.5394    11760.241   -4070.9278    2540.9768   -2299.1878    -1479.228    81.608491 
   81400    272.74313   -108.49418   0.24678372   -108.24739   -2300.4546    4.3412815    4.3412815    4.3412815   -2300.4546   -12486.752    6418.3024   -832.91447   -6117.9337    643.79373    2204.8146     81.81894 
   81500     247.3986   -108.47064   0.22385145   -108.24679    5253.2181    4.3420392    4.3420392    4.3420392    5253.2181    -1846.235    20981.131   -3375.2415    4165.9046    1410.0807   -1939.2849    81.861786 
   81600    372.77633   -108.58391   0.33729586   -108.24661     184.1316    4.3364746    4.3364746    4.3364746     184.1316    -353.1956    1658.9528   -753.36241   -1950.4865    2290.0769    4817.7966    81.547455 
   81700    215.58955   -108.44442   0.19506996   -108.24935   -2369.7459     4.345076     4.345076     4.345076   -2369.7459   -5710.5121    11427.718   -12826.444   -3842.1554   -912.69276    629.04024    82.033669 
   81800    367.19173   -108.58013   0.33224279   -108.24789    2766.9488    4.3360122    4.3360122    4.3360122    2766.9488   -5647.2684    14170.413   -222.29794    1192.4068    953.41326    2544.6557    81.521375 
   81900    336.78302   -108.55384   0.30472835   -108.24911   -7786.1647     4.343514     4.343514     4.343514   -7786.1647   -11873.769   -2791.4657   -8693.2597   -769.95968   -1400.1815    -1582.566    81.945227 
   82000    199.13061   -108.42982   0.18017756   -108.24964    3776.8699    4.3392797    4.3392797    4.3392797    3776.8699   -7064.5282    17917.891    477.24697   -3419.1247    4132.6767    1028.5996    81.705811 
   82100    351.89574   -108.56676   0.31840266   -108.24835    131.60249    4.3391187    4.3391187    4.3391187    131.60249    1690.3936   -1286.5252   -9.0609216    3472.2692    403.48722   -2443.3378    81.696716 
   82200    285.66372    -108.5091   0.25847453   -108.25062   -5237.3171    4.3426976    4.3426976    4.3426976   -5237.3171   -9264.5708    5637.3633   -12084.744   -7479.9487    1753.5239    5565.0286     81.89903 
   82300    255.75223   -108.48064   0.23140999   -108.24923    5457.2781    4.3383562    4.3383562    4.3383562    5457.2781   -2353.2956    16747.756    1977.3738    908.52668   -1906.2288   -3185.0464    81.653653 
   82400    443.83316   -108.64829   0.40158957    -108.2467   -8701.1988    4.3419422    4.3419422    4.3419422   -8701.1988   -11676.901   -2039.7112   -12386.984    1432.6497   -807.61463     2540.079      81.8563 
   82500    169.26453   -108.40121    0.1531541   -108.24806    3962.3003     4.340319     4.340319     4.340319    3962.3003   -5196.5791     9621.533    7461.9468   -5800.0197    1377.5774    1642.6924    81.764531 
   82600    322.17332   -108.53708   0.29150919   -108.24557    2879.8429    4.3396702    4.3396702    4.3396702    2879.8429    2878.5882    11139.499   -5378.5588    211.09704    568.64521    644.59984     81.72787 
   82700    346.70129   -108.56036   0.31370261   -108.24666   -4996.3926    4.3415698    4.3415698    4.3415698   -4996.3926   -7541.6249   -5421.6532   -2025.8997   -1888.8596     1653.917     755.5201    81.835243 
   82800    185.14871   -108.41619   0.16752644   -108.24866    6452.1115    4.3398348    4.3398348    4.3398348    6452.1115   -40.204917    22115.036   -2718.4965    -2985.606   -1486.9218   -1691.7434     81.73717 
   82900    490.36095   -108.69182    0.4436889   -108.24813   -7512.2755    4.3398028    4.3398028    4.3398028   -7512.2755   -12251.696   -2820.1462   -7464.9845    2575.3502    714.74756     193.4847    81.735363 
   83000    150.44742   -108.38803   0.13612799    -108.2519    4525.4418    4.3417129    4.3417129    4.3417129    4525.4418    1070.1316    10760.169    1746.0243   -4283.6143    786.29421   -723.91623    81.843336 
   83100    337.96927   -108.55544    0.3058017   -108.24964   -706.54783    4.3386539    4.3386539    4.3386539   -706.54783   -2304.4791     3861.328   -3676.4925   -1424.9337    3595.8479    2915.7757    81.670464 
   83200    339.10578   -108.55614   0.30683004   -108.24931   -1593.7913     4.341445     4.341445     4.341445   -1593.7913   -1316.9171   -4600.5637    1136.1069    2403.2364    -842.9573   -2450.1781    81.828186 
   83300    221.89715   -108.45177   0.20077721   -108.25099    714.05594    4.3395841    4.3395841    4.3395841    714.05594   -7741.9779    15844.755   -5960.6091   -4478.5985    581.36009    2946.4438    81.723003 
   83400    389.13079   -108.60175   0.35209372   -108.24965   -1770.0263     4.340445     4.340445     4.340445   -1770.0263   -7392.9105    2729.3705   -646.53873    544.29711   -2503.4494    569.53308    81.771653 
   83500    293.58843   -108.51483   0.26564498   -108.24918   -196.99858     4.341327     4.341327     4.341327   -196.99858    -568.6148    2152.3244   -2174.7053   -999.37057    746.33934    2135.7914    81.821513 
   83600    220.69589   -108.44782   0.19969028   -108.24813    3646.0764    4.3391045    4.3391045    4.3391045    3646.0764    33.827506    8900.2852    2004.1166   -2847.2221    1177.6063   -652.19487     81.69591 
   83700    341.64899   -108.55439   0.30913119   -108.24526    1950.6335    4.3414759    4.3414759    4.3414759    1950.6335     1005.623    2624.6407    2221.6367    5152.1982    477.87341   -59.382309    81.829933 
   83800    320.82808   -108.53658   0.29029198   -108.24629   -3507.0785    4.3400882    4.3400882    4.3400882   -3507.0785   -10270.002    7276.8738   -7528.1072   -5257.7414   -255.19069    1726.5414     81.75149 
   83900    243.02641    -108.4678    0.2198954   -108.24791    4721.5527    4.3398402    4.3398402    4.3398402    4721.5527   -3406.4617    14828.506    2742.6134   -976.87858   -1142.5216    2855.4807    81.737474 
   84000    461.42356   -108.66522   0.41750573   -108.24772   -7492.9181    4.3414759    4.3414759    4.3414759   -7492.9181   -7260.9069   -6464.3206   -8753.5267    2790.5773    2638.6309   -1450.5549    81.829928 
   84100     72.50425   -108.31764  0.065603369   -108.25203    11249.022    4.3382653    4.3382653    4.3382653    11249.022    6182.4015    21975.683    5588.9822    -4749.512    1489.6976    6176.8476    81.648521 
   84200    439.73207   -108.64651   0.39787882   -108.24863   -9323.4545    4.3430142    4.3430142    4.3430142   -9323.4545   -7405.1476   -12747.407    -7817.809   -1050.2131     2762.326   -630.14898    81.916946 
   84300    249.54031   -108.47505   0.22578932   -108.24927    4387.4668    4.3375268    4.3375268    4.3375268    4387.4668   -5016.1597    17826.945    351.61499    1729.7011   -2796.2606    2780.2307    81.606828 
   84400    298.15799   -108.51899   0.26977961   -108.24921   -8514.0307    4.3438931    4.3438931    4.3438931   -8514.0307   -14173.827   -3110.2926   -8257.9726   -6306.5085    550.02062    817.35389    81.966689 
   84500    380.16056   -108.59185   0.34397726   -108.24787    780.01547    4.3365174    4.3365174    4.3365174    780.01547   -4093.5546     4669.895     1763.706    6739.8609   -2299.3009   -2928.5017    81.549873 
   84600    192.83841   -108.42435   0.17448425   -108.24987   -1880.6028    4.3445771    4.3445771    4.3445771   -1880.6028    -2485.451    285.11828   -3441.4758   -4183.3102    2178.7983    3837.3221    82.005413 
   84700    314.01838   -108.53254   0.28413043   -108.24841    483.36387    4.3364519    4.3364519    4.3364519    483.36387   -3516.4237    6556.5699   -1590.0546   -3363.0618   -590.57607    981.99534    81.546178 
   84800    360.58481   -108.57264   0.32626471   -108.24637   -4861.9365    4.3443269    4.3443269    4.3443269   -4861.9365   -7872.0923    308.19228   -7021.9096    2283.8441   -782.73017    1747.0436    81.991245 
   84900    240.34494   -108.46459   0.21746915   -108.24712    255.78238    4.3377052    4.3377052    4.3377052    255.78238   -10743.336    14358.881   -2848.1985   -4414.4013    47.332463    2481.4181    81.616901 
   85000    368.25116   -108.58019   0.33320138   -108.24699   -3185.0749    4.3417297    4.3417297    4.3417297   -3185.0749   -6059.3131   -2324.1402   -1171.7715   -1139.6411    1371.4126    849.34605    81.844282 
   85100    286.67331    -108.5082   0.25938804   -108.24881    572.17788    4.3410747    4.3410747    4.3410747    572.17788   -5475.6433    12349.276   -5157.0986   -1187.4735    3087.6755    2608.5357    81.807249 
   85200    192.91532   -108.42512   0.17455384   -108.25057    6167.4903    4.3370608    4.3370608    4.3370608    6167.4903    5186.1878    13095.316    220.96683   -4279.4335    857.87459    430.77541    81.580532 
   85300    427.09383   -108.63436   0.38644347   -108.24791   -8415.4939    4.3460913    4.3460913    4.3460913   -8415.4939   -14932.544    499.17314   -10813.111    2335.9913    817.79374   -1591.6083    82.091185 
   85400    251.26845   -108.47529   0.22735298   -108.24793    6683.1385    4.3332813    4.3332813    4.3332813    6683.1385     2409.056     19932.16   -2291.8006   -1682.8046   -1988.6448    2546.5463    81.367438 
   85500    305.69628   -108.52399   0.27660042   -108.24739   -7812.2311    4.3477417    4.3477417    4.3477417   -7812.2311   -16763.718   -270.49899   -6402.4763    -2872.689    1058.8125    890.10546    82.184745 
   85600     356.3398   -108.56765   0.32242374   -108.24522    4609.8242    4.3349373    4.3349373    4.3349373    4609.8242     4966.226    11364.835    -2501.588     2913.652   -881.86578    1160.7167    81.460763 
   85700    166.96001   -108.39877   0.15106892    -108.2477    1585.0132    4.3431441    4.3431441    4.3431441    1585.0132   -3569.0709    11186.378    -2862.267   -3465.2688    1517.2256    4522.1018    81.924296 
   85800    394.64277   -108.60309   0.35708107   -108.24601   -4231.3093    4.3406315    4.3406315    4.3406315   -4231.3093   -6407.5768    1045.1404   -7331.4916    -451.4486   -614.42035    537.88027    81.782191 
   85900    322.25667   -108.53832   0.29158461   -108.24673    1432.0264    4.3382513    4.3382513    4.3382513    1432.0264   -5074.0568    12628.026   -3257.8897    4401.1049   -808.70908    1479.3231    81.647732 
   86000    214.85659   -108.44361   0.19440676   -108.24921   -2704.8505    4.3430174    4.3430174    4.3430174   -2704.8505    -13272.98    13134.414   -7975.9863   -5570.6367    1252.6257    2815.9811    81.917124 
   86100    443.18147   -108.64885   0.40099991   -108.24785   -2558.0616    4.3384011    4.3384011    4.3384011   -2558.0616    932.35726   -5248.7044   -3357.8377    507.39508    1260.1543   -401.74203    81.656191 
   86200    155.99611   -108.39245   0.14114856    -108.2513    6565.8012    4.3410669    4.3410669    4.3410669    6565.8012   -3625.6918    23125.461     197.6339    244.18056    3937.1506    1551.0147    81.806804 
   86300    320.00082   -108.53938   0.28954346   -108.24984   -2130.8396    4.3394174    4.3394174    4.3394174   -2130.8396    220.50095    242.57535    -6855.595   -2208.8726     2601.017     -604.568     81.71359 
   86400    340.33678   -108.55518   0.30794387   -108.24723    2276.8924    4.3418176    4.3418176    4.3418176    2276.8924   -8040.8736    17370.922   -2499.3708    1560.6972   -398.77579    307.67424    81.849252 
   86500    286.49465   -108.50611   0.25922638   -108.24688   -4079.0663    4.3396678    4.3396678    4.3396678   -4079.0663   -5174.8106    1659.9472   -8722.3354    -3614.131    704.74096    3149.5737    81.727736 
   86600    319.13444   -108.53518   0.28875955   -108.24642   -387.07732    4.3415496    4.3415496    4.3415496   -387.07732   -3023.1725    9438.1469   -7576.2063    -2257.372   -820.52725    907.60836    81.834095 
   86700     317.1995   -108.53301   0.28700877     -108.246    2728.3279    4.3391451    4.3391451    4.3391451    2728.3279    267.86616    6725.7553    1191.3623    4587.8913    1260.8809   -1128.5797    81.698207 
   86800    212.34695   -108.44083   0.19213598    -108.2487   -1284.3172    4.3411334    4.3411334    4.3411334   -1284.3172    -1377.976    9488.5564   -11963.532   -4628.1091     451.8123    6326.0898    81.810566 
   86900    402.36523   -108.61066   0.36406852    -108.2466   -2826.7435    4.3405574    4.3405574    4.3405574   -2826.7435   -8035.3941   -2154.1208    1709.2844    835.27533   -544.29908   -1924.8624    81.778005 
   87000    240.65176   -108.46535   0.21774677   -108.24761     299.7999    4.3397607    4.3397607    4.3397607     299.7999   -1705.1599    14957.571   -12353.011    510.50968    878.43412    4517.1881    81.732981 
   87100    348.92547   -108.56353    0.3157151   -108.24781   -9296.2883    4.3425208    4.3425208    4.3425208   -9296.2883   -10147.445   -10687.298   -7054.1219   -2321.0285   -736.33252    2619.1231    81.889027 
   87200    291.14755    -108.5113   0.26343642   -108.24787    6100.1681    4.3375962    4.3375962    4.3375962    6100.1681    8728.5023    13834.949   -4262.9469    2568.1084    4828.2146   -2920.9003    81.610749 
   87300    235.90253   -108.46441   0.21344957   -108.25096   -3631.3567    4.3436618    4.3436618    4.3436618   -3631.3567   -6268.5703    744.62963   -5370.1295   -2825.5999    1281.7399    4125.9426    81.953594 
   87400    329.90171   -108.54828     0.298502   -108.24977    1306.1533    4.3367621    4.3367621    4.3367621    1306.1533     772.6751    452.13792     2693.647   -6585.1175    4817.2337    1845.0071    81.563676 
   87500     302.2499   -108.52184   0.27348206   -108.24836    92.719377    4.3440932    4.3440932    4.3440932    92.719377   -7940.4746    14107.712   -5889.0792    2755.9866   -1945.7782   -118.80345    81.978018 
   87600    297.27882    -108.5161   0.26898412   -108.24712   -2710.9914    4.3381527    4.3381527    4.3381527   -2710.9914   -5030.3426     1162.131   -4264.7627   -4384.3358    273.98792    3055.6503    81.642163 
   87700    337.92123   -108.55141   0.30575823   -108.24565    704.67915    4.3417824    4.3417824    4.3417824    704.67915    2283.4767     7465.673   -7635.1122   -1090.4838    -366.1108   -2099.0507    81.847262 
   87800    297.03173   -108.51516   0.26876055    -108.2464    2645.4618    4.3394684    4.3394684    4.3394684    2645.4618   -4693.7927    13483.024   -852.84612   -334.28005   -170.49291    3345.4225     81.71647 
   87900     219.6521   -108.44774   0.19874584   -108.24899    1544.9763     4.340347     4.340347     4.340347    1544.9763    1585.0255    6354.6731   -3304.7698   -2645.6463    2469.7688    4189.9325    81.766113 
   88000    410.92297   -108.61888   0.37181174   -108.24706   -1886.0465    4.3416641    4.3416641    4.3416641   -1886.0465   -11358.806    5158.6473    542.01937    1134.4953   -3449.7956   -2729.1529    81.840574 
   88100    230.61673   -108.45765   0.20866687   -108.24898    3124.7405    4.3373793    4.3373793    4.3373793    3124.7405    3110.2097    12120.532   -5856.5201   -78.962792    2406.0644    6721.9441    81.598505 
   88200    368.50631   -108.58152   0.33343226   -108.24809   -8856.5001    4.3450931    4.3450931    4.3450931   -8856.5001   -8032.8869   -8690.1004    -9846.513   -2501.4577   -1686.6076   -390.75559    82.034638 
   88300    253.33169   -108.47736   0.22921984   -108.24814    9266.9229    4.3348113    4.3348113    4.3348113    9266.9229    3600.0516     23591.88    608.83663   -855.66717    4538.9981    3807.1785    81.453658 
   88400    264.79633   -108.49029   0.23959328    -108.2507   -7949.0174    4.3457372    4.3457372    4.3457372   -7949.0174   -4059.0836   -15469.827   -4318.1413   -1024.4063    2106.8336    4372.7503    82.071125 
   88500    336.94597   -108.55375   0.30487579   -108.24887    3752.0241    4.3359144    4.3359144    4.3359144    3752.0241   -6873.9486    11593.118    6536.9034   -1267.9915    1577.8366   -3852.7406    81.515859 
   88600    277.47467   -108.49965   0.25106491   -108.24858   -129.72246    4.3430665    4.3430665    4.3430665   -129.72246    1280.1345     4444.867    -6114.169     98.82116    498.08733    873.93545    81.919905 
   88700    321.77686   -108.53835   0.29115047    -108.2472   -4187.4182    4.3402297    4.3402297    4.3402297   -4187.4182   -9213.4692    3830.9847   -7179.7702   -4084.0327   -1348.4302    3843.2714    81.759483 
   88800    348.13717    -108.5601   0.31500183    -108.2451    3690.4125    4.3389863    4.3389863    4.3389863    3690.4125    3291.7288    7366.3235    413.18535   -154.51032    826.87757   -2914.7109    81.689234 
   88900    185.12105   -108.41442   0.16750142   -108.24692    4373.9026    4.3425623    4.3425623    4.3425623    4373.9026   -4247.6934    18209.782   -840.38063    170.36899    360.75595    2236.6639    81.891374 
   89000    370.94649   -108.58349   0.33564018   -108.24785    -1862.284    4.3377059    4.3377059    4.3377059    -1862.284   -4916.6517   -2889.1008    2218.9004   -3525.5638    391.92983    2333.5676    81.616941 
   89100     271.3214   -108.49454   0.24549731   -108.24905    5049.1235    4.3422289    4.3422289    4.3422289    5049.1235   -1627.9518     20354.62   -3579.2974    1193.5173   -901.86954   -422.19722    81.872515 
   89200    336.01879   -108.55423   0.30403686   -108.25019   -3990.6341    4.3382669    4.3382669    4.3382669   -3990.6341   -7782.0791    4109.4902   -8299.3133    -317.9239   -68.093176    5898.5794    81.648612 
   89300     305.0699   -108.52577   0.27603365   -108.24974    641.31724    4.3419112    4.3419112    4.3419112    641.31724   -3000.8867    7862.6938   -2937.8553   -693.38062    1236.1169   -1827.3141    81.854547 
   89400    288.74023    -108.5096   0.26125823   -108.24834    1711.9638     4.340187     4.340187     4.340187    1711.9638   -2437.6025    5168.6872    2404.8067     1569.404    2463.4741   -114.14674    81.757074 
   89500    259.85097    -108.4842   0.23511862   -108.24908    -2035.603     4.339913     4.339913     4.339913    -2035.603   -5181.0764    1670.9967   -2596.7294    -1112.018    2763.1505    6786.4039    81.741587 
   89600    316.59047   -108.53352   0.28645771   -108.24706   -674.83122      4.34142      4.34142      4.34142   -674.83122   -820.21046    4166.2363   -5370.5195   -2855.8488      476.124   -2234.5743    81.826772 
   89700    324.48844   -108.54088   0.29360396   -108.24727   -3793.0468    4.3403818    4.3403818    4.3403818   -3793.0468   -6900.0851    7370.6972   -11849.753    659.07142   -672.65553    3185.4423     81.76808 
   89800    303.50186    -108.5215   0.27461486   -108.24688   -3552.1935     4.341055     4.341055     4.341055   -3552.1935   -3532.4589   -2253.4069   -4870.7146    -3755.056    657.15293     2463.605    81.806134 
   89900    295.19062   -108.51255   0.26709467   -108.24545    3201.5779    4.3402759    4.3402759    4.3402759    3201.5779   -3879.9906     12666.54    818.18382   -252.04509   -948.75916   -3319.8245    81.762094 
   90000    247.20193   -108.47072    0.2236735   -108.24704    20.498123    4.3406928    4.3406928    4.3406928    20.498123   -6371.3789     5523.864     909.0092   -2819.6759    2120.5738    7693.8974    81.785659 
   90100    376.32771   -108.58893   0.34050922   -108.24842   -3761.2708    4.3392862    4.3392862    4.3392862   -3761.2708    -2516.765   -2353.0391   -6414.0082   -1261.2434   -2344.4755   -1272.8064    81.706175 
   90200     292.7627   -108.51559   0.26489785   -108.25069    1960.1601    4.3421853    4.3421853    4.3421853    1960.1601   -9303.6461    25789.353   -10605.227    2568.0102    129.87626   -2324.8426    81.870049 
   90300    298.56629   -108.52207   0.27014905   -108.25192   -3080.3533    4.3386408    4.3386408    4.3386408   -3080.3533    367.34093   -4732.5252   -4875.8755   -1773.0527   -440.02067    7733.5074    81.669724 
   90400    311.50126    -108.5318   0.28185289   -108.24995    2082.5853     4.341376     4.341376     4.341376    2082.5853   -9924.7703    17329.895   -1157.3688    920.16868     1788.176   -243.48323    81.824284 
   90500    257.68252    -108.4811   0.23315656   -108.24794    1246.1191    4.3407267    4.3407267    4.3407267    1246.1191    1709.5617   -2163.6288    4192.4245   -493.74247    2201.2308    2898.6505    81.787574 
   90600    295.01687   -108.51409   0.26693747   -108.24715   -2587.8738    4.3395028    4.3395028    4.3395028   -2587.8738   -5161.5993    6895.4784   -9497.5004   -579.16548    711.28251    3664.2873    81.718414 
   90700    374.44102   -108.58413   0.33880211   -108.24533   -3744.1424    4.3430783    4.3430783    4.3430783   -3744.1424   -7024.3719    3000.8816   -7208.9369   -315.74564   -192.17244   -3412.9294    81.920571 
   90800      253.907   -108.47674   0.22974039     -108.247   -1281.4962    4.3378943    4.3378943    4.3378943   -1281.4962    282.42716    6211.0264   -10337.942   -563.62526   -721.59424    6458.8642    81.627573 
   90900    328.83053   -108.54415   0.29753277   -108.24662   -5594.8513    4.3434951    4.3434951    4.3434951   -5594.8513   -13188.623   -6029.9577    2434.0266    -2074.906    1191.7431     1232.822    81.944162 
   91000    222.78697   -108.44823   0.20158233   -108.24665    5557.1945    4.3385861    4.3385861    4.3385861    5557.1945    4583.3768    12411.793   -323.58647   -375.06768   -581.66314   -2662.0834    81.666636 
   91100    361.94087   -108.57501    0.3274917   -108.24752   -9629.8705    4.3412535    4.3412535    4.3412535   -9629.8705   -10952.502   -9568.5984   -8368.5114    212.17422    1904.0443    5524.2966    81.817356 
   91200    267.74652   -108.49065   0.24226268   -108.24839    2422.0724    4.3412988    4.3412988    4.3412988    2422.0724   -3390.8042    17863.921    -7206.899   -2138.9267   -3034.1212   -1038.0884    81.819919 
   91300    369.00394   -108.58361   0.33388252   -108.24973   -2239.4581    4.3386407    4.3386407    4.3386407   -2239.4581   -7582.4648     4895.582   -4031.4915   -320.18548     721.0672      2401.88    81.669717 
   91400    245.29365   -108.47403   0.22194685   -108.25208   -1520.7654    4.3416358    4.3416358    4.3416358   -1520.7654    -7886.442   -569.15597    3893.3018     -2392.12    704.92223    3690.8112    81.838971 
   91500     313.0033   -108.53269   0.28321196   -108.24948    4459.2272    4.3394368    4.3394368    4.3394368    4459.2272   -3408.8963    17476.267   -689.68863    3104.0628    1970.8431   -4259.1428    81.714683 
   91600     279.1297   -108.50085   0.25256242   -108.24829   -1855.6101    4.3416974    4.3416974    4.3416974   -1855.6101   -7516.2121    5865.6281   -3916.2465   -1980.1996    1626.9837    5422.8075    81.842456 
   91700     340.0416   -108.55433   0.30767678   -108.24666   -1370.2491     4.339035     4.339035     4.339035   -1370.2491   -3723.9548    8726.8654   -9113.6579    2363.9797   -1138.0481    3459.0937    81.691988 
   91800    317.43056   -108.53327   0.28721784   -108.24606    1022.5558    4.3427884    4.3427884    4.3427884    1022.5558   -10866.609    12215.107    1719.1692   -2253.6728    590.54195   -5058.5706    81.904168 
   91900    225.08682   -108.45235   0.20366328   -108.24869    550.85408    4.3375177    4.3375177    4.3375177    550.85408   -5259.8417    5353.5019     1558.902    3729.1554   -11.253406    7577.4554    81.606316 
   92000     351.6407   -108.56636   0.31817189   -108.24819   -4369.7723    4.3434753    4.3434753    4.3434753   -4369.7723   -9298.0414    490.18277   -4301.4583    -2647.452    2098.5021   -333.17047    81.943037 
   92100    279.23171   -108.50161   0.25265472   -108.24896     2001.943    4.3381415    4.3381415    4.3381415     2001.943   -5165.4327    13813.413   -2642.1511    2263.2676    39.144124    205.24626    81.641533 
   92200    337.97989   -108.55482   0.30581131   -108.24901   -8265.7819    4.3418426    4.3418426    4.3418426   -8265.7819   -5557.9059    -7297.141   -11942.299   -1007.5952   -481.99889    7784.2833    81.850668 
   92300    251.34012   -108.47569   0.22741782   -108.24827    5730.1943      4.34082      4.34082      4.34082    5730.1943   -9452.0737    18937.531    7705.1253   -258.22522   -537.95891   -5217.2419    81.792851 
   92400    340.48801    -108.5565   0.30808071   -108.24842   -3832.6221    4.3385328    4.3385328    4.3385328   -3832.6221   -3603.8427   -5309.2349   -2584.7887    1936.8605    439.28327    4819.9283    81.663627 
   92500    229.67421   -108.45717   0.20781405   -108.24935    160.76487     4.343615     4.343615     4.343615    160.76487   -9140.5786    14243.723   -4620.8501   -1796.2796    1992.9336    4276.2437    81.950945 
   92600    402.96647   -108.61156   0.36461253   -108.24694    2384.5229    4.3365054    4.3365054    4.3365054    2384.5229    374.45929    11489.102   -4709.9923    2019.8219    111.42955    -4080.347    81.549193 
   92700    222.45685   -108.44957   0.20128363   -108.24828   -3103.4993    4.3448673    4.3448673    4.3448673   -3103.4993    -5644.085    4088.2625   -7754.6754   -3600.0517    193.88869    4632.6908    82.021849 
   92800    338.75858   -108.55208   0.30651588   -108.24557    4650.8216    4.3371059    4.3371059    4.3371059    4650.8216   -2941.9129    11741.485    5152.8924    3832.5696   -1884.4322    2515.1051    81.583079 
   92900    230.71075   -108.45546   0.20875194   -108.24671    4205.9512     4.342201     4.342201     4.342201    4205.9512    -5737.735    18351.676    3.9121973   -3089.2635   -593.19344     739.9294    81.870938 
   93000    379.25926   -108.59231   0.34316174   -108.24915   -8583.0943    4.3394631    4.3394631    4.3394631   -8583.0943   -8486.9942   -11413.861   -5848.4275    57.723796    2073.3534    6320.6328    81.716168 
   93100    299.54408    -108.5218   0.27103378   -108.25076    4447.9833    4.3403709    4.3403709    4.3403709    4447.9833   -489.07555    21408.779   -7575.7538   -1010.7356   -41.116595   -2075.2323    81.767466 
   93200    277.34079   -108.50316   0.25094377   -108.25221   -4805.2436    4.3416978    4.3416978    4.3416978   -4805.2436   -6063.2228   -3095.4139   -5257.0941    978.72529    187.55341     2793.694    81.842478 
   93300    268.48584   -108.49386   0.24293163   -108.25093    2076.0066    4.3372193    4.3372193    4.3372193    2076.0066    3463.5409    5059.0953   -2294.6164   -1519.9083   -2050.3563    5813.7031    81.589475 
   93400    316.80982   -108.53426   0.28665618   -108.24761   -3305.5219    4.3454051    4.3454051    4.3454051   -3305.5219   -8709.8756   -347.89924   -858.79093   -391.13444    1596.1248   -4693.8125    82.052308 
   93500    298.30666   -108.51714   0.26991414   -108.24722   -936.18072     4.334927     4.334927     4.334927   -936.18072   -1847.3348    6003.9633   -6965.1707   -1811.5036    497.26348    3702.4367    81.460181 
   93600    319.26593   -108.53517   0.28887852   -108.24629   -5809.0425    4.3473378    4.3473378    4.3473378   -5809.0425   -7760.2485    346.90923   -10013.788    1648.9133    2370.2701    3376.4207    82.161839 
   93700    316.57015   -108.53213   0.28643933   -108.24569    4429.4954    4.3341502    4.3341502    4.3341502    4429.4954   -888.14561    14655.293   -478.66172   -711.18898   -1378.3891   -4121.4865    81.416394 
   93800    246.12369    -108.4707   0.22269789     -108.248   -3915.7563    4.3451045    4.3451045    4.3451045   -3915.7563   -4432.1566    -2791.357   -4523.7554   -416.09887    174.58467    7890.2167    82.035285 
   93900    285.99382   -108.50482   0.25877322   -108.24605    6293.0525    4.3386703    4.3386703    4.3386703    6293.0525   -59.310282    20293.275   -1354.8073    1607.1574   -1121.9577    -5013.717     81.67139 
   94000    354.30062   -108.56708   0.32057865    -108.2465   -2433.7163    4.3388755    4.3388755    4.3388755   -2433.7163   -7492.1375    7090.8909   -6899.9025   -1811.1206    873.09441    2175.2231    81.682978 
   94100    319.35894   -108.53711   0.28896268   -108.24815   -5570.0825    4.3444403    4.3444403    4.3444403   -5570.0825   -5683.4776   -1030.6481   -9996.1216    3498.8538    1841.4412    5805.9333    81.997669 
   94200    278.20948   -108.50094   0.25172978   -108.24921     9318.739     4.334926     4.334926     4.334926     9318.739   -4969.8293    28826.668    4099.3786   -867.35516   -1533.3041   -5038.0604    81.460121 
   94300    274.78998   -108.50025   0.24863575   -108.25161   -8017.1629    4.3457178    4.3457178    4.3457178   -8017.1629   -8569.0631    -9516.396   -5966.0294   -1143.3361    735.65059    3142.8641    82.070026 
   94400    275.38245   -108.49845   0.24917183   -108.24927    4916.8965    4.3360395    4.3360395    4.3360395    4916.8965    2345.4567      14033.1   -1627.8668   -1568.3697   -3150.7973    4391.4582    81.522915 
   94500    369.24923    -108.5807   0.33410447   -108.24659   -5655.7408    4.3438088    4.3438088    4.3438088   -5655.7408   -9498.5454    2002.8213   -9471.4982   -31.808838     3752.363   -2758.8894    81.961915 
   94600    216.78487   -108.44376    0.1961515   -108.24761    1054.6019    4.3385989    4.3385989    4.3385989    1054.6019   -1038.9106    6350.2722    -2147.556   -1351.6972    920.22779    8205.2644    81.667356 
   94700    404.66567   -108.61242   0.36615001   -108.24627   -3566.3735    4.3414946    4.3414946    4.3414946   -3566.3735   -12115.837    1830.5029   -413.78634   -873.73204    2315.8067   -2334.2105    81.830988 
   94800    192.41176   -108.42336    0.1740982   -108.24926    3773.8199    4.3404355    4.3404355    4.3404355    3773.8199    -4382.235     15426.25    277.44505   -1746.7035   -2638.4449    4263.5387    81.771115 
   94900    381.96584   -108.59474   0.34561072   -108.24913   -6627.4167    4.3395634    4.3395634    4.3395634   -6627.4167   -3495.6327   -5789.1835   -10597.434    1612.9128    167.15152    6948.7031    81.721837 
   95000     255.2374   -108.47979   0.23094417   -108.24885    5581.3176    4.3417465    4.3417465    4.3417465    5581.3176   -4377.7422    26089.022   -4967.3276   -500.73249   -187.38869   -2028.4219    81.845235 
   95100    322.62314   -108.54084   0.29191619   -108.24892    232.03119    4.3376243    4.3376243    4.3376243    232.03119    25.808227   -2160.6793    2830.9646    266.79254    946.93695    2331.3285    81.612336 
   95200    250.81352   -108.47581   0.22694135   -108.24887    2776.7419    4.3436924    4.3436924    4.3436924    2776.7419    -9456.076    22947.173   -5160.8708    389.98421    800.29768    5655.5539    81.955328 
   95300    348.35115   -108.56276   0.31519544   -108.24756    6686.9303    4.3359281    4.3359281    4.3359281    6686.9303   -2024.3942    11915.939    10169.246   -636.48914   -2141.3611   -4064.7504    81.516632 
   95400    314.42777   -108.53362   0.28450086   -108.24912   -6328.3483    4.3449305    4.3449305    4.3449305   -6328.3483   -8824.2227    6643.5502   -16804.372    1113.7396    608.15576    7488.6672     82.02543 
   95500    302.81049   -108.52204    0.2739893   -108.24805    7748.1423    4.3358628    4.3358628    4.3358628    7748.1423    2526.1329     11953.42    8764.8736    1426.5591   -1832.3881    -2145.713    81.512946 
   95600     289.6542    -108.5092   0.26208521   -108.24711   -920.86245    4.3448511    4.3448511    4.3448511   -920.86245   -6923.9416    11131.164   -6969.8095   -1450.4241    3379.7503    605.28632    82.020931 
   95700     251.4045   -108.47377   0.22747607   -108.24629    4222.8131    4.3366398    4.3366398    4.3366398    4222.8131    4055.0444    803.90931    7809.4856   -201.81484     1077.281    7131.4295    81.556779 
   95800    349.81551   -108.56192   0.31652043    -108.2454   -999.91284    4.3426637    4.3426637    4.3426637   -999.91284   -9569.8638    13452.326   -6882.2012    277.94413    1110.3685   -3474.2752    81.897116 
   95900    299.65309   -108.51948   0.27113241   -108.24835   -1199.4466    4.3394967    4.3394967    4.3394967   -1199.4466   -2954.9422    3140.6759   -3784.0735   -1045.8084    -1021.719    695.05554    81.718065 
   96000    345.38231   -108.56267   0.31250918   -108.25016   -4115.9101    4.3399222    4.3399222    4.3399222   -4115.9101   -7023.2636   -353.44493   -4971.0218   -939.55126    192.66664     7184.668    81.742109 
   96100    242.52045   -108.47059    0.2194376   -108.25116      4943.66    4.3421583    4.3421583    4.3421583      4943.66   -4465.2651    22875.968   -3579.7226   -2675.9033    1189.1399   -4206.8673    81.868522 
   96200    300.94308   -108.52285   0.27229962   -108.25055    775.87601    4.3362974    4.3362974    4.3362974    775.87601    4091.6885   -7370.4135    5606.3531    1693.4548    1213.5963    5006.1388    81.537459 
   96300    279.30301   -108.50171   0.25271924   -108.24899   -2305.0344    4.3460567    4.3460567    4.3460567   -2305.0344   -10094.794    19550.988   -16371.297   -506.97982   -965.99352    1276.8598    82.089226 
   96400    360.79185   -108.57331   0.32645205   -108.24686     4724.961     4.333705     4.333705     4.333705     4724.961    2583.4181    4645.6976    6945.7674    998.44522   -2511.8888   -3208.6084    81.391311 
   96500    256.63421    -108.4797   0.23220802   -108.24749   -7329.2143    4.3479236    4.3479236    4.3479236   -7329.2143   -17526.866    11828.239   -16289.015   -2822.4596    394.54622    6929.6102    82.195061 
   96600    343.71731   -108.55636   0.31100264   -108.24536    6502.8903    4.3338144    4.3338144    4.3338144    6502.8903    3942.7645    8612.2939    6953.6126    2044.2351   -740.76811   -2961.2917    81.397475 
   96700    254.62359   -108.47729   0.23038877    -108.2469   -2758.3973    4.3456202    4.3456202    4.3456202   -2758.3973   -12314.415    12619.395   -8580.1715   -3206.5737    2772.3624    1491.6605    82.064494 
   96800    300.29838   -108.51783   0.27171628   -108.24611   -1582.0542    4.3380143    4.3380143    4.3380143   -1582.0542    3528.2466   -1669.9558   -6604.4535   -45.047359   -741.85543    6637.9288    81.634352 
   96900    293.61743   -108.51173   0.26567122   -108.24606    1774.0996    4.3403674    4.3403674    4.3403674    1774.0996   -9784.3557    20562.214   -5455.5596   -499.81431    55.783637   -411.71448    81.767268 
   97000    351.43666   -108.56531   0.31798728   -108.24732   -10487.543    4.3430311    4.3430311    4.3430311   -10487.543   -11818.832   -12152.137   -7491.6588   -3290.1899   -417.67896    5422.2225      81.9179 
   97100    214.94238   -108.44316   0.19448438   -108.24868    4750.8833    4.3366184    4.3366184    4.3366184    4750.8833   -4497.9816    19369.311   -618.67932    5606.0635   -913.61431    4464.7857    81.555567 
   97200    368.84432   -108.58293   0.33373809   -108.24919   -8181.1515    4.3451391    4.3451391    4.3451391   -8181.1515   -12165.078   -3414.8711   -8963.5054   -2415.2541    2456.9522   -2000.9835    82.037239 
   97300    244.23975   -108.47196   0.22099325   -108.25097    760.94951     4.335174     4.335174     4.335174    760.94951    5342.9547    2807.2529   -5867.3591    617.30274   -163.21969    10060.523    81.474106 
   97400     344.3839   -108.56023   0.31160579   -108.24863   -5840.2487    4.3459245    4.3459245    4.3459245   -5840.2487   -9497.6729    7595.3544   -15618.428   -1634.9889   -1768.3183    -3694.469    82.081738 
   97500       265.37   -108.48735   0.24011235   -108.24724    4315.2004     4.336625     4.336625     4.336625    4315.2004   -2511.7207    7002.4701    8454.8519    1197.3021   -1751.8297    1833.7827    81.555939 
   97600    319.89888   -108.53594   0.28945123   -108.24649    -5328.455    4.3425227    4.3425227    4.3425227    -5328.455   -8887.3224    2817.5522    -9915.595   -503.40228    -1149.093    6627.2656    81.889139 
   97700    294.12698   -108.51202   0.26613227   -108.24589    5982.3864    4.3402591    4.3402591    4.3402591    5982.3864   -9138.2191    20685.438    6399.9398    68.914481    1505.1044   -112.83573    81.761147 
   97800    292.95115   -108.51405   0.26506836   -108.24898   -778.67083    4.3383039    4.3383039    4.3383039   -778.67083    1663.5957    6824.3469   -10823.955   -4059.7171    1046.0638    1546.2123    81.650701 
   97900    350.72334   -108.56734   0.31734184      -108.25   -4761.5561    4.3438915    4.3438915    4.3438915   -4761.5561   -8167.3586    3357.1956   -9474.5052    4514.4519    -1517.857    5985.3943    81.966599 
   98000    237.76373   -108.46488   0.21513362   -108.24974    10428.902    4.3355978    4.3355978    4.3355978    10428.902    1352.8872    21650.943    8282.8745   -5828.9287   -585.77087   -4321.5076    81.498005 
   98100    351.79956    -108.5678   0.31831563   -108.24949   -10980.357    4.3449189    4.3449189    4.3449189   -10980.357   -15102.285   -6218.9462   -11619.841    755.72748    1362.0887    8994.2434    82.024773 
   98200     259.2714    -108.4828   0.23459421   -108.24821    7422.3665    4.3367496    4.3367496    4.3367496    7422.3665    -2216.182    16193.872      8289.41   -3325.2575    683.95498   -1618.2332    81.562969 
   98300    376.24303   -108.58795    0.3404326   -108.24751    -8336.086    4.3431209    4.3431209    4.3431209    -8336.086   -7570.3706   -3907.1566   -13530.731   -1215.9214    1519.5305    1045.5439    81.922981 
   98400     211.9474   -108.44059   0.19177446   -108.24881    3028.9124    4.3386041    4.3386041    4.3386041    3028.9124   -1306.7334     9850.774    542.69656    243.12686   -1167.1091    7129.1986    81.667651 
   98500    326.70743   -108.54263   0.29561174   -108.24702    -3.408182     4.342166     4.342166     4.342166    -3.408182   -1117.0001    4830.5775    -3723.802   -392.24047   -1735.1291   -2237.2493    81.868959 
   98600    300.49549   -108.51895   0.27189463   -108.24706   -1881.4082    4.3388227    4.3388227    4.3388227   -1881.4082     -9740.93    3314.2273    782.47794   -1456.6471    -289.2079    3934.7453    81.679996 
   98700    274.16071   -108.49504   0.24806637   -108.24697   -776.84561    4.3421562    4.3421562    4.3421562   -776.84561   -24.925904    7660.2449   -9965.8558   -290.93848   -268.10877    1865.3259    81.868407 
   98800    349.55053   -108.56204   0.31628067   -108.24576    185.07433    4.3393105    4.3393105    4.3393105    185.07433    -9676.408     13089.59   -2857.9594    2830.8628    2295.9977    -32.23136    81.707549 
   98900     324.5212   -108.54128    0.2936336   -108.24764   -5359.3407    4.3406756    4.3406756    4.3406756   -5359.3407    1655.4106   -9922.2865   -7811.1462   -1160.0303   -2148.7538    5135.5847    81.784687 
   99000    213.90896   -108.44328   0.19354933   -108.24973    6996.8141    4.3417287    4.3417287    4.3417287    6996.8141   -1156.9713    26770.202   -4622.7888    204.00182   -1184.1842   -368.84834    81.844226 
   99100    327.58501   -108.54709    0.2964058   -108.25069    1989.9246    4.3360436    4.3360436    4.3360436    1989.9246   -5824.1406    4231.8435    7562.0708   -3585.3319   -794.02282   -1521.8059    81.523142 
   99200    290.79177   -108.51462   0.26311451    -108.2515   -6741.8101    4.3463907    4.3463907    4.3463907   -6741.8101    -6435.966    4682.5662    -18472.03    3314.3971    1574.1928    7884.0102    82.108152 
   99300    361.06819   -108.57504   0.32670209   -108.24834    2749.2215     4.334575     4.334575     4.334575    2749.2215   -7394.0462    10285.862    5355.8486    -2273.488    172.80472   -896.52007    81.440337 
   99400    269.64887   -108.49215   0.24398396   -108.24817   -4585.1237    4.3455812    4.3455812    4.3455812   -4585.1237   -3090.6826    2033.2938   -12697.982    1377.7914    46.852777    3951.9419    82.062288 
   99500    264.88554   -108.48694     0.239674   -108.24727    2093.5484    4.3378249    4.3378249    4.3378249    2093.5484   -999.12693     6257.714     1022.058   -3167.7653   -3137.1236    2867.3813    81.623657 
   99600    319.86445   -108.53624   0.28942007   -108.24682   -396.22177    4.3398719    4.3398719    4.3398719   -396.22177   -4464.2344    5624.1368   -2348.5677    4782.6781   -2106.3144    203.33646    81.739267 
   99700     290.8905   -108.51025   0.26320384   -108.24704   -6922.0578    4.3442524    4.3442524    4.3442524   -6922.0578   -7757.5387   -2816.7664   -10191.868   -2026.5921    1829.9652    5031.2199    81.987031 
   99800     290.2533   -108.50878   0.26262728   -108.24615    3787.6607    4.3355633    4.3355633    4.3355633    3787.6607   -3192.6269    18103.981   -3548.3723    2663.0878   -2911.5014    1784.6473    81.496055 
   99900    387.52769   -108.59656    0.3506432   -108.24591   -7772.9693    4.3455704    4.3455704    4.3455704   -7772.9693   -8724.2599   -7339.5108   -7255.1373   -4349.7533    2766.3772   -2242.2345    82.061676 
  100000    168.44654   -108.40004   0.15241397   -108.24763    4833.1313    4.3382531    4.3382531    4.3382531    4833.1313   -983.42992    16670.983   -1188.1591  -0.56528741   -4511.7022    7173.1806    81.647833 
Loop time of 21.8028 on 1 procs for 100000 steps with 8 atoms

Pair  time (%) = 6.95614 (31.9048)
Kspce time (%) = 5.24034 (24.0351)
Neigh time (%) = 0 (0)
Comm  time (%) = 1.04421 (4.78931)
Outpt time (%) = 0.0218863 (0.100383)
Other time (%) = 8.54026 (39.1704)

Nlocal:    8 ave 8 max 8 min
Histogram: 1 0 0 0 0 0 0 0 0 0
Nghost:    2189 ave 2189 max 2189 min
Histogram: 1 0 0 0 0 0 0 0 0 0
Neighs:    2056 ave 2056 max 2056 min
Histogram: 1 0 0 0 0 0 0 0 0 0

Total # of neighbors = 2056
Ave neighs/atom = 257
Neighbor list builds = 0
Dangerous builds = 0
unfix 20
unfix 21
print "seeds:2154192"
seeds:2154192
