LAMMPS (10 Feb 2015)
# ---- initialize simulations
clear
units metal
dimension 3
boundary p p p
atom_style charge
atom_modify map array
# ---- create atoms
read_data /Users/eugeneragasa/pyflamestk_git/pypospack/tests/tests_integration/workflow/WorkflowLammpsThermalExpansion/param_8221/MgO_NaCl_unit.npt.T1400/lammps.structure
  triclinic box = (0 0 0) to (4.2565 4.2565 4.2565) with tilt (0 0 0)
  1 by 1 by 1 MPI processor grid
  reading atoms ...
  8 atoms
# ---- define interatomic potential
include potential.mod
mass 1 24.305
mass 2 15.999

group Mg type 1
4 atoms in group Mg
group O type 2
4 atoms in group O

set group Mg charge 1.65389423724
  4 settings made for charge
set group O charge -1.65389423724
  4 settings made for charge

variable R_cut equal 10.0

pair_style buck/coul/long ${R_cut}
pair_style buck/coul/long 10
pair_coeff 1 1 0.0 0.5 0.0 ${R_cut}
pair_coeff 1 1 0.0 0.5 0.0 10
pair_coeff 1 2 1300.0678519 0.288744572517 0.0 ${R_cut}
pair_coeff 1 2 1300.0678519 0.288744572517 0.0 10
pair_coeff 2 2 40472.9144105 0.202420171096 26.2679081719 ${R_cut}
pair_coeff 2 2 40472.9144105 0.202420171096 26.2679081719 10

kspace_style pppm 1.0e-5

neighbor 1.0 bin
neigh_modify every 1 delay 0 check yes
# ---- define settings
compute eng all pe/atom
compute eatoms all reduce sum c_eng
# ---- run minimization
reset_timestep 0
fix 1 all box/relax iso 0.0 vmax 0.001
thermo 10
thermo_style custom step pe lx ly lz xy xz yz press pxx pyy pzz pxy pxz pyz c_eatoms
min_style cg
minimize 1e-25 1e-25 5000 10000
PPPM initialization ...
  G vector (1/distance) = 0.352799
  grid = 8 8 8
  stencil order = 5
  estimated absolute RMS force accuracy = 3.93787e-05
  estimated relative force accuracy = 2.7347e-06
  using double precision FFTs
  3d grid and FFT values/proc = 3375 512
Neighbor list info ...
  1 neighbor list requests
  update every 1 steps, delay 0 steps, check yes
  master list distance cutoff = 11
Memory usage per processor = 4.06549 Mbytes
Step PotEng Lx Ly Lz Xy Xz Yz Press Pxx Pyy Pzz Pxy Pxz Pyz eatoms 
       0   -110.27609       4.2565       4.2565       4.2565            0            0            0    110960.29    110960.29    110960.29    110960.29 9.3314123e-11 1.6239754e-10 5.8891323e-11   -110.27609 
      10   -110.39349     4.299065     4.299065     4.299065            0            0            0    52923.265    52923.265    52923.265    52923.265 1.8718586e-11 -3.674075e-11 -9.001309e-11   -110.39349 
      20   -110.43343      4.34163      4.34163      4.34163            0            0            0    2089.5567    2089.5567    2089.5567    2089.5567 6.9298069e-11 -1.296578e-10 -9.997383e-11   -110.43343 
      22   -110.43352     4.343513     4.343513     4.343513            0            0            0   -5.7193123   -5.7193123   -5.7193123   -5.7193123 4.586585e-11 9.062077e-11 2.6249224e-10   -110.43352 
Loop time of 0.0136321 on 1 procs for 22 steps with 8 atoms

Minimization stats:
  Stopping criterion = linesearch alpha is zero
  Energy initial, next-to-last, final = 
        -110.276087498     -110.433524975     -110.433524975
  Force two-norm initial, final = 16.0227 0.00180648
  Force max component initial, final = 16.0227 0.000859982
  Final line search alpha, max atom move = 0.00390625 3.35931e-06
  Iterations, force evaluations = 22 39

Pair  time (%) = 0.00374222 (27.4516)
Kspce time (%) = 0.0021832 (16.0152)
Neigh time (%) = 0 (0)
Comm  time (%) = 0.000422716 (3.1009)
Outpt time (%) = 2.88486e-05 (0.211624)
Other time (%) = 0.00725508 (53.2207)

Nlocal:    8 ave 8 max 8 min
Histogram: 1 0 0 0 0 0 0 0 0 0
Nghost:    2189 ave 2189 max 2189 min
Histogram: 1 0 0 0 0 0 0 0 0 0
Neighs:    2344 ave 2344 max 2344 min
Histogram: 1 0 0 0 0 0 0 0 0 0

Total # of neighbors = 2344
Ave neighs/atom = 293
Neighbor list builds = 0
Dangerous builds = 0
unfix 1
# ---- define output variables ----
variable natoms equal "count(all)"
variable tot_energy equal "c_eatoms"
variable length_x equal "lx"
variable length_y equal "ly"
variable length_z equal "lz"
variable tilt_xy equal "xy"
variable tilt_xz equal "xz"
variable tilt_yz equal "yz"
variable tot_press equal "press"
variable press_xx equal "pxx"
variable press_yy equal "pyy"
variable press_zz equal "pzz"
variable press_xy equal "pxy"
variable press_xz equal "pxz"
variable press_yz equal "pyz"

# ---- output ----
print "pypospack:output_section:begin"
pypospack:output_section:begin
print "tot_energy = ${tot_energy}"
tot_energy = -110.433524975286
print "num_atoms = ${natoms}"
num_atoms = 8
print "xx = ${length_x}"
xx = 4.34351296178449
print "yy = ${length_y}"
yy = 4.34351296178449
print "zz = ${length_z}"
zz = 4.34351296178449
print "xy = ${tilt_xy}"
xy = 0
print "xz = ${tilt_xz}"
xz = 0
print "yz = ${tilt_yz}"
yz = 0
print "tot_press = ${tot_press}"
tot_press = -5.71931225965551
print "pxx = ${press_xx}"
pxx = -5.71931225981032
print "pyy = ${press_yy}"
pyy = -5.71931225968463
print "pzz = ${press_zz}"
pzz = -5.71931225947158
print "pxy = ${press_xy}"
pxy = 4.5865850341772e-11
print "pxz = ${press_xz}"
pxz = 9.06207702771322e-11
print "pyz = ${press_yz}"
pyz = 2.62492238241466e-10
print "pypospack:output_section:done"
pypospack:output_section:done
print "pypospack:lammps_sim:done"
pypospack:lammps_sim:done
#------------------------------------------------------------------------------
# RUN THERMOSTAT
# running using an NPT Nose-Hoover style thermostat
#------------------------------------------------------------------------------
variable tempdamp equal 0.1
variable pressdamp equal 1.0
# set initial velocities
velocity all create 1400 6028433 mom yes dist gaussian loop all
# fix for Nose-Hoover style thermostat
fix 20 all npt temp 1400 1400 0.1 aniso 0.0 0.0 1.0 drag 1.0 couple xyz
variable boxx equal lx
variable boxy equal ly
variable boxz equal lz
variable boxp equal press
variable boxt equal temp
# calculate averages every 10000 steps
reset_timestep 0
fix 21 all ave/time 10 10 100 v_boxx v_boxy v_boxz v_boxp v_boxt file lattice.out
thermo_style custom step temp pe ke etotal press lx ly lz press pxx pyy pzz pxy pxz pyz vol
thermo_modify flush yes
thermo 100
run 100000
PPPM initialization ...
  G vector (1/distance) = 0.351923
  grid = 8 8 8
  stencil order = 5
  estimated absolute RMS force accuracy = 4.10067e-05
  estimated relative force accuracy = 2.84776e-06
  using double precision FFTs
  3d grid and FFT values/proc = 3375 512
Memory usage per processor = 3.06549 Mbytes
Step Temp PotEng KinEng TotEng Press Lx Ly Lz Press Pxx Pyy Pzz Pxy Pxz Pyz Volume 
       0         1400   -110.43354    1.2667494   -109.16679    16503.703     4.343513     4.343513     4.343513    16503.703    12344.578    24646.851    12519.679    1585.3345    7239.0772    4667.0208    81.945171 
     100     335.2963   -109.30763   0.30338314   -109.00424    11823.552    4.3664214    4.3664214    4.3664214    11823.552   -26736.842    13111.577    49095.922    -4569.813   -11108.468    1056.2082    83.248602 
     200    1050.7045   -109.59802   0.95069952   -108.64732   -18819.882    4.3941791    4.3941791    4.3941791   -18819.882    -42731.23   -8604.6483   -5123.7688    5190.1732   -6861.4095    -3040.823     84.84637 
     300    1471.4178   -109.69356    1.3313697   -108.36219    -13672.54    4.3915827    4.3915827    4.3915827    -13672.54   -44544.658    39528.206   -36001.167   -7079.8953    4464.9954   -2577.2801    84.696056 
     400    592.43057   -108.65227   0.53604363   -108.11623    25582.554    4.3673081    4.3673081    4.3673081    25582.554   -39045.685    49599.562    66193.784    9184.1406   -17856.463   -1749.3668    83.299328 
     500    1825.5457    -109.6181    1.6517921   -107.96631    7449.5104     4.387447     4.387447     4.387447    7449.5104   -13864.469    28480.993    7732.0074   -5474.7863   -2160.0652   -2334.4049       84.457 
     600    1217.1008   -108.97626    1.1012584     -107.875   -31598.423     4.415526     4.415526     4.415526   -31598.423   -64216.915     25125.33   -55703.684    8146.9908    7946.4096    -5225.988    86.088934 
     700     1384.155   -109.08233    1.2524125   -107.82992     5736.411    4.3870139    4.3870139    4.3870139     5736.411   -25434.875    17891.757    24752.351   -11202.198   -6897.5386   -7151.2099    84.431993 
     800    1449.7484   -109.14101    1.3117628   -107.82925    18799.674    4.3849227    4.3849227    4.3849227    18799.674   -821.63614    54815.265    2405.3929    4113.9261    25859.725   -2757.7544    84.311308 
     900     1011.761   -108.77043   0.91546264   -107.85497   -34227.769    4.4035396    4.4035396    4.4035396   -34227.769     -71182.8    24132.445   -55632.951    4289.6176    9564.2535    6297.7551    85.389746 
    1000    1464.7619   -109.17178    1.3253473   -107.84643    14629.295    4.3986292    4.3986292    4.3986292    14629.295    6849.5199   -9073.4428    46111.807   -12845.364    1276.8187   -6014.5843    85.104408 
    1100    1259.9399   -108.99371    1.1400201   -107.85369    3855.4905    4.4013633    4.4013633    4.4013633    3855.4905    23900.248    23113.912   -35447.689    18189.976    33068.849    11090.795    85.263205 
    1200    1346.1204   -109.07049     1.217998   -107.85249   -7709.5531    4.4028633    4.4028633    4.4028633   -7709.5531   -9209.0281    22217.813   -36137.444   -2811.7273   -17512.036   -3519.8228    85.350409 
    1300    1874.1846   -109.52832    1.6958016   -107.83252    5425.0084    4.4032716    4.4032716    4.4032716    5425.0084    22018.555   -10230.841     4487.311   -6176.8803    18257.486   -9891.5566    85.374156 
    1400    929.36399   -108.68513   0.84090806   -107.84422    -27968.36    4.4162237    4.4162237    4.4162237    -27968.36   -12791.349    3058.1646   -74171.894   -4719.3013      18650.2    5911.4173    86.129753 
    1500    1725.6646   -109.39207    1.5614176   -107.83065   -4685.9445    4.4012909    4.4012909    4.4012909   -4685.9445   -7139.6291    25783.721   -32701.926   -15382.621    -24933.72   -1514.1688    85.258996 
    1600    1714.5728   -109.38315    1.5513815   -107.83177    23581.721    4.3845903    4.3845903    4.3845903    23581.721    33969.414    42557.541   -5781.7933    4062.8041    33533.287   -4743.5387    84.292133 
    1700    807.73787   -108.59061    0.7308582   -107.85975   -20690.862    4.4159218    4.4159218    4.4159218   -20690.862   -20597.775    46513.084   -87987.895   -8560.4324   -24076.971    9300.1918    86.112091 
    1800    1854.5743   -109.51161    1.6780578   -107.83355   -14912.792    4.4056083    4.4056083    4.4056083   -14912.792    9470.5399    -9169.695   -45039.222   -4458.8622    2724.8325    7394.5029    85.510144 
    1900    1145.5366   -108.87541    1.0365056   -107.83891     19273.51    4.3814986    4.3814986    4.3814986     19273.51    8627.8798    59058.446   -9865.7971   -10555.581    5635.1229   -8078.7442     84.11395 
    2000    1018.0321   -108.78701   0.92113682   -107.86588   -14999.638    4.3952467    4.3952467    4.3952467   -14999.638   -4041.7577    23347.942   -64305.098    12839.484   -39881.394    6622.4092    84.908227 
    2100    1804.3257   -109.48809    1.6325918    -107.8555    11536.879    4.3925704    4.3925704    4.3925704    11536.879    37308.188     16571.14   -19268.693   -8262.5281    12913.618    4769.7029    84.753216 
    2200    965.71252   -108.75032   0.87379698   -107.87653   -9329.0588    4.3979507    4.3979507    4.3979507   -9329.0588   -8674.8347    31380.523   -50692.864   -2957.8056   -37309.629   -2882.6598    85.065033 
    2300    1569.9395   -109.28182    1.4205142   -107.86131   -10758.795    4.4026774    4.4026774    4.4026774   -10758.795   -25400.032    29040.465   -35916.819    16488.894   -5908.3851    9346.1953      85.3396 
    2400    1600.0174   -109.29875    1.4477294   -107.85102    23944.527    4.3789414    4.3789414    4.3789414    23944.527    47027.012    4530.5554    20276.012   -23883.093   -21603.666   -5781.7156    83.966759 
    2500     477.6534   -108.31153   0.43219084   -107.87934    15793.762    4.3909649    4.3909649    4.3909649    15793.762   -12737.787    64909.928   -4790.8542    12519.137   -33989.649    7658.0018    84.660317 
    2600    1808.1478   -109.49145    1.6360502    -107.8554   -19234.413    4.4064152    4.4064152    4.4064152   -19234.413   -28212.826   -22440.776   -7049.6376    -7813.574    19430.359    7725.6087    85.557137 
    2700    1113.0677   -108.86746     1.007127   -107.86034    6751.2247    4.3951396    4.3951396    4.3951396    6751.2247    -34063.12     25550.13    28766.664   -13361.175   -48353.438    7734.1498    84.902021 
    2800    1488.2469   -109.20719    1.3465971   -107.86059    10625.741    4.3913202    4.3913202    4.3913202    10625.741   -17445.543     29193.88    20128.885    280.23991   -122.32154   -3031.9615    84.680869 
    2900    1424.4601   -109.15243    1.2888815   -107.86355   -8297.1923    4.3985596    4.3985596    4.3985596   -8297.1923   -7077.7274   -20068.579    2254.7293    2.5756837    -16469.36    12708.682    85.100371 
    3000    940.47231   -108.71849   0.85095911   -107.86753   -7522.0992    4.4023482    4.4023482    4.4023482   -7522.0992   -55168.819    25160.163    7442.3589   -11817.289   -43808.424   -8166.8509    85.320455 
    3100    1535.9995   -109.23782    1.3898047   -107.84801    10807.186    4.3991574    4.3991574    4.3991574    10807.186   -10097.963    27955.976    14563.546   -6768.5736    11070.777   -8068.6924    85.135072 
    3200    953.53633   -108.72005   0.86277971   -107.85727   -15329.015    4.4073134    4.4073134    4.4073134   -15329.015   -53965.423    64442.956   -56464.577    826.63304   -53690.803   -2065.1896    85.609471 
    3300    1750.8248   -109.42244    1.5841831   -107.83826    11216.681    4.3954699    4.3954699    4.3954699    11216.681   -36175.026    57432.553    12392.517      7543.33    12356.706    5431.1124    84.921163 
    3400    1294.5161   -109.01489    1.1713053   -107.84358    14876.718    4.3977776    4.3977776    4.3977776    14876.718   -22185.968    86773.981    -19957.86    14662.398   -19736.688   -8636.2597    85.054987 
    3500    1380.1564   -109.08565    1.2487945   -107.83685   -8471.3071    4.4098864    4.4098864    4.4098864   -8471.3071   -30142.835    46313.999   -41585.086     7238.427    -20382.28    17224.461    85.759491 
    3600    1315.6117   -109.02596    1.1903931   -107.83557    19625.151     4.386159     4.386159     4.386159    19625.151   -6043.6881    31587.582    33331.559    11634.003    2874.2477    1294.3657    84.382644 
    3700    1077.3081   -108.82821   0.97477105   -107.85344    23758.323    4.3754831    4.3754831    4.3754831    23758.323   -41827.094    80518.006    32584.056     5743.983   -32497.159    7316.0541     83.76798 
    3800    1756.0133   -109.44283    1.5888777   -107.85395    6582.1113     4.403126     4.403126     4.403126    6582.1113   -7217.0671    23356.964    3606.4365     7946.208    12842.423    10787.979    85.365686 
    3900    1209.2227   -108.94219    1.0941301   -107.84806    11134.094    4.4036771    4.4036771    4.4036771    11134.094   -3822.0541    9325.2866    27899.049    7762.1405   -29489.907   -13696.063    85.397745 
    4000    1276.9998   -108.99691    1.1554563   -107.84146    20934.004    4.3896427    4.3896427    4.3896427    20934.004   -2778.6787    12476.814    53103.878   -766.16756   -17326.366    15691.156    84.583865 
    4100    1562.7585   -109.25858    1.4140167   -107.84456   -1263.7054    4.3865323    4.3865323    4.3865323   -1263.7054   -17190.085    22504.863    -9105.894    -5224.649   -7596.8614    2334.3283    84.404187 
    4200    1192.6708   -108.93631    1.0791536   -107.85715    18246.333    4.3947647    4.3947647    4.3947647    18246.333   -14971.237    42181.196    27529.041   -6744.0308   -36201.445    2355.5587    84.880294 
    4300    1799.1761   -109.47719    1.6279323   -107.84926   -23982.358    4.4090334    4.4090334    4.4090334   -23982.358   -29819.079   -24053.942   -18074.052   -8222.3947    9150.0754    11100.864    85.709738 
    4400    900.07818   -108.68209   0.81440965   -107.86768   -5194.0014    4.3841559    4.3841559    4.3841559   -5194.0014   -31768.564    51656.034   -35469.474    1348.6732    -42544.31   -4911.2894    84.267083 
    4500    1676.2856   -109.37906    1.5167385   -107.86232    24210.684    4.3689046    4.3689046    4.3689046    24210.684    1744.4747    55642.205    15245.372   -12702.881   -21477.956   -8489.0123    83.390715 
    4600    2164.2952   -109.82744    1.9582998   -107.86914   -3474.5722    4.3939286    4.3939286    4.3939286   -3474.5722   -12693.235    16638.431   -14368.913   -6550.4678    2719.5208    18890.566    84.831858 
    4700    689.73361   -108.50991   0.62408547   -107.88582   -10943.132     4.399049     4.399049     4.399049   -10943.132   -28067.723    40397.828   -45159.502   -4503.0403   -54949.045    265.96044    85.128775 
    4800    1596.9971   -109.30568    1.4449965   -107.86068    7736.6235    4.3874926    4.3874926    4.3874926    7736.6235    4021.3173    6516.5073    12672.046    1388.7813    13840.301   -15716.905    84.459632 
    4900    1641.8038   -109.34339    1.4855386   -107.85785    1110.2894    4.3894515    4.3894515    4.3894515    1110.2894   -10510.718    23269.293   -9427.7068    1404.4406   -15791.008    19987.067    84.572812 
    5000    857.43565   -108.64529   0.77582579   -107.86946   -13837.505    4.3958331    4.3958331    4.3958331   -13837.505    -28935.18    16637.735   -29215.071   -7553.1614   -39343.567   -6409.7414    84.942216 
    5100    1487.7134   -109.20581    1.3461143    -107.8597    118.73173    4.3884098    4.3884098    4.3884098    118.73173   -4966.8707   -22420.515    27743.581    23506.901    18684.042    2065.6425    84.512614 
    5200    1240.7327   -108.98408     1.122641   -107.86144    21802.092    4.3828531    4.3828531    4.3828531    21802.092    2595.9188    57041.983    5768.3725   -8152.0776    -27884.27    597.78459    84.191982 
    5300    1421.1055   -109.15437    1.2858461   -107.86852   -14794.195    4.3984455    4.3984455    4.3984455   -14794.195   -19279.596   -32306.572    7203.5825    4220.6524   -4567.8465   -1951.1586    85.093747 
    5400    1032.5035   -108.79796   0.93423091   -107.86373   -3034.0238    4.3999178    4.3999178    4.3999178   -3034.0238   -35102.239   -24935.679    50935.847    25336.501    7655.2945    6611.1973    85.179223 
    5500     1327.953   -109.05581    1.2015598   -107.85425     10828.22    4.3840903    4.3840903    4.3840903     10828.22   -20486.264    47447.899    5523.0237   -6484.2495   -40040.072   -6088.4397    84.263303 
    5600    1551.6129   -109.25853    1.4039319    -107.8546    8298.9172    4.3870146    4.3870146    4.3870146    8298.9172    -11460.98   -25540.399     61898.13    10410.017    13375.883    2852.0245    84.432029 
    5700    935.13905   -108.71596   0.84613346   -107.86982   -1995.0681    4.3949775    4.3949775    4.3949775   -1995.0681   -3333.5275   -44627.943    41976.266     6633.954   -14001.894   -12340.344    84.892627 
    5800    1432.2593   -109.16334    1.2959383   -107.86741   -13716.331    4.3964315    4.3964315    4.3964315   -13716.331   -44721.573    4343.6312   -771.05043   -7027.1173   -35312.288    10141.407    84.976909 
    5900    1546.6031   -109.26284     1.399399   -107.86344     12276.33    4.3862778    4.3862778    4.3862778     12276.33   -12759.386   -4089.6921    53678.069    15366.591    19717.111    11409.874    84.389497 
    6000    1053.0943   -108.83133   0.95286188   -107.87846   -10015.562     4.384975     4.384975     4.384975   -10015.562   -19290.719   -511.82334   -10244.143    -11636.23   -41963.797   -14829.761    84.314326 
    6100    1605.7492   -109.32351    1.4529157   -107.87059   -25912.528    4.3936912    4.3936912    4.3936912   -25912.528   -50672.171   -4613.4377   -22451.976   -3330.6005   -18627.108    14856.479    84.818109 
    6200     1800.127   -109.48261    1.6287927   -107.85382   -4124.0447    4.3907645    4.3907645    4.3907645   -4124.0447    16938.278   -26853.156    -2457.256    20061.274    13317.613   -2489.6799    84.648729 
    6300     987.7833   -108.76993   0.89376709   -107.87616   -34366.732    4.3870472    4.3870472    4.3870472   -34366.732   -40099.586    -12696.45    -50304.16   -21058.446   -62038.389   -4960.8528    84.433916 
    6400    1711.9099   -109.41926    1.5489721   -107.87029     6471.133    4.3791427    4.3791427    4.3791427     6471.133    2232.2773    -2767.893    19949.015   -4469.1502    7528.5167   -4057.0862    83.978343 
    6500    1614.2435   -109.33908    1.4606014   -107.87847   -24299.152    4.4067841    4.4067841    4.4067841   -24299.152   -17296.603   -9676.1849   -45924.667    1931.8348   -30279.646   -4518.5505    85.578628 
    6600    683.49468   -108.47659   0.61844035   -107.85814   -32662.587    4.4148342    4.4148342    4.4148342   -32662.587   -49620.865    12496.903     -60863.8   -15696.261   -42326.364    14414.513    86.048476 
    6700    2139.9795   -109.75238    1.9362984   -107.81608    14878.008    4.3785591    4.3785591    4.3785591    14878.008     14141.62     13420.32    17072.084   -4835.8617    21665.915   -6170.3857    83.944768 
    6800    562.31843   -108.36409   0.50879753   -107.85529    11111.002    4.3755114    4.3755114    4.3755114    11111.002    13530.179    62378.694   -42575.868     329.9542   -55683.243   -6851.9978    83.769606 
    6900    1546.9115   -109.27256     1.399678   -107.87288    -25967.63    4.3922274    4.3922274    4.3922274    -25967.63   -20005.287   -26170.505   -31727.098   -25909.396   -9173.8389   -3960.5708    84.733364 
    7000    1629.2637   -109.34039    1.4741921    -107.8662    5974.5665    4.4046548    4.4046548    4.4046548    5974.5665    -4303.269    39754.119    -17527.15    16199.488   -8211.2082    380.25164    85.454634 
    7100     1037.208   -108.79353   0.93848762   -107.85505   -25659.145     4.409949     4.409949     4.409949   -25659.145   -10989.925   -6395.1195   -59592.391   -4106.4099   -37141.596    -3891.616    85.763145 
    7200    1940.0736    -109.5947    1.7554194   -107.83928    8855.7632    4.3706708    4.3706708    4.3706708    8855.7632    7214.5242   -10091.235        29444   -23496.446    14171.196   -12.152383    83.491891 
    7300    992.26188   -108.75945    0.8978194   -107.86163    20991.672    4.3612743    4.3612743    4.3612743    20991.672   -18485.349     63590.49    17869.877    16055.364   -23629.391   -3555.6485    82.954551 
    7400    1389.3844   -109.13366    1.2571442   -107.87652   -48306.129    4.4027129    4.4027129    4.4027129   -48306.129   -61445.846   -23322.846   -60149.696    -5003.371   -28230.687   -21693.197     85.34166 
    7500    1856.1262   -109.53342     1.679462   -107.85396   -4815.6136    4.3970398    4.3970398    4.3970398   -4815.6136    -3572.956   -17415.074    6541.1888   -972.05678    8061.1565     22.09941    85.012189 
    7600     870.1226   -108.64556   0.78730522   -107.85826    3906.7892    4.3790666    4.3790666    4.3790666    3906.7892   -6889.3983    31315.587   -12705.821     15183.95   -29161.661   -7795.6454    83.973964 
    7700    1793.8483    -109.4805    1.6231117   -107.85739   -276.63521    4.3882933    4.3882933    4.3882933   -276.63521    -18044.13    5768.9938    11445.231   -3488.8494    3729.2363   -23783.463    84.505883 
    7800    1537.6672    -109.2498    1.3913136   -107.85848    31904.657     4.390077     4.390077     4.390077    31904.657    43193.971    29959.449     22560.55   -581.78737    -11992.45    5823.5841    84.608969 
    7900    988.56431   -108.76768   0.89447376   -107.87321   -14794.038    4.3957285    4.3957285    4.3957285   -14794.038   -39767.717   -1097.2823   -3517.1137    23623.715   -19778.194   -14059.277    84.936149 
    8000     1480.352   -109.20186    1.3394536   -107.86241     18133.21    4.3838614    4.3838614    4.3838614     18133.21    25954.243   -8905.2804    37350.666   -442.18698    16064.666   -21197.826    84.250104 
    8100    1454.4865    -109.1834      1.31605   -107.86735    15410.192    4.3776442    4.3776442    4.3776442    15410.192   -20007.766    39382.105    26856.239   -7583.0249   -26483.351     8589.495    83.892161 
    8200    1086.9065   -108.86112   0.98345583   -107.87767   -3619.6944    4.3984115    4.3984115    4.3984115   -3619.6944   -7906.0419   -6480.0272     3526.986    28668.513   -4696.7859   -18893.799    85.091773 
    8300    1655.8781   -109.35968    1.4982733    -107.8614   -191.87314    4.3942793    4.3942793    4.3942793   -191.87314   -4479.0962   -9910.8444    13814.321   -26460.747   -2136.2979   -4735.7587    84.852175 
    8400    1291.3616   -109.02764    1.1684511   -107.85919    20301.944    4.3830926    4.3830926    4.3830926    20301.944   -7111.7064    28350.142    39667.395   -4919.3801   -24954.526    1948.7085    84.205786 
    8500     1247.986   -108.99188     1.129204   -107.86268   -4579.4049    4.3946297    4.3946297    4.3946297   -4579.4049   -13697.479    -8995.663    8954.9278    10661.966    15102.579   -22388.912    84.872475 
    8600    1365.3897   -109.09237    1.2354333   -107.85694   -5467.0331    4.3960296    4.3960296    4.3960296   -5467.0331   -13679.226   -6359.3389    3637.4651   -33355.354   -12602.204    1948.4385    84.953607 
    8700    1296.2665   -109.02722    1.1728891   -107.85434     21730.16    4.3907235    4.3907235    4.3907235     21730.16    4590.4288    41963.356    18636.694    7844.6678   -21254.367   -1734.8361    84.646357 
    8800    1237.5523   -108.97944    1.1197633   -107.85967   -910.32036    4.3979067    4.3979067    4.3979067   -910.32036    6674.7359    -27841.85    18436.153   -18197.773    10715.828   -948.92189     85.06248 
    8900    1477.2244   -109.19606    1.3366237   -107.85943   -6549.3853    4.4008271    4.4008271    4.4008271   -6549.3853    9521.1322   -19921.717   -9247.5716   -33989.436   -8869.7854    4705.2046    85.232049 
    9000    1464.8116   -109.17793    1.3253924   -107.85254    28629.268    4.3847796    4.3847796    4.3847796    28629.268    37765.654    11452.067    36670.084    8162.5109   -2721.9207   -5143.1242    84.303054 
    9100    830.61993   -108.62002   0.75156237   -107.86846   -7630.9263    4.3992392    4.3992392    4.3992392   -7630.9263   -19079.562   -17417.903    13604.686   -35621.108    12924.329     4095.849    85.139822 
    9200     1764.564   -109.43407    1.5966146   -107.83746   -216.96037    4.4072002    4.4072002    4.4072002   -216.96037   -4491.4746    16559.829   -12719.236    -2594.159   -1485.8101    8022.7506    85.602875 
    9300    1282.8401   -109.00494    1.1607406    -107.8442    5454.8854    4.3882162    4.3882162    4.3882162    5454.8854    7526.4899   -18728.514     27566.68   -21155.157    9119.2204   -8500.5181    84.501426 
    9400    1082.2978   -108.84287   0.97928583   -107.86358    10863.093    4.3859876    4.3859876    4.3859876    10863.093    7007.7654   -9272.1967     34853.71   -22251.271    14080.208   -6793.0665    84.372751 
    9500    1817.3228   -109.49311    1.6443518   -107.84876    25074.288    4.3904204    4.3904204    4.3904204    25074.288    52800.462    1721.8114    20700.589    11966.602    6886.7955    6091.3367    84.628828 
    9600    1031.2255   -108.80045   0.93307451   -107.86737   -28477.412    4.4054422    4.4054422    4.4054422   -28477.412   -32090.407   -58680.433    5338.6054   -45532.865    7775.1543   -10796.031    85.500474 
    9700    1515.8917    -109.2204    1.3716106   -107.84879    12457.135     4.392582     4.392582     4.392582    12457.135    123.25427    5294.1608    31953.991   -934.18217    92.229912   -3374.0403    84.753889 
    9800    1312.8825   -109.03288    1.1879237   -107.84496    21982.901    4.3703048    4.3703048    4.3703048    21982.901    56238.975    1924.8475    7784.8812   -17059.443   -3843.4641    12411.763    83.470915 
    9900    1177.4869   -108.93342    1.0654149   -107.86801   -20571.407    4.3948427    4.3948427    4.3948427   -20571.407    -24050.51   -20744.234   -16919.475   -40232.186    3304.7955   -16958.039    84.884812 
   10000    2154.4286   -109.79099    1.9493723   -107.84162   -2838.0937    4.3977881    4.3977881    4.3977881   -2838.0937   -12394.718   -2218.5758    6099.0132    18212.856     3711.886    5311.0982    85.055597 
   10100    1018.1861   -108.77664   0.92127615   -107.85537    7979.1444     4.385679     4.385679     4.385679    7979.1444    -8840.383    22075.815    10702.002   -39569.101   -7442.5812    345.44477     84.35494 
   10200    1382.2888   -109.10491     1.250724   -107.85419    -5888.984    4.3879791    4.3879791    4.3879791    -5888.984   -4479.4282    4786.9403   -17974.464   -3779.0876   -1642.3291   -17408.858    84.487731 
   10300    1596.7791   -109.29586    1.4447993   -107.85106    5100.7241    4.3819085    4.3819085    4.3819085    5100.7241   -41988.989    9931.0619      47360.1   -4610.1495   -5576.1829    -759.8541    84.137562 
   10400    1185.9332   -108.93689    1.0730573   -107.86383   -18581.741    4.3969762    4.3969762    4.3969762   -18581.741    -42740.74    1264.0907   -14268.574   -38494.199    1790.9612    8209.5886    85.008499 
   10500    2125.5146   -109.76576    1.9232102   -107.84255   -14757.824    4.3984467    4.3984467    4.3984467   -14757.824    16.486489   -9943.0684    -34346.89    18376.413    9323.4832   -5391.2388    85.093819 
   10600    1009.9399   -108.76986    0.9138148   -107.85605    6277.1454    4.3786052    4.3786052    4.3786052    6277.1454    -26486.41   -21439.554    66757.401    -45572.02   -6823.5088   -2074.7215    83.947422 
   10700     1573.636   -109.28616    1.4238589    -107.8623   -13989.784    4.3859184    4.3859184    4.3859184   -13989.784   -19204.799   -12305.149   -10459.403    6437.3341   -9092.2113    20697.424    84.368757 
   10800    1366.3247     -109.102    1.2362793   -107.86572   -4826.4612     4.392195     4.392195     4.392195   -4826.4612    -21194.43    664.73401    6050.3125    -20210.77   -455.54453    -18460.93    84.731488 
   10900    1022.2527   -108.79416   0.92495576    -107.8692    -2146.059    4.3925736    4.3925736    4.3925736    -2146.059   -39291.414    -23527.47    56380.706   -31327.784    13747.499    6409.6398    84.753401 
   11000    1727.7846   -109.41038    1.5633358   -107.84705   -9997.6383    4.4030879    4.4030879    4.4030879   -9997.6383   -16659.549   -7497.1616   -5836.2042    21566.862   -14316.015    10158.675    85.363473 
   11100    1197.2204   -108.93414    1.0832702   -107.85087   -13629.359    4.3928717    4.3928717    4.3928717   -13629.359   -31278.795   -18608.524    8999.2429   -57657.702    10138.998   -8980.1627    84.770658 
   11200    1730.7156   -109.40906    1.5659879   -107.84307   -1132.6289    4.3756356    4.3756356    4.3756356   -1132.6289    9525.5003   -22843.843    9920.4556    14010.858    5129.0277    871.12703    83.776737 
   11300     1385.426   -109.12156    1.2535625   -107.86799   -21755.891    4.3882735    4.3882735    4.3882735   -21755.891   -34550.434   -34558.103    3840.8627    7609.6069    6794.2778    16592.565     84.50474 
   11400    1459.9151   -109.18244    1.3209619   -107.86147   -26158.625     4.399278     4.399278     4.399278   -26158.625   -34608.717   -31307.083   -12560.076   -44129.958    3917.3638   -11.525035    85.142072 
   11500    1506.6748   -109.21505     1.363271   -107.85178   -25999.512     4.401013     4.401013     4.401013   -25999.512    10817.551   -46593.105   -42222.981    26714.851    4511.3101    5702.4404    85.242846 
   11600    1286.0825   -109.01108    1.1636745    -107.8474   -32995.854    4.3920629    4.3920629    4.3920629   -32995.854   -47464.963   -46073.963   -5448.6367   -30378.964    4182.5383     7801.852    84.723843 
   11700    1651.1463   -109.33559    1.4939919    -107.8416   -3910.6376    4.3822943    4.3822943    4.3822943   -3910.6376    12627.271   -8638.5653   -15720.619   -6217.1307    11993.409   -961.20476    84.159786 
   11800    1127.0161   -108.88258    1.0197478   -107.86283   -6313.3527    4.3872568    4.3872568    4.3872568   -6313.3527    29364.679   -27372.363   -20932.375    13972.315    4239.3073    9529.7216    84.446016 
   11900    1823.6507   -109.50884    1.6500775   -107.85877   -22664.055    4.4093102    4.4093102    4.4093102   -22664.055   -37675.344    -3607.133   -26709.689   -29784.779    596.35722    3426.6625    85.725883 
   12000    1560.1983   -109.26546    1.4117002   -107.85376   -12793.419    4.3968857    4.3968857    4.3968857   -12793.419    7485.2884    8458.0981   -54323.644    6698.9752    4176.9396    21442.251    85.003247 
   12100    883.52352   -108.65089   0.79943065   -107.85146    35513.889    4.3677543    4.3677543    4.3677543    35513.889    38180.776    61361.634    6999.2561    7532.3789   -4355.2258    10300.724    83.324864 
   12200    2004.8844   -109.67365    1.8140616   -107.85959   -6886.7268    4.3952713    4.3952713    4.3952713   -6886.7268    -9706.707    19188.453   -30141.926   -14881.127   -731.93188    1404.8426    84.909654 
   12300    836.15428   -108.62235   0.75656997   -107.86578   -19873.959     4.403367     4.403367     4.403367   -19873.959    18888.885     11576.19   -90086.952   -5481.0595    8069.3495    7957.4742    85.379707 
   12400    1755.1225   -109.43243    1.5880717   -107.84435    17082.585    4.3836884    4.3836884    4.3836884    17082.585    57258.177    18658.044   -24668.467    10961.279   -5037.9676   -3911.5941    84.240131 
   12500    1766.7376   -109.45016    1.5985813   -107.85158   -1608.5509    4.3854736    4.3854736    4.3854736   -1608.5509   -2859.5406    23276.188   -25242.299    -31395.54    3343.8075    6738.4307     84.34309 
   12600    884.99043    -108.6707   0.80075794   -107.86994    3988.2348    4.3783119    4.3783119    4.3783119    3988.2348    14453.023    49761.644   -52249.962    8683.2323    14044.905    10618.269    83.930553 
   12700    1821.7538   -109.51204    1.6483612   -107.86367   -165.89744     4.394965     4.394965     4.394965   -165.89744   -10228.981    15655.501   -5924.2125    -2479.724    631.82231   -12898.907    84.891901 
   12800    876.54107   -108.65265   0.79311278   -107.85954   -15577.887    4.4011446    4.4011446    4.4011446   -15577.887   -15032.183   -5469.4511   -26232.028   -44430.043   -6758.8188    10901.662    85.250493 
   12900    1146.4569   -108.88407    1.0373383   -107.84673    23711.659    4.3767377    4.3767377    4.3767377    23711.659    69804.273    47984.099   -46653.394    13262.387   -1958.7958    1350.3516    83.840058 
   13000    1922.4703   -109.58854    1.7394915   -107.84905   -4572.7935    4.3855736    4.3855736    4.3855736   -4572.7935    869.24191    1512.7885   -16100.411   -20716.612   -3.7180712      842.931    84.348856 
   13100    738.37738   -108.53203   0.66809937   -107.86393     7101.368    4.4004987    4.4004987    4.4004987     7101.368    39342.419    8555.1756    -26593.49    -21291.41   -1545.8377    8990.9981    85.212965 
   13200    1874.5574   -109.53259    1.6961389   -107.83645   -4172.7665    4.4033534    4.4033534    4.4033534   -4172.7665    19366.721    19253.757   -51138.777    549.53426   -7587.4394   -11178.882    85.378913 
   13300    1185.6234   -108.91842     1.072777   -107.84564   -23641.635    4.3916015    4.3916015    4.3916015   -23641.635   -33808.151   -3966.0583   -33150.696   -17493.751    -10148.62    9325.6065    84.697143 
   13400    1377.3933   -109.09146    1.2462944   -107.84516    873.79017    4.3693966    4.3693966    4.3693966    873.79017    37354.997   -19421.975   -15311.651   -26410.034    12762.093    15647.712     83.41889 
   13500    1387.9631   -109.12227    1.2558582   -107.86641    6335.4843    4.3809165    4.3809165    4.3809165    6335.4843   -4838.2687    32685.564    -8840.842    14632.539   -1111.3869   -333.36831    84.080429 
   13600     1089.113   -108.85177   0.98545235   -107.86631   -43376.166    4.4088108    4.4088108    4.4088108   -43376.166   -36961.914   -49568.742   -43597.843    11714.703   -11456.483    16455.799    85.696758 
   13700    1735.0809    -109.4121    1.5699376   -107.84216   -16369.883    4.3926168    4.3926168    4.3926168   -16369.883   -7324.3156    -5826.627   -35958.708   -12926.046    8847.9617    5382.6503    84.755903 
   13800    1262.1064   -108.98224    1.1419804   -107.84026     6622.404    4.3660146    4.3660146    4.3660146     6622.404    1154.1643      3909.15    14803.898    24732.351    5406.3144   -2371.1445    83.225333 
   13900    1813.6566   -109.49782    1.6410346   -107.85678   -1120.3138    4.3763192    4.3763192    4.3763192   -1120.3138    20525.105   -25982.148    2096.1018     5780.737    1701.7718    21305.178    83.816009 
   14000    1529.4135   -109.24869    1.3838455   -107.86484    1652.3381    4.3935824    4.3935824    4.3935824    1652.3381     1216.097    7588.5028   -3847.5853    -12046.96   -4853.1821     3116.518     84.81181 
   14100    1000.0996   -108.77147   0.90491109   -107.86656   -1705.5529    4.4036527    4.4036527    4.4036527   -1705.5529   -5197.8455   -34768.385    34849.571    22656.911    5388.8082   -14460.982    85.396322 
   14200    1896.9511   -109.55564    1.7164012   -107.83924     1142.988      4.38969      4.38969      4.38969     1142.988    9234.9653   -4849.8883   -956.11284   -4476.7536    2274.7682    1885.7254    84.586596 
   14300    849.91312   -108.61557   0.76901926   -107.84655    20579.335    4.3639557    4.3639557    4.3639557    20579.335    1928.6771    27962.082    31847.244    -1487.935    5954.9417    3751.1096    83.107652 
   14400    1718.6742   -109.42146    1.5550926   -107.86637    548.76244    4.3850382    4.3850382    4.3850382    548.76244    5622.6467    -25422.38    21446.021    17403.272   -9485.8743   -19786.028    84.317969 
   14500    1624.1447   -109.32686    1.4695602    -107.8573    9185.4428    4.3929752    4.3929752    4.3929752    9185.4428    4440.9194    -22162.66    45278.069   -16885.935   -3932.2746    2441.9647    84.776653 
   14600     1080.527   -108.83831   0.97768357   -107.86062    11812.349    4.3879164    4.3879164    4.3879164    11812.349   -7327.0552   -12632.569     55396.67   -3049.6754    11389.159   -9988.3575     84.48411 
   14700    1976.6889   -109.62777    1.7885497   -107.83922   -9908.9206    4.3931562    4.3931562    4.3931562   -9908.9206   -13724.807   -46225.438    30223.484   -74.512766    -6010.435   -11955.351     84.78713 
   14800    726.68979   -108.51383   0.65752419    -107.8563     13053.03    4.3759855    4.3759855    4.3759855     13053.03   -519.74159   -17609.735    57288.568   -16371.335    14778.208    5980.5235    83.796835 
   14900    1572.9347   -109.29219    1.4232244   -107.86897   -6160.5779    4.3812265    4.3812265    4.3812265   -6160.5779   -14086.619    283.08777   -4678.2024    11351.615   -4727.0672   -11885.565    84.098278 
   15000    1948.6724   -109.63218    1.7631997   -107.86899   -19326.136    4.3895665    4.3895665    4.3895665   -19326.136   -32025.166    -38529.46    12576.217   -29326.736     164.2185   -3808.1023    84.579459 
   15100    1019.3847   -108.80797   0.92236072   -107.88561    5835.1796    4.3786793    4.3786793    4.3786793    5835.1796    12184.636   -10381.069    15701.972   -4046.0288    18276.187    7861.7394    83.951686 
   15200    1518.6788   -109.25987    1.3741325   -107.88573   -3044.4442    4.3885149    4.3885149    4.3885149   -3044.4442   -3700.6393    -24324.17    18891.477      6775.07   -3732.2951    -3554.951    84.518685 
   15300    1747.9218   -109.45523    1.5815564   -107.87368   -12077.706    4.3913158    4.3913158    4.3913158   -12077.706   -16746.612   -38589.472    19102.966   -29192.651   -12279.738     -8546.57    84.680617 
   15400    1521.7349   -109.24441    1.3768977   -107.86752    10124.281     4.376569     4.376569     4.376569    10124.281    22825.677   -13688.078    21235.245    10767.082    7928.3788    1310.9383     83.83036 
   15500    1165.7054   -108.93228    1.0547547   -107.87752   -13447.328    4.3810539    4.3810539    4.3810539   -13447.328    2461.5013   -44404.603    1601.1195   -2248.9405   -9613.1073   -20374.597    84.088341 
   15600    1522.1133   -109.25154    1.3772401    -107.8743    -1230.321     4.382706     4.382706     4.382706    -1230.321    15150.089   -37342.467    18501.415   -22929.699   -11479.795    3746.5864    84.183506 
   15700    1453.3247   -109.18888    1.3149988   -107.87388    1856.0433    4.3888132    4.3888132    4.3888132    1856.0433   -1087.5143   -25876.598    32532.243    24028.364    1089.7316   -5983.1537    84.535922 
   15800    1014.6042   -108.79204   0.91803521     -107.874     -24579.8    4.3952786    4.3952786    4.3952786     -24579.8    23221.649   -48292.751   -48668.298   -10267.339   -10101.197   -21739.139    84.910074 
   15900    1619.2164   -109.32147     1.465101   -107.85636   -1937.3495    4.3801193    4.3801193    4.3801193   -1937.3495   -10416.009   -6918.4349    11522.396    540.15425    -21557.62    8866.6225    84.034536 
   16000    1603.2139   -109.31209    1.4506216   -107.86147    8.2959318    4.3730289    4.3730289    4.3730289    8.2959318    8861.8242   -42936.565    34099.629    32883.569   -6057.5341    -17488.64    83.627102 
   16100    1593.1815   -109.31381    1.4415441   -107.87226   -4613.5115    4.3862695    4.3862695    4.3862695   -4613.5115    15400.477   -33559.218    4318.2063   -12919.806      1738.84   -11568.465     84.38902 
   16200    1279.7626   -109.03281    1.1579561   -107.87485   -20287.295    4.3906636    4.3906636    4.3906636   -20287.295   -58148.853    -14090.78    11377.747    25624.551   -21169.838    5120.9486    84.642889 
   16300    1420.8781   -109.15336    1.2856403   -107.86772    853.37655    4.3783602    4.3783602    4.3783602    853.37655   -3652.7619   -34341.066    40553.957     22528.92   -6948.0123   -13806.115    83.933334 
   16400    1207.1998   -108.95941    1.0922998   -107.86711    10809.215    4.3800664    4.3800664    4.3800664    10809.215    854.87747    3444.1612    28128.607   -22229.385    803.79576    4561.3879    84.031492 
   16500    1051.3746   -108.82505   0.95130579   -107.87374   -27553.543    4.3898551    4.3898551    4.3898551   -27553.543   -62881.385   -13349.251   -6429.9924    41913.318   -20958.542    866.96806    84.596141 
   16600    2193.8115   -109.84349    1.9850068   -107.85848    3167.0249    4.3797894    4.3797894    4.3797894    3167.0249    -3916.144   -18194.247    31611.465    1890.2429    2573.2426   -12764.739     84.01555 
   16700    1249.2421   -109.00849    1.1303405   -107.87815   -3269.1495     4.378707     4.378707     4.378707   -3269.1495   -22751.145   -15563.491    28507.187   -11065.245   -9253.1015    10190.878    83.953278 
   16800    769.34215   -108.59063   0.69611695   -107.89451    -8787.677    4.3778538    4.3778538    4.3778538    -8787.677   -31044.742   -13139.603    17821.314    40229.139   -6750.7719    6455.4632    83.904209 
   16900    1980.6547   -109.67009     1.792138   -107.87795    625.91505    4.3874897    4.3874897    4.3874897    625.91505   -2096.3109   -30085.139    34059.195    -14436.79    9044.7613    -8008.989    84.459463 
   17000    1269.6664   -109.02979    1.1488209   -107.88097   -16787.348    4.3911688    4.3911688    4.3911688   -16787.348   -47144.531   -39646.307    36428.793    15973.969   -11414.343    3620.1674    84.672113 
   17100    1037.5392   -108.81322   0.93878723   -107.87443    14850.737    4.3757741    4.3757741    4.3757741    14850.737    8824.7467    7005.1194    28722.344     21983.88    2415.7117   -5013.0946    83.784695 
   17200     1721.373   -109.41691    1.5575345   -107.85938   -1123.3729     4.380615     4.380615     4.380615   -1123.3729    6951.6783   -29364.333    19042.536   -6457.3551    11940.831   -9826.2379    84.063075 
   17300    1284.7605   -109.03084    1.1624783   -107.86836   -18003.733    4.3838329    4.3838329    4.3838329   -18003.733   -41583.219   -54972.514    42544.534    37734.127   -16990.884    4987.5348     84.24846 
   17400    1279.4132   -109.02048    1.1576399   -107.86284    17473.719    4.3831425    4.3831425    4.3831425    17473.719    33836.524    6586.4116    11998.221   -2401.8949   -6182.5356   -7167.5613    84.208665 
   17500    1187.3889   -108.94528    1.0743745   -107.87091   -12271.204    4.3854235    4.3854235    4.3854235   -12271.204     4258.198   -57484.965    16413.154    30378.282    9385.9416   -10054.708    84.340201 
   17600    1325.2026   -109.07271    1.1990712   -107.87364    3394.4316    4.3748198    4.3748198    4.3748198    3394.4316    16369.383   -44850.654    38664.566    26148.338   -5655.8797    1600.4648    83.729886 
   17700    1813.2929   -109.51331    1.6407055   -107.87261    5525.3967     4.380204     4.380204     4.380204    5525.3967    35337.975   -14366.841   -4394.9436   -16697.516   -11532.864   -2512.4403    84.039413 
   17800    1332.2558   -109.07795    1.2054531    -107.8725   -13467.413    4.3905976    4.3905976    4.3905976   -13467.413    29917.358   -62967.738   -7351.8589    46099.797    4656.3806    1481.3957    84.639072 
   17900    1055.0334   -108.82616   0.95461639   -107.87155   -3283.0247    4.3800763    4.3800763    4.3800763   -3283.0247    9104.8727   -16447.518   -2506.4284   -2826.5493   -10359.428    2028.3721    84.032066 
   18000    1521.8881   -109.24972    1.3770363   -107.87268    9932.3753    4.3687207    4.3687207    4.3687207    9932.3753    27608.324    6982.1392   -4793.3376   -16204.187    -15721.41   -3720.7174    83.380182 
   18100    1832.0141   -109.53626    1.6576448   -107.87862    13804.617    4.3735584    4.3735584    4.3735584    13804.617    41837.894   -11446.725    11022.683    22270.626    16266.274     1381.596     83.65748 
   18200    1246.5532     -109.019    1.1279075   -107.89109   -7765.0665    4.3865192    4.3865192    4.3865192   -7765.0665    -9750.436   -25337.416    11792.653   -26688.474   -9356.8342    1350.5159    84.403433 
   18300    1308.8002   -109.06661    1.1842299   -107.88238   -489.79884    4.3882452    4.3882452    4.3882452   -489.79884    166.05458    18916.834   -20552.285    3012.2071   -5226.2493    4064.8775    84.503102 
   18400    1637.5823   -109.35018    1.4817189   -107.86846   -5778.7678    4.3832798    4.3832798    4.3832798   -5778.7678    7034.2932   -13449.476   -10921.121   -7030.2215    25900.854    7026.5172    84.216574 
   18500    1384.0165   -109.12078    1.2522873   -107.86849    8975.9699    4.3691172    4.3691172    4.3691172    8975.9699    25366.603   -13623.035    15184.342   -28037.841   -13145.677   -797.64309    83.402885 
   18600    746.29445   -108.56492    0.6752629   -107.88965    9041.6944    4.3756511    4.3756511    4.3756511    9041.6944    27805.554    46239.695   -46920.166    21110.899    13798.966   -5067.1205    83.777628 
   18700    1559.3759   -109.28853     1.410956   -107.87757   -24313.897    4.3998004    4.3998004    4.3998004   -24313.897   -13376.075   -21327.464    -38238.15   -4071.9144    15543.584    1105.4476    85.172406 
   18800    1963.2677   -109.64425    1.7764058   -107.86784    10321.644    4.3795766    4.3795766    4.3795766    10321.644     36025.67   -21745.628     16684.89   -18764.307   -8434.5178    2216.0387    84.003309 
   18900    896.49656   -108.69354   0.81116893   -107.88237    3700.1985    4.3635387    4.3635387    4.3635387    3700.1985   -3673.8748    35764.119   -20989.649    15367.158    23847.898    3050.8207    83.083829 
   19000    1472.0693   -109.22539    1.3319593   -107.89343   -12969.101    4.3807311    4.3807311    4.3807311   -12969.101    -12236.74   -15413.033    -11257.53    13940.604   -13323.732    4874.5394    84.069758 
   19100    1654.7324   -109.37743    1.4972367    -107.8802    5428.7043      4.38787      4.38787      4.38787    5428.7043    36145.439    2995.3239    -22854.65   -1677.8999    9848.4273   -2164.4727    84.481432 
   19200    784.22101   -108.58919   0.70957965   -107.87961   -5369.9679    4.3923589    4.3923589    4.3923589   -5369.9679    5617.6125    36691.675   -58419.191    7027.1271     5784.358    2478.8106    84.740977 
   19300    1462.4083   -109.17813    1.3232178   -107.85491    7758.5039    4.3904579    4.3904579    4.3904579    7758.5039    30361.447   -10702.193    3616.2576    9347.6309   -16776.011    9745.9416    84.630996 
   19400    1562.6676   -109.26459    1.4139344   -107.85066    27462.665    4.3744347    4.3744347    4.3744347    27462.665    53418.686    14560.545    14408.765   -10506.763    9400.7865    8357.6492    83.707777 
   19500    1286.1007   -109.03156    1.1636909   -107.86786    23946.067    4.3776358    4.3776358    4.3776358    23946.067    33947.187    47229.303   -9338.2888    8220.8063   -21016.193    6143.1641     83.89168 
   19600    1630.1928   -109.33699    1.4750327   -107.86196   -3945.3717    4.3931347    4.3931347    4.3931347   -3945.3717    5058.4502   -35744.824    18850.259   -11681.496   -3526.1636    -4586.305    84.785888 
   19700    1340.4895   -109.07203    1.2129031   -107.85913   -15596.547    4.3886678    4.3886678    4.3886678   -15596.547   -1853.5785   -36588.532   -8347.5292   -5882.9982   -4820.9364   -11161.271    84.527517 
   19800    1342.9599     -109.079    1.2151383   -107.86387   -10668.016    4.3780666    4.3780666    4.3780666   -10668.016   -2951.5943    23011.429   -52063.882    11287.802   -23304.359   -15.009458    83.916448 
   19900    1766.7851   -109.46602    1.5986243   -107.86739   -9031.2662    4.3808933    4.3808933    4.3808933   -9031.2662    16093.499   -37994.509   -5192.7888   -21654.292   -1060.5039   -3163.0222    84.079096 
   20000    1372.2359    -109.1178    1.2416278   -107.87617   -6675.2781    4.3840102    4.3840102    4.3840102   -6675.2781    11805.762   -14915.463   -16916.134    -1735.414   -7399.8416   -14155.747    84.258683 
   20100    1403.7235   -109.14209    1.2701185   -107.87197    489.62997    4.3897383    4.3897383    4.3897383    489.62997    25102.883    11588.082   -35222.075     11256.76   -19730.701     -8030.94    84.589392 
   20200    1865.9047   -109.54318    1.6883098   -107.85487   -16076.085    4.3939186    4.3939186    4.3939186   -16076.085   -8099.0318   -43042.985     2913.763   -4110.9228    558.44229    -10603.03    84.831278 
   20300    1051.7363   -108.81227   0.95163309   -107.86063    12962.931    4.3743463    4.3743463    4.3743463    12962.931    30737.457    12711.167   -4559.8304    3045.0321   -9574.9019   -11722.155    83.702705 
   20400    1373.6017   -109.11283    1.2428637   -107.86997    3479.9227    4.3766316    4.3766316    4.3766316    3479.9227     15682.04    10418.733   -15661.005    19400.799   -10465.109    2599.3251    83.833957 
   20500    1868.5963   -109.55934    1.6907452    -107.8686   -6701.4296    4.3866914    4.3866914    4.3866914   -6701.4296    24790.903   -42540.505   -2354.6874    9678.8904    10316.998   -26113.817    84.413373 
   20600    1154.9104   -108.92448    1.0449872   -107.87949     14595.13    4.3818993    4.3818993    4.3818993     14595.13    19572.524     28202.69   -3989.8242   -1328.2759   -22222.934   -13373.895    84.137029 
   20700    1560.7898   -109.27752    1.4122354   -107.86528    10673.209    4.3859531    4.3859531    4.3859531    10673.209     4791.726    427.06608    26800.834    6880.3603    -8939.146    179.54819    84.370758 
   20800    1316.4628   -109.05517    1.1911632   -107.86401   -434.16838    4.3849813    4.3849813    4.3849813   -434.16838    13953.209   -43724.501    28468.788   -3250.2127     12605.08    -34140.93    84.314686 
   20900    1335.7185   -109.07485    1.2085862   -107.86626    4344.5536    4.3732558    4.3732558    4.3732558    4344.5536   -7260.2319    28105.748   -7811.8553    4579.8613   -34527.061    3791.2894     83.64012 
   21000    1429.8419   -109.16047     1.293751   -107.86672    16820.013     4.375807     4.375807     4.375807    16820.013    18049.518   -6795.0121    39205.533    3586.6684    10287.083   -14266.028     83.78658 
   21100    1088.2583   -108.85783   0.98467895   -107.87315   -26988.706    4.3929128    4.3929128    4.3929128   -26988.706    7789.0632   -45715.095   -43040.087   -18397.156   -15097.452   -29946.216    84.773037 
   21200    1403.2658   -109.13261    1.2697044   -107.86291   -6794.4176    4.3838078    4.3838078    4.3838078   -6794.4176    5205.9907    11652.952   -37242.196    5570.5297   -40608.359    19024.853    84.247014 
   21300    1495.7232   -109.21012    1.3533618   -107.85676    19778.862    4.3753065    4.3753065    4.3753065    19778.862    31102.063   -4663.3252     32897.85   -5190.6075    26597.272   -24650.616    83.757835 
   21400    1400.5028   -109.13495    1.2672043   -107.86774   -21035.616    4.3840876    4.3840876    4.3840876   -21035.616   -18738.996   -30104.083   -14263.768   -17509.086   -24241.045   -12706.623    84.263143 
   21500    1337.1397   -109.07966    1.2098721   -107.86979    15687.763    4.3782426    4.3782426    4.3782426    15687.763     30548.53     28789.23   -12274.471    8586.0314    -19519.87    11839.359    83.926568 
   21600     1592.927   -109.30456    1.4413138   -107.86324    2436.7706    4.3904632    4.3904632    4.3904632    2436.7706    8327.4207    -445.7191   -571.38977   -12823.341    25075.956   -26797.036    84.631305 
   21700    951.53122   -108.71869   0.86096544   -107.85773   -12403.519    4.3944556    4.3944556    4.3944556   -12403.519    6060.5263    -2366.999   -40904.085   -3318.2026    -38517.29    20313.047    84.862385 
   21800    1190.6824   -108.92691    1.0773544   -107.84956    20887.947    4.3835994    4.3835994    4.3835994    20887.947    42772.081    35390.696   -15498.935    1612.5516    9178.8339   -3178.1542    84.235002 
   21900    1668.5165    -109.3564    1.5097088   -107.84669    14925.708    4.3850867    4.3850867    4.3850867    14925.708    43534.671   -4099.4664     5341.918   -11346.333    3364.6486   -14854.384    84.320767 
   22000    833.76687   -108.62897   0.75440979   -107.87456   -8334.6374     4.383847     4.383847     4.383847   -8334.6374   -4292.7101    8931.4178    -29642.62   -14516.164   -37025.897    30149.218    84.249271 
   22100    1991.0863   -109.66519    1.8015767   -107.86362     11265.47    4.3872109    4.3872109    4.3872109     11265.47    15357.573    10860.915    7577.9219   -11637.956    21613.252   -5170.0526    84.443368 
   22200    1290.6911   -109.03511    1.1678444   -107.86726   -11365.097    4.3992821    4.3992821    4.3992821   -11365.097   -24908.763   -1074.8696   -8111.6578   -3184.0853   -25402.741    9513.0749    85.142313 
   22300    1009.6125   -108.77013   0.91351864   -107.85661   -19836.005    4.3957869    4.3957869    4.3957869   -19836.005   -37085.661   -3660.1368   -18762.217   -18711.649   -18510.909    14947.861    84.939536 
   22400    2077.5032   -109.71656    1.8797685   -107.83679    14059.481    4.3774941    4.3774941    4.3774941    14059.481    9354.3058    27496.833    5327.3036   -2241.5471     4388.234    -8594.592    83.883532 
   22500    716.53346   -108.52075   0.64833453   -107.87241     15081.08    4.3741103    4.3741103    4.3741103     15081.08   -12391.811    75935.233   -18300.182    1042.4421   -47590.875     21447.46    83.689156 
   22600     1881.921   -109.56591    1.7028016    -107.8631    4301.3327     4.396484     4.396484     4.396484    4301.3327    33270.072   -14138.401   -6227.6732   -2986.3373    8945.7576   -2592.3064    84.979953 
   22700    1212.4599   -108.95296    1.0970592   -107.85591   -24576.062    4.4099724    4.4099724    4.4099724   -24576.062   -12084.214   -12092.418   -49551.555    2039.6078   -36795.195   -6723.5481    85.764513 
   22800    1402.7617   -109.12236    1.2692482   -107.85311    8184.8758    4.3788693    4.3788693    4.3788693    8184.8758    36844.843    11956.657   -24246.872    9396.1908   -17815.243    9911.3885    83.962615 
   22900    1968.6123    -109.6216    1.7812418   -107.84036    31915.124    4.3589273    4.3589273    4.3589273    31915.124     64701.79    19463.607    11579.974   -8148.4634    888.54534   -10818.231    82.820694 
   23000    884.48065   -108.68985   0.80029668   -107.88956   -14895.463    4.3860478    4.3860478    4.3860478   -14895.463   -27852.877    20637.875   -37471.388    4767.0718   -58436.585     -4113.85    84.376222 
   23100    1942.0964   -109.61165    1.7572496    -107.8544   -27957.008    4.4093831    4.4093831    4.4093831   -27957.008   -20484.228   -36141.275   -27245.521    6954.2227     8500.017      -2367.5    85.730136 
   23200    1379.7666   -109.09722    1.2484419   -107.84878   -20401.732    4.3947977    4.3947977    4.3947977   -20401.732   -52786.604    19160.226   -27578.819    2857.9696   -36679.732    1127.8149    84.882207 
   23300    1499.8234   -109.19743    1.3570717   -107.84036     1340.866    4.3760145    4.3760145    4.3760145     1340.866   -15815.509    25282.538   -5444.4311    3424.1547   -37294.171   -11380.296    83.798504 
   23400    2001.2779   -109.65459    1.8107983   -107.84379    16718.816    4.3839831    4.3839831    4.3839831    16718.816    20696.841    24604.726    4854.8813    14375.631    7982.5952   -1875.2842     84.25712 
   23500    845.64953   -108.62815   0.76516147   -107.86299   -26467.597    4.4023426    4.4023426    4.4023426   -26467.597   -52270.572    40024.165   -67156.386    6260.2853   -55633.863   -140.26483    85.320131 
   23600    1928.5123   -109.58225    1.7449584   -107.83729   -2992.7045    4.3971728    4.3971728    4.3971728   -2992.7045    23461.537   -26825.171   -5614.4791    1835.9686    4266.6969   -15851.077    85.019902 
   23700    1195.4736   -108.93232    1.0816897   -107.85063   -5973.3119    4.3831536    4.3831536    4.3831536   -5973.3119   -24043.418    30275.364   -24151.882     13995.04   -31937.373    5016.7071    84.209304 
   23800    1139.0312   -108.89406    1.0306193   -107.86344    14654.609    4.3712526    4.3712526    4.3712526    14654.609   -2257.4039    49716.744   -3495.5121   -3099.7232   -32143.166   -12916.582    83.525239 
   23900    2028.2343   -109.69664     1.835189   -107.86145    17355.408    4.3876708    4.3876708    4.3876708    17355.408    17783.068   -21553.895     55837.05   -1930.9635    23149.979     -749.305    84.469924 
   24000      921.496   -108.71312   0.83378895   -107.87933   -19380.937    4.3975169    4.3975169    4.3975169   -19380.937   -30182.414   -2722.3942   -25238.002    11300.871   -55491.114    13942.932     85.03986 
   24100    1531.9425   -109.24638    1.3861338   -107.86025    26445.261      4.37823      4.37823      4.37823    26445.261     34649.26    8301.6942    36384.829     -3971.01    2108.5902   -13869.752    83.925845 
   24200     1439.891   -109.17365    1.3028436   -107.87081    5509.1957    4.3820764    4.3820764    4.3820764    5509.1957      9520.11    3577.9119    3429.5652   -9108.4685   -8073.0945    10646.889    84.147233 
   24300    885.87221   -108.67497    0.8015558   -107.87341   -14325.281    4.3966608    4.3966608    4.3966608   -14325.281   -26262.597    10632.833   -27346.078    7083.3045    -53566.77    17688.823    84.990205 
   24400    2084.8705   -109.73227    1.8864347   -107.84584    1779.7824    4.3938524    4.3938524    4.3938524    1779.7824   -5589.1469    8479.5045    2448.9896   -15527.142    12325.123   -1878.4479    84.827447 
   24500    1092.8226   -108.85138   0.98880886   -107.86257   -23141.021    4.3924476    4.3924476    4.3924476   -23141.021   -50791.932    22706.364   -41337.495   -1814.6992    -49463.74    12481.412    84.746107 
   24600    1434.5829   -109.15819    1.2980408   -107.86015    6156.7277    4.3763098    4.3763098    4.3763098    6156.7277    10998.418    24058.258   -16586.493     12983.39   -24354.641    14803.158    83.815471 
   24700    1764.1243   -109.46034    1.5962167   -107.86413   -397.32977    4.3836689    4.3836689    4.3836689   -397.32977   -6417.2163    -2239.204    7464.4309   -12128.925    206.31619   -5251.2772    84.239004 
   24800      847.116    -108.6472   0.76648836   -107.88071   -10896.861    4.3860342    4.3860342    4.3860342   -10896.861    9174.2437    20587.404   -62452.229   -8293.0677   -54248.847    10562.987    84.375439 
   24900    1539.5643   -109.26851    1.3930301   -107.87548    15584.619    4.3792974    4.3792974    4.3792974    15584.619    25120.357    2956.3042    18677.194    5200.0507     5942.709    10152.668     83.98724 
   25000     1718.858   -109.41785    1.5552588   -107.86259   -5173.2961    4.3896697    4.3896697    4.3896697   -5173.2961   -12010.389    13872.476   -17381.975   -9578.3774   -17083.529    605.71136    84.585425 
   25100    992.02374   -108.76642   0.89760392   -107.86881    -1406.985    4.3813042    4.3813042    4.3813042    -1406.985     1381.344    19700.262   -25302.561   -2126.7194   -50209.179    19975.322    84.102758 
   25200    1657.2891   -109.35999      1.49955   -107.86044    10535.105    4.3816215    4.3816215    4.3816215    10535.105     -4737.28   -714.22717    37056.822    2650.2687    20874.461    11104.958    84.121031 
   25300    1224.9119   -108.97729    1.1083261   -107.86896    2283.9978    4.3824004    4.3824004    4.3824004    2283.9978   -18868.724    34582.527   -8861.8095   -5952.9627   -40197.426   -413.20677    84.165896 
   25400    1032.9414   -108.80761    0.9346271   -107.87298    16959.809    4.3830301    4.3830301    4.3830301    16959.809   -2515.6847    3527.8798    49867.232   -7609.4571   -13996.065    20096.594    84.202182 
   25500     1806.143   -109.49236    1.6342361   -107.85812   -7632.9316    4.3936866    4.3936866    4.3936866   -7632.9316   -9014.8219   -10404.506   -3479.4672    6972.4284    1589.3492     13709.99    84.817842 
   25600     1385.032   -109.11414     1.253206   -107.86093    16222.222    4.3764645    4.3764645    4.3764645    16222.222   -30682.478    60553.752    18795.391   -7336.6843   -42299.178   -9310.8558    83.824355 
   25700    1435.5828   -109.16199    1.2989454   -107.86304    13572.498    4.3833603    4.3833603    4.3833603    13572.498    1311.6228    18059.472    21346.401    -2468.276    11722.487    33967.085    84.221217 
   25800    1346.8294   -109.07858    1.2186396   -107.85994   -22800.154    4.3961974    4.3961974    4.3961974   -22800.154   -52333.004   -1618.6174    -14448.84    966.61281    -22970.37   -6019.3642    84.963338 
   25900    1218.7569   -108.96024    1.1027568   -107.85748    14059.194     4.381298     4.381298     4.381298    14059.194   -18300.467    39013.525    21464.524    4154.6489   -18942.833    3630.7234    84.102396 
   26000    1470.4173   -109.19341    1.3304645   -107.86294   -550.33279    4.3777962    4.3777962    4.3777962   -550.33279    7267.7785   -29445.987     20527.21   -13245.758     10775.21    36989.278      83.9009 
   26100    1430.3691   -109.16326     1.294228   -107.86904    8376.3645    4.3766963    4.3766963    4.3766963    8376.3645   -17290.365    47556.627   -5137.1681   -18007.376   -38775.512    -18080.69    83.837675 
   26200    1679.6852   -109.38598    1.5198145   -107.86617   -5695.0909    4.3917546    4.3917546    4.3917546   -5695.0909    6829.8337   -10221.656   -13693.451    8598.7206    4958.9151    21004.629    84.706006 
   26300    1081.3434   -108.83951   0.97842221   -107.86109   -14753.915    4.3972098    4.3972098    4.3972098   -14753.915   -33293.811   -17400.922    6432.9863   -12953.744   -4465.1952    18177.178    85.022049 
   26400    1778.8832   -109.45022    1.6095709   -107.84065    3249.4114    4.3781719    4.3781719    4.3781719    3249.4114   -17042.405    21656.839       5133.8    7611.5702   -23935.227   -3734.0062    83.922505 
   26500     1016.819   -108.77619   0.92003924   -107.85615    1137.9948    4.3831525    4.3831525    4.3831525    1137.9948   -16424.708   -3957.7458    23796.438   -1983.5716    22389.907    23344.744    84.209239 
   26600    1330.3786   -109.06712    1.2037545   -107.86337   -16624.366    4.3853201    4.3853201    4.3853201   -16624.366   -41471.604   -10656.561    2255.0649   -18261.619   -10927.884    7549.4354    84.334231 
   26700    1574.6457   -109.28855    1.4247725   -107.86378    14149.938    4.3851555    4.3851555    4.3851555    14149.938    1133.6395    47533.395   -6217.2203    9219.9306    -3192.376   -8293.8162    84.324737 
   26800    1111.5006   -108.88303    1.0057091   -107.87732   -13388.577    4.3879586    4.3879586    4.3879586   -13388.577   -25963.828    1238.4196   -15440.322   -5215.4413    9555.0371    14780.225    84.486551 
   26900    1930.2298   -109.60734    1.7465125   -107.86083    20095.165    4.3822342    4.3822342    4.3822342    20095.165   -5900.3534    59365.792    6820.0552   -12485.669    6056.6661    4289.3818     84.15632 
   27000    1385.7335   -109.12459    1.2538408   -107.87075   -25742.088    4.3928805    4.3928805    4.3928805   -25742.088   -26480.141   -33739.977   -17006.146    19066.824    3248.0562   -16995.073     84.77117 
   27100    997.53368    -108.7671   0.90258943   -107.86451    -6749.032      4.38994      4.38994      4.38994    -6749.032   -31159.139    9800.9883     1111.055   -2966.2801   -384.57733    3098.2513    84.601051 
   27200    2012.5819   -109.66749    1.8210264   -107.84646   -702.14051    4.3835922    4.3835922    4.3835922   -702.14051   -18091.046   -3236.2621    19220.886    5698.5618   -29.079919   -4223.4181    84.234586 
   27300    960.29845   -108.73496   0.86889822   -107.86606   -24510.818    4.3917659    4.3917659    4.3917659   -24510.818   -22697.741   -24374.846   -26459.867    19801.328    6806.7243   -28613.086    84.706656 
   27400    1918.2212     -109.592    1.7356468   -107.85635   -25.966597    4.3867125    4.3867125    4.3867125   -25.966597   -16743.225    6839.1179    9826.2069   -17032.414   -7001.1287    3609.3453    84.414588 
   27500    1518.5554   -109.23925    1.3740208   -107.86523    3826.8812    4.3813779    4.3813779    4.3813779    3826.8812   -7094.9152    21068.811   -2493.2525    18991.799   -12043.427   -11100.796    84.107001 
   27600    1215.7317   -108.97766    1.1000196   -107.87764    -9534.934    4.3824016    4.3824016    4.3824016    -9534.934   -6035.3948   -5987.8041   -16581.603    3597.6419    8649.5509    -28129.24    84.165969 
   27700    1900.1031   -109.57782    1.7192532   -107.85857     829.6845    4.3891679    4.3891679    4.3891679     829.6845   -48605.817    30989.984    20104.887    977.27548   -10439.272    20287.274    84.556422 
   27800    789.74319   -108.58423   0.71457624   -107.86966   -9552.0023    4.3915325    4.3915325    4.3915325   -9552.0023   -38811.265    8480.0017    1675.2562     12035.01   -24490.208   -15987.432    84.693151 
   27900     1308.703   -109.04816     1.184142   -107.86402    1423.7688     4.388048     4.388048     4.388048    1423.7688   -9452.5815    4575.8266    9148.0612     3822.964    8237.4904   -9135.8465    84.491714 
   28000    1943.9135   -109.61765    1.7588938   -107.85875   -7625.7873     4.380544     4.380544     4.380544   -7625.7873   -40215.217    9772.2236    7565.6319     1277.514   -5654.8199    19754.028    84.058983 
   28100    939.90576   -108.72482   0.85044648   -107.87437    2168.7844    4.3761429    4.3761429    4.3761429    2168.7844   -9866.8768   -1288.8911    17662.121    19889.944   -17593.126   -28253.804    83.805879 
   28200    1783.7997   -109.48054    1.6140195   -107.86652   -24551.628    4.3962002    4.3962002    4.3962002   -24551.628   -33096.769    6869.1662   -47427.282   -5553.9149    26762.915    2461.6394    84.963498 
   28300    1347.9588    -109.0788    1.2196615   -107.85914   -25311.062    4.3930763    4.3930763    4.3930763   -25311.062   -56509.269       -10607   -8816.9167    4508.8868    6363.5709    5689.3162    84.782504 
   28400    1095.2361   -108.84481   0.99099264   -107.85382   -8292.6524    4.3677528    4.3677528    4.3677528   -8292.6524   -27600.893   -17944.078    20667.014     24140.78   -7375.0075   -29061.248    83.324774 
   28500    1291.1013   -109.04205    1.1682156   -107.87384    -3045.972    4.3763474    4.3763474    4.3763474    -3045.972   -41711.489     54229.65   -21656.076   -10908.124    51488.676    6166.1798    83.817631 
   28600    1787.0234    -109.4814    1.6169363   -107.86447   -4594.9443    4.3907149    4.3907149    4.3907149   -4594.9443   -13490.632   -27623.242    27329.041    17690.379   -6800.7186   -6712.2506     84.64586 
   28700    1094.0948   -108.85765   0.98995994   -107.86769   -5107.5526    4.3911174    4.3911174    4.3911174   -5107.5526   -16475.038   -6637.7559    7790.1366    16315.299    14512.131   -21956.965    84.669142 
   28800    1495.5326    -109.2093    1.3531893   -107.85611   -5771.6782    4.3904043    4.3904043    4.3904043   -5771.6782   -36309.101    20202.256   -1208.1903   -8637.9495    22405.434    11146.731    84.627894 
   28900    1815.1569   -109.49561    1.6423921   -107.85322    4141.2123    4.3736571    4.3736571    4.3736571    4141.2123    8844.3094   -31321.038    34900.366    24812.287   -9179.6127   -19446.697    83.663146 
   29000    851.73378   -108.64866   0.77066663   -107.87799    9472.3883    4.3676448    4.3676448    4.3676448    9472.3883   -18619.623    9876.8299    37159.958   -327.66135    39202.455   -12946.117    83.318595 
   29100    1414.4833   -109.16597    1.2798542   -107.88611   -34312.803    4.3934708    4.3934708    4.3934708   -34312.803   -73304.266    -15672.77   -13961.371   -12247.692   -8882.2444     2808.484    84.805346 
   29200    1645.1223   -109.35061    1.4885413   -107.86206   -4487.1821    4.3940508    4.3940508    4.3940508   -4487.1821    1050.0671   -11485.674   -3025.9397    8191.2029   -6074.2551   -13690.867    84.838938 
   29300     1426.022   -109.15003    1.2902947   -107.85974   -1131.6792    4.3807806    4.3807806    4.3807806   -1131.6792   -13880.142    6779.4874    3705.6168    2389.7256    46171.764   -547.02509    84.072606 
   29400      1513.76   -109.23383    1.3696818   -107.86414    1288.5429    4.3766916    4.3766916    4.3766916    1288.5429   -21621.453    21417.192      4069.89   -18415.774   -44068.144   -3412.6795    83.837407 
   29500    1440.6763   -109.17377    1.3035542   -107.87021     17075.75    4.3752614    4.3752614    4.3752614     17075.75    13641.322    31878.254    5707.6745   -5000.7556    17063.063    -2518.118    83.755247 
   29600    1206.8401   -108.97308    1.0919743   -107.88111   -22829.997    4.3942271    4.3942271    4.3942271   -22829.997   -41309.697   -7245.9878   -19934.305    8473.0165    43084.613   -2306.4095    84.849151 
   29700     1448.285   -109.17808    1.3104387   -107.86765    -13239.01    4.3888649    4.3888649    4.3888649    -13239.01   -15046.624   -15816.423   -8853.9831   -10285.313     -47676.3   -3457.0949     84.53891 
   29800    1313.9657   -109.05037    1.1889037   -107.86147    25875.257    4.3644828    4.3644828    4.3644828    25875.257    36189.998    40345.094    1090.6795   -6739.2823    34097.401    7196.5909    83.137765 
   29900    1570.8624   -109.29627    1.4213493   -107.87492   -1478.0809    4.3759654    4.3759654    4.3759654   -1478.0809   -1081.4496     17305.05   -20657.844    11453.054        17328   -25071.266    83.795682 
   30000    1255.7927    -109.0133    1.1362676   -107.87703    -8392.282    4.3925624    4.3925624    4.3925624    -8392.282   -18492.406    6505.2448   -13189.685   -18264.898   -25266.073     8599.505    84.752752 
   30100    1614.1109   -109.32535    1.4604815   -107.86487   -23662.978    4.3950818    4.3950818    4.3950818   -23662.978   -35574.582    12874.562   -48288.915     9988.632    40910.756    2817.3258    84.898668 
   30200    1227.9318   -108.97485    1.1110585   -107.86379   -7844.8625    4.3790225    4.3790225    4.3790225   -7844.8625   -9185.8555    15012.539   -29361.271   -15284.363   -12336.742   -25910.745    83.971427 
   30300    1025.4403   -108.80088   0.92783997   -107.87304   -2555.7543    4.3652099    4.3652099    4.3652099   -2555.7543   -39570.161    9213.8516    22689.047   -20580.373   -11530.085    6811.7914    83.179327 
   30400    1992.1786   -109.67663     1.802565   -107.87407   -13710.909     4.390301     4.390301     4.390301   -13710.909   -20786.455    14363.729       -34710    7655.0697     21617.58   -5222.1726    84.621925 
   30500    1164.5442   -108.92719    1.0537041   -107.87348    -13241.89    4.3987079    4.3987079    4.3987079    -13241.89   -37544.862    20916.868   -23097.677   -24449.707   -19988.679   -11833.166    85.108974 
   30600     1280.047   -109.02567    1.1582134   -107.86746    2594.4734    4.3843637    4.3843637    4.3843637    2594.4734   -23815.027    12107.744    19490.702   -24331.906    2444.0097    3274.6061     84.27907 
   30700    2078.7012   -109.73067    1.8808526   -107.84982    963.47106    4.3838407    4.3838407    4.3838407    963.47106   -1968.9612    29491.587   -24632.213    7645.0401    -7052.863   -52.223268    84.248908 
   30800    788.61532    -108.5829   0.71355571   -107.86934    22664.234    4.3829411    4.3829411    4.3829411    22664.234    14922.701    67088.354   -14018.353   -20025.556   -28967.697   -3830.5753    84.197054 
   30900    1472.3546   -109.19514    1.3322174   -107.86292    11697.593    4.3954046    4.3954046    4.3954046    11697.593    14091.704    30265.443    -9264.368   -1195.4692    7361.3304    5120.7474    84.917375 
   31000    1770.5231   -109.46037    1.6020065   -107.85837   -3325.8401    4.3865334    4.3865334    4.3865334   -3325.8401    15108.207    2654.7726     -27740.5   -6185.8399   -17743.936    1632.4878    84.404253 
   31100    1038.4191   -108.80338   0.93958341    -107.8638    24968.357    4.3666825    4.3666825    4.3666825    24968.357    663.79209     70142.28    4098.9987   -21123.934   -24675.496   -7869.4552    83.263533 
   31200    1655.2639   -109.37269    1.4977176   -107.87497    6199.9184    4.3843546    4.3843546    4.3843546    6199.9184    40448.918   -6381.0328    -15468.13     13079.93    3408.3867    13586.085     84.27854 
   31300    1159.2848   -108.92538    1.0489452   -107.87643   -12539.271    4.4035514    4.4035514    4.4035514   -12539.271    -18771.94    8579.6102   -27425.482    540.38356   -24763.673   -2879.0978    85.390432 
   31400     1379.326   -109.10491    1.2480432   -107.85686     -4294.49    4.3949836    4.3949836    4.3949836     -4294.49   -35755.412    19198.252    3673.6899   -21557.041    6894.6715   -600.25646    84.892979 
   31500    1770.9261   -109.44225    1.6023712   -107.83988    14220.283    4.3766091    4.3766091    4.3766091    14220.283    24557.782    39511.463   -21408.397    11925.141   -11342.641    12473.791    83.832664 
   31600    1097.6411   -108.85488   0.99316877   -107.86171   -5039.8266    4.3835147    4.3835147    4.3835147   -5039.8266   -12136.789    7766.6942   -10749.385   -23368.118   -22170.412   -2548.6231    84.230117 
   31700    1670.9146   -109.37013    1.5118786   -107.85825   -2737.8189    4.3979517    4.3979517    4.3979517   -2737.8189   -14837.382    -9336.679    15960.604   -11352.618    12979.165   -7374.9933    85.065092 
   31800     1714.983   -109.40666    1.5517527   -107.85491   -26443.968     4.392468     4.392468     4.392468   -26443.968   -33803.644    10036.699   -55564.959     6027.757   -48313.873    4712.6704    84.747287 
   31900    965.87329   -108.73845   0.87394245   -107.86451    -5924.857    4.3676913    4.3676913    4.3676913    -5924.857   -16728.168   -4588.5942    3542.1916    -39020.48    -183.2715    3399.1086    83.321257 
   32000    1333.8121   -109.08383    1.2068612   -107.87696    4442.7104    4.3773061    4.3773061    4.3773061    4442.7104   -1779.3129    22046.102   -6938.6581   -14496.569    2167.2748   -24674.492    83.872727 
   32100    1295.6448   -109.04244    1.1723267   -107.87012   -931.05944    4.3992215    4.3992215    4.3992215   -931.05944   -2274.8991    29153.556   -29671.835     2215.253   -36369.509     8722.376    85.138795 
   32200     1089.872   -108.84608   0.98613907   -107.85994    3477.9154    4.3910308    4.3910308    4.3910308    3477.9154   -7173.7812     30405.59   -12798.063   -37847.059    12320.889    1188.1927    84.664132 
   32300    1546.0342   -109.24752    1.3988842   -107.84864    -3758.719    4.3867725    4.3867725    4.3867725    -3758.719    7520.8263    26815.078   -45612.061   -3575.3612    2915.5053    -32857.65    84.418053 
   32400    1517.3228   -109.22682    1.3729056   -107.85391    9326.0556    4.3797862    4.3797862    4.3797862    9326.0556    4612.7637    25291.835   -1926.4323   -19555.336   -22281.476    11050.047    84.015367 
   32500    1170.9749   -108.92969    1.0595227   -107.87017   -1540.7424    4.3876329    4.3876329    4.3876329   -1540.7424    2258.4893    -5132.143   -1748.5733   -31633.394     2320.311   -3619.7293    84.467734 
   32600     1506.885   -109.22849    1.3634612   -107.86503   -28771.117    4.3963965    4.3963965    4.3963965   -28771.117   -14675.763    -16791.74   -54845.848    9915.3083    23495.391   -31735.942    84.974883 
   32700    1404.9041   -109.13026    1.2711868   -107.85907    17855.321    4.3740887    4.3740887    4.3740887    17855.321    44606.642    3873.9328    5085.3891    -26743.86   -1990.2554    19609.478    83.687918 
   32800    1241.6525    -108.9946    1.1234732   -107.87112    10017.685    4.3811452    4.3811452    4.3811452    10017.685    29413.819    -10750.33    11389.567   -13863.308   -2050.1185    1508.1996    84.093602 
   32900    1723.2475   -109.41305    1.5592305   -107.85382   -9730.4045    4.3918771    4.3918771    4.3918771   -9730.4045    12747.522   -25062.143   -16876.592    724.72365    23571.883   -16389.802    84.713091 
   33000    944.07077   -108.71593   0.85421507   -107.86172    30412.887    4.3765818    4.3765818    4.3765818    30412.887    102663.86   -39425.754    28000.551   -34556.488   -5483.6739    21032.408    83.831098 
   33100    1567.5222   -109.28023     1.418327    -107.8619   -3440.3012     4.382852     4.382852     4.382852   -3440.3012    3462.4626    -11529.86    -2253.506    6816.2144    19186.294     4696.922    84.191921 
   33200    1604.1539   -109.31362    1.4514721   -107.86215     26225.26     4.373965     4.373965     4.373965     26225.26    87887.634    934.48102   -10146.336   -1763.5747    23832.751    3195.7913    83.680819 
   33300     1152.917   -108.92938    1.0431835   -107.88619   -15750.204    4.3761779    4.3761779    4.3761779   -15750.204    13032.414   -49986.111   -10296.914   -26474.506   -12563.568    27780.611     83.80789 
   33400    1597.7203   -109.32584    1.4456509   -107.88019   -15633.065    4.3855374    4.3855374    4.3855374   -15633.065   -7142.4031   -30937.811   -8818.9806    20827.497    18852.125   -6180.7236    84.346768 
   33500    1527.4761    -109.2535    1.3820924   -107.87141    2506.3859    4.3817681    4.3817681    4.3817681    2506.3859    44084.296   -23877.706   -12687.432   -6823.8497    9909.7145    865.28681    84.129475 
   33600    936.57213   -108.72789   0.84743015   -107.88046   -13560.944    4.3876776    4.3876776    4.3876776   -13560.944    17242.565   -57705.986   -219.41127   -19245.483    -8201.734    20834.012    84.470315 
   33700    1760.2175   -109.45248    1.5926818    -107.8598    1550.0926    4.3863398    4.3863398    4.3863398    1550.0926    43767.632    -20147.42   -18969.934    18320.676    12185.342   -18686.998    84.393078 
   33800    1069.2557   -108.82811   0.96748502   -107.86063    -3227.462    4.3990717    4.3990717    4.3990717    -3227.462    61363.034   -50579.801   -20465.619   -16400.388    1191.5244    8862.1105    85.130096 
   33900    1191.6289   -108.92344    1.0782109   -107.84523   -21281.265    4.4012256    4.4012256    4.4012256   -21281.265    779.34527   -50210.016   -14413.123   -10125.738   -15416.333     7515.872    85.255204 
   34000     1520.836   -109.22431    1.3760844   -107.84822     8623.244     4.371827     4.371827     4.371827     8623.244    77508.122   -31322.389   -20316.001    14517.819   -2617.4047   -29506.332    83.558169 
   34100     1413.693   -109.14156    1.2791391   -107.86242    26239.895    4.3679786    4.3679786    4.3679786    26239.895    80702.493   -22759.859     20777.05    -23731.99    176.33248    17722.554    83.337701 
   34200    1218.2763   -108.97789     1.102322   -107.87557   -20355.409    4.3993359    4.3993359    4.3993359   -20355.409     5993.892   -47001.975   -20058.143   -13306.625   -5689.5999   -7348.2699    85.145437 
   34300    1428.0717   -109.14771    1.2921493   -107.85556   -11213.102    4.3998697    4.3998697    4.3998697   -11213.102    16233.077   -48007.433   -1864.9494    16636.923   -6177.5589   -25991.249    85.176432 
   34400    1626.3073   -109.31353     1.471517   -107.84202    16598.002    4.3737922    4.3737922    4.3737922    16598.002    17604.669    1625.7409    30563.594   -40808.605   -7167.8138    20087.629    83.670902 
   34500    1224.4351   -108.96633    1.1078946   -107.85844    7154.3848    4.3733635    4.3733635    4.3733635    7154.3848    11517.509   -20883.942    30829.588    -1991.797   -6066.5997   -30580.882    83.646298 
   34600    1277.3068   -109.02946    1.1557341   -107.87373    -1568.099    4.3859758    4.3859758    4.3859758    -1568.099    5312.9437   -40427.607    30410.367    11361.326   -8859.8849   -20998.094     84.37207 
   34700     1831.785    -109.5163    1.6574376   -107.85886     1493.288    4.3929335    4.3929335    4.3929335     1493.288   -7212.4699   -18126.437    29818.771    -30927.98   -9421.7492    15788.625    84.774236 
   34800    1313.5905   -109.04802    1.1885643   -107.85946   -29261.642     4.391009     4.391009     4.391009   -29261.642   -4800.1397   -67449.142   -15535.646    14330.513   -9538.7269   -46480.089    84.662867 
   34900    1524.2555   -109.23578    1.3791785   -107.85661    8459.7932    4.3712281    4.3712281    4.3712281    8459.7932   -10060.125    -22230.75    57670.255    3491.8357    -14147.47    7661.4991     83.52383 
   35000    1813.9313   -109.50834    1.6412832   -107.86706   -3063.8043    4.3759315    4.3759315    4.3759315   -3063.8043   -8116.8543   -17352.598    16278.039   -11494.062    7935.8374   -17770.403    83.793735 
   35100    977.90527   -108.76998   0.88482924   -107.88515   -21414.365    4.3893095    4.3893095    4.3893095   -21414.365    5854.7024   -76634.502    6536.7048     22101.24    1625.7752   -33437.067    84.564601 
   35200    1585.9759   -109.30316    1.4350243   -107.86814    2699.8993    4.3986113    4.3986113    4.3986113    2699.8993   -4455.0279   -50228.509    62783.235    4286.7926    -7806.702    20111.218    85.103372 
   35300    1305.3693   -109.05051    1.1811256   -107.86938   -18956.979    4.3859904    4.3859904    4.3859904   -18956.979    19293.838   -40052.527   -36112.248   -628.00111    10896.811   -37385.265     84.37291 
   35400    1133.7274   -108.88793    1.0258203   -107.86211    35723.791    4.3594733    4.3594733    4.3594733    35723.791    46428.669   -27986.974    88729.679    17737.332   -5273.0027   -2244.6617    82.851823 
   35500    1966.9783    -109.6439    1.7797633   -107.86414   -6598.3665    4.3836109    4.3836109    4.3836109   -6598.3665    -11436.44   -10206.799    1848.1393    926.04433   -2311.3961    14590.418    84.235664 
   35600    956.57029    -108.7435    0.8655249   -107.87797    -7345.343    4.3856061    4.3856061    4.3856061    -7345.343   -14809.632   -16973.936    9747.5386   -7724.8251    10439.047    -37352.94    84.350737 
   35700    1723.6613   -109.42591     1.559605    -107.8663    23515.975    4.3858258    4.3858258    4.3858258    23515.975    36028.281   -6960.8934    41480.537   -1802.4264   -81.528851    3411.1587    84.363412 
   35800    1140.0621   -108.90212    1.0315522   -107.87057   -7461.7844    4.3905277    4.3905277    4.3905277   -7461.7844   -595.87497   -27200.384    5410.9057   -7899.5473   -5062.9258   -15855.707    84.635032 
   35900    960.43726   -108.73578   0.86902381   -107.86676    7403.0106    4.3807977    4.3807977    4.3807977    7403.0106    44053.135   -28144.264    6300.1612   -2543.0468    15214.983   -33007.697    84.073593 
   36000    2129.8439   -109.77724    1.9271275   -107.85011   -7508.1212    4.3903075    4.3903075    4.3903075   -7508.1212   -6476.6721   -21960.621    5912.9298    1920.6919   -2393.8047    4884.7113    84.622298 
   36100    863.82111   -108.65471   0.78160349    -107.8731     8439.526    4.3772893    4.3772893    4.3772893     8439.526     28380.85   -23386.371    20324.099   -15845.219   -8672.6398   -30446.244    83.871759 
   36200    1616.0505   -109.33312    1.4622364   -107.87089    11287.861    4.3768249    4.3768249    4.3768249    11287.861    46636.404    3342.1465   -16114.967   -7158.9135    19436.058   -12616.241    83.845068 
   36300    1443.9587    -109.1743    1.3065242   -107.86778   -14876.879    4.3942696    4.3942696    4.3942696   -14876.879   -23435.613   -32770.026    11575.003    11509.155   -7186.3294    12993.737    84.851613 
   36400     1265.992   -109.00568    1.1454962   -107.86019    6115.2273    4.3944775    4.3944775    4.3944775    6115.2273    32885.841   -8781.5858    -5758.573   -13903.265   -1655.6362    -25572.18    84.863654 
   36500    1753.0486   -109.42289    1.5861952   -107.83669   -20634.483    4.4034225    4.4034225    4.4034225   -20634.483    2175.7603   -33836.866   -30242.342    11264.667    5882.0089    13534.335    85.382933 
   36600    1105.1489   -108.84435   0.99996196   -107.84438   -20719.589    4.3862747    4.3862747    4.3862747   -20719.589   -17891.509   -33802.457   -10464.802     977.6636   -14852.895    9728.5027    84.389319 
   36700    1789.7709   -109.45341    1.6194223   -107.83398    36909.912     4.357096     4.357096     4.357096    36909.912    26158.403    51928.335    32642.998   -17515.778    1953.3715   -27089.401    82.716356 
   36800    1030.1577   -108.80826   0.93210835   -107.87615     4270.739    4.3825508    4.3825508    4.3825508     4270.739    10910.518    1230.3252    671.37387    24403.863   -7923.7693    25237.852    84.174565 
   36900    1040.9102   -108.81345   0.94183744   -107.87161   -13491.669    4.3966506    4.3966506    4.3966506   -13491.669   -29909.417   -13008.083    2442.4943    -13813.89   -11665.658    7247.1876    84.989616 
   37000    1721.2084   -109.40823    1.5573856   -107.85084    18805.423    4.3815703    4.3815703    4.3815703    18805.423     6496.657    43501.633    6417.9788   -6848.3845    1249.9377   -9717.4888    84.118079 
   37100    1232.1007    -108.9736    1.1148306   -107.85877   -19663.564    4.3849446    4.3849446    4.3849446   -19663.564   -9418.8774   -41984.192   -7587.6225    2887.8477    612.33017    28899.248    84.312569 
   37200     1714.837   -109.41315    1.5516205   -107.86153    2626.7421     4.368104     4.368104     4.368104    2626.7421   -3132.5787   -5732.9368    16745.742   -24560.877   -7454.5954   -4650.3359    83.344878 
   37300    1331.7519   -109.08214    1.2049971   -107.87714    21513.005    4.3757653    4.3757653    4.3757653    21513.005    2212.0755    45093.838    17233.102    6871.6532   -1432.7175     6644.352    83.784184 
   37400    1076.1616   -108.84927   0.97373363   -107.87554   -36689.731    4.4019141    4.4019141    4.4019141   -36689.731   -53444.804   -46425.635   -10198.754   -1616.4335    13214.963    20294.539     85.29522 
   37500    1686.3849   -109.38412    1.5258765   -107.85825    19377.058    4.3782128    4.3782128    4.3782128    19377.058   -930.13889    10863.845    48197.467   -16385.755     1977.161   -18771.934    83.924856 
   37600    1076.7013   -108.83688   0.97422196   -107.86265    18478.357    4.3716483    4.3716483    4.3716483    18478.357    3258.3101    18769.852    33406.908    16137.114    1834.4827    18269.766    83.547923 
   37700    872.55169   -108.67046    0.7895031   -107.88096   -20493.528    4.3892563    4.3892563    4.3892563   -20493.528   -43431.519   -41294.477    23245.414   -18442.304    14418.533    4317.3468     84.56153 
   37800    2092.2865   -109.74942    1.8931448   -107.85627     7478.615    4.3911258    4.3911258    4.3911258     7478.615   -845.30834    -5013.018    28294.171    8806.5824    4382.5154    -8210.842    84.669627 
   37900    1030.6245   -108.79455   0.93253068   -107.86202   -19743.184    4.3985016    4.3985016    4.3985016   -19743.184    15995.741   -59406.302   -15818.992    8505.9054    8639.9366    16592.433    85.097005 
   38000    1295.5345   -109.02134    1.1722269   -107.84911   -3357.1985    4.3843405    4.3843405    4.3843405   -3357.1985   -10203.192   -14306.121    14437.717   -21430.606   -4491.0998   -4099.3352    84.277726 
   38100    1550.3292   -109.24624    1.4027705   -107.84347    21056.042    4.3713126    4.3713126    4.3713126    21056.042    7133.1068    19110.373    36924.647    11277.641   -19385.162     3980.815    83.528674 
   38200     1123.157    -108.8823     1.016256   -107.86604    6285.5625    4.3884353    4.3884353    4.3884353    6285.5625    10028.554   -7015.9141    15844.048   -734.71047     23907.99    15740.084    84.514087 
   38300    1324.5972   -109.06366    1.1985234   -107.86514   -7320.8977    4.3891229    4.3891229    4.3891229   -7320.8977    -35183.36   -2917.1137    16137.781   -9997.6811   -21092.323   -8899.8712    84.553817 
   38400    1579.5821   -109.29451    1.4292391   -107.86527    4280.6045    4.3815347    4.3815347    4.3815347    4280.6045   -3678.1499    9874.9349    6645.0287    8142.2999   -13742.585    5429.2357    84.116029 
   38500    1484.0569    -109.2098    1.3428059   -107.86699   -4417.8935    4.3858291    4.3858291    4.3858291   -4417.8935   -13209.761    2372.8933   -2416.8124   -2213.3578    4853.9626    14141.246      84.3636 
   38600    1275.8909   -109.02173    1.1544529   -107.86727    12541.551    4.3767432    4.3767432    4.3767432    12541.551   -3874.1918    25334.927    16163.917   -3694.5617   -22307.928   -18476.335     83.84037 
   38700    1668.7428    -109.3753    1.5099135   -107.86538    17224.198    4.3794783    4.3794783    4.3794783    17224.198   -5996.0897    46397.787    11270.897    11414.272    11740.773    14261.889    83.997649 
   38800    1360.0261   -109.10012    1.2305802   -107.86954   -20393.699    4.3905903    4.3905903    4.3905903   -20393.699    -47090.28   -7630.3735   -6460.4433   -22582.044   -17901.694    6413.1096    84.638655 
   38900    932.87591    -108.7255   0.84408573   -107.88141    9908.6034    4.3740884    4.3740884    4.3740884    9908.6034   -18909.832    37215.661    11419.981   -6743.4154   -11121.064     -7205.18    83.687899 
   39000    2025.4907   -109.69957    1.8327066   -107.86686    15710.863    4.3751955    4.3751955    4.3751955    15710.863   -13073.365    37639.668    22566.288    7533.6995    22840.568    4228.3393    83.751459 
   39100    1371.3007   -109.11818    1.2407817    -107.8774   -18093.504    4.3921616    4.3921616    4.3921616   -18093.504   -14345.461   -25575.948   -14359.102   -18721.295   -31867.386   -1223.7266    84.729556 
   39200    1080.1487   -108.85353   0.97734121   -107.87618   -6434.4176    4.3857392    4.3857392    4.3857392   -6434.4176   -32011.308    7585.7574    5122.2983   -7133.9366    10908.387    2706.4885    84.358412 
   39300     1811.771    -109.4958    1.6393285   -107.85647    6376.6773    4.3771085    4.3771085    4.3771085    6376.6773   -15651.476   -743.54708    35525.055     7071.735    12667.507   -5756.8945    83.861368 
   39400    1043.2599   -108.81853   0.94396351   -107.87457   -2593.0653    4.3763995    4.3763995    4.3763995   -2593.0653   -5347.0655   -6038.1951    3606.0647   -9383.2558   -45898.664    1735.3165    83.820624 
   39500     1231.936   -108.99593    1.1146816   -107.88125   -1143.8313    4.3768211    4.3768211    4.3768211   -1143.8313    2555.1547   -6792.9197    806.27105    -8118.449    4078.0625   -12833.015    83.844846 
   39600    1654.1842   -109.37434    1.4967406    -107.8776     1630.582    4.3809564    4.3809564    4.3809564     1630.582    27176.001   -32279.452     9995.197    25228.964    11031.543    3927.1406    84.082727 
   39700    1215.3744   -108.98301    1.0996963   -107.88331    132.22588      4.38584      4.38584      4.38584    132.22588    21614.662   -11381.681   -9836.3041    -11828.63   -37877.397    12203.774    84.364228 
   39800    1705.6579   -109.41717    1.5433151   -107.87385    835.71379    4.3781879    4.3781879    4.3781879    835.71379   -9357.2223     5188.418    6675.9457   -16547.846   -1717.6815   -8953.0396    83.923423 
   39900    1491.1951   -109.22437    1.3492647    -107.8751    4146.4258    4.3775883    4.3775883    4.3775883    4146.4258    40862.882    -26873.81    -1549.795    38486.196    4335.3031    7570.0981    83.888948 
   40000    984.16714   -108.77758   0.89049511   -107.88709   -23458.958     4.385862     4.385862     4.385862   -23458.958   -35017.473   -31305.934    -4053.467   -36808.473   -24166.323    6204.8912    84.365498 
   40100    1392.4164   -109.13984    1.2598876   -107.87995    22421.346    4.3729172    4.3729172    4.3729172    22421.346     30648.63    23743.749    12871.658   -23194.183   -7816.5106     1924.788    83.620692 
   40200    1695.7855   -109.41603    1.5343823   -107.88165    5993.2757    4.3804781    4.3804781    4.3804781    5993.2757     43451.28    -12379.47   -13091.983    19955.999    9748.1421    3967.0741    84.055191 
   40300    814.48194   -108.61998   0.73696038   -107.88302   -20885.411    4.3948898    4.3948898    4.3948898   -20885.411   -42218.767   -11356.032   -9081.4341   -39400.555   -30216.319   -3706.9859    84.887542 
   40400    1754.0027   -109.44607    1.5870585   -107.85901    32704.478    4.3812108    4.3812108    4.3812108    32704.478    68939.717    40036.169   -10862.451    13133.241    5041.0623    2011.1687    84.097375 
   40500    1596.4107   -109.31003    1.4444659   -107.86556    4880.2246    4.3761619    4.3761619    4.3761619    4880.2246    27037.129   -9946.8272    -2449.628   -27949.655    12099.262    2087.7772    83.806971 
   40600    1209.0414   -108.97658    1.0939661   -107.88261    12163.782    4.3730198    4.3730198    4.3730198    12163.782    18811.716    3463.0914    14216.538   -42290.425   -17381.261   -1093.0719     83.62658 
   40700      1806.07   -109.51742    1.6341701   -107.88325    12421.152    4.3778618    4.3778618    4.3778618    12421.152    32515.812    21284.556   -16536.913    21008.151    24465.682    3098.4025    83.904671 
   40800    938.63604   -108.74108   0.84929761   -107.89178   -20757.465    4.3923908    4.3923908    4.3923908   -20757.465   -6049.4078     -37322.4   -18900.586    -36125.99    5993.6868    2427.0572    84.742821 
   40900     1689.279   -109.39127    1.5284952   -107.86277    732.11715     4.386573     4.386573     4.386573    732.11715    3731.4586    16057.172   -17592.279   -5318.2167    -2659.446   -1083.5321    84.406537 
   41000    1449.4067   -109.17262    1.3114536   -107.86116   -18930.463    4.3878144    4.3878144    4.3878144   -18930.463   -13170.689   -3700.0626   -39920.638    4756.5275    25707.642   -5874.8463    84.478216 
   41100    794.64618   -108.59738   0.71901257   -107.87836    52.411249    4.3750559    4.3750559    4.3750559    52.411249    8694.5322   -9300.6374    763.33889   -37853.166   -8836.5549   -2790.3466    83.743447 
   41200    1944.8502    -109.6283    1.7597413   -107.86856    18715.878    4.3768116    4.3768116    4.3768116    18715.878    8209.1149    60948.559    -13010.04    14932.607    232.38077   -2054.6583    83.844301 
   41300     1488.323   -109.22155     1.346666   -107.87489   -24795.928    4.3933172    4.3933172    4.3933172   -24795.928   -58611.865   -7768.1396   -8007.7802   -7946.2084     6589.514   -7850.1353    84.796454 
   41400    1210.3517   -108.96494    1.0951516   -107.86979    21524.542    4.3787075    4.3787075    4.3787075    21524.542    7103.8797    55148.011    2321.7344   -38548.116   -16223.594    -2519.034    83.953307 
   41500    1782.1471   -109.47568    1.6125241   -107.86316   -2403.4502    4.3875564    4.3875564    4.3875564   -2403.4502    9410.4741   -3078.1619   -13542.663    16891.902   -10468.758    600.54077    84.463316 
   41600    1284.2319   -109.03675        1.162   -107.87475   -591.64026    4.3772872    4.3772872    4.3772872   -591.64026    18405.327   -28224.905    8044.6572   -21792.308    12392.831   -97.450631    83.871638 
   41700    905.49013   -108.70183    0.8193065   -107.88252    24841.812    4.3739879    4.3739879    4.3739879    24841.812    81669.242   -212.62269   -6931.1824    -26516.58   -20272.074    4856.2983    83.682133 
   41800    1699.2881   -109.40464    1.5375516   -107.86709   -12388.395    4.3939475    4.3939475    4.3939475   -12388.395     5572.939   -12163.601   -30574.523    7757.7576   -17222.529   -3072.2337    84.832954 
   41900    1331.2098     -109.074    1.2045066   -107.86949    18553.734    4.3765944    4.3765944    4.3765944    18553.734    59187.733   -27601.946    24075.414   -36947.541    2547.0288    1603.7429    83.831821 
   42000    1218.6127   -108.98628    1.1026264   -107.88366    -8587.853    4.3756344    4.3756344    4.3756344    -8587.853   -13585.431    3646.0016    -15824.13   -11625.283   -30284.817    17565.247    83.776668 
   42100     1802.699   -109.51089      1.63112   -107.87977   -542.37229    4.3818002    4.3818002    4.3818002   -542.37229    23036.921   -5143.8889   -19520.149    5511.9752   -14872.126   -1578.0877     84.13132 
   42200    1310.2722   -109.07041    1.1855618   -107.88485    767.28207    4.3881434    4.3881434    4.3881434    767.28207    30405.483   -41824.069    13720.432   -34177.576    10374.494    5903.3783    84.497223 
   42300    1251.8341   -109.01366    1.1326858   -107.88097    1641.1002    4.3813915    4.3813915    4.3813915    1641.1002    14681.737   -19159.203    9400.7665    12845.582   -22014.605    10204.199    84.107782 
   42400    1400.9995   -109.14194    1.2676538   -107.87428    26796.726    4.3746899    4.3746899    4.3746899    26796.726    71298.415    19174.977   -10083.215   -5021.3588    9401.8552   -16602.908     83.72243 
   42500    1638.4949    -109.3566    1.4825446   -107.87405   -23574.955    4.3926302    4.3926302    4.3926302   -23574.955   -14874.469   -46929.285   -8921.1128   -18000.974    12550.709    17459.245    84.756676 
   42600    1131.3126   -108.90387    1.0236354   -107.88024    17564.209    4.3756674    4.3756674    4.3756674    17564.209    36483.119   -16767.791    32977.298    23344.315   -19009.881    786.70541    83.778565 
   42700    1523.7634   -109.25954    1.3787331   -107.88081    23451.331    4.3749972    4.3749972    4.3749972    23451.331    55978.329    12590.805    1784.8588   -6209.7321     22249.63   -23140.647    83.740072 
   42800    1658.8925    -109.3688    1.5010008    -107.8678    -8502.647    4.3951592    4.3951592    4.3951592    -8502.647    9503.4596   -42505.165    7493.7642    1480.3137     5458.164    24156.604    84.903153 
   42900    929.30857   -108.71236   0.84085792    -107.8715    7803.2076    4.3857419    4.3857419    4.3857419    7803.2076    30763.609   -40492.323    33138.337    23544.452   -5412.6073   -12993.311    84.358569 
   43000    1407.0657   -109.14379    1.2731426   -107.87065   -725.76974    4.3792111    4.3792111    4.3792111   -725.76974    20299.937   -20553.716   -1923.5303   -7907.1819    24040.405   -18634.013    83.982276 
   43100    1488.8649   -109.22017    1.3471562   -107.87302    18296.021     4.380008     4.380008     4.380008    18296.021     30043.84   -6110.2636    30954.486   -5612.1326    4595.3117    38520.327     84.02813 
   43200    1581.3415   -109.31023     1.430831    -107.8794   -324.47655    4.3895447    4.3895447    4.3895447   -324.47655    21343.747    -22264.58   -52.596338    19849.464   -1031.3864   -19732.512      84.5782 
   43300    1348.5681   -109.08784    1.2202127   -107.86763   -19910.523    4.4016416    4.4016416    4.4016416   -19910.523     1489.735   -38135.934    -23085.37   -18020.774     6668.665    201.02806    85.279382 
   43400     1376.086   -109.10165    1.2451115   -107.85653    4793.7276    4.3861665    4.3861665    4.3861665    4793.7276    39229.952    -10119.61   -14729.159    575.36412   -2581.4028    38750.486    84.383076 
   43500    1960.5036   -109.62492    1.7739049   -107.85102    8770.9724    4.3682851    4.3682851    4.3682851    8770.9724    17586.879    -12249.95    20975.988    21400.432    1100.2637   -22820.726    83.355242 
   43600    832.21997   -108.64278   0.75301012   -107.88977   -26019.507    4.3828703    4.3828703    4.3828703   -26019.507   -9249.6173   -52600.688   -16208.216   -33953.622    7048.3899    25879.908    84.192977 
   43700    1202.6133   -108.98427    1.0881498   -107.89612   -11267.972    4.3902979    4.3902979    4.3902979   -11267.972    46849.578   -36978.979   -43674.514    6204.4437   -3609.9167    26789.252    84.621746 
   43800    2109.9611   -109.77735    1.9091372   -107.86821    -12673.58    4.3934596    4.3934596    4.3934596    -12673.58   -11314.511   -16441.946   -10264.283    6579.2274     6823.676   -7174.0481    84.804696 
   43900    583.46006   -108.40757   0.52792693   -107.87964   -14438.143     4.392332     4.392332     4.392332   -14438.143    17208.168   -25709.989   -34812.607   -32434.111     8883.335    38405.439    84.739421 
   44000    1731.2146   -109.43417    1.5664393   -107.86773   -1424.4243    4.3789161    4.3789161    4.3789161   -1424.4243    27280.436    4478.4141   -36032.123     3952.033   -11935.264   -8576.8571    83.965305 
   44100    1542.9617    -109.2675    1.3961042    -107.8714    41551.704    4.3665098    4.3665098    4.3665098    41551.704    99769.843     5008.891    19876.379    10979.402    3898.0974    6207.2485    83.253656 
   44200    1203.7104   -108.98879    1.0891425   -107.89964   -752.70885    4.3869726    4.3869726    4.3869726   -752.70885    16916.449   -21262.913    2088.3374     -15718.5    7611.6524    24207.496    84.429607 
   44300    1481.6164   -109.21729    1.3405977   -107.87669   -30004.894    4.4015778    4.4015778    4.4015778   -30004.894    -26948.62   -16472.525   -46593.536    9953.4266   -11996.635   -21278.698    85.275674 
   44400    1469.9609   -109.19236    1.3300515   -107.86231    17154.435    4.3739213    4.3739213    4.3739213    17154.435    34703.288   -21582.833    38342.848   -7945.9562   -3901.2557    952.27507    83.678308 
   44500    1572.4794   -109.28391    1.4228124    -107.8611    10746.725    4.3726405    4.3726405    4.3726405    10746.725    5615.9872    24047.057    2577.1303   -7316.3144    9720.1665    7840.2923    83.604823 
   44600    696.80503   -108.50951   0.63048383   -107.87903   -10475.052    4.3892292    4.3892292    4.3892292   -10475.052   -5152.8769    10774.276   -37046.556    22911.849   -11269.649   -30424.316    84.559961 
   44700    1850.5556   -109.53358    1.6744216   -107.85915   -6737.2279    4.3985709    4.3985709    4.3985709   -6737.2279   -8480.9065     11137.11   -22867.887    4407.8331    1298.7232    4319.1288    85.101028 
   44800    1528.3359   -109.24815    1.3828704   -107.86528   -6835.4742    4.3918802    4.3918802    4.3918802   -6835.4742    20993.538    19705.492   -61205.452    1110.0184    12018.662   -1711.6931    84.713274 
   44900    926.70074   -108.70833    0.8384983   -107.86983    16253.073    4.3685998    4.3685998    4.3685998    16253.073    58765.567    19629.741   -29636.088     19293.01   -8813.4135   -25758.836    83.373259 
   45000    1822.6548   -109.51806    1.6491764   -107.86888    22789.695    4.3796281    4.3796281    4.3796281    22789.695    23034.881    48712.166   -3377.9625    18615.614    5543.9731    11952.113    84.006268 
   45100    1566.0526   -109.28755    1.4169973   -107.87055   -13537.482    4.3993309    4.3993309    4.3993309   -13537.482    24867.093    893.43593   -66372.975   -5999.0464    848.07289   -1176.2113    85.145147 
   45200    943.90581   -108.72605   0.85406582   -107.87199    -5447.133     4.390447     4.390447     4.390447    -5447.133   -31045.628    21822.432   -7118.2031    31986.454     -4103.88   -16639.703    84.630365 
   45300    1696.6586   -109.39318    1.5351723   -107.85801    9629.5863    4.3789508    4.3789508    4.3789508    9629.5863    18594.912    8233.6848    2060.1621    10131.636    326.85621    30414.756    83.967303 
   45400    1665.4341   -109.36949    1.5069198   -107.86257   -1561.6722    4.3865353    4.3865353    4.3865353   -1561.6722    29077.995    2176.7814   -35939.793   -11600.596   -8103.3619   -15139.834    84.404359 
   45500    844.16452    -108.6425    0.7638178   -107.87868   -8159.1548    4.3825022    4.3825022    4.3825022   -8159.1548    -18053.05   -15408.315    8983.9012    29811.933    -1297.898   -4966.2898    84.171762 
   45600    1351.2966   -109.10422    1.2226816   -107.88154    13251.771    4.3777041    4.3777041    4.3777041    13251.771    49186.137   -7547.7375   -1883.0861   -572.98724    1299.3631    27740.309    83.895603 
   45700    1845.1496   -109.54886    1.6695302   -107.87933   -1900.1465    4.3823039    4.3823039    4.3823039   -1900.1465    20571.047    -120.5928   -26150.894   -6764.5455   -5473.6052   -27375.345    84.160339 
   45800     980.6561   -108.78141   0.88731825   -107.89409    -6144.841    4.3817313    4.3817313    4.3817313    -6144.841    31114.245   -41333.158   -8215.6098    19776.012   -7041.4897    7712.1177    84.127356 
   45900    1557.9394   -109.29235    1.4096563   -107.88269   -9439.4433    4.3906541    4.3906541    4.3906541   -9439.4433   -5442.9591   -3791.8358   -19083.535   -11065.978    8631.7582    31921.926    84.642345 
   46000    2035.2956   -109.70647    1.8415782   -107.86489   -22896.448    4.3921046    4.3921046    4.3921046   -22896.448   -25119.611   -22066.818   -21502.916   -3209.9709    6021.1549   -27241.007    84.726259 
   46100    1024.2499   -108.80649   0.92676283   -107.87972   -2149.0362    4.3690597    4.3690597    4.3690597   -2149.0362    21836.094   -27962.416   -320.78661    24500.489   -11475.998    19395.831    83.399593 
   46200    1090.9955    -108.8852   0.98715568   -107.89804    20318.369     4.375182     4.375182     4.375182    20318.369    17721.476    56832.096   -13598.464    -10283.85    18760.681    24989.365    83.750685 
   46300    2121.5739   -109.79178    1.9196447   -107.87213   -18305.178    4.4016229    4.4016229    4.4016229   -18305.178    -23071.08   -13969.763   -17874.692    6570.6151    3375.2501    -16403.08    85.278295 
   46400     734.1604    -108.5343   0.66428376   -107.87002    18096.853    4.3970566    4.3970566    4.3970566    18096.853    2717.7885    20886.853    30685.916    7089.6737   -9594.1566    35622.434    85.013162 
   46500    1631.9513   -109.32299    1.4766239   -107.84637    1338.3278    4.3881708    4.3881708    4.3881708    1338.3278    503.24837    20529.651   -17017.916   -12478.883    12915.253   -10512.005    84.498806 
   46600      1524.56   -109.23728    1.3794539   -107.85783    23085.811    4.3653551    4.3653551    4.3653551    23085.811    16054.072    28244.957    24958.404    11993.203    5450.8141   -11951.133    83.187623 
   46700    1379.8402   -109.13709    1.2485084   -107.88858     17536.14    4.3722883    4.3722883    4.3722883     17536.14    10606.351    29471.665    12530.405     3902.791   -14355.545    29018.973    83.584618 
   46800    1298.4254   -109.06186    1.1748426   -107.88702    -5112.979    4.3961221    4.3961221    4.3961221    -5112.979   -729.62831    6110.6337   -20719.942   -10084.053   -6562.1972   -27793.784     84.95897 
   46900    1392.0453   -109.12761    1.2595518   -107.86806    25345.616     4.388435     4.388435     4.388435    25345.616    17972.209    10578.644    47485.993    4083.7783    10411.765   -17276.945     84.51407 
   47000    1700.8607   -109.39449    1.5389745   -107.85551   -1178.4455    4.3883796    4.3883796    4.3883796   -1178.4455   -24647.638      34711.4   -13599.098    1142.3483   -36875.768    18472.402    84.510865 
   47100    1049.2669   -108.81618   0.94939874   -107.86678   -5676.6719    4.3788306    4.3788306    4.3788306   -5676.6719   -21386.969    7168.1613   -2811.2082   -6036.3605   -18597.711   -38732.093    83.960389 
   47200    1583.2421   -109.30243    1.4325507   -107.86988    5953.8097    4.3699743    4.3699743    4.3699743    5953.8097   -15519.241     11719.98    21660.689    3251.4506    16197.167   -19532.199    83.451982 
   47300    1389.7083   -109.14067    1.2574373   -107.88323   -8968.9735     4.391344     4.391344     4.391344   -8968.9735    -48621.23    52326.584   -30612.275    1839.5843   -40524.983     10881.31    84.682247 
   47400    1494.7599   -109.22465    1.3524902   -107.87216   -15710.875      4.38993      4.38993      4.38993   -15710.875   -23776.233   -10169.923    -13186.47   -5096.6158   -11666.236   -31912.337    84.600475 
   47500    1333.2791   -109.07679     1.206379   -107.87041    4647.8293    4.3800028    4.3800028    4.3800028    4647.8293    -31537.68   -11366.022     56847.19    12637.863    14482.855    1727.9552    84.027836 
   47600     1469.704   -109.19599     1.329819   -107.86617   -8449.2937    4.3801649    4.3801649    4.3801649   -8449.2937   -30227.119    8099.3292   -3220.0917    1116.3448   -41717.452    1042.4196    84.037165 
   47700    1315.2725   -109.05943    1.1900862   -107.86934    4626.9288    4.3946436    4.3946436    4.3946436    4626.9288    1340.4396   -19057.165    31597.512    461.67575    3166.9131    -40680.16     84.87328 
   47800    1585.4464   -109.29244    1.4345452    -107.8579   -14548.534    4.4001163    4.4001163    4.4001163   -14548.534   -24632.124   -4349.2669   -14664.211     25228.74   -3271.7412    22449.826    85.190753 
   47900    918.87437   -108.69486   0.83141684   -107.86344     21341.94    4.3708242    4.3708242    4.3708242     21341.94    9793.0931    18183.892    36048.834   -5235.2134   -37579.963   -29442.275    83.500684 
   48000    1770.8366   -109.47216    1.6022901   -107.86987    11682.527    4.3768671    4.3768671    4.3768671    11682.527     8550.184    11286.886    15210.511    15697.139    8166.0326   -24639.761     83.84749 
   48100    1593.3935   -109.31569    1.4417359   -107.87395    4219.0415    4.3920275    4.3920275    4.3920275    4219.0415   -1717.8248   -14616.688    28991.637    21455.697   -10635.685    14831.778    84.721797 
   48200    968.30854   -108.75325   0.87614592    -107.8771   -11862.778    4.3972048    4.3972048    4.3972048   -11862.778   -15554.427    7982.9811   -28016.889    -8550.695   -18731.382   -45458.493    85.021759 
   48300    1651.7825   -109.34961    1.4945675   -107.85505   -6766.0681      4.39501      4.39501      4.39501   -6766.0681    1167.4755   -14068.939   -7396.7413    18242.991    7535.5236    14307.177    84.894507 
   48400    1074.2166   -108.82563   0.97197373   -107.85366    34544.116    4.3705008    4.3705008    4.3705008    34544.116    72938.491    13225.689     17468.17    19598.632   -19304.606    11.450232    83.482149 
   48500    1319.3684   -109.06558    1.1937922   -107.87179   -3018.9053    4.3843885    4.3843885    4.3843885   -3018.9053    17200.123   -4815.4002   -21441.439   -14834.451   -13913.003   -43884.656    84.280495 
   48600    1734.9375   -109.42551    1.5698079   -107.85571   -14106.276    4.3958829    4.3958829    4.3958829   -14106.276    9473.8909   -33450.943   -18341.776    10239.212     7859.724    24596.373    84.945104 
   48700    1034.2626   -108.80019   0.93582251   -107.86437     8709.026    4.3796054    4.3796054    4.3796054     8709.026    15223.239   -10096.303    21000.142    25947.595    -19854.18   -23457.616    84.004963 
   48800    1452.6854   -109.18093    1.3144202   -107.86651   -11223.518    4.3829371    4.3829371    4.3829371   -11223.518   -7911.0857   -32086.021    6326.5514   -30695.011   -4904.8278   -14136.664    84.196827 
   48900    1439.4224   -109.16734    1.3024197   -107.86492   -15172.702    4.3798157    4.3798157    4.3798157   -15172.702   -19445.137   -34105.689    8032.7217   -1043.3123    8737.5727    7424.3709    84.017065 
   49000    1348.4908   -109.08909    1.2201428   -107.86895   -12362.082     4.389033     4.389033     4.389033   -12362.082    21306.819   -41553.058   -16840.006     25566.15   -16968.004   -30546.576    84.548622 
   49100    1333.6767   -109.07083    1.2067387   -107.86409   -25216.644    4.3952245    4.3952245    4.3952245   -25216.644   -48320.353   -41548.423    14218.845   -52763.355    8424.8546    1545.5931    84.906941 
   49200    1459.2986   -109.17814     1.320404   -107.85774    6788.0189    4.3693438    4.3693438    4.3693438    6788.0189    23393.473   -10760.453    7731.0371    23691.222    8214.9188    1720.5343    83.415866 
   49300    1512.7319   -109.23911    1.3687516   -107.87036   -5186.5398    4.3770312    4.3770312    4.3770312   -5186.5398    18727.727   -31875.037     -2412.31   -596.03461   -5967.6945    -9926.636    83.856925 
   49400    1322.1263   -109.06693    1.1962877   -107.87065   -5704.6725    4.3932582    4.3932582    4.3932582   -5704.6725    20653.783   -44080.142    6312.3419   -57229.255   -40.649801    5761.2337    84.793038 
   49500    1427.9074   -109.15169    1.2920007   -107.85969   -1181.4557    4.4018415    4.4018415    4.4018415   -1181.4557    25853.202   -23476.991   -5920.5783    35316.305    10330.947    3855.5159    85.291001 
   49600     1293.012    -109.0288    1.1699444   -107.85886   -14505.957    4.3918933    4.3918933    4.3918933   -14505.957   -19020.187    -28793.59    4295.9056   -31861.986    1968.3827    414.92909    84.714031 
   49700    1489.3697   -109.20398     1.347613   -107.85637    24790.987    4.3671592    4.3671592    4.3671592    24790.987    11374.801    66150.373   -3152.2125   -38840.979    12793.929    9731.5034    83.290805 
   49800    1409.6086   -109.15278    1.2754435   -107.87734    19694.035    4.3763881    4.3763881    4.3763881    19694.035   -17165.587    74604.027    1643.6645    29589.603    10186.523     3596.915    83.819968 
   49900    1376.7741   -109.12964    1.2457341   -107.88391   -9816.7651    4.3965215    4.3965215    4.3965215   -9816.7651   -47513.522    14402.779    3660.4483   -29123.675   -1801.4238   -3358.8341    84.982127 
   50000    1199.2921   -108.95932    1.0851447   -107.87418   -2543.3778    4.4004613    4.4004613    4.4004613   -2543.3778    15306.541    9669.4079   -32606.082   -9738.3989    25127.756    11517.418    85.210793 
   50100    1942.1698   -109.60776     1.757316   -107.85045   -6506.3124    4.3887629    4.3887629    4.3887629   -6506.3124   -28808.866    1432.4327    7857.4958    -2783.044    6730.8894    12181.832    84.533016 
   50200    1196.4521   -108.94595     1.082575   -107.86338    19063.762    4.3689103    4.3689103    4.3689103    19063.762    17090.055   -2997.5767    43098.807   -17686.646   -2419.0349   -5239.4086     83.39104 
   50300    1094.1004   -108.87301     0.989965   -107.88304   -1576.8208    4.3822389    4.3822389    4.3822389   -1576.8208   -6168.5748    12524.064   -11085.951    8695.1667    34459.622    27903.967    84.156596 
   50400     2005.743   -109.67431    1.8148384   -107.85947   -21846.293     4.403623     4.403623     4.403623   -21846.293   -30616.233   -12865.768    -22056.88   -8207.1289    -7807.045    2320.9994    85.394596 
   50500    1181.5598   -108.93588    1.0691002   -107.86678    2792.0792    4.3873331    4.3873331    4.3873331    2792.0792   -11551.102   -3956.9989    23884.339   -20869.476    16334.151   -834.29943     84.45042 
   50600    1033.8148   -108.80051   0.93541739    -107.8651    16877.312    4.3798533    4.3798533    4.3798533    16877.312    5695.3391    37193.031    7743.5655    10126.841    31473.356    25159.297    84.019231 
   50700    2059.7217    -109.7163    1.8636795   -107.85262    2674.1657    4.3926071    4.3926071    4.3926071    2674.1657    -10596.53   -1011.6163    19630.644   -3402.9579   -17280.365   -12291.921    84.755342 
   50800    1104.8757   -108.86811   0.99971476   -107.86839   -8403.2108    4.3943569    4.3943569    4.3943569   -8403.2108   -21600.806     1681.505   -5290.3315   -14562.018    27149.664    19309.345    84.856668 
   50900    928.14555   -108.71977    0.8398056   -107.87996    -11202.46    4.3852906    4.3852906    4.3852906    -11202.46   -5036.6231   -14357.547    -14213.21    20356.995    8528.9469    35508.103    84.332531 
   51000    2176.4553   -109.83741    1.9693025   -107.86811    15013.075    4.3741408    4.3741408    4.3741408    15013.075   -17999.335    20326.472     42712.09   -21.122169   -3190.4549   -15470.959     83.69091 
   51100    1046.1724   -108.84405   0.94659879   -107.89745   -6296.3982    4.3903794    4.3903794    4.3903794   -6296.3982    -55139.74    460.62639    35789.919    5688.6617    25721.422    20517.096    84.626457 
   51200    996.34698   -108.78978   0.90151568   -107.88826    4186.7245    4.3985272    4.3985272    4.3985272    4186.7245   -49263.289   -13290.323    75113.786    15646.963   -2510.0991     14492.12    85.098489 
   51300    1844.7937   -109.52226    1.6692081   -107.85305    10101.427    4.3999763    4.3999763    4.3999763    10101.427   -46017.374    23531.798    52789.858   -14308.449   -1342.6848     -2821.67    85.182623 
   51400    1101.5083   -108.86605   0.99666787   -107.86939   -23520.348    4.3866305    4.3866305    4.3866305   -23520.348   -58419.532   -18067.274    5925.7626    47662.002    18971.804    17148.202    84.409854 
   51500    894.24152   -108.67957   0.80912852   -107.87044    29205.337    4.3527315    4.3527315    4.3527315    29205.337   -25018.723    40428.974    72205.759   -13926.507   -10748.828    9836.8975     82.46803 
   51600    1610.4115   -109.35759    1.4571341   -107.90046    7921.5646     4.378161     4.378161     4.378161    7921.5646    -53144.61    31865.639    45043.664   -30614.728   -7767.7296    3697.9855    83.921878 
   51700    1565.0456   -109.29441    1.4160861   -107.87832   -9940.8381    4.4031946    4.4031946    4.4031946   -9940.8381   -57509.262    9662.4631    18024.285    33853.939    5533.6611    7333.0821    85.369679 
   51800    693.23608   -108.49885   0.62725457   -107.87159    18379.948     4.386108     4.386108     4.386108    18379.948    -47891.65   -10491.337    113522.83   -35982.708   -10026.913    20168.741    84.379697 
   51900    1787.8462   -109.46847    1.6176808   -107.85078    13497.288     4.385146     4.385146     4.385146    13497.288   -36570.479    25462.462    51599.882    6734.6178   -20316.282   -2834.9248     84.32419 
   52000    1249.3367   -108.99487    1.1304261   -107.86445    17763.077    4.3836308    4.3836308    4.3836308    17763.077   -40055.479    2870.8061    90473.904   -10393.083    10018.558    11282.781    84.236809 
   52100    778.83141   -108.58646   0.70470303   -107.88176   -3883.1701    4.3852158    4.3852158    4.3852158   -3883.1701   -46343.049   -866.79289    35560.331    -20238.88   -16607.677    5113.0502    84.328214 
   52200    1437.6738   -109.17716    1.3008375   -107.87633   -1966.3213    4.3884309    4.3884309    4.3884309   -1966.3213   -53138.121    23049.844    24189.313    15192.313   -33966.747    8762.2247    84.513833 
   52300    1841.7121   -109.53343    1.6664198   -107.86702    2904.6273    4.3876711    4.3876711    4.3876711    2904.6273   -24643.316   -1866.8398    35224.038   -29580.369    3447.8148    892.53098     84.46994 
   52400    1038.0258   -108.81208   0.93922759   -107.87285   -6219.4924    4.3939164    4.3939164    4.3939164   -6219.4924   -26776.363    29540.535   -21422.649    11526.792   -27267.508    19050.174    84.831155 
   52500    1810.7341    -109.4921    1.6383903   -107.85371   -7447.3142    4.3951353    4.3951353    4.3951353   -7447.3142   -39545.663     6515.173    10688.547     162.2056   -8713.0893    -5499.771     84.90177 
   52600    1907.5735   -109.58319    1.7260126   -107.85717    8398.4117    4.3792829    4.3792829    4.3792829    8398.4117   -27155.106    37940.811     14409.53    -5559.823   -1754.1345    7956.4748    83.986406 
   52700    777.72231   -108.58237   0.70369949   -107.87867     20701.09    4.3714319    4.3714319    4.3714319     20701.09   -20437.695    52724.878    29816.085    7610.9577   -32402.774    29650.336    83.535513 
   52800    1702.5562   -109.40932    1.5405087   -107.86881   -9502.6405    4.4029298    4.4029298    4.4029298   -9502.6405   -52279.696   -19748.807    43520.582   -3301.4432    15923.582   -29948.494    85.354279 
   52900    1330.8487    -109.0774    1.2041798   -107.87322   -12087.488    4.3925243    4.3925243    4.3925243   -12087.488   -32570.376   -10662.169    6970.0809    -626.8962   -13458.897     38713.95     84.75055 
   53000    1034.1692   -108.80921   0.93573798   -107.87347    14607.806    4.3554446    4.3554446    4.3554446    14607.806   -6003.8631    34082.305    15744.976     10335.76   -17666.492    467.97807    82.622336 
   53100    1588.5101   -109.32985    1.4373173   -107.89253   -15863.954    4.3742724    4.3742724    4.3742724   -15863.954   -44727.255   -4330.3144    1465.7071   -743.68208    25492.573   -15810.987    83.698463 
   53200    1419.7086   -109.16227    1.2845822   -107.87769    -49850.98     4.413477     4.413477     4.413477    -49850.98   -42088.235   -50382.135    -57082.57   -8502.3134   -13831.939    41488.544    85.969142 
   53300     1451.742    -109.1778    1.3135666   -107.86424   -28392.447    4.3940388    4.3940388    4.3940388   -28392.447   -43939.186   -25219.529   -16018.626    13539.824   -3202.6017   -12600.654    84.838241 
   53400    1270.4176   -109.00762    1.1495005   -107.85812    11129.263    4.3506474    4.3506474    4.3506474    11129.263   -25086.595    5466.4983    53007.887   -28020.113    20417.045     4040.673    82.349629 
   53500      1523.61    -109.2676    1.3785944     -107.889    16063.188    4.3582527    4.3582527    4.3582527    16063.188    8386.0986   -10502.118    50305.582   -10387.493   -1465.5496    37212.569    82.782247 
   53600    1799.7535   -109.52733    1.6284548   -107.89888    16.674678    4.3916771    4.3916771    4.3916771    16.674678   -43609.704     4030.216    39629.512    8567.8503     4046.584   -3942.6323    84.701519 
   53700    776.81842    -108.5981   0.70288163   -107.89522   -30972.536     4.407911     4.407911     4.407911   -30972.536   -67717.685   -44653.652     19453.73   -29229.989    7834.0285    7023.9771      85.6443 
   53800    1506.4527   -109.24544    1.3630701   -107.88237   -14024.783    4.3711045    4.3711045    4.3711045   -14024.783   -9054.6711   -2830.4109   -30189.266    8490.1653   -12676.337    48481.602    83.516746 
   53900    1678.6558   -109.37773    1.5188831   -107.85885    45315.886    4.3406806    4.3406806    4.3406806    45315.886    4499.2552    53947.119    77501.283   -15626.181    -9205.844   -15747.884    81.784968 
   54000    1117.8306   -108.90663    1.0114366    -107.8952   -22901.124    4.3817343    4.3817343    4.3817343   -22901.124   -36754.699   -37967.229    6018.5576   -27695.844    17900.155     13425.92    84.127525 
   54100    1002.5372   -108.78528    0.9071167   -107.87816   -30904.938    4.3987848    4.3987848    4.3987848   -30904.938   -32109.188    12360.148   -72965.774    10527.845   -27922.641    33560.166     85.11344 
   54200    1974.1446   -109.64034    1.7862475   -107.85409    625.91398    4.3805143    4.3805143    4.3805143    625.91398   -27668.904   -6285.3173    35831.964   -22284.407   -6213.6828   -6306.5672    84.057274 
   54300     1465.936   -109.19608    1.3264097   -107.86967   -386.96959     4.369634     4.369634     4.369634   -386.96959   -18543.082   -8837.7558    26219.929   -5503.6045   -8808.4204    14326.543    83.432489 
   54400    925.87926   -108.72876   0.83775501   -107.89101     31185.54    4.3588654    4.3588654    4.3588654     31185.54   -11844.418    42229.735    63171.302    11875.996   -25496.104    26293.794    82.817167 
   54500    2076.0537   -109.77122     1.878457   -107.89276    749.44149    4.3874666    4.3874666    4.3874666    749.44149   -22067.959    3170.4389    21145.845   -10081.733    10079.777   -10466.137     84.45813 
   54600    1095.0691    -108.8796    0.9908415   -107.88876   -1464.1034     4.390707     4.390707     4.390707   -1464.1034   -28535.056    16720.766    7421.9793    2202.3178   -20900.073   -1973.2117    84.645401 
   54700     1126.289   -108.89567      1.01909   -107.87658     11666.17    4.3705263    4.3705263    4.3705263     11666.17   -14948.294    41043.719    8903.0858    14427.214   -19877.032    33623.723     83.48361 
   54800    2122.7778   -109.78532     1.920734   -107.86459   -2489.4858    4.3715044    4.3715044    4.3715044   -2489.4858   -6898.9346    17476.086   -18045.609   -7458.4634    17599.807   -30813.602    83.539671 
   54900    1029.0893   -108.82325   0.93114159   -107.89211   -2422.8512    4.3711468    4.3711468    4.3711468   -2422.8512    5084.8486     971.1253   -13324.528    3186.8463   -24670.314    -3992.114    83.519173 
   55000    963.64657   -108.77534   0.87192767   -107.90342    -15931.95    4.3850297    4.3850297    4.3850297    -15931.95   -7455.0759    -13189.52   -27151.253    17960.657   -16269.816    29510.007    84.317482 
   55100    2066.3185   -109.74346    1.8696484   -107.87381   -10541.274    4.3842914    4.3842914    4.3842914   -10541.274   -11738.807   -7467.7814   -12417.235   -9633.7248    3966.1131   -16786.997    84.274899 
   55200    909.32963   -108.70292   0.82278056   -107.88013   -819.06533    4.3787379    4.3787379    4.3787379   -819.06533    17963.955    33821.099    -54242.25    11416.378   -30462.964    20832.721    83.955054 
   55300    1226.1682   -108.97815    1.1094627   -107.86869   -5342.7875    4.3835743    4.3835743    4.3835743   -5342.7875    2884.5936    10202.241   -29115.198    11665.971    2491.6034    13146.213    84.233553 
   55400     1715.786   -109.41326    1.5524792   -107.86078     25214.87    4.3732339    4.3732339    4.3732339     25214.87     26494.05    46732.669    2417.8908   -16937.621      4219.33   -9338.8143    83.638864 
   55500    1283.8059   -109.04374    1.1616146   -107.88213   -2061.4674     4.376337     4.376337     4.376337   -2061.4674    789.16616    27199.476   -34173.044    9067.1052   -30602.619    31039.989    83.817031 
   55600    1099.9445   -108.88277    0.9952529   -107.88752   -9238.2124    4.3812242    4.3812242    4.3812242   -9238.2124    11166.042   -13647.474   -25233.206    12856.414    6780.9897     11994.66     84.09815 
   55700    1646.4379   -109.36611    1.4897316   -107.87638    8724.0383    4.3739166    4.3739166    4.3739166    8724.0383     7013.164    10059.476    9099.4753   -14941.471    6752.8846   -21191.904    83.678038 
   55800    1141.8428   -108.92025    1.0331633   -107.88708   -10977.921    4.3836309    4.3836309    4.3836309   -10977.921   -26060.899    44938.241   -51811.104    5656.6863   -35205.599    32678.892    84.236813 
   55900    1365.5722   -109.11386    1.2355984   -107.87826    10755.827    4.3748902    4.3748902    4.3748902    10755.827   -14580.943    54442.897   -7594.4714    10227.764    9905.8472    20006.123     83.73393 
   56000    899.09321   -108.70173   0.81351844   -107.88821    12507.864     4.376569     4.376569     4.376569    12507.864   -22940.525    60960.886   -496.77009   -13191.062   -9379.6485   -37631.786    83.830359 
   56100    1460.4807    -109.1985    1.3214736   -107.87703   -16292.238      4.39332      4.39332      4.39332   -16292.238   -39743.099    36794.055   -45927.669   -807.24822    -23520.52    15355.196    84.796613 
   56200    1789.2932   -109.49282    1.6189901   -107.87383   -2868.6329    4.3782672    4.3782672    4.3782672   -2868.6329    2741.6199   -9380.7622   -1966.7564     23984.91    14539.662    10777.292    83.927986 
   56300    841.57013   -108.65078   0.76147034   -107.88931   -7912.8621    4.3635811    4.3635811    4.3635811   -7912.8621   -1425.1147    -8162.506   -14150.966   -18872.539   -26437.254   -41091.104    83.086251 
   56400    1685.6704   -109.42324      1.52523   -107.89801   -2294.5774    4.3740058    4.3740058    4.3740058   -2294.5774   -32267.723    39916.397   -14532.406   -2670.7929    -14057.47     11606.07    83.683159 
   56500    1741.0936   -109.46253    1.5753781   -107.88715    1648.9781    4.3875323    4.3875323    4.3875323    1648.9781    15600.674     4184.851    -14838.59     5915.811    14505.624   -17946.451    84.461924 
   56600    670.91758   -108.48742   0.60706032   -107.88036   -4432.5801    4.3958879    4.3958879    4.3958879   -4432.5801   -31125.428    33868.182   -16040.495   -18919.631   -33732.051     -29166.1    84.945392 
   56700    1967.0021   -109.63272    1.7797848   -107.85294   -2879.4608    4.3828094    4.3828094    4.3828094   -2879.4608   -22904.724    10289.404    3976.9379    10332.999    17985.116    14867.056    84.189464 
   56800     1445.404   -109.16612    1.3078319   -107.85829    27601.861    4.3591511    4.3591511    4.3591511    27601.861     51883.59    22929.208    7992.7841    2244.3213   -4010.9666   -36096.187    82.833451 
   56900    1289.0783   -109.05256    1.1663852   -107.88617   -20556.554    4.3733241    4.3733241    4.3733241   -20556.554   -21722.872     -21940.9   -18005.889   -30726.493     -21894.7    -12862.33    83.644038 
   57000    1445.5928   -109.18915    1.3080028   -107.88115   -12697.614    4.3886158    4.3886158    4.3886158   -12697.614     3400.506   -32358.879   -9134.4694     1506.797    9929.5691    23227.461    84.524518 
   57100    1489.2428   -109.21335    1.3474982   -107.86585   -8076.2686    4.3900308    4.3900308    4.3900308   -8076.2686    11557.181   -21719.769   -14066.218    12173.951    -5856.569   -29133.376    84.606298 
   57200    1256.7477   -109.00279    1.1371317   -107.86566   -23440.915     4.383697     4.383697     4.383697   -23440.915   -20282.738   -55393.627    5353.6202   -50637.237    922.04303    9824.0508    84.240624 
   57300    1423.9763   -109.14986    1.2884437   -107.86142    9101.1793     4.358626     4.358626     4.358626    9101.1793    24271.254   -11727.516      14759.8    3157.9029    1052.6655    22950.054    82.803524 
   57400    1570.3912   -109.29625    1.4209229   -107.87533    1102.3195    4.3702821    4.3702821    4.3702821    1102.3195    6902.5095   -14100.051      10504.5     2494.779   -2428.6002   -20536.763    83.469614 
   57500    1014.2965   -108.79383   0.91775675   -107.87607   -23425.127    4.3964043    4.3964043    4.3964043   -23425.127    -30646.44   -38403.979   -1224.9622   -53103.238   -3846.4088    17633.014    84.975332 
   57600    2149.8655   -109.79244    1.9452435    -107.8472   -4562.6896    4.3885086    4.3885086    4.3885086   -4562.6896     41618.74   -23298.447   -32008.361    22980.047    4586.7253    13117.253    84.518323 
   57700     989.0791   -108.75821   0.89493955   -107.86327   -3802.5736     4.371189     4.371189     4.371189   -3802.5736   -17623.603   -32114.721    38330.603   -40283.452   -10138.415   -12693.421    83.521591 
   57800    1053.1284   -108.82362   0.95289266   -107.87073    14482.188    4.3658431    4.3658431    4.3658431    14482.188    21161.667    2546.0643    19738.832   -17457.709   -9406.6097     18197.83    83.215527 
   57900      1930.54   -109.61724    1.7467932   -107.87044   -2042.0146    4.3797631    4.3797631    4.3797631   -2042.0146    31357.672   -21718.384   -15765.332    10782.408   -268.49123    2254.7253    84.014037 
   58000    1287.5208   -109.03972    1.1649759   -107.87474     9452.636    4.3851892    4.3851892    4.3851892     9452.636    39513.267   -20895.899    9740.5393   -47446.778   -3206.4932   -6426.5448    84.326679 
   58100    1260.3846   -109.01304    1.1404224   -107.87262   -6895.8247    4.3809908    4.3809908    4.3809908   -6895.8247    36371.185   -13484.414   -43574.245    21523.841   -171.27094    22369.427    84.084711 
   58200    1398.4093   -109.14137    1.2653101   -107.87606     453.8914    4.3701736    4.3701736    4.3701736     453.8914    9538.0117    7558.0752   -15734.413     2953.343   -3072.4543    1740.2642    83.463401 
   58300    2260.5815   -109.91215    2.0454216   -107.86673    9238.2041    4.3689494    4.3689494    4.3689494    9238.2041    46264.347   -15103.484   -3446.2502    -24136.11    1321.9698    5771.4191    83.393279 
   58400    326.15927   -108.19694   0.29511576   -107.90182   -42903.045    4.3861585    4.3861585    4.3861585   -42903.045   -42399.124   -20348.162   -65961.851     35441.05   -5401.7591    20008.987    84.382611 
   58500    1614.9573   -109.34896    1.4612473   -107.88771   -5326.7851    4.3707744    4.3707744    4.3707744   -5326.7851    -1356.699    4967.7656   -19591.422   -285.52375    12012.014   -1928.0644    83.497825 
   58600    1658.4883    -109.3788    1.5006351   -107.87817   -1213.6775    4.3794918    4.3794918    4.3794918   -1213.6775    38551.592   -21946.535   -20246.089   -6755.8906   -13658.992   -4794.1638    83.998427 
   58700    1228.1959   -108.98604    1.1112975   -107.87474   -32798.294    4.3847691    4.3847691    4.3847691   -32798.294   -23869.319   -16684.319   -57841.244    31027.509    3409.1821    14936.097     84.30245 
   58800    1349.6018   -109.08833    1.2211481   -107.86718    17315.257    4.3658352    4.3658352    4.3658352    17315.257    36738.207    4493.3862    10714.176   -27645.037    3348.3517   -9896.4893    83.215077 
   58900     1358.066   -109.11166    1.2288067   -107.88285   -6762.1497    4.3740864    4.3740864    4.3740864   -6762.1497     13133.22   -34086.391    666.72162   -23849.329    -6499.044   -23508.199    83.687783 
   59000    1769.5235   -109.47119    1.6011021   -107.87009    514.50229    4.3821354    4.3821354    4.3821354    514.50229    21448.082   -3697.5495   -16207.026    13116.516    7004.6448    16041.304     84.15063 
   59100    830.72602   -108.63147   0.75165836   -107.87982    3237.5975    4.3833917    4.3833917    4.3833917    3237.5975   -8758.4097    7228.5656    11242.637    -45474.17   -9306.3261     -16451.3    84.223024 
   59200    1638.3422   -109.34588    1.4824064   -107.86347   -3413.7729    4.3812224    4.3812224    4.3812224   -3413.7729    59547.707   -40967.511   -28821.515     9309.131    2302.7863   -16132.966    84.098044 
   59300    1764.6343   -109.45712    1.5966782   -107.86044    13350.807    4.3678584    4.3678584    4.3678584    13350.807    31631.484   -16980.934    25401.871   -21929.358   -5351.3252    24597.219    83.330821 
   59400    1116.8801   -108.89239    1.0105766   -107.88181    9917.5256    4.3729577    4.3729577    4.3729577    9917.5256    40858.853   -24533.072    13426.795   -27605.535    382.53867   -36957.241    83.623017 
   59500    1468.7222   -109.20268    1.3289307   -107.87375    -12934.87    4.3880963    4.3880963    4.3880963    -12934.87    17114.236   -57539.593    1620.7469    21262.033    3597.0635    -22210.08    84.494504 
   59600    1554.6568   -109.27604    1.4066862   -107.86936    7470.8685     4.380338     4.380338     4.380338    7470.8685   -19833.993   -10689.861    52936.459   -15291.777   -6419.8594    38567.786    84.047126 
   59700    1138.7867   -108.90354    1.0303981   -107.87314    12227.085     4.366905     4.366905     4.366905    12227.085    31729.426   -6275.1726        11227   -7869.7026    2980.9292   -55087.595    83.276261 
   59800    1344.1326   -109.09684    1.2161994   -107.88064    11587.368    4.3763723    4.3763723    4.3763723    11587.368    20976.982   -26953.442    40738.564    10975.498    -5711.514   -9932.3638    83.819061 
   59900    1757.8774   -109.46139    1.5905644   -107.87083    563.80706    4.3882135    4.3882135    4.3882135    563.80706   -419.45873    4461.5134   -2350.6335    5300.2202   -3678.2953    22302.252    84.501271 
   60000    805.44618   -108.60924   0.72878463   -107.88046   -1887.5565    4.3846377    4.3846377    4.3846377   -1887.5565    29264.905   -13413.064    -21514.51   -6709.5355    8705.8679   -60234.434    84.294867 
   60100    1858.2651   -109.54316    1.6813973   -107.86176   -9082.1647    4.3828496    4.3828496    4.3828496   -9082.1647   -14604.019   -13661.999     1019.524    11949.393    -5454.893    6895.3666    84.191782 
   60200    1666.5834   -109.37396    1.5079597     -107.866    12822.653    4.3695183    4.3695183    4.3695183    12822.653    26554.967    20109.475   -8196.4842    8987.3817   -1570.5028   -22395.157     83.42586 
   60300    1159.8799   -108.93838    1.0494837    -107.8889   -13166.101    4.3809092    4.3809092    4.3809092   -13166.101    5174.0041   -592.74655   -44079.561   -12651.464    7989.5792    -38282.71    84.080009 
   60400    1451.2381   -109.19558    1.3131107   -107.88247   -26413.905    4.3882615    4.3882615    4.3882615   -26413.905   -42671.762    4915.1117   -41485.064    21133.111   -10545.411    13367.436    84.504043 
   60500    1673.8184   -109.39029    1.5145061   -107.87578    7558.9434    4.3658852    4.3658852    4.3658852    7558.9434    42643.988   -7877.0531   -12090.104    15081.182   -10631.115   -39943.934    83.217936 
   60600    1655.1815   -109.37936     1.497643   -107.88172   -8594.2239    4.3770113    4.3770113    4.3770113   -8594.2239    2551.7551   -7743.5727   -20590.854   -6644.8064    12267.868   -16545.446    83.855777 
   60700    1132.1761   -108.91159    1.0244167   -107.88717   -14766.747    4.3812014    4.3812014    4.3812014   -14766.747   -3171.6367   -3850.9829   -37277.622    13873.827    -11322.94    12251.205    84.096834 
   60800    1370.2311   -109.12135    1.2398139   -107.88154    9720.3938    4.3707818    4.3707818    4.3707818    9720.3938    68557.384   -43878.539    4482.3363   -1921.3254   -2381.5788   -35994.741    83.498249 
   60900    1651.6105   -109.37091    1.4944119    -107.8765   -17173.361    4.3849875    4.3849875    4.3849875   -17173.361   -17717.992   -7759.3834   -26042.707   -11684.843   -8346.4828   -5864.6737    84.315045 
   61000     1378.351   -109.12235    1.2471609   -107.87519   -7974.1513    4.3787812    4.3787812    4.3787812   -7974.1513    18022.529    12754.244   -54699.227     9143.354   -10105.974    219.46413    83.957547 
   61100    1559.7585   -109.28214    1.4113022   -107.87083   -818.72042    4.3776865    4.3776865    4.3776865   -818.72042    38273.506   -29293.969   -11435.698   -18628.507     1512.705   -26734.636    83.894593 
   61200    1361.9323   -109.10296     1.232305   -107.87066   -5919.5692    4.3775264    4.3775264    4.3775264   -5919.5692   -13169.251     18763.92   -23353.377   -11150.074   -15942.305    12983.038    83.885391 
   61300    1066.0756   -108.83938   0.96460763   -107.87478    10946.446    4.3752796    4.3752796    4.3752796    10946.446     52657.45     46075.45   -65893.561    9622.5864     3368.617   -52.562219     83.75629 
   61400     1672.773   -109.37541    1.5135602   -107.86185   -15230.676    4.3892776    4.3892776    4.3892776   -15230.676    13618.113   -30540.226   -28769.915   -13656.308    2189.7742   -13035.661    84.562759 
   61500    1130.8798   -108.89614    1.0232438    -107.8729    8090.0599    4.3727646    4.3727646    4.3727646    8090.0599    45702.099    13444.923   -34876.843   -632.93471   -12664.375    18685.356    83.611937 
   61600    1046.4549   -108.83228    0.9468544   -107.88542    16879.009    4.3653477    4.3653477    4.3653477    16879.009    29819.358    71487.366   -50669.698    4626.9715    17192.209    -2610.138    83.187203 
   61700    2049.2142   -109.72765    1.8541721   -107.87347    6088.0998    4.3791563    4.3791563    4.3791563    6088.0998    27502.338   -6247.3206   -2990.7175    2108.6759   -1023.6372    11690.408    83.979121 
   61800    1283.9384   -109.04491    1.1617344   -107.88317    12276.948    4.3807536    4.3807536    4.3807536    12276.948    63907.675    529.10739   -27605.938   -2123.6101    3437.6305    22008.771    84.071051 
   61900    1115.1167   -108.89359     1.008981   -107.88461   -15355.094    4.3849591    4.3849591    4.3849591   -15355.094   -14594.707    29400.654   -60871.229    13183.326    14523.022     -10272.3    84.313407 
   62000    2110.2738    -109.7682    1.9094201   -107.85878    5840.8254    4.3736488    4.3736488    4.3736488    5840.8254    39444.174   -24181.391     2259.693     9138.229   -10521.733    10937.947    83.662669 
   62100    1143.2592   -108.90407     1.034445   -107.86963   -832.57612    4.3809044    4.3809044    4.3809044   -832.57612    22263.533    14465.914   -39227.175    6335.8026     32349.05    8752.5979    84.079732 
   62200    1401.8337   -109.12863    1.2684086   -107.86022   -33656.031     4.395495     4.395495     4.395495   -33656.031   -11648.754    -18417.09   -70902.249       5474.6   -4793.3495   -18044.297    84.922618 
   62300    1912.9252   -109.57872    1.7308549   -107.84786    16278.152    4.3758084    4.3758084    4.3758084    16278.152    46561.164   -116.57716    2389.8679    8709.6817    6942.5714   -11969.466    83.786663 
   62400    1024.7323   -108.79069   0.92719932   -107.86349   -1362.3837     4.376134     4.376134     4.376134   -1362.3837   -22782.877    60839.593   -42143.867    137.63796    24351.793   -1453.9255     83.80537 
   62500    1199.8139   -108.94885    1.0856169   -107.86323    273.18957    4.3841849    4.3841849    4.3841849    273.18957    28408.575    19900.306   -47489.312   -8682.2387   -35827.887   -28794.365    84.268755 
   62600    1769.2151   -109.46073     1.600823    -107.8599    7227.8008     4.383779     4.383779     4.383779    7227.8008    12597.552    14331.154   -5245.3038     7061.974    25783.367   -13201.697    84.245353 
   62700    1110.5568   -108.87999    1.0048551   -107.87513   -7719.4785    4.3805039    4.3805039    4.3805039   -7719.4785   -8053.9997    41802.978   -56907.413    854.00803    -4590.538    600.40916    84.056674 
   62800    1175.4961    -108.9437    1.0636136   -107.88008    5007.3961    4.3729314    4.3729314    4.3729314    5007.3961    45785.549    5314.7396   -36078.101    -960.5258   -26543.539   -32816.245    83.621507 
   62900     1921.962   -109.60546    1.7390316   -107.86642    6221.2396    4.3810292    4.3810292    4.3810292    6221.2396    50354.122   -8322.8515   -23367.551    4699.6836    13290.139    12220.957    84.086921 
   63000    1361.1689   -109.10432    1.2316142   -107.87271   -8675.8316    4.3842264    4.3842264    4.3842264   -8675.8316    17653.196    24080.891   -67761.582   -6220.4021   -38711.868   -1643.7885    84.271148 
   63100    1295.1142   -109.04375    1.1718466    -107.8719   -490.01831    4.3732796    4.3732796    4.3732796   -490.01831    41263.769   -3811.1579   -38922.666    9457.5698   -4361.7907   -18091.134    83.641484 
   63200    1509.9879   -109.23114    1.3662688   -107.86487   -2038.0308     4.379224     4.379224     4.379224   -2038.0308    30615.478    5305.9517   -42035.522    1777.8765   -3581.6675    29515.951    83.983017 
   63300    1241.5886   -108.98038    1.1234154   -107.85696   -17179.904    4.3974771    4.3974771    4.3974771   -17179.904   -24272.291    23293.759    -50561.18   -10664.773   -28666.539   -13318.455    85.037557 
   63400    1166.7214   -108.90701    1.0556741   -107.85134   -14619.935    4.3854971    4.3854971    4.3854971   -14619.935     30761.08   -30381.858   -44239.028    11257.052    14118.829    12301.919    84.344445 
   63500    1632.8587   -109.32584    1.4774449   -107.84839    15250.595    4.3625747    4.3625747    4.3625747    15250.595    39544.403     27995.36   -21787.977    3464.1863   -8803.2022     25655.19    83.028772 
   63600    1489.2272   -109.21831     1.347484   -107.87083   -536.39033    4.3731591    4.3731591    4.3731591   -536.39033   -10672.612    8136.6659    926.77535   -31642.168   -13353.587   -12408.647    83.634569 
   63700    1076.8697   -108.85925    0.9743743   -107.88488   -6235.1042    4.3823775    4.3823775    4.3823775   -6235.1042    31306.532   -10236.016   -39775.828    8373.8468    12375.275    25509.494    84.164579 
   63800    1496.8838   -109.22817     1.354412   -107.87376   -5103.6646    4.3864954    4.3864954    4.3864954   -5103.6646    2134.4284     18085.79   -35531.213   -9946.6762    13184.323    12036.389    84.402056 
   63900    1676.7743   -109.37615    1.5171807   -107.85897   -6373.3568    4.3900029    4.3900029    4.3900029   -6373.3568   -23896.938    16502.292   -11725.425   -34422.101   -8772.0033   -2180.4791    84.604689 
   64000    1443.6676   -109.16332    1.3062607   -107.85706    3353.2489    4.3770544    4.3770544    4.3770544    3353.2489    28731.355    10940.454   -29612.062    14750.379    9210.2935    33666.497    83.858255 
   64100    961.70622   -108.73971     0.870172   -107.86953   -2917.0431    4.3744252    4.3744252    4.3744252   -2917.0431   -37384.004    13058.331    15574.544    -51622.82    10960.064    9775.0178    83.707235 
   64200    2041.1162   -109.71222    1.8468448   -107.86538    2145.8986     4.376321     4.376321     4.376321    2145.8986    -3056.019    2007.0314    7486.6833   -7567.7094   -7493.5151   -20413.813     83.81611 
   64300    1357.8451   -109.10911    1.2286068   -107.88051   -1673.4589    4.3763618    4.3763618    4.3763618   -1673.4589    7433.5928   -908.19668   -11545.773   -13348.053    11426.746    28138.829    83.818454 
   64400    980.67146   -108.77165   0.88733215   -107.88432   -35502.132    4.3835224    4.3835224    4.3835224   -35502.132   -41228.656   -57054.257   -8223.4807   -62089.622   -858.14259    9705.9657    84.230561 
   64500    1893.2293   -109.57722    1.7130337   -107.86419   -1701.2931    4.3763536    4.3763536    4.3763536   -1701.2931    24693.129    3253.0676   -33050.076    21939.154   -6381.4242   -36056.958    83.817986 
   64600    1095.4527   -108.86333   0.99118862   -107.87214   -12743.634    4.3782019    4.3782019    4.3782019   -12743.634     -10050.3     -32802.1    4621.4988   -46641.376    8337.0018    14298.724    83.924227 
   64700    1341.6033   -109.08028    1.2139108   -107.86637   -13693.832     4.384781     4.384781     4.384781   -13693.832    1707.6269   -28178.884    -14610.24   -25031.105   -10033.026   -10683.539    84.303135 
   64800    1779.3437   -109.47082    1.6099876   -107.86083    3466.1442    4.3747887    4.3747887    4.3747887    3466.1442    35964.504    803.20984   -26369.281    9639.5789    1490.2219   -30012.199    83.728101 
   64900    1224.2261   -108.98292    1.1077055   -107.87521   -4874.5136    4.3677511    4.3677511    4.3677511   -4874.5136    2804.9664   -46461.098    29032.591   -51659.926    5456.4892    19072.758    83.324678 
   65000    1533.4825     -109.265    1.3875272   -107.87748   -7290.4589     4.372892     4.372892     4.372892   -7290.4589    10458.197    -585.7066   -31743.868    6861.9154   -3263.0338   -2588.5292    83.619248 
   65100    1372.3215   -109.12225    1.2417053   -107.88055    -18310.34     4.384321     4.384321     4.384321    -18310.34   -4147.3876   -22135.524    -28648.11   -20993.145     -12370.7    -24564.46    84.276604 
   65200    1305.1956   -109.05717    1.1809684   -107.87621   -4879.5253    4.3804574    4.3804574    4.3804574   -4879.5253    9056.7481   -32693.961    8998.6373   -40573.973     2376.867    13836.731    84.053999 
   65300    1721.8258   -109.42353    1.5579442   -107.86559    5164.3828      4.36642      4.36642      4.36642    5164.3828    21122.437    22569.009   -28198.298    21297.324   -5207.4957     11070.54    83.248523 
   65400     676.8848     -108.499   0.61245959   -107.88654   -5659.6867    4.3747679    4.3747679    4.3747679   -5659.6867   -14221.618   -11041.699    8284.2561   -54374.149   -18974.941    -24253.31    83.726906 
   65500    1852.8451    -109.5463    1.6764932   -107.86981    -807.4263    4.3828327    4.3828327    4.3828327    -807.4263    15114.423     -16075.1    -1461.602   -12097.614    8513.8598    1957.2665    84.190807 
   65600     1519.269   -109.24997    1.3746665    -107.8753   -272.08023    4.3806269    4.3806269    4.3806269   -272.08023    -2074.825    19322.392   -18063.808    5591.4442    -10927.74    9398.3588    84.063758 
   65700     638.1253   -108.46535   0.57738918   -107.88796   -18519.581    4.3721425    4.3721425    4.3721425   -18519.581     -10222.7   -41719.524   -3616.5182   -63076.343   -12698.111   -15447.502     83.57626 
   65800    2115.6191   -109.79025    1.9142566   -107.87599    12294.364    4.3692128    4.3692128    4.3692128    12294.364    16503.285     29119.82   -8740.0137    16238.761    12636.276    9411.9718    83.408361 
   65900    1268.4365   -109.03306     1.147708   -107.88535   -18414.019    4.3869916    4.3869916    4.3869916   -18414.019   -51415.349   -15938.802    12112.093    -34512.15   -17356.678   -2762.8498    84.430703 
   66000    973.20704   -108.75844   0.88057818   -107.87786   -11635.239    4.3791413    4.3791413    4.3791413   -11635.239    9115.1426   -21825.601   -22195.258   -29360.306    2519.0911   -489.76542    83.978261 
   66100    1508.0083   -109.23096    1.3644776   -107.86648    12458.345    4.3659198    4.3659198    4.3659198    12458.345    26338.441    31373.995   -20337.401    22347.649    9820.5833    13718.026    83.219916 
   66200    1722.4138   -109.42668    1.5584762   -107.86821    11075.666    4.3735848    4.3735848    4.3735848    11075.666   -12300.502    25447.193    20080.306   -27198.254   -5900.5044   -3418.8218    83.658995 
   66300    1279.5556   -109.03626    1.1577688   -107.87849   -5141.1484    4.3827844    4.3827844    4.3827844   -5141.1484    27617.016    4006.9762   -47047.437    -9747.051    9850.7902     2327.287    84.188028 
   66400    915.17109   -108.71438   0.82806604   -107.88631   -25005.912      4.38277      4.38277      4.38277   -25005.912    6975.9104    -35064.66   -46928.987    24512.662     12594.91     18292.41    84.187193 
   66500    2164.7249   -109.82454    1.9586885   -107.86586    11905.141     4.367692     4.367692     4.367692    11905.141   -8955.0682    22409.693    22260.798   -7893.6036   -4925.5885   -6277.5713    83.321295 
   66600    1026.4268   -108.81591   0.92873256   -107.88717    -12818.35    4.3717385    4.3717385    4.3717385    -12818.35    38926.282   -27672.554   -49708.777    381.72382   -8386.6969    3722.8665    83.553094 
   66700     1208.237   -108.97166    1.0932383   -107.87842   -7237.6714    4.3796618    4.3796618    4.3796618   -7237.6714    11006.726       -15969   -16750.741    28903.722    10235.754    14044.305     84.00821 
   66800    1766.6848   -109.45838    1.5985335   -107.85985   -1353.5861    4.3848506    4.3848506    4.3848506   -1353.5861   -38377.794    28826.475    5490.5605   -20041.234   -25593.559   -2398.4841     84.30715 
   66900    1279.0307   -109.02993    1.1572938   -107.87264   -18199.059    4.3763565    4.3763565    4.3763565   -18199.059    16869.295   -18542.533   -52923.939    8510.1051    6718.8301    21239.401    83.818152 
   67000    1469.4911   -109.19228    1.3296265   -107.86265    25236.067    4.3544024    4.3544024    4.3544024    25236.067    26683.459    30061.895    18962.846    5106.7728   -3737.7203    1411.1352    82.563041 
   67100    1122.8661   -108.89949    1.0159929    -107.8835   -7357.4829    4.3742204    4.3742204    4.3742204   -7357.4829   -45106.231    9203.0529     13830.73    -35310.41   -38175.331    3635.8424    83.695474 
   67200    1532.3369   -109.25318    1.3864906   -107.86669   -15755.942     4.387135     4.387135     4.387135   -15755.942    1729.4138   -16216.357   -32780.882    9702.9119    23435.747    20116.396    84.438981 
   67300    1430.1194   -109.15778    1.2940021   -107.86377   -6300.8738    4.3743947    4.3743947    4.3743947   -6300.8738    -11601.79   -1920.0086    -5380.823   -16503.122   -23555.596   -6295.0202    83.705483 
   67400    1037.2997   -108.81565   0.93857054   -107.87708   -6090.0126    4.3711696    4.3711696    4.3711696   -6090.0126   -35972.262    7544.8347     10157.39   -33975.113   -34734.407    1839.3901    83.520478 
   67500    1970.6515    -109.6473    1.7830869   -107.86422    5987.2207    4.3684157    4.3684157    4.3684157    5987.2207    31430.304   -1090.0101   -12378.631    9874.5704     26448.85    18908.687    83.362718 
   67600    874.48367   -108.67438    0.7912512   -107.88312   -16697.786    4.3810255    4.3810255    4.3810255   -16697.786   -35924.938    20440.939   -34609.357   -13477.159   -47594.302      2598.21    84.086705 
   67700    1479.1523   -109.20895    1.3383681   -107.87059   -19491.842    4.3839612    4.3839612    4.3839612   -19491.842   -18207.637   -23016.429    -17251.46   -22866.485   -19531.831   -3655.3134    84.255855 
   67800    2074.0187   -109.73595    1.8766157   -107.85934    8316.2396    4.3691609    4.3691609    4.3691609    8316.2396    52257.031   -10065.364   -17242.948    8947.9477    6277.2909    18256.878    83.405389 
   67900    664.80227   -108.49016   0.60152707   -107.88863   -3823.6716     4.369488     4.369488     4.369488   -3823.6716   -28797.996    31819.256   -14492.275   -21429.935   -60665.698    5066.2632    83.424123 
   68000    1465.1644   -109.20606    1.3257115   -107.88035    3397.9443    4.3752541    4.3752541    4.3752541    3397.9443     7676.313   -10999.244    13516.764   -16786.591    3413.2996   -2260.7103    83.754826 
   68100     1642.272    -109.3587    1.4859623   -107.87274   -7052.8868    4.3847935    4.3847935    4.3847935   -7052.8868    1005.2393   -8826.9098    -13336.99    13747.955    3243.3314    17932.535    84.303856 
   68200    800.29578   -108.60545   0.72412444   -107.88133   -18510.577    4.3803897    4.3803897    4.3803897   -18510.577   -54340.391    2878.4505   -4069.7891   -50619.147   -48850.181    -9424.337    84.050104 
   68300    1883.2144   -109.56998     1.703972   -107.86601    24717.115    4.3620968    4.3620968    4.3620968    24717.115    4868.1158    36796.109    32487.119   -17779.153    8849.6433    481.83379    83.001491 
   68400    1447.6904   -109.19293    1.3099007   -107.88303    14989.121    4.3701024    4.3701024    4.3701024    14989.121    -17429.34    45541.519    16855.183    1284.4254    -14034.99    17602.027    83.459318 
   68500    559.95501   -108.40007   0.50665906   -107.89341   -19260.218    4.3913153    4.3913153    4.3913153   -19260.218   -77611.587    2541.1018    17289.831   -67593.943   -24629.583   -2271.0972    84.680587 
   68600    2284.2252   -109.92196     2.066815   -107.85515   -4538.6218    4.3835292    4.3835292    4.3835292   -4538.6218    -28977.95    26589.382   -11227.298     15502.32    16549.983    9006.1642    84.230952 
   68700    949.83163   -108.72942   0.85942762   -107.86999    14983.755    4.3628261    4.3628261    4.3628261    14983.755   -16734.465    38970.807    22714.923   -32955.593   -38585.985    2322.5837    83.043128 
   68800    894.02466   -108.69706    0.8089323   -107.88812   -5962.7036      4.36872      4.36872      4.36872   -5962.7036   -45240.066    -2022.188    29374.143   -53006.932   -1687.4434    8443.0868    83.380142 
   68900    1990.1271   -109.66967    1.8007088   -107.86896    5352.2963    4.3796815    4.3796815    4.3796815    5352.2963    -11452.69    28502.662   -993.08295    33883.199     10303.96    5700.8246    84.009343 
   69000    784.84244   -108.60084   0.71014193    -107.8907   -13983.473    4.3834872    4.3834872    4.3834872   -13983.473   -33556.901   -3982.7706    -4410.749   -52155.496   -30554.631   -746.08255    84.228534 
   69100    1526.5611   -109.26385    1.3812646   -107.88259   -6549.2186    4.3761386    4.3761386    4.3761386   -6549.2186   -3268.4194   -6692.4007   -9686.8357   -22449.619   -8273.8866    15674.019     83.80563 
   69200    2019.5931   -109.69365    1.8273703   -107.86628    24439.051    4.3609368    4.3609368    4.3609368    24439.051     34373.92    11125.421    27817.812   -6191.2711    4502.9976    3414.3114    82.935292 
   69300    541.20137   -108.38248   0.48969038   -107.89279   -12345.846    4.3794117    4.3794117    4.3794117   -12345.846   -33826.197   -24451.318    21239.977   -53705.978   -32906.165     1495.191    83.993818 
   69400    1615.1183   -109.32347     1.461393   -107.86207   -18926.876    4.3858338    4.3858338    4.3858338   -18926.876    -25051.13   -4888.3149   -26841.182    14533.965   -13033.057    16117.474    84.363875 
   69500    1608.0994   -109.31106    1.4550422   -107.85602    465.67209    4.3730723    4.3730723    4.3730723    465.67209   -5197.2442   -11942.504    18536.765   -40172.276    11692.311    1745.4744    83.629589 
   69600    1172.6793    -108.9276    1.0610648   -107.86654   -15991.169    4.3733571    4.3733571    4.3733571   -15991.169   -13490.088     2477.298   -36960.716   -24202.958   -43079.065   -4381.3009    83.645932 
   69700    1662.7006   -109.36949    1.5044465   -107.86504    7176.4316    4.3679508    4.3679508    4.3679508    7176.4316    10853.022    14714.937   -4038.6645    14600.272    2750.2642    10348.888    83.336107 
   69800    1487.0266   -109.21896    1.3454929   -107.87347   -5862.6205    4.3798654    4.3798654    4.3798654   -5862.6205   -19438.193   -3554.4139    5404.7455   -24213.941     969.2672     -4441.06    84.019927 
   69900    951.66538   -108.73249   0.86108684   -107.87141   -31302.994    4.3902863    4.3902863    4.3902863   -31302.994   -57322.371    10254.062   -46840.673   -10170.337   -58419.736   -12769.891    84.621072 
   70000    1914.1796   -109.58376      1.73199   -107.85177    12503.953    4.3646549    4.3646549    4.3646549    12503.953     2188.427    1710.4463    33612.985    18710.028    14875.142    15711.631    83.147602 
   70100    1126.3148   -108.88772    1.0191133   -107.86861    1490.0891    4.3687597    4.3687597    4.3687597    1490.0891   -42820.919     27179.08    20112.106   -15695.031   -34001.647   -8842.5133    83.382417 
   70200    1318.9039   -109.05884     1.193372   -107.86547   -21090.937    4.3866464    4.3866464    4.3866464   -21090.937   -15353.085   -3926.1213   -43993.605    614.16942   -41615.076   -11906.504    84.410772 
   70300    1819.7213   -109.50074     1.646522   -107.85422    6314.0455     4.375509     4.375509     4.375509    6314.0455   -5977.1785   -686.34247    25605.657    8883.9475    19725.564     13090.63    83.769466 
   70400    1088.3938   -108.85344   0.98480155   -107.86864   -11431.934    4.3714492    4.3714492    4.3714492   -11431.934   -28332.618    13512.342   -19475.525   -12687.528   -46808.507   -12374.254    83.536508 
   70500    1514.2133   -109.23807     1.370092   -107.86798   -3664.8816    4.3675473    4.3675473    4.3675473   -3664.8816    26533.339   -8283.6362   -29244.348    8035.3137   -2083.8387   -36412.044    83.313013 
   70600    1471.8422    -109.2027    1.3317537   -107.87095   -3219.7786    4.3759199    4.3759199    4.3759199   -3219.7786   -38488.413    7266.3553    21562.722    2104.6583     9742.064    18755.133    83.793069 
   70700    1213.4247   -108.96057    1.0979322   -107.86264   -30349.835    4.3911501    4.3911501    4.3911501   -30349.835   -5547.1012   -27173.804   -58328.601   -4941.6213   -25666.622   -34567.041    84.671032 
   70800    1543.7831   -109.25211    1.3968474   -107.85526   -5340.3562    4.3674369    4.3674369    4.3674369   -5340.3562    29962.175   -8904.9769   -37078.267    8114.6189    6082.7051   -36192.274    83.306698 
   70900    1628.9072   -109.32388    1.4738695   -107.85001     15100.99    4.3581544    4.3581544    4.3581544     15100.99    865.83108    30215.473    14221.667   -1116.2158    6716.7434     18666.25    82.776647 
   71000     617.1292   -108.43682   0.55839147   -107.87843    -34017.02    4.3800554    4.3800554    4.3800554    -34017.02    24311.572   -33716.533     -92646.1   -272.55116   -18761.137   -77409.679    84.030863 
   71100     1830.767   -109.52142    1.6565165    -107.8649    498.51532    4.3760572    4.3760572    4.3760572    498.51532    9958.5887    16280.859   -24743.901   -4008.5153   -2806.0613    4256.5027    83.800954 
   71200    1512.9758    -109.2383    1.3689723   -107.86933   -4013.2092    4.3730615    4.3730615    4.3730615   -4013.2092    5290.7623   -132.43259   -17197.957   -5452.4187    2122.7457    -26585.22    83.628971 
   71300    944.96407   -108.73313   0.85502335   -107.87811   -15382.388    4.3746574    4.3746574    4.3746574   -15382.388    27046.229    -19265.28   -53928.113   -4132.5149   -18528.299   -52467.843    83.720564 
   71400    2071.2724   -109.72838    1.8741308   -107.85425    10588.393    4.3745111    4.3745111    4.3745111    10588.393    9654.3535   -7503.2269    29614.052   -2451.3255    3784.9379    41511.011    83.712167 
   71500    1078.6279   -108.83731   0.97596515   -107.86134   -21032.245    4.3871797    4.3871797    4.3871797   -21032.245    1698.0659   -22898.695   -41896.105   -9228.1123   -14364.979   -68466.278    84.441563 
   71600    1521.5608   -109.22084    1.3767402    -107.8441   -2111.9187    4.3802373    4.3802373    4.3802373   -2111.9187     1588.089    4327.8475   -12251.693   -5729.3258   -19943.847    15958.585    84.041331 
   71700    1433.4938   -109.14031    1.2970553   -107.84326    12697.247    4.3676802    4.3676802    4.3676802    12697.247    30254.914   -18482.472      26319.3    7122.7298    13314.011   -15343.458    83.320619 
   71800    864.02286   -108.64709   0.78178604   -107.86531   -10245.109    4.3733183    4.3733183    4.3733183   -10245.109    4814.5878   -19166.997   -16382.919   -15122.523   -17886.105   -55831.114    83.643702 
   71900    1956.1369   -109.62577    1.7699538   -107.85581    2148.9905     4.375746     4.375746     4.375746    2148.9905   -18759.633   -4297.1093    29503.713   -1842.0145   -17001.613    21486.138     83.78308 
   72000    1255.1811   -109.00197    1.1357143   -107.86626   -2422.6332    4.3778751    4.3778751    4.3778751   -2422.6332    47403.941   -46284.734   -8387.1067    11678.783    1015.8296   -63070.652    83.905435 
   72100    1404.6254   -109.12843    1.2709346   -107.85749    1284.9215    4.3780313    4.3780313    4.3780313    1284.9215   -22834.878    1372.6141    25317.029   -8879.6382   -12919.157    5170.3885    83.914419 
   72200    1420.0649   -109.13758    1.2849046   -107.85268   -10133.013    4.3740042    4.3740042    4.3740042   -10133.013   -5243.0047   -16942.061   -8213.9722   -7904.1651   -11747.687   -29485.295    83.683066 
   72300    1474.8487   -109.18831    1.3344741   -107.85384     842.3871    4.3710851    4.3710851    4.3710851     842.3871    26739.823   -18990.961   -5221.7005     13608.94    3064.1316   -43841.435    83.515635 
   72400    1140.1712   -108.89401    1.0316509   -107.86236   -18491.484    4.3768146    4.3768146    4.3768146   -18491.484   -40645.529   -11755.843   -3073.0795   -8325.6738   -21755.287    18663.493    83.844477 
   72500    1146.8134   -108.90135    1.0376608   -107.86369   -14066.194    4.3741176    4.3741176    4.3741176   -14066.194    43211.882   -49597.013   -35813.451   -10652.551   -12370.899   -45684.228    83.689578 
   72600    1615.8733    -109.3164    1.4620761   -107.85432    -337.7273    4.3712096    4.3712096    4.3712096    -337.7273   -8983.0713   -8899.5881    16869.477    21967.196    17684.645   -6955.1553    83.522772 
   72700    1189.1209   -108.93709    1.0759415   -107.86115   -20295.914    4.3796865    4.3796865    4.3796865   -20295.914   -41745.686    -3197.989   -15944.066   -18667.302   -29907.083    9463.7979    84.009631 
   72800    1805.5834   -109.47875    1.6337298   -107.84502   -3592.4327     4.379321     4.379321     4.379321   -3592.4327    28907.026    -26178.02   -13506.303    3076.6742    9507.8311   -31796.454      83.9886 
   72900     975.7851   -108.74437   0.88291086   -107.86146   -7899.7117     4.369339     4.369339     4.369339   -7899.7117   -48847.459    16022.535    9125.7885    31743.721    8175.4325   -6799.9723    83.415589 
   73000    1714.3629   -109.40708    1.5511916   -107.85588    9841.3038    4.3667597    4.3667597    4.3667597    9841.3038    8025.7338    25643.206   -4145.0288    -17911.21   -24595.402    18845.643    83.267952 
   73100    1360.0937   -109.09678    1.2306413   -107.86614   -5496.9019    4.3772878    4.3772878    4.3772878   -5496.9019   -15382.707   -26514.257    25406.258    27107.915    24197.827    -8688.684    83.871675 
   73200    1035.2659   -108.80439   0.93673034   -107.86766    3461.6232    4.3781763    4.3781763    4.3781763    3461.6232   -39634.244    5767.4122    44251.702    20399.716     5423.823   -4184.6577    83.922755 
   73300    2007.6904   -109.66475    1.8166005   -107.84815    11372.016    4.3724031    4.3724031    4.3724031    11372.016    23934.474    9574.1397    607.43349   -10329.053     -3144.82    19553.724    83.591202 
   73400    918.72883   -108.70047   0.83128515   -107.86919    2826.3581    4.3712792    4.3712792    4.3712792    2826.3581   -29020.393   -15338.462     52837.93    34524.434    30606.372   -6726.9611    83.526763 
   73500    1807.3411    -109.4954    1.6353203   -107.86008    5974.4466    4.3698137    4.3698137    4.3698137    5974.4466    48.432959    12257.688    5617.2188    3641.4965    19340.784    8029.1265    83.442781 
   73600    1394.3641     -109.124    1.2616499   -107.86235    9167.6398    4.3777168    4.3777168    4.3777168    9167.6398    21239.893    11313.003   -5049.9774    6618.2541   -4225.1495    20323.359    83.896334 
   73700    1015.5014   -108.77838   0.91884704   -107.85953   -10657.359     4.385786     4.385786     4.385786   -10657.359   -30120.301   -14810.619    12958.842     22927.24    33793.518   -4700.2004    84.361115 
   73800    1638.6354   -109.33088    1.4826718   -107.84821    8982.2277    4.3708395    4.3708395    4.3708395    8982.2277    44565.314   -263.67653   -17354.954   -8493.8702   -1431.1709    10500.411     83.50156 
   73900    1058.4387    -108.8197   0.95769757     -107.862    22192.676    4.3595676    4.3595676    4.3595676    22192.676    31109.712    23414.708    12053.607    13058.748   -6744.8959    7507.2825    82.857198 
   74000    2080.4573   -109.73774    1.8824415    -107.8553    7809.6201    4.3777283    4.3777283    4.3777283    7809.6201    10420.117    1578.6598    11430.083    7663.0594    16711.805    805.35814    83.896998 
   74100    859.11269   -108.64677   0.77734321   -107.86942   -10558.061     4.387623     4.387623     4.387623   -10558.061      47263.6   -4331.6806   -74606.103   -10930.934   -8090.6575    18138.724    84.467167 
   74200     1430.071   -109.15251    1.2939583   -107.85856   -6111.9726    4.3797766    4.3797766    4.3797766   -6111.9726   -3631.8938    18084.858   -32788.882     3447.451   -19297.657   -15032.676    84.014818 
   74300    1594.5318   -109.29272    1.4427659   -107.84996    8953.2036    4.3642953    4.3642953    4.3642953    8953.2036    34632.914    22622.439   -30395.742    5882.2304    8615.2636    26919.153    83.127051 
   74400    715.06209   -108.52275    0.6470032   -107.87575    -10755.13     4.368998     4.368998     4.368998    -10755.13    44660.456   -11789.931   -65135.916   -10856.975   -4745.8984    5521.5025    83.396062 
   74500    2120.9941   -109.77258      1.91912   -107.85346   -11551.558    4.3856611    4.3856611    4.3856611   -11551.558   -20773.061     7328.093   -21209.707    5380.0078   -3451.3333   -15911.945    84.353905 
   74600    1052.4273    -108.8172   0.95225838   -107.86495   -17363.387    4.3825755    4.3825755    4.3825755   -17363.387     1443.964    9986.1276   -63520.252   -3740.0528    30127.339    30510.794    84.175986 
   74700    1568.7113   -109.27632    1.4194029   -107.85692    2942.3308    4.3673055    4.3673055    4.3673055    2942.3308     32664.08   -1376.1846   -22460.903    -6519.187   -4900.7904   -22916.691    83.299179 
   74800    1838.6628   -109.51825    1.6636608   -107.85459    159.13837    4.3706153    4.3706153    4.3706153    159.13837   -20808.729    28161.944   -6875.7999    8753.7703    20743.727    5038.5446    83.488709 
   74900    614.30924    -108.4299   0.55583991   -107.87406   -11799.879    4.3813888    4.3813888    4.3813888   -11799.879    10115.345     4535.812   -50050.794   -2747.2254    29793.243    21146.306     84.10763 
   75000    1928.9613   -109.59392    1.7453647   -107.84856   -6655.1597    4.3828386    4.3828386    4.3828386   -6655.1597   -7297.9596     4976.116   -17643.636    5346.3035   -17208.434   -12191.677    84.191149 
   75100    998.61728   -108.76294    0.9035699   -107.85937   -10600.861    4.3813601    4.3813601    4.3813601   -10600.861   -36396.132   -8281.3337    12874.882    17035.009    10473.748    15584.581    84.105973 
   75200    1542.8432   -109.25894    1.3959969   -107.86295   -2767.4232    4.3648709    4.3648709    4.3648709   -2767.4232    19601.203   -13076.951   -14826.522    775.09256    21155.618     23954.29    83.159948 
   75300    1551.2904   -109.26991    1.4036402   -107.86627    13652.995    4.3618874    4.3618874    4.3618874    13652.995   -24183.986    14528.509    50614.462   -6574.7281   -34146.369   -18650.402    82.989537 
   75400    1039.1264   -108.81704   0.94022342   -107.87682    -31762.06    4.3850867    4.3850867    4.3850867    -31762.06   -24003.563   -28647.107   -42635.511    11146.791    3861.3626    31148.886    84.320768 
   75500    1638.0917    -109.3453    1.4821798   -107.86312   -4299.5157    4.3791921    4.3791921    4.3791921   -4299.5157    21296.646   -30422.291   -3772.9029   -4111.8267    18032.686    23283.171    83.981185 
   75600     1226.221   -108.97298    1.1095105   -107.86347    6881.3289    4.3645309    4.3645309    4.3645309    6881.3289   -7814.2113    9067.1302    19391.068    -8836.843   -42109.009   -16795.797    83.140518 
   75700    1346.6853    -109.0872    1.2185091   -107.86869    5452.2956    4.3695164    4.3695164    4.3695164    5452.2956    32307.735   -31552.887    15602.039    20382.371    4802.5631     39718.63    83.425752 
   75800    1700.7893   -109.39895    1.5389099   -107.86004    5607.7999    4.3824033    4.3824033    4.3824033    5607.7999    7605.3978    -21739.03    30957.032   -20633.099   -4190.3239   -16892.377    84.166065 
   75900     1019.025   -108.78307   0.92203527   -107.86103   -12605.097    4.3854035    4.3854035    4.3854035   -12605.097   -25814.953   -16672.825    4672.4878    13466.411   -28069.114     642.9274    84.339047 
   76000    2004.3602   -109.64959    1.8135872     -107.836     8551.399    4.3733447    4.3733447    4.3733447     8551.399    11919.088   -31429.608    45164.717    8800.8769     19872.27    8871.9386    83.645222 
   76100    963.49872    -108.7323   0.87179389    -107.8605   -7059.9443    4.3697614    4.3697614    4.3697614   -7059.9443   -8856.4769   -23655.702    11332.346   -22054.652   -21007.371    -25392.87    83.439784 
   76200    1184.3746   -108.94807     1.071647   -107.87642   -988.42389    4.3724279    4.3724279    4.3724279   -988.42389   -29996.518   -11788.521    38819.767    29902.359   -12913.958    5192.8202    83.592625 
   76300    2061.1348   -109.72947    1.8649581   -107.86452   -1366.2189    4.3766003    4.3766003    4.3766003   -1366.2189    8634.7584   -24908.705     12175.29   -7227.1911     11826.39   -7043.4713    83.832163 
   76400    652.23608   -108.48357   0.59015691   -107.89342   -14582.534    4.3725104    4.3725104    4.3725104   -14582.534    -27268.27   -14724.459   -1754.8738   -16890.037   -26806.313     -15683.6     83.59736 
   76500    1745.9457   -109.44877    1.5797684     -107.869   -784.76997     4.373785     4.373785     4.373785   -784.76997    201.07767   -19093.951    16538.564    15722.996   -8123.7628    14368.197    83.670484 
   76600    1456.0142   -109.17839    1.3174322   -107.86095   -20409.019    4.3886367    4.3886367    4.3886367   -20409.019   -4781.0242   -29208.361   -27237.671   -8888.5817    9630.4738    11043.702    84.525721 
   76700    1315.8028   -109.04562     1.190566   -107.85505   -18798.704    4.3813026    4.3813026    4.3813026   -18798.704   -55247.659   -2491.7629    1343.3092   -14776.338   -24442.938   -14241.093    84.102664 
   76800    1529.8135   -109.23757    1.3842074   -107.85336     2202.686    4.3629785    4.3629785    4.3629785     2202.686    32316.399   -33114.603    7406.2617    6866.0063    2282.3779     63403.77     83.05183 
   76900    1870.1346   -109.55105     1.692137   -107.85891    1700.7401    4.3670852    4.3670852    4.3670852    1700.7401   -10577.752   -1985.0105    17664.983   -6922.6922    1370.5785    2526.5845    83.286574 
   77000    912.40796   -108.70536    0.8255659   -107.87979   -18058.612    4.3810837    4.3810837    4.3810837   -18058.612   -26743.015   -27989.759     556.9378   -10664.585    -22407.03    25119.339    84.090058 
   77100    1060.1114   -108.84196   0.95921103   -107.88275   -20143.431    4.3832817    4.3832817    4.3832817   -20143.431    15616.185   -58752.517   -17293.961   -2205.8522    9982.4216    54515.738    84.216686 
   77200    2095.9478   -109.75576    1.8964576   -107.85931    14725.959    4.3697029    4.3697029    4.3697029    14725.959    11251.151   -4805.1437    37731.869    2660.3476   -815.64993    -25930.21    83.436434 
   77300    551.49428   -108.38476   0.49900361   -107.88576    441.78351    4.3641387    4.3641387    4.3641387    441.78351    43118.737   -14896.945   -26896.441     -14770.9   -21069.412    80089.082    83.118105 
   77400    1848.7536   -109.54327    1.6727911   -107.87048    5226.2531    4.3779141    4.3779141    4.3779141    5226.2531    6769.4387    14157.913   -5248.5925    28.600086   -4494.0864   -17004.686    83.907676 
   77500    1413.6969   -109.14241    1.2791427   -107.86327   -8651.9113    4.3906615    4.3906615    4.3906615   -8651.9113    34298.231    -20137.98   -40115.985      2838.01    12330.511    44534.357    84.642771 
   77600    1037.4671   -108.79635   0.93872206   -107.85762   -403.37658    4.3803361    4.3803361    4.3803361   -403.37658    11353.111    13555.701   -26118.942   -11482.227   -22170.869    35893.666    84.047015 
   77700    1590.5705   -109.27651    1.4391816   -107.83733     958.5968      4.37093      4.37093      4.37093     958.5968     2648.176    20901.815   -20674.201    176.95686    -12811.95   -8832.0519    83.506746 
   77800    1183.5641   -108.92345    1.0709136   -107.85254   -9534.8272    4.3699351    4.3699351    4.3699351   -9534.8272    50916.021   -35403.797   -44116.706    3345.2759    19121.868    70712.932    83.449736 
   77900    1599.2497   -109.29948    1.4470347   -107.85245   -8073.2543    4.3778498    4.3778498    4.3778498   -8073.2543   -6465.0528    1832.2415   -19586.952   -7647.3499   -32657.566   -16038.342    83.903984 
   78000    1122.8646   -108.87544    1.0159915   -107.85945   -31130.611    4.3865756    4.3865756    4.3865756   -31130.611   -4095.8073   -26186.669   -63109.356   -4961.7599   -3957.8311    48053.357     84.40669 
   78100    1832.5383   -109.50771    1.6581192   -107.84959    -2964.519    4.3743445    4.3743445    4.3743445    -2964.519    20090.876   -3111.4854   -25872.947    16242.739     2250.745    27291.461      83.7026 
   78200    1564.7268   -109.27102    1.4157977   -107.85522    1110.8685    4.3685267    4.3685267    4.3685267    1110.8685    11432.305    17497.328   -25597.027   -9066.2064   -29422.978    35.664083    83.369075 
   78300    1004.2935   -108.77896   0.90870584   -107.87026   -11808.745    4.3753904    4.3753904    4.3753904   -11808.745    26242.393   -22776.449    -38892.18    319.16572    -8665.493    75999.957    83.762654 
   78400    2313.7262   -109.94183    2.0935081   -107.84832   -408.73215    4.3847406    4.3847406    4.3847406   -408.73215    -913.3936    9090.6565   -9403.4593    2891.6282    8512.6477   -22640.612    84.300806 
   78500    585.13916   -108.39822   0.52944621   -107.86877   -17083.398    4.3870084    4.3870084    4.3870084   -17083.398    33178.622   -36061.584   -48367.231    16.174117   -28107.586    59359.782    84.431674 
   78600    1797.1019   -109.46944    1.6260556   -107.84338    3608.6951     4.373763     4.373763     4.373763    3608.6951    15441.806   -6976.0306    2360.3101   -22076.002    5956.7097    167.02313    83.669222 
   78700    1511.8505   -109.21687    1.3679541   -107.84892   -463.46946    4.3764292    4.3764292    4.3764292   -463.46946    37871.534   -14340.173    -24921.77    17345.205    316.94595    29272.613    83.822329 
   78800    830.01214   -108.62057   0.75101243   -107.86956    -21685.79    4.3773369    4.3773369    4.3773369    -21685.79    6104.5886   -33288.455   -37873.505    4119.8324    -23801.63    60787.122    83.874496 
   78900    2048.3387   -109.70473    1.8533799   -107.85135    9739.0348    4.3687741    4.3687741    4.3687741    9739.0348    7094.9466    15140.271    6981.8869   -27561.378   -4272.2123    -22282.09    83.383241 
   79000    817.07334    -108.6103   0.73930513     -107.871   -13097.237    4.3825953    4.3825953    4.3825953   -13097.237    64918.294   -51165.477   -53044.527    10555.233    3591.4162    69174.152    84.177131 
   79100    1568.8557   -109.26927    1.4195336   -107.84973    223.42976    4.3817491    4.3817491    4.3817491    223.42976    18776.427   -173.70504   -17932.433    4433.8376   -13120.886   -10317.829    84.128377 
   79200    1232.3556   -108.96467    1.1150613   -107.84961    3080.1201     4.373262     4.373262     4.373262    3080.1201    56468.686   -20317.734   -26910.592   -2253.3879    4484.1337    48258.808    83.640475 
   79300    1369.8352   -109.08897    1.2394557   -107.84952   -2984.0453    4.3790256    4.3790256    4.3790256   -2984.0453    47413.139   -22625.635    -33739.64    3181.7841    4947.6095    21727.025    83.971607 
   79400    1652.0876   -109.33321    1.4948436   -107.83837    13512.768    4.3766632    4.3766632    4.3766632    13512.768    6149.8838    11206.239    23182.181    17675.243   -17772.497   -3174.3485    83.835777 
   79500    1107.1978   -108.85553    1.0018158   -107.85371   -5737.3864    4.3813341    4.3813341    4.3813341   -5737.3864    22287.299   -32528.504   -6970.9544   -9282.2112    18002.846    68376.106    84.104478 
   79600    1963.9009   -109.61673    1.7769788   -107.83975   -5569.1329    4.3786909    4.3786909    4.3786909   -5569.1329   -25431.234   -2924.8082    11648.644    932.03937    788.64503   -28631.959    83.952349 
   79700    731.81713   -108.52006   0.66216352    -107.8579    26677.378    4.3667979    4.3667979    4.3667979    26677.378    57678.282   -2462.0653    24815.916    17938.733   -3357.6652    56924.821    83.270139 
   79800    1888.6948   -109.55671    1.7089308   -107.84778   -11165.461    4.3844441    4.3844441    4.3844441   -11165.461   -15837.956   -33066.053    15407.627   -15213.244   -3229.2511    9540.8681    84.283702 
   79900    1507.4558   -109.21562    1.3639777   -107.85164   -6647.4697     4.382849     4.382849     4.382849   -6647.4697   -1098.8928   -26002.813     7159.297   -9799.4319    3510.8423    9406.3208    84.191747 
   80000    1244.7016   -108.98036    1.1262321   -107.85413     5737.388    4.3688919    4.3688919    4.3688919     5737.388    50929.711   -24809.643   -8907.9044    18822.702   -9494.0548    54198.753    83.389986 
   80100    1731.7914   -109.41906    1.5669613   -107.85209    134.98835    4.3745634    4.3745634    4.3745634    134.98835    -5317.201   -14605.481    20327.647   -35449.549    927.86986   -17515.523    83.715168 
   80200    992.68257   -108.76051   0.89820005   -107.86231    1073.9711    4.3817234    4.3817234    4.3817234    1073.9711    41723.391   -17110.787   -21390.691   -1653.6336   -2674.7518    49789.652      84.1269 
   80300    1664.9149   -109.34758      1.50645   -107.84113   -2896.7521    4.3916089    4.3916089    4.3916089   -2896.7521   -4919.9893   -9425.6257    5655.3586    7618.1006   -10550.986   -5206.2376    84.697576 
   80400     1062.617   -108.81288    0.9614782    -107.8514   -952.84034    4.3771149    4.3771149    4.3771149   -952.84034    19590.145   -27018.201    4569.5344   -37989.124     9021.839    24853.761    83.861736 
   80500    1172.3226   -108.91708    1.0607421   -107.85633    13597.216    4.3603247    4.3603247    4.3603247    13597.216    55405.238   -18133.626    3520.0357    5415.6047   -5476.3987    50822.075    82.900373 
   80600    1953.2029   -109.62095    1.7672991   -107.85365    15562.712    4.3772335    4.3772335    4.3772335    15562.712    17138.027   -3754.4287    33304.539    2657.2025   -4383.1227    -21013.75    83.868554 
   80700     516.5777   -108.33891   0.46741036    -107.8715    409.96066    4.3950386    4.3950386    4.3950386    409.96066    60702.053   -58250.513   -1221.6582   -28443.212    8196.5091    57010.031    84.896165 
   80800     2298.661   -109.90076    2.0798768   -107.82088   -6466.2656    4.3982466    4.3982466    4.3982466   -6466.2656    9927.8027   -33928.544    4601.9446    269.69338    9111.4332   -24033.086    85.082203 
   80900    1141.9057   -108.87729    1.0332203   -107.84407   -5916.2021    4.3733389    4.3733389    4.3733389   -5916.2021    35563.919   -42465.214   -10847.312   -8677.4635    98.619297    63625.063    83.644887 
   81000    1108.0809   -108.86122    1.0026148    -107.8586    18812.522    4.3532158    4.3532158    4.3532158    18812.522    49614.576   -22829.204    29652.194   -39082.726    5954.9894    4203.1078    82.495564 
   81100    1996.7037   -109.67214    1.8066595   -107.86548    5097.7411    4.3726146    4.3726146    4.3726146    5097.7411    6460.6283    8045.8175    786.77758    9301.0407   -1218.3565   -11156.743    83.603333 
   81200     1143.644   -108.91137    1.0347931   -107.87658   -16571.703    4.3900087    4.3900087    4.3900087   -16571.703   -2658.4451   -42582.622   -4474.0421    -10835.18    1423.9522    51878.201    84.605021 
   81300    1245.4168   -108.98873    1.1268793   -107.86185    390.83687    4.3818624    4.3818624    4.3818624    390.83687    4994.1857   -12237.716    8416.0413   -37199.772   -616.55732   -21512.829    84.134906 
   81400    1678.4957   -109.36206    1.5187382   -107.84332    7761.6564     4.366935     4.366935     4.366935    7761.6564    5364.3744    12825.777    5094.8176    21780.918   -10600.019    23591.236    83.277979 
   81500    979.60943   -108.74655    0.8863712   -107.86018   -5133.2965    4.3725787    4.3725787    4.3725787   -5133.2965    -13496.22   -39377.932    37474.263   -43505.007    4003.3894    20328.186    83.601277 
   81600     1750.227   -109.43861    1.5836422   -107.85496   -8103.3173      4.37875      4.37875      4.37875   -8103.3173   -25210.446   -2601.2882    3501.7828   -13563.773    -16152.12   -19841.983    83.955753 
   81700    1433.9765   -109.15856    1.2974921   -107.86107     10722.57     4.372403     4.372403     4.372403     10722.57   -104.63755   -2168.5402    34440.887   -179.53367   -5236.8911    35839.179      83.5912 
   81800    1296.8846    -109.0449    1.1734485   -107.87145   -3439.9668    4.3703938    4.3703938    4.3703938   -3439.9668   -29463.351   -35454.642    54598.092    -57504.93    4015.2564    372.52716    83.476019 
   81900    1981.0881   -109.65186    1.7925302   -107.85933    6349.7718    4.3713162    4.3713162    4.3713162    6349.7718   -12749.995    24979.981    6819.3295     12399.82   -4873.0685   -8953.0198    83.528882 
   82000    985.53541   -108.77398   0.89173315   -107.88225   -6929.5175    4.3709672    4.3709672    4.3709672   -6929.5175   -23304.639   -22249.053    24765.139   -43802.477   -4047.9628    32752.967    83.508877 
   82100     1338.708   -109.08982    1.2112912   -107.87853   -5364.1404     4.378179     4.378179     4.378179   -5364.1404   -39916.833   -9439.1397    33263.552   -39104.311    1747.1239   -12228.088    83.922909 
   82200    1926.1799   -109.60138    1.7428481   -107.85854    7961.1411    4.3792402    4.3792402    4.3792402    7961.1411    14580.062   -428.07068    9731.4316     15419.51    5848.8286    15664.603    83.983951 
   82300    404.79873   -108.23955    0.3662704   -107.87328    1733.3205    4.3789452    4.3789452    4.3789452    1733.3205   -1995.4748   -5974.6307    13170.067    -73317.58   -7841.1653    28596.371    83.966979 
   82400    2007.4924   -109.66307    1.8164213   -107.84665    1956.2844    4.3776988    4.3776988    4.3776988    1956.2844    7233.0186    2645.5548   -4009.7201    11217.527    2640.6165     -16063.4    83.895298 
   82500    1121.6181   -108.87844    1.0148636   -107.86357    10518.441    4.3669269    4.3669269    4.3669269    10518.441     15913.87    6108.2842    9533.1696   -32504.181    5612.6759     27203.78    83.277517 
   82600    798.39862   -108.60639   0.72240785   -107.88398    -22634.54    4.3752241    4.3752241    4.3752241    -22634.54    747.91562   -44490.633   -24160.903   -48140.911   -7119.6961    22850.972    83.753104 
   82700    2136.2906   -109.79223    1.9329606   -107.85927    1559.0581    4.3741403    4.3741403    4.3741403    1559.0581     -6728.91    18991.937   -7585.8524    20585.541    -3926.654   -13743.125    83.690878 
   82800    1080.8403   -108.85188   0.97796703   -107.87391    -8309.801    4.3711129    4.3711129    4.3711129    -8309.801   -12928.102   -38409.256    26407.956   -65266.258    2640.1723    18756.488     83.51723 
   82900    1642.9919   -109.35381    1.4866136    -107.8672   -18044.357    4.3759874    4.3759874    4.3759874   -18044.357    42.928064    -30940.37    -23235.63    7178.5638   -5375.6747    18473.875    83.796947 
   83000    1510.1864   -109.23434    1.3664484   -107.86789   -1457.7693    4.3662478    4.3662478    4.3662478   -1457.7693   -21240.537    993.06673    15874.163   -20404.193   -7192.8572   -12323.721    83.238673 
   83100    1176.5719   -108.94164     1.064587   -107.87705   -11425.234    4.3716775    4.3716775    4.3716775   -11425.234   -12666.061   -46073.657    24464.015   -52763.724    5179.8597    5944.0961    83.549593 
   83200    1579.3499   -109.28838     1.429029   -107.85935   -15633.606    4.3811443    4.3811443    4.3811443   -15633.606   -4257.4223   -14209.534   -28433.862    38453.611   -8054.3172    9404.1835    84.093549 
   83300    1021.2612   -108.78267    0.9240586   -107.85861   -15933.183    4.3800504    4.3800504    4.3800504   -15933.183   -44905.622   -31472.312    28578.386   -49600.173    7630.8179   -6892.6182    84.030574 
   83400    1771.0265   -109.43848     1.602462   -107.83601   -5385.4742    4.3816327    4.3816327    4.3816327   -5385.4742   -12269.563   -23361.743    19474.883    9618.5913   -5073.8593    5758.9831    84.121673 
   83500    1017.7759   -108.77705     0.920905   -107.85615   -9169.1877     4.369926     4.369926     4.369926   -9169.1877   -30360.289   -15342.092    18194.818    32233.731   -10875.764    9262.9753    83.449211 
   83600    1915.1534   -109.58539     1.732871   -107.85252     17398.84    4.3653542    4.3653542    4.3653542     17398.84   -3175.4263   -3107.9998    58479.947   -28567.395    6260.8512   -13300.509    83.187572 
   83700     1224.761   -108.97618    1.1081895   -107.86799   -6500.1017    4.3802502    4.3802502    4.3802502   -6500.1017   -6197.3269   -37608.256    24305.278    42159.792   -4008.4745   -2328.0996    84.042075 
   83800    1423.9591    -109.1455    1.2884281   -107.85707   -1712.8181    4.3837921    4.3837921    4.3837921   -1712.8181   -39735.403     13839.97    20756.979    6736.5113   -7716.4061    12501.458    84.246109 
   83900      1648.44    -109.3392    1.4915432   -107.84766    2614.1229     4.377585     4.377585     4.377585    2614.1229      4350.88   -19078.206    22569.695    7586.9442   -2039.1757   -11445.798    83.888756 
   84000    607.05444   -108.41773   0.54927561   -107.86846    627.14527    4.3666932    4.3666932    4.3666932    627.14527   -19994.344    1330.6272    20545.153    58099.812   -3137.9584   -14584.298    83.264149 
   84100    1923.5067   -109.59945    1.7404293   -107.85902    16451.455     4.368742     4.368742     4.368742    16451.455    10800.391    38385.165    168.80971   -14250.924   -19628.151    10343.332    83.381404 
   84200    984.01192   -108.76664   0.89035466   -107.87629   -318.42656    4.3775516    4.3775516    4.3775516   -318.42656   -3994.6751   -23594.216    26633.611    21693.745    3280.4779   -19132.897    83.886835 
   84300    1277.5175   -109.02526    1.1559247   -107.86933   -16589.549    4.3869633    4.3869633    4.3869633   -16589.549   -27733.183   -18511.272   -3524.1923     36503.99   -12327.145   -3450.4901    84.429072 
   84400    1810.1181   -109.48897    1.6378329   -107.85114   -4251.6896    4.3781652    4.3781652    4.3781652   -4251.6896    17683.683   -18880.247   -11558.505   -20726.238   -5694.4301    20113.642     83.92212 
   84500    1023.4884    -108.7839   0.92607384   -107.85782    17940.994    4.3640949    4.3640949    4.3640949    17940.994    21957.749     288.5358    31576.698    30468.404    10295.198   -14125.225    83.115602 
   84600    1970.4968   -109.63524    1.7829469   -107.85229   -1315.4461    4.3799699    4.3799699    4.3799699   -1315.4461    21569.075    2432.9171    -27948.33    11463.991   -11939.261    4653.8807     84.02594 
   84700    1166.1244   -108.91398    1.0551339   -107.85885   -15088.059    4.3857682    4.3857682    4.3857682   -15088.059     16438.27   -42429.836    -19272.61     -14009.8   -483.82653    19555.635    84.360088 
   84800    1448.6041   -109.16015    1.3107275   -107.84942    814.11672    4.3757001    4.3757001    4.3757001    814.11672    791.43182   -9558.8195    11209.738    27729.272    4870.4593   -10837.564    83.780443 
   84900    1237.3584   -108.97256    1.1195879   -107.85297   -1996.3531    4.3687499    4.3687499    4.3687499   -1996.3531    44496.276   -7376.9668   -43108.369   -6426.8433     18893.06    22326.656    83.381853 
   85000    1178.1223   -108.92839    1.0659898    -107.8624   -2027.6051     4.372051     4.372051     4.372051   -2027.6051    7125.6061   -44545.942    31337.521   -17277.308   -14368.236    6748.4631    83.571013 
   85100    1502.7869   -109.21606    1.3597532    -107.8563   -16049.233    4.3823032    4.3823032    4.3823032   -16049.233   -18264.042   -17043.716   -12839.942    17028.622    18390.245    366.76823    84.160297 
   85200    1095.5405   -108.85709   0.99126811   -107.86583   -17672.024    4.3732534    4.3732534    4.3732534   -17672.024    20523.397   -16867.908    -56671.56   -11915.681    21005.845    37717.118    83.639984 
   85300    1765.6158   -109.45569    1.5975663   -107.85812    2900.2167    4.3628915    4.3628915    4.3628915    2900.2167   -15631.531   -15199.078    39531.259   -30590.125   -10102.827   -2357.2685    83.046863 
   85400    1558.4624   -109.27266    1.4101296   -107.86253   -16885.157    4.3779616    4.3779616    4.3779616   -16885.157   -13638.575    7947.8329   -44964.728    11259.747    37532.299    5594.2081    83.910407 
   85500    1122.9158   -108.87459    1.0160378   -107.85856    -11172.12    4.3832016    4.3832016    4.3832016    -11172.12    2361.8777     -24197.1   -11681.137   -27432.943   -1107.0101    25862.071     84.21207 
   85600    1734.2401   -109.41457    1.5691769    -107.8454    -6876.769    4.3726729    4.3726729    4.3726729    -6876.769   -34704.114    9344.7945     4729.013   -19636.632    10355.073    -2176.764     83.60668 
   85700    1146.3105   -108.89725    1.0372059   -107.86005    7328.3842    4.3654602    4.3654602    4.3654602    7328.3842   -6880.1957    38624.788   -9759.4391    7041.2603    36161.779    4737.5928    83.193632 
   85800    1512.9364    -109.2334    1.3689367   -107.86446    4321.9469    4.3689053    4.3689053    4.3689053    4321.9469    6881.1795   -14824.539      20909.2   -42026.509   -10742.413    19491.392    83.390755 
   85900    1482.2136   -109.20509     1.341138   -107.86395   -16066.964    4.3844346    4.3844346    4.3844346   -16066.964   -55963.938     30755.18   -22992.135    8534.0446    16191.035   -2580.9293    84.283159 
   86000    1247.1757   -108.99098    1.1284708    -107.8625   -12158.152    4.3766475    4.3766475    4.3766475   -12158.152   -32912.758    17224.869   -20786.566   -1784.0613    11495.615    7506.6809    83.834871 
   86100    2057.8335   -109.70277     1.861971    -107.8408    8601.1554    4.3675919    4.3675919    4.3675919    8601.1554   -13309.021    4452.5019    34659.985   -15611.042   -118.30074    8024.2579    83.315566 
   86200    592.12198   -108.40446   0.53576441    -107.8687   -29190.336    4.3800148    4.3800148    4.3800148   -29190.336   -86016.305    39885.124   -41439.829    17132.793    27053.046   -12989.079    84.028526 
   86300    1830.9389   -109.51326     1.656672   -107.85659    3896.8618     4.375676     4.375676     4.375676    3896.8618   -32319.172    15925.005    28084.752    4452.1262   -16991.152    13338.151    83.779057 
   86400    1767.8959   -109.46178    1.5996294   -107.86215   -6028.4934     4.376565     4.376565     4.376565   -6028.4934   -27263.604    12919.659   -3741.5356   -2303.0011    24828.957   -8330.9732    83.830131 
   86500    703.57607   -108.52391   0.63661041    -107.8873    -16350.97     4.366134     4.366134     4.366134    -16350.97   -63355.366    49090.478   -34788.023    15260.257    5393.7983   -17868.567    83.232163 
   86600    1855.0176   -109.54989    1.6784589   -107.87143    14720.118    4.3606028    4.3606028    4.3606028    14720.118   -24113.353    22283.486    45990.221   -1712.9109   -20440.338    12033.255     82.91624 
   86700    1071.1928   -108.84679   0.96923775   -107.87755   -26071.692    4.3849352    4.3849352    4.3849352   -26071.692    -43544.92    -2201.625    -32468.53   -21629.791    31183.263    2687.4302    84.312026 
   86800    1290.6619   -109.02962    1.1678181    -107.8618   -6885.6685    4.3784009    4.3784009    4.3784009   -6885.6685   -33342.682    42400.105   -29714.428    5502.1562   -17165.082   -20774.517    83.935673 
   86900    1524.6718   -109.23066     1.379555    -107.8511    3057.7307    4.3671702    4.3671702    4.3671702    3057.7307    377.12465   -6652.6397    15448.707   -14000.637    -522.2533    26715.623    83.291436 
   87000    958.93756   -108.73861   0.86766685   -107.87094   -17338.275    4.3702127    4.3702127    4.3702127   -17338.275   -7259.6579   -10078.682   -34676.485   -17472.453    31668.813    12833.977     83.46564 
   87100    2240.2838   -109.88633    2.0270559   -107.85928    14121.071    4.3648869    4.3648869    4.3648869    14121.071    8327.2994    18867.883     15168.03    10810.769   -11010.178    -20697.68    83.160864 
   87200    695.01998   -108.50993   0.62886868   -107.88106   -21297.266    4.3838736    4.3838736    4.3838736   -21297.266     -12258.7   -51728.282    95.183029   -23401.714    14039.661    57556.428     84.25081 
   87300    1638.0822    -109.3453    1.4821712   -107.86313   -8890.8763    4.3795038    4.3795038    4.3795038   -8890.8763   -24388.332    5813.7902   -8098.0876   -1379.6953    9437.9927    2406.1551    83.999116 
   87400     1522.858   -109.22971    1.3779139    -107.8518   -787.02401    4.3718316    4.3718316    4.3718316   -787.02401    19357.217   -28499.261    6780.9717   -8181.8313   -6920.0968    17646.884     83.55843 
   87500    649.20073   -108.46443   0.58741047   -107.87702   -18820.496    4.3689339    4.3689339    4.3689339   -18820.496   -19248.281   -45058.406    7845.1987   -27346.325    15828.859    46786.176     83.39239 
   87600    1987.3571   -109.66282    1.7982025   -107.86462    6799.7024    4.3668466    4.3668466    4.3668466    6799.7024    7961.4817    12503.232   -65.606312    9627.9646    15677.928   -24307.093    83.272922 
   87700    1276.0489   -109.03188    1.1545959   -107.87728   -21205.951    4.3786114    4.3786114    4.3786114   -21205.951    25267.189   -43095.653    -45789.39   -9647.0363   -1765.2999    22785.285     83.94778 
   87800    1295.5146   -109.04788    1.1722088   -107.87567    42.999244    4.3718667    4.3718667    4.3718667    42.999244   -5004.8094   -185.98296    5319.7901   -21752.337    4709.1456    30421.552    83.560444 
   87900    1743.5253    -109.4389    1.5775783   -107.86132    2910.4216    4.3685101    4.3685101    4.3685101    2910.4216    19509.974    6561.1564   -17339.865    3994.2542    7510.1373   -35772.204    83.368127 
   88000    678.15051    -108.4928   0.61360483   -107.87919   -13937.854    4.3747616    4.3747616    4.3747616   -13937.854    45983.048   -26932.434   -60864.175   -2193.3626   -7360.4182    43761.142    83.726544 
   88100    1980.9796   -109.65567     1.792432   -107.86324    5462.3202    4.3744898    4.3744898    4.3744898    5462.3202    2705.9091    29384.602   -15703.551   -12352.874   -1450.7212    7166.7635    83.710943 
   88200    1601.2448   -109.32135    1.4488399   -107.87251    677.43673    4.3721553    4.3721553    4.3721553    677.43673    17996.987    10664.739   -26629.416    10472.083    7311.6495   -9742.2286     83.57699 
   88300    882.06414    -108.6828   0.79811017   -107.88469     4873.253     4.366842     4.366842     4.366842     4873.253    57971.591    15964.463   -59316.295   -10442.898   -8187.0952    59878.202    83.272662 
   88400    1961.5135   -109.64329    1.7748186   -107.86847    10480.384    4.3715013    4.3715013    4.3715013    10480.384   -1780.5876    56556.276   -23334.536    4858.5744    1830.5554   -9835.0755    83.539491 
   88500    1069.3492   -108.84855   0.96756962   -107.88098     601.8192    4.3742588    4.3742588    4.3742588     601.8192    22284.747    16379.429   -36858.719    19146.791    907.24123    32415.088    83.697682 
   88600    1309.2146   -109.06219    1.1846049   -107.87759    3081.0527    4.3713828    4.3713828    4.3713828    3081.0527    51178.855    16209.858   -58145.555   -12689.915    161.88394    36532.883    83.532702 
   88700    1699.4074   -109.40642    1.5376596   -107.86876    8040.7437    4.3702457    4.3702457    4.3702457    8040.7437   -12610.086    46167.038   -9434.7206    19653.429    9660.4292   -17221.387    83.467532 
   88800    983.02187   -108.77481   0.88945884   -107.88535    -13873.71    4.3713987    4.3713987    4.3713987    -13873.71    12339.829   -25242.056   -28718.902    18339.193    4427.8206    50437.087    83.533613 
   88900     2052.651   -109.72904    1.8572818   -107.87176    5518.2516    4.3722349    4.3722349    4.3722349    5518.2516    19276.222    12846.127   -15567.594   -9330.0193   -7663.5024   -2332.8143     83.58156 
   89000    1447.6269   -109.18856    1.3098432   -107.87872   -12694.868    4.3788655    4.3788655    4.3788655   -12694.868   -5028.7205   -23398.392   -9657.4919    29755.015    5592.3171    12674.929    83.962396 
   89100    693.01594   -108.51075   0.62705538    -107.8837   -14023.046    4.3780113    4.3780113    4.3780113   -14023.046    24651.168   -49421.025    -17299.28    8880.8786    9202.8168    51697.934    83.913267 
   89200    2343.8406   -109.97786    2.1207562   -107.85711    11777.239    4.3665401    4.3665401    4.3665401    11777.239    25490.163    13060.912   -3219.3566   -6387.5214   -6878.2277   -20959.337    83.255391 
   89300    898.73885   -108.70613    0.8131978   -107.89293   -3321.6204    4.3656133    4.3656133    4.3656133   -3321.6204     57273.77    -49930.29   -17308.341    18729.754     7062.002    50847.485     83.20239 
   89400     982.1009   -108.78873   0.88862553    -107.9001   -10673.396    4.3697936    4.3697936    4.3697936   -10673.396    19342.681   -35953.175   -15409.693      17161.5    2221.8206    33298.366    83.441626 
   89500    1927.9695   -109.62593    1.7444673   -107.88146     7099.773    4.3745451    4.3745451    4.3745451     7099.773    20526.633    10811.856    -10039.17   -17896.583   -9538.7679    -17898.69    83.714116 
   89600    1037.3888   -108.82846   0.93865122   -107.88981   -15093.418    4.3746787    4.3746787    4.3746787   -15093.418    34104.001   -38782.175    -40602.08     14507.12     2090.074    63832.688    83.721785 
   89700    1574.2742   -109.30244    1.4244364     -107.878    792.17834    4.3680891    4.3680891    4.3680891    792.17834   -13503.739    10601.391    5278.8831    16525.101    13736.666   -1768.0419    83.344026 
   89800    1377.7425    -109.1263    1.2466104   -107.87969   -1626.5729    4.3702376    4.3702376    4.3702376   -1626.5729    8724.0441     20663.79   -34267.553   -18034.369   -15733.643    18167.607    83.467064 
   89900    939.13224   -108.73654   0.84974658   -107.88679   -7197.1856    4.3756049    4.3756049    4.3756049   -7197.1856     49221.95   -13206.093   -57607.414    19537.242   -16971.617    54042.838    83.774971 
   90000    2110.6234   -109.77688    1.9097364   -107.86714    12416.817    4.3717586    4.3717586    4.3717586    12416.817    5904.6668    15516.891    15828.894    5026.0162    13239.852   -26504.492    83.554246 
   90100    1228.0635   -108.99092    1.1111777   -107.87975   -4494.3414    4.3711615    4.3711615    4.3711615   -4494.3414    26387.063    12123.879   -51993.966   -10166.089   -26806.484    58850.364    83.520014 
   90200    1279.0178    -109.0374    1.1572822   -107.88012    542.02461    4.3688333    4.3688333    4.3688333    542.02461    32833.827   -2302.7398   -28905.013    13263.924   -4872.5956    14807.379    83.386632 
   90300    1687.0336   -109.39911    1.5264634   -107.87264   -3388.3073    4.3710413    4.3710413    4.3710413   -3388.3073   -14158.578   -6587.5968    10581.253    2826.9865     7199.356    -22450.08    83.513125 
   90400    1196.4711   -108.95608    1.0825922   -107.87349   -18975.835     4.379161     4.379161     4.379161   -18975.835    -22594.37    5370.8236   -39703.958   -3297.9992   -28419.876    53142.816    83.979393 
   90500    1465.9818   -109.19493    1.3264512   -107.86848   -10508.464    4.3709803    4.3709803    4.3709803   -10508.464   -34839.814   -4505.9129    7820.3346    14759.655     2296.454   -14302.696     83.50963 
   90600    1366.7189   -109.10876     1.236636   -107.87212    6991.4377    4.3619992    4.3619992    4.3619992    6991.4377    8037.0341   -3976.6852    16913.964   -4763.0138   -1271.2547     615.4904    82.995921 
   90700    1395.4152   -109.14075     1.262601   -107.87815   -5951.8213    4.3710332    4.3710332    4.3710332   -5951.8213   -7741.6388    15439.126   -25552.951   -4664.8182   -20016.189    27081.136    83.512661 
   90800    1410.1659    -109.1532    1.2759477   -107.87726   -12248.298    4.3763329    4.3763329    4.3763329   -12248.298   -35566.778   -6827.1427     5649.026    21673.532    15402.999   -15783.535    83.816794 
   90900    1240.3687   -108.99928    1.1223116   -107.87697    5878.7563    4.3747704    4.3747704    4.3747704    5878.7563   -16120.639    17251.983    16504.925   -32151.698   -8842.2133    7194.8863    83.727049 
   91000    2042.7259   -109.71029    1.8483014   -107.86198   -2823.4859    4.3707967    4.3707967    4.3707967   -2823.4859   -26695.857    26453.589   -8228.1898    1498.8545   -854.54225    3694.1643    83.499102 
   91100    873.92595   -108.66981   0.79074656   -107.87907    1731.5765    4.3650488    4.3650488    4.3650488    1731.5765   -57632.173    44736.334    18090.569    1867.2428    19599.581   -11791.053    83.170118 
   91200    923.48552   -108.73071   0.83558911   -107.89512    -16714.05    4.3737994    4.3737994    4.3737994    -16714.05   -72115.396   -6268.5848    28241.831   -42955.315   -2155.9056   -1748.9904     83.67131 
   91300    2289.3756   -109.94481    2.0714752   -107.87333    10362.865     4.369241     4.369241     4.369241    10362.865   -15294.398    48810.845   -2427.8531     11312.28    2939.4497   -886.18259    83.409979 
   91400    930.34967   -108.73843   0.84179994   -107.89663   -2623.5538     4.369929     4.369929     4.369929   -2623.5538   -34775.626   -3650.5753     30555.54    -40542.34    8022.5586   -6542.0973    83.449384 
   91500     1371.742   -109.12746     1.241181   -107.88628   -22573.543    4.3759736    4.3759736    4.3759736   -22573.543   -62895.136   -20397.278    15571.785   -17454.791   -6389.6217   -2712.5643    83.796153 
   91600    1847.5888   -109.54241    1.6717372   -107.87067    20004.939    4.3631439    4.3631439    4.3631439    20004.939    15409.604    29395.491    15209.721    14549.957   -13858.455    12225.488     83.06128 
   91700    1065.3458   -108.84885   0.96394724   -107.88491   -3563.5066    4.3722368    4.3722368    4.3722368   -3563.5066   -30263.479   -26508.353    46081.312   -59721.219    9654.1463   -12740.955    83.581668 
   91800    1559.1104   -109.28075    1.4107159   -107.87004   -10383.335     4.376182     4.376182     4.376182   -10383.335   -50747.807   -748.12181    20345.925    3905.5118   -9112.3377    -2547.907    83.808124 
   91900     1091.309   -108.86246   0.98743928   -107.87502    2229.4424    4.3697493    4.3697493    4.3697493    2229.4424   -12736.595   -11061.025    30485.947   -12510.563   -17427.111    20470.757    83.439088 
   92000    1059.0289   -108.84452   0.95823164   -107.88628   -14079.265    4.3720521    4.3720521    4.3720521   -14079.265   -16587.514   -44925.857    19275.574   -59032.439     13447.58   -22198.084    83.571073 
   92100    2146.3313   -109.81182    1.9420457   -107.86977     18417.19    4.3645493    4.3645493    4.3645493     18417.19     23665.91     21939.46    9646.1989     18892.92   -12258.085   -8548.3893    83.141565 
   92200    973.47135   -108.77339   0.88081734   -107.89257   -17209.305    4.3751891    4.3751891    4.3751891   -17209.305   -30489.598   -17916.637   -3221.6789    -49731.23   -18323.571    21149.877    83.751091 
   92300    1242.4169   -109.01056     1.124165    -107.8864   -17265.287    4.3775987    4.3775987    4.3775987   -17265.287   -296.75181   -37542.692   -13956.416   -34987.126    8693.5985   -17382.361    83.889545 
   92400    2002.7904   -109.67897    1.8121668   -107.86681    21420.372    4.3621976    4.3621976    4.3621976    21420.372    3635.5381    30405.882    30219.696    21870.716   -3501.4275   -493.38545    83.007244 
   92500      847.149   -108.65467   0.76651821   -107.88816   -23640.099    4.3724329    4.3724329    4.3724329   -23640.099   -48223.459       -44272    21575.162   -54615.159   -9216.6721    16985.721    83.592916 
   92600    1521.5632   -109.25648    1.3767424   -107.87974   -3726.1138    4.3700827    4.3700827    4.3700827   -3726.1138   -6435.1235   -12008.421    7265.2033   -7024.4381    9870.8864    2773.9893    83.458191 
   92700    1565.8375   -109.29221    1.4168027   -107.87541    8065.3269    4.3689835    4.3689835    4.3689835    8065.3269   -33338.238     32568.08    24966.139    5122.7688    10775.587   -2508.1198    83.395233 
   92800    956.45133   -108.75248   0.86541726   -107.88706   -29252.395     4.377384     4.377384     4.377384   -29252.395   -43225.422   -57760.138    13228.375   -41313.916   -6028.0401    16303.693    83.877202 
   92900    1692.2205    -109.4066    1.5311566   -107.87545    10974.976    4.3626872    4.3626872    4.3626872    10974.976    2056.9959    46760.924   -15892.991    7105.6413    23937.616    19730.815    83.035197 
   93000    1696.9184   -109.41342    1.5354074   -107.87801   -758.49899    4.3695458    4.3695458    4.3695458   -758.49899   -35665.337    21654.596    11735.244   -17876.191     1668.466   -13415.673    83.427431 
   93100    985.55503    -108.7735    0.8917509   -107.88174   -9074.8344    4.3784858    4.3784858    4.3784858   -9074.8344   -30498.308   -17473.438    20747.243   -25474.403     -1162.76    21065.653    83.940553 
   93200    1499.3221   -109.22384    1.3566182   -107.86722    18305.815     4.369505     4.369505     4.369505    18305.815    7788.1279    65362.438   -18233.122    14526.106    19352.823   -3552.7175    83.425095 
   93300     1425.688   -109.16492    1.2899925   -107.87492   -6803.3537    4.3727888    4.3727888    4.3727888   -6803.3537   -17279.822   -10234.047    7103.8076   -34638.683   -1137.4359   -22239.054    83.613329 
   93400    1582.1928   -109.30658    1.4316013   -107.87498    13382.815    4.3635545    4.3635545    4.3635545    13382.815   -5089.3351    36920.826    8316.9549   -9564.9475   -3339.5311    26842.078    83.084732 
   93500    1002.6355   -108.80034    0.9072057   -107.89314   -9266.7613    4.3706968    4.3706968    4.3706968   -9266.7613    9401.5278   -5951.7011   -31250.111    11499.517    24805.777   -31390.805    83.493379 
   93600    1690.8247   -109.41082    1.5298937   -107.88093   -11420.014    4.3807483    4.3807483    4.3807483   -11420.014   -24244.367    10197.176   -20212.851   -14006.304   -7016.3364   -20238.291    84.070744 
   93700    1639.2027   -109.36242    1.4831851   -107.87923   -2102.0523     4.367912     4.367912     4.367912   -2102.0523   -19794.067    24844.683   -11356.773    1132.3909   -8503.1767    18005.874    83.333889 
   93800    749.55586    -108.5711   0.67821389   -107.89289    992.87725    4.3650716    4.3650716    4.3650716    992.87725    21289.537   -7829.5347    -10481.37    14841.404    27300.828   -41697.925    83.171421 
   93900    1869.6301   -109.56642    1.6916806   -107.87474   -3915.7902    4.3805315    4.3805315    4.3805315   -3915.7902   -34814.837    54446.968   -31379.502   -4354.3812   -28049.962    218.46034    84.058265 
   94000    1397.8478   -109.13217     1.264802   -107.86737    -6971.885    4.3890699    4.3890699    4.3890699    -6971.885   -20223.405    15854.974   -16547.224   -2639.6337   -1121.3452   -9306.3241    84.550757 
   94100    1069.8161   -108.82956    0.9679921   -107.86157    1191.6577    4.3786782    4.3786782    4.3786782    1191.6577    2250.7148    15481.408   -14157.149    12079.663     19327.59    -33751.38    83.951624 
   94200    1761.1043   -109.44754    1.5934841   -107.85406    20665.875    4.3637375    4.3637375    4.3637375    20665.875   -19250.164    71690.671    9557.1175   -8443.5559   -36443.218    19858.829    83.095183 
   94300    1144.4522   -108.91339    1.0355244   -107.87786    10519.346    4.3648329    4.3648329    4.3648329    10519.346   -8155.6651    46037.144   -6323.4412   -3634.7384    12653.322   -28128.438    83.157775 
   94400    1002.5261   -108.79967   0.90710672   -107.89257   -11362.849    4.3841542    4.3841542    4.3841542   -11362.849   -31104.277   -1537.2518    -1447.018    11712.492    12013.542   -38848.916    84.266987 
   94500    2253.5429   -109.90563    2.0390529   -107.86658   -10890.691    4.3858952    4.3858952    4.3858952   -10890.691   -32630.324   -17330.467    17288.716   -12770.644   -20944.413    21968.886    84.367417 
   94600    581.37605   -108.41135   0.52604127    -107.8853     6304.575     4.365803     4.365803     4.365803     6304.575     42515.48   -20493.722   -3108.0325    9976.9242     29634.71   -43562.899    83.213236 
   94700    1355.5576   -109.11441     1.226537   -107.88787   -146.90731    4.3673957    4.3673957    4.3673957   -146.90731    7129.5178   -19656.877    12086.638    5406.8238    8700.4665   -5779.6456    83.304342 
   94800     1892.992   -109.58345    1.7128189   -107.87064    12942.272    4.3763224    4.3763224    4.3763224    12942.272    10634.427    1823.5277    26368.861   -7140.4923   -12661.649   -13130.138    83.816195 
   94900    729.26132   -108.53645   0.65985097    -107.8766    313.64995    4.3920976    4.3920976    4.3920976    313.64995    12391.314    -30223.14    18772.776    13728.494    33410.099   -44171.485    84.725854 
   95000    1740.8628   -109.41856    1.5751692   -107.84339   -20541.333    4.3920257    4.3920257    4.3920257   -20541.333   -50902.459    6293.7378   -17015.278   -497.50121   -25753.747    20396.932    84.721693 
   95100    1369.6966    -109.0867    1.2393303   -107.84737    9704.4874    4.3565948    4.3565948    4.3565948    9704.4874    8369.2511    21975.259    -1231.048    4038.8978   -26409.713   -33031.999    82.687811 
   95200     1315.486    -109.0581    1.1902794   -107.86782    3806.5943    4.3566982    4.3566982    4.3566982    3806.5943    4783.8364     13363.59   -6727.6438    15267.707    43275.185   -31543.667    82.693701 
   95300     1803.974   -109.50605    1.6322736   -107.87378   -14319.089    4.3761262    4.3761262    4.3761262   -14319.089   -33384.154    19169.633   -28742.745   -1328.3418    -23475.96    15710.899    83.804919 
   95400    1205.0142   -108.97383    1.0903222    -107.8835   -9816.5914    4.3833672    4.3833672    4.3833672   -9816.5914    9346.0473   -7845.9529   -30949.869    1079.0167   -19551.481   -22406.421    84.221616 
   95500    1033.0992   -108.81757    0.9347699    -107.8828   -10737.669    4.3747895    4.3747895    4.3747895   -10737.669   -24785.311    12491.949   -19919.644    14626.093    52485.264    -16031.36    83.728147 
   95600    2018.8831   -109.68709    1.8267278   -107.86036    16037.702    4.3646046    4.3646046    4.3646046    16037.702    9921.4731    23534.863     14656.77    -6189.084     -14633.2    4894.6564    83.144727 
   95700    922.10922   -108.71639    0.8343438   -107.88204   -11608.272    4.3775231    4.3775231    4.3775231   -11608.272    18689.105   -6796.9159   -46717.004    1525.1956    7140.9176   -35419.623      83.8852 
   95800    1110.5653   -108.88497    1.0048628   -107.88011   -14890.434    4.3810979    4.3810979    4.3810979   -14890.434   -22102.568    20378.983   -42947.718    5407.3516    42683.711   -5205.2661    84.090876 
   95900    2323.9415   -109.96179    2.1027511   -107.85904   -503.09313    4.3757632    4.3757632    4.3757632   -503.09313    18319.677   -6728.3652   -13100.591   -8176.9709   -19035.504   -512.65608    83.784065 
   96000    795.05539   -108.60976   0.71938283   -107.89038   -14489.443     4.367692     4.367692     4.367692   -14489.443    6867.3776   -4895.4762    -45440.23    5269.9812    46407.906   -34603.572    83.321295 
   96100    970.94251   -108.77054   0.87852919   -107.89201       6933.7    4.3594781    4.3594781    4.3594781       6933.7    14237.452    29655.844   -23092.196    5247.3701    14950.537    2645.3175    82.852096 
   96200    1777.4727    -109.4903    1.6082947   -107.88201     -12621.1    4.3775742    4.3775742    4.3775742     -12621.1   -1755.8881    6401.3022   -42508.715   -3115.3944   -51976.521    5299.0239    83.888138 
   96300    1413.5651    -109.1598    1.2790234   -107.88077   -9186.0467    4.3763886    4.3763886    4.3763886   -9186.0467    8884.4079   -4895.1868   -31547.361   -4413.4379    54995.492   -27785.443    83.819997 
   96400    1344.1677   -109.09274    1.2162312   -107.87651    12391.165    4.3683499    4.3683499    4.3683499    12391.165    10615.704    17270.371    9287.4208    3841.6183   -11097.654   -5045.9724    83.358956 
   96500     1773.235   -109.47512    1.6044603   -107.87066    9381.8997    4.3667355    4.3667355    4.3667355    9381.8997    6688.7645    12410.679    9046.2554   -6099.2776   -33919.606    6369.9866    83.266567 
   96600    641.29632   -108.47236   0.58025839   -107.89211    2676.8799     4.370868     4.370868     4.370868    2676.8799   -4413.1917   -1854.5786     14298.41    3077.7834    55968.654   -24748.923    83.503191 
   96700    1685.0935   -109.40962     1.524708   -107.88491   -17886.304    4.3783262    4.3783262    4.3783262   -17886.304    -16473.89   -22547.162   -14637.861    3421.5138   -4079.3512    1495.0274    83.931378 
   96800    1869.4637   -109.57003      1.69153    -107.8785    9993.1678    4.3648673    4.3648673    4.3648673    9993.1678   -13786.068   -1332.1787     45097.75   -13312.384    5017.8511   -5315.4089    83.159742 
   96900    554.42254   -108.40344   0.50165316   -107.90178   -32011.077     4.373802     4.373802     4.373802   -32011.077   -17614.171   -7598.7532   -70820.305    1966.4613    59878.144   -22442.647    83.671465 
   97000    2156.6478   -109.82725    1.9513802   -107.87587   -3558.6447    4.3696502    4.3696502    4.3696502   -3558.6447    13756.777   -18674.957   -5757.7548    5208.1274   -23000.528    7177.2178    83.433415 
   97100    1284.2306   -109.04713    1.1619988   -107.88514    3108.9349    4.3729485    4.3729485    4.3729485    3108.9349    12564.826    11227.508   -14465.529   -7924.4567    10821.089   -5928.5727    83.622489 
   97200    1205.7915   -108.96828    1.0910255   -107.87725   -12770.517    4.3776947    4.3776947    4.3776947   -12770.517    7543.4628   -2544.5404   -43310.472    5777.0891    47327.781   -35099.149    83.895066 
   97300    1724.5899   -109.41997    1.5604452   -107.85952    22010.638     4.369595     4.369595     4.369595    22010.638    14659.201    18223.594    33149.118   -2921.8258   -35493.168    1130.6068    83.430254 
   97400    857.14703   -108.65306   0.77556465   -107.87749   -10531.335    4.3775121    4.3775121    4.3775121   -10531.335    2779.4971    17019.547   -51393.051   -4460.7348    10896.556   -14321.438    83.884569 
   97500    1312.3988   -109.05975     1.187486   -107.87226    1332.4304    4.3734011    4.3734011    4.3734011    1332.4304    15324.669   -7685.3023   -3642.0751    1570.2276    27828.315   -35686.223    83.648457 
   97600    2004.8412    -109.6788    1.8140225   -107.86478    9047.6209    4.3713206    4.3713206    4.3713206    9047.6209   -8908.2873    33085.128    2966.0219   -4398.2399   -29068.869    9862.8602    83.529136 
   97700    1061.2412   -108.84204   0.96023338    -107.8818    3700.0172    4.3720242    4.3720242    4.3720242    3700.0172    16121.531    24622.958   -29644.437    2158.1908    29639.243    -32966.21    83.569473 
   97800    1279.8463   -109.03345    1.1580318   -107.87542    9888.9216    4.3731176    4.3731176    4.3731176    9888.9216    37232.856    12046.377   -19612.468   -8113.8211    4643.2593   -7402.0428     83.63219 
   97900     1381.888   -109.11741    1.2503613   -107.86705    227.02973     4.377534     4.377534     4.377534    227.02973   -12723.927    45538.461   -32133.445    7202.7312    266.74495     23181.96    83.885828 
   98000    1148.7123   -108.91235     1.039379   -107.87297    13289.648    4.3672316    4.3672316    4.3672316    13289.648    5101.8973     70094.94   -35327.893    -232.9177    37982.848   -23889.373    83.294948 
   98100    1497.2777   -109.22427    1.3547683    -107.8695    17482.716    4.3698617    4.3698617    4.3698617    17482.716    44243.959    45514.955   -37310.767   -2889.4855   -14593.913     17741.52    83.445528 
   98200    1127.0385   -108.89713    1.0197681   -107.87736   -5007.1999    4.3794637    4.3794637    4.3794637   -5007.1999    2086.5827    26129.251   -43237.434   -5959.3292    31683.477    12856.786    83.996807 
   98300    1717.0834   -109.41865    1.5536532     -107.865   -983.59728    4.3769473    4.3769473    4.3769473   -983.59728   -3366.5586    22604.293   -22188.527   -6523.9813    23751.563   -6378.3614    83.852104 
   98400    1530.8409   -109.25238     1.385137   -107.86724   -8841.0371    4.3770651    4.3770651    4.3770651   -8841.0371    47634.761   -21462.205   -52695.668    1857.9684    -16584.18    45396.161    83.858873 
   98500    903.05738   -108.69088    0.8171053   -107.87377    1267.1316    4.3687051    4.3687051    4.3687051    1267.1316    13802.891    39350.399   -49351.895   -3454.9054    52126.872   -6512.4763    83.379291 
   98600    1714.0278   -109.42314    1.5508884   -107.87226    11114.126     4.370556     4.370556     4.370556    11114.126    34710.756    14988.482   -16356.861   -3999.8321   -2517.7438   -2741.6915    83.485309 
   98700    1467.2105   -109.20078    1.3275628   -107.87321   -9877.9267    4.3836455    4.3836455    4.3836455   -9877.9267    42340.955   -6316.0427   -65658.693    -6066.717    20470.519    22912.685    84.237654 
   98800    663.59857   -108.48654   0.60043793    -107.8861   -17623.757     4.373498     4.373498     4.373498   -17623.757   -24402.234    41162.938   -69631.974   -4757.9563    51069.383   -17564.567    83.654014 
   98900    2022.5347   -109.70007    1.8300319   -107.87003     13960.28     4.365384     4.365384     4.365384     13960.28    21522.371    26539.057    -6180.587     -11617.4   -29666.534   -2335.8838     83.18928 
   99000    1577.3341   -109.30876    1.4272051   -107.88155   -2860.3783    4.3718463    4.3718463    4.3718463   -2860.3783    -19189.15    41615.214   -31007.199    7166.1476    55907.323    3193.3944    83.559273 
   99100    902.94826   -108.70481   0.81700656    -107.8878    12550.447    4.3715182    4.3715182    4.3715182    12550.447    1252.2439    69988.637   -33589.541    4184.6857    824.66359   -8962.9443    83.540463 
   99200    1499.0108   -109.22266    1.3563365   -107.86632   -4959.7831    4.3837534    4.3837534    4.3837534   -4959.7831    1860.5664    15500.397   -32240.313   -4269.4916   -11385.731    3539.4836    84.243875 
   99300    1420.3592    -109.1444    1.2851709   -107.85923   -4014.0159    4.3769625    4.3769625    4.3769625   -4014.0159    13662.013     14153.79    -39857.85    10092.514    48280.943    7914.2436    83.852978 
   99400    1262.8555   -109.00182    1.1426582   -107.85916    20383.084    4.3596132    4.3596132    4.3596132    20383.084    18259.792    65783.019   -22893.558   -13005.298   -39722.949   -18508.798    82.859801 
   99500    1317.4451   -109.06728     1.192052   -107.87523   -5853.9673    4.3734159    4.3734159    4.3734159   -5853.9673    22322.902    11212.383   -51097.186    2099.6129    5562.4459     26846.39    83.649307 
   99600    2127.7537    -109.7847    1.9252362   -107.85947     4087.896    4.3759841    4.3759841    4.3759841     4087.896    17135.979    19493.465   -24365.757   -1337.0535    3014.8231    6506.4639    83.796758 
   99700     1105.142   -108.87582   0.99995567   -107.87586   -10925.437    4.3768295    4.3768295    4.3768295   -10925.437   -16089.974    32334.099   -49020.435   -1012.5043   -46178.971   -6318.8364    83.845332 
   99800    1210.1166   -108.97156    1.0949389   -107.87663   -16978.518    4.3735078    4.3735078    4.3735078   -16978.518    33090.479   -25925.794   -58100.239    1609.7606    10185.535    47943.238    83.654581 
   99900    1897.9027   -109.58061    1.7172623   -107.86335    13113.313    4.3600267    4.3600267    4.3600267    13113.313   -12349.428    47656.143    4033.2256   -12283.179    -21254.61   -13325.988    82.883378 
  100000    814.08794   -108.62027   0.73660387   -107.88366    -15645.53    4.3797505    4.3797505    4.3797505    -15645.53    5617.8358   -7156.2405   -45398.185    9253.2043   -30932.466    30822.095    84.013316 
Loop time of 23.0084 on 1 procs for 100000 steps with 8 atoms

Pair  time (%) = 7.16805 (31.154)
Kspce time (%) = 5.59055 (24.2979)
Neigh time (%) = 0.13667 (0.594)
Comm  time (%) = 1.06037 (4.60861)
Outpt time (%) = 0.0303769 (0.132025)
Other time (%) = 9.02239 (39.2135)

Nlocal:    8 ave 8 max 8 min
Histogram: 1 0 0 0 0 0 0 0 0 0
Nghost:    1936 ave 1936 max 1936 min
Histogram: 1 0 0 0 0 0 0 0 0 0
Neighs:    2059 ave 2059 max 2059 min
Histogram: 1 0 0 0 0 0 0 0 0 0

Total # of neighbors = 2059
Ave neighs/atom = 257.375
Neighbor list builds = 1640
Dangerous builds = 0
unfix 20
unfix 21
print "seeds:6028433"
seeds:6028433
