LAMMPS (10 Feb 2015)
# ---- initialize simulations
clear
units metal
dimension 3
boundary p p p
atom_style charge
atom_modify map array
# ---- create atoms
read_data /Users/eugeneragasa/pyflamestk_git/pypospack/tests/tests_integration/workflow/WorkflowLammpsThermalExpansion/param_785/MgO_NaCl_unit.npt.T500/lammps.structure
  triclinic box = (0 0 0) to (4.2565 4.2565 4.2565) with tilt (0 0 0)
  1 by 1 by 1 MPI processor grid
  reading atoms ...
  8 atoms
# ---- define interatomic potential
include potential.mod
mass 1 24.305
mass 2 15.999

group Mg type 1
4 atoms in group Mg
group O type 2
4 atoms in group O

set group Mg charge 1.62294375895
  4 settings made for charge
set group O charge -1.62294375895
  4 settings made for charge

variable R_cut equal 10.0

pair_style buck/coul/long ${R_cut}
pair_style buck/coul/long 10
pair_coeff 1 1 0.0 0.5 0.0 ${R_cut}
pair_coeff 1 1 0.0 0.5 0.0 10
pair_coeff 1 2 1315.47688947 0.28024601768 0.0 ${R_cut}
pair_coeff 1 2 1315.47688947 0.28024601768 0.0 10
pair_coeff 2 2 7992.27283476 0.124296175577 7.5002562575 ${R_cut}
pair_coeff 2 2 7992.27283476 0.124296175577 7.5002562575 10

kspace_style pppm 1.0e-5

neighbor 1.0 bin
neigh_modify every 1 delay 0 check yes
# ---- define settings
compute eng all pe/atom
compute eatoms all reduce sum c_eng
# ---- run minimization
reset_timestep 0
fix 1 all box/relax iso 0.0 vmax 0.001
thermo 10
thermo_style custom step pe lx ly lz xy xz yz press pxx pyy pzz pxy pxz pyz c_eatoms
min_style cg
minimize 1e-25 1e-25 5000 10000
PPPM initialization ...
  G vector (1/distance) = 0.352546
  grid = 8 8 8
  stencil order = 5
  estimated absolute RMS force accuracy = 3.83063e-05
  estimated relative force accuracy = 2.66022e-06
  using double precision FFTs
  3d grid and FFT values/proc = 3375 512
Neighbor list info ...
  1 neighbor list requests
  update every 1 steps, delay 0 steps, check yes
  master list distance cutoff = 11
Memory usage per processor = 4.06549 Mbytes
Step PotEng Lx Ly Lz Xy Xz Yz Press Pxx Pyy Pzz Pxy Pxz Pyz eatoms 
       0   -108.88461       4.2565       4.2565       4.2565            0            0            0   -30879.056   -30879.056   -30879.056   -30879.056 -2.5133272e-10 -7.2643252e-11 5.7873381e-11   -108.88461 
      10   -108.89911    4.2290577    4.2290577    4.2290577            0            0            0   0.26053131   0.26053131   0.26053131   0.26053131 3.8284322e-11 -1.3873734e-12 -2.9889769e-10   -108.89911 
      12   -108.89911    4.2290577    4.2290577    4.2290577            0            0            0   0.25210742   0.25210742   0.25210742   0.25210742 1.3658055e-10 -3.2077679e-12 -1.3269119e-10   -108.89911 
Loop time of 0.00810194 on 1 procs for 12 steps with 8 atoms

Minimization stats:
  Stopping criterion = linesearch alpha is zero
  Energy initial, next-to-last, final = 
        -108.884606122     -108.899110632     -108.899110632
  Force two-norm initial, final = 4.45895 5.1421e-05
  Force max component initial, final = 4.45895 3.59365e-05
  Final line search alpha, max atom move = 0.5 1.79683e-05
  Iterations, force evaluations = 12 23

Pair  time (%) = 0.00232434 (28.6887)
Kspce time (%) = 0.0013566 (16.7442)
Neigh time (%) = 0 (0)
Comm  time (%) = 0.000249863 (3.08399)
Outpt time (%) = 1.19209e-05 (0.147137)
Other time (%) = 0.00415921 (51.336)

Nlocal:    8 ave 8 max 8 min
Histogram: 1 0 0 0 0 0 0 0 0 0
Nghost:    2189 ave 2189 max 2189 min
Histogram: 1 0 0 0 0 0 0 0 0 0
Neighs:    2344 ave 2344 max 2344 min
Histogram: 1 0 0 0 0 0 0 0 0 0

Total # of neighbors = 2344
Ave neighs/atom = 293
Neighbor list builds = 0
Dangerous builds = 0
unfix 1
# ---- define output variables ----
variable natoms equal "count(all)"
variable tot_energy equal "c_eatoms"
variable length_x equal "lx"
variable length_y equal "ly"
variable length_z equal "lz"
variable tilt_xy equal "xy"
variable tilt_xz equal "xz"
variable tilt_yz equal "yz"
variable tot_press equal "press"
variable press_xx equal "pxx"
variable press_yy equal "pyy"
variable press_zz equal "pzz"
variable press_xy equal "pxy"
variable press_xz equal "pxz"
variable press_yz equal "pyz"

# ---- output ----
print "pypospack:output_section:begin"
pypospack:output_section:begin
print "tot_energy = ${tot_energy}"
tot_energy = -108.899110631848
print "num_atoms = ${natoms}"
num_atoms = 8
print "xx = ${length_x}"
xx = 4.22905766787052
print "yy = ${length_y}"
yy = 4.22905766787052
print "zz = ${length_z}"
zz = 4.22905766787052
print "xy = ${tilt_xy}"
xy = 0
print "xz = ${tilt_xz}"
xz = 0
print "yz = ${tilt_yz}"
yz = 0
print "tot_press = ${tot_press}"
tot_press = 0.252107417895481
print "pxx = ${press_xx}"
pxx = 0.252107418292273
print "pyy = ${press_yy}"
pyy = 0.252107418323333
print "pzz = ${press_zz}"
pzz = 0.252107417070837
print "pxy = ${press_xy}"
pxy = 1.36580554666579e-10
print "pxz = ${press_xz}"
pxz = -3.20776791999541e-12
print "pyz = ${press_yz}"
pyz = -1.32691186845421e-10
print "pypospack:output_section:done"
pypospack:output_section:done
print "pypospack:lammps_sim:done"
pypospack:lammps_sim:done
#------------------------------------------------------------------------------
# RUN THERMOSTAT
# running using an NPT Nose-Hoover style thermostat
#------------------------------------------------------------------------------
variable tempdamp equal 0.1
variable pressdamp equal 1.0
# set initial velocities
velocity all create 500 5465246 mom yes dist gaussian loop all
# fix for Nose-Hoover style thermostat
fix 20 all npt temp 500 500 0.1 aniso 0.0 0.0 1.0 drag 1.0 couple xyz
variable boxx equal lx
variable boxy equal ly
variable boxz equal lz
variable boxp equal press
variable boxt equal temp
# calculate averages every 10000 steps
reset_timestep 0
fix 21 all ave/time 10 10 100 v_boxx v_boxy v_boxz v_boxp v_boxt file lattice.out
thermo_style custom step temp pe ke etotal press lx ly lz press pxx pyy pzz pxy pxz pyz vol
thermo_modify flush yes
thermo 100
run 100000
PPPM initialization ...
  G vector (1/distance) = 0.352817
  grid = 8 8 8
  stencil order = 5
  estimated absolute RMS force accuracy = 3.78369e-05
  estimated relative force accuracy = 2.62763e-06
  using double precision FFTs
  3d grid and FFT values/proc = 3375 512
Memory usage per processor = 3.06549 Mbytes
Step Temp PotEng KinEng TotEng Press Lx Ly Lz Press Pxx Pyy Pzz Pxy Pxz Pyz Volume 
       0          500   -108.89911   0.45241051    -108.4467    6389.3764    4.2290577    4.2290577    4.2290577    6389.3764    5609.4657    3644.4729    9914.1906    81.840789   -1701.9677     3952.765    75.636395 
     100    139.55444   -108.50851   0.12627179   -108.38224   -9742.9622    4.2546624    4.2546624    4.2546624   -9742.9622   -721.39685   -12943.602   -15563.888   -738.92984    3025.2353   -6724.7526    77.018547 
     200    356.28226   -108.58727   0.32237167   -108.26489    1175.9254     4.237306     4.237306     4.237306    1175.9254    8072.0408   -286.75496   -4257.5095    561.84983   -2463.6197   -4211.0441    76.079822 
     300    442.90657   -108.55868   0.40075117   -108.15793    866.66709    4.2553266    4.2553266    4.2553266    866.66709    5067.6964   -16683.425     14215.73   -1245.8348    7385.8911    216.56988    77.054621 
     400    342.32912   -108.38853   0.30974658   -108.07879    3885.5432    4.2537698    4.2537698    4.2537698    3885.5432    19015.843   -3306.9931   -4052.2199   -1134.0149    1716.4169   -4209.4346     76.97008 
     500    479.23538   -108.45434   0.43362224   -108.02072    181.89936    4.2449888    4.2449888    4.2449888    181.89936   -2379.7134   -8056.0054    10981.417    519.50905   -5132.6249   -2067.3857      76.4944 
     600    501.95918   -108.44342   0.45418321   -107.98924   -12975.381    4.2731189    4.2731189    4.2731189   -12975.381    1455.0997   -24859.862    -15521.38   -624.18962   -1290.4766   -1264.2078    78.025209 
     700    679.63686   -108.59007   0.61494971   -107.97512    14970.438    4.2370215    4.2370215    4.2370215    14970.438    19617.427    11352.107    13941.779    155.07852   -1656.8026    -3388.074    76.064497 
     800    313.36826   -108.27166   0.28354219   -107.98812   -8046.3592    4.2642388    4.2642388    4.2642388   -8046.3592    985.92639   -23790.008   -1334.9964   -4247.6295    1245.3102    -4139.434    77.539778 
     900    447.86403   -108.39509   0.40523678   -107.98985   -863.33243    4.2565928    4.2565928    4.2565928   -863.33243    10524.205   -1724.6781   -11389.524    3170.9996   -4049.2465    4340.7386    77.123427 
    1000    677.85839   -108.60035   0.61334052   -107.98701     18509.56    4.2382921    4.2382921    4.2382921     18509.56    18503.433    3126.1863    33899.062    710.14755    2433.1018    2742.9903    76.132948 
    1100     377.3353   -108.33291   0.34142091   -107.99149   -22240.671    4.2750838    4.2750838    4.2750838   -22240.671   -6795.4038   -26038.638   -33887.971   -174.54707   -5209.7986   -3755.8321    78.132894 
    1200    417.37372    -108.3636   0.37764851   -107.98596    12460.666    4.2388756    4.2388756    4.2388756    12460.666    5674.3926    19903.973    11803.633   -1497.3387   -5208.7632    6478.2184    76.164396 
    1300    684.54875   -108.60796   0.61939409   -107.98857   -3282.3597    4.2557976    4.2557976    4.2557976   -3282.3597    22417.575   -18689.037   -13575.617    2172.0411    1498.3528   -746.28981     77.08021 
    1400     379.6087   -108.33333   0.34347793   -107.98986   -6363.7352    4.2633083    4.2633083    4.2633083   -6363.7352   -6803.9183   -3145.2081   -9142.0793    108.82112    -133.4807   -3084.7511    77.489029 
    1500    454.60496   -108.39708   0.41133612   -107.98574    9259.8555    4.2386043    4.2386043    4.2386043    9259.8555    15744.321    7531.8496    4503.3958   -5612.1436   -976.90429    5150.8054    76.149777 
    1600    574.28426   -108.50608   0.51962447   -107.98646   -7918.7027    4.2684222    4.2684222    4.2684222   -7918.7027   -1768.5864    -21298.98   -688.54189     5048.022   -1706.1612    1027.3053    77.768213 
    1700    564.32781   -108.49575   0.51061566   -107.98514    12311.872    4.2465741    4.2465741    4.2465741    12311.872    10529.081    16364.542    10041.993   -4109.1564   -2320.0017    570.37334    76.580134 
    1800    334.31694   -108.29388   0.30249699   -107.99139   -1589.9117      4.25486      4.25486      4.25486   -1589.9117    20684.457   -14192.807   -11261.384    1476.0793   -4754.8729    3157.3657     77.02928 
    1900    672.88656   -108.59498    0.6088419   -107.98614   -8574.2294    4.2585445    4.2585445    4.2585445   -8574.2294   -2161.3813   -10055.285   -13506.022    236.29779   -1057.0171    163.05367    77.229564 
    2000    581.84795   -108.51336   0.52646825   -107.98689    14767.163    4.2447043    4.2447043    4.2447043    14767.163     26260.16    4171.5474    13869.783   -6939.3758    7104.9878   -800.75149     76.47902 
    2100    443.98997   -108.39491   0.40173146   -107.99318   -11034.357    4.2595439    4.2595439    4.2595439   -11034.357   -6718.3343   -19475.648   -6909.0905    1866.1686   -7147.1873   -19.390058    77.283947 
    2200     337.8341   -108.29813   0.30567939   -107.99245    11614.164    4.2558649    4.2558649    4.2558649    11614.164    21284.977    -7096.343     20653.86   -3147.2553   -1655.8794    5611.4032    77.083869 
    2300    639.84079   -108.56703    0.5789414   -107.98809    4108.9684    4.2521004    4.2521004    4.2521004    4108.9684    9454.2607   -7892.5401    10765.185    4719.5394   -4440.8596   -685.01406    76.879498 
    2400    390.39624   -108.34568   0.35323872   -107.99245    4807.4344    4.2513826    4.2513826    4.2513826    4807.4344    9884.2591   -11345.674    15883.718      3715.31     -4457.98    3376.8412    76.840571 
    2500    442.05162   -108.39246   0.39997759   -107.99248   -4151.8208     4.260265     4.260265     4.260265   -4151.8208   -12708.457   -4.1475134    257.14234   -992.00542   -2235.3657    2877.7885    77.323206 
    2600    760.97343   -108.67813   0.68854475   -107.98959    1340.8016    4.2487106    4.2487106    4.2487106    1340.8016     6438.583    -6986.801    4570.6229   -4034.2245    4745.2518   -3143.0982    76.695779 
    2700    407.27868   -108.36494    0.3685143   -107.99642    9529.6414    4.2513219    4.2513219    4.2513219    9529.6414    8442.0734   -431.27085    20578.122   -6342.0099   -2456.7753    1778.9238    76.837277 
    2800    374.97862   -108.33278   0.33928853   -107.99349   -14916.462    4.2675755    4.2675755    4.2675755   -14916.462    8058.1059   -23281.372    -29526.12     1703.886   -5907.2479   -2494.4235    77.721943 
    2900    556.96596   -108.48979    0.5039545   -107.98583    20048.391     4.239145     4.239145     4.239145    20048.391    34340.557   -1796.5681    27601.185   -1265.3441    2037.9623   -1605.9001     76.17892 
    3000    590.32587    -108.5275   0.53413925   -107.99336   -11714.263    4.2623655    4.2623655    4.2623655   -11714.263   -13122.076     -10481.3   -11539.414    3561.2636   -6791.0607    608.26752    77.437633 
    3100    337.51302   -108.29893   0.30538887   -107.99354   -12148.651    4.2593194    4.2593194    4.2593194   -12148.651    4503.1204   -20029.779   -20919.294    4252.7626    977.51317    299.81571    77.271726 
    3200    587.95703   -108.51901   0.53199588   -107.98702    21839.288    4.2343797    4.2343797    4.2343797    21839.288     36049.56    16240.508    13227.798   -563.87458    3607.7655   -1528.1577    75.922307 
    3300     539.3139   -108.47807   0.48798255   -107.99009   -19748.872    4.2766392    4.2766392    4.2766392   -19748.872   -11763.781   -22176.062   -25306.773    40.512287    930.38876    1528.9579    78.218201 
    3400    433.84429    -108.3828   0.39255143   -107.99025    11193.471    4.2344013    4.2344013    4.2344013    11193.471    31390.727    8406.9703   -6217.2828   -4778.2159   -11037.636    723.62943    75.923471 
    3500    479.23679   -108.43104   0.43362352   -107.99742    1754.3966    4.2535803    4.2535803    4.2535803    1754.3966    2689.1607    657.52267    1916.5063    2346.5246    4049.5514     -7653.45    76.959796 
    3600    643.88502   -108.56922    0.5826007   -107.98662   -20646.488    4.2687785    4.2687785    4.2687785   -20646.488    -18345.67   -26060.861   -17532.934   -1382.4375   -501.18161   -1789.7703    77.787685 
    3700    328.14063   -108.27747   0.29690853   -107.98057     28235.33    4.2267838    4.2267838    4.2267838     28235.33    49518.789    12920.989    22266.212    3919.7369   -8414.0433   -438.71407    75.514458 
    3800    388.39821   -108.33975   0.35143086   -107.98831   -26259.275    4.2741192    4.2741192    4.2741192   -26259.275   -12254.832   -26642.575   -39880.417   -2643.3863     7910.193   -6655.1699    78.080014 
    3900    568.52013   -108.50051   0.51440896    -107.9861    10600.291    4.2402797    4.2402797    4.2402797    10600.291    18944.668   -3010.9521    15867.158   -4201.3571    1208.0386    1096.7056     76.24011 
    4000    592.50857   -108.52762    0.5361142    -107.9915   -8531.5405    4.2487345    4.2487345    4.2487345   -8531.5405   -2521.9956   -7565.3247   -15507.301    3183.1718   -7003.9105    480.37508    76.697069 
    4100    251.71072   -108.21951   0.22775315   -107.99175   -9554.7197    4.2667612    4.2667612    4.2667612   -9554.7197    10908.976   -12954.433   -26618.702   -2868.4709    5868.3992   -5697.5208    77.677457 
    4200    787.02992   -108.69165   0.71212121   -107.97953    17680.927    4.2310878    4.2310878    4.2310878    17680.927    21375.385    3988.7456    27678.651   -2338.5392    6084.2154    4024.7661    75.745373 
    4300    395.58401   -108.34681   0.35793273   -107.98888   -3355.3644     4.267233     4.267233     4.267233   -3355.3644    18486.724   -14304.684   -14248.134   -1398.1563    108.83818   -3486.9307    77.703232 
    4400    413.66499   -108.36502   0.37429278   -107.99073    6675.3651    4.2451303    4.2451303    4.2451303    6675.3651    902.98486    4329.5146    14793.596    5974.6643     3743.368   -8484.4167    76.502052 
    4500    631.17303   -108.56267   0.57109862   -107.99157    1552.0092     4.247701     4.247701     4.247701    1552.0092    15564.355   -11077.429    169.10236   -1910.6885    839.11031    2929.8405    76.641115 
    4600    516.21215   -108.45543   0.46707961   -107.98835    2960.2683    4.2605953    4.2605953    4.2605953    2960.2683    4524.3738   -8189.9051    12546.336    -61.41554   -6439.2696   -6621.0128    77.341191 
    4700    467.38095   -108.41067   0.42289611   -107.98778    3146.9872    4.2471213    4.2471213    4.2471213    3146.9872    9545.8821    3265.6797   -3370.6001   -655.25659    -4670.631   -5039.2736    76.609739 
    4800    436.00467    -108.3841   0.39450618    -107.9896    -3271.962    4.2528231    4.2528231    4.2528231    -3271.962    15203.306   -11542.614   -13476.577   -3915.3608       5862.5    2781.4887    76.918706 
    4900    603.80037    -108.5359   0.54633127   -107.98957    2553.0849    4.2489443    4.2489443    4.2489443    2553.0849   -7542.9065    8258.5522    6943.6091    1073.6233    4630.8367   -2085.0199    76.708436 
    5000    447.59451   -108.39795   0.40499292   -107.99296   -7883.0555    4.2562134    4.2562134    4.2562134   -7883.0555   -2851.1426   -14563.068    -6234.956    -1545.985   -11190.736   -4706.1207    77.102804 
    5100    498.32911   -108.44344   0.45089865   -107.99254    1041.3888    4.2449127    4.2449127    4.2449127    1041.3888    4349.7275    5231.3442   -6456.9054     6660.239      6943.29    157.26562    76.490289 
    5200    465.36827     -108.414   0.42107499   -107.99292   -2684.9835    4.2598325    4.2598325    4.2598325   -2684.9835    5116.5089   -11484.185   -1687.2739   -188.98082   -1548.2153     4644.434    77.299658 
    5300    593.25932   -108.52647    0.5367935   -107.98968   -3382.6778    4.2481762    4.2481762    4.2481762   -3382.6778    18337.167   -9331.5022   -19153.699   -1194.5474   -8167.5747   -8409.9437    76.666843 
    5400    378.95781   -108.33473   0.34288899   -107.99185    1503.9064    4.2480282    4.2480282    4.2480282    1503.9064    8984.6197    2703.8938   -7176.7944     144.6204    11222.892    1518.4313    76.658829 
    5500    603.28036   -108.53563   0.54586074   -107.98977   -14903.742    4.2602339    4.2602339    4.2602339   -14903.742   -9157.0838    -20541.98   -15012.161   -1332.3752    1794.6949    3400.1146    77.321509 
    5600    546.11102   -108.48452   0.49413273   -107.99039    13328.069    4.2406444    4.2406444    4.2406444    13328.069    31347.379   -4579.0666    13215.894    738.11229   -6735.7509   -7335.7092    76.259786 
    5700    333.61483   -108.29999   0.30186171   -107.99813    5013.6722     4.253896     4.253896     4.253896    5013.6722    21983.947   -5024.3954   -1918.5348    956.63848   -4712.2523    3106.5432    76.976933 
    5800    454.15274    -108.4061   0.41092694   -107.99517    1386.5563    4.2579557    4.2579557    4.2579557    1386.5563    17522.087   -18496.137    5133.7193    1541.8779    11105.222    2817.0093     77.19753 
    5900    738.71554   -108.65759   0.66840534   -107.98919    6810.3139    4.2405283    4.2405283    4.2405283    6810.3139    15133.949   -2856.8063    8153.7994    -4389.153   -8852.2935   -2854.3952    76.253522 
    6000     417.3748   -108.37272   0.37764949   -107.99507   -3038.3529    4.2567578    4.2567578    4.2567578   -3038.3529    4013.0445   -9468.2301   -3659.8731    -2201.345    3172.9158    3197.4479    77.132395 
    6100    403.59103    -108.3597   0.36517764   -107.99452   -4090.8654    4.2563444    4.2563444    4.2563444   -4090.8654    25915.048    -20250.08   -17937.564    1735.6175     4852.136    3597.7748    77.109926 
    6200      632.042   -108.56198   0.57188489   -107.99009     10420.59    4.2400828    4.2400828    4.2400828     10420.59    22317.741   -5940.3604     14884.39    -875.1323   -3237.8573    618.14219     76.22949 
    6300    449.32767   -108.40179   0.40656112   -107.99523   -10054.045    4.2597908    4.2597908    4.2597908   -10054.045   -80.918291   -10567.449   -19513.768     1496.431   -5574.9742    1842.4131    77.297387 
    6400    465.75137   -108.41619   0.42142162   -107.99477   -6975.7999    4.2499764    4.2499764    4.2499764   -6975.7999    7028.7359   -13221.449   -14734.687    -115.9951    10445.999    6268.1989    76.764344 
    6500    534.13095    -108.4767   0.48329291   -107.99341    11647.131    4.2442674    4.2442674    4.2442674    11647.131    35828.711   -7310.6527    6423.3362   -5652.7295    4727.9709    238.36524    76.455408 
    6600    516.31803   -108.46192    0.4671754   -107.99474   -15120.172    4.2631529    4.2631529    4.2631529   -15120.172    -2878.939   -20101.163   -22380.414   -1953.1811   -6501.9271    1675.6203    77.480555 
    6700    404.33982     -108.357   0.36585516   -107.99114    1018.2291    4.2441347    4.2441347    4.2441347    1018.2291    14988.291    1077.6958     -13011.3   -635.97956    8433.9121    6835.0857    76.448238 
    6800    693.60745   -108.61872    0.6275906   -107.99113   -4095.1292    4.2514253    4.2514253    4.2514253   -4095.1292    3360.9906   -12830.572    -2815.806    2136.1193   -1260.9027   -4609.4315    76.842884 
    6900    425.33062   -108.37761   0.38484808   -107.99276   -5673.2391    4.2614396    4.2614396    4.2614396   -5673.2391    19629.656   -14439.766   -22209.607    1751.2254   -2949.9185    1174.6984    77.387177 
    7000     374.9128   -108.32989   0.33922898   -107.99066    8292.0499    4.2395992    4.2395992    4.2395992    8292.0499    33648.999   -1929.1732   -6843.6761    1182.0835    8128.1778    5037.9342    76.203407 
    7100    581.29003   -108.51696   0.52596343   -107.99099   -5800.6077    4.2586153    4.2586153    4.2586153   -5800.6077    8716.3436   -21299.629   -4818.5374   -3326.9732      6442.53   -4349.5091    77.233415 
    7200    642.89516   -108.57219   0.58170505   -107.99049   -4758.0634    4.2523904    4.2523904    4.2523904   -4758.0634   -2020.3287   -13530.725    1276.8635   -2562.8008   -3892.7021    3560.8152    76.895229 
    7300    338.44578   -108.30063   0.30623286    -107.9944    7004.2931    4.2452462    4.2452462    4.2452462    7004.2931    38174.553   -6967.6939    -10193.98    -3740.832   -2242.8412     5294.686    76.508318 
    7400    543.02057   -108.48257   0.49133643   -107.99123   -9350.2965    4.2597403    4.2597403    4.2597403   -9350.2965    5746.5411   -21613.459   -12183.971   -1155.2518    5502.5606   -2605.4623    77.294638 
    7500    623.22217   -108.55191   0.56390452   -107.98801    4788.1235    4.2459342    4.2459342    4.2459342    4788.1235    18138.892   -7331.7904     3557.269   -1799.4556   -4478.5593    5330.9087     76.54552 
    7600    529.23559   -108.47149   0.47886349   -107.99263   -11664.069    4.2522761    4.2522761    4.2522761   -11664.069   -3212.8197   -14542.049   -17237.338     3493.427    5862.2904    2512.6471    76.889028 
    7700    422.85575   -108.37746   0.38260877   -107.99485   -3145.8802      4.25319      4.25319      4.25319   -3145.8802    1166.1229    -13048.78    2445.0163    2180.5542    6288.0809   -3149.2234    76.938612 
    7800     626.4189   -108.55764   0.56679699   -107.99084    5835.2486    4.2477525    4.2477525    4.2477525    5835.2486    22014.831   -9626.0612    5116.9759   -1551.4214   -4199.7907   -1165.7371    76.643904 
    7900    383.15459   -108.33947   0.34668633   -107.99278    1876.4092    4.2563118    4.2563118    4.2563118    1876.4092    22776.659   -17483.968    336.53676   -1350.9579   -3281.8646    545.55697    77.108154 
    8000    408.46871   -108.36246   0.36959108   -107.99287   -2087.3811    4.2505087    4.2505087    4.2505087   -2087.3811     789.8302   -7581.1062    529.13286   -7306.2944    10869.707    -5375.663    76.793195 
    8100    642.28455    -108.5703   0.58115256   -107.98915    2086.3107    4.2499101    4.2499101    4.2499101    2086.3107     5423.471   -9458.4704    10293.931   -2896.1825   -2994.5588   -4733.0071    76.760755 
    8200    608.85455   -108.54098   0.55090439   -107.99007   -4617.0731    4.2529988    4.2529988    4.2529988   -4617.0731    4989.0408   -13225.876   -5614.3835   -491.92049    2552.4339    3901.8334    76.928238 
    8300    267.96452   -108.23704   0.24245993   -107.99458    8871.5509    4.2462037    4.2462037    4.2462037    8871.5509    21295.768    3443.5857    1875.2994     598.5732     4322.019   -4003.3518    76.560094 
    8400    572.57305   -108.51073   0.51807613   -107.99265   -198.50196    4.2550437    4.2550437    4.2550437   -198.50196    18272.251   -10532.603   -8335.1538    3090.3645   -2061.2638   -1749.0581    77.039258 
    8500    588.40802   -108.52152   0.53240394   -107.98912    4627.7165    4.2510108    4.2510108    4.2510108    4627.7165    8369.0585   -6679.3138    12193.405    3023.6987   -4434.0145    6024.4679     76.82041 
    8600    421.86704   -108.37334   0.38171417   -107.99162   -3473.3991    4.2469618    4.2469618    4.2469618   -3473.3991    4452.3943     3351.823   -18224.415   -1249.7201    4005.8236   -6353.9376    76.601111 
    8700    435.89856   -108.38595   0.39441017   -107.99154    -3990.653    4.2591607    4.2591607    4.2591607    -3990.653    8235.5412   -19787.836   -419.66449   -5297.6176    9335.7951   -2576.7791    77.263092 
    8800     623.9382   -108.55266    0.5645524   -107.98811    11607.067    4.2437621    4.2437621    4.2437621    11607.067    39796.679    -6601.039    1625.5616   -5188.4074    -8723.332    564.12145    76.428102 
    8900    323.46679   -108.28987   0.29267955   -107.99719   -4812.2641     4.251904     4.251904     4.251904   -4812.2641    5758.9861   -13024.486   -7171.2923    41.506208    4060.1251    -7189.023    76.868842 
    9000    472.46583   -108.42186   0.42749702   -107.99436   -11198.215    4.2560147    4.2560147    4.2560147   -11198.215   -13340.535   -19709.841   -544.26835   -3121.9388    3902.3797   -5269.4521     77.09201 
    9100    643.82261   -108.57084   0.58254422    -107.9883    13463.297     4.244556     4.244556     4.244556    13463.297     15803.52   -7733.2427    32319.615    2559.8222   -3459.4672    968.61488    76.471009 
    9200    546.89966   -108.48788   0.49484631   -107.99303   -8327.3031    4.2528527    4.2528527    4.2528527   -8327.3031    3644.7345   -19294.371   -9332.2721    2637.4419    9502.5151   -4815.3308    76.920307 
    9300    401.56318   -108.35954   0.36334281    -107.9962   -889.77914    4.2514974    4.2514974    4.2514974   -889.77914    11803.062   -19225.703    4753.3036   -3586.0861    9769.1768   -5007.4856    76.846796 
    9400    635.02747   -108.56907    0.5745862   -107.99449    7554.3866    4.2483924    4.2483924    4.2483924    7554.3866    35801.862   -13886.148    747.44557       148.37   -3470.1853      4792.69    76.678547 
    9500    653.30771   -108.58721   0.59112654   -107.99608   -8141.0116    4.2529751    4.2529751    4.2529751   -8141.0116   -7301.0021   -18143.998    1021.9652   -311.10309   -4925.3416   -3670.2273    76.926951 
    9600    293.22435   -108.26236   0.26531555   -107.99704     944.6965     4.249838     4.249838     4.249838     944.6965    19311.968   -12342.408   -4135.4705   -1104.5387    5408.2486   -4831.4695    76.756847 
    9700    547.58702   -108.48753   0.49546825   -107.99207    4030.7132     4.247175     4.247175     4.247175    4030.7132    23875.152   -12559.275    776.26189    -3680.319   -1950.8189    5523.8067    76.612647 
    9800    563.38292    -108.5002    0.5097607   -107.99044   -1002.2978    4.2539514    4.2539514    4.2539514   -1002.2978    6621.8548   -15780.374     6151.626    1834.8819    379.46718    -2814.557     76.97994 
    9900    392.98218   -108.34928   0.35557853    -107.9937    -841.7108    4.2469315    4.2469315    4.2469315    -841.7108    28039.343    -8587.245   -21977.231   -1343.0469    2811.6051   -5320.1821    76.599473 
   10000    466.47624   -108.41806   0.42207751   -107.99598   -3274.1765    4.2493744    4.2493744    4.2493744   -3274.1765    -1639.626   -14963.966    6781.0622   -2108.9991    4668.7154    8613.8449    76.731729 
   10100    590.78599   -108.52822   0.53455558   -107.99367    6045.1199     4.251695     4.251695     4.251695    6045.1199    26943.049   -6755.4258   -2052.2634   -374.58303    1382.1368    1946.0504     76.85751 
   10200     501.0817   -108.44779   0.45338925   -107.99441    3036.9277    4.2494164    4.2494164    4.2494164    3036.9277    3012.7178   -9143.7786    15241.844    3031.1818    7193.1643   -2509.6905    76.734007 
   10300    354.78294   -108.31541   0.32101506    -107.9944   -665.75292    4.2513507    4.2513507    4.2513507   -665.75292    19663.231    -13157.78   -8502.7102   -1410.4486    6837.3303    9733.6772     76.83884 
   10400    674.78957   -108.59925   0.61056378   -107.98868   -599.12598    4.2505079    4.2505079    4.2505079   -599.12598     3652.549     -10717.7    5267.7732    618.39545   -6037.9542   -975.98108    76.793152 
   10500    601.05828   -108.53279   0.54385016   -107.98894   -6160.4911    4.2534746    4.2534746    4.2534746   -6160.4911    1070.7725   -13962.834   -5589.4114    -657.1603    785.31117   -3695.5074    76.954059 
   10600    268.60817   -108.23601   0.24304232   -107.99297   -1443.3416    4.2487726    4.2487726    4.2487726   -1443.3416    8357.5616   -15991.686    3304.1001    178.48845     11506.31    4953.5992    76.699132 
   10700    512.86394   -108.45621   0.46405007   -107.99216    1254.1493     4.249621     4.249621     4.249621    1254.1493    2250.7184   -13602.174    15113.903    3004.4966    823.21199   -143.64286    76.745089 
   10800    530.54136   -108.47014   0.48004497    -107.9901   -845.17367    4.2571017    4.2571017    4.2571017   -845.17367    11566.795   -21118.614    7016.2971   -1741.1038    9332.5799   -1770.9524    77.151092 
   10900    372.34509   -108.32908   0.33690566   -107.99218   -6166.7706    4.2483011    4.2483011    4.2483011   -6166.7706    3315.8186   -18640.453   -3175.6777    1051.8803    10009.894    7404.9429      76.6736 
   11000     569.6676   -108.50775   0.51544721    -107.9923   -5072.9218    4.2508642    4.2508642    4.2508642   -5072.9218    10625.885   -14985.617   -10859.034   -627.80909    -4306.857    6147.9885    76.812462 
   11100    729.47412    -108.6528   0.66004352   -107.99275   -2848.6896    4.2518909    4.2518909    4.2518909   -2848.6896   -5497.6571   -15681.101    12632.689   -334.97391   -2433.8862   -324.20753    76.868132 
   11200    424.32484   -108.38082   0.38393804   -107.99688    12997.962    4.2385682    4.2385682    4.2385682    12997.962    41129.335   -6132.2321    3996.7823   -2172.2513    5425.8697    7923.8963    76.147828 
   11300    370.01549   -108.33325   0.33479779   -107.99845   -8130.5477    4.2671626    4.2671626    4.2671626   -8130.5477   -1754.3603   -34115.932    11478.649    5215.1245     3189.444    6535.6759    77.699384 
   11400    680.84641   -108.60644   0.61604414   -107.99039    14590.282    4.2416555    4.2416555    4.2416555    14590.282    26029.585   -5856.8258    23598.086    1846.4233   -3745.8015     -5027.85    76.314345 
   11500    452.74987   -108.40274    0.4096576   -107.99308    14790.629    4.2389211    4.2389211    4.2389211    14790.629        24883   -4778.4097    24267.297   -1788.0896    10112.463    3343.0554    76.166852 
   11600    381.63916   -108.33702   0.34531513   -107.99171   -30486.961     4.272182     4.272182     4.272182   -30486.961   -28798.167   -41587.117   -21075.598    2745.8811   -1.7335724    5782.1261    77.973894 
   11700    563.18784   -108.49306   0.50958419   -107.98348    32985.226    4.2250211    4.2250211    4.2250211    32985.226    54122.035    13859.275    30974.369   -378.12794    1155.1821   -7947.3299    75.420023 
   11800    563.47609   -108.50314   0.50984501   -107.99329   -8257.3943    4.2611939    4.2611939    4.2611939   -8257.3943   -7917.1531   -22830.492    5975.4622   -4122.8027    6696.8289    5994.8723    77.373794 
   11900    335.62355   -108.29483   0.30367924   -107.99115   -6144.4492     4.256821     4.256821     4.256821   -6144.4492    -1731.671    -15273.14   -1428.5363   -2213.4233    5502.1482    8199.6188    77.135831 
   12000    604.71235   -108.53004   0.54715644   -107.98288    15741.777    4.2322166    4.2322166    4.2322166    15741.777     18471.45     5276.328    23477.552     7104.319   -5315.2676   -6082.4421    75.806012 
   12100    634.80283   -108.55845   0.57438294   -107.98407   -19880.769    4.2665188    4.2665188    4.2665188   -19880.769   -9637.1126   -25143.134   -24862.061    1627.7872   -278.66267    6323.9315     77.66422 
   12200    369.96076    -108.3245   0.33474827   -107.98975    6878.6594    4.2376083    4.2376083    4.2376083    6878.6594    19552.235   -1578.8956    2662.6391    7414.7399    11965.226   -979.36743    76.096104 
   12300    472.43578   -108.42196   0.42746982   -107.99449   -7728.9965     4.252634     4.252634     4.252634   -7728.9965    14172.999   -26836.122   -10523.867    1953.5499   -4894.6007   -9119.6158    76.908442 
   12400     568.9544   -108.50354    0.5148019   -107.98873   -8838.5015    4.2570353    4.2570353    4.2570353   -8838.5015   -8958.7242   -21876.021    4319.2406    346.30447    9007.0493   -465.61263    77.147484 
   12500    338.90032   -108.29392   0.30664413   -107.98727    11465.129    4.2368572    4.2368572    4.2368572    11465.129    12697.739    2410.4416    19287.206     724.2371    13153.535   -2562.4427    76.055648 
   12600    480.24848   -108.42211   0.43453891   -107.98757     -23122.8    4.2641537    4.2641537    4.2641537     -23122.8    -22186.87   -38201.032   -8980.4988    1793.9565   -3755.3727   -3955.7324    77.535138 
   12700    584.74956    -108.5157   0.52909369   -107.98661    16573.095    4.2378229    4.2378229    4.2378229    16573.095    18814.881    1472.1983    29432.207   -895.55764   -1706.7107   -2372.5601    76.107665 
   12800    607.07781   -108.54002   0.54929676   -107.99073    -4629.618    4.2482743    4.2482743    4.2482743    -4629.618   -1169.6898    612.64505   -13331.809    1774.0553    3839.9491    2308.6055    76.672152 
   12900    376.12383   -108.33138   0.34032474   -107.99105   -5344.9682    4.2589898    4.2589898    4.2589898   -5344.9682   -1988.1953   -29431.135    15384.426    8232.2804    3953.6301   -2304.9184    77.253793 
   13000    617.65395   -108.54436   0.55886627   -107.98549    12638.404    4.2381753    4.2381753    4.2381753    12638.404     12178.92    4531.3364    21204.956    -1886.147   -9049.2502   -4778.1979    76.126653 
   13100    428.46781   -108.37669   0.38768668   -107.98901    7767.9506    4.2517269    4.2517269    4.2517269    7767.9506   -996.38906   -1602.2107    25902.452    4177.0878    12128.748    6558.9955    76.859238 
   13200    446.23759   -108.39665   0.40376515   -107.99288   -9559.9344     4.253024     4.253024     4.253024   -9559.9344   -2827.4583   -28192.341    2339.9963     4101.966    1486.1709   -4416.4111    76.929602 
   13300    535.23026   -108.47669   0.48428759   -107.99241    6953.1411    4.2359011    4.2359011    4.2359011    6953.1411    13456.306    3691.0978    3712.0193   -4894.2252   -5086.8733    -3481.159    76.004173 
   13400    505.98809   -108.45197   0.45782866   -107.99414   -2739.6392    4.2577299    4.2577299    4.2577299   -2739.6392   -2780.9168   -5387.4306   -50.570106    1636.7945    6189.7625    3467.6501    77.185252 
   13500    550.36963   -108.49186   0.49798601   -107.99387   -8215.6566    4.2492085    4.2492085    4.2492085   -8215.6566   -10799.908   -23995.983    10148.921    1407.7973    1700.8678   -2758.3894    76.722745 
   13600    368.16303   -108.32765   0.33312165   -107.99453    20735.189    4.2350224    4.2350224    4.2350224    20735.189    28539.352    5186.2588    28479.957   -667.82414   -3002.0749   -3238.7566    75.956881 
   13700    541.33972   -108.47965   0.48981555   -107.98983   -19235.924    4.2701077    4.2701077    4.2701077   -19235.924   -21185.693   -21145.057   -15377.023   -1728.8718   -3469.7099   -5153.8404    77.860372 
   13800    588.57428   -108.52108   0.53255438   -107.98852    13663.912    4.2278921    4.2278921    4.2278921    13663.912    21383.742    3424.2569    16183.737    4221.6316    7672.1132    2599.4363    75.573872 
   13900     391.7177   -108.35295    0.3544344   -107.99851    2991.6502    4.2480289    4.2480289    4.2480289    2991.6502     1998.982   -7715.0594    14691.028    16.836945   -7315.4626   -6141.9743    76.658867 
   14000     424.0628   -108.37357   0.38370093   -107.98987   -10479.582    4.2662676    4.2662676    4.2662676   -10479.582   -16058.097   -20280.013    4899.3637    -3497.903   -3536.5734   -2968.4246    77.650506 
   14100    671.92445   -108.58333   0.60797136   -107.97536     35448.33    4.2150105    4.2150105    4.2150105     35448.33    30142.831     18131.19    58070.969    5806.4385    11747.058    5548.1431    74.885199 
   14200    372.27758   -108.32854   0.33684458    -107.9917   -20891.941    4.2691571    4.2691571    4.2691571   -20891.941   -12667.762   -37584.413   -12423.647   -5290.2231   -5349.0453   -6782.9547    77.808384 
   14300    486.79495   -108.43254    0.4404623   -107.99208    3446.9518    4.2429088    4.2429088    4.2429088    3446.9518    3638.4944   -154.12726    6856.4882   -2118.0219   -4745.2077   -119.30893    76.382014 
   14400    722.34159   -108.63726   0.65358985   -107.98367    21509.735    4.2318479    4.2318479    4.2318479    21509.735    14774.243    11020.656    38734.304    2374.8366    1466.6492   -567.34705    75.786205 
   14500    373.07916   -108.32272   0.33756986   -107.98515   -14500.974    4.2673646    4.2673646    4.2673646   -14500.974   -19110.839   -29203.796    4811.7134   -4924.8867   -4628.5687   -4765.1226    77.710417 
   14600    345.93041   -108.29951   0.31300511    -107.9865    14178.207    4.2303578    4.2303578    4.2303578    14178.207    14252.079    9953.3056    18329.235   -4520.3107   -11463.192   -373.87711    75.706175 
   14700    796.92908   -108.70961   0.72107818   -107.98853   -10386.365    4.2495256    4.2495256    4.2495256   -10386.365   -13670.651   -11613.876   -5874.5672   -2047.8615    2147.7615    1016.4834    76.739924 
   14800    431.53222   -108.38416   0.39045942    -107.9937    1915.8867     4.249822     4.249822     4.249822    1915.8867    6536.7963   -9144.9399    8355.8036     555.5543    2222.5301   -2193.5621    76.755981 
   14900    323.52831     -108.288   0.29273522   -107.99527   -6458.9973     4.241385     4.241385     4.241385   -6458.9973   -10455.664   -13255.309    4333.9812   -6035.8521   -15178.806   -2112.2128    76.299746 
   15000     510.6139   -108.45449   0.46201419   -107.99248    2566.3437    4.2510167    4.2510167    4.2510167    2566.3437   -6759.2328   -4913.0906    19371.355     1162.292   -2816.3012    1886.6373     76.82073 
   15100    616.58325   -108.54882   0.55789748   -107.99092    988.68953     4.245172     4.245172     4.245172    988.68953    -1723.089   -9922.9627     14612.12    821.63622    1454.2768    3002.6165    76.504304 
   15200    287.50674   -108.25508   0.26014214   -107.99494   -17381.386    4.2491895    4.2491895    4.2491895   -17381.386   -16765.297   -25654.761   -9724.0989   -6419.2761   -13015.979   -2049.4938    76.721713 
   15300     617.6694   -108.55223   0.55888025   -107.99335    3845.4174    4.2410802    4.2410802    4.2410802    3845.4174   -4658.5824    4963.0669    11231.768    3591.7199   -5896.9759    1462.3942    76.283295 
   15400     633.3597   -108.56464   0.57307717   -107.99156     3648.254    4.2523337    4.2523337    4.2523337     3648.254   -5978.2543   -8747.6507    25670.667   -3815.0258    5550.1317   -938.45277    76.892149 
   15500    346.10119   -108.30908   0.31315963   -107.99592   -5880.2826    4.2440919    4.2440919    4.2440919   -5880.2826   -15441.294   -13749.543     11549.99   -6736.4506   -10177.359   -7799.4841    76.445922 
   15600    464.74502   -108.41634   0.42051106   -107.99583   -514.97009    4.2451219    4.2451219    4.2451219   -514.97009   -5404.5392    -340.6343    4200.2633    1483.2436   -9552.9418    3003.7182    76.501595 
   15700    765.17226   -108.68228   0.69234394   -107.98994   -6110.3931    4.2514306    4.2514306    4.2514306   -6110.3931   -8702.5814   -19350.373    9721.7754    -2383.195    447.66361   -763.13837    76.843174 
   15800    358.10748   -108.31912   0.32402317   -107.99509   -571.79524    4.2407667    4.2407667    4.2407667   -571.79524   -7898.0822   -11577.885    17760.581   -3714.9643   -12408.545     1300.503     76.26638 
   15900    308.15451   -108.27653   0.27882468    -107.9977   -4421.1762    4.2494853    4.2494853    4.2494853   -4421.1762   -8674.1475   -9530.8783    4941.4972   -1154.7986   -10183.656    -5959.727    76.737739 
   16000    614.54853   -108.54744   0.55605643   -107.99138    6950.5056    4.2478228    4.2478228    4.2478228    6950.5056    3027.6102   -8626.7974    26450.704    5307.5666     5685.738   -191.73239    76.647711 
   16100     622.5387   -108.55563    0.5632861   -107.99235   -5839.2808    4.2423753    4.2423753    4.2423753   -5839.2808    -9145.018   -2824.9329   -5547.8916   -2644.7717   -1960.7214    -3670.417    76.353205 
   16200    285.23588   -108.25614   0.25808742   -107.99805   -2784.4151    4.2488612    4.2488612    4.2488612   -2784.4151    3999.9095   -16011.792    3658.6369    1338.8943   -12307.588   -2851.3833    76.703935 
   16300    650.53572   -108.58122   0.58861839    -107.9926   -4725.1995    4.2504025    4.2504025    4.2504025   -4725.1995   -7766.2556   -13008.848    6599.5049    5027.1393    10112.749    7176.0283    76.787439 
   16400    556.85918   -108.49408   0.50385789   -107.99023    11157.331    4.2386587    4.2386587    4.2386587    11157.331    4057.9019    6163.1452    23250.946   -3813.4357   -2458.4872   -1044.2483    76.152708 
   16500    367.81676   -108.32877   0.33280833   -107.99596   -2308.4002     4.250195     4.250195     4.250195   -2308.4002   -93.017258   -14180.781    7348.5972    3831.8832   -10223.421   -3478.4076    76.776191 
   16600    570.16103   -108.50711   0.51589368   -107.99122   -11777.582    4.2524278    4.2524278    4.2524278   -11777.582   -12082.896   -22256.996   -992.85432    6098.6694     2685.137   -2120.0123    76.897259 
   16700    590.48105   -108.52196   0.53427966   -107.98768    12813.768    4.2351712    4.2351712    4.2351712    12813.768    11160.154    7004.9151    20276.236   -699.60634    1558.3878   -3088.6797    75.964892 
   16800       499.35   -108.44382   0.45182237   -107.99199   -16598.627    4.2565415    4.2565415    4.2565415   -16598.627   -15849.756   -28058.491   -5887.6349   -412.04502   -9703.4471    554.15258     77.12064 
   16900    270.54907   -108.23927   0.24479848   -107.99447    6875.9271    4.2446988    4.2446988    4.2446988    6875.9271    2068.7977   -9204.2922    27763.276    6495.4999    3769.1394   -1584.7078    76.478723 
   17000    648.77046   -108.57678   0.58702115   -107.98976    8269.2771    4.2369573    4.2369573    4.2369573    8269.2771    5215.1025    9139.1521    10453.577    499.62437    15406.765    5600.4775    76.061038 
   17100     492.4488   -108.43592   0.44557802   -107.99034   -11065.599    4.2608978    4.2608978    4.2608978   -11065.599   -13171.706   -19347.865    -677.2273   -2905.9018   -8078.9371    3172.7702    77.357667 
   17200      406.094   -108.35808   0.36744239   -107.99064   -1519.8411    4.2394325    4.2394325    4.2394325   -1519.8411   -958.41612    -3583.322    -17.78519    10853.787     1495.089   -4158.6948    76.194419 
   17300    560.93541    -108.4985   0.50754615   -107.99096    5904.5304    4.2404988    4.2404988    4.2404988    5904.5304    8229.5642    3530.0996    5953.9274    2189.1167    7229.3577    1310.5743    76.251928 
   17400    599.59177   -108.53113   0.54252324    -107.9886   -11587.938    4.2613587    4.2613587    4.2613587   -11587.938   -10316.283   -23736.921   -710.61028    1048.7203   -8533.6412    -3373.457    77.382771 
   17500     405.6601   -108.35637   0.36704979   -107.98932    11742.626    4.2313035    4.2313035    4.2313035    11742.626    9418.9584    6369.7798    19439.138     9223.394   -2596.8454   -715.66515    75.756959 
   17600    449.06782   -108.40091     0.406326   -107.99458    -4598.204    4.2496262    4.2496262    4.2496262    -4598.204    2079.8834   -14259.142   -1615.3532    17.420732    10394.401   -250.01698    76.745369 
   17700    658.56051   -108.58418   0.59587939    -107.9883   -7920.5098    4.2546711    4.2546711    4.2546711   -7920.5098    2946.2504   -15783.755   -10924.024   -716.88801    4429.1359   -2454.4746    77.019017 
   17800    492.43951   -108.43299   0.44556961   -107.98742    8298.4153    4.2326719    4.2326719    4.2326719    8298.4153    9874.5562    2508.7105    12511.979    3832.6121   -4525.2944     4311.744    75.830484 
   17900    315.79787   -108.27939   0.28574055   -107.99365   -8251.5577    4.2537722    4.2537722    4.2537722   -8251.5577    8427.7015   -10474.312   -22708.062    2100.0536    13463.513   -6803.4275    76.970212 
   18000    581.74855   -108.51824   0.52637831   -107.99186    5325.5151    4.2447178    4.2447178    4.2447178    5325.5151   -2941.9501    7316.3341    11602.161   -2276.4135    3541.8174    2220.0371    76.479751 
   18100    552.79923   -108.49181   0.50018436   -107.99162    12267.028    4.2378881    4.2378881    4.2378881    12267.028    11837.881    7119.2318     17843.97    3457.2999   -11015.017   -1650.7516    76.111182 
   18200    338.94434   -108.30204   0.30668396   -107.99536    -12406.49    4.2558881    4.2558881    4.2558881    -12406.49    610.96105   -23446.213   -14384.217    6361.8954    11906.054   -3732.2545    77.085128 
   18300    564.83771   -108.50304   0.51107703   -107.99196    4184.7473    4.2414502    4.2414502    4.2414502    4184.7473   -3611.3112    7068.4028    9097.1504   -3866.4335    8031.0156    4633.9777    76.303263 
   18400     814.4124    -108.7267   0.73689746   -107.98981    3806.7693    4.2408599    4.2408599    4.2408599    3806.7693    12575.111    -6004.732    4849.9287    3761.0895   -1697.9518   -4422.1519    76.271409 
   18500    269.38981   -108.24148   0.24374956   -107.99773   -9779.8933    4.2555208    4.2555208    4.2555208   -9779.8933   -20815.785   -5851.1108   -2672.7841     5764.753     11209.23   -2164.5551    77.065173 
   18600    433.24555   -108.38751   0.39200968    -107.9955    240.31873     4.236851     4.236851     4.236851    240.31873   -4585.7104    3444.2303    1862.4363   -510.74986    17153.198   -5455.4936    76.055316 
   18700    639.86804   -108.57084   0.57896605   -107.99188     6276.781    4.2470202    4.2470202    4.2470202     6276.781   -1227.7871    786.03774    19272.092    767.65861   -5173.9927    2241.0376    76.604273 
   18800    391.56819   -108.34774   0.35429913   -107.99344    -15249.56    4.2537925    4.2537925    4.2537925    -15249.56   -21721.619   -16805.018   -7222.0423    4778.8576     10287.46   -4254.9133    76.971313 
   18900    284.02965   -108.24976     0.256996   -107.99276    727.81535    4.2341417    4.2341417    4.2341417    727.81535   -4757.5896    16400.915   -9459.8795   -1022.2717    19699.484   -1348.5345    75.909504 
   19000     792.1178   -108.70746   0.71672483   -107.99073   -11654.342    4.2531326    4.2531326    4.2531326   -11654.342   -8638.0648   -17310.287   -9014.6737   -2003.3699   -9088.7725    8940.4185    76.935497 
   19100    492.94416   -108.43847   0.44602623   -107.99244   -10277.908    4.2510587    4.2510587    4.2510587   -10277.908   -10876.652   -8534.9933   -11422.078    2434.1547    9918.2616   -2234.2355    76.823007 
   19200    341.88537   -108.30086   0.30934506   -107.99151    4916.5246    4.2329813    4.2329813    4.2329813    4916.5246    -3505.711    8213.8393    10041.446   -3723.5727     17171.96   -650.61453    75.847113 
   19300    650.74689   -108.57743   0.58880947   -107.98862     -11262.3    4.2605393    4.2605393    4.2605393     -11262.3   -4409.9738   -23514.184   -5862.7413    966.24939   -2995.9501   -2198.8168    77.338138 
   19400    520.27723   -108.46027   0.47075777   -107.98951    10085.664    4.2407033    4.2407033    4.2407033    10085.664   -3880.4988    12964.736    21172.754    2310.4107    9161.1659   -6880.8365    76.262962 
   19500    371.84622    -108.3295   0.33645428   -107.99305   -458.87842    4.2417301    4.2417301    4.2417301   -458.87842    452.52976    9493.9412   -11323.106    5192.5045     16572.52   -4938.2055    76.318372 
   19600    480.56271   -108.42355   0.43482324   -107.98873   -6882.2907    4.2594626    4.2594626    4.2594626   -6882.2907    7216.9649   -19307.386   -8556.4509    1654.6707   -5152.0737    411.28346    77.279525 
   19700    581.05609   -108.51051   0.52575176   -107.98476    14245.238    4.2342521    4.2342521    4.2342521    14245.238     5703.664    22807.965    14224.084    2834.7267    2469.0985    4047.2866    75.915442 
   19800    353.22138   -108.31145   0.31960213   -107.99184   -2038.4982    4.2499107    4.2499107    4.2499107   -2038.4982    374.34176   -8305.2441    1815.4077    3813.1933    12081.119    368.21717    76.760787 
   19900    496.36449   -108.43756   0.44912102   -107.98843    -2783.691    4.2526218    4.2526218    4.2526218    -2783.691    1506.7209   -12506.999    2649.2048   -8065.8433   -5457.7178    2352.4019     76.90778 
   20000    702.68824   -108.62091   0.63580709    -107.9851     5608.053    4.2356507    4.2356507    4.2356507     5608.053   -98.185305    8500.9273     8421.417   -1732.7022    3952.9895     924.6669    75.990697 
   20100    481.32571   -108.42619   0.43551362   -107.99067   -5603.7822    4.2520833    4.2520833    4.2520833   -5603.7822   -4602.1546     -6925.71   -5283.4822    722.60637    12612.133   -5795.6655    76.878569 
   20200    495.59238    -108.4384    0.4484224   -107.98998   -9995.1161    4.2496963    4.2496963    4.2496963   -9995.1161     366.1233   -18410.133   -11941.339   -4159.7384   -610.60655    -739.4506     76.74917 
   20300    504.57927   -108.44414   0.45655393   -107.98759    11759.956     4.235012     4.235012     4.235012    11759.956    16285.961    8437.8763    10556.029    3589.1031   -5160.2468    2981.5511    75.956322 
   20400    461.71567   -108.40875   0.41777004   -107.99098   -6479.6973    4.2553669    4.2553669    4.2553669   -6479.6973   -16454.538   -2102.9065   -881.64708   -81.305153    6433.8227   -2372.7326    77.056812 
   20500     350.2038   -108.30863   0.31687176   -107.99176   -3889.7442    4.2450988    4.2450988    4.2450988   -3889.7442    1164.5635   -10633.742   -2200.0541    2903.5657   -1034.6911    760.54805    76.500347 
   20600     466.8889   -108.41288   0.42245089   -107.99043    2846.5643    4.2361268    4.2361268    4.2361268    2846.5643    1991.1261    428.36037    6120.2066   -4480.5314   -10339.409    2735.7053    76.016322 
   20700    657.03869   -108.58314   0.59450242   -107.98864   -15883.193    4.2566028    4.2566028    4.2566028   -15883.193   -22679.549   -18213.544   -6756.4859    1976.3974    6072.2083   -1693.8269    77.123971 
   20800     497.2853   -108.44179   0.44995419   -107.99184    1121.4808    4.2387973    4.2387973    4.2387973    1121.4808    7481.6778   -3405.8001    -711.4355   -2242.6824    3958.1748   -3688.7929    76.160175 
   20900     441.1676   -108.39327   0.39917771   -107.99409    -3595.823    4.2434844    4.2434844    4.2434844    -3595.823   -10812.294   -9268.8831    9293.7085   -8120.0065   -10656.865    6354.9507    76.413103 
   21000    618.03032   -108.54974   0.55920682   -107.99053    515.75048    4.2508905    4.2508905    4.2508905    515.75048   -10012.977    8991.4995    2568.7291    4793.1583    1861.4595    5746.7369    76.813888 
   21100    503.81986   -108.44633    0.4558668   -107.99046    6893.7641    4.2407587    4.2407587    4.2407587    6893.7641     10597.39   -2175.7359    12259.638   -7417.9489    -608.4501   -5962.8707    76.265948 
   21200     323.2711   -108.28579   0.29250249   -107.99328   -5865.3627    4.2461881    4.2461881    4.2461881   -5865.3627   -7283.1849    -6154.142   -4158.7613    -1501.957   -7391.6494    2348.0052    76.559255 
   21300    633.83901   -108.56329   0.57351085   -107.98978   -92.883956    4.2467187    4.2467187    4.2467187   -92.883956    4205.9664   -6540.8925    2056.2742     -1125.98    -2997.635   -2903.8134    76.587954 
   21400    510.59452   -108.45187   0.46199665   -107.98987    8016.1553     4.245644     4.245644     4.245644    8016.1553    5035.0543    2367.6316     16645.78   -2626.9647    5015.0782   -4461.8347    76.529824 
   21500    409.50684   -108.36319    0.3705304   -107.99266   -9301.2258    4.2438255    4.2438255    4.2438255   -9301.2258    -3406.042   -21416.679   -3080.9561   -1027.0931    -5377.366    717.95768    76.431531 
   21600    455.38396   -108.40517   0.41204097   -107.99313    7318.9314    4.2471788    4.2471788    4.2471788    7318.9314    9810.9154    3446.0649    8699.8138   -2771.1391   -6331.5465     6940.836    76.612851 
   21700    780.76558    -108.6951   0.70645311   -107.98865   -181.67622    4.2455492    4.2455492    4.2455492   -181.67622     -1602.37    -3134.085    4191.4264     5771.739    2262.5068    357.76084    76.524701 
   21800    269.73363   -108.23866   0.24406065    -107.9946    5065.8584    4.2423204    4.2423204    4.2423204    5065.8584    16456.887    4961.2088   -6220.5206   -1445.5496   -9533.3805   -5484.3067     76.35024 
   21900    501.64322   -108.44721   0.45389732   -107.99332   -5588.5384    4.2494773    4.2494773    4.2494773   -5588.5384    3232.0327   -6970.9302   -13026.718     2985.655   -8544.5529    6010.4382    76.737305 
   22000    725.42156   -108.64401   0.65637667   -107.98763    2976.5307    4.2439327    4.2439327    4.2439327    2976.5307   -85.705909    1510.1404    7505.1575    141.07636    5262.4464   -7803.2681    76.437323 
   22100    297.65442   -108.26302   0.26932397   -107.99369   -1497.9105    4.2439441    4.2439441    4.2439441   -1497.9105     20030.27   -16422.418   -8101.5831   -4780.9977   -5244.0404   -2324.4119    76.437936 
   22200    453.84377   -108.40295   0.41064738    -107.9923   -16499.592    4.2506399    4.2506399    4.2506399   -16499.592   -14575.531   -15839.945   -19083.299   -1631.9103   -11190.577     9632.951    76.800302 
   22300    661.52581   -108.58666   0.59856245   -107.98809    8004.9616    4.2421422    4.2421422    4.2421422    8004.9616   -836.19369    10445.765    14405.314    -3393.309    2687.6019   -6527.9109    76.340616 
   22400    453.24914   -108.40251   0.41010934    -107.9924   -2707.1526    4.2449276    4.2449276    4.2449276   -2707.1526     5729.977   -3027.6117   -10823.823     1238.753   -4953.6959   -1240.9949    76.491092 
   22500    319.60024   -108.28342   0.28918101   -107.99424   -7354.1808    4.2498306    4.2498306    4.2498306   -7354.1808   -17769.675   -3313.0956    -979.7721    -1209.901   -14857.667    2809.5685    76.756448 
   22600    661.38504   -108.58711   0.59843508   -107.98867    6403.0297     4.243784     4.243784     4.243784    6403.0297   -890.42931   -3767.0913     23866.61    6631.3572    6477.8779    17.344279    76.429288 
   22700    598.16389   -108.53268   0.54123126   -107.99145    2517.9936    4.2434176    4.2434176    4.2434176    2517.9936    1067.7267   -87.466599    6573.7206    1378.1944    2001.8581    439.07729    76.409494 
   22800    356.85624   -108.31757   0.32289102   -107.99468   -10656.313    4.2519234    4.2519234    4.2519234   -10656.313    -11781.87    -21309.49    1122.4197   -762.56623   -15348.575    6383.2602    76.869896 
   22900    587.40965   -108.52198    0.5315006   -107.99048    2378.6814    4.2423616    4.2423616    4.2423616    2378.6814    -2713.854    4042.1217    5807.7766     3169.606    544.86004    4435.2841    76.352462 
   23000    580.05007   -108.51492    0.5248415   -107.99008    8316.4558    4.2427871    4.2427871    4.2427871    8316.4558   -6425.0997   -3133.5247    34507.992   -3435.7102    3376.8632   -6566.0468     76.37544 
   23100    311.94834   -108.27556   0.28225741   -107.99331   -13580.773    4.2559397    4.2559397    4.2559397   -13580.773   -20374.975   -18058.471    -2308.872   -2905.6182   -13537.591    3509.1688    77.087931 
   23200    471.41689   -108.41612   0.42654791   -107.98957    3708.5626    4.2354177    4.2354177    4.2354177    3708.5626   -6724.5734    13025.473    4824.7884   -1470.6755    2036.9749    53.471297    75.978156 
   23300    603.92877    -108.5364   0.54644744   -107.98995   -3531.9782    4.2521741    4.2521741    4.2521741   -3531.9782   -19146.581     14116.98   -5566.3336   -1269.5818    9679.6361   -3593.3755    76.883494 
   23400    439.05957   -108.39201   0.39727032   -107.99474   -8650.5526    4.2476311    4.2476311    4.2476311   -8650.5526   -14203.125   -2138.0179    -9610.515   -4104.5094   -13884.367    13300.702    76.637329 
   23500    379.41976   -108.33652   0.34330697   -107.99321    8863.1342    4.2340182    4.2340182    4.2340182    8863.1342    -3516.812    14574.929    15531.286    3997.0877    6302.2179    8502.0054    75.902863 
   23600    575.76877    -108.5077   0.52096768   -107.98673   -16683.136     4.263875     4.263875     4.263875   -16683.136   -31766.057   -20941.718    2658.3688    1364.3634    8376.6623    3073.8109    77.519932 
   23700    529.25242   -108.46514   0.47887871   -107.98626    16005.938    4.2299036    4.2299036    4.2299036    16005.938    5963.9274    14957.385    27096.502    226.63061   -12882.294    5312.6693    75.681791 
   23800     461.1882   -108.40949   0.41729278    -107.9922   -18207.412    4.2527799    4.2527799    4.2527799   -18207.412    -20746.63   -18800.616   -15074.989    6262.9563    2840.4053    3216.3749     76.91636 
   23900    504.97184   -108.44663   0.45690914   -107.98972   -2692.0635    4.2506414    4.2506414    4.2506414   -2692.0635   -14335.645    1017.4292     5242.025    -2438.068    14423.884   -3551.3209    76.800384 
   24000     727.1725   -108.64126   0.65796096    -107.9833    13613.696    4.2286788    4.2286788    4.2286788    13613.696     10138.01    9947.0477     20756.03   -751.87251   -5317.9747   -6503.7901    75.616066 
   24100    289.80636   -108.25238   0.26222288   -107.99016   -9100.4792    4.2605636    4.2605636    4.2605636   -9100.4792    -21200.63   -16966.061    10865.254    782.71692    -993.2221    10603.696    77.339462 
   24200    460.59424   -108.40628   0.41675535   -107.98953    5811.6927    4.2383461    4.2383461    4.2383461    5811.6927   -4554.2369     6447.223    15542.092    -1156.552    19429.665   -1757.5838    76.135857 
   24300    578.50073   -108.51162   0.52343962   -107.98818    16784.695    4.2367904    4.2367904    4.2367904    16784.695    5734.5699    22402.932    22216.583   -4396.0519   -4545.3141    301.15999    76.052052 
   24400    570.49269   -108.50725   0.51619377   -107.99106   -13479.898    4.2560296    4.2560296    4.2560296   -13479.898   -17073.599   -16026.239    -7339.857   -351.66588    44.436094    7145.7003    77.092817 
   24500    364.53042   -108.32345   0.32983479   -107.99362    2103.3905    4.2348931    4.2348931    4.2348931    2103.3905    1667.1559    14427.175   -9784.1594    6034.4756    14784.131   -4160.2823    75.949926 
   24600    560.09035   -108.50044   0.50678152   -107.99366     1429.459    4.2429599    4.2429599    4.2429599     1429.459    428.03265   -1437.0622    5297.4065    -7383.518    503.88752   -3642.0343     76.38477 
   24700    598.95633   -108.53247   0.54194827   -107.99052   -5965.9095    4.2534165    4.2534165    4.2534165   -5965.9095   -12998.284   -9470.4137    4570.9694    3138.9758   -759.59412   -1533.7502    76.950903 
   24800     298.5425   -108.26251   0.27012753   -107.99238    12169.151    4.2334696    4.2334696    4.2334696    12169.151    3204.0796     22553.88    10749.494     2615.722    14535.662     5214.106    75.873361 
   24900    503.49638   -108.45027   0.45557411    -107.9947   -5827.0329    4.2492351    4.2492351    4.2492351   -5827.0329   -8138.5152   -12677.789    3335.2052   -4510.9317    4830.1329   -10250.748    76.724187 
   25000    642.84533   -108.57316   0.58165996    -107.9915    4570.8783    4.2446957    4.2446957    4.2446957    4570.8783    2269.9643    1064.7363    10377.934    1673.7135   -3937.2235   -2469.6901    76.478556 
   25100     478.9374    -108.4254   0.43335263   -107.99205    7585.5576    4.2354698    4.2354698    4.2354698    7585.5576    2801.3998    105.16698    19850.106    2244.0039    15224.896    2742.8612    75.980957 
   25200    349.28773   -108.30854   0.31604288    -107.9925   -5801.4661    4.2554549    4.2554549    4.2554549   -5801.4661   -12214.842   -13093.583    7904.0264   -1560.1755    3653.7493   -11252.798    77.061589 
   25300    640.02903   -108.56671   0.57911171    -107.9876      18212.5    4.2337587    4.2337587    4.2337587      18212.5    17986.463    6160.7569     30490.28    -3663.204    -5836.205    2909.4118    75.888911 
   25400    537.27262   -108.47852   0.48613555   -107.99239     792.1085    4.2455188    4.2455188    4.2455188     792.1085   -12107.808    4000.1042    10484.029    5171.9969    9371.7497    2977.8565    76.523055 
   25500    399.50125   -108.35525   0.36147712   -107.99377   -9034.7076    4.2494789    4.2494789    4.2494789   -9034.7076   -2829.3997   -10137.845   -14136.879    -4401.119    8961.9069   -5587.1777    76.737392 
   25600    555.78658   -108.49225   0.50288737   -107.98937    13230.802    4.2343375    4.2343375    4.2343375    13230.802    16304.852    13268.303    10119.251   -3660.4224   -5082.9743   -8853.1327    75.920038 
   25700    594.43221   -108.52699   0.53785475   -107.98914   -9487.5543    4.2533422    4.2533422    4.2533422   -9487.5543   -22576.267   -11621.662    5735.2659    6311.4241    6602.8035   -1442.9711    76.946871 
   25800    342.80907   -108.30049   0.31018085   -107.99031    8390.7955    4.2398136    4.2398136    4.2398136    8390.7955    10641.852    6828.2373    7702.2976   -1013.5962    8576.4678   -7733.4411    76.214969 
   25900    506.61988   -108.44876   0.45840032   -107.99035   -4181.2068    4.2441562    4.2441562    4.2441562   -4181.2068    936.20589   -19011.562    5531.7361    1209.1255   -6271.6232   -8685.7675      76.4494 
   26000    540.65171   -108.47933   0.48919303   -107.99013   -3223.6356    4.2461276    4.2461276    4.2461276   -3223.6356    -12207.37   -5959.5801    8496.0434    6292.1501    3677.8629    6836.0946    76.555981 
   26100    506.25387     -108.449   0.45806914   -107.99093   -1035.1974    4.2410558    4.2410558    4.2410558   -1035.1974    6864.8936    273.78636   -10244.272     276.5666    7576.8802   -6063.9939    76.281978 
   26200    444.87198   -108.39365   0.40252952   -107.99112   -1664.8325    4.2471622    4.2471622    4.2471622   -1664.8325    -950.0425    -4098.354    53.898966   -4160.7066   -3611.6681    -11042.32    76.611957 
   26300    570.68545   -108.50586   0.51636818   -107.98949     3541.207    4.2402441    4.2402441    4.2402441     3541.207   -8443.4702    1676.7622    17390.329    6896.6775   -2820.4519    3403.2701     76.23819 
   26400    440.74201   -108.39037   0.39879263   -107.99157    3373.1033    4.2456972    4.2456972    4.2456972    3373.1033   -4562.1063      6931.58    7749.8362   -996.97056    9482.1351   -10438.988    76.532705 
   26500    526.78216   -108.46836   0.47664357   -107.99171   -258.60482    4.2429581    4.2429581    4.2429581   -258.60482    3470.0755   -7317.3186    3071.4287    -5397.005   -2030.7619   -11426.131    76.384675 
   26600     516.6081    -108.4585   0.46743787   -107.99106   -445.60424     4.243731     4.243731     4.243731   -445.60424   -8374.6507   -363.08833    7400.9263    6978.5555   -6321.1808    4137.5809    76.426424 
   26700    504.23942   -108.44715   0.45624643    -107.9909     423.6039    4.2447038    4.2447038    4.2447038     423.6039   -5734.6772    5948.4118    1057.0771    2738.0621    9689.2244   -4271.8547    76.478996 
   26800    582.21039   -108.51683    0.5267962   -107.99004   -3584.2804    4.2430648    4.2430648    4.2430648   -3584.2804     776.6061    -9575.211   -1954.2364    2608.9114   -147.85779   -11181.248    76.390436 
   26900    353.42824   -108.31221   0.31978929   -107.99242    -113.6685     4.245966     4.245966     4.245966    -113.6685   -7802.9128   -4394.7251    11856.632    3604.6432   -7181.4592    455.22969    76.547238 
   27000    563.88773   -108.50139   0.51021747   -107.99118   -3447.2176    4.2418985    4.2418985    4.2418985   -3447.2176   -9124.8014   -13188.076    11971.225    9312.0304   -480.36526    564.20377    76.327462 
   27100     466.4184   -108.41349   0.42202517   -107.99147    2704.6725    4.2461614    4.2461614    4.2461614    2704.6725    2721.9012    8427.5344   -3035.4182   -2238.5462    2923.2964   -13507.922    76.557807 
   27200     565.6423   -108.50278   0.51180504   -107.99097   -5518.2279    4.2416315    4.2416315    4.2416315   -5518.2279   -4840.6171   -5900.9341   -5813.1324    24.229028   -7968.0419    3118.1894     76.31305 
   27300    439.38817   -108.38917   0.39756765    -107.9916   -3793.5463    4.2461047    4.2461047    4.2461047   -3793.5463   -9274.5563   -2446.3924    340.30977    11137.927   -851.66584     4942.869    76.554743 
   27400    596.39605   -108.52945   0.53963168   -107.98982    -1333.048    4.2435173    4.2435173    4.2435173    -1333.048    3553.9874   -1647.3901   -5905.7413   -7630.2373    9813.0218   -15267.709    76.414878 
   27500    405.90549   -108.35799   0.36727182   -107.99072    9052.4522     4.242423     4.242423     4.242423    9052.4522    3925.0803     1657.726     21574.55    7000.8277   -4360.8258    -2370.547    76.355777 
   27600    430.79528   -108.38152   0.38979262   -107.99173   -5141.6423    4.2475709    4.2475709    4.2475709   -5141.6423   -14922.321   -11605.691    11103.085    10679.378   -1307.5891    2322.1868    76.634075 
   27700    514.55655   -108.45607   0.46558158   -107.99049    9240.7185    4.2398331    4.2398331    4.2398331    9240.7185    4692.7005    15185.828    7843.6271   -1497.4876    3196.0909   -10522.406    76.216025 
   27800    579.19607    -108.5136   0.52406877   -107.98953   -7750.5059    4.2500201    4.2500201    4.2500201   -7750.5059   -4261.8152   -16293.884   -2695.8185    8334.2779    -2713.466   -6517.0122    76.766712 
   27900    530.51148   -108.46973   0.48001793   -107.98972    -1542.205    4.2402104    4.2402104    4.2402104    -1542.205    -3753.368   -780.84372   -92.403143    6249.4945   -9388.1277    10054.742    76.236371 
   28000    520.45301   -108.46253   0.47091682   -107.99161    -5575.558    4.2480653    4.2480653    4.2480653    -5575.558   -5370.9435   -8740.8188   -2614.9117    1117.2597    2709.5138   -5220.2972    76.660837 
   28100    530.54717   -108.47015   0.48005023    -107.9901    868.44893    4.2450459    4.2450459    4.2450459    868.44893   -1756.2735   -4791.0973    9152.7176   -2090.7881    4037.1209   -10040.192    76.497486 
   28200    485.41876   -108.42849    0.4392171   -107.98928    2282.5415    4.2414533    4.2414533    4.2414533    2282.5415   -7805.9726   -5131.7881    19785.385    5939.9371   -6054.9569    7865.6257    76.303431 
   28300     406.3314    -108.3579   0.36765719   -107.99024   -8455.7493    4.2511539    4.2511539    4.2511539   -8455.7493   -12656.049   -7622.9777   -5088.2211    388.59228    6585.4088   -11851.182    76.828171 
   28400    494.56411   -108.43675     0.447492   -107.98926    4100.8554    4.2372971    4.2372971    4.2372971    4100.8554    13915.629    4583.4314   -6196.4937   -1146.6289    6264.3046   -13801.735    76.079342 
   28500    552.91894   -108.48984   0.50029268   -107.98955   -9280.0108    4.2479371    4.2479371    4.2479371   -9280.0108   -10209.577   -4020.1099   -13610.346    15115.861   -6177.0981    5735.1102    76.653894 
   28600    428.39156   -108.37776   0.38761769   -107.99014   -5238.7979    4.2484054    4.2484054    4.2484054   -5238.7979    -7740.583    6975.2011   -14951.012   -1196.3243   -3617.1281   -2388.9974    76.679253 
   28700    500.00547   -108.44093   0.45241546   -107.98852    2987.4194    4.2379993    4.2379993    4.2379993    2987.4194    4068.9978   -1839.9574    6733.2177    3499.1589    5445.2967   -9313.4862    76.117173 
   28800    497.88102   -108.44052   0.45049321   -107.99002    1551.5894    4.2479623    4.2479623    4.2479623    1551.5894   -7724.0047     2998.473    9380.3001     8278.368   -7276.1148    3093.9475    76.655261 
   28900    525.03983    -108.4648   0.47506707   -107.98974    -3883.168    4.2477529    4.2477529    4.2477529    -3883.168   -9368.3674   -6111.1494    3830.0128   -3845.9387   -9842.4236    1589.1244    76.643926 
   29000    470.83442   -108.41568   0.42602087   -107.98966    6706.1264    4.2370074    4.2370074    4.2370074    6706.1264    11958.372    10176.164   -2016.1562   -358.76389    12740.265   -16271.947    76.063739 
   29100    610.70862   -108.54176   0.55258199   -107.98918   -11708.679    4.2512496    4.2512496    4.2512496   -11708.679   -20760.404   -6667.1726   -7698.4617    1267.5351    85.424558   -1073.9663    76.833356 
   29200    521.76813   -108.46062   0.47210677   -107.98851    3049.6869    4.2428257    4.2428257    4.2428257    3049.6869   -6561.9217    15964.813    -253.8306    2943.5899   -6266.5682    2421.3722    76.377526 
   29300    449.97975   -108.39796   0.40715114   -107.99081    90.037836     4.239094     4.239094     4.239094    90.037836   -940.01923    -716.0164    1926.1491   -3726.3137    6521.2823   -13711.465    76.176171 
   29400    335.51725   -108.29595   0.30358306   -107.99236    3371.0813    4.2505929    4.2505929    4.2505929    3371.0813   -2044.8219    2316.5274    9841.5385    9305.7458    2380.7255   -2970.9548     76.79776 
   29500    666.85581   -108.59294   0.60338515   -107.98955    4469.4843     4.238013     4.238013     4.238013    4469.4843   -524.63434    4061.5761    9871.5111    7183.8229   -11632.575    2674.2068     76.11791 
   29600    390.22667   -108.34832   0.35308529   -107.99523    3111.0491    4.2436598    4.2436598    4.2436598    3111.0491    5197.8881    2787.4507    1347.8085    -3264.124    1216.4712   -4606.7026    76.422576 
   29700    490.17146    -108.4359   0.44351744   -107.99238   -12756.937    4.2510397    4.2510397    4.2510397   -12756.937   -3294.7472   -15365.118   -19610.946    13468.713    12472.016   -6350.1472    76.821979 
   29800    704.56633   -108.62535   0.63750642   -107.98784     10281.08    4.2352491    4.2352491    4.2352491     10281.08     4762.313    13796.613    12284.315   -2774.7703   -4697.5221    3257.1831    75.969082 
   29900    513.15042   -108.45658   0.46430929   -107.99227   -3923.1386    4.2483115    4.2483115    4.2483115   -3923.1386    4714.7085   -11195.411   -5288.7132   -1522.2812    2614.8996   -6641.8255    76.674166 
   30000    277.45625     -108.246   0.25104825   -107.99495   -2800.0822    4.2459646    4.2459646    4.2459646   -2800.0822   -5812.8978    -12001.04    9413.6913    7716.4026    8431.7624   -10376.347    76.547162 
   30100    625.28115   -108.55567   0.56576753   -107.98991    5766.2102    4.2391132    4.2391132    4.2391132    5766.2102   -7668.9441    5451.6994    19515.875    1183.7381   -2753.5061    3069.8239    76.177205 
   30200    586.43391   -108.52167   0.53061773   -107.99105   -785.82387    4.2460557    4.2460557    4.2460557   -785.82387    4032.7032   -1567.4946   -4822.6802    1991.5023   -4392.9007   -5741.7682    76.552092 
   30300    290.90779   -108.25886   0.26321948   -107.99564   -7116.3691    4.2444482    4.2444482    4.2444482   -7116.3691    2510.3326   -11743.062   -12116.378    8092.5752    11575.499   -11347.126    76.465177 
   30400    618.36972   -108.55202   0.55951392   -107.99251   -3657.3621    4.2433132    4.2433132    4.2433132   -3657.3621    -11880.84   -1314.5735    2223.3275    13345.764    5199.6046    3932.1946    76.403856 
   30500    591.50809   -108.52561   0.53520895    -107.9904    10241.095    4.2425053    4.2425053    4.2425053    10241.095    12978.551   -1858.7718    19603.506   -3029.7552   -4271.7259   -5349.2726    76.360224 
   30600    325.17712   -108.29012   0.29422709    -107.9959   -15210.296    4.2477054    4.2477054    4.2477054   -15210.296   -20363.546   -23567.697   -1699.6461    8606.6746    9539.5484   -10196.231    76.641355 
   30700     426.8068   -108.38033   0.38618376   -107.99415    2204.8594    4.2407237    4.2407237    4.2407237    2204.8594   -5436.0562   -2173.9112    14224.546     11975.75    4063.1987    1645.3729    76.264059 
   30800    804.29009   -108.71674   0.72773858     -107.989   -2898.2235    4.2450354    4.2450354    4.2450354   -2898.2235   -2556.6817    756.91893   -6894.9076    -9073.431   -3005.8569   -5654.2215    76.496922 
   30900    280.45434   -108.24984   0.25376098   -107.99608   -6887.6993     4.246015     4.246015     4.246015   -6887.6993    -8035.594   -15416.709    2789.2054    11778.904    6473.2213   -6433.4852     76.54989 
   31000    395.11293   -108.35369   0.35750649   -107.99618   -2083.9066    4.2406403    4.2406403    4.2406403   -2083.9066   -15827.339   -930.52422    10506.143    7054.0872    11267.781    1652.3705    76.259563 
   31100    695.74538   -108.61949   0.62952504   -107.98997    4990.1023    4.2465276    4.2465276    4.2465276    4990.1023   -4651.9506    2577.1523    17045.105   -4968.7508   -1352.7765    5975.0758    76.577621 
   31200    426.60292   -108.38085   0.38599929   -107.99485   -3460.2441    4.2440693    4.2440693    4.2440693   -3460.2441   -9363.5389   -13047.917    12030.723    12868.731    5078.8931   -10056.535    76.444704 
   31300    355.42073   -108.31742   0.32159214   -107.99583   -3880.9274    4.2426726    4.2426726    4.2426726   -3880.9274   -3107.8592   -172.74003   -8362.1829    10383.757    9711.3881   -1459.3054    76.369258 
   31400    769.95022   -108.68725   0.69666714   -107.99059    1069.1551    4.2469172    4.2469172    4.2469172    1069.1551   -1695.7892   -5887.7149    10790.969    466.75079   -2994.8789    3843.5304    76.598696 
   31500    553.53093   -108.49552   0.50084642   -107.99468   -2877.9617    4.2418539    4.2418539    4.2418539   -2877.9617   -1056.8912   -8669.2322    1092.2381    6618.2749     2545.277   -10528.845    76.325054 
   31600    224.58749   -108.20104   0.20321148   -107.99783     1225.687    4.2414884    4.2414884    4.2414884     1225.687   -1061.7418    -10086.68    14825.483     10614.17    14358.225   -1721.2123    76.305324 
   31700     586.3714   -108.52149   0.53056117   -107.99093   -3761.1338      4.25442      4.25442      4.25442   -3761.1338   -6539.5616   -10268.796    5524.9557   -4955.4738    2653.9441    5520.3982    77.005382 
   31800     567.0238   -108.50283   0.51305505   -107.98978    12073.627    4.2343169    4.2343169    4.2343169    12073.627    17031.917    4699.6516    14489.312    88.907863     2143.108   -833.08076    75.918928 
   31900    279.61181   -108.25059   0.25299864    -107.9976   -5852.7401    4.2457183    4.2457183    4.2457183   -5852.7401   -1529.2393   -11427.028   -4601.9527    10134.082    12150.159   -8214.0647    76.533847 
   32000    599.85895   -108.53336   0.54276499   -107.99059   -12232.415     4.252898     4.252898     4.252898   -12232.415   -852.51852   -14672.075   -21172.652   -6154.1897   -446.27402     8103.963    76.922766 
   32100    691.98109   -108.61133   0.62611903   -107.98521     12056.25    4.2323505    4.2323505    4.2323505     12056.25     14103.65    5262.3859    16802.715    7274.9616    -6024.791     495.5019    75.813209 
   32200    351.28821   -108.31003   0.31785295   -107.99218   -15422.065    4.2544694    4.2544694    4.2544694   -15422.065   -14170.442   -24194.814   -7900.9405    10027.739    10504.125   -8331.4727    77.008066 
   32300    524.08141   -108.46473   0.47419988   -107.99053   -220.07456    4.2409395    4.2409395    4.2409395   -220.07456   -448.81172   -2692.7611    2481.3491   -120.84635    8917.8614    9686.6118    76.275703 
   32400    604.10907   -108.53594   0.54661059   -107.98933    11739.917    4.2396872    4.2396872    4.2396872    11739.917    29015.274   -4746.9373    10951.414    785.60552   -1460.3472    297.75005    76.208153 
   32500    400.15887   -108.35546   0.36207215   -107.99339   -11141.147    4.2514657    4.2514657    4.2514657   -11141.147   -413.77244   -19554.122   -13455.545    6271.0067    12012.272   -3471.4626    76.845074 
   32600    363.90174   -108.32091   0.32926595   -107.99164    6115.6267    4.2390175    4.2390175    4.2390175    6115.6267    24255.187    2750.5109   -8658.8183   -678.79336    9418.3137     6178.017    76.172047 
   32700    664.40653   -108.58949   0.60116899   -107.98832    689.34544    4.2456643    4.2456643    4.2456643    689.34544    5139.1784   -2563.8478   -507.29434   -6722.4091   -8068.7923    5067.1228    76.530925 
   32800    497.62394   -108.44158    0.4502606   -107.99132    4532.7149    4.2413362    4.2413362    4.2413362    4532.7149    2782.3092    455.70897    10360.127    11691.708    4937.3419   -5467.1017    76.297111 
   32900    392.26391   -108.34892   0.35492863   -107.99399   -4264.7465    4.2475494    4.2475494    4.2475494   -4264.7465    946.57326   -1652.6406   -12088.172    1832.5036    11066.707    3936.2324    76.632912 
   33000    628.32103   -108.55768   0.56851808   -107.98916    4496.5078    4.2436656    4.2436656    4.2436656    4496.5078    16375.297    -3216.227      330.453   -263.07897   -3720.3432    6950.9517    76.422893 
   33100    471.78126   -108.41719    0.4268776   -107.99031    5856.4753     4.241768     4.241768     4.241768    5856.4753    14239.042   -4884.1363    8214.5205    11298.397    3798.3418   -5552.1287    76.320415 
   33200    476.83011   -108.42473   0.43144591   -107.99329   -10169.109    4.2442173    4.2442173    4.2442173   -10169.109     -5673.24   -8829.2667   -16004.819    4045.8157    11893.152    6387.4172    76.452702 
   33300    500.33502    -108.4452   0.45271364   -107.99249    2967.8116    4.2440949    4.2440949    4.2440949    2967.8116    12501.472    -8635.772     5037.735    -5517.267   -5662.1004    4177.7987    76.446088 
   33400    589.73722   -108.52452   0.53360663   -107.99091    -4828.263    4.2444462    4.2444462    4.2444462    -4828.263   -3741.3841   -11115.415    372.01029    1519.2108    719.57233   -3779.2329    76.465074 
   33500    371.41525   -108.32886   0.33606432   -107.99279   -568.61005    4.2427084    4.2427084    4.2427084   -568.61005    16877.066   -10082.122   -8500.7746    7160.7618    15217.402    3783.5768    76.371189 
   33600    419.01144   -108.37133   0.37913036    -107.9922     1932.134    4.2463671    4.2463671    4.2463671     1932.134    18670.637   -16134.284    3260.0491   -8658.2892   -264.97238    4176.5364    76.568934 
   33700    637.24196   -108.56618   0.57658991   -107.98959    916.08965     4.240447     4.240447     4.240447    916.08965    10277.391   -2874.1601   -4654.9624    8113.8683   -6813.9811    169.97855    76.249136 
   33800    432.76948   -108.38402   0.39157892   -107.99244   -737.62606    4.2460705    4.2460705    4.2460705   -737.62606    9974.7304   -8092.5309   -4095.0777     9938.066    9172.3993   -1290.7615    76.552892 
   33900    588.47061   -108.52216   0.53246057    -107.9897   -7356.5018    4.2469587    4.2469587    4.2469587   -7356.5018    5795.7815   -12869.364   -14995.923   -4203.4916   -4928.4356    6057.2299    76.600944 
   34000    502.62497   -108.44353   0.45478564   -107.98875    11176.964    4.2397154    4.2397154    4.2397154    11176.964    29287.045    319.77793    3924.0697   -1343.1435   -9396.0745    246.23362    76.209674 
   34100    515.37758   -108.45652   0.46632447    -107.9902   -4604.4934    4.2478668    4.2478668    4.2478668   -4604.4934    6164.1147   -15253.334   -4724.2604    5548.6826    9144.4288   -303.74669    76.650092 
   34200     412.8857   -108.36416   0.37358765   -107.99057    6513.9769    4.2425746    4.2425746    4.2425746    6513.9769    24058.984    -6523.761    2006.7078   -5264.5073    4892.4981    9109.1469    76.363966 
   34300    591.40598   -108.52541   0.53511656   -107.99029   -4300.7826    4.2416643    4.2416643    4.2416643   -4300.7826   -6166.7022   -6208.3981    -527.2474   -6092.1774   -9159.6698   -2752.1976    76.314818 
   34400    445.57855   -108.39547   0.40316883    -107.9923   -4152.9608    4.2457626    4.2457626    4.2457626   -4152.9608   -867.00863   -11303.751   -288.12272    15516.655   -1276.5024    3313.9825    76.536241 
   34500    466.80327   -108.41445   0.42237341   -107.99208   -2614.5576    4.2446315    4.2446315    4.2446315   -2614.5576    17340.301   -11658.023   -13525.951   -1189.5237    7449.0976     10999.37    76.475085 
   34600    499.85558   -108.44252   0.45227983   -107.99024   -511.42034    4.2426986    4.2426986    4.2426986   -511.42034    2478.1972   -8651.1683    4638.7101   -1468.2221   -15018.312    250.16975    76.370661 
   34700    459.56784   -108.40683   0.41582664   -107.99101   -2523.2151    4.2437185    4.2437185    4.2437185   -2523.2151     11912.53   -12180.644   -7301.5317    11999.665     1503.393    3044.1668    76.425748 
   34800    551.75547    -108.4902   0.49923995   -107.99096   -9617.6693    4.2448648    4.2448648    4.2448648   -9617.6693    3614.8958   -17748.482   -14719.421    1169.8258    4090.9816    11406.635    76.487695 
   34900    534.78573   -108.47617   0.48388537   -107.99228    5081.5243    4.2367937    4.2367937    4.2367937    5081.5243    12170.157   -4034.2848    7108.7003   -8997.5263   -9846.8463    760.80722    76.052229 
   35000    425.08919   -108.37883   0.38462963    -107.9942    -4645.828    4.2509785    4.2509785    4.2509785    -4645.828    17049.797   -24118.755   -6868.5265    8957.4147   -4695.8551    645.97331    76.818662 
   35100     504.8389   -108.44834   0.45678884   -107.99155     4335.768    4.2412762    4.2412762    4.2412762     4335.768    31932.222   -17179.131   -1745.7863    6069.6601   -503.41228    11640.139    76.293873 
   35200    570.43507   -108.50641   0.51614164   -107.99027    11408.387    4.2354967    4.2354967    4.2354967    11408.387    28713.268   -479.47626    5991.3703   -10044.623   -312.32538   -1839.1603    75.982404 
   35300    483.18597   -108.42873   0.43719682   -107.99154   -20362.459    4.2550933    4.2550933    4.2550933   -20362.459   -15167.077    -29579.79   -16340.511    11346.653   -9655.4143     977.6691     77.04195 
   35400    406.94829    -108.3598   0.36821536   -107.99159    16659.963    4.2308761    4.2308761    4.2308761    16659.963    50973.816   -2166.8765    1172.9495    7213.2436    5707.3639    12519.231    75.734003 
   35500    682.58235   -108.60885   0.61761485   -107.99123   -6850.0804    4.2501356    4.2501356    4.2501356   -6850.0804      8113.63   -16531.306   -12132.565   -3848.1231    -6123.932     -1730.85    76.772973 
   35600    312.28046   -108.27816   0.28255792    -107.9956    1667.7042    4.2420904    4.2420904    4.2420904    1667.7042    14572.963   -10246.482    676.63138    4694.4365   -8684.2746     1761.643    76.337823 
   35700    451.69829   -108.40293   0.40870611   -107.99422    319.14665    4.2360858    4.2360858    4.2360858    319.14665    17248.206   -14077.206    -2213.561    13542.241    2271.7533    12138.358    76.014114 
   35800    698.22953   -108.62031   0.63177275   -107.98854   -11218.733    4.2541357    4.2541357    4.2541357   -11218.733    5205.5874   -23106.373   -15755.412   -6437.5378   -281.92302    812.98121    76.989946 
   35900     357.1638   -108.31542   0.32316932   -107.99225    16425.331    4.2314799    4.2314799    4.2314799    16425.331    35895.588   -1930.6739     15311.08    3221.2486   -6016.0548    2265.3446    75.766435 
   36000    396.95146   -108.35598   0.35917002   -107.99681   -16848.157    4.2497198    4.2497198    4.2497198   -16848.157   -2674.7052   -38028.156   -9841.6106    13950.437    672.80078    12121.791     76.75044 
   36100    668.17709   -108.59538   0.60458067    -107.9908     9025.454    4.2419862    4.2419862    4.2419862     9025.454    26293.905   -7622.3175    8404.7746   -3382.1839    782.30927    1648.9654    76.332195 
   36200    609.87477   -108.54458   0.55182751   -107.99276    2814.6254    4.2388183    4.2388183    4.2388183    2814.6254    12250.217   -6501.0457    2694.7045    5563.6204   -10044.571    643.86872    76.161309 
   36300    214.37722   -108.19117   0.19397302   -107.99719   -7078.0348    4.2501804    4.2501804    4.2501804   -7078.0348    24641.861   -32793.803   -13082.162    15478.331   -3662.4958    11273.215    76.775401 
   36400    615.30454   -108.54746   0.55674048   -107.99072    9894.2708    4.2388261    4.2388261    4.2388261    9894.2708    30902.105   -4950.9049     3731.612    2165.7404      4583.36    232.86789    76.161732 
   36500    632.86796   -108.56344   0.57263223    -107.9908   -1050.7689    4.2456637    4.2456637    4.2456637   -1050.7689    11056.833   -6654.7497   -7554.3899    1267.2489    3043.6791   -375.06051    76.530892 
   36600     272.4116   -108.24236   0.24648374   -107.99588   -4480.0174    4.2428961    4.2428961    4.2428961   -4480.0174    1356.4732    -19225.39    4428.8642    16648.773    -6400.269    8622.4857    76.381325 
   36700    580.64532   -108.51954   0.52538009   -107.99416   -490.38543    4.2422944    4.2422944    4.2422944   -490.38543    6539.6109   -7644.5521   -366.21505   -4157.2553    9849.9834    344.46792    76.348837 
   36800    613.58337   -108.54583   0.55518312   -107.99064    1556.5161    4.2474942    4.2474942    4.2474942    1556.5161    24127.149   -10434.719   -9022.8814   -2631.2978    -3101.105   -1867.7536    76.629922 
   36900    333.43234   -108.29644   0.30169659   -107.99475      5097.65    4.2392525    4.2392525    4.2392525      5097.65    22646.347   -21525.869    14172.471    13511.768   -9524.4754    6905.2219    76.184715 
   37000    551.20523   -108.49113   0.49874207   -107.99239   -9916.2077    4.2492193    4.2492193    4.2492193   -9916.2077   -2990.3388   -21628.336   -5129.9486    7562.2036    720.18847    3842.5792    76.723326 
   37100    634.56992   -108.56456    0.5741722   -107.99039    6562.7485    4.2415924    4.2415924    4.2415924    6562.7485    16234.681   -1167.7265    4621.2909   -3218.7443     2013.679    -4534.783    76.310938 
   37200    526.10036   -108.46911   0.47602666   -107.99308   -1202.5824    4.2398214    4.2398214    4.2398214   -1202.5824    5502.0202   -13127.217    4017.4496    12804.324    743.40222    10567.576    76.215394 
   37300     291.6758   -108.25886    0.2639144   -107.99495   -1361.5437    4.2511252    4.2511252    4.2511252   -1361.5437    29297.306   -14749.897    -18632.04    5783.0369    2214.6036    3199.7386     76.82661 
   37400    551.45762    -108.4892   0.49897044   -107.99023    7953.7943    4.2389999    4.2389999    4.2389999    7953.7943    26045.944    5584.7758   -7769.3367   -13464.292    14395.568   -6650.8257    76.171098 
   37500    492.95052   -108.43808   0.44603199   -107.99205    8783.7344    4.2409896    4.2409896    4.2409896    8783.7344    22306.215    991.68822    3053.2996    6136.9333   -2049.4617    8395.9234    76.278407 
   37600    451.82451   -108.40159   0.40882031   -107.99277   -14538.858     4.251884     4.251884     4.251884   -14538.858   -9064.9033   -16690.305   -17861.365    11744.553    963.47701    1184.8089     76.86776 
   37700    561.78571   -108.49818   0.50831551   -107.98986    5668.8437     4.233665     4.233665     4.233665    5668.8437    10232.557    6856.7355   -82.761658    -2877.087    8380.3948   -5963.5823    75.883868 
   37800    543.03707   -108.48399   0.49135136   -107.99264   -3763.6482    4.2494116    4.2494116    4.2494116   -3763.6482    20488.486   -15975.151   -15804.279    1385.9062   -1615.8341    5460.0597    76.733743 
   37900    470.46841   -108.41819   0.42568971    -107.9925   -4654.3929     4.245303     4.245303     4.245303   -4654.3929    14544.765   -18196.774   -10311.169    16059.065   -1681.3306    1491.0471     76.51139 
   38000    486.76663   -108.43078   0.44043668   -107.99034    106.21661     4.237746     4.237746     4.237746    106.21661    6089.9572    1716.5996    -7487.907   -7780.7738    12471.057   -2438.5613    76.103526 
   38100    583.76053   -108.51812    0.5281988   -107.98992   -11031.636    4.2494877    4.2494877    4.2494877   -11031.636   -5511.1921   -11630.911   -15952.806   -9818.8816    2728.7229    6060.6182    76.737868 
   38200    464.57823   -108.41187   0.42036014   -107.99151    8710.9115    4.2381127    4.2381127    4.2381127    8710.9115     32730.48   -1206.0503   -5391.6947    13072.007   -2280.4447     5643.271    76.123284 
   38300    451.76993   -108.40151   0.40877093   -107.99274     1479.479    4.2429954    4.2429954    4.2429954     1479.479    16674.378    3623.2239   -15859.165     2229.943    10158.224    -1243.678    76.386689 
   38400    443.89404   -108.39387   0.40164466   -107.99223   -5370.1087    4.2493255    4.2493255    4.2493255   -5370.1087    12912.103   -6377.7823   -22644.647   -10163.701    549.71183    5952.2629     76.72908 
   38500    553.34738   -108.49175   0.50068034   -107.99107     5421.357    4.2364997    4.2364997    4.2364997     5421.357    18131.089   -3664.2854    1797.2672    8477.2669   -398.92401    7800.0279    76.036397 
   38600    603.52338   -108.53834   0.54608064   -107.99226   -3051.4365    4.2450036    4.2450036    4.2450036   -3051.4365    798.62247    231.62386   -10184.556    4393.8241    3382.4623   -3245.2122      76.4952 
   38700    414.99896   -108.37034   0.37549978   -107.99484   -5914.8026    4.2464344    4.2464344    4.2464344   -5914.8026    11283.527    -14655.25   -14372.685   -15168.532    8543.4853    4460.6888    76.572577 
   38800    477.58958   -108.42603   0.43213309    -107.9939     8127.351    4.2340525    4.2340525    4.2340525     8127.351    28132.229   -3396.2755   -353.90093    5925.4677   -2978.0369      9999.33    75.904708 
   38900    632.69847   -108.56509   0.57247887   -107.99261   -11496.879    4.2523262    4.2523262    4.2523262   -11496.879   -10957.251   -4232.8265   -19300.558     6455.042    7369.4398   -3664.9484    76.891745 
   39000    354.22775   -108.31503   0.32051271   -107.99452   -4709.1553    4.2426937    4.2426937    4.2426937   -4709.1553    3831.4014   -1300.4256   -16658.442   -12747.305    7550.9255    5517.7074    76.370395 
   39100    498.46394   -108.44279   0.45102065   -107.99177    2085.1975    4.2345851    4.2345851    4.2345851    2085.1975    15156.511    574.88015   -9475.7991   -7303.6181   -4470.4613    12004.121    75.933356 
   39200    548.46797   -108.48633   0.49626535   -107.99006   -5095.1855     4.253213     4.253213     4.253213   -5095.1855    16453.905   -10166.094   -21573.367    6985.0135    2991.1224   -2235.9354    76.939861 
   39300    405.34194   -108.35977   0.36676191   -107.99301    835.62966    4.2372692    4.2372692    4.2372692    835.62966    18551.635   -4749.3795   -11295.367   -8179.6352    10000.801    5836.8643    76.077838 
   39400    472.59017   -108.42241   0.42760952    -107.9948   -7995.1153    4.2444785    4.2444785    4.2444785   -7995.1153    11173.379   -17833.208   -17325.517   -6332.5272   -3109.5176    11898.354    76.466817 
   39500    713.78199   -108.63611   0.64584495   -107.99026   -1842.7942    4.2471034    4.2471034    4.2471034   -1842.7942    10288.477   -6002.8775   -9813.9819    9445.7433    543.08665   -2730.7607     76.60877 
   39600    473.49456    -108.4219   0.42842783   -107.99348     2986.649    4.2379523    4.2379523    4.2379523     2986.649    16814.259   -2754.8537   -5099.4579   -9914.7791    5379.7513    3575.7936     76.11464 
   39700    282.58148   -108.25256   0.25568566   -107.99687   -1744.3777    4.2469191    4.2469191    4.2469191   -1744.3777    25100.384   -16447.712   -13885.805   -14151.301   -4579.9454    10752.313    76.598801 
   39800    754.41985    -108.6718   0.68261493   -107.98918    2115.4088    4.2424975    4.2424975    4.2424975    2115.4088    5482.7538    3936.3864   -3072.9136   -2794.9957    2083.5461   -3795.9202    76.359799 
   39900    466.35309   -108.41487   0.42196608   -107.99291    1579.7258    4.2426658    4.2426658    4.2426658    1579.7258    21036.878   -2266.3689   -14031.331   -1131.5667    5331.2913   -12.562436     76.36889 
   40000    311.29261   -108.27791    0.2816641   -107.99625   -9825.7159    4.2438927    4.2438927    4.2438927   -9825.7159    3355.2821   -13038.955   -19793.475   -11367.425      2705.83     12786.81    76.435162 
   40100    606.92608   -108.54247   0.54915948   -107.99331    405.01394    4.2456906    4.2456906    4.2456906    405.01394     22233.13   -3807.4199   -17210.669    2692.9869   -9710.1932   -2625.5131    76.532347 
   40200    528.68075   -108.47171   0.47836145   -107.99334    5626.9576    4.2415054    4.2415054    4.2415054    5626.9576    31374.889   -4028.1641   -10465.852    2257.6219    7009.0597    3294.1001    76.306243 
   40300    348.38628   -108.31259   0.31522723   -107.99736    -10061.55    4.2406618    4.2406618    4.2406618    -10061.55   -1341.2087   -14898.125   -13945.315   -15997.717   -1707.0449     12634.48    76.260723 
   40400    608.05353   -108.54485   0.55017962   -107.99467   -10315.025    4.2490538    4.2490538    4.2490538   -10315.025   -10010.077   -11364.307   -9570.6904   -5198.5308   -6794.1613    -1996.399    76.714363 
   40500    617.28718   -108.55012   0.55853441   -107.99158    7906.9646    4.2414156    4.2414156    4.2414156    7906.9646     35711.77   -3241.8482   -8749.0277    2162.3904    9063.5745    888.09514    76.301398 
   40600    370.24018   -108.33105   0.33500109   -107.99605   -3472.0074    4.2419007    4.2419007    4.2419007   -3472.0074    11502.513   -17509.295   -4409.2395   -10945.673    3958.4748    8258.8107    76.327581 
   40700    380.09091    -108.3394   0.34391424   -107.99549    1266.3021    4.2474392    4.2474392    4.2474392    1266.3021    16208.952   -10005.171   -2404.8742   -8676.7903   -1347.1539    -1739.649    76.626945 
   40800    752.61652   -108.67049   0.68098324   -107.98951    1807.3927    4.2404701    4.2404701    4.2404701    1807.3927    7940.9486   -2045.3915   -473.37917    7255.6598   -19.374557   -2745.4421    76.250379 
   40900    354.58543   -108.31509   0.32083635   -107.99425    832.62415    4.2436057    4.2436057    4.2436057    832.62415    21201.301   -13308.488   -5394.9407    -13861.27   -433.44724    9157.3267    76.419655 
   41000    376.65304   -108.33476   0.34080359   -107.99396   -5579.5388    4.2466509    4.2466509    4.2466509   -5579.5388     8136.331   -13952.437    -10922.51   -12684.007   -10100.528    263.56157    76.584287 
   41100    515.63389   -108.45682   0.46655638   -107.99027    9308.5841    4.2404692    4.2404692    4.2404692    9308.5841    43382.353   -4257.4218   -11199.179    5284.9351    -7302.083   -4213.5461    76.250331 
   41200    530.87388   -108.47298   0.48034584   -107.99263   -3099.7135    4.2438025    4.2438025    4.2438025   -3099.7135    10061.293   -12892.415   -6468.0182   -4335.0417    1914.6127    12478.658    76.430288 
   41300    474.61073   -108.42276   0.42943777   -107.99332    -15353.93     4.249162     4.249162     4.249162    -15353.93   -12153.932    -19643.77   -14264.089   -11134.177     1055.733   -680.98517    76.720227 
   41400    525.41353     -108.467    0.4754052   -107.99159     7699.686    4.2354226    4.2354226    4.2354226     7699.686    28156.898     72.77389    -5130.614    4785.1844   -4547.3623   -4318.4513    75.978419 
   41500    545.78509   -108.48731   0.49383782   -107.99347    -869.7062    4.2476579    4.2476579    4.2476579    -869.7062    33563.151   -20270.319    -15901.95   -823.86426    5488.5489    9827.8772    76.638781 
   41600    517.27388   -108.46199   0.46804028   -107.99395   -6948.0134    4.2457856    4.2457856    4.2457856   -6948.0134    4003.1651   -16545.937   -8301.2681   -14895.636   -9000.5706   -1879.2405    76.537484 
   41700    433.11376   -108.38541   0.39189043   -107.99352    5129.7764    4.2350204    4.2350204    4.2350204    5129.7764    23573.496   -2628.1426   -5556.0246    7405.9318   -5971.8655   -4227.0937    75.956777 
   41800    598.04192   -108.53304    0.5411209   -107.99192   -11661.455    4.2519375    4.2519375    4.2519375   -11661.455   -1248.7013   -24168.017   -9567.6462    2455.8464   -537.35502    7547.6961    76.870663 
   41900    485.01192   -108.43108   0.43884898   -107.99223    11967.475    4.2369091    4.2369091    4.2369091    11967.475    38590.288   -7304.8062    4616.9431   -9651.7662    315.46131    -558.5545    76.058442 
   42000    388.21367   -108.34673   0.35126388   -107.99546   -3858.9329    4.2413658    4.2413658    4.2413658   -3858.9329     16761.14   -11093.705   -17244.233    892.72614   -2125.8654   -6758.1789     76.29871 
   42100    420.93728   -108.37424    0.3808729   -107.99337   -7137.0049    4.2506939    4.2506939    4.2506939   -7137.0049    6931.7386   -21261.841   -7080.9127    4893.2524    -2135.938    9411.3823     76.80323 
   42200    751.61531     -108.668   0.68007733   -107.98792    9411.6507    4.2347769    4.2347769    4.2347769    9411.6507    21413.276   -2389.1139    9210.7904   -5022.9016    1893.9109    -295.2675    75.943673 
   42300    470.17953   -108.41924   0.42542832   -107.99381   -5736.8247    4.2467776    4.2467776    4.2467776   -5736.8247    10268.674   -11018.017    -16461.13     774.2077   -9843.4063   -8352.1023    76.591143 
   42400     308.1893   -108.27497   0.27885615   -107.99611    4572.2887    4.2444125    4.2444125    4.2444125    4572.2887    22538.563   -9779.6846    957.98731    13057.476    474.30505    9533.1044    76.463248 
   42500    729.36359    -108.6496    0.6599435   -107.98966    4835.5592    4.2405098    4.2405098    4.2405098    4835.5592    22223.138   -3584.0462   -4132.4141    6838.2257    465.20806    -434.7189    76.252524 
   42600    456.68923   -108.40701   0.41322201   -107.99379    1672.5007     4.242886     4.242886     4.242886    1672.5007    14132.008    3134.1408   -12248.647   -2166.7596   -5291.1787   -7745.2237    76.380782 
   42700    297.03523   -108.26614   0.26876372   -107.99738   -6624.5259    4.2455254    4.2455254    4.2455254   -6624.5259    335.22914   -12191.257     -8017.55    6842.4934   -5745.6468    7067.6137    76.523414 
   42800     617.8126   -108.55157   0.55900983   -107.99256    2370.1934    4.2413031    4.2413031    4.2413031    2370.1934    19942.182   -7910.5008   -4921.1012    1359.6654    3985.0053    413.09768    76.295325 
   42900    504.43853   -108.44847   0.45642659   -107.99205    8262.3077    4.2402284    4.2402284    4.2402284    8262.3077    37335.917   -3705.2305   -8843.7637   -4924.5588   -7147.0817   -4763.2251    76.237345 
   43000    364.11167   -108.32406   0.32945589   -107.99461   -11511.953    4.2502976    4.2502976    4.2502976   -11511.953    9927.1283   -27423.087   -17039.901    11248.001   -1269.9618    7312.9911    76.781753 
   43100    630.06539   -108.56061   0.57009641   -107.99051    5328.6809    4.2373847    4.2373847    4.2373847    5328.6809    20717.247    -7265.859    2534.6543    8964.0942    3996.7742    2117.8621    76.084058 
   43200    664.00331   -108.59044   0.60080415   -107.98964     3827.663    4.2442256    4.2442256    4.2442256     3827.663    24131.296   -9415.8785    -3232.428   -491.99073   -2715.2848    -5351.001    76.453151 
   43300    437.03187   -108.38757   0.39543562   -107.99214   -3558.5625    4.2479342    4.2479342    4.2479342   -3558.5625    11276.418   -9030.3761    -12921.73     1858.439   -5726.1467    8374.4711    76.653738 
   43400    412.48382   -108.36362   0.37322403    -107.9904    16265.367    4.2358827    4.2358827    4.2358827    16265.367    38268.458    3888.4136    6639.2307    6203.9363   -1641.6152    523.13429    76.003181 
   43500    562.96967   -108.49902   0.50938679   -107.98963   -484.19215    4.2463088    4.2463088    4.2463088   -484.19215    12782.343   -7391.3026   -6843.6164   -7780.7056    2681.5439   -9113.8446    76.565782 
   43600     428.6337   -108.37884   0.38783678     -107.991   -422.58057    4.2431943    4.2431943    4.2431943   -422.58057    13142.506   -352.40416   -14057.843    3138.9269   -7873.8513    9315.2628    76.397432 
   43700     514.9049   -108.45684   0.46589677   -107.99094   -6306.4242    4.2402825    4.2402825    4.2402825   -6306.4242    1798.4735   -15193.673   -5524.0736    11388.431    5080.0462    2527.1338    76.240259 
   43800    447.32242   -108.39688   0.40474673   -107.99214    4402.2762    4.2435357    4.2435357    4.2435357    4402.2762    16634.517    -10667.53    7239.8421   -1640.4249    1769.6395   -8677.0243    76.415874 
   43900    524.71286   -108.46655   0.47477122   -107.99178   -3978.9215    4.2472813    4.2472813    4.2472813   -3978.9215    21789.528    -13957.13   -19769.163   -570.67981   -5126.6307    12618.786    76.618397 
   44000    477.87354   -108.42355   0.43239002   -107.99116    3145.7261    4.2394174    4.2394174    4.2394174    3145.7261    20124.962   -9593.9323   -1093.8513     4740.341    -3476.269    5643.7019    76.193607 
   44100    522.70063   -108.46456   0.47295052   -107.99161    750.38606    4.2425832    4.2425832    4.2425832    750.38606    1103.7241   -4721.2832    5868.7172   -1120.9294   -353.45021   -9370.0901    76.364427 
   44200    605.45915   -108.53865   0.54783216   -107.99082     -8563.62    4.2489043    4.2489043    4.2489043     -8563.62    8736.7052   -17337.703   -17089.862   -4903.1126   -2684.6456    9965.1595    76.706268 
   44300     532.2144   -108.47251   0.48155878   -107.99095    11176.163    4.2343604    4.2343604    4.2343604    11176.163    27390.236    4592.9994    1545.2528    11095.407     -3722.03    3952.6876     75.92127 
   44400    464.19688   -108.41327    0.4200151   -107.99326    2170.8926    4.2470042    4.2470042    4.2470042    2170.8926    22964.233   -19347.096    2895.5411   -2241.2276    4634.6904   -11168.031    76.603406 
   44500    401.73718   -108.35586   0.36350024   -107.99236   -1783.9801    4.2471699    4.2471699    4.2471699   -1783.9801     34521.35   -22995.656   -16877.634   -5677.0127    2596.4963    11031.351    76.612372 
   44600    586.21043   -108.51899   0.53041552   -107.98857    9746.3159    4.2325859    4.2325859    4.2325859    9746.3159    16873.484    10100.713    2264.7506    616.60387   -318.30064    8234.9837    75.825858 
   44700    525.25979   -108.46525   0.47526609   -107.98998   -9935.1962    4.2533302    4.2533302    4.2533302   -9935.1962    57.938814   -20476.226    -9387.301   -2417.2641   -2096.1285   -8829.2772    76.946223 
   44800    415.12647   -108.36726   0.37561516   -107.99164   -3355.8873    4.2397435    4.2397435    4.2397435   -3355.8873    12706.619   -12221.262   -10553.019   -3884.8027    639.83358    13766.435    76.211189 
   44900    511.52941   -108.45514   0.46284256    -107.9923    7545.8755    4.2395833    4.2395833    4.2395833    7545.8755    31783.145   -1623.6693   -7521.8491    4379.1181   -10300.088    10885.455     76.20255 
   45000    579.54653   -108.51387   0.52438588   -107.98949   -7276.8769    4.2523881    4.2523881    4.2523881   -7276.8769    8989.6519   -18339.976   -12480.307    6235.1987   -2392.5977   -10114.768    76.895102 
   45100    253.52357   -108.22289   0.22939346   -107.99349    727.45958    4.2360577    4.2360577    4.2360577    727.45958    34953.969   -19518.464   -13253.125    -7144.795    1628.7419    10279.553      76.0126 
   45200    552.86904   -108.49259   0.50024753   -107.99234   -9994.6313    4.2449981    4.2449981    4.2449981   -9994.6313    7250.6025   -20771.373   -16463.123   -2537.6444   -1487.6279    12214.261    76.494905 
   45300    729.74779   -108.64917   0.66029114   -107.98888   -5907.2399    4.2483171    4.2483171    4.2483171   -5907.2399    7186.1483    -15169.39   -9738.4784   -1144.2715    2259.7348   -7550.4701    76.674468 
   45400    403.22978   -108.35872   0.36485078   -107.99387   -3763.8915    4.2363846    4.2363846    4.2363846   -3763.8915    19108.064   -22682.168   -7717.5705   -8149.0944    -117.3463    13164.835    76.030204 
   45500    390.15476   -108.34989   0.35302023   -107.99687    -939.2019    4.2462932    4.2462932    4.2462932    -939.2019    34740.141   -24039.152   -13518.594   -3893.5526   -2030.3665    10734.793    76.564939 
   45600    710.49871   -108.63385   0.64287416   -107.99097    5290.8375    4.2442434    4.2442434    4.2442434    5290.8375    21151.517    763.16559   -6042.1697     5171.854   -8401.3608   -3855.0987     76.45411 
   45700    424.94378   -108.37805   0.38449806   -107.99355    10020.019     4.236334     4.236334     4.236334    10020.019    40950.212   -7692.0358   -3198.1196    3248.3899   -1456.8953    14898.846    76.027476 
   45800    365.63536   -108.32512   0.33083456   -107.99428   -11821.573    4.2506892    4.2506892    4.2506892   -11821.573   -847.71811   -18529.847   -16087.152   -5153.1266   -584.59374     10300.59    76.802978 
   45900    631.39122   -108.56114   0.57129604   -107.98984    4659.2136    4.2366889    4.2366889    4.2366889    4659.2136   -1758.5252    8173.9098    7562.2563   -2048.9259   -6558.7835   -4832.9271    76.046587 
   46000    480.00645   -108.42745   0.43431993   -107.99313   -5994.7367    4.2462589    4.2462589    4.2462589   -5994.7367    21535.203   -20931.939   -18587.475   -1971.4903    4423.1911    17801.081    76.563083 
   46100    324.16937    -108.2867   0.29331526   -107.99339   -6565.3791     4.245192     4.245192     4.245192   -6565.3791     20148.14   -25879.545   -13964.732   -10348.537   -7.0893758    8124.6195    76.505387 
   46200    519.40055   -108.45953   0.46996454   -107.98957    1021.1886    4.2390943    4.2390943    4.2390943    1021.1886    7422.4937   -6156.7871    1797.8591    1806.0715    -2489.633   -4749.0002    76.176186 
   46300    638.87795   -108.56763    0.5780702   -107.98956   -13894.882    4.2482724    4.2482724    4.2482724   -13894.882    7771.4071   -25371.395   -24084.659    3233.6309    1680.6631    16148.733    76.672049 
   46400    444.39881   -108.39624   0.40210138   -107.99414    6772.4168    4.2334181    4.2334181    4.2334181    6772.4168    17427.564   -2301.7037    5191.3905   -2800.8014    1387.2321    6405.0914    75.870594 
   46500    559.88874   -108.50102    0.5065991   -107.99442   -4340.4407     4.246895     4.246895     4.246895   -4340.4407    1989.5629   -9327.1212   -5683.7637   -2035.2571   -9671.8592   -5185.6685    76.597494 
   46600    468.07781   -108.41553   0.42352664     -107.992     6605.592    4.2461228    4.2461228    4.2461228     6605.592    50070.765   -13859.733   -16394.256   -804.43116    397.08556     11384.49    76.555718 
   46700    540.93926   -108.47861   0.48945321   -107.98916    12198.412    4.2287706    4.2287706    4.2287706    12198.412    23967.619    8948.1428    3679.4751    -5793.354    3098.3354    6200.4693    75.620993 
   46800    401.79044   -108.35583   0.36354843   -107.99228   -10769.042    4.2551635    4.2551635    4.2551635   -10769.042    7258.9956   -23657.983   -15908.137   -3940.1534   -3588.2737   -4891.9497    77.045763 
   46900    567.04871   -108.50448   0.51307759    -107.9914    3563.5205    4.2354671    4.2354671    4.2354671    3563.5205    19898.398   -2364.7118   -6843.1243    7350.0049    -3711.044    8924.3059    75.980811 
   47000    442.83413   -108.39441   0.40068563   -107.99372    6920.0936    4.2376668    4.2376668    4.2376668    6920.0936    28897.587   -2279.2544   -5858.0518   -5121.8783     12341.72    6963.1806    76.099259 
   47100    445.50586   -108.39481   0.40310307   -107.99171    -22206.86    4.2566315    4.2566315    4.2566315    -22206.86   -13890.482   -31428.397   -21301.702   -4504.7164   -4119.0872   -5415.7477     77.12553 
   47200    549.29272   -108.48368    0.4970116   -107.98667    19109.563    4.2220132    4.2220132    4.2220132    19109.563    32720.866    10242.939    14364.884    949.82065   -7350.7639    5972.4173    75.259055 
   47300    615.27376   -108.54666   0.55671263   -107.98995   -18774.804    4.2549324    4.2549324    4.2549324   -18774.804   -11303.935     -15515.2   -29505.277    -1045.453    15393.505    5161.0757     77.03321 
   47400    423.04059   -108.37859   0.38277602   -107.99581     3890.519    4.2379677    4.2379677    4.2379677     3890.519    13336.773   -4233.1536    2567.9379   -6880.3127   -546.92348   -4905.3603     76.11547 
   47500    545.49058   -108.48661   0.49357134   -107.99304    16701.887    4.2303577    4.2303577    4.2303577    16701.887    33531.637      12235.8    4338.2248    6381.1067   -2461.0107    2721.8896    75.706167 
   47600    437.65659   -108.38508   0.39600088   -107.98908   -17160.062    4.2619408    4.2619408    4.2619408   -17160.062   -1849.0622   -16913.923     -32717.2    2182.2821    16322.005    3516.2343    77.414488 
   47700    463.87005   -108.40376   0.41971937   -107.98404    21378.452    4.2204497    4.2204497    4.2204497    21378.452    15501.035    21634.352    26999.969   -8285.0359    4092.5336   -3344.8952    75.175477 
   47800    543.81536   -108.48051   0.49205556   -107.98845    -8268.514    4.2502624    4.2502624    4.2502624    -8268.514    6122.8873   -16469.313   -14459.116    36.587177   -9673.9171   -1737.1899    76.779843 
   47900    409.22883   -108.36147   0.37027885   -107.99119   -10.634744    4.2433559    4.2433559    4.2433559   -10.634744    7054.4728    4132.2806   -11218.658   -1868.1318     15771.89    4082.3604    76.406159 
   48000    484.91246   -108.42803   0.43875898   -107.98927    15695.973    4.2281841    4.2281841    4.2281841    15695.973    26050.557    8138.1199    12899.241   -3236.9711    8117.4449   -947.45164    75.589535 
   48100    616.12366   -108.54238   0.55748164   -107.98489   -13180.806    4.2561869    4.2561869    4.2561869   -13180.806    8141.2104   -28091.951   -19591.677   -86.463594   -8322.6026   -515.28841    77.101367 
   48200    526.92636   -108.46447   0.47677404    -107.9877    6347.4362    4.2288174    4.2288174    4.2288174    6347.4362    1524.7193    13822.582    3695.0075    6219.3236    20001.271    4479.2889    75.623507 
   48300    526.93749    -108.4693   0.47678412   -107.99252   -7689.3486    4.2452002    4.2452002    4.2452002   -7689.3486    5187.3753   -6628.8861   -21626.535   -5057.6615    17229.573   -968.24253    76.505832 
   48400    609.29824   -108.54036   0.55130585   -107.98906    327.65751    4.2439505    4.2439505    4.2439505    327.65751    19185.572   -12523.859   -5678.7404   -6214.6054   -11175.236   -1773.1716    76.438285 
   48500    313.59686   -108.27557   0.28374903   -107.99182    4697.2751    4.2347563    4.2347563    4.2347563    4697.2751    10064.923    18658.131   -14631.229    145.78153    17338.246    1581.4504    75.942566 
   48600    445.44487    -108.3937   0.40304788   -107.99065   -11317.613    4.2510258    4.2510258    4.2510258   -11317.613   -4736.9321    1770.1604   -30986.067   -7899.7728    17164.864   -268.47962    76.821222 
   48700    650.83104   -108.57558    0.5888856    -107.9867    9324.2826    4.2324782    4.2324782    4.2324782    9324.2826    9377.3774     12266.26    6329.2106   -2465.4702   -10818.934   -3023.9157    75.820072 
   48800    270.04823   -108.23872   0.24434531   -107.99437    -9414.717    4.2439647    4.2439647    4.2439647    -9414.717   -15126.944    15653.361   -28770.568    7325.2718    22456.587    2363.5531    76.439052 
   48900    351.38656   -108.31196   0.31794194   -107.99402    444.79043    4.2453691    4.2453691    4.2453691    444.79043    24062.126    9085.0742   -31812.829    4759.3699    15389.377    3211.9652    76.514961 
   49000    788.23441    -108.7006   0.71321106   -107.98739    20541.456    4.2296034    4.2296034    4.2296034    20541.456    39428.994    13476.062    8719.3129     783.8542   -7289.4617    -2872.941    75.665677 
   49100    357.47741   -108.32082   0.32345307   -107.99737   -13100.508    4.2533258    4.2533258    4.2533258   -13100.508    615.22052   -3196.5629   -36720.181    148.10514     21714.64    1899.0145    76.945983 
   49200    481.65115   -108.43012   0.43580808   -107.99431   -5409.5241    4.2371075    4.2371075    4.2371075   -5409.5241   -1295.0268    7119.8389   -22053.385    1109.0733    16018.204    2628.7617    76.069131 
   49300    805.17281   -108.71673   0.72853728   -107.98819    14269.686    4.2331766    4.2331766    4.2331766    14269.686    39157.687    596.06092    3055.3103    -4389.961   -8498.1479   -1475.1795    75.857612 
   49400    380.72775   -108.33743   0.34449047   -107.99294   -21778.429    4.2567471    4.2567471    4.2567471   -21778.429   -4778.2022   -17701.666   -42855.419   -770.56211    22609.881    778.96393    77.131812 
   49500     268.9041   -108.23523   0.24331008   -107.99192    9398.7497      4.22524      4.22524      4.22524    9398.7497    15095.232    23483.637    -10382.62    6885.6688    14228.796    3272.2446    75.431742 
   49600    755.21053   -108.67255   0.68333036   -107.98922   -8123.8424    4.2470082    4.2470082    4.2470082   -8123.8424   -3503.8617   -8402.8455    -12464.82     132.5794    -12633.85    559.63061    76.603623 
   49700    469.41628   -108.41939   0.42473771   -107.99465   -9348.6869      4.24394      4.24394      4.24394   -9348.6869   -10770.513    4498.4803   -21774.028    1296.0502    22953.191    -389.2658    76.437716 
   49800    279.23239     -108.246   0.25265533   -107.99335    13480.455    4.2275356    4.2275356    4.2275356    13480.455    17757.208    30503.491   -7819.3349   -402.69584    11562.031     4466.805    75.554756 
   49900    595.99922   -108.52644   0.53927262   -107.98717   -7924.5354    4.2556516    4.2556516    4.2556516   -7924.5354    8793.5811   -10034.765   -22532.422   -33.084861   -12246.758   -1088.8757    77.072279 
   50000    537.38553   -108.47414   0.48623772    -107.9879    16419.499    4.2290912    4.2290912    4.2290912    16419.499    17574.941    28841.516    2842.0411   -3654.7944    19382.088    2889.4328    75.638193 
   50100    479.85834   -108.42659   0.43418591   -107.99241   -5824.9379    4.2424511    4.2424511    4.2424511   -5824.9379   -7268.4856     9485.219   -19691.547     3798.001    10874.259    1789.1417    76.357294 
   50200    559.80915   -108.49576   0.50652708   -107.98923    -3486.431    4.2469976    4.2469976    4.2469976    -3486.431    2772.8422   -7950.0951     -5282.04    8702.4639   -16652.067    280.25114    76.603046 
   50300     528.9016    -108.4658   0.47856128   -107.98724    13249.746    4.2310576    4.2310576    4.2310576    13249.746    23708.153    8611.3236     7429.761   -1453.7405    13574.873    193.01957     75.74375 
   50400    422.60061   -108.37189   0.38237791   -107.98951   -5216.8037    4.2480819    4.2480819    4.2480819   -5216.8037    18854.357   -9116.4627   -25388.305    2827.7036    10045.974    2547.6511    76.661733 
   50500    489.92124   -108.43283   0.44329104   -107.98954   -5047.4574     4.239418     4.239418     4.239418   -5047.4574   -3987.7704   -10629.803   -524.79856    2724.0438   -17256.255    303.39902    76.193639 
   50600    565.53835   -108.50065   0.51171098   -107.98894   -1860.8077     4.236644     4.236644     4.236644   -1860.8077    -4781.102    -5292.108    4490.7868   -8041.8862    11131.515    -1768.153     76.04417 
   50700    558.06082   -108.49374   0.50494515    -107.9888    -7727.548    4.2475578    4.2475578    4.2475578    -7727.548    7755.0272   -8197.3717   -22740.299   -974.53855    8786.3742     3418.817    76.633364 
   50800    424.43115   -108.37495   0.38403422   -107.99091    5780.6496    4.2363548    4.2363548    4.2363548    5780.6496     16012.26   -1152.5851    2482.2737    8473.1588   -16146.529   -149.18088      76.0286 
   50900     517.3899   -108.45904   0.46814525   -107.99089    3293.9107    4.2411291    4.2411291    4.2411291    3293.9107    14311.449        -2006   -2423.7166   -42.031419    1406.9218   -204.50887    76.285934 
   51000    615.90782   -108.54591   0.55728634   -107.98862   -2024.4237    4.2461229    4.2461229    4.2461229   -2024.4237     4571.767    3243.3289   -13888.367    801.84667    6271.6623    2848.6679    76.555729 
   51100    481.49137   -108.42534   0.43566351   -107.98968    5543.2908    4.2337609    4.2337609    4.2337609    5543.2908   -2790.0087    14998.111      4421.77    8544.0633   -16682.277    2864.0943    75.889026 
   51200    421.19321   -108.37248   0.38110447   -107.99138    1644.3105    4.2456936    4.2456936    4.2456936    1644.3105    15722.549   -7194.1572   -3595.4604   -9670.7763   -182.42716    1630.0762     76.53251 
   51300    514.89472   -108.45512   0.46588756   -107.98923    11314.866    4.2388851    4.2388851    4.2388851    11314.866     28652.32    3673.4065    1618.8721   -10158.954    10663.979    3329.9914    76.164911 
   51400    380.91048   -108.33567   0.34465581   -107.99101    7171.6889    4.2367385    4.2367385    4.2367385    7171.6889     19766.36    6301.9161   -4553.2096    5292.0553   -15723.373    2630.6573    76.049258 
   51500    444.83574   -108.39331   0.40249673   -107.99081   -13400.625    4.2471271    4.2471271    4.2471271   -13400.625   -14558.437   -15268.657    -10374.78   -5971.0335   -4754.3386   -1369.0479    76.610056 
   51600    626.70878   -108.55545   0.56705928   -107.98839    10663.327    4.2308437    4.2308437    4.2308437    10663.327    18134.496    2361.0478    11494.436   -3454.4383    6572.2658    2629.7422    75.732262 
   51700    501.16908   -108.44519   0.45346831   -107.99172   -10485.091    4.2480984    4.2480984    4.2480984   -10485.091    4255.5644   -10457.879   -25252.959    6280.4171   -20106.007    1852.0866    76.662631 
   51800    424.43502   -108.37683   0.38403772   -107.99279   -66.538191     4.237271     4.237271     4.237271   -66.538191    8772.9524   -8532.5444   -440.02261   -2460.2919   -10188.032   -2583.9659    76.077937 
   51900    618.05427   -108.54989   0.55922849   -107.99066     3734.716    4.2362031    4.2362031    4.2362031     3734.716    13384.372   -10661.032     8480.808   -12746.007    7794.0417    2474.7061    76.020432 
   52000    600.23516   -108.53355   0.54310539   -107.99044   -11997.256       4.2481       4.2481       4.2481   -11997.256   -7726.3444   -4955.3546    -23310.07    1791.0818   -17786.699    2732.9353    76.662716 
   52100    403.18822   -108.35693   0.36481318   -107.99212    5990.5932    4.2323809    4.2323809    4.2323809    5990.5932    8779.7683    3534.4704    5657.5409    161.46752   -9320.8688    1857.7514    75.814843 
   52200     480.4438   -108.42586   0.43471565   -107.99115    352.45964    4.2416611    4.2416611    4.2416611    352.45964    15496.838   -17884.469    3445.0099   -10744.976    2704.2434     409.7742    76.314648 
   52300    404.59479   -108.35664   0.36608587   -107.99056    956.67658    4.2445868    4.2445868    4.2445868    956.67658    15871.703    1712.9866    -14714.66    5949.5195   -15686.557    4459.3971     76.47267 
   52400    476.45616   -108.42046   0.43110755   -107.98935    4102.9076    4.2330044    4.2330044    4.2330044    4102.9076    5481.6091    3371.8985    3455.2153   -1543.0054   -10013.905   -198.07006    75.848352 
   52500    545.73422   -108.48369   0.49379179    -107.9899   -7140.0418    4.2436697    4.2436697    4.2436697   -7140.0418    852.97405   -25437.679    3164.5796   -14330.807    3917.0622    1506.4896    76.423113 
   52600    487.33882   -108.43155    0.4409544   -107.99059   -3333.1262    4.2427772    4.2427772    4.2427772   -3333.1262    6728.9382    -5936.196   -10792.121   -2506.9477   -12075.868    4909.7713    76.374907 
   52700    569.77858   -108.50456   0.51554763   -107.98901    9298.8714    4.2319844    4.2319844    4.2319844    9298.8714    23355.832    4350.4085    190.37351   -365.12312   -12487.853   -2779.4847    75.793535 
   52800    545.83163   -108.48441   0.49387993   -107.99053   -9017.5773    4.2479162    4.2479162    4.2479162   -9017.5773     4479.687   -31582.932    50.513145   -9846.8539    5593.1604    -411.6535    76.652762 
   52900    513.55665   -108.45538   0.46467685    -107.9907   -1524.6004    4.2371845    4.2371845    4.2371845   -1524.6004   -2449.8319   -1682.4918   -441.47743   -977.43154   -15021.856    3708.7347    76.073277 
   53000    605.78379   -108.53743    0.5481259   -107.98931    2060.7794    4.2360783    4.2360783    4.2360783    2060.7794    8203.9578    5231.0685    -7252.688    43.869406   -15742.897    1473.8381    76.013709 
   53100     402.9891   -108.35575   0.36463301   -107.99112   -8318.2811    4.2484089    4.2484089    4.2484089   -8318.2811   -810.04593   -28715.297    4570.4999   -16680.272    8236.7073    61.685073    76.679439 
   53200     351.6006   -108.30833   0.31813561    -107.9902    11723.414    4.2308338    4.2308338    4.2308338    11723.414    20110.525    3042.7304    12016.986   -6648.5075   -9852.3099    3766.4934    75.731733 
   53300    500.93297    -108.4423   0.45325468   -107.98905   -3400.2209    4.2466327    4.2466327    4.2466327   -3400.2209    9781.7827   -2732.8314   -17249.614   -758.17042   -11573.279    2804.5344    76.583305 
   53400    480.62237    -108.4252   0.43487722   -107.99032   -2867.9268    4.2383144    4.2383144    4.2383144   -2867.9268   -10358.068   -14989.477    16743.764   -16905.009    4397.0378   -1286.1951     76.13415 
   53500    467.73962   -108.41515   0.42322064   -107.99193   -2380.1106    4.2359941    4.2359941    4.2359941   -2380.1106   -3834.2547   -7502.1703    4196.0932    1487.8545   -7095.4016    3145.1209    76.009181 
   53600    590.55484   -108.52336   0.53434643   -107.98901   -7359.9632    4.2478655    4.2478655    4.2478655   -7359.9632    11366.564   -10195.513    -23250.94    5474.6019   -12454.012   -1004.2334    76.650019 
   53700    545.49147   -108.48257   0.49357215   -107.98899     12025.49     4.229408     4.229408     4.229408     12025.49    22847.193   -8935.6364    22164.915   -16976.921    3636.1554   -2504.1869    75.655192 
   53800    463.61232   -108.41218   0.41948617   -107.99269   -10275.569    4.2481049    4.2481049    4.2481049   -10275.569    786.30835   -24391.372   -7221.6441    -3503.386   -1841.6826    3332.1221    76.662981 
   53900    654.11923   -108.58069   0.59186083   -107.98883   -1999.7712    4.2392718    4.2392718    4.2392718   -1999.7712     1235.951    87.071377    -7322.336    2967.9911   -14026.712   -725.22066    76.185756 
   54000    511.09432   -108.45119   0.46244888   -107.98874    6139.4307     4.231445     4.231445     4.231445    6139.4307    6556.8019   -3011.3331    14872.823    -14004.73    2673.0485   -1979.4723     75.76456 
   54100    316.22372   -108.27758   0.28612586   -107.99145   -9028.5888    4.2510017    4.2510017    4.2510017   -9028.5888    1729.1092   -22124.726   -6690.1499   -1990.7704   -3691.2636    664.59348    76.819918 
   54200    473.21945   -108.41706    0.4281789   -107.98888    13371.975    4.2336301    4.2336301    4.2336301    13371.975    21533.703     12968.46    5613.7629      13891.6   -16152.002    1734.0413    75.881991 
   54300    494.64688   -108.43731   0.44756689   -107.98974    4558.1224    4.2372822    4.2372822    4.2372822    4558.1224    10648.405   -2757.9334     5783.896   -11074.101     4760.979   -2836.3789    76.078537 
   54400    403.54202   -108.35574    0.3651333    -107.9906   -14467.692    4.2491958    4.2491958    4.2491958   -14467.692   -17222.099   -24542.005    -1638.973   -5825.3587    1131.9566    1309.7205    76.722055 
   54500    604.97401   -108.53474    0.5473932   -107.98735    9269.0088    4.2306833    4.2306833    4.2306833    9269.0088    14518.866     4861.326    8426.8349    8143.5298   -8299.6801    652.50097    75.723653 
   54600    602.12464    -108.5341   0.54481503   -107.98928   -1116.5804    4.2422276    4.2422276    4.2422276   -1116.5804    19791.763   -16392.878   -6748.6268   -10343.857    7601.7748   -6403.8732    76.345226 
   54700    376.74951   -108.33258   0.34089087   -107.99169   -3818.8347    4.2450323    4.2450323    4.2450323   -3818.8347    11951.347   -24726.489    1318.6383   -4023.4363    1650.2981   -853.75212    76.496753 
   54800    640.48749   -108.56749   0.57952654   -107.98797     5471.489    4.2321259    4.2321259    4.2321259     5471.489    10492.838    588.64627    5332.9829    13239.685   -8058.4977    1037.6466    75.801142 
   54900    604.84414   -108.53695   0.54727568   -107.98967   -5662.4481    4.2437374    4.2437374    4.2437374   -5662.4481    2882.1132   -7658.0792   -12211.378   -5558.1872    2079.5448    -8459.558    76.426773 
   55000    338.98861   -108.29968   0.30672402   -107.99296   -4047.4452    4.2411142    4.2411142    4.2411142   -4047.4452   -4179.2868   -10890.054    2927.0046   -9645.6692    3073.8588     132.5679    76.285134 
   55100    515.44252   -108.45694   0.46638323   -107.99056    6717.0302    4.2346362    4.2346362    4.2346362    6717.0302    16024.417   -2586.1832    6712.8563    11052.844   -3429.2899    2409.6989    75.936107 
   55200    495.14883   -108.43806   0.44802107   -107.99004    223.47422    4.2445457    4.2445457    4.2445457    223.47422    19754.982   -9182.2974   -9902.2623    -6796.339    5084.8911    -5105.237    76.470452 
   55300    333.03594     -108.293   0.30133791   -107.99166   -117.83783    4.2388096    4.2388096    4.2388096   -117.83783    630.10449   -12631.475    11647.857   -6372.5769    11622.949   -729.63677    76.160841 
   55400    582.48689   -108.51539   0.52704638   -107.98835   -1286.2076    4.2396597    4.2396597    4.2396597   -1286.2076    2051.3492   -16042.379    10132.407    13662.556   -4501.9126    1539.5602    76.206672 
   55500    652.07205   -108.57805   0.59000849   -107.98804   -116.39132    4.2401374    4.2401374    4.2401374   -116.39132     6753.319   -7544.5852    442.09225    534.43908    3744.8904    -8443.158    76.232434 
   55600    392.63736   -108.34879   0.35526654   -107.99352   -495.43493    4.2381904    4.2381904    4.2381904   -495.43493    3090.0666   -7554.9237    2978.5523   -10197.248    6141.2544    -4991.862    76.127468 
   55700    523.47812   -108.46554     0.473654   -107.99189   -541.29877    4.2426533    4.2426533    4.2426533   -541.29877    8765.9614   -11285.019    895.16142    6710.3967   -1449.2655    2100.2925    76.368216 
   55800       605.27   -108.53663   0.54766101   -107.98897    8825.1496    4.2373002    4.2373002    4.2373002    8825.1496    21942.542    7979.3253   -3446.4188    463.42599    1113.6689   -8621.1208    76.079511 
   55900    391.32293   -108.34651   0.35407721   -107.99243   -4458.0049    4.2414516    4.2414516    4.2414516   -4458.0049   -909.08242   -3066.2925   -9398.6399   -13005.445    9944.1563   -2515.6466    76.303338 
   56000    496.00395   -108.43972    0.4487948   -107.99092   -3826.0678    4.2401676    4.2401676    4.2401676   -3826.0678   -8759.8418   -9542.9436    6824.5822    8391.1253    4211.0004    5000.0243    76.234061 
   56100    613.23716   -108.54357   0.55486987    -107.9887   -495.55579      4.23876      4.23876      4.23876   -495.55579     6517.227   -8207.3755    203.48106    8721.1043   -3774.6169   -5306.6948    76.158166 
   56200    376.28224   -108.33176   0.34046808   -107.99129   -3785.9968    4.2427813    4.2427813    4.2427813   -3785.9968    9682.6386   -16007.046    -5033.583   -7511.6039    6194.1485   -5506.0058    76.375125 
   56300    444.87241   -108.39257    0.4025299   -107.99004    1928.8742    4.2396941    4.2396941    4.2396941    1928.8742    10670.363    -14182.56    9298.8195   -536.10529   -427.31089    1881.9259     76.20853 
   56400    569.11895    -108.5035   0.51495079   -107.98855    3724.3137    4.2388697    4.2388697    4.2388697    3724.3137    14142.889   -1480.8144   -1489.1335     4832.838   -4632.4852   -8210.0015     76.16408 
   56500    451.88619   -108.40006   0.40887612   -107.99118   -2408.7292    4.2423696    4.2423696    4.2423696   -2408.7292   -2063.5518     7396.947   -12559.583   -11800.522    2610.1958   -7348.9854    76.352895 
   56600    511.76296   -108.45406   0.46305388     -107.991   -2570.4437    4.2387288    4.2387288    4.2387288   -2570.4437   -20041.298    7199.9502    5130.0171   -5835.3535    5716.5705    1601.1768    76.156485 
   56700    593.32318   -108.52662   0.53685128   -107.98977    308.25618     4.237998     4.237998     4.237998    308.25618   -2594.5357    6407.0777   -2887.7735    13299.427    -3825.622   -6721.8848    76.117103 
   56800    478.08005   -108.42207   0.43257688   -107.98949   -12182.415    4.2484163    4.2484163    4.2484163   -12182.415   -4528.7413   -9225.4687   -22793.035   -3172.0137   -435.23035    -5865.282     76.67984 
   56900    506.91733   -108.44648   0.45866945   -107.98781    5000.5197    4.2313706    4.2313706    4.2313706    5000.5197    6830.4023   -2729.9861    10901.143   -6152.1656    7952.0258    3887.7847    75.760565 
   57000    494.05823   -108.43655   0.44703427   -107.98952   -7067.1455    4.2434157    4.2434157    4.2434157   -7067.1455    469.28006   -12187.156   -9483.5602    3315.0605    -8560.408   -1721.6766    76.409389 
   57100    414.69768   -108.36563   0.37522718    -107.9904   -4310.3387     4.243519     4.243519     4.243519   -4310.3387    -2652.226    8201.0354   -18479.826   -4092.6187   -7005.9294   -9177.5026    76.414972 
   57200    514.46846   -108.45379   0.46550187   -107.98829    10704.774    4.2326349    4.2326349    4.2326349    10704.774    860.40885    19434.064     11819.85   -13228.359    5304.7765    1366.4167    75.828494 
   57300    524.94793   -108.46446   0.47498392   -107.98947   -2046.8841     4.243973     4.243973     4.243973   -2046.8841   -4192.1575    5488.1291   -7436.6237    2019.7526   -7464.2644   -3963.7831    76.439501 
   57400    454.88877   -108.40205   0.41159292   -107.99046    918.95074    4.2411477    4.2411477    4.2411477    918.95074    9193.3682    9160.2234   -15596.739    5600.2506   -8104.0763   -9449.2579    76.286941 
   57500    612.84593   -108.54375   0.55451588   -107.98923    4725.8571    4.2327919    4.2327919    4.2327919    4725.8571    7018.6622   -4039.8601    11198.769   -18944.996    5878.9099   -658.16163    75.836934 
   57600    544.87677   -108.48442   0.49301596    -107.9914   -4105.8378    4.2441486    4.2441486    4.2441486   -4105.8378    475.28745   -6926.1829   -5866.6179   -3540.3372   -3021.5075   -583.69163     76.44899 
   57700     436.1799   -108.38689   0.39466474   -107.99223   -4276.3557    4.2411593    4.2411593    4.2411593   -4276.3557   -1008.7423    8105.7981   -19926.123     1544.591    -13629.38   -5152.1516    76.287567 
   57800    505.15875   -108.44679   0.45707825   -107.98971     6967.261    4.2321327    4.2321327    4.2321327     6967.261    1405.6307    11595.006    7901.1464   -16151.729    2058.6945   -559.16745    75.801506 
   57900    457.40151   -108.40369    0.4138665   -107.98982   -8283.2351    4.2479127    4.2479127    4.2479127   -8283.2351   -16050.788    1950.1531    -10749.07   -5084.5003   -3573.8408    1867.7834    76.652576 
   58000    407.55858   -108.35915   0.36876757   -107.99038   -1726.0152      4.23691      4.23691      4.23691   -1726.0152    1738.2614    11445.822   -18362.129    11014.284   -15729.222   -8149.0798    76.058492 
   58100    502.83839   -108.44474   0.45497874   -107.98976    2558.5641    4.2352861    4.2352861    4.2352861    2558.5641    14385.728   -8687.2668    1977.2314   -12488.302    2231.2354   -4083.7102    75.971071 
   58200    592.15243   -108.52448   0.53579197   -107.98869   -12129.208    4.2479883    4.2479883    4.2479883   -12129.208   -12318.498   -16928.768   -7140.3592   -16108.922   -1186.4142    1761.0948    76.656667 
   58300    504.77671   -108.44661   0.45673258   -107.98988    3305.6563    4.2321215    4.2321215    4.2321215    3305.6563    6546.2539    15163.869   -11793.154    7049.6366   -18180.152   -6336.4058    75.800903 
   58400    541.42818   -108.48103   0.48989559   -107.99114   -3141.7957    4.2399519    4.2399519    4.2399519   -3141.7957   -10778.748    5673.1067   -4319.7461    -14691.28   -1788.4446   -2952.7408     76.22243 
   58500    491.14116   -108.43523   0.44439484   -107.99084   -3347.5387    4.2449619    4.2449619    4.2449619   -3347.5387   -20103.233    13594.705   -3534.0885   -15042.788   -1074.0869    1956.6244    76.492948 
   58600    491.28267   -108.43391   0.44452288   -107.98938    8514.3013    4.2312457    4.2312457    4.2312457    8514.3013    8636.5187    29706.097   -12799.712    11724.504   -17159.754   -4310.0083    75.753855 
   58700    439.72518   -108.38849   0.39787259   -107.99062     -4886.82    4.2439227    4.2439227    4.2439227     -4886.82    2640.1176   -3791.6067   -13508.971    -6406.115   -1774.4892   -5892.4055    76.436784 
   58800    507.00972   -108.44798   0.45875305   -107.98923   -3371.9073    4.2401803    4.2401803    4.2401803   -3371.9073   -5975.4113    -4339.399    199.08843   -17742.547    206.86943    804.01209    76.234748 
   58900    532.13588   -108.47018   0.48148773   -107.98869    -2204.003    4.2371285    4.2371285    4.2371285    -2204.003   -5328.0929    18372.464    -19656.38   -330.03609   -16942.782    -2366.955    76.070262 
   59000    485.16078   -108.42853   0.43898367   -107.98955   -1173.3387    4.2408555    4.2408555    4.2408555   -1173.3387   -4365.0132    13162.916   -12317.919   -4299.9689   -423.83704   -5535.6964    76.271174 
   59100    484.81379   -108.42907   0.43866971    -107.9904   -1816.0761    4.2397194    4.2397194    4.2397194   -1816.0761     -11374.9    6409.3511   -482.67887    -20728.55   -1339.2382    1579.3651    76.209892 
   59200    495.72246   -108.43927    0.4485401   -107.99073    3373.1728    4.2375644    4.2375644    4.2375644    3373.1728   -904.41507    28069.097   -17045.164    4440.0984   -20403.845    1840.3418    76.093741 
   59300    622.78318   -108.55375   0.56350731   -107.99024   -2103.9035    4.2381135    4.2381135    4.2381135   -2103.9035    2658.6622    -12.67401   -8957.6987   -660.87384   -4489.6553   -8897.5462    76.123328 
   59400     440.0965    -108.3911   0.39820856   -107.99289   -8701.1223    4.2407876    4.2407876    4.2407876   -8701.1223    -9248.299   -18533.332    1678.2637   -19026.588   -24.651701    56.013957    76.267511 
   59500    488.93004   -108.43454   0.44239417   -107.99214   -5617.9567    4.2376784    4.2376784    4.2376784   -5617.9567   -16875.366    15506.361   -15484.865   -2642.3865   -20315.409    1846.2924    76.099883 
   59600    574.73966   -108.50936   0.52003652   -107.98932    1822.2535    4.2401513    4.2401513    4.2401513    1822.2535   -253.90003    15648.385    -9927.724    670.22393   -3059.0561   -5810.6447    76.233183 
   59700    389.20971   -108.34425   0.35216512   -107.99209   -1878.2764    4.2381903    4.2381903    4.2381903   -1878.2764   -14550.416    7977.6583    937.92889   -15142.202    2992.8777   -4129.5594    76.127462 
   59800    291.18965   -108.25807   0.26347452    -107.9946   -4548.9158    4.2396434    4.2396434    4.2396434   -4548.9158   -15968.956     22806.16   -20483.951   -1372.3447   -21473.008    3586.2916    76.205792 
   59900    681.24107   -108.60518   0.61640123   -107.98878   -388.68519    4.2404384    4.2404384    4.2404384   -388.68519    6484.7112    4901.1669   -12551.934    2616.5416   -2336.4529      25.9259    76.248668 
   60000    553.26596   -108.49179   0.50060666   -107.99118   -3078.9667    4.2385642    4.2385642    4.2385642   -3078.9667   -1982.6643   -6639.0539   -615.18185    -15200.25   -961.94023   -2330.1584    76.147612 
   60100    341.22345   -108.30329   0.30874614   -107.99454   -10140.771    4.2402607    4.2402607    4.2402607   -10140.771   -19447.662    9012.5871   -19987.239   -9621.0478   -24939.548     4820.444    76.239086 
   60200    698.49534   -108.62281   0.63201327    -107.9908    3948.5824    4.2386291    4.2386291    4.2386291    3948.5824    2794.5623    18219.807   -9168.6222    3846.0035   -3506.6571    3816.5247    76.151111 
   60300    584.18373   -108.52038   0.52858172    -107.9918    5053.1387    4.2389011    4.2389011    4.2389011    5053.1387   -7121.4522    19876.516    2404.3518   -7644.6151    1561.5743   -4600.4235    76.165772 
   60400    222.72219   -108.19917   0.20152372   -107.99765   -3443.6775     4.239408     4.239408     4.239408   -3443.6775   -17100.287    19107.425   -12338.171   -6900.5505   -19741.889    1083.5913    76.193099 
   60500     561.5827   -108.50121   0.50813183   -107.99308    5289.7182    4.2391704    4.2391704    4.2391704    5289.7182    14761.526    7425.1626   -6317.5337    8590.7233   -4292.3431    6016.5273    76.180291 
   60600    719.05529   -108.64083   0.65061634   -107.99022    3922.0511    4.2382299    4.2382299    4.2382299    3922.0511    2126.9203    6161.8507    3477.3822   -7705.2699    4985.1344   -2796.4102    76.129595 
   60700    282.00429   -108.25099    0.2551634   -107.99583    -14757.24    4.2430184    4.2430184    4.2430184    -14757.24   -18922.466   -7052.2936    -18296.96   -14523.647   -22016.821    3254.9658    76.387929 
   60800    573.93803   -108.51167   0.51931119   -107.99236   -179.20926    4.2363942    4.2363942    4.2363942   -179.20926    2768.4682    3965.8695   -7271.9655   -625.39411   -8380.7527    9220.7056    76.030717 
   60900    708.47075   -108.62988   0.64103922   -107.98884    2093.0016    4.2425617    4.2425617    4.2425617    2093.0016    2650.2777     9729.984   -6101.2569    183.96745    3367.5925    1315.9916    76.363267 
   61000    252.85382   -108.22427   0.22878745   -107.99548    2760.4465    4.2364371    4.2364371    4.2364371    2760.4465     815.0254    19293.432   -11827.118   -8370.7833    -21972.56       -748.1    76.033029 
   61100    343.41459   -108.30677   0.31072874   -107.99605     1514.931     4.242557     4.242557     4.242557     1514.931    10064.284    6784.3733   -12303.864    1809.6313   -6112.5102    7754.3538    76.363011 
   61200    694.64303   -108.61653   0.62852761     -107.988      11766.3    4.2377016    4.2377016    4.2377016      11766.3    22559.358    12877.143   -137.59963    8216.3254    5903.7261    1392.8266    76.101132 
   61300    416.08796   -108.37101   0.37648513   -107.99452   -5647.1083    4.2385121    4.2385121    4.2385121   -5647.1083   -13364.117    5622.7106   -9199.9181   -12934.048   -18872.375   -3066.2676    76.144805 
   61400    416.16242   -108.37169    0.3765525   -107.99514   -8431.0235    4.2401796    4.2401796    4.2401796   -8431.0235    -11111.61   -7259.9739    -6921.487   -9629.3848   -8918.8569     11914.95    76.234712 
   61500    817.79402   -108.72918   0.73995722   -107.98922    2653.6524    4.2393176    4.2393176    4.2393176    2653.6524    9865.4243    2919.5542   -4824.0212    1301.3416    4935.2747    4523.0915    76.188225 
   61600    505.18985   -108.45049   0.45710639   -107.99339   -5097.9815    4.2408861    4.2408861    4.2408861   -5097.9815   -15674.244    12188.235   -11807.936   -5616.7321   -16971.109   -3587.4064    76.272824 
   61700     291.7241    -108.2592    0.2639581   -107.99524    5495.6946     4.235135     4.235135     4.235135    5495.6946    4742.6607     15969.97   -4225.5472   -7068.7531   -10315.426    10719.498    75.962942 
   61800    601.75825   -108.53462   0.54448351   -107.99014    2036.8158    4.2457395    4.2457395    4.2457395    2036.8158     17828.33     4538.248    -16256.13    4478.7637     6358.314    7217.8978    76.534989 
   61900    534.83263   -108.47496   0.48392781   -107.99104    13556.173    4.2292774    4.2292774    4.2292774    13556.173    8051.7332    28434.346    4182.4392    4809.1692   -13876.026   -4780.8507    75.648184 
   62000    281.31169   -108.25129   0.25453673   -107.99676   -14856.288    4.2465905    4.2465905    4.2465905   -14856.288   -8257.3643   -16888.957   -19422.543   -11896.234   -10360.979    10470.461    76.581022 
   62100    601.96116    -108.5364   0.54466711   -107.99173   -2683.2329    4.2364365    4.2364365    4.2364365   -2683.2329    10415.009   -10776.565   -7688.1431   -3531.3684    3588.1742    12317.583    76.032993 
   62200    616.82247   -108.54777   0.55811393   -107.98966    6436.1086    4.2328411    4.2328411    4.2328411    6436.1086    4742.6009    14963.139    -397.4141   -319.80255   -10510.151    -5893.959    75.839574 
   62300    344.18484   -108.30433   0.31142568   -107.99291   -16651.131    4.2490346    4.2490346    4.2490346   -16651.131   -11592.282     -13176.3   -25184.811   -8789.9638   -12071.317    9727.0663    76.713325 
   62400    470.08241   -108.41677   0.42534044   -107.99143    13308.919    4.2279898    4.2279898    4.2279898    13308.919    29697.828    7966.5716    2262.3587    -7038.809    6718.2456    12062.217    75.579111 
   62500    641.88677   -108.57058   0.58079264   -107.98979    2763.3947    4.2421331    4.2421331    4.2421331    2763.3947    1191.0761    18259.316   -11160.208    3377.8332   -6905.2753   -7243.8705    76.340128 
   62600    452.49737    -108.4022   0.40942913   -107.99277   -2251.2769    4.2408253    4.2408253    4.2408253   -2251.2769      2826.95    6298.4053   -15879.186   -3604.4214   -11600.558    5175.4655    76.269545 
   62700    468.87392   -108.41639   0.42424697   -107.99214    485.16454    4.2345945    4.2345945    4.2345945    485.16454    11451.713   -7120.4413    -2875.778   -11673.646    6022.5874    16532.543    75.933861 
   62800    698.65414   -108.62126   0.63215695    -107.9891   -796.11108    4.2385925    4.2385925    4.2385925   -796.11108    5661.2067   -1533.5765   -6515.9634    3244.4482    -9516.854   -6844.2211     76.14914 
   62900    453.26347   -108.40266   0.41012231   -107.99254   -4657.1403    4.2419916    4.2419916    4.2419916   -4657.1403    6036.5251   -3327.3293   -16680.617   -671.37923   -10338.046    5341.6534    76.332484 
   63000    287.87989   -108.25532   0.26047977   -107.99484   -530.77947    4.2352223    4.2352223    4.2352223   -530.77947     7517.521    -4194.715   -4915.1444    -11169.83    1285.3857    19254.647     75.96764 
   63100     526.6463   -108.46856   0.47652064   -107.99204    5941.0616     4.236843     4.236843     4.236843    5941.0616     14587.75    9539.7648     -6304.33   -1389.8275   -1435.6364   -4361.5337    76.054885 
   63200    534.71868   -108.47487    0.4838247   -107.99105   -9649.7519    4.2462901    4.2462901    4.2462901   -9649.7519   -4268.2653   -2995.5122   -21685.478     2598.602    -9294.554    1075.8256    76.564769 
   63300    355.13742   -108.31481    0.3213358   -107.99347   -524.81628    4.2292988    4.2292988    4.2292988   -524.81628    5562.8889   -10473.799    3336.4617   -14751.885    1383.7768    16789.748    75.649336 
   63400    642.92037   -108.57379   0.58172786   -107.99207   -10054.765    4.2443464    4.2443464    4.2443464   -10054.765   -8252.8389   -10957.921   -10953.535    -10017.24    3271.4296   -1185.8066    76.459679 
   63500    708.92864   -108.63168   0.64145353   -107.99023   -4012.9972    4.2415632    4.2415632    4.2415632   -4012.9972   -1016.1672    3586.6021   -14609.426         6338   -10445.357   -3224.4058    76.309364 
   63600    323.87615   -108.28608   0.29304994   -107.99303    8273.1751      4.22833      4.22833      4.22833    8273.1751    14003.903    5634.5296     5181.093   -6589.7883    1977.3919    17481.023    75.597357 
   63700    437.96772   -108.38942   0.39628239   -107.99314   -7677.2181    4.2500891    4.2500891    4.2500891   -7677.2181   -573.16314   -6510.9963   -15947.495   -7353.4812    57.644512    1730.8617    76.770455 
   63800    659.19267   -108.58463   0.59645138   -107.98818    15403.246    4.2326089    4.2326089    4.2326089    15403.246    25726.935    18879.805    1602.9985    8037.0589   -7536.6959   -586.59173    75.827098 
   63900    337.89193   -108.30054   0.30573172    -107.9948   -3410.0991     4.238821     4.238821     4.238821   -3410.0991    8831.9032   -16585.875   -2476.3257   -6307.3925   -949.73054     19317.41    76.161454 
   64000    414.66374   -108.36764   0.37519647   -107.99245   -11632.395    4.2457369    4.2457369    4.2457369   -11632.395   -3500.2135   -28507.445   -2889.5275   -17479.814    362.38099    3703.9699    76.534848 
   64100    767.49882   -108.68025   0.69444906    -107.9858    9746.5702    4.2318108    4.2318108    4.2318108    9746.5702    14481.447    4701.5655    10056.698   -621.51459    -740.1105   -2543.7428    75.784212 
   64200    399.74958   -108.35425   0.36170182   -107.99254   -2879.7468    4.2424303    4.2424303    4.2424303   -2879.7468     9497.344   -11946.936    -6189.648   -1431.5967    42.898368    13351.194     76.35617 
   64300    285.28404   -108.25338   0.25813099   -107.99525    3620.1668    4.2409179    4.2409179    4.2409179    3620.1668    12007.342   -1282.6142    135.77301   -14648.042    6291.8593    2821.2389    76.274537 
   64400    727.42954   -108.64709   0.65819354    -107.9889    13824.277    4.2343445    4.2343445    4.2343445    13824.277    19593.108    17812.851    4066.8721    4322.6831    1368.1471   -4756.8492    75.920412 
   64500    531.53524   -108.47512   0.48094425   -107.99417     3975.322    4.2392725    4.2392725    4.2392725     3975.322    27129.927    -4915.627   -10288.334    579.83908   -1275.1223    13844.805    76.185792 
   64600     354.4761    -108.3164   0.32073742   -107.99566   -16347.828       4.2444       4.2444       4.2444   -16347.828   -12112.696   -30354.187   -6576.5999    -19312.52    3129.4523    8463.9151    76.462576 
   64700    728.63922   -108.64845   0.65928808   -107.98916    6817.2309    4.2302154    4.2302154    4.2302154    6817.2309    7862.1991    4267.5114    8321.9823   -5221.3087   -523.05953   -2781.5246    75.698532 
   64800    589.97682   -108.52442   0.53382343   -107.99059   -9665.5928     4.247056     4.247056     4.247056   -9665.5928    7719.5529   -13867.194   -22849.138    689.47605   -2440.6933    12526.501    76.606208 
   64900    201.60723   -108.17798   0.18241846   -107.99556   -185.81731    4.2358511    4.2358511    4.2358511   -185.81731    5935.6602   -8654.0595    2160.9474   -15383.775    2377.7279    7996.2858    76.001481 
   65000     502.5178   -108.44672   0.45468866   -107.99203    6539.9632     4.236362     4.236362     4.236362    6539.9632    16001.192     1311.406    2307.2916   -2919.3881    6880.4728   -5782.8616    76.028984 
   65100     593.9485   -108.52533   0.53741708   -107.98791     -6130.75    4.2471067    4.2471067    4.2471067     -6130.75     19182.19   -15995.304   -21579.136    5821.5143    134.48844    5220.6699    76.608953 
   65200    355.75914   -108.31338   0.32189834   -107.99148    124.15152    4.2305376    4.2305376    4.2305376    124.15152     573.9463   -10722.027    10520.536   -23027.831    4332.6753    7717.3859    75.715829 
   65300     622.9257   -108.55446   0.56363626   -107.99083   -9488.7402    4.2430001    4.2430001    4.2430001   -9488.7402   -17250.847   -9327.5148   -1887.8593   -10543.849    5674.0838   -3793.6713     76.38694 
   65400    672.59447    -108.5971   0.60857761   -107.98852    331.52335    4.2411758    4.2411758    4.2411758    331.52335    9677.2491    4559.3111    -13241.99     4345.189    -1189.271     6811.596    76.288457 
   65500    337.42491   -108.29802   0.30530915   -107.99272    2952.4015    4.2338108    4.2338108    4.2338108    2952.4015    5012.4687     -2366.22    6210.9558   -18013.958   -2977.5554    11137.915    75.891712 
   65600    441.61538   -108.39126   0.39958287   -107.99168    787.11181    4.2423016    4.2423016    4.2423016    787.11181    4545.5053   -30.948338   -2153.2215   -6660.8402    2681.5105    -582.4476    76.349222 
   65700    577.63628   -108.51166   0.52265745   -107.98901     3174.165    4.2394524    4.2394524    4.2394524     3174.165    22875.949   -137.59649   -13215.858    8061.7604   -2355.3882    4625.7521    76.195495 
   65800    330.64286    -108.2925   0.29917261   -107.99333   -2287.3947    4.2346032    4.2346032    4.2346032   -2287.3947    5601.2652   -14146.995    1683.5457   -19760.981   -4061.4054    7134.0878     75.93433 
   65900    544.34759   -108.48403   0.49253714    -107.9915   -10025.873    4.2429135    4.2429135    4.2429135   -10025.873   -13167.168   -15182.297   -1728.1542   -17015.871     5442.484   -2045.5287    76.382264 
   66000     673.6045   -108.59794   0.60949151   -107.98845   -3131.4278    4.2398756    4.2398756    4.2398756   -3131.4278    4078.0713    1791.9029   -15264.258    5265.4036    712.71636   -2563.4408    76.218313 
   66100     306.5812   -108.27092   0.27740111   -107.99352    3077.6681    4.2321316    4.2321316    4.2321316    3077.6681    7335.8735    3609.6407     -1712.51   -14296.585   -2464.9371     8097.052    75.801445 
   66200    472.99696   -108.42199   0.42797759   -107.99401   -5323.4246    4.2455972    4.2455972    4.2455972   -5323.4246   -2601.3327   -4234.2763   -9134.6649   -17877.677    1148.0054    239.96361    76.527296 
   66300    739.77199   -108.65841   0.66936124   -107.98905    10976.402    4.2341824    4.2341824    4.2341824    10976.402    24128.375    15363.424   -6562.5924    9870.6826   -5.8005124    535.11568    75.911697 
   66400    362.13356   -108.32365   0.32766606   -107.99598   -4145.0873    4.2368112    4.2368112    4.2368112   -4145.0873    6729.9233   -10514.254   -8650.9314   -17223.913     -5725.16    8438.3525    76.053174 
   66500    431.33737   -108.38474   0.39028312   -107.99445   -10151.651    4.2460729    4.2460729    4.2460729   -10151.651   -16996.799    -10470.22   -2987.9343   -23847.677   -3177.3962    879.09921    76.553023 
   66600    796.30194   -108.70715   0.72051073   -107.98664    11922.489    4.2326005    4.2326005    4.2326005    11922.489    11878.463    21466.937    2422.0683    8096.2579    2922.5495   -889.85476    75.826646 
   66700    320.71525   -108.28527   0.29018989   -107.99508   -857.34641    4.2386973    4.2386973    4.2386973   -857.34641    2967.2327     625.2402   -6164.5121   -10083.536    -2453.534    1452.6761    76.154788 
   66800    282.59902   -108.25342   0.25570154   -107.99772   -7250.4508    4.2431414    4.2431414    4.2431414   -7250.4508   -4709.4077   -16411.998   -629.94682   -23169.425   -339.36291    2106.2716    76.394572 
   66900    791.62208   -108.70475   0.71627629   -107.98847    12231.476    4.2330689    4.2330689    4.2330689    12231.476    23163.346    7222.7665     6308.315    7116.1049    2212.9151    -2343.744    75.851822 
   67000    420.76426   -108.37608   0.38071634   -107.99537   -3180.0488    4.2417311    4.2417311    4.2417311   -3180.0488    2600.1042   -5492.0313   -6648.2191   -11940.322   -1261.0938    4684.2185    76.318425 
   67100    265.93304   -108.23736    0.2406218   -107.99674   -8167.3551     4.241213     4.241213     4.241213   -8167.3551   -20258.484   -2149.9614   -2093.6198   -29874.409   -5911.4818    5715.8186    76.290463 
   67200    754.04322   -108.67125   0.68227415   -107.98897    11724.935    4.2329977    4.2329977    4.2329977    11724.935    3088.1125    29849.689    2237.0049    8167.3065   -1990.3041   -1645.1904    75.847996 
   67300     514.8374   -108.45935    0.4658357   -107.99351    -6278.427    4.2436213    4.2436213    4.2436213    -6278.427   -7485.3347    717.21265   -12067.159   -3785.5267    -851.8271    3651.3186    76.420495 
   67400    262.57395   -108.23403   0.23758243   -107.99645   -8538.7401    4.2386907    4.2386907    4.2386907   -8538.7401   -6780.2306   -16707.663    -2128.327   -26699.015   -7945.4373    1989.9102    76.154433 
   67500    745.19195   -108.66447   0.67426534    -107.9902    6593.9934    4.2347888    4.2347888    4.2347888    6593.9934    13166.506    7143.9355   -528.46092    6852.5312   -69.790953    -359.8078    75.944317 
   67600    565.02663   -108.50323   0.51124797   -107.99199    346.92529    4.2427974    4.2427974    4.2427974    346.92529    7363.6293    1350.8679   -7673.7213   -7306.9148    1714.8302    271.00223    76.375996 
   67700    225.14267   -108.20038   0.20371382   -107.99667   -2358.9969    4.2379908    4.2379908    4.2379908   -2358.9969   -9663.3796    5132.6898    -2546.301   -31282.085   -3728.2369    4586.3534    76.116714 
   67800    652.67915   -108.58147   0.59055781   -107.99091    4727.9576    4.2367347    4.2367347    4.2367347    4727.9576    398.19452    17594.933   -3809.2542    4340.2243   -1323.5094    2274.8421    76.049053 
   67900    626.85072   -108.55784   0.56718771   -107.99065    -884.8333    4.2418986    4.2418986    4.2418986    -884.8333   -3648.7023    2194.9117   -1200.7093    3304.9636    1357.8392     1477.839    76.327466 
   68000    325.31697   -108.28882   0.29435364   -107.99447   -11274.363    4.2389448    4.2389448    4.2389448   -11274.363   -18622.058   -16945.945    1744.9127   -25123.075   -5317.8524    4608.8689    76.168131 
   68100    548.38732   -108.48843   0.49619238   -107.99224    3555.2409    4.2364404    4.2364404    4.2364404    3555.2409    1204.0948    15025.802   -5564.1741    873.09338     -4485.61    766.64792    76.033208 
   68200    572.40508   -108.50758   0.51792415   -107.98965    2136.9064    4.2430112    4.2430112    4.2430112    2136.9064   -921.47704    11959.444   -4627.2473    1611.1336    1458.6991   -2907.8727    76.387542 
   68300    268.13827   -108.23714   0.24261714   -107.99452    1302.2399    4.2354831    4.2354831    4.2354831    1302.2399   -10617.709    7323.8423    7200.5868   -31417.474   -6062.9289    -314.5936    75.981676 
   68400    522.32434    -108.4656   0.47261004   -107.99299    3166.5798    4.2377491    4.2377491    4.2377491    3166.5798    6816.1506    12290.465   -9606.8765   -2026.6216   -3644.6608    2666.5218    76.103693 
   68500    720.53252   -108.64055   0.65195297   -107.98859   -5317.5995    4.2432653    4.2432653    4.2432653   -5317.5995    993.64435   -9234.8631   -7711.5798    1698.4231     4454.584    -2566.468    76.401268 
   68600    390.83184   -108.34638   0.35363286   -107.99275   -4333.7287    4.2352325    4.2352325    4.2352325   -4333.7287    -11028.35   -13644.751    11671.915   -22298.528   -3802.0395    2625.6355    75.968191 
   68700     535.1526   -108.47573   0.48421732   -107.99151   -2845.7178    4.2378893    4.2378893    4.2378893   -2845.7178   -1108.6832    4190.8174   -11619.288   -3527.1626   -5051.6434    5771.1089    76.111243 
   68800    561.04029   -108.49777   0.50764105   -107.99012    1476.4645    4.2413043    4.2413043    4.2413043    1476.4645   -3671.7432    19097.528   -10996.391    3731.8774     6120.566    2112.3127    76.295391 
   68900    334.07535    -108.2956    0.3022784   -107.99332   -2160.9842    4.2358541    4.2358541    4.2358541   -2160.9842   -14084.773   -1174.9496    8776.7696   -23633.744    -1056.871   -1281.8375     76.00164 
   69000    482.70625   -108.42921   0.43676276   -107.99244   -2501.2075    4.2373257    4.2373257    4.2373257   -2501.2075    1879.9143    2852.3736   -12235.911   -9121.7643   -3992.5231     6211.948    76.080881 
   69100    567.16663   -108.50376   0.51318429   -107.99058   -2814.7198    4.2420023    4.2420023    4.2420023   -2814.7198    3349.5539    5488.2614   -17281.975    4774.9655    6292.5747    1731.5837    76.333062 
   69200    474.14963   -108.42154   0.42902055   -107.99252    -2863.426    4.2329669    4.2329669    4.2329669    -2863.426   -6169.0275   -13343.915    10922.664   -26930.035    415.76873   -3170.3045    75.846338 
   69300    525.28633   -108.46841   0.47529011   -107.99312   -2280.9273    4.2401329    4.2401329    4.2401329   -2280.9273   -685.01932    5547.7797   -11705.542   -3708.6232   -2645.2991    5755.2304    76.232193 
   69400    600.17589   -108.53395   0.54305175    -107.9909     -4424.03     4.240579     4.240579     4.240579     -4424.03    1282.5109     7666.923   -22221.524   -429.06236    6053.7249    5411.1739    76.256257 
   69500    410.52387   -108.36427   0.37145062   -107.99282    3541.7686    4.2311548    4.2311548    4.2311548    3541.7686    316.92408   -2086.1084     12394.49   -24520.099    2039.5243   -2240.5071    75.748974 
   69600    521.32367   -108.46375   0.47170461   -107.99204   -6517.0423    4.2440791    4.2440791    4.2440791   -6517.0423    2632.2595   -13305.397   -8877.9896   -5958.7396    -2698.649    1204.6938    76.445231 
   69700    557.75036   -108.49513   0.50466425   -107.99046   -802.22262    4.2360626    4.2360626    4.2360626   -802.22262    8131.5733    3199.8036   -13738.045    4227.2489    5869.9053    8378.6207    76.012866 
   69800    375.41581   -108.33236   0.33968411   -107.99268    -4669.344    4.2357588    4.2357588    4.2357588    -4669.344   -14788.169   -5360.6323    6140.7696   -19074.788    5922.9011   -4033.3794    75.996515 
   69900    510.55205   -108.45315   0.46195822   -107.99119   -5883.6632    4.2417823    4.2417823    4.2417823   -5883.6632   -4063.1232   -10229.566   -3358.3005   -10392.716   -3393.1674   -1025.0332    76.321189 
   70000    531.63495   -108.47174   0.48103447   -107.99071    7994.4568    4.2347069    4.2347069    4.2347069    7994.4568    17313.526    17374.275    -10704.43    6378.5274    4640.5474    8465.4627    75.939907 
   70100    400.74232   -108.35606   0.36260008   -107.99346   -2737.9562    4.2384791    4.2384791    4.2384791   -2737.9562    3485.9521   -6998.2053   -4701.6155   -24131.533    5256.9136   -870.41379    76.143027 
   70200    505.07362   -108.44917   0.45700122   -107.99217    2407.8585    4.2393135    4.2393135    4.2393135    2407.8585    22088.879   -12509.733    -2355.571   -10386.843   -1603.3353   -3656.9844    76.188008 
   70300    634.86078   -108.56467   0.57443538   -107.99023   -1188.5391    4.2380534    4.2380534    4.2380534   -1188.5391    18236.273   -7312.2274   -14489.663    11232.659    3667.6967    8610.1553    76.120089 
   70400    506.98331   -108.45104   0.45872915   -107.99231    196.61637     4.234611     4.234611     4.234611    196.61637    1419.2533    -604.0623    -225.3419   -12906.857    5332.2302    3222.7096    75.934751 
   70500    554.11479   -108.49305   0.50137471   -107.99167    -7782.188    4.2439078    4.2439078    4.2439078    -7782.188   -2346.7081   -15589.647   -5410.2093   -10714.216    81.039071    -9815.989    76.435977 
   70600    528.86314   -108.46938   0.47852648   -107.99085    2655.3892    4.2349172    4.2349172    4.2349172    2655.3892    11245.089    2800.8185   -6079.7397    8326.5108   -346.62047    5635.2126    75.951224 
   70700    392.20292   -108.34773   0.35487344   -107.99286    3903.2705    4.2357264    4.2357264    4.2357264    3903.2705    7082.2618    6033.3667   -1405.8169   -8839.8145    6860.6585     5385.967    75.994769 
   70800    394.92481   -108.34885   0.35733627   -107.99152   -2080.1413    4.2448724    4.2448724    4.2448724   -2080.1413    8562.4939   -9563.6066   -5239.3112   -18769.466   -2009.2541   -10975.679    76.488106 
   70900    517.79694   -108.45757   0.46851355   -107.98905    7393.5894    4.2312348    4.2312348    4.2312348    7393.5894    16313.269    4887.9356    979.56313    7913.4628    -80.72072    568.61817    75.753271 
   71000     493.2044   -108.43709   0.44626171   -107.99082   -8296.8151    4.2414679    4.2414679    4.2414679   -8296.8151   -12804.537   -3468.0924   -8617.8162   -170.96109    5768.4128    8915.3462    76.304218 
   71100    527.23007   -108.46823   0.47704885   -107.99119   -4829.7156    4.2381536    4.2381536    4.2381536   -4829.7156    656.00564   -13926.177   -1218.9755   -13314.554    1983.8592   -11057.515    76.125488 
   71200    578.22632   -108.51429   0.52319132   -107.99109   -1353.1754    4.2352206    4.2352206    4.2352206   -1353.1754    12396.035   -9046.7938   -7408.7676     4570.186   -723.59543   -8106.7784     75.96755 
   71300     506.2995      -108.45   0.45811043   -107.99189    2216.1093    4.2398846    4.2398846    4.2398846    2216.1093    6970.6193    7229.5665   -7551.8579    2461.9226    3856.3561    11974.082    76.218803 
   71400     449.7421   -108.39912   0.40693611   -107.99218    1392.5185    4.2391995    4.2391995    4.2391995    1392.5185    14393.674   -4536.9963   -5679.1224   -12462.617    3462.5867   -13071.446    76.181858 
   71500    466.12754    -108.4133     0.421762   -107.99154    4141.7765    4.2355353    4.2355353    4.2355353    4141.7765    20659.085   -896.79345   -7336.9617   -4695.7834   -4604.7476   -13678.639    75.984481 
   71600    606.12586   -108.53948   0.54843542   -107.99104    1610.2776    4.2372148    4.2372148    4.2372148    1610.2776    3818.2265    3030.1619   -2017.5554    8185.8444    4063.3079    12963.945    76.074911 
   71700     427.1776   -108.37974   0.38651927   -107.99322   -8186.5326    4.2421855    4.2421855    4.2421855   -8186.5326   -4361.2812   -12294.611   -7903.7054   -5105.6714    2414.6198   -10299.126    76.342953 
   71800    510.86634   -108.45403    0.4622426   -107.99178   -2184.2029    4.2338527    4.2338527    4.2338527   -2184.2029    4008.0841   -5163.7684   -5396.9245   -5720.0984   -994.17986   -18555.215    75.893962 
   71900    656.55593   -108.58278   0.59406561   -107.98872    -3196.729    4.2418457    4.2418457    4.2418457    -3196.729   -8637.7183    7114.1601   -8066.6287    7204.6246    2150.2245    9484.3419    76.324611 
   72000    390.27872   -108.34592   0.35313239   -107.99279   -4023.1745      4.23777      4.23777      4.23777   -4023.1745    1962.3186   -6618.5762    -7413.266   -2868.9597     4998.425   -7196.9729    76.104818 
   72100     333.5349    -108.2972   0.30178939   -107.99541   -490.30708    4.2349253    4.2349253    4.2349253   -490.30708    18637.968   -9174.0938   -10934.795   -10845.328    -412.8265   -26579.658     75.95166 
   72200    664.89494   -108.59161   0.60161092      -107.99     4312.814    4.2424438    4.2424438    4.2424438     4312.814    12031.525    6091.7326    -5184.815   -500.55735   -2800.9498    4857.2557    76.356899 
   72300    434.72376   -108.38768   0.39334719   -107.99433    3519.5151    4.2359381    4.2359381    4.2359381    3519.5151    18397.733   -1315.0936   -6524.0936    2812.0543    2341.9702   -6561.3113    76.006163 
   72400    250.19493   -108.22372   0.22638163   -107.99734   -3649.1615    4.2385773    4.2385773    4.2385773   -3649.1615     16479.03   -18500.559   -8925.9556   -6936.9314   -2019.5398   -26136.335    76.148319 
   72500    788.24796    -108.7033   0.71322332   -107.99007    2623.5226    4.2399365    4.2399365    4.2399365    2623.5226   -779.44179    6738.0646    1911.9449   -1656.2521   -2019.0888    7153.4349    76.221599 
   72600    608.44698   -108.54412   0.55053562   -107.99359    1358.2608     4.236536     4.236536     4.236536    1358.2608    629.89021    10356.141   -6911.2489     6491.742    4009.4811   -7387.1345    76.038354 
   72700    283.88861   -108.25525   0.25686838   -107.99838   -11295.578     4.238357     4.238357     4.238357   -11295.578   -2135.0608   -13992.042   -17759.632   -9724.6699     3123.409    -25376.41    76.136448 
   72800     666.0375   -108.59541   0.60264473   -107.99277   -2133.6676      4.24127      4.24127      4.24127   -2133.6676   -9309.3006    5013.1551   -2104.8573   -9167.6889    1386.7304    2901.6015    76.293541 
   72900    675.12526   -108.60174   0.61086753   -107.99087    160.65498    4.2363125    4.2363125    4.2363125    160.65498    3787.3114    3759.7403   -7065.0868     2753.393    1924.1641   -8846.7874     76.02632 
   73000    210.88061   -108.18713    0.1908092   -107.99632    -5199.388    4.2378185    4.2378185    4.2378185    -5199.388    12066.008    -19579.43   -8084.7417   -5514.4065    1901.7004   -23389.593    76.107431 
   73100    398.23858   -108.35491   0.36033464   -107.99458   -929.29348     4.242529     4.242529     4.242529   -929.29348    1592.4276   -11293.476    6913.1676   -8345.9994   -4315.5487    4656.6577    76.361501 
   73200    604.80391    -108.5369   0.54723928   -107.98966    15204.149    4.2323641    4.2323641    4.2323641    15204.149    20111.948    16041.328    9459.1697    3860.5751   -3510.6708    3111.9795    75.813942 
   73300    374.74818   -108.33364   0.33908003   -107.99455   -2817.2166    4.2422271    4.2422271    4.2422271   -2817.2166    8061.6845   -10734.726    -5778.608   -976.79614    -216.7201    -20019.57      76.3452 
   73400    432.18721   -108.38454   0.39105207   -107.99349   -2650.0012    4.2384479    4.2384479    4.2384479   -2650.0012   -5726.6786    -7456.492     5233.167   -14823.582   -1139.8046    3847.0241    76.141347 
   73500    704.94117   -108.62729   0.63784558   -107.98944    2422.0755    4.2354414    4.2354414    4.2354414    2422.0755    1802.9181    3414.7379    2048.5705    1357.6041    1465.2583    6107.2932    75.979431 
   73600    663.05996   -108.58966   0.59995058   -107.98971    -9567.382    4.2430926    4.2430926    4.2430926    -9567.382   -4723.1105   -8853.2398   -15125.796   -1712.7241    2313.7518   -21604.775    76.391937 
   73700    417.87342    -108.3699   0.37810065    -107.9918   -2927.9431     4.235486     4.235486     4.235486   -2927.9431   -9211.7907   -5241.6253    5669.5868   -16315.644    4479.2743    1498.7929    75.981829 
   73800    486.20437   -108.43219   0.43992794   -107.99226   -4527.3446    4.2391045    4.2391045    4.2391045   -4527.3446   -2963.8115   -10364.627   -253.59499    2908.8996   -1846.2992    10671.903    76.176735 
   73900    588.34806   -108.52212   0.53234969   -107.98977    4672.9827    4.2381211    4.2381211    4.2381211    4672.9827    11562.846   -1129.4273     3585.529    2972.3909    176.06839   -7690.3843    76.123735 
   74000     340.0527   -108.30115   0.30768683   -107.99346   -1022.8992    4.2395222    4.2395222    4.2395222   -1022.8992    2133.4183   -15795.949    10593.833   -15168.341   -2325.9347    462.34054    76.199258 
   74100    304.57177   -108.27035   0.27558294   -107.99476    2292.6073    4.2356336    4.2356336    4.2356336    2292.6073    1688.4127   -10186.088    15375.498   -2203.9005   -4803.2163    14315.182    75.989777 
   74200    659.00916   -108.58605   0.59628534   -107.98976    675.96752     4.241502     4.241502     4.241502    675.96752   -2374.4374   -813.03264    5215.3726    6803.5885   -1274.8797    1023.8874    76.306058 
   74300    572.39479   -108.51008   0.51791483   -107.99216    939.55551    4.2363524    4.2363524    4.2363524    939.55551   -10841.312   -598.42662    14258.405    -17872.44   -604.94005   -7374.0628    76.028467 
   74400    340.50234   -108.30403   0.30809367   -107.99594   -3975.6749    4.2356765    4.2356765    4.2356765   -3975.6749   -8057.1494   -10524.041    6654.1655     -4683.97     3505.201    13911.873    75.992083 
   74500    648.12845    -108.5787   0.58644025   -107.99226   -7772.4214    4.2436643    4.2436643    4.2436643   -7772.4214   -7264.0939   -7317.0271   -8736.1432    15146.449   -914.71835    4493.5122    76.422818 
   74600    685.48551   -108.60956    0.6202417   -107.98932    6583.2646    4.2337113    4.2337113    4.2337113    6583.2646    5357.0765     4610.646    9782.0713   -16290.741    3661.1532   -4237.9184    75.886359 
   74700    277.93694   -108.24627   0.25148318   -107.99478   -7724.2376    4.2405026    4.2405026    4.2405026   -7724.2376    -1104.983    -21791.05   -276.67992   -5275.6532   -1403.5865    13743.304    76.252135 
   74800    431.51924   -108.38465   0.39044767    -107.9942    260.72998    4.2374257    4.2374257    4.2374257    260.72998    8033.7155   -12264.296    5012.7702    14222.853   -3135.9465    9246.4938    76.086268 
   74900    676.95782   -108.60252   0.61252566   -107.98999    6433.2153    4.2373334    4.2373334    4.2373334    6433.2153    4202.6436    2258.5819     12838.42   -11160.395   -3384.7247   -3231.3076    76.081298 
   75000    386.55379    -108.3449   0.34976199   -107.99513    291.77017    4.2379547    4.2379547    4.2379547    291.77017    -8463.435   -6112.9802    15451.726   -6286.2745   -1710.8479    8342.9044    76.114771 
   75100    351.63053   -108.31385   0.31816269   -107.99569   -6088.7623     4.239614     4.239614     4.239614   -6088.7623   -11596.286    -9825.862    3155.8613    15001.284    519.75662    14380.779    76.204207 
   75200    741.43233   -108.66019   0.67086356   -107.98933    2647.8031    4.2374787    4.2374787    4.2374787    2647.8031   -7784.8934     8108.115    7620.1879    622.39166   -1785.5877   -7320.7818    76.089123 
   75300    573.11953   -108.51083   0.51857059   -107.99226     751.4029    4.2367784    4.2367784    4.2367784     751.4029    3813.3906   -2969.8594    1410.6776   -8342.3948    4968.8314     7459.841    76.051407 
   75400    292.22064   -108.26061   0.26440737    -107.9962   -11369.319    4.2403645    4.2403645    4.2403645   -11369.319   -2182.3946   -20458.217   -11467.344    14401.465   -1642.9647     18381.26    76.244684 
   75500    559.33413   -108.49939   0.50609727   -107.99329    3277.2133    4.2365123    4.2365123    4.2365123    3277.2133    8828.2768    779.30228    224.06073     2245.988   -3020.8197   -10974.178    76.037078 
   75600    611.97057   -108.54383   0.55372384    -107.9901    3473.9189    4.2395407    4.2395407    4.2395407    3473.9189    5030.9597    1085.1481    4305.6488   -8785.0835    -2779.512    2154.0717    76.200253 
   75700    247.84414   -108.21964   0.22425459   -107.99538   -3492.5314    4.2380914    4.2380914    4.2380914   -3492.5314    2584.6588   -20459.961    7397.7084    15075.829   -2283.6428    17872.783    76.122132 
   75800    454.43793   -108.40545   0.41118499   -107.99426   -972.99763    4.2368565    4.2368565    4.2368565   -972.99763    155.88236   -10587.406    7512.5307    4979.2282   -4093.4707   -7550.2954    76.055614 
   75900    732.69722   -108.65262   0.66295984   -107.98966    2376.1916    4.2393733    4.2393733    4.2393733    2376.1916   -338.62125    2932.0044    4535.1916   -1607.4279   -1008.3227   -3253.7939    76.191227 
   76000    467.79393   -108.41727   0.42326978     -107.994    -8309.465    4.2395328    4.2395328    4.2395328    -8309.465   -9244.2072   -8855.2428   -6828.9451    11142.477    4391.9231    20924.754    76.199829 
   76100    446.32606   -108.39714    0.4038452   -107.99329    -6677.671    4.2384222    4.2384222    4.2384222    -6677.671   -8185.1547   -3224.9177   -8622.9407    7623.0642   -3157.4125   -5215.7443    76.139959 
   76200     707.4023   -108.62931   0.64007247   -107.98924     2323.191    4.2379053    4.2379053    4.2379053     2323.191    1708.6723    7073.5604   -1812.6596   -2512.6082    194.06651   -14844.787    76.112105 
   76300    445.43188   -108.39541   0.40303612   -107.99238     1625.104    4.2381537    4.2381537    4.2381537     1625.104    622.24559   -9554.2834     13807.35    4195.9341    75.639715    16248.523     76.12549 
   76400    278.82628   -108.24712   0.25228788   -107.99483   -3502.4808    4.2397343    4.2397343    4.2397343   -3502.4808   -1683.8535   -21556.464    12732.875    10142.467   -5711.4625   -1485.6807    76.210694 
   76500    561.85315   -108.49864   0.50837654   -107.99027    6813.0513     4.237045     4.237045     4.237045    6813.0513    9186.7061   -1091.1199    12343.568   -6678.1276   -5597.3067   -12698.774    76.065761 
   76600    525.14391   -108.46587   0.47516125   -107.99071   -2087.4474    4.2403055    4.2403055    4.2403055   -2087.4474    6384.1507   -13301.103    654.61027    4008.0406   -452.16056    17193.565    76.241502 
   76700    402.73433   -108.35728   0.36440248   -107.99288   -3868.2266    4.2360784    4.2360784    4.2360784   -3868.2266    7817.6301   -11217.977   -8204.3329    13812.398   -1004.6802    4852.1437    76.013717 
   76800    591.31468   -108.52646   0.53503395   -107.99143   -336.06617    4.2400866    4.2400866    4.2400866   -336.06617    3907.1153   -268.82047   -4646.4934   -6777.7308   -1697.1773   -14406.719    76.229693 
   76900    591.23365   -108.52494   0.53496063   -107.98998    507.82106    4.2394959    4.2394959    4.2394959    507.82106   -2075.1014   -2459.8668    6058.4314    1089.8318    5204.9318    4092.0979    76.197841 
   77000    405.05631   -108.35857   0.36650347   -107.99206    1186.2166    4.2360873    4.2360873    4.2360873    1186.2166   -1628.2084   -7361.8713    12548.729    13309.656    2221.4487    6777.5223    76.014198 
   77100    527.22377   -108.46769   0.47704315   -107.99064   -2336.5227    4.2406393    4.2406393    4.2406393   -2336.5227    -6243.862   -8395.1588    7629.4527   -4435.5141   -2705.1374   -13119.106    76.259506 
   77200    528.66849   -108.46872   0.47835036   -107.99037    2970.1985    4.2362325    4.2362325    4.2362325    2970.1985   -672.39397   -9346.5448    18929.534   -9320.8688    -1613.048    2532.2254    76.022011 
   77300    446.07008    -108.3957   0.40361358   -107.99209    -7295.123    4.2391907    4.2391907    4.2391907    -7295.123    27.909061   -20341.031   -1572.2473    13308.335    1081.3716    14661.148    76.181385 
   77400    510.23348   -108.45203   0.46166998   -107.99036   -2932.8528    4.2392955    4.2392955    4.2392955   -2932.8528    4013.8139   -11986.974   -825.39797    1409.7359   -5588.3479   -7840.6383    76.187036 
   77500    529.96305   -108.46993    0.4795217   -107.99041   -394.37805    4.2364517    4.2364517    4.2364517   -394.37805   -995.50743   -7307.3186    7119.6919   -17570.729    1033.7588   -1686.2135    76.033813 
   77600    444.83809   -108.39499   0.40249885   -107.99249    1030.4113    4.2365634    4.2365634    4.2365634    1030.4113    3091.5117   -9452.6313    9452.3534      13701.8    2812.0025    7477.6581    76.039829 
   77700     507.7937   -108.45164   0.45946241   -107.99218    669.20017    4.2404412    4.2404412    4.2404412    669.20017   -3826.6998   -8870.8081    14705.108    4892.8104    11.281846   -2770.0269    76.248821 
   77800    532.65132   -108.47296   0.48195411   -107.99101    4402.3642    4.2364756    4.2364756    4.2364756    4402.3642   -606.79547   -5817.9228    19631.811   -21220.851    820.31231   -7972.8349    76.035102 
   77900    478.56008    -108.4246   0.43301122   -107.99158   -1493.2483    4.2368702    4.2368702    4.2368702   -1493.2483   -4458.2575   -10570.026    10548.538    10483.914   -108.95353    8479.9676    76.056348 
   78000    504.13009   -108.44798    0.4561475   -107.99184   -3443.3916    4.2390039    4.2390039    4.2390039   -3443.3916    1468.4205   -10640.632   -1157.9639    9221.8925    2620.8198    6696.5812    76.171314 
   78100    536.32313   -108.47697   0.48527644    -107.9917   -181.56227    4.2358654    4.2358654    4.2358654   -181.56227   -2181.7312   -7549.4469    9186.4913   -19103.351    -5541.404   -6726.5313    76.002249 
   78200    464.76557   -108.41286   0.42052965   -107.99233   -2781.8383    4.2385096    4.2385096    4.2385096   -2781.8383    3809.3718   -14715.675    2560.7886    3300.0395     3242.509      5848.52    76.144672 
   78300     508.6794   -108.45143   0.46026381   -107.99116   -4886.5004    4.2389386    4.2389386    4.2389386   -4886.5004   -2412.6244   -14790.747    2543.8704    14719.689    770.34329    7567.3607    76.167795 
   78400    490.44075   -108.43484    0.4437611   -107.99108    1569.0121     4.236635     4.236635     4.236635    1569.0121    621.12244    -9920.291    14006.205   -19483.773   -1408.7412   -5198.6343    76.043684 
   78500    543.42757   -108.48283   0.49170468   -107.99113    867.17078    4.2363211    4.2363211    4.2363211    867.17078   -3116.0494   -10386.986    16104.548   -6692.0361     455.0451    -4642.236    76.026784 
   78600    458.85288   -108.40839   0.41517973   -107.99321    401.67392    4.2393286    4.2393286    4.2393286    401.67392    2618.8043   -12877.811    11464.029    19170.852      -386.38    10428.533    76.188821 
   78700     492.9508    -108.4389   0.44603225   -107.99287    3688.6222    4.2354466    4.2354466    4.2354466    3688.6222    3348.2445   -7235.0679     14952.69   -15174.339    2852.2023    1133.6235    75.979711 
   78800    532.73013   -108.47328   0.48202542   -107.99126   -563.32322    4.2392548    4.2392548    4.2392548   -563.32322     5184.264   -10169.374    3295.1404   -7767.3259   -4678.6593   -7169.8589    76.184841 
   78900    491.27815   -108.43617    0.4445188   -107.99165   -5041.8886    4.2378467    4.2378467    4.2378467   -5041.8886    913.57702   -10950.152   -5089.0906    19792.805     5356.144    10577.831    76.108949 
   79000    477.93214   -108.42428   0.43244304   -107.99184    -1925.173    4.2348561    4.2348561    4.2348561    -1925.173   -1825.1562   -6654.2863    2703.9237   -7953.4549     955.5389      6463.23    75.947934 
   79100     529.4267   -108.47087    0.4790364   -107.99184   -2868.3641    4.2402964    4.2402964    4.2402964   -2868.3641    2589.5842   -12441.285     1246.609   -12521.721   -3025.6196   -9874.0259    76.241009 
   79200    507.26708   -108.45052   0.45898591   -107.99153   -781.76302    4.2362607    4.2362607    4.2362607   -781.76302    3709.9672   -12557.821    6502.5648     10219.44    1036.6113    3425.7605    76.023532 
   79300    411.84911   -108.36538   0.37264973   -107.99273    2189.1109     4.238062     4.238062     4.238062    2189.1109    8323.6623     -13852.7     12096.37     164.7048   -459.23138    11546.971     76.12055 
   79400    567.08631    -108.5043   0.51311161   -107.99119    2538.2516     4.237193     4.237193     4.237193    2538.2516   -842.30035   -9137.2751     17594.33   -15867.311   -378.71876   -10094.062    76.073736 
   79500     495.1781   -108.44016   0.44804756   -107.99211    802.56985    4.2374648    4.2374648    4.2374648    802.56985    4052.7228   -10261.482    8616.4689    8135.9559   -3453.9778   -1769.7592    76.088376 
   79600    514.83488   -108.45855   0.46583342   -107.99272   -4893.3221     4.237787     4.237787     4.237787   -4893.3221   -5898.6539   -10003.916    1222.6039    7496.0631    8011.1093    16058.883    76.105731 
   79700    538.35154   -108.47787   0.48711178   -107.99076   -2050.3259    4.2392861    4.2392861    4.2392861   -2050.3259    800.46368   -6523.6449   -427.79651   -12985.661   -514.84562   -6314.9814    76.186526 
   79800    540.13923   -108.47948   0.48872932   -107.99075   -4715.9005    4.2368245    4.2368245    4.2368245   -4715.9005    692.48577   -9831.1865   -5009.0007    5820.1716   -3097.1636   -7447.1127    76.053891 
   79900    415.19255   -108.36786   0.37567494   -107.99219    669.51218     4.237511     4.237511     4.237511    669.51218    6419.3881   -11859.194    7448.3424    5545.2168     2735.679    16161.812    76.090866 
   80000    466.50829     -108.414    0.4221065    -107.9919    549.71165    4.2402902    4.2402902    4.2402902    549.71165   -326.40496   -13188.761    15164.301   -8128.1219   -5989.8995   -2325.3589    76.240678 
   80100    453.04886   -108.40087   0.40992813   -107.99094    9983.6381    4.2350285    4.2350285    4.2350285    9983.6381     17886.14   -7520.1118    19584.886   -2866.9597   -6103.2188   -13160.456    75.957213 
   80200    494.30401   -108.43821   0.44725666   -107.99095   -4967.3145    4.2422458    4.2422458    4.2422458   -4967.3145    6855.5266   -21695.507   -61.963175    5907.6552   -1787.7022    16705.807    76.346208 
   80300    561.29505   -108.49789   0.50787155   -107.99002    3630.3202    4.2342314    4.2342314    4.2342314    3630.3202    10796.169   -4480.5036    4575.2952   -2956.8065    3348.5005    3071.5746    75.914332 
   80400    578.98168   -108.51439   0.52387479   -107.99051   -7414.3569    4.2402168    4.2402168    4.2402168   -7414.3569   -1526.3938   -11313.622   -9403.0548   -7191.4768   -1698.0408   -15566.505    76.236717 
   80500    475.72318   -108.42176   0.43044433   -107.99131    -5909.621    4.2390446    4.2390446    4.2390446    -5909.621   -949.41992   -16359.297   -420.14647    8557.3754    3258.2431    15283.053    76.173508 
   80600    502.66102   -108.44522   0.45481825    -107.9904    2197.2729    4.2365924    4.2365924    4.2365924    2197.2729    1331.1409   -9279.5445    14540.222    332.30147    5291.0897    8165.1932     76.04139 
   80700    466.21013   -108.41219   0.42183672   -107.99036      232.292    4.2395876    4.2395876    4.2395876      232.292    1028.5589   -11779.724    11448.041   -4827.8674    -8757.784   -17456.912    76.202782 
   80800    398.52232   -108.35265   0.36059137   -107.99206   -1332.7872    4.2366446    4.2366446    4.2366446   -1332.7872    10422.155   -16946.429    2525.9125    5654.9776   -3663.8999    12159.512    76.044202 
   80900    546.01985   -108.48472   0.49405024   -107.99067   -3250.8783    4.2403666    4.2403666    4.2403666   -3250.8783    8750.1854   -16999.885   -1502.9353     3992.687    -2734.745    13104.538    76.244799 
   81000    603.37747   -108.53554   0.54594862    -107.9896    3650.9005    4.2362355    4.2362355    4.2362355    3650.9005    16311.305   -8418.9697    3060.3665   -2634.1691   -3776.8369   -17430.169    76.022174 
   81100    421.38053   -108.37413   0.38127396   -107.99285   -3728.5007    4.2390362    4.2390362    4.2390362   -3728.5007    16357.182   -21879.614   -5663.0696   -1795.6641   -289.56928    8565.8234    76.173057 
   81200     500.0123   -108.44479   0.45242164   -107.99237    4528.0732    4.2378258    4.2378258    4.2378258    4528.0732    13782.596    -15302.66    15104.283    8761.5409    1305.1905    17481.441    76.107822 
   81300    665.07771   -108.59152   0.60177628   -107.98974     5316.726    4.2360568    4.2360568    4.2360568     5316.726    2972.8805   -6117.5043    19094.802   -3639.9487    5008.3241   -14483.338    76.012556 
   81400    351.71575   -108.31222    0.3182398   -107.99399   -7986.3675    4.2401061    4.2401061    4.2401061   -7986.3675    5151.2832   -20882.425   -8227.9603   -3469.6111   -6914.1662    5869.1751    76.230744 
   81500    447.64432   -108.39822   0.40503799   -107.99318   -6385.2731    4.2355367    4.2355367    4.2355367   -6385.2731   -252.65289   -17230.404   -1672.7623    11294.617    2138.2966     21839.69    75.984556 
   81600    639.31362   -108.56846   0.57846439   -107.98999    3806.4947    4.2386076    4.2386076    4.2386076    3806.4947    12101.485   -7678.1483    6996.1475     2517.367   -1551.9501   -8923.8535    76.149952 
   81700    440.82051   -108.39294   0.39886366   -107.99408   -3241.3191    4.2366339    4.2366339    4.2366339   -3241.3191     10240.19   -16734.915   -3229.2317   -919.78209   -4253.0877    501.66853    76.043627 
   81800     253.9511   -108.22742    0.2297803   -107.99764   -683.06319    4.2370066    4.2370066    4.2370066   -683.06319    11347.342   -24811.352     11414.82    10957.178    1141.7766    19474.605    76.063695 
   81900    696.47252   -108.62159   0.63018297   -107.99141    2676.9574    4.2396232    4.2396232    4.2396232    2676.9574    1219.2227   -13473.977    20285.627    10106.253   -1811.8602   -4188.6768    76.204703 
   82000    622.14341   -108.55539   0.56292843   -107.99246    7491.1873    4.2330967    4.2330967    4.2330967    7491.1873    21185.215   -7068.8488    8357.1958   -5427.9741    2592.3685   -625.80575    75.853314 
   82100    319.26366   -108.28608   0.28887647    -107.9972   -14278.956    4.2421143    4.2421143    4.2421143   -14278.956   -404.92293   -34241.778   -8190.1682    10738.872   -6991.9197    21043.152    76.339111 
   82200    633.74676   -108.56681   0.57342738   -107.99338    4600.5836    4.2343486    4.2343486    4.2343486    4600.5836    3275.4604   -9274.2503    19800.541    10613.104    4452.0201    103.65111    75.920632 
   82300     703.1496   -108.62707   0.63622454   -107.99085    1838.8986    4.2383411    4.2383411    4.2383411    1838.8986    2992.0681   -7155.9672     9680.595   -5905.2334   -873.50579    3011.1717    76.135588 
   82400    210.21934   -108.18794   0.19021088   -107.99773   -6934.8539    4.2383081    4.2383081    4.2383081   -6934.8539    3159.6551   -27905.617    3941.4001    10347.503   -3001.6716    17728.115    76.133812 
   82500    398.40966   -108.35682   0.36048943   -107.99633    1874.4532    4.2361018    4.2361018    4.2361018    1874.4532    7204.7176   -17812.988     16231.63    14288.792    4232.7763    1490.1032    76.014974 
   82600    696.02272   -108.61928   0.62977598    -107.9895    7396.3972    4.2392968    4.2392968    4.2392968    7396.3972    10787.145   -6383.7576    17785.805   -3389.8165     947.6988   -1209.7472    76.187103 
   82700    414.61924   -108.37072    0.3751562   -107.99556   -5141.1848    4.2347952    4.2347952    4.2347952   -5141.1848    10931.219   -21891.528   -4463.2456    9292.4493   -1126.2915    15530.234     75.94466 
   82800     356.9393   -108.32097   0.32296618     -107.998    -6957.338    4.2376946    4.2376946    4.2376946    -6957.338    -6296.983   -24424.719    9849.6882    17413.082   -3484.6797    4239.8747    76.100755 
   82900    775.06653   -108.69264   0.70129648   -107.99134    1591.7717    4.2384638    4.2384638    4.2384638    1591.7717   -381.66701   -6207.1585     11364.14   -6292.9327    7446.7087   -5012.7389    76.142202 
   83000    513.54245   -108.45823     0.464664   -107.99356   -1307.8714    4.2375077    4.2375077    4.2375077   -1307.8714    2317.8658   -15228.004    8986.5242    5928.8084   -5233.9954    15540.643    76.090688 
   83100    294.72547   -108.26249    0.2666738   -107.99581   -2561.0387    4.2367351    4.2367351    4.2367351   -2561.0387   -4406.4023   -20641.931    17365.217    17167.676   -236.32786    3676.8628    76.049075 
   83200    619.07149   -108.55182   0.56014889   -107.99167    2171.7677    4.2374766    4.2374766    4.2374766    2171.7677    1290.6487   -4817.2131    10041.867   -7850.2219     5650.259   -3902.7879    76.089014 
   83300    550.39232   -108.49076   0.49800654   -107.99275    2568.5062    4.2356113    4.2356113    4.2356113    2568.5062    10048.714    -5436.934    3093.7384    3808.6654   -1069.0286    6673.9473    75.988575 
   83400    336.08902   -108.30003    0.3041004   -107.99593   -8249.3662    4.2394436    4.2394436    4.2394436   -8249.3662   -7567.0582   -21681.717    4500.6766     18723.41   -4115.3156    9518.7776    76.195019 
   83500     492.9096   -108.43846   0.44599496   -107.99246    4595.9316    4.2383157    4.2383157    4.2383157    4595.9316   -1132.8576   -8090.4291    23011.082   -6806.1348    2743.5515   -5488.1892    76.134219 
   83600    659.40196   -108.58596   0.59664075   -107.98932    3885.4802    4.2347857    4.2347857    4.2347857    3885.4802    4597.9781   -5849.0033    12907.466    365.93793     5056.022    550.41918    75.944149 
   83700    379.00616   -108.33718   0.34293274   -107.99424   -1653.9642    4.2389735    4.2389735    4.2389735   -1653.9642   -4389.6855   -20182.347     19610.14    18449.576    -4472.809    10327.511    76.169677 
   83800    521.52748   -108.46566   0.47188903   -107.99377   -2652.3149    4.2371545    4.2371545    4.2371545   -2652.3149    1199.5662   -11927.876    2771.3653   -4597.6636    6626.4748   -6217.2471    76.071662 
   83900    610.62596   -108.54345    0.5525072   -107.99094    2539.1315    4.2363923    4.2363923    4.2363923    2539.1315    10569.191   -5824.0846    2872.2875   -4821.1941    3384.0883   -5835.8852    76.030617 
   84000     473.7391   -108.42104   0.42864909   -107.99239   -9274.1838    4.2416511    4.2416511    4.2416511   -9274.1838   -9090.5539   -19350.416    618.41835    21986.742   -4561.1301    6431.2917    76.314108 
   84100    440.85515   -108.39059     0.398895    -107.9917    2438.8573      4.23447      4.23447      4.23447    2438.8573     5401.567   -4095.2367    6010.2415   -267.00744   -2554.8229    2443.6621    75.927166 
   84200    552.58804   -108.49005   0.49999328   -107.99006   -3129.7092    4.2386055    4.2386055    4.2386055   -3129.7092   -5772.1604   -5522.1102    1905.1431   -6602.0681    2888.2006   -9366.4101    76.149839 
   84300    407.08774   -108.36026   0.36834154   -107.99192   -4114.7513    4.2403317    4.2403317    4.2403317   -4114.7513   -14515.368   -14091.924    16263.038    19776.006   -877.86125    5571.7998    76.242912 
   84400    459.58025   -108.40716   0.41583787   -107.99132    4581.4622     4.235001     4.235001     4.235001    4581.4622    2286.6056   -4185.9847    15643.766   -356.19494   -1387.2671    10060.089    75.955731 
   84500    528.05382   -108.46824    0.4777942   -107.99044    1456.6795    4.2397441    4.2397441    4.2397441    1456.6795    8422.4597   -6395.7223     2343.301   -7661.6527    9522.9211   -11229.337    76.211221 
   84600      489.793   -108.43456     0.443175   -107.99139     162.3232    4.2382044    4.2382044    4.2382044     162.3232     5064.974   -13357.598    8779.5932    15831.793     31.11517   -1902.9809    76.128223 
   84700    588.01641   -108.52203    0.5320496   -107.98998   -1739.3224    4.2382024    4.2382024    4.2382024   -1739.3224    5282.9502   -10105.462   -395.45518    5637.0687    -1791.353    6404.2839    76.128114 
   84800    589.40207   -108.52322   0.53330338   -107.98992   -1441.1366    4.2370736    4.2370736    4.2370736   -1441.1366    3895.8534   -5556.0365   -2663.2268   -6678.3952    1930.8719   -10414.913    76.067306 
   84900    465.58198   -108.41346   0.42126836   -107.99219   -7217.5326    4.2395529    4.2395529    4.2395529   -7217.5326   -13498.304   -14341.473     6187.179     17676.96   -3.6892111   -9233.2135    76.200915 
   85000    507.15247   -108.44994   0.45888222   -107.99106    4764.2365    4.2370903    4.2370903    4.2370903    4764.2365   -4076.1769   -2172.0424    20540.929    10420.821   -1044.6642    10209.477    76.068205 
   85100    499.89567   -108.44257   0.45231611   -107.99025    4128.8289     4.237442     4.237442     4.237442    4128.8289    827.96156    4160.0021     7398.523   -10702.698    50.590928    257.49789    76.087149 
   85200    293.40061   -108.25817   0.26547504    -107.9927   -3801.2698    4.2406587    4.2406587    4.2406587   -3801.2698   -7488.3543   -7241.2587    3325.8037    12785.641    6225.8796     -12231.3    76.260555 
   85300    498.42479   -108.44274   0.45098522   -107.99175    5175.2367    4.2336112    4.2336112    4.2336112    5175.2367    5686.2219   -2458.5249    12298.013    10395.356   -1955.3199    11573.964    75.880979 
   85400    600.56034   -108.53384   0.54339962   -107.99044    3580.5677    4.2399525    4.2399525    4.2399525    3580.5677    13264.301   -3480.6303    958.03229   -8025.5031    580.89664   -316.50808     76.22246 
   85500    446.52014   -108.39788    0.4040208   -107.99385   -8288.5968     4.239411     4.239411     4.239411   -8288.5968   -1912.3155   -15513.394   -7440.0812    13395.237    3989.3544   -17234.675    76.193262 
   85600    546.79761   -108.48734   0.49475397   -107.99259    597.60674    4.2348033    4.2348033    4.2348033    597.60674   -2864.0313    -10818.79    15475.641    18227.453   -1999.0267    4232.7706    75.945093 
   85700    744.74584   -108.66278   0.67386169   -107.98891    -3051.826    4.2411696    4.2411696    4.2411696    -3051.826   -1457.9994   -4655.7846   -3041.6941   -3963.1381    223.31214    5332.5169    76.288122 
   85800     399.3897   -108.35571    0.3613762   -107.99433   -2140.7014    4.2354371    4.2354371    4.2354371   -2140.7014   -5425.0667    -4059.691    3062.6535    8754.8793    2193.7362   -11148.689    75.979198 
   85900    353.34299   -108.31523   0.31971216   -107.99551   -3166.8219    4.2392094    4.2392094    4.2392094   -3166.8219   -9065.7463   -11462.347    11027.627    17135.412    6522.5851    -240.2947    76.182394 
   86000    648.45436   -108.57607   0.58673514   -107.98933    4230.5167    4.2389757    4.2389757    4.2389757    4230.5167    11070.041    1087.1942    534.31458   -6613.1382   -1902.3528    13081.295    76.169795 
   86100    363.46714   -108.32176   0.32887271   -107.99289    -892.6986    4.2358188    4.2358188    4.2358188    -892.6986    5540.3664   -3531.5182    -4686.944    4975.3095     2301.801   -13345.407    75.999741 
   86200    274.81005   -108.24452   0.24865391   -107.99587    -10907.07    4.2396309    4.2396309    4.2396309    -10907.07   -13148.537   -19377.165    -195.5074    22232.479    1333.2294   -4590.0042    76.205118 
   86300    677.99817   -108.60392   0.61346699   -107.99045    6323.3441    4.2368434    4.2368434    4.2368434    6323.3441    7135.4728     1448.506    10386.054   -839.68167   -4095.7007    10037.384    76.054906 
   86400    575.44646   -108.51336   0.52067605   -107.99268   -2351.8851    4.2386166    4.2386166    4.2386166   -2351.8851   -5422.4675   -1774.7486    141.56077    5010.4695    2070.4897   -10235.702    76.150437 
   86500     296.6085   -108.26526   0.26837761   -107.99689    -3923.736    4.2370315    4.2370315    4.2370315    -3923.736   -15048.326   -8165.8027    11442.921     21879.39    1616.0825   -5505.6667    76.065036 
   86600    708.54586   -108.63344   0.64110718   -107.99234    2376.7015    4.2393008    4.2393008    4.2393008    2376.7015    4515.7052    1208.8692    1405.5302   -306.42657    4637.6095    6933.4573     76.18732 
   86700    638.96241   -108.57088   0.57814662   -107.99273    8769.5119    4.2344149    4.2344149    4.2344149    8769.5119    15202.009     377.0099    10729.517   -5259.7333    1403.4019   -1113.5867      75.9242 
   86800    271.32069   -108.24302   0.24549667   -107.99753   -7315.4665    4.2410993    4.2410993    4.2410993   -7315.4665   -1074.5395   -18620.945   -2250.9147     22229.32     5675.463   -10590.357     76.28433 
   86900    598.55742   -108.53367   0.54158733   -107.99209    2309.7579    4.2387865    4.2387865    4.2387865    2309.7579    7933.5585   -4251.4917    3247.2071    5607.0176   -191.37799    4058.4493    76.159593 
   87000    651.19695   -108.57956   0.58921668   -107.99035    7562.4397    4.2329055    4.2329055    4.2329055    7562.4397    3661.9895    12263.502    6761.8274   -7336.9283   -3677.1733    2184.3194     75.84304 
   87100     240.1647   -108.21454   0.21730607   -107.99723   -13470.002     4.242273     4.242273     4.242273   -13470.002   -23612.265    -10985.48   -5812.2599    21224.852    2791.0045   -10191.094    76.347677 
   87200     490.1964   -108.43796      0.44354   -107.99442     2799.538    4.2368442    4.2368442    4.2368442     2799.538   -246.41336    5150.2912    3494.7362    6907.8489   -885.06563    420.76767     76.05495 
   87300    690.80465   -108.61427   0.62505456   -107.98922    4410.7658     4.237501     4.237501     4.237501    4410.7658    3886.4064    1039.3592    8306.5318   -12812.291    1521.8476    2089.5092    76.090326 
   87400    266.49198   -108.23718   0.24112755   -107.99605   -8042.0085    4.2398064    4.2398064    4.2398064   -8042.0085   -4132.8377   -17883.068   -2110.1194    16187.885    3371.8026    -8282.703    76.214582 
   87500    473.35015   -108.42405   0.42829716   -107.99576   -117.45825     4.236571     4.236571     4.236571   -117.45825     4256.586   -3554.2418   -1054.7189     16323.08    5867.8539   -7749.5137    76.040239 
   87600    759.35061   -108.67781   0.68707639   -107.99073    10161.259    4.2356905    4.2356905    4.2356905    10161.259    11346.576    11085.142    8052.0603   -11459.325    496.67119    1841.1981    75.992839 
   87700     301.5916   -108.26972   0.27288642   -107.99683   -6389.7668    4.2436909    4.2436909    4.2436909   -6389.7668   -13480.795   -6961.5598     1273.054    12510.826    322.99704   -7816.6453    76.424258 
   87800    442.00895   -108.39375   0.39993899   -107.99382   -1230.1574    4.2361135    4.2361135    4.2361135   -1230.1574   -1210.6899   -2786.0219    306.23957    15766.738    4908.3373   -8076.6791    76.015606 
   87900    783.18815   -108.69676   0.70864509   -107.98812    6482.4547    4.2363639    4.2363639    4.2363639    6482.4547    4538.0483    7013.8896    7895.4263   -14209.267    -3751.365    2578.5376    76.029086 
   88000    440.14323    -108.3933   0.39825084   -107.99505   -9905.7806    4.2413772    4.2413772    4.2413772   -9905.7806   -10850.296   -21175.551    2308.5054    8762.9295    84.712177   -1831.2203    76.299326 
   88100     298.2143   -108.26694   0.26983056   -107.99711   -2496.0476    4.2363754    4.2363754    4.2363754   -2496.0476     2252.649   -7073.7772   -2667.0146    20719.557    3809.5723   -8826.9299    76.029705 
   88200    690.32892   -108.61461   0.62462412   -107.98999    6713.4137    4.2392528    4.2392528    4.2392528    6713.4137    7149.3792     15373.42    -2382.558   -5101.5384   -2106.5539     2636.083    76.184734 
   88300    454.20045   -108.40445   0.41097011   -107.99348   -116.84001    4.2396002    4.2396002    4.2396002   -116.84001   -8804.9834    2681.2793    5773.1841    8444.4536    3445.6961   -1462.4846    76.203463 
   88400    285.80008   -108.25448   0.25859792   -107.99588   -4662.2065    4.2360948    4.2360948    4.2360948   -4662.2065   -4409.2405   -8246.7465   -1330.6325    20477.361    2242.5741   -14621.282    76.014601 
   88500    706.13574   -108.62993   0.63892646     -107.991   -271.63326    4.2387464    4.2387464    4.2387464   -271.63326    8089.7161   -7892.3431   -1012.2727    -6693.157     1727.555     957.3544    76.157433 
   88600    586.23778   -108.52236   0.53044027   -107.99192    -3151.089    4.2411086    4.2411086    4.2411086    -3151.089   -4133.5527   -15884.142    10564.427    4381.9132   -310.62665    2024.7878    76.284831 
   88700    296.99717   -108.26325   0.26872928   -107.99452   -1287.4137    4.2359533    4.2359533    4.2359533   -1287.4137   -6314.2439   -10442.624    12894.627     20169.42    2084.4279   -7777.3947    76.006981 
   88800    538.34421   -108.47934   0.48710515   -107.99223    4143.0317    4.2386501    4.2386501    4.2386501    4143.0317    11345.868    5843.1504   -4759.9232   -2373.6251    2615.5159     954.5144    76.152242 
   88900    586.51421   -108.52129   0.53069038    -107.9906    1938.2332    4.2394613    4.2394613    4.2394613    1938.2332   -803.95806   -1557.7693     8176.427    8057.4265   -4833.7536    7365.5879    76.195971 
   89000    377.55486   -108.33546   0.34161957   -107.99384   -4939.1708    4.2374785    4.2374785    4.2374785   -4939.1708   -6274.7283   -17619.756    9076.9714    21380.548    5249.6893   -11371.915    76.089112 
   89100    531.67884   -108.47297   0.48107418    -107.9919    -1090.198    4.2391442    4.2391442    4.2391442    -1090.198    16404.503   -13425.422    -6249.675   -2021.1411    153.56322   -2908.7643    76.178879 
   89200    647.35905   -108.57497   0.58574408   -107.98922    2294.6728    4.2391479    4.2391479    4.2391479    2294.6728    5035.0951    -7684.687    9533.6104    1718.1773    929.88461    8951.7678    76.179079 
   89300    426.50293   -108.37831   0.38590882    -107.9924   -151.68491    4.2373897    4.2373897    4.2373897   -151.68491   -11286.619   -3400.7061     14232.27    16693.955    3808.1644   -5183.5131     76.08433 
   89400    403.86312   -108.35812   0.36542384    -107.9927   -187.64536     4.238809     4.238809     4.238809   -187.64536    4269.6275   -280.65665    -4551.907   -1034.5274     1935.473    300.64615    76.160809 
   89500    568.90153   -108.50448   0.51475406   -107.98972    111.09369    4.2401807    4.2401807    4.2401807    111.09369    2067.9098   -1968.4428    233.81404    2782.5017    2081.4204    10986.873    76.234772 
   89600    510.40446   -108.45237   0.46182468   -107.99054   -378.64357     4.236678     4.236678     4.236678   -378.64357   -10571.475   -11915.245    21350.789    21793.494   -3389.9116   -2912.5398    76.045999 
   89700     444.3465   -108.39401   0.40205405   -107.99195   -6376.1143    4.2389206    4.2389206    4.2389206   -6376.1143    7891.7862   -19348.644   -7671.4855    3489.8053    3483.4037   -8529.0972    76.166822 
   89800    546.09068   -108.48505   0.49411432   -107.99094   -6408.1208    4.2410176    4.2410176    4.2410176   -6408.1208      11044.8   -21957.293   -8311.8692   -1119.5638   -1840.2339    7749.6536     76.27992 
   89900     581.9644   -108.51608   0.52657362    -107.9895    3465.4074    4.2352037    4.2352037    4.2352037    3465.4074   -1155.6587    -5529.184    17081.065    13168.527   -2100.5537   -1089.3238    75.966638 
   90000    392.42457   -108.34741   0.35507399   -107.99233   -1170.5215    4.2411568    4.2411568    4.2411568   -1170.5215    3228.9649   -4392.4894   -2348.0401   -394.98831    5780.6067   -3366.9074    76.287433 
   90100    415.39839   -108.36823   0.37586119   -107.99237    4233.9327    4.2387119    4.2387119    4.2387119    4233.9327    12287.602   -2398.4842    2812.6807   -7306.4367    68.888657    12361.925    76.155575 
   90200    619.15422   -108.54923   0.56022375   -107.98901    7773.7509    4.2361141    4.2361141    4.2361141    7773.7509   -4663.3603    3571.4696    24413.144    9203.1294     2686.962    5182.7722    76.015639 
   90300    492.41613   -108.43732   0.44554846   -107.99177    -4035.121    4.2402121    4.2402121    4.2402121    -4035.121   -3990.0515   -11499.175    3383.8634    4087.3327    1496.6663   -5861.7211    76.236465 
   90400    386.71578   -108.34348   0.34990856   -107.99357   -8472.0335    4.2381023    4.2381023    4.2381023   -8472.0335    8395.6055   -24086.401   -9725.3054   -4699.1145    2272.4468    4230.4929    76.122721 
   90500    630.74575    -108.5609   0.57071201   -107.99019    242.61895    4.2376923    4.2376923    4.2376923    242.61895   -1602.7585   -7509.4927     9840.108    6377.7611   -1790.7844     3769.061    76.100633 
   90600    583.81132   -108.51853   0.52824475   -107.99028   -1817.8416    4.2397883    4.2397883    4.2397883   -1817.8416    -5430.374   -936.72064    913.56974    5549.2361   -6386.8814   -7275.3823    76.213604 
   90700    259.77393   -108.22965   0.23504891    -107.9946   -4554.7852    4.2368779    4.2368779    4.2368779   -4554.7852    11241.793   -20257.808   -4648.3414     -5319.87    4122.1569    7827.2984    76.056765 
   90800    519.08883   -108.46374   0.46968249   -107.99406    2525.2545     4.236621     4.236621     4.236621    2525.2545   -798.16399   -7194.9509    15568.878    -3200.357   -6491.4599    8776.5554     76.04293 
   90900    679.27241   -108.60505   0.61461995   -107.99043    3971.9759    4.2399833    4.2399833    4.2399833    3971.9759   -4265.3038   -1290.2737    17471.505    3105.6513   -4011.4242   -635.16405    76.224124 
   91000    378.31422   -108.33776   0.34230666   -107.99545   -4115.0706    4.2365775    4.2365775    4.2365775   -4115.0706    9580.9676   -21677.557   -248.62219   -6938.8875    4299.3968    3433.2955    76.040589 
   91100    481.48092   -108.43035   0.43565406    -107.9947    -4922.872    4.2377006    4.2377006    4.2377006    -4922.872    4675.3346   -19380.753   -63.197163   -6688.9143    -4360.061    4304.5104    76.101081 
   91200    756.06227   -108.67393   0.68410103   -107.98983    2177.6413    4.2375829    4.2375829    4.2375829    2177.6413   -4763.5157    4173.0344    7123.4052    2521.9191   -3499.9744   -1822.8545     76.09474 
   91300     414.7208   -108.37049    0.3752481   -107.99524   -4575.6342    4.2374708    4.2374708    4.2374708   -4575.6342    7517.3368   -18591.958   -2652.2812   -4136.3806   -1382.2058    1813.2483    76.088699 
   91400    251.24477   -108.22481   0.22733155   -107.99747    710.67441    4.2366036    4.2366036    4.2366036    710.67441    3565.7324   -15588.694    14154.985   -6472.6338   -570.48702    8716.2359    76.041996 
   91500    663.46822   -108.59199   0.60031999   -107.99167    3406.9917    4.2387788    4.2387788    4.2387788    3406.9917   -7213.5105    9329.2333    8105.2523    1023.3776   -8903.9093   -2402.7354     76.15918 
   91600    510.92284   -108.45574   0.46229372   -107.99345    317.31657    4.2362621    4.2362621    4.2362621    317.31657    4218.6804   -7108.3412    3841.6105     609.0956   -743.19265    4089.2779    76.023607 
   91700    297.31279   -108.26549   0.26901486   -107.99648   -7418.9403    4.2377702    4.2377702    4.2377702   -7418.9403    3824.8239   -28873.199    2791.5545   -8296.4105    1554.7261     2918.363    76.104829 
   91800    624.33337   -108.55754   0.56490995   -107.99263   -2598.9044    4.2389032    4.2389032    4.2389032   -2598.9044   -13607.596   -9481.6137    15292.496    1023.1227    -12062.15   -777.23111    76.165885 
   91900    621.24275   -108.55394   0.56211349   -107.99182    8935.6462    4.2336969    4.2336969    4.2336969    8935.6462    2040.8981   -405.03264    25171.073    4092.4113   -769.50226     4123.301    75.885584 
   92000    383.80192   -108.34289   0.34727205   -107.99562   -8890.8905    4.2417522    4.2417522    4.2417522   -8890.8905    1893.3652   -26204.399   -2361.6375   -8340.2711    657.21351    5376.5221    76.319563 
   92100    490.58955   -108.43745   0.44389574   -107.99355    823.37559    4.2360098    4.2360098    4.2360098    823.37559   -5250.3566    4124.5419    3595.9415    1995.7669   -9722.9064    570.06343    76.010026 
   92200    675.89273   -108.60205   0.61156195   -107.99049    2043.7069    4.2357347    4.2357347    4.2357347    2043.7069   -6129.6101    5084.3449    7176.3859    7670.7441      -2810.6   -2239.7285    75.995216 
   92300    389.22019   -108.34643   0.35217461   -107.99425   -427.28598    4.2400121    4.2400121    4.2400121   -427.28598    4952.1405   -13575.901    7341.9025     -4504.58    3017.5205    3734.9864    76.225678 
   92400    442.65352   -108.39409   0.40052221   -107.99356   -3062.6588    4.2360953    4.2360953    4.2360953   -3062.6588   -2987.4954   -10654.935    4454.4536    106.34817   -5021.0834    -3536.946    76.014626 
   92500    560.39148    -108.4982   0.50705399   -107.99115    94.883474    4.2378794    4.2378794    4.2378794    94.883474   -10882.674   -5801.3735    16968.698    14090.687   -1967.4259    366.11921    76.110712 
   92600    548.88915   -108.48822   0.49664644   -107.99158   -3326.2096      4.23778      4.23778      4.23778   -3326.2096    6414.2683    -18448.45    2055.5532   -2472.1481    5196.3277    4629.3842    76.105358 
   92700    355.04536   -108.31533    0.3212525   -107.99408   -5063.0103    4.2376779    4.2376779    4.2376779   -5063.0103   -1830.8352   -17450.557    4092.3612   -2529.4756   -4894.8336    1589.5518    76.099853 
   92800    476.22359   -108.42444   0.43089711   -107.99354    668.86697    4.2354355    4.2354355    4.2354355    668.86697   -14584.084   -2805.1184    19395.803    18965.601   -3615.5162   -1696.0602    75.979113 
   92900    592.44244   -108.52742   0.53605437   -107.99136    3281.9506    4.2398366    4.2398366    4.2398366    3281.9506    164.31054   -3670.9024    13352.444    544.97044    59.071673     515.0346    76.216211 
   93000    457.32307   -108.40764   0.41379553   -107.99384    965.33839    4.2356646    4.2356646    4.2356646    965.33839    8122.3099   -12968.954     7742.659   -2673.3212   -2658.8456    1203.2343    75.991445 
   93100    398.29464   -108.35657   0.36038536   -107.99618   -4767.1847    4.2369604    4.2369604    4.2369604   -4767.1847   -13915.478    -19551.61    19165.534    21087.547   -6180.5087   -2087.8129    76.061208 
   93200    723.23745   -108.64588   0.65440044   -107.99148    2106.7748    4.2396255    4.2396255    4.2396255    2106.7748    1030.8563   -8074.1651    13363.633    5057.6372    1456.0661    2522.9142    76.204829 
   93300    657.77128   -108.58789   0.59516528   -107.99273    2875.2605    4.2345985    4.2345985    4.2345985    2875.2605    12729.407   -7264.6488    3161.0235   -2697.7653    3013.8249    2254.4904    75.934076 
   93400     227.4318   -108.20441   0.20578507   -107.99862    -8965.664    4.2392785    4.2392785    4.2392785    -8965.664   -15287.453   -19140.295    7530.7562     21272.09   -5989.5749   -722.63282    76.186118 
   93500    580.79662   -108.52105   0.52551698   -107.99554    4054.4159    4.2373923    4.2373923    4.2373923    4054.4159    6667.7757    -2965.018    8460.4901    8061.2516    4098.6426   -1500.2153    76.084468 
   93600    697.73563   -108.62352   0.63132587    -107.9922    7353.8022    4.2357996    4.2357996    4.2357996    7353.8022     13584.67   -3047.2935     11524.03    -2943.997   -681.09691   -106.70872    75.998709 
   93700     139.1781   -108.12683   0.12593127    -108.0009   -9579.8356    4.2387223    4.2387223    4.2387223   -9579.8356   -11841.954   -30868.717    13971.164    22065.593   -3972.2309    -3558.987    76.156132 
   93800     379.8844   -108.34308   0.34372738   -107.99935   -2714.2279    4.2388166    4.2388166    4.2388166   -2714.2279   -5448.4137   -14902.655    12208.385    5900.1192   -3411.0576   -1391.1531    76.161217 
   93900    795.69182   -108.71069   0.71995868   -107.99073    11802.971    4.2348306    4.2348306    4.2348306    11802.971    23278.387   -1985.5075    14116.033   -6546.0153   -156.34412     -122.694    75.946561 
   94000    369.14022   -108.33264   0.33400583   -107.99864   -7922.3202    4.2395263    4.2395263    4.2395263   -7922.3202   -10612.154   -22337.242    9182.4351    22339.286   -730.06512    604.06803     76.19948 
   94100    318.50487   -108.28793    0.2881899   -107.99974   -5986.8073    4.2380071    4.2380071    4.2380071   -5986.8073   -753.95495   -17121.774   -84.692528    5400.4679   -6693.6303   -543.36894    76.117589 
   94200    807.56322   -108.72283   0.73070017   -107.99213    9229.5634    4.2338088    4.2338088    4.2338088    9229.5634    14719.166    8974.1457    3995.3786    -7643.383     2471.503    1469.1108    75.891604 
   94300    571.13916   -108.51203   0.51677871   -107.99525   -4562.0011    4.2418361    4.2418361    4.2418361   -4562.0011   -3568.9866   -11926.115    1809.0979    20675.586   -2435.5372    1015.3007    76.324093 
   94400    325.27075   -108.29091   0.29431181    -107.9966    -3456.807    4.2362083    4.2362083    4.2362083    -3456.807   -1089.6367   -10981.466     1700.682     5755.755   -5889.3212   -3341.7137    76.020711 
   94500    608.12789   -108.54299   0.55024689   -107.99274    1686.8709    4.2353484    4.2353484    4.2353484    1686.8709    13846.592   -13776.735    4990.7549   -12540.291    909.57559    605.94621    75.974423 
   94600    591.75929   -108.52749   0.53543624   -107.99205   -2592.2195    4.2399081    4.2399081    4.2399081   -2592.2195   -5040.6294   -14524.491    11788.462    12645.949   -854.46744   0.84231303    76.220066 
   94700     332.3848   -108.29609   0.30074875   -107.99535   -1235.9444    4.2364785    4.2364785    4.2364785   -1235.9444   -9852.0819   -7446.2109    13590.459    7112.0686   -3267.9424   -455.35057    76.035258 
   94800    356.58051   -108.31765   0.32264154   -107.99501     3544.606    4.2361815    4.2361815    4.2361815     3544.606    11628.818   -9146.7399    8151.7404   -13327.323   -3034.2781   -341.23983    76.019265 
   94900    591.57159   -108.52655   0.53526641   -107.99128    1567.3489    4.2392984    4.2392984    4.2392984    1567.3489    3399.0387   -6619.5943    7922.6022    7116.5088    3461.4307    2668.2099     76.18719 
   95000    544.97395   -108.48541   0.49310389   -107.99231   -1938.5877    4.2375298    4.2375298    4.2375298   -1938.5877   -7772.3653   -6732.6768    8689.2791    7443.6789   -3447.6032   -2123.3021    76.091876 
   95100     374.3716    -108.3343   0.33873929   -107.99556   -1991.4564    4.2346577    4.2346577    4.2346577   -1991.4564    1637.4461   -11234.098    3622.2823   -13704.642   -5135.2244   -1459.3615    75.937261 
   95200    608.06095   -108.54383   0.55018633   -107.99364    -4517.173    4.2418257    4.2418257    4.2418257    -4517.173    6800.9199   -15954.957    -4397.482    1494.9386    4082.4484    3560.5421    76.323532 
   95300    705.54979   -108.62886   0.63839627   -107.99046    4653.8344    4.2360821    4.2360821    4.2360821    4653.8344   -4279.6411    6343.7382    11897.406    5418.0811   -7330.4421   -28.674197    76.013916 
   95400     318.9305   -108.28426   0.28857502   -107.99568    1250.7205    4.2360195    4.2360195    4.2360195    1250.7205    4024.7015   -11527.405    11254.865   -11237.436   -5903.0571    1963.7893    76.010545 
   95500    392.41391   -108.35095   0.35506436   -107.99588   -3979.2573    4.2419643    4.2419643    4.2419643   -3979.2573    4686.5374   -19315.897    2691.5877   -2625.6536    874.98454    4937.0994    76.331014 
   95600    706.36819   -108.62903   0.63913679   -107.98989    10965.722    4.2337658    4.2337658    4.2337658    10965.722    5960.1338    5664.3742    21272.659    4619.7692   -3950.9015    1193.9239    75.889289 
   95700    399.44606   -108.35775   0.36142719   -107.99632   -4644.7514    4.2402647    4.2402647    4.2402647   -4644.7514   -7011.5401   -12061.452     5138.738   -10032.251   -3841.3971   -993.82481      76.2393 
   95800    316.50888   -108.28278   0.28638388    -107.9964   -8923.9484     4.239158     4.239158     4.239158   -8923.9484    13003.588   -32651.162   -7124.2707   -8628.4627    212.17402    1413.8822    76.179619 
   95900      745.771   -108.66456   0.67478927   -107.98977    968.28573    4.2367229    4.2367229    4.2367229    968.28573    3054.9996    -6272.795    6122.6525    2777.5013    2427.1933    -920.6067    76.048419 
   96000    527.43116   -108.47001    0.4772308   -107.99278   -1306.7578      4.23976      4.23976      4.23976   -1306.7578   -9919.9099   -4525.8994    10525.536   -9909.8216   -3817.2838    605.36668    76.212079 
   96100    254.14023   -108.22668   0.22995142   -107.99673   -2563.8999    4.2373341    4.2373341    4.2373341   -2563.8999    5378.0844   -16248.297     3178.513   -8798.7852   -1412.6863    5154.1982    76.081333 
   96200    593.59402   -108.53018   0.53709634   -107.99308    2622.3809    4.2402006    4.2402006    4.2402006    2622.3809    5697.3594    449.73344    1720.0498    5307.8878    844.84731    2566.9911    76.235846 
   96300    670.40101   -108.59746   0.60659292   -107.99087     7252.772    4.2353581    4.2353581    4.2353581     7252.772   -3879.9255    8227.1003    17411.141   -1865.6017   -9180.4235    1546.6847    75.974947 
   96400    324.40548   -108.28902   0.29352889   -107.99549   -8518.9021    4.2418475    4.2418475    4.2418475   -8518.9021     6767.581   -28284.309   -4039.9784   -7401.8358   -1902.7124    4201.7854     76.32471 
   96500    546.48576   -108.48704    0.4944718   -107.99257   -3167.1984    4.2364126    4.2364126    4.2364126   -3167.1984    14251.036   -21124.618   -2628.0133    3899.1168   -485.25459   -1697.0327     76.03171 
   96600    658.43353   -108.58586    0.5957645   -107.99009    4997.2773    4.2379603    4.2379603    4.2379603    4997.2773    1040.6524   -2053.5816    16004.761    3013.0936   -4491.4369    -1954.314    76.115068 
   96700    409.06998   -108.36403   0.37013512   -107.99389   -5516.9547    4.2403201    4.2403201    4.2403201   -5516.9547    5670.5328   -19918.008   -2303.3889   -10687.448    2220.6976     6944.194    76.242288 
   96800    303.96745   -108.26957   0.27503613   -107.99454    1590.2606    4.2360866    4.2360866    4.2360866    1590.2606    17218.835   -11726.369   -721.68481       584.02    773.50404    752.03437    76.014157 
   96900    601.64124   -108.53481   0.54437764   -107.99043    -459.8318    4.2401337    4.2401337    4.2401337    -459.8318   -11658.796   -2610.1263    12889.427    9577.9644    2968.1499   -31.949761    76.232234 
   97000    514.86607   -108.45737   0.46586164   -107.99151    3295.2506    4.2364581    4.2364581    4.2364581    3295.2506    6156.9847    1123.0032    2605.7638   -3210.2525   -2265.3032    7710.1084    76.034157 
   97100    429.03609   -108.38205   0.38820087   -107.99385   -11447.615    4.2394189    4.2394189    4.2394189   -11447.615     3928.149   -22180.632   -16090.361     892.9824     1481.104    684.96368    76.193687 
   97200    531.41614   -108.47325   0.48083649   -107.99242    57.860934    4.2375213    4.2375213    4.2375213    57.860934    11.908769   -6974.5088    7136.1828    16039.448     2305.602   -5731.5083    76.091417 
   97300    698.93353   -108.62214   0.63240974   -107.98973   -2281.7205    4.2388313    4.2388313    4.2388313   -2281.7205   -893.40589   -5338.1596   -613.59615    2281.1415   -7231.4117    4996.3173    76.162009 
   97400    380.76289   -108.33857   0.34452226   -107.99405   -1110.8236    4.2366207    4.2366207    4.2366207   -1110.8236    16703.147    -11465.13   -8570.4879   -4633.3363    3455.1027     4587.919    76.042912 
   97500    390.35483   -108.34892   0.35320125   -107.99572   -155.11548    4.2371723    4.2371723    4.2371723   -155.11548   -7498.5445   -5398.5114     12431.71     16562.24   -403.01662   -4849.9013    76.072618 
   97600    588.15529   -108.52368   0.53217527   -107.99151    3919.5574    4.2404941    4.2404941    4.2404941    3919.5574    4960.0516   -3131.9846    9930.6052     5027.631     926.4115    5551.9056    76.251675 
   97700     557.2283   -108.49613   0.50419187   -107.99194    2454.0007    4.2327098    4.2327098    4.2327098    2454.0007    18357.975   -15581.523    4585.5503   -3130.4394    1217.6324     5853.299    75.832521 
   97800    308.91354   -108.27548   0.27951146   -107.99597   -10414.182    4.2430607    4.2430607    4.2430607   -10414.182   -2737.6365   -29726.479    1221.5699    17666.989    1921.3182   -7265.4505    76.390216 
   97900    622.48405   -108.55519   0.56323665   -107.99196    3510.1055    4.2350033    4.2350033    4.2350033    3510.1055   -2376.3624    3292.9364    9613.7424     8937.194    5488.7235   -168.48518    75.955855 
   98000    623.99109   -108.55582   0.56460025   -107.99122    4806.0709    4.2361824    4.2361824    4.2361824    4806.0709    18587.787    612.28623   -4781.8608   -5956.9922   -5000.6436    4545.8598    76.019314 
   98100    329.00611   -108.29359   0.29769164    -107.9959   -5834.4015    4.2411188    4.2411188    4.2411188   -5834.4015   -1872.6961   -9383.6884   -6246.8199     13070.59    6243.3182   -5497.2129     76.28538 
   98200      487.842   -108.43565   0.44140969   -107.99424    5181.1068    4.2341789    4.2341789    4.2341789    5181.1068    6116.6583   -2641.5501    12068.212    11573.455    2400.7249   -730.88195    75.911505 
   98300    690.69705   -108.61532    0.6249572   -107.99036   -1132.5717    4.2394596    4.2394596    4.2394596   -1132.5717    2224.9732   -7257.8969    1635.2087   -9373.4845   -3099.7955    5413.3305    76.195883 
   98400    399.64696   -108.35587   0.36160897   -107.99426   -3813.1131    4.2380836    4.2380836    4.2380836   -3813.1131    2669.9548   -17846.228    3736.9333    12271.615    3354.2037   -4761.2692    76.121714 
   98500    370.04951   -108.33022   0.33482858   -107.99539   -186.10899    4.2366193    4.2366193    4.2366193   -186.10899   -4346.9196   -8582.4193    12371.012    12527.035    1290.4047   -6121.7896     76.04284 
   98600     623.0049   -108.55523   0.56370793   -107.99152    5243.8876    4.2364387    4.2364387    4.2364387    5243.8876    6598.7199   -2039.4392    11172.382   -12506.094    3474.9092    2312.7323    76.033112 
   98700    487.22893   -108.43451   0.44085497   -107.99365   -3501.6171    4.2408981    4.2408981    4.2408981   -3501.6171    4640.3006   -12470.489   -2674.6627    7418.4378    -3353.533   -5690.9488     76.27347 
   98800    377.29164    -108.3363   0.34138141   -107.99492   -1889.9151    4.2350199    4.2350199    4.2350199   -1889.9151   -4560.4088   -4135.6351    3026.2984    14298.714     8311.564   -5552.3601    75.956751 
   98900    621.13125   -108.55381    0.5620126   -107.99179   -980.38687    4.2376354    4.2376354    4.2376354   -980.38687   -1956.2672    -5855.828    4870.9346    -11843.37    3214.2634    2999.5188    76.097567 
   99000    650.46052   -108.57967   0.58855035   -107.99112   -5273.2967    4.2409137    4.2409137    4.2409137   -5273.2967    396.27923    -11848.99   -4367.1797     2290.162   -7851.9533   -2889.0707    76.274314 
   99100    386.95753   -108.34435    0.3501273   -107.99422    2357.3045    4.2327239    4.2327239    4.2327239    2357.3045     5650.147   -4440.6884    5862.4548    13590.167    7668.9419   -4097.9198    75.833276 
   99200    436.96503   -108.38967   0.39537514   -107.99429    -5325.999    4.2413296    4.2413296    4.2413296    -5325.999   -13560.023   -4849.6217    2431.6473   -14816.444    1308.1356    834.84602    76.296755 
   99300     581.0971   -108.51623   0.52578887   -107.99044     2499.999    4.2373461    4.2373461    4.2373461     2499.999    2388.4429    4261.4635     850.0906   -7206.5247   -3765.4431   -1691.3418    76.081979 
   99400    385.26572   -108.34211   0.34859652   -107.99351    2288.4309    4.2360271    4.2360271    4.2360271    2288.4309   -3410.6928    2971.9696    7304.0159    13136.857    412.16692   -7100.2549    76.010955 
   99500      387.843   -108.34509    0.3509285   -107.99416   -3351.4942    4.2388851    4.2388851    4.2388851   -3351.4942   -4801.0998   -13980.599    8727.2159   -8818.5257    8523.1712   -1020.4974    76.164908 
   99600    616.97103   -108.54924   0.55824835   -107.99099   -1411.8065     4.238493     4.238493     4.238493   -1411.8065   -1068.4134   -8442.9125    5275.9063    -8347.971   -2498.6716    735.43406    76.143774 
   99700    598.36155   -108.53319   0.54141011   -107.99178   -1798.9091    4.2364342    4.2364342    4.2364342   -1798.9091    2483.8429   -5472.8952   -2407.6749    13684.226   -7990.3507    -5584.806     76.03287 
   99800    416.81177   -108.37113   0.37714005   -107.99399   -366.65853    4.2379533    4.2379533    4.2379533   -366.65853    1146.7268   -10360.255    8113.5531   -7099.2899    11881.183   -1639.8914    76.114696 
   99900    576.38339   -108.51396    0.5215238   -107.99243   -4233.1935    4.2404246    4.2404246    4.2404246   -4233.1935   -3468.4573    -4539.609   -4691.5142   -14067.359   -9215.4221    1957.4136    76.247924 
  100000    553.83378   -108.49233   0.50112044    -107.9912    11111.736    4.2336524    4.2336524    4.2336524    11111.736    9450.7349    14512.252     9372.223    4711.2646   -12122.006   -4113.8869    75.883191 
Loop time of 22.6229 on 1 procs for 100000 steps with 8 atoms

Pair  time (%) = 7.58488 (33.5275)
Kspce time (%) = 5.29238 (23.3939)
Neigh time (%) = 0 (0)
Comm  time (%) = 1.06333 (4.70024)
Outpt time (%) = 0.0240643 (0.106372)
Other time (%) = 8.65823 (38.272)

Nlocal:    8 ave 8 max 8 min
Histogram: 1 0 0 0 0 0 0 0 0 0
Nghost:    2189 ave 2189 max 2189 min
Histogram: 1 0 0 0 0 0 0 0 0 0
Neighs:    2472 ave 2472 max 2472 min
Histogram: 1 0 0 0 0 0 0 0 0 0

Total # of neighbors = 2472
Ave neighs/atom = 309
Neighbor list builds = 0
Dangerous builds = 0
unfix 20
unfix 21
print "seeds:5465246"
seeds:5465246
