LAMMPS (16 Mar 2018)
# ---- initialize simulations
clear
units metal
dimension 3
boundary p p p
atom_style charge
atom_modify map array
# ---- create atoms
read_data /home/manuelesp/repos/pypospack/dev/MgO_iterative_sampler/rank_1/MgO_NaCl_fr_c.lmps_min_pos/lammps.structure
  triclinic box = (0 0 0) to (14.142 14.142 14.142) with tilt (0 0 0)
  1 by 1 by 1 MPI processor grid
  reading atoms ...
  216 atoms
# ---- define interatomic potential
include potential.mod
mass 1 24.305
mass 2 15.999

group Mg type 1
108 atoms in group Mg
group O type 2
108 atoms in group O

set group Mg charge 1.6102951165102182
  108 settings made for charge
set group O charge -1.6102951165102182
  108 settings made for charge

variable R_cut equal 10.0

pair_style buck/coul/long ${R_cut}
pair_style buck/coul/long 10
pair_coeff 1 1 0.0 0.5 0.0 ${R_cut}
pair_coeff 1 1 0.0 0.5 0.0 10
pair_coeff 1 2 872.8291467350588 0.29889716378497794 0.0 ${R_cut}
pair_coeff 1 2 872.8291467350588 0.29889716378497794 0.0 10
pair_coeff 2 2 3727.0736816732065 0.3476815772257621 63.9105328410665 ${R_cut}
pair_coeff 2 2 3727.0736816732065 0.3476815772257621 63.9105328410665 10

kspace_style pppm 1.0e-5

neighbor 1.0 bin
neigh_modify every 1 delay 0 check yes
# ---- define settings
compute eng all pe/atom
compute eatoms all reduce sum c_eng

# ---- run minimization
reset_timestep 0
thermo 1
thermo_style custom step pe lx ly lz xy xz yz press pxx pyy pzz pxy pxz pyz c_eatoms
min_style cg
minimize 1e-20 1e-20 1000 100000
PPPM initialization ...
  using 12-bit tables for long-range coulomb (../kspace.cpp:321)
  G vector (1/distance) = 0.338487
  grid = 20 20 20
  stencil order = 5
  estimated absolute RMS force accuracy = 9.69911e-05
  estimated relative force accuracy = 6.73566e-06
  using double precision FFTs
  3d grid and FFT values/proc = 19683 8000
Neighbor list info ...
  update every 1 steps, delay 0 steps, check yes
  max neighbors/atom: 2000, page size: 100000
  master list distance cutoff = 11
  ghost atom cutoff = 11
  binsize = 5.5, bins = 3 3 3
  1 neighbor lists, perpetual/occasional/extra = 1 0 0
  (1) pair buck/coul/long, perpetual
      attributes: half, newton on
      pair build: half/bin/newton/tri
      stencil: half/bin/3d/newton/tri
      bin: standard
Per MPI rank memory allocation (min/avg/max) = 7.198 | 7.198 | 7.198 Mbytes
Step PotEng Lx Ly Lz Xy Xz Yz Press Pxx Pyy Pzz Pxy Pxz Pyz c_eatoms 
       0    -2621.275       14.142       14.142       14.142            0            0            0    24942.125    24066.811    25379.782    25379.782   -273.65102   -273.65102    -316.1336    -2621.275 
       1   -2634.8215       14.142       14.142       14.142            0            0            0    25703.291    25612.094     25748.89     25748.89   -47.083088   -47.083088   -5.7456603   -2634.8215 
       2   -2639.0002       14.142       14.142       14.142            0            0            0    29440.889    29679.681    29321.492    29321.492     59.41077     59.41077    202.80125   -2639.0002 
       3   -2640.5463       14.142       14.142       14.142            0            0            0    28031.856     28168.86    27963.354    27963.354    88.483603    88.483603     223.8742   -2640.5463 
       4   -2641.1436       14.142       14.142       14.142            0            0            0    29451.711    29588.657    29383.238    29383.238     67.94845     67.94845    212.71714   -2641.1436 
       5   -2641.6668       14.142       14.142       14.142            0            0            0    30813.023    30931.966    30753.551    30753.551   -19.769271   -19.769271    310.48903   -2641.6668 
       6   -2641.8981       14.142       14.142       14.142            0            0            0    31794.267    32033.852    31674.474    31674.474   -10.574787   -10.574787    400.85863   -2641.8981 
       7   -2642.1033       14.142       14.142       14.142            0            0            0    32805.162    33213.394    32601.046    32601.046   -49.557931   -49.557931     396.1452   -2642.1033 
       8   -2642.1769       14.142       14.142       14.142            0            0            0    33143.709    33480.891    32975.118    32975.118   -56.106698   -56.106698    464.14486   -2642.1769 
       9   -2642.2163       14.142       14.142       14.142            0            0            0    33443.803    33756.559    33287.426    33287.426   -65.437269   -65.437269    567.68357   -2642.2163 
      10   -2642.2452       14.142       14.142       14.142            0            0            0    33668.245    33846.444    33579.145    33579.145   -64.664025   -64.664025    599.96229   -2642.2452 
      11   -2642.2706       14.142       14.142       14.142            0            0            0    34065.653    34136.609    34030.175    34030.175   -34.966519   -34.966519    608.55924   -2642.2706 
      12   -2642.2941       14.142       14.142       14.142            0            0            0    34442.263     34325.86    34500.464    34500.464   -42.329349   -42.329349    710.43158   -2642.2941 
      13   -2642.3219       14.142       14.142       14.142            0            0            0    35277.529    35024.093    35404.247    35404.247   -17.943818   -17.943818      819.019   -2642.3219 
      14   -2642.3396       14.142       14.142       14.142            0            0            0    35863.663     35517.63    36036.679    36036.679    3.9030756    3.9030756    880.14811   -2642.3396 
      15    -2642.371       14.142       14.142       14.142            0            0            0      37212.7     36808.09    37415.005    37415.005    51.543155    51.543155    1088.8238    -2642.371 
      16   -2642.3901       14.142       14.142       14.142            0            0            0    37896.722      37464.7    38112.732    38112.732    106.47927    106.47927     1183.798   -2642.3901 
      17   -2642.4166       14.142       14.142       14.142            0            0            0    38864.571    38460.381    39066.665    39066.665     134.7042     134.7042    1338.7027   -2642.4166 
      18    -2642.442       14.142       14.142       14.142            0            0            0    39816.431    39322.509    40063.391    40063.391    163.85131    163.85152    1574.6914    -2642.442 
      19     -2642.48       14.142       14.142       14.142            0            0            0    41377.522    40678.408     41727.08     41727.08    201.48972     201.4901    1897.7742     -2642.48 
      20   -2642.5237       14.142       14.142       14.142            0            0            0    43405.261    42140.688    44037.548    44037.547    280.36463    280.36412    2235.9178   -2642.5237 
      21   -2642.5826       14.142       14.142       14.142            0            0            0    45970.749    43857.867    47027.192     47027.19    249.03026    249.03021    2746.9058   -2642.5826 
      22   -2642.6302       14.142       14.142       14.142            0            0            0    47933.967    44949.257    49426.325    49426.319    214.38912    214.38758    3157.2812   -2642.6302 
      23   -2642.6896       14.142       14.142       14.142            0            0            0    50066.156     46260.88    51968.795    51968.793    235.71158    235.71121    3729.9805   -2642.6896 
      24   -2642.7569       14.142       14.142       14.142            0            0            0     52319.28    47539.879    54708.983    54708.977    127.76004    127.75482    4451.6424   -2642.7569 
      25   -2642.8209       14.142       14.142       14.142            0            0            0     54727.85    49201.576    57490.985    57490.988    19.409054    19.410067    5208.3873   -2642.8209 
      26   -2642.9025       14.142       14.142       14.142            0            0            0    56877.312    50510.173    60060.878    60060.885    57.008989    57.014118    6005.9997   -2642.9025 
      27   -2642.9883       14.142       14.142       14.142            0            0            0    59303.585    52233.729    62838.514    62838.513    45.831502    45.829494    6827.7595   -2642.9883 
      28   -2643.0733       14.142       14.142       14.142            0            0            0    61530.721     53555.64     65518.26    65518.263    153.80986    153.80753    7666.9123   -2643.0733 
      29   -2643.1828       14.142       14.142       14.142            0            0            0    64189.202    55169.527    68699.044    68699.034    405.10829    405.10753    8639.3094   -2643.1828 
      30   -2643.2984       14.142       14.142       14.142            0            0            0     66827.34    56672.217    71904.902    71904.901    819.95898     819.9559    9326.4082   -2643.2984 
      31   -2643.4692       14.142       14.142       14.142            0            0            0    70308.659    59052.443    75936.768    75936.765    1105.1823    1105.1807    10238.863   -2643.4692 
      32   -2643.6269       14.142       14.142       14.142            0            0            0    73773.923     61465.72    79928.034    79928.017    1578.3227    1578.3221    11004.647   -2643.6269 
      33   -2643.8148       14.142       14.142       14.142            0            0            0    77369.745    64132.134    83988.556    83988.544    1839.7092    1839.7086    11853.874   -2643.8148 
      34    -2643.952       14.142       14.142       14.142            0            0            0    79831.863    65987.752    86753.931    86753.907    2065.4827    2065.4871    12222.711    -2643.952 
      35   -2644.1213       14.142       14.142       14.142            0            0            0    82415.983    68098.748    89574.606    89574.594    2115.5313    2115.5297    12730.043   -2644.1213 
      36   -2644.2876       14.142       14.142       14.142            0            0            0    84833.483    70511.597    91994.435    91994.417    2453.1622     2453.164    13056.721   -2644.2876 
      37   -2644.4602       14.142       14.142       14.142            0            0            0     87012.14    73461.874    93787.276    93787.271    2612.4523    2612.4502     13387.07   -2644.4602 
      38   -2644.6115       14.142       14.142       14.142            0            0            0     88950.27    76350.503    95250.159    95250.147     2754.888    2754.8939    13526.922   -2644.6115 
      39   -2644.7581       14.142       14.142       14.142            0            0            0    90845.434    79278.336    96628.987    96628.979    2794.0131    2794.0058    13788.954   -2644.7581 
      40   -2644.8897       14.142       14.142       14.142            0            0            0    92242.511    81502.548    97612.495    97612.489     3168.288    3168.2877    14029.657   -2644.8897 
      41   -2644.9934       14.142       14.142       14.142            0            0            0    93380.932    82984.951    98578.925    98578.919      3399.59    3399.5899    14388.981   -2644.9934 
      42   -2645.0811       14.142       14.142       14.142            0            0            0    94306.831    83900.112    99510.199    99510.183     3784.741     3784.743    14642.115   -2645.0811 
      43    -2645.157       14.142       14.142       14.142            0            0            0    95390.305    84502.373    100834.28    100834.26    4089.6413    4089.6435    14930.291    -2645.157 
      44   -2645.2065       14.142       14.142       14.142            0            0            0    96026.179    84832.799    101622.88    101622.86    4523.8798    4523.8776    15057.198   -2645.2065 
      45   -2645.2557       14.142       14.142       14.142            0            0            0    96763.656    85132.174     102579.4    102579.39     4790.078    4790.0798    15348.205   -2645.2557 
      46   -2645.2931       14.142       14.142       14.142            0            0            0    97205.858    85259.867    103178.86    103178.85    5101.2455    5101.2452    15478.265   -2645.2931 
      47   -2645.3275       14.142       14.142       14.142            0            0            0    97679.816    85290.048    103874.71    103874.69    5262.2477    5262.2486    15624.568   -2645.3275 
      48   -2645.3602       14.142       14.142       14.142            0            0            0     97990.07    85403.439    104283.39    104283.39    5542.9587    5542.9606    15633.465   -2645.3602 
      49   -2645.3903       14.142       14.142       14.142            0            0            0    98381.321     85762.35    104690.81     104690.8    5733.5092     5733.511    15643.437   -2645.3903 
      50   -2645.4188       14.142       14.142       14.142            0            0            0    98555.815     86265.93    104700.76    104700.75    5990.1109    5990.1073    15571.727   -2645.4188 
      51   -2645.4455       14.142       14.142       14.142            0            0            0    98771.063    86885.551    104713.83    104713.81     6161.792    6161.7925    15446.636   -2645.4455 
      52   -2645.4703       14.142       14.142       14.142            0            0            0    98756.756    87359.393    104455.44    104455.44    6438.8365    6438.8364    15266.141   -2645.4703 
      53   -2645.5002       14.142       14.142       14.142            0            0            0    98881.769    87877.126     104384.1    104384.09    6686.2829    6686.2842    15097.599   -2645.5002 
      54   -2645.5289       14.142       14.142       14.142            0            0            0    98998.966    88238.975    104378.97    104378.96    6999.6049    6999.5961    14915.406   -2645.5289 
      55   -2645.5597       14.142       14.142       14.142            0            0            0     99513.76    88822.609    104859.34    104859.33    7254.7757    7254.7824     14788.09   -2645.5597 
      56   -2645.5961       14.142       14.142       14.142            0            0            0    100174.51    89568.366    105477.59    105477.59    7697.8861    7697.8849    14681.764   -2645.5961 
      57   -2645.6409       14.142       14.142       14.142            0            0            0    101171.59    90736.383    106389.21    106389.18    8090.7058    8090.7106    14824.225   -2645.6409 
      58   -2645.6978       14.142       14.142       14.142            0            0            0    101966.85     91685.35    107107.61     107107.6    8568.4169     8568.412    15140.307   -2645.6978 
      59    -2645.758       14.142       14.142       14.142            0            0            0    103044.45     92804.12    108164.63    108164.61    8879.9701    8879.9717    15608.611    -2645.758 
      60   -2645.8124       14.142       14.142       14.142            0            0            0     104064.5    93630.001    109281.75    109281.75      9279.44    9279.4406     16069.41   -2645.8124 
      61   -2645.8599       14.142       14.142       14.142            0            0            0    105247.42    94501.739    110620.27    110620.26    9389.0652    9389.0684    16569.811   -2645.8599 
      62   -2645.9101       14.142       14.142       14.142            0            0            0    106025.88    94780.435     111648.6     111648.6    9585.4491    9585.4511    17025.089   -2645.9101 
      63   -2645.9637       14.142       14.142       14.142            0            0            0     107206.5    95393.032    113113.24    113113.22    9688.1055    9688.1134    17575.827   -2645.9637 
      64   -2646.0084       14.142       14.142       14.142            0            0            0    108036.42    95892.451    114108.41    114108.39    10023.048    10023.057    18071.786   -2646.0084 
      65   -2646.0507       14.142       14.142       14.142            0            0            0    109150.77     96920.18    115266.07    115266.05    10271.654     10271.66    18546.716   -2646.0507 
      66   -2646.0929       14.142       14.142       14.142            0            0            0    110197.77    98247.635    116172.84    116172.82    10689.154    10689.164    18984.008   -2646.0929 
      67   -2646.1341       14.142       14.142       14.142            0            0            0    111645.27    100003.12    117466.36    117466.34    11019.385    11019.393    19334.735   -2646.1341 
      68   -2646.1794       14.142       14.142       14.142            0            0            0    113287.66    102042.55    118910.22     118910.2    11463.265    11463.279    19630.201   -2646.1794 
      69     -2646.23       14.142       14.142       14.142            0            0            0    115600.71    104676.34    121062.91     121062.9     11804.55    11804.555    19896.383     -2646.23 
      70   -2646.2886       14.142       14.142       14.142            0            0            0    118196.33    107749.49    123419.78    123419.73    12218.143    12218.145    20133.138   -2646.2886 
      71   -2646.3696       14.142       14.142       14.142            0            0            0       122162    112227.47     127129.3    127129.23    12710.758     12710.75    20360.386   -2646.3696 
      72   -2646.4536       14.142       14.142       14.142            0            0            0     126025.2    116804.44    130635.61    130635.54    13251.355    13251.338    20445.323   -2646.4536 
      73   -2646.5504       14.142       14.142       14.142            0            0            0    130548.78    122120.56    134762.92    134762.88    13764.046    13764.019    20418.406   -2646.5504 
      74   -2646.6676       14.142       14.142       14.142            0            0            0     135783.7    128501.49    139424.81    139424.79    14305.609    14305.558    20278.275   -2646.6676 
      75   -2646.8355       14.142       14.142       14.142            0            0            0    143361.58    137633.85    146225.41    146225.49    14807.332    14807.257    20225.646   -2646.8355 
      76   -2647.0461       14.142       14.142       14.142            0            0            0    150498.26    146095.36    152699.67    152699.76    15043.985      15043.9    20148.752   -2647.0461 
      77   -2647.4854       14.142       14.142       14.142            0            0            0    158274.91    153601.59    160611.51    160611.63    15340.388    15340.303      19887.6   -2647.4854 
      78   -2648.0407       14.142       14.142       14.142            0            0            0    166407.64    161315.84    168953.49    168953.58    15496.216    15496.117    19081.224   -2648.0407 
      79   -2648.7786       14.142       14.142       14.142            0            0            0    174671.76    169220.11    177397.53    177397.63    15519.015    15518.918    18237.868   -2648.7786 
      80   -2649.1591       14.142       14.142       14.142            0            0            0    177358.26    172322.46     179876.1    179876.22     15553.89    15553.814    18354.724   -2649.1591 
      81   -2649.9491       14.142       14.142       14.142            0            0            0    185936.53    183404.76    187202.35     187202.5    14697.174    14697.086    17803.137   -2649.9491 
      82   -2651.2383       14.142       14.142       14.142            0            0            0    193415.73    191476.08     194385.5    194385.62    14068.179    14068.088    16666.137   -2651.2383 
      83   -2652.6665       14.142       14.142       14.142            0            0            0    199112.08    194594.89    201370.69    201370.66    13886.063    13886.097    14163.923   -2652.6665 
      84    -2654.564       14.142       14.142       14.142            0            0            0    206889.19     201830.1    209418.82    209418.64     12003.97    12003.991      9884.16    -2654.564 
      85    -2658.581       14.142       14.142       14.142            0            0            0    209792.31    207669.17    210853.98    210853.77    9549.3966     9549.306    8904.3723    -2658.581 
      86   -2663.4938       14.142       14.142       14.142            0            0            0    209889.59    209148.05    210260.39    210260.33    8701.8892    8701.8246     9577.794   -2663.4938 
      87   -2666.0924       14.142       14.142       14.142            0            0            0    208309.15    207180.19    208873.62    208873.64    7639.7405    7639.7304    7419.7878   -2666.0924 
      88   -2669.9104       14.142       14.142       14.142            0            0            0     206228.9    206307.02    206189.83    206189.85    5837.5457    5837.5416    6214.9415   -2669.9104 
      89   -2672.4936       14.142       14.142       14.142            0            0            0    204145.47    203942.03    204247.12    204247.26    5443.4905    5443.4841    5756.5132   -2672.4936 
      90   -2675.5604       14.142       14.142       14.142            0            0            0    203020.51    201671.91    203694.72    203694.91    5289.0884    5289.0405    4676.3265   -2675.5604 
      91   -2678.6307       14.142       14.142       14.142            0            0            0    200532.44    198782.92    201407.15    201407.25    5057.1987     5057.238    6061.2348   -2678.6307 
      92   -2680.9357       14.142       14.142       14.142            0            0            0     198515.4    196656.12    199444.98     199445.1    4689.0445    4689.0698    6908.9489   -2680.9357 
      93   -2682.6825       14.142       14.142       14.142            0            0            0     196447.6    194581.88    197380.43    197380.48    3083.5658    3083.5924    4756.3495   -2682.6825 
      94   -2683.5576       14.142       14.142       14.142            0            0            0     196615.6     194458.6    197694.06    197694.14    2277.1382    2277.1729    3946.4532   -2683.5576 
      95   -2684.0345       14.142       14.142       14.142            0            0            0    195877.18     193723.2    196954.14    196954.19    1915.5958    1915.6711    4041.1318   -2684.0345 
      96   -2684.4078       14.142       14.142       14.142            0            0            0    195743.48    193893.29    196668.53    196668.63    1562.6366    1562.6878    3832.7743   -2684.4078 
      97    -2684.693       14.142       14.142       14.142            0            0            0    194946.19    193804.08     195517.2    195517.29    1481.7147    1481.7745    3541.6438    -2684.693 
      98   -2685.0317       14.142       14.142       14.142            0            0            0    194640.49    194645.72    194637.82    194637.94    1025.7895    1025.8508    2702.4775   -2685.0317 
      99   -2685.3015       14.142       14.142       14.142            0            0            0    193651.13    193793.23    193580.01    193580.13    619.44151    619.52622    2459.1556   -2685.3015 
     100   -2685.4614       14.142       14.142       14.142            0            0            0    193846.57    194512.25    193513.67     193513.8    330.40385    330.50655    2143.4674   -2685.4614 
     101   -2685.5437       14.142       14.142       14.142            0            0            0    193564.86    194065.34    193314.54     193314.7    179.89775    179.99732    2087.7665   -2685.5437 
     102   -2685.6012       14.142       14.142       14.142            0            0            0    193692.92    194417.02    193330.79    193330.96    232.08641    232.19104    1939.5769   -2685.6012 
     103   -2685.6308       14.142       14.142       14.142            0            0            0    193619.89     194171.7    193343.88    193344.08    243.20071    243.29396    2012.0759   -2685.6308 
     104   -2685.6514       14.142       14.142       14.142            0            0            0    193611.47    194197.99     193318.1    193318.32    264.27529    264.36321    2119.3855   -2685.6514 
     105   -2685.6627       14.142       14.142       14.142            0            0            0    193508.08    194045.46    193239.26     193239.5    267.77708    267.86825      2211.66   -2685.6627 
     106   -2685.6691       14.142       14.142       14.142            0            0            0    193549.63    194172.23    193238.21    193238.47    330.92863    331.02508     2175.343   -2685.6691 
     107   -2685.6735       14.142       14.142       14.142            0            0            0    193461.63    194022.47    193181.08    193181.35    364.46024    364.55081    2182.3168   -2685.6735 
     108    -2685.678       14.142       14.142       14.142            0            0            0    193506.98    194100.84    193209.89     193210.2    350.24763    350.34207    2147.4391    -2685.678 
     109   -2685.6815       14.142       14.142       14.142            0            0            0    193434.41    193995.22    193153.83    193154.17     324.4721    324.56769    2170.2027   -2685.6815 
     110   -2685.6863       14.142       14.142       14.142            0            0            0    193468.09    194046.92    193178.48    193178.86    295.47819    295.58453    2165.5274   -2685.6863 
     111   -2685.6919       14.142       14.142       14.142            0            0            0    193407.41     193912.9    193154.43    193154.89    287.65359     287.7537    2207.0575   -2685.6919 
     112   -2685.6984       14.142       14.142       14.142            0            0            0    193495.41    194043.54    193221.08    193221.61    259.05966    259.13932    2200.4755   -2685.6984 
     113   -2685.7035       14.142       14.142       14.142            0            0            0     193430.4    193934.14    193178.24    193178.84    217.76077    217.81859    2238.4524   -2685.7035 
     114    -2685.708       14.142       14.142       14.142            0            0            0    193476.07    194021.57       193203    193203.63    186.66889    186.69489    2201.0012    -2685.708 
     115   -2685.7113       14.142       14.142       14.142            0            0            0    193431.89    193931.02    193182.01    193182.65    156.53358    156.53415    2205.5229   -2685.7113 
     116   -2685.7137       14.142       14.142       14.142            0            0            0    193492.06    194018.92    193228.31    193228.95    146.85903    146.83286    2187.5059   -2685.7137 
     117   -2685.7158       14.142       14.142       14.142            0            0            0    193450.95     193935.7    193208.26    193208.89    133.07339    133.02509    2216.4484   -2685.7158 
     118   -2685.7175       14.142       14.142       14.142            0            0            0    193471.67    193976.17    193219.11    193219.73    140.53243    140.47026    2202.4594   -2685.7175 
     119   -2685.7178       14.142       14.142       14.142            0            0            0     193439.4    193907.74    193204.93    193205.54    147.21448    147.13635     2219.665   -2685.7178 
     120   -2685.7185       14.142       14.142       14.142            0            0            0    193460.43    193926.17    193227.27    193227.87    148.91851    148.82408    2219.8801   -2685.7185 
     121   -2685.7186       14.142       14.142       14.142            0            0            0    193437.73    193874.01    193219.29    193219.88    144.46415    144.35612    2231.9524   -2685.7186 
     122   -2685.7188       14.142       14.142       14.142            0            0            0    193443.72    193885.93    193222.32    193222.92    136.54385    136.42372    2230.3289   -2685.7188 
     123   -2685.7191       14.142       14.142       14.142            0            0            0    193430.64    193866.19    193212.52    193213.22     127.8413    127.69302    2225.1526   -2685.7191 
     124   -2685.7191       14.142       14.142       14.142            0            0            0    193430.64    193866.19    193212.52    193213.22     127.8413    127.69302    2225.1526   -2685.7191 
Loop time of 2.1071 on 1 procs for 124 steps with 216 atoms

69.3% CPU use with 1 MPI tasks x no OpenMP threads

Minimization stats:
  Stopping criterion = linesearch alpha is zero
  Energy initial, next-to-last, final = 
        -2621.27504708     -2685.71911878     -2685.71911878
  Force two-norm initial, final = 33.2714 0.0448144
  Force max component initial, final = 5.92206 0.00702754
  Final line search alpha, max atom move = 3.8147e-06 2.68079e-08
  Iterations, force evaluations = 124 261

MPI task timing breakdown:
Section |  min time  |  avg time  |  max time  |%varavg| %total
---------------------------------------------------------------
Pair    | 1.2041     | 1.2041     | 1.2041     |   0.0 | 57.15
Kspace  | 0.84585    | 0.84585    | 0.84585    |   0.0 | 40.14
Neigh   | 0.046777   | 0.046777   | 0.046777   |   0.0 |  2.22
Comm    | 0.0052559  | 0.0052559  | 0.0052559  |   0.0 |  0.25
Output  | 0.0028923  | 0.0028923  | 0.0028923  |   0.0 |  0.14
Modify  | 0          | 0          | 0          |   0.0 |  0.00
Other   |            | 0.002211   |            |       |  0.10

Nlocal:    216 ave 216 max 216 min
Histogram: 1 0 0 0 0 0 0 0 0 0
Nghost:    3144 ave 3144 max 3144 min
Histogram: 1 0 0 0 0 0 0 0 0 0
Neighs:    45230 ave 45230 max 45230 min
Histogram: 1 0 0 0 0 0 0 0 0 0

Total # of neighbors = 45230
Ave neighs/atom = 209.398
Neighbor list builds = 14
Dangerous builds = 0

# ---- define output variables ----
variable natoms equal "count(all)"
variable tot_energy equal "c_eatoms"
variable a11 equal "xhi-xlo"
variable a22 equal "yhi-ylo"
variable a33 equal "zhi-zlo"
variable tilt_xy equal "xy"
variable tilt_xz equal "xz"
variable tilt_yz equal "yz"
variable tot_press equal "press"
variable press_xx equal "pxx"
variable press_yy equal "pyy"
variable press_zz equal "pzz"
variable press_xy equal "pxy"
variable press_xz equal "pxz"
variable press_yz equal "pyz"

# ---- output ----
print "pypospack:output_section:begin"
pypospack:output_section:begin
print "tot_energy = ${tot_energy}"
tot_energy = -2685.71911878011
print "num_atoms = ${natoms}"
num_atoms = 216
print "a11 = ${a11}"
a11 = 14.142
print "a22 = ${a22}"
a22 = 14.142
print "a33 = ${a33}"
a33 = 14.142
print "a12 = ${tilt_xy}"
a12 = 0
print "a13 = ${tilt_xz}"
a13 = 0
print "a23 = ${tilt_yz}"
a23 = 0
print "tot_press = ${tot_press}"
tot_press = 193430.643161747
print "pxx = ${press_xx}"
pxx = 193866.186666915
print "pyy = ${press_yy}"
pyy = 193212.517941247
print "pzz = ${press_zz}"
pzz = 193213.22487708
print "pxy = ${press_xy}"
pxy = 127.841296636693
print "pxz = ${press_xz}"
pxz = 127.693017735469
print "pyz = ${press_yz}"
pyz = 2225.15260439964
print "pypospack:output_section:done"
pypospack:output_section:done
print "pypospack:lammps_sim:done"
pypospack:lammps_sim:done
Total wall time: 0:00:02
