LAMMPS (10 Feb 2015)
# ---- initialize simulations
clear
units metal
dimension 3
boundary p p p
atom_style charge
atom_modify map array
# ---- create atoms
read_data /Users/eugeneragasa/pyflamestk_git/pypospack/tests/tests_integration/workflow/WorkflowLammpsThermalExpansion/MgO_NaCl_unit.npt.T1800/lammps.structure
  triclinic box = (0 0 0) to (4.2565 4.2565 4.2565) with tilt (0 0 0)
  1 by 1 by 1 MPI processor grid
  reading atoms ...
  8 atoms
# ---- define interatomic potential
include potential.mod
mass 1 24.305
mass 2 15.999

group Mg type 1
4 atoms in group Mg
group O type 2
4 atoms in group O

set group Mg charge 2.0
  4 settings made for charge
set group O charge -2.0
  4 settings made for charge

variable R_cut equal 10.0

pair_style buck/coul/long ${R_cut}
pair_style buck/coul/long 10
pair_coeff 1 1 0.0 0.5 0.0 ${R_cut}
pair_coeff 1 1 0.0 0.5 0.0 10
pair_coeff 1 2 1279.69 0.29969 0.0 ${R_cut}
pair_coeff 1 2 1279.69 0.29969 0.0 10
pair_coeff 2 2 9547.96 0.21916 32.0 ${R_cut}
pair_coeff 2 2 9547.96 0.21916 32.0 10

kspace_style pppm 1.0e-5

neighbor 1.0 bin
neigh_modify every 1 delay 0 check yes
# ---- define settings
compute eng all pe/atom
compute eatoms all reduce sum c_eng
# ---- run minimization
reset_timestep 0
fix 1 all box/relax iso 0.0 vmax 0.001
thermo 10
thermo_style custom step pe lx ly lz xy xz yz press pxx pyy pzz pxy pxz pyz c_eatoms
min_style cg
minimize 1e-25 1e-25 5000 10000
PPPM initialization ...
  G vector (1/distance) = 0.354854
  grid = 8 8 8
  stencil order = 5
  estimated absolute RMS force accuracy = 5.34408e-05
  estimated relative force accuracy = 3.71126e-06
  using double precision FFTs
  3d grid and FFT values/proc = 3375 512
Neighbor list info ...
  1 neighbor list requests
  update every 1 steps, delay 0 steps, check yes
  master list distance cutoff = 11
Memory usage per processor = 4.06549 Mbytes
Step PotEng Lx Ly Lz Xy Xz Yz Press Pxx Pyy Pzz Pxy Pxz Pyz eatoms 
       0    -164.6599       4.2565       4.2565       4.2565            0            0            0   -75586.685   -75586.685   -75586.685   -75586.685 9.4798587e-11 1.6226154e-10 -3.4446142e-11    -164.6599 
      10   -164.72135     4.213935     4.213935     4.213935            0            0            0   -8637.4527   -8637.4527   -8637.4527   -8637.4527 -1.5549588e-10 2.0227431e-10 -1.1495762e-10   -164.72135 
      15   -164.72214      4.20883      4.20883      4.20883            0            0            0    5.5876567    5.5876567    5.5876567    5.5876567 2.0554645e-10 4.244052e-10 1.3955449e-10   -164.72214 
Loop time of 0.0386441 on 1 procs for 15 steps with 8 atoms

Minimization stats:
  Stopping criterion = linesearch alpha is zero
  Energy initial, next-to-last, final = 
        -164.659901251     -164.722138416     -164.722138416
  Force two-norm initial, final = 10.9148 0.000791362
  Force max component initial, final = 10.9148 0.000788889
  Final line search alpha, max atom move = 0.015625 1.23264e-05
  Iterations, force evaluations = 15 55

Pair  time (%) = 0.0104823 (27.1253)
Kspce time (%) = 0.00718832 (18.6014)
Neigh time (%) = 0 (0)
Comm  time (%) = 0.00111818 (2.89354)
Outpt time (%) = 6.60419e-05 (0.170898)
Other time (%) = 0.0197892 (51.2089)

Nlocal:    8 ave 8 max 8 min
Histogram: 1 0 0 0 0 0 0 0 0 0
Nghost:    2189 ave 2189 max 2189 min
Histogram: 1 0 0 0 0 0 0 0 0 0
Neighs:    2344 ave 2344 max 2344 min
Histogram: 1 0 0 0 0 0 0 0 0 0

Total # of neighbors = 2344
Ave neighs/atom = 293
Neighbor list builds = 0
Dangerous builds = 0
unfix 1
# ---- define output variables ----
variable natoms equal "count(all)"
variable tot_energy equal "c_eatoms"
variable length_x equal "lx"
variable length_y equal "ly"
variable length_z equal "lz"
variable tilt_xy equal "xy"
variable tilt_xz equal "xz"
variable tilt_yz equal "yz"
variable tot_press equal "press"
variable press_xx equal "pxx"
variable press_yy equal "pyy"
variable press_zz equal "pzz"
variable press_xy equal "pxy"
variable press_xz equal "pxz"
variable press_yz equal "pyz"

# ---- output ----
print "pypospack:output_section:begin"
pypospack:output_section:begin
print "tot_energy = ${tot_energy}"
tot_energy = -164.722138415744
print "num_atoms = ${natoms}"
num_atoms = 8
print "xx = ${length_x}"
xx = 4.20883001371435
print "yy = ${length_y}"
yy = 4.20883001371435
print "zz = ${length_z}"
zz = 4.20883001371435
print "xy = ${tilt_xy}"
xy = 0
print "xz = ${tilt_xz}"
xz = 0
print "yz = ${tilt_yz}"
yz = 0
print "tot_press = ${tot_press}"
tot_press = 5.58765665687492
print "pxx = ${press_xx}"
pxx = 5.58765665651822
print "pyy = ${press_yy}"
pyy = 5.58765665647238
print "pzz = ${press_zz}"
pzz = 5.58765665763416
print "pxy = ${press_xy}"
pxy = 2.0554645346851e-10
print "pxz = ${press_xz}"
pxz = 4.24405202668874e-10
print "pyz = ${press_yz}"
pyz = 1.39554488680613e-10
print "pypospack:output_section:done"
pypospack:output_section:done
print "pypospack:lammps_sim:done"
pypospack:lammps_sim:done
#------------------------------------------------------------------------------
# RUN THERMOSTAT
# running using an NPT Nose-Hoover style thermostat
#------------------------------------------------------------------------------
variable tempdamp equal 0.1
variable pressdamp equal 1.0
# set initial velocities
velocity all create 1800 7463868 mom yes dist gaussian loop all
# fix for Nose-Hoover style thermostat
fix 20 all npt temp 1800 1800 0.1 aniso 0.0 0.0 1.0 drag 1.0 couple xyz
variable boxx equal lx
variable boxy equal ly
variable boxz equal lz
variable boxp equal press
variable boxt equal temp
# calculate averages every 10000 steps
reset_timestep 0
fix 21 all ave/time 10 10 100 v_boxx v_boxy v_boxz v_boxp v_boxt file lattice.out
thermo_style custom step temp pe ke etotal press lx ly lz press pxx pyy pzz pxy pxz pyz vol
thermo_modify flush yes
thermo 100
run 100000
PPPM initialization ...
  G vector (1/distance) = 0.355405
  grid = 8 8 8
  stencil order = 5
  estimated absolute RMS force accuracy = 5.20839e-05
  estimated relative force accuracy = 3.61703e-06
  using double precision FFTs
  3d grid and FFT values/proc = 3375 512
Memory usage per processor = 3.06549 Mbytes
Step Temp PotEng KinEng TotEng Press Lx Ly Lz Press Pxx Pyy Pzz Pxy Pxz Pyz Volume 
       0         1800   -164.72213    1.6286778   -163.09346    23339.463      4.20883      4.20883      4.20883    23339.463    14784.235    29458.749    25775.404   -4241.1569    1814.9635    159.21432    74.556267 
     100    1647.0396   -164.34934    1.4902761   -162.85906     2476.619    4.2294579    4.2294579    4.2294579     2476.619    -7991.226    7507.4217    7913.6612    6420.0134    3326.3169    1659.4265    75.657869 
     200    1192.4592   -163.50067    1.0789622   -162.42171   -12581.146    4.2502754    4.2502754    4.2502754   -12581.146   -9520.9594   -8379.7057   -19842.772    10678.668    1527.4437   -1128.9665    76.780549 
     300    1292.2946   -163.19485    1.1692953   -162.02555   -10689.366    4.2465236    4.2465236    4.2465236   -10689.366   -6234.3529   -42712.846    16879.102   -1860.7088    10132.476   -4151.4015    76.577401 
     400     1387.176   -162.97826     1.255146   -161.72311    14131.201     4.233555     4.233555     4.233555    14131.201    43223.303   -6385.3903    5555.6893    15551.939   -6369.4933   -28933.636    75.877954 
     500    1635.0472   -163.02752     1.479425   -161.54809    38396.726    4.2421147    4.2421147    4.2421147    38396.726    34344.851    52012.487    28832.839    12541.493   -13796.318   -37958.415    76.339134 
     600    1764.0599    -163.0512    1.5961584   -161.45504   -47549.082    4.2641992    4.2641992    4.2641992   -47549.082   -55818.852   -34623.123    -52205.27    1600.9066   -23959.559   -51395.437    77.537615 
     700    1138.4931    -162.4508    1.0301325   -161.42067    7405.7253    4.2453787    4.2453787    4.2453787    7405.7253        74420    5093.6386   -57296.463    7161.4704   -21661.792   -51642.531    76.515482 
     800    787.59185   -162.13359   0.71262965   -161.42096   -2792.1531    4.2403579    4.2403579    4.2403579   -2792.1531    19323.745   -33280.639    5580.4341   -6139.2312   -18791.049   -42517.657    76.244326 
     900     823.0485    -162.1813   0.74471158   -161.43659   -51357.284    4.2543271    4.2543271    4.2543271   -51357.284   -12679.794    -39204.97   -102187.09   -2511.5454   -51932.977   -41570.225    77.000338 
    1000    1553.1558   -162.83915     1.405328   -161.43382    41278.266    4.2461099    4.2461099    4.2461099    41278.266    74549.202   -5737.7574    55023.355   -3660.2027   -27286.929   -47284.156    76.555023 
    1100    2129.1776   -163.37551    1.9265246   -161.44898   -47224.608    4.2609708    4.2609708    4.2609708   -47224.608    -35981.84   -60239.449   -45452.535   -16457.417   -11811.074   -59042.277    77.361638 
    1200    2393.3185   -163.61392    2.1655248    -161.4484   -23851.009    4.2483078    4.2483078    4.2483078   -23851.009   -22151.067   -39280.604   -10121.358    5442.3195   -17652.003   -11547.294    76.673966 
    1300    2147.4403   -163.36409    1.9430491   -161.42104    42433.397    4.2238016    4.2238016    4.2238016    42433.397    47493.888     50076.99    29729.312   -1154.3684    4342.4363   -6334.0473    75.354731 
    1400    1789.0917   -163.07774    1.6188078   -161.45893   -30666.294    4.2613265    4.2613265    4.2613265   -30666.294    152.19345   -55207.735   -36943.342      4791.68    1348.6709    960.09218    77.381017 
    1500    2088.4064   -163.31847     1.889634   -161.42884   -35374.152    4.2638135    4.2638135    4.2638135   -35374.152   -26541.197   -68989.999   -10591.259    2480.0542    10813.837    30094.405     77.51658 
    1600    2553.0449   -163.72505    2.3100487   -161.41501    46039.428    4.2399451    4.2399451    4.2399451    46039.428    32873.532    27868.729    77376.023   -7329.3125    10341.145     23246.35    76.222064 
    1700    2615.3247   -163.79976    2.3664008   -161.43336   -4053.8095    4.2471498    4.2471498    4.2471498   -4053.8095   -43834.758    442.86011    31230.469    17518.562    6926.9195    7762.9522    76.611285 
    1800     2212.483   -163.43414    2.0019011   -161.43224   -3925.5016    4.2579954    4.2579954    4.2579954   -3925.5016   -16266.465   -18135.143    22625.104   -8803.1675    16024.519   -10159.439     77.19969 
    1900    1320.3525     -162.625    1.1946827   -161.43031   -1908.8606    4.2604722    4.2604722    4.2604722   -1908.8606    57701.581   -7079.2489   -56348.914   -3588.5064    293.13241   -5484.7802    77.334485 
    2000    1206.8934   -162.51918    1.0920225   -161.42715    3990.9638    4.2433677    4.2433677    4.2433677    3990.9638    16434.484   -679.49294   -3782.0996    16602.841    972.21445   -17535.743    76.406798 
    2100    1542.5935   -162.83486     1.395771   -161.43909    45819.539    4.2432841    4.2432841    4.2432841    45819.539   -8499.1037    23493.518     122464.2   -77.758442    3516.0661   -28399.767    76.402281 
    2200    1879.1031   -163.14634     1.700252   -161.44608   -10398.532    4.2567303    4.2567303    4.2567303   -10398.532    2954.7029   -37288.858      3138.56    10131.398    -16307.05   -44915.961    77.130902 
    2300    1829.7348   -163.09358    1.6555825     -161.438   -13198.113     4.249461     4.249461     4.249461   -13198.113    12656.994   -27287.413   -24963.922      6810.82   -24641.455   -14934.515    76.736421 
    2400    1328.2297   -162.63961    1.2018102    -161.4378    -4317.013    4.2522215    4.2522215    4.2522215    -4317.013    30175.804    35086.512   -78213.355    5345.5854   -15541.845    -19073.56    76.886065 
    2500    1421.2896   -162.71607    1.2860127   -161.43005   -23771.587    4.2586743    4.2586743    4.2586743   -23771.587    10774.851   -11996.196   -70093.415   -405.79738    -28059.28   -17645.009    77.236622 
    2600    2037.2143   -163.26898    1.8433143   -161.42567    9934.0891    4.2472238    4.2472238    4.2472238    9934.0891    18144.374   -40659.269    52317.163   -2423.2117    -16926.32    11302.102    76.615289 
    2700    2494.4081   -163.69715    2.2569929   -161.44016    22728.594    4.2463521    4.2463521    4.2463521    22728.594     24171.48   -37015.047    81029.349    1468.4232   -11504.708   -3973.5337    76.568122 
    2800    2578.1018   -163.77616    2.3327207   -161.44344   -1018.4927    4.2513169    4.2513169    4.2513169   -1018.4927   -15410.406    -6263.486    18618.414   -7357.4383   -14499.943   -14119.452    76.837006 
    2900    1833.4682   -163.10117    1.6589606   -161.44221     -6861.54    4.2573414    4.2573414    4.2573414     -6861.54    53486.137   -43568.139   -30502.618   -5551.4825   -2910.9106    8341.1789    77.164124 
    3000    863.03598   -162.22189   0.78089309   -161.44099    4134.8042     4.247426     4.247426     4.247426    4134.8042    2890.1533   -55678.726    65192.985    313.90531   -1315.1816    7568.4276    76.626229 
    3100    735.69557   -162.11016   0.66567281   -161.44449    31493.318    4.2398475    4.2398475    4.2398475    31493.318    87587.489   -37308.398    44200.864   -5045.9974    8974.2199    2859.7182      76.2168 
    3200    1488.6752   -162.80123    1.3469846   -161.45424   -30757.461    4.2561713    4.2561713    4.2561713   -30757.461   -32401.678   -88728.774    28858.068   -14812.982   -5547.4926    14237.428    77.100519 
    3300    1940.7133   -163.20155    1.7559982   -161.44556   -5259.7581    4.2520253    4.2520253    4.2520253   -5259.7581    24944.253   -52535.548     11812.02   -2160.2435    2628.2118    10410.224    76.875421 
    3400    1826.5394   -163.09133    1.6526913   -161.43864     33858.85    4.2403013    4.2403013    4.2403013     33858.85    82417.238    17351.972    1807.3415   -2344.5066   -6760.3226    1188.1107    76.241274 
    3500    1917.5283   -163.17784    1.7350199   -161.44282     24048.13    4.2442059    4.2442059    4.2442059     24048.13    90300.176   -28173.299    10017.512   -20355.796   -4262.9026    7484.5621    76.452087 
    3600    1930.7432   -163.19068     1.746977    -161.4437   -1862.2434     4.247279     4.247279     4.247279   -1862.2434     47855.69    -45650.33   -7792.0897    5258.0883   -15112.595    1658.9295    76.618274 
    3700    1679.0058   -162.96364    1.5191997   -161.44444   -6025.1652    4.2558136    4.2558136    4.2558136   -6025.1652   -15852.135   -9675.5531    7452.1926    1808.9457    -6198.948   -1151.8505    77.081081 
    3800    2119.0891   -163.35152    1.9173963   -161.43412   -13251.818     4.254878     4.254878     4.254878   -13251.818   -1513.2041   -23278.903   -14963.348    5637.7801   -1312.6931    7100.9193    77.030256 
    3900    1964.5702   -163.20548    1.7775844   -161.42789   -20637.383    4.2415591    4.2415591    4.2415591   -20637.383    -38672.55   -14246.576   -8993.0226    22281.039   -21496.274   -5681.4224    76.309143 
    4000    1286.8965   -162.60657     1.164411   -161.44216    29299.001    4.2459683    4.2459683    4.2459683    29299.001    30984.547    24795.061    32117.394      8037.05   -9674.0903    -10880.16    76.547362 
    4100    1046.9823   -162.38184   0.94733159   -161.43451   -27061.851    4.2671712    4.2671712    4.2671712   -27061.851    23017.915   -56741.205   -47462.262    21678.517   -13193.077    -2833.834    77.699853 
    4200    1191.4444   -162.50119    1.0780439   -161.42315   -17315.273    4.2533117    4.2533117    4.2533117   -17315.273   -15094.991    -28826.83   -8023.9992    29951.216    19092.396   -18965.733     76.94522 
    4300    2096.0676   -163.30717    1.8965661    -161.4106    41073.642    4.2322741    4.2322741    4.2322741    41073.642    7566.0104    58459.182    57195.733    13872.478    3304.8905    3975.7803    75.809101 
    4400    2335.9983   -163.55402    2.1136603   -161.44036   -7649.7344    4.2554324    4.2554324    4.2554324   -7649.7344   -2184.4901    -8340.682   -12424.031    4460.4095   -1093.4229   -7999.8853    77.060371 
    4500    1986.3892   -163.21572    1.7973267    -161.4184   -43284.008    4.2675141    4.2675141    4.2675141   -43284.008   -8283.1919   -82564.395   -39004.439    661.54028    24889.433   -28201.492    77.718586 
    4600    1783.4808   -163.01416    1.6137309   -161.40043    32850.664    4.2356985    4.2356985    4.2356985    32850.664    86237.125   -2107.5072    14422.373   -5589.5384    1988.4868   -23991.673    75.993268 
    4700    1736.7488   -163.00258    1.5714468   -161.43113    22941.502    4.2476663    4.2476663    4.2476663    22941.502    47048.045   -6335.3601    28111.821    -13816.79   -5991.0726   -14212.741    76.639237 
    4800    2325.1468   -163.52348    2.1038417   -161.41964   -33476.536    4.2705523    4.2705523    4.2705523   -33476.536   -56045.674    -15894.11   -28489.823    -24699.43    439.83133    -16495.43    77.884696 
    4900     2526.313   -163.69919    2.2858611   -161.41333   -9388.5692    4.2394848    4.2394848    4.2394848   -9388.5692    -17759.23    37006.468   -47412.946   -7364.0641    2864.1778   -24685.462    76.197241 
    5000    1669.9309   -162.93746    1.5109885   -161.42648    39863.199    4.2367343    4.2367343    4.2367343    39863.199    95710.712   -2264.1375    26143.023   -7953.8716   -8511.6216     -23981.2    76.049033 
    5100    1065.0898   -162.39701   0.96371565    -161.4333   -31441.166    4.2601635    4.2601635    4.2601635   -31441.166   -45755.675   -32450.858   -16116.964   -13651.329   -25281.226   -10947.045    77.317678 
    5200    1460.2097   -162.74675    1.3212284   -161.42552    2370.9556    4.2457058    4.2457058    4.2457058    2370.9556    3125.7178    33809.893   -29822.744    3123.3392   -15760.591    561.52128    76.533168 
    5300    1865.2806   -163.12238    1.6877451   -161.43463    26319.541    4.2453624    4.2453624    4.2453624    26319.541   -28433.698    77386.693    30005.628    2667.4869   -4621.0309    8272.5341    76.514599 
    5400    2202.3284   -163.42637     1.992713   -161.43365   -21915.808    4.2615778    4.2615778    4.2615778   -21915.808   -62053.523    21679.006   -25372.907   -13587.075   -24224.208    8118.4144    77.394708 
    5500    2608.9989   -163.77682     2.360677   -161.41614   -9654.2273    4.2473163    4.2473163    4.2473163   -9654.2273    2645.4795   -19987.722   -11620.439   -10768.516   -24547.197    18823.269    76.620294 
    5600    1786.3646   -163.03748    1.6163403   -161.42114    20237.704    4.2476784    4.2476784    4.2476784    20237.704    18863.219    363.92857    41485.964     -3262.94   -8968.6086    25814.289     76.63989 
    5700    1490.2368   -162.76581    1.3483975   -161.41741   -49952.039    4.2652836    4.2652836    4.2652836   -49952.039   -63670.335   -57772.732    -28413.05   -11540.848   -15039.692    12743.791    77.596785 
    5800    2210.4417    -163.4104    2.0000541   -161.41035    9585.7194    4.2525616    4.2525616    4.2525616    9585.7194    -38385.92    46438.983    20704.095   -8248.0406    591.00369    17832.221    76.904514 
    5900    2580.2331   -163.74622    2.3346491   -161.41157    5230.1423    4.2435762    4.2435762    4.2435762    5230.1423    14351.456   -2026.0467    3365.0172    2539.8112    6983.8394    21068.429     76.41806 
    6000    1789.8135   -163.03878    1.6194608   -161.41932   -19949.045    4.2532861    4.2532861    4.2532861   -19949.045    36570.967   -38145.201     -58272.9    7235.7116   -5834.7275    16027.125     76.94383 
    6100    1636.1369   -162.88886    1.4804111   -161.40845    17396.913    4.2483557    4.2483557    4.2483557    17396.913    14735.971     35068.82    2385.9466    9542.1189    12163.249    3769.6285     76.67656 
    6200    1945.6579    -163.1726    1.7604721   -161.41212   -32042.521    4.2560646    4.2560646    4.2560646   -32042.521   -30725.198   -26903.237   -38499.128     8907.488    16071.373   -9403.3582    77.094718 
    6300     2194.636   -163.39292    1.9857528   -161.40717   -23715.793     4.262206     4.262206     4.262206   -23715.793   -4044.4061   -3729.8544   -63373.119   -966.41847    7065.8502   -15580.919    77.428938 
    6400    2580.0371   -163.73486    2.3344718   -161.40039    7552.6393    4.2393606    4.2393606    4.2393606    7552.6393   -3603.7653    66733.495   -40471.812    767.97533    19276.369   -28693.894    76.190545 
    6500    2022.1707   -163.24733    1.8297026   -161.41763    11794.857    4.2415902    4.2415902    4.2415902    11794.857     2837.428    51339.621   -18792.478   -514.43054    10560.258   -13784.571     76.31082 
    6600    1751.0537   -163.00178    1.5843902   -161.41739   -26856.611    4.2604293    4.2604293    4.2604293   -26856.611    7832.0236   -14794.907    -73606.95    6175.9525    9299.6604   -7480.2685    77.332152 
    6700    1806.0054   -163.04533    1.6341116   -161.41122   -20321.816    4.2501523    4.2501523    4.2501523   -20321.816   -28676.828   -9982.6734   -22305.947    7898.2722    18440.472   -27860.684    76.773876 
    6800    1926.6339   -163.15693    1.7432588   -161.41367    15917.557    4.2393109    4.2393109    4.2393109    15917.557   -38970.645    42063.455    44659.862    4739.9187     15192.45   -2497.0175    76.187864 
    6900    2457.5184   -163.65223    2.2236143   -161.42861   -19907.847    4.2522195    4.2522195    4.2522195   -19907.847   -37604.537    7674.7573    -29793.76    6363.7559    12768.058   -7810.1534    76.885958 
    7000    2054.3428   -163.28883    1.8588126   -161.43002   -9528.6564    4.2603583    4.2603583    4.2603583   -9528.6564   -24268.038    58096.168     -62414.1     -3516.97    11672.908   -2822.1252    77.328284 
    7100    1623.5399   -162.89403     1.469013   -161.42502    -8018.426    4.2405074    4.2405074    4.2405074    -8018.426   -23941.895   -6703.3833    6590.0007   -10630.576    15000.314   -4011.3075    76.252391 
    7200    1444.4565   -162.74588    1.3069746    -161.4389    27084.928    4.2440984    4.2440984    4.2440984    27084.928   -26493.664    92566.867    15181.582   -20405.462    12098.551    9397.6114    76.446276 
    7300    1509.6044   -162.79995    1.3659217   -161.43402   -34291.553    4.2685579    4.2685579    4.2685579   -34291.553   -22512.948   -50365.224   -29996.487   -32188.705    6309.9538    17505.564    77.775631 
    7400      2228.57   -163.44465     2.016457    -161.4282    12842.507    4.2422546    4.2422546    4.2422546    12842.507    9245.6482    33694.728   -4412.8547   -34479.566    377.08495    8148.5659    76.346685 
    7500    2598.4074   -163.78018    2.3510936   -161.42909     21911.24    4.2303875    4.2303875    4.2303875     21911.24     22187.88     14927.06    28618.779   -33583.095    4898.0283    2017.5658    75.707769 
    7600    2088.4407   -163.33091    1.8896651   -161.44124   -33761.351    4.2571799    4.2571799    4.2571799   -33761.351    5433.5586   -31945.414   -74772.196   -22459.302    7016.0976    31024.856    77.155345 
    7700    1391.0685   -162.68982     1.258668   -161.43115    18313.455    4.2484145    4.2484145    4.2484145    18313.455    24037.137    8837.8359     22065.39   -11052.916    -14398.92    6344.9983    76.679744 
    7800    1471.2617   -162.75825    1.3312285   -161.42702   -8284.5131    4.2405621    4.2405621    4.2405621   -8284.5131    7388.8426   -39816.386    7574.0036    4047.1486   -93.431684    6848.0377    76.255342 
    7900    1499.6181   -162.79372     1.356886   -161.43684   -2500.1329    4.2533272    4.2533272    4.2533272   -2500.1329   -16920.456   -24854.777    34274.835    9873.5451   -16494.335    16576.044    76.946062 
    8000    1778.4208    -163.0344    1.6091525   -161.42524    11936.768    4.2551197    4.2551197    4.2551197    11936.768   -16762.987    40764.666    11808.625    9809.0322   -22903.088     26160.29    77.043381 
    8100    2321.7391   -163.51279    2.1007584   -161.41203    -3740.078    4.2514561    4.2514561    4.2514561    -3740.078   -61335.462    83737.369    -33622.14    21877.723    -11041.73    17446.012    76.844552 
    8200    1770.0229   -163.01429    1.6015539   -161.41273   -8079.1501    4.2519164    4.2519164    4.2519164   -8079.1501   -22064.145   -28753.547    26580.242    21930.661   -7381.6023    24340.587    76.869517 
    8300    1209.3408   -162.51651     1.094237   -161.42228     19975.02     4.244291     4.244291     4.244291     19975.02   -3363.9953    57455.239    5833.8159    9271.1275    -18685.23    15710.397    76.456686 
    8400    1564.2174   -162.84983    1.4153368   -161.43449    4674.5209     4.242209     4.242209     4.242209    4674.5209   -8543.7721    8085.3212    14482.014    17695.044   -7978.6163   -1362.5888    76.344226 
    8500     2183.027   -163.41462    1.9752487   -161.43937    24791.488    4.2509278    4.2509278    4.2509278    24791.488   -19672.413    67177.446    26869.431   -135.15924   -12176.512    7226.6789    76.815912 
    8600     2665.757    -163.8441    2.4120329   -161.43206   -15234.293    4.2631418    4.2631418    4.2631418   -15234.293    -40708.63    31917.636   -36911.885    3305.0156   -14786.078   -21613.769    77.479949 
    8700    2266.9346   -163.47765    2.0511701   -161.42648   -19880.616    4.2498354    4.2498354    4.2498354   -19880.616    6174.6647   -51759.972   -14056.541   -4605.9967   -5856.4386   -23992.242    76.756706 
    8800    1909.1217     -163.138    1.7274134   -161.41059     29889.29    4.2314311    4.2314311    4.2314311     29889.29    36499.377    24042.187    29126.305    1488.9348   -23113.854   -8526.3318    75.763815 
    8900    1822.3177    -163.0917    1.6488713   -161.44283   -2441.1949    4.2581112    4.2581112    4.2581112   -2441.1949    -26379.59    5972.0674    13083.938   -4880.8927   -9979.9304   -9224.8156     77.20599 
    9000    2076.1889   -163.29322    1.8785794   -161.41464     -31102.3    4.2713131    4.2713131    4.2713131     -31102.3   -77922.238    9201.6896   -24586.351    9267.2136   -14497.633    7405.5671    77.926333 
    9100    2285.5608   -163.45975    2.0680234   -161.39173    660.61457    4.2543841    4.2543841    4.2543841    660.61457   -58186.914     24728.17    35440.587    13976.598   -19686.438   -1807.1383    77.003434 
    9200    1947.8565   -163.17146    1.7624615     -161.409   -250.28574    4.2498378    4.2498378    4.2498378   -250.28574   -16281.154    30465.568   -14935.272    20535.261   -30825.727   -12030.745    76.756837 
    9300    1594.7267     -162.864    1.4429423   -161.42106    10932.902    4.2482858    4.2482858    4.2482858    10932.902   -6126.5709   -36325.179    75250.455     11838.58   -9323.1323   -5374.5182    76.672773 
    9400    1686.0482   -162.96191    1.5255718   -161.43634   -10036.919    4.2650447    4.2650447    4.2650447   -10036.919   -16985.525   -24425.518    11300.287    1226.8077    857.60549    12766.474     77.58375 
    9500    1685.9726    -162.9433    1.5255035    -161.4178   -32607.218    4.2699441    4.2699441    4.2699441   -32607.218   -74567.101    4294.8681   -27549.421   -8232.5432    11601.308    20389.868    77.851423 
    9600    1689.0721   -162.92765    1.5283079   -161.39934    18883.532    4.2336591    4.2336591    4.2336591    18883.532   -26521.584    23638.608    59533.572   -15758.438    5186.7631    25432.602    75.883552 
    9700    1572.2503    -162.8509    1.4226051   -161.42829    55864.629    4.2380607    4.2380607    4.2380607    55864.629    24904.672    93879.233    48809.983   -23005.658    2824.4379    3767.9843    76.120481 
    9800     1638.373   -162.91102    1.4824343   -161.42858   -39318.651     4.268209     4.268209     4.268209   -39318.651   -48082.478   -109455.76     39582.28   -24645.297    7162.5858     33325.47    77.756561 
    9900     1958.836   -163.18939     1.772396     -161.417   -24456.619    4.2497724    4.2497724    4.2497724   -24456.619   -44042.678   -73546.857    44219.676   -36765.918    12798.266    14967.157    76.753292 
   10000    1815.1347   -163.06103     1.642372   -161.41866    27904.036     4.238698     4.238698     4.238698    27904.036   -10119.369    30617.118    63214.359   -29122.384    16004.387    20219.424    76.154826 
   10100    1649.7696   -162.92434    1.4927462   -161.43159   -29252.087    4.2561416    4.2561416    4.2561416   -29252.087   -69226.289    -45572.36    27042.387    -46937.57    3652.4346     15014.47    77.098902 
   10200    2040.6486   -163.26749    1.8464218   -161.42107    19642.056    4.2487651    4.2487651    4.2487651    19642.056   -8367.3041    45675.903    21617.568    -28594.68     10419.53    1617.4652     76.69873 
   10300    2311.2028   -163.51448    2.0912248   -161.42326    9423.9787    4.2487673    4.2487673    4.2487673    9423.9787    32464.474    7356.0129   -11548.551    -22680.38    10029.342   -567.69675    76.698848 
   10400    2200.1714    -163.4055    1.9907613   -161.41474   -15834.958    4.2575975    4.2575975    4.2575975   -15834.958   -69473.038   -6683.6797    28651.844   -17119.821    2142.1179   -10460.661    77.178048 
   10500    2009.1961   -163.22566    1.8179629    -161.4077    27698.051    4.2426852    4.2426852    4.2426852    27698.051   -69001.074    47108.978    104986.25   -960.40748   -6884.8997    162.71775    76.369939 
   10600    1985.5512    -163.2228    1.7965684   -161.42623    22137.982    4.2511315    4.2511315    4.2511315    22137.982   -16921.972      92719.9   -9383.9832   -263.29956    6008.0435      9050.03    76.826954 
   10700    2137.3725   -163.35065    1.9339396   -161.41671    -29940.08    4.2677486    4.2677486    4.2677486    -29940.08   -42668.283    -8939.999   -38211.959     10940.12    -6329.409   -11703.418    77.731397 
   10800    2261.0873   -163.44821    2.0458793   -161.40233   -5686.2721    4.2479885    4.2479885    4.2479885   -5686.2721   -19872.647   -16055.673    18869.504    10284.007   -2091.1058   -11643.945    76.656681 
   10900    2012.6498   -163.23717    1.8210878   -161.41609    12356.467    4.2491883    4.2491883    4.2491883    12356.467    21390.883    14555.775    1122.7441    16606.413   -1171.3075   -4176.6572    76.721649 
   11000      1493.91   -162.76833    1.3517211    -161.4166   -7429.5702    4.2542754    4.2542754    4.2542754   -7429.5702   -12382.227   -6821.6498   -3084.8342    14627.754   -891.43183   -23206.307    76.997532 
   11100    1453.7935   -162.72669    1.3154229   -161.41127    19346.658    4.2494579    4.2494579    4.2494579    19346.658   -4316.6617    57205.957    5150.6778    11457.266    -13017.12    -23529.17    76.736254 
   11200    2056.0736   -163.27412    1.8603786   -161.41374   -53252.176    4.2632472    4.2632472    4.2632472   -53252.176   -54821.427   -49226.041   -55709.059    2819.0521   -13267.592     2185.698    77.485696 
   11300    2288.7648   -163.48751    2.0709225   -161.41659   -11556.463     4.243792     4.243792     4.243792   -11556.463    -22411.59   -30925.503    18667.703    17358.426    -15813.08   -17120.887    76.429722 
   11400    2039.4093   -163.26112    1.8453004   -161.41582    67683.797    4.2266834    4.2266834    4.2266834    67683.797    47317.665    131029.78    24703.948    23932.646   -2912.4739   -9577.1874    75.509078 
   11500    1720.4062   -162.99568    1.5566597   -161.43902   -44650.309    4.2574839    4.2574839    4.2574839   -44650.309   -20692.198   -29301.608   -83957.119    11017.802    2056.7137   -2509.9365    77.171875 
   11600    1496.7503   -162.76769    1.3542912    -161.4134   -29251.349    4.2604127    4.2604127    4.2604127   -29251.349   -19982.238    -1237.043   -66534.765    3309.0619   -179.68959   -9241.8915    77.331244 
   11700    2079.7945   -163.28801    1.8818418   -161.40617     22570.08    4.2434617    4.2434617    4.2434617     22570.08    51429.245    55902.205    -39621.21   -2649.1281    7913.7926    4108.7448    76.411876 
   11800     2659.392   -163.83381    2.4062737   -161.42754   -15404.717    4.2450252    4.2450252    4.2450252   -15404.717   -5837.3383   -4522.0851   -35854.727   -5353.1157    5941.7562     3396.659    76.496369 
   11900    2249.8564   -163.47203    2.0357173   -161.43631    34806.374    4.2354287    4.2354287    4.2354287    34806.374    16327.725    84128.731    3962.6663   -32177.785    3420.4248    7239.2294    75.978749 
   12000    1345.5246   -162.67536    1.2174589    -161.4579    18629.685    4.2534203    4.2534203    4.2534203    18629.685    14847.721    90057.441   -49016.106   -10105.342     3517.561    8978.3644     76.95111 
   12100    1160.3728   -162.47927    1.0499297   -161.42934   -52365.395    4.2699193    4.2699193    4.2699193   -52365.395   -64384.327   -36195.678   -56516.179   -19308.638   -490.69586     5034.287     77.85007 
   12200    1598.8299   -162.85859    1.4466549   -161.41193   -5559.4229    4.2343129    4.2343129    4.2343129   -5559.4229   -62217.787     13287.78    32251.738   -19076.274   -938.07852    3740.7526    75.918716 
   12300     1743.256    -163.0108    1.5773347   -161.43347    23050.824    4.2332912    4.2332912    4.2332912    23050.824   -16645.802    29737.442    56060.834   -16951.641    12957.052    14342.014    75.863773 
   12400    1556.8374   -162.84631    1.4086592   -161.43766   -23713.875     4.259322     4.259322     4.259322   -23713.875   -33876.533   -57147.198    19882.106     -41987.8    -107.6193    78.697622     77.27187 
   12500    1259.5798   -162.56325    1.1396943   -161.42355    19485.848    4.2547786    4.2547786    4.2547786    19485.848   -29370.971    52340.611    35487.904   -13921.642    4536.1302    5609.5293    77.024855 
   12600    1098.5778   -162.41522   0.99401628    -161.4212   -29718.317    4.2552907    4.2552907    4.2552907   -29718.317   -58542.944   -12986.163   -17625.844   -2791.0308   -588.71362   -743.69469    77.052671 
   12700    1583.6393   -162.85283    1.4329101   -161.41992    1796.6072    4.2442474    4.2442474    4.2442474    1796.6072   -60106.447    36439.364    29056.905   -24360.705   -879.37221   -7021.0479    76.454328 
   12800    2360.1579   -163.56043    2.1355205   -161.42491   -1535.0624    4.2440896    4.2440896    4.2440896   -1535.0624   -46343.145    15360.669    26377.289   -18645.394   -11495.439    4993.7578    76.445798 
   12900    2594.8129   -163.77325    2.3478412   -161.42541   -15660.061    4.2623282    4.2623282    4.2623282   -15660.061   -45621.521   -24087.139    22728.477   -2698.7402   -5546.4398    8009.9842    77.435598 
   13000    2155.3509   -163.35871    1.9502068    -161.4085    -4562.528    4.2535246    4.2535246    4.2535246    -4562.528   -42459.149    28841.926   -70.360387    4500.4995    5300.9963    18351.115    76.956771 
   13100    1738.0583   -162.97569    1.5726317   -161.40305   -11213.101    4.2452836    4.2452836    4.2452836   -11213.101   -32071.946    17878.297   -19445.655    2388.9246    7873.7192    -13292.86    76.510339 
   13200    1900.6617   -163.13524    1.7197587   -161.41548   -3228.5892    4.2393023    4.2393023    4.2393023   -3228.5892   -7221.8947    31376.887   -33840.759    8789.4146    1296.1328    26050.069    76.187402 
   13300     2345.277   -163.54988    2.1220559   -161.42783    12292.444    4.2370073    4.2370073    4.2370073    12292.444   -2249.6323    40849.594   -1722.6306    5183.0491    7717.6966   -577.02779    76.063732 
   13400    2453.4112   -163.66174    2.2198981   -161.44184    17114.006    4.2580984    4.2580984    4.2580984    17114.006   -18575.249   -3858.9437    73776.211      5385.09   -5194.9057    9073.4968    77.205292 
   13500     2369.586   -163.56482    2.1440512   -161.42077   -26278.545    4.2622541    4.2622541    4.2622541   -26278.545   -27870.454    -18798.36    -32166.82     1964.572    313.29765    7389.0232    77.431558 
   13600    2139.1342   -163.34327    1.9355336   -161.40774     18989.85    4.2339912    4.2339912    4.2339912     18989.85    6033.4877    41286.945    9649.1169    1923.0358    7412.9529   -2124.6002    75.901412 
   13700    1773.6716   -163.02491    1.6048554   -161.42005    23229.587    4.2342608    4.2342608    4.2342608    23229.587    3462.0376    35720.128    30506.595   -896.63042   -6058.7042    -3131.161    75.915912 
   13800    1982.2385   -163.22462     1.793571   -161.43105   -33848.385    4.2666653    4.2666653    4.2666653   -33848.385   -75474.072   -33225.741    7154.6584   -17248.435   -7601.4457   -5293.1674    77.672224 
   13900    2553.7762   -163.72867    2.3107103   -161.41796   -28160.116     4.256313     4.256313     4.256313   -28160.116   -54070.938   -15069.199   -15340.212   -29723.295   -12220.302   -9656.4686    77.108217 
   14000    2197.1989   -163.39599    1.9880717   -161.40792    44053.157    4.2345272    4.2345272    4.2345272    44053.157    23923.359    25549.834    82686.279   -27499.116    14366.303   -8136.9622    75.930244 
   14100    1568.1036   -162.84849    1.4188531   -161.42963   -16671.125    4.2439049    4.2439049    4.2439049   -16671.125   -58509.223   -21338.869    29834.716   -43330.359    9911.9073   -16873.057    76.435822 
   14200     1166.509   -162.48494    1.0554819   -161.42946   -9025.1383    4.2470928    4.2470928    4.2470928   -9025.1383   -64942.458    16367.344    21499.699   -35513.418     6187.194   -2129.6707    76.608197 
   14300    1162.9043    -162.4783    1.0522203   -161.42608   -1114.5785    4.2594601    4.2594601    4.2594601   -1114.5785   -18837.683    41113.324   -25619.378   -37498.822    16974.007    3928.4531    77.279384 
   14400    1697.7507    -162.9492    1.5361605   -161.41304    -33548.19    4.2627905    4.2627905    4.2627905    -33548.19    -33838.76   -56850.484   -9955.3248   -45474.364    15431.263   -4649.8163    77.460799 
   14500    1943.9049   -163.16576     1.758886   -161.40688    29295.702    4.2353512    4.2353512    4.2353512    29295.702    14788.848   -38916.539     112014.8   -52076.083    20557.787    8867.9999    75.974577 
   14600    2081.7041   -163.30433    1.8835697   -161.42076    14383.844    4.2362217    4.2362217    4.2362217    14383.844    5564.5236   -10863.692    48450.699   -45567.156    20876.705   -7470.0933     76.02143 
   14700    1556.0622   -162.83899    1.4079577   -161.43103   -35324.994    4.2572794    4.2572794    4.2572794   -35324.994   -39001.862   -61433.105   -5540.0173   -49080.078   -2234.7994     263.8799    77.160754 
   14800    1111.5034   -162.42471    1.0057116     -161.419   -30907.152    4.2545599    4.2545599    4.2545599   -30907.152   -71435.325    205.51524   -21491.647   -59381.563    7072.2622    9715.5331    77.012981 
   14900    978.24299   -162.30098   0.88513481   -161.41585   -1634.6971    4.2491915    4.2491915    4.2491915   -1634.6971   -64016.387    19199.063    39913.232   -51421.584    9523.7361    2104.8633    76.721825 
   15000    1314.0915   -162.60768    1.1890176   -161.41866   -11477.694    4.2508881    4.2508881    4.2508881   -11477.694   -7535.1249   -52926.055      26028.1   -57137.027   -6404.0271   -1461.1393    76.813757 
   15100    1935.5836   -163.16956    1.7513567    -161.4182    22195.453    4.2411962    4.2411962    4.2411962    22195.453   -37375.614    33604.956    70357.017   -49566.169   -7807.8042   -1958.1812    76.289555 
   15200    1755.3836   -163.01973     1.588308   -161.43142   -3941.2041    4.2496974    4.2496974    4.2496974   -3941.2041    -66345.65    -25977.26    80499.297   -48484.907   -20201.085    17418.516    76.749227 
   15300    1167.0951   -162.47874    1.0560122   -161.42273   -30903.804    4.2628811    4.2628811    4.2628811   -30903.804   -95368.917   -14755.818    17413.323   -32516.566   -11895.774     -3818.38    77.465735 
   15400    1198.9757   -162.50097    1.0848584   -161.41612   -10778.851    4.2460263    4.2460263    4.2460263   -10778.851   -83383.316    65460.522   -14413.759   -33885.551   -22586.964   -7561.8289    76.550504 
   15500    1460.2196   -162.74094    1.3212374    -161.4197    16074.141    4.2346319    4.2346319    4.2346319    16074.141   -42023.278    57385.269    32860.431   -49997.522   -16012.005    3696.5944    75.935876 
   15600    2045.0387   -163.28774     1.850394   -161.43735    10959.601    4.2505745    4.2505745    4.2505745    10959.601   -1238.3172    10131.451     23985.67    -47197.49    1606.2853    29.381965    76.796762 
   15700    2085.3231   -163.31305    1.8868442   -161.42621   -3040.1379    4.2609891    4.2609891    4.2609891   -3040.1379    13356.637   -38674.625    16197.574   -31412.572    11563.993   -6930.4355    77.362637 
   15800    1477.1927   -162.74486     1.336595   -161.40827   -130.24127    4.2532349    4.2532349    4.2532349   -130.24127   -2611.5418   -22349.969    24570.787   -23879.993   -1188.0537   -5034.6878    76.941048 
   15900    1672.8227   -162.91229    1.5136051   -161.39868   -13285.778    4.2506601    4.2506601    4.2506601   -13285.778   -41637.327   -24839.695    26619.687   -10777.882    7183.5431   -19716.605    76.801401 
   16000    1806.7495   -163.04804    1.6347849   -161.41325   -15354.631    4.2606041    4.2606041    4.2606041   -15354.631    22253.557   -61459.455    -6857.994    3320.6475    3660.6607   -13878.416    77.341667 
   16100    1885.8874   -163.11744    1.7063905   -161.41105   -13025.308    4.2578733    4.2578733    4.2578733   -13025.308    32022.978   -90770.917    19672.016   -513.02306     19441.75   -11922.831    77.193051 
   16200    1051.1578    -162.3607   0.95110968   -161.40959    45684.731    4.2493119    4.2493119    4.2493119    45684.731    29923.518    35274.951    71855.723   -6844.3674    28952.025    11624.083    76.728345 
   16300    915.22523     -162.241   0.82811502   -161.41288   -13795.079     4.252363     4.252363     4.252363   -13795.079   -55552.719    17327.048   -3159.5658     12134.94    13330.328   -6759.4314     76.89374 
   16400     1425.907    -162.7012    1.2901906   -161.41101    13376.056    4.2541514    4.2541514    4.2541514    13376.056   -20528.469      12575.7    48080.936    2613.5482     3686.083   -5105.7681    76.990801 
   16500    1744.7008   -162.98858     1.578642   -161.40993   -17983.373    4.2597348    4.2597348    4.2597348   -17983.373   -35796.178    24445.154   -42599.096    5081.0622    14810.631    1628.7908    77.294341 
   16600    1451.8684   -162.71905     1.313681   -161.40537   -2850.6471      4.24504      4.24504      4.24504   -2850.6471   -66842.371    -752.3834    59042.814    21682.726    5186.8144   -17874.035    76.497168 
   16700    1301.4748   -162.58921    1.1776018   -161.41161    1076.2262    4.2358847    4.2358847    4.2358847    1076.2262   -29265.937    30105.392     2389.224    9799.1521    17652.995   -1418.7333    76.003288 
   16800    1140.0491    -162.4675    1.0315403   -161.43596    -19974.92    4.2497855    4.2497855    4.2497855    -19974.92   -95556.588    19193.701    16438.127    10772.224    18491.129    1277.5289    76.754003 
   16900    1492.0731   -162.78458    1.3500591   -161.43452   -10035.674     4.249388     4.249388     4.249388   -10035.674   -56577.972   -1719.4304    28190.381    19622.056    1652.3006    8601.0331    76.732467 
   17000    1888.2073   -163.14242    1.7084896   -161.43393   -6318.2783     4.249525     4.249525     4.249525   -6318.2783    1883.0629   -39426.705    18588.808    18587.515    11504.438    27182.038    76.739888 
   17100    1858.3723   -163.10746    1.6814943   -161.42596   -22204.239    4.2486278    4.2486278    4.2486278   -22204.239    -25196.99   -50317.935    8902.2091    31081.279    12105.597    28077.308    76.691294 
   17200    1344.5679   -162.64142    1.2165933   -161.42483      20274.4    4.2453232    4.2453232    4.2453232      20274.4    6858.2998    2306.5023    51658.399    11075.137    6894.3762    35654.594    76.512479 
   17300    899.86244   -162.24383   0.81421445   -161.42961   -20062.605    4.2560524    4.2560524    4.2560524   -20062.605   -48630.902   -35248.601    23691.689    4467.9274   -106.72697    25983.767    77.094056 
   17400    1367.7859   -162.65767    1.2376014   -161.42006     -10704.8    4.2473397    4.2473397    4.2473397     -10704.8   -60297.973   -6911.0443    35094.618    14146.931   -858.30775    18090.168    76.621558 
   17500    2150.3346   -163.36211    1.9456679   -161.41644    3624.6018    4.2388388    4.2388388    4.2388388    3624.6018    31943.308   -12810.501   -8259.0023    8325.9351   -7627.2561    13740.707    76.162417 
   17600    2103.3186   -163.33313    1.9031269   -161.43001   -12435.769    4.2556291    4.2556291    4.2556291   -12435.769    3866.6687   -54501.567    13327.592   -1753.9147   -5030.4913   -10235.967    77.071054 
   17700    1609.4728   -162.87421    1.4562849   -161.41792   -27.756013    4.2642158    4.2642158    4.2642158   -27.756013   -65607.588     11664.67    53859.651    1665.3242   -12437.531   -32274.252    77.538523 
   17800    1317.9027   -162.59955     1.192466   -161.40708    14946.956    4.2583333    4.2583333    4.2583333    14946.956   -59387.959    2028.5624    102200.26   -3285.6552   -19952.171   -43426.752     77.21807 
   17900    1598.6568   -162.85196    1.4464983   -161.40547   -4491.7244    4.2488713    4.2488713    4.2488713   -4491.7244    9832.2241   -19429.717   -3877.6809   -1598.2356   -7204.1537   -37084.073    76.704477 
   18000    1737.3105   -162.99039    1.5719551   -161.41843   -3350.6114    4.2459065    4.2459065    4.2459065   -3350.6114    2794.8874   -48107.112     35260.39   -1243.9539   -11692.967   -29581.307    76.544022 
   18100    1586.1822   -162.86284     1.435211   -161.42763    -6375.482      4.24883      4.24883      4.24883    -6375.482    6966.4889   -19940.719   -6152.2156   -8320.8162   -19910.249   -32927.668    76.702241 
   18200     879.8439    -162.2213   0.79610125    -161.4252    16350.362    4.2532116    4.2532116    4.2532116    16350.362   -8577.3337    31112.158    26516.262   -3750.4306   -4809.2366   -48667.379    76.939786 
   18300     1404.988   -162.69322    1.2712627   -161.42195   -19356.652    4.2551249    4.2551249    4.2551249   -19356.652   -66440.689     54927.38   -46556.648    6997.9281   -615.01674   -24310.988    77.043667 
   18400    2513.3024   -163.69424    2.2740888   -161.42015    1030.2394    4.2478615    4.2478615    4.2478615    1030.2394    3161.9871   -13428.537    13357.268   -1704.3469   -4204.5528   -8996.9326    76.649804 
   18500    2411.0449   -163.60856    2.1815641     -161.427    16867.701    4.2521904    4.2521904    4.2521904    16867.701    7328.9938    50816.534    -7542.426    10037.145    11951.626   -21261.317    76.884376 
   18600    1684.4305   -162.94046    1.5241081   -161.41635   -13648.469    4.2637726    4.2637726    4.2637726   -13648.469   -59247.713    25213.131   -6910.8242   -5298.6849    8046.6491   -29022.396     77.51435 
   18700     1231.724   -162.51542    1.1144898   -161.40093    15306.929    4.2499547    4.2499547    4.2499547    15306.929   -31668.382    25341.878     52247.29    9954.0102    5932.5371   -18744.647     76.76317 
   18800    1856.0307   -163.08384    1.6793756   -161.40447   -7370.7584    4.2438999    4.2438999    4.2438999   -7370.7584   -50074.793    -26326.93    54289.448    21896.232    24152.006    1605.9663    76.435552 
   18900    2526.6307   -163.70148    2.2861486   -161.41534    -29439.55    4.2550976    4.2550976    4.2550976    -29439.55   -21214.588   -33039.874    -34064.19    11842.833    24379.748    15031.707    77.042182 
   19000     2023.354   -163.24115    1.8307732   -161.41038   -594.75525    4.2633623    4.2633623    4.2633623   -594.75525    5886.0856   -1116.2872   -6554.0641    19993.958    22880.709    7292.7119    77.491974 
   19100    969.87211    -162.2837   0.87756066   -161.40614   -17637.958    4.2633412    4.2633412    4.2633412   -17637.958   -102416.97   -16386.794    65889.889    15833.302    12384.897    9814.3056    77.490823 
   19200    818.43617   -162.14544   0.74053825    -161.4049   -359.92966    4.2405492    4.2405492    4.2405492   -359.92966   -51225.297    5248.2179     44897.29   -2052.1195   -3944.7968    8960.0413    76.254647 
   19300    1476.6504   -162.74603    1.3361043   -161.40992    37337.154    4.2266268    4.2266268    4.2266268    37337.154     37416.14    5750.5195    68844.802    2474.1652    24702.127    17582.076    75.506042 
   19400    1659.4952   -162.94133    1.5015461   -161.43979   -27413.982    4.2493051    4.2493051    4.2493051   -27413.982   -10658.211   -50698.807    -20884.93    16296.285    27150.062    13597.901    76.727975 
   19500    1427.4795   -162.72017    1.2916135   -161.42855   -23035.879     4.261156     4.261156     4.261156   -23035.879   -9365.9327   -39770.188   -19971.516    5119.3417    29100.515    5318.5646    77.371727 
   19600    1032.2793   -162.35736   0.93402801   -161.42333   -17392.693    4.2487699    4.2487699    4.2487699   -17392.693   -88479.734    26403.019    9898.6361   -3212.4376    31374.932   -3344.5275     76.69899 
   19700    1260.7018   -162.56015    1.1407095   -161.41944    30902.374    4.2389847    4.2389847    4.2389847    30902.374     37833.73    34055.876    20817.516   -10944.213    26934.875    2779.1513     76.17028 
   19800     2105.875   -163.33385    1.9054399   -161.42841   -21735.951    4.2525201    4.2525201    4.2525201   -21735.951   -37643.646   -22617.336     -4946.87   -11869.089    38104.638   -2246.6367    76.902266 
   19900    2128.0259   -163.34787    1.9254826   -161.42239     -16361.6     4.254496     4.254496     4.254496     -16361.6   -13598.666   -15304.629   -20181.504    -10413.15    28108.099   -7729.8913     77.00951 
   20000    1615.3303   -162.87307    1.4615848   -161.41148     17329.42     4.241745     4.241745     4.241745     17329.42   -19719.953    50284.043    21424.172    -20501.86    16254.128    3988.6499    76.319177 
   20100      1361.26   -162.65235    1.2316967   -161.42065   -498.69981    4.2485012    4.2485012    4.2485012   -498.69981   -59832.255    74817.218   -16481.063   -16895.653    13910.166   -21510.289    76.684437 
   20200    1729.4985   -162.98624    1.5648866   -161.42136     5.098999    4.2462893    4.2462893    4.2462893     5.098999   -32800.787    34946.283   -2130.1987   -10951.288   -5706.3988   -3897.0672    76.564729 
   20300    2018.2911   -163.25034    1.8261922   -161.42415   -6937.4059    4.2466871    4.2466871    4.2466871   -6937.4059   -4387.5908   -19606.835    3182.2081     85.53848    569.94187   -12689.071    76.586247 
   20400    1837.9572   -163.08755    1.6630223   -161.42452   -25423.634     4.253628     4.253628     4.253628   -25423.634   -28386.821    -19675.43    -28208.65    11140.442   -27277.706      880.593    76.962385 
   20500    1482.5217   -162.76043    1.3414168   -161.41901    2973.6107    4.2408915    4.2408915    4.2408915    2973.6107   -44006.356    3386.9881      49540.2    2105.5273   -33617.646    564.99027    76.273114 
   20600    1639.2082   -162.91258      1.48319   -161.42939   -2260.2751    4.2412145    4.2412145    4.2412145   -2260.2751   -8526.0331     6920.198   -5174.9903    15556.884    -33369.26   -4117.8355    76.290543 
   20700    1869.9499   -163.12654    1.6919699   -161.43457   -6215.9518    4.2459869    4.2459869    4.2459869   -6215.9518    -47496.36    12279.104      16569.4    51.648169   -36361.074    14432.574     76.54837 
   20800    1870.3921   -163.12727    1.6923701    -161.4349    833.31336    4.2445333    4.2445333    4.2445333    833.31336    30716.323   -19152.042   -9064.3408    12998.099    -20918.27   -3926.3909    76.469779 
   20900    1502.4164   -162.79632     1.359418    -161.4369   -37238.501    4.2549072    4.2549072    4.2549072   -37238.501    -45569.82   -61533.481   -4612.2015    11515.389   -22327.247    10755.308    77.031843 
   21000    958.24704   -162.29759   0.86704206   -161.43055   -2732.7546    4.2416328    4.2416328    4.2416328   -2732.7546   -68681.248    12655.476    47827.508   -30259.376   -9441.6416   -14492.436    76.313119 
   21100    1268.5859   -162.58222    1.1478431   -161.43438    15215.907    4.2366924    4.2366924    4.2366924    15215.907   -30239.308    57379.321     18507.71   -22726.014   -5566.3742   -12211.708    76.046775 
   21200    1981.3857   -163.22943    1.7927994   -161.43663   -30592.163    4.2614425    4.2614425    4.2614425   -30592.163   -33384.934   -39079.174   -19312.382   -38943.519   -13239.815     -19423.1    77.387339 
   21300    2197.9193   -163.40754    1.9887235   -161.41881    15571.475    4.2516538    4.2516538    4.2516538    15571.475    54815.616   -6974.0018   -1127.1902   -27179.067     -12778.9    -1580.947    76.855277 
   21400    1781.9129   -163.02416    1.6123122   -161.41185   -336.94102    4.2391437    4.2391437    4.2391437   -336.94102   -24064.678     14548.97    8504.8851    -22780.28   -878.71884    -14765.42     76.17885 
   21500     1590.355   -162.86001    1.4389867   -161.42102    7022.8601     4.233198     4.233198     4.233198    7022.8601   -18947.977    45086.596   -5070.0388   -16445.377    14700.721   -4215.7567    75.858763 
   21600    1884.3863   -163.14015    1.7050324   -161.43512    15028.799    4.2369289    4.2369289    4.2369289    15028.799   -7141.4613    41692.842    10535.018   -575.39745    26483.413   -3668.6301    76.059509 
   21700    2396.9417   -163.61116    2.1688032   -161.44236   -24544.583    4.2597247    4.2597247    4.2597247   -24544.583   -15231.521   -17044.001   -41358.227   -6555.3195     44170.99    -4392.972    77.293787 
   21800    2411.7151   -163.60962    2.1821705   -161.42745   -26621.785     4.250056     4.250056     4.250056   -26621.785   -16259.142   -7219.0383   -56387.174    4923.3836    51608.617    4702.3053    76.768658 
   21900     1694.012   -162.95336    1.5327776   -161.42058    9579.2427    4.2344135    4.2344135    4.2344135    9579.2427   -8505.4523    43946.787   -6703.6066    1522.3135    56240.312   -2818.5986    75.924124 
   22000    1021.3661    -162.3537   0.92415349   -161.42955   -1396.5828    4.2363906    4.2363906    4.2363906   -1396.5828      -103019    63795.283     35033.97    7715.1007    44328.364    4347.7693    76.030522 
   22100    1095.4918   -162.43485   0.99122404   -161.44362    -14507.08     4.246459     4.246459     4.246459    -14507.08   -5791.1545    3501.1056    -41231.19    26302.513    30384.653   -18571.192    76.573909 
   22200    1680.6755   -162.96001    1.5207105    -161.4393   -32381.224    4.2521835    4.2521835    4.2521835   -32381.224   -21560.506   -22054.852   -53528.313   -941.96465    48612.246   -11918.229    76.884002 
   22300    2127.4357   -163.35674    1.9249485   -161.43179    13266.764    4.2389644    4.2389644    4.2389644    13266.764     10279.21    27798.513    1722.5683    17482.522    31874.211   -9940.1796    76.169183 
   22400    1957.5058   -163.20291    1.7711924   -161.43171    4813.0559    4.2366813    4.2366813    4.2366813    4813.0559   -12764.751    54644.327   -27440.409    9014.5543    24944.815   -2214.5861    76.046178 
   22500    1787.8216   -163.04678    1.6176585   -161.42912   -7408.0169     4.250574     4.250574     4.250574   -7408.0169   -78421.356    59082.598   -2885.2923    14249.383    22745.588     4280.069    76.796735 
   22600    1767.1351   -163.01527     1.598941   -161.41633   -12780.975    4.2578894    4.2578894    4.2578894   -12780.975   -62408.461    30427.806   -6362.2711    8220.1263    5219.8471    1595.5762    77.193928 
   22700    1789.0507   -163.02261    1.6187707   -161.40384   -38688.852    4.2526401    4.2526401    4.2526401   -38688.852   -42769.275   -16253.482   -57043.799   -3893.6784    11893.018   -13166.901    76.908774 
   22800    1769.7901   -163.00184    1.6013433    -161.4005    3723.5567    4.2357123    4.2357123    4.2357123    3723.5567    -6675.986   -8893.7547    26740.411    803.29998    9409.0858     103.6983    75.994008 
   22900    1672.3585   -162.93215    1.5131851   -161.41897   -11099.034    4.2391903    4.2391903    4.2391903   -11099.034   -51630.087    27182.416   -8849.4323   -13349.928   -5490.9611    16448.205    76.181362 
   23000    2056.2775   -163.28298    1.8605631   -161.42242   -18862.814     4.251619     4.251619     4.251619   -18862.814   -89153.399    21152.237    11412.721   -905.97348    16930.975    94.063468    76.853388 
   23100    2403.7127   -163.59663    2.1749297    -161.4217    9117.7804    4.2438542    4.2438542    4.2438542    9117.7804   -44103.334    42332.213    29124.462   -11007.942   -5634.1652    23433.033    76.433079 
   23200    2390.0821    -163.5874    2.1625965    -161.4248    10918.069    4.2415817    4.2415817    4.2415817    10918.069   -3057.8077     22752.91    13059.104   -1673.5266     402.1687     152.5334    76.310361 
   23300    2202.7355   -163.41591    1.9930813   -161.42283    -18855.44    4.2438112    4.2438112    4.2438112    -18855.44   -5018.6883   -31576.477   -19971.153     1219.891    3054.9165    32224.851    76.430757 
   23400    1995.7767   -163.22468    1.8058207   -161.41886   -7834.9822    4.2432314    4.2432314    4.2432314   -7834.9822   -29630.417   -55486.618    61612.089    1445.0448    1545.4986   -2356.8567    76.399433 
   23500    2023.9952   -163.25299    1.8313534   -161.42164    -25280.94    4.2510302    4.2510302    4.2510302    -25280.94   -40796.648   -71563.347    36517.174   -2861.4465   -14848.365   -7988.4725    76.821462 
   23600    2702.8184   -163.85874    2.4455669   -161.41317   -15033.367    4.2506273    4.2506273    4.2506273   -15033.367   -46493.998   -8918.9159    10312.814   -462.36349   -8018.9422    894.30572    76.799621 
   23700    2667.6504   -163.83078    2.4137461   -161.41703    12358.665    4.2380221    4.2380221    4.2380221    12358.665   -20648.949    28451.955    29272.989    5574.8743    -16723.24   -20578.543      76.1184 
   23800    2146.2572   -163.36859    1.9419786   -161.42661    27910.857    4.2351805    4.2351805    4.2351805    27910.857   -3151.4362    3970.9029    82913.104    7190.3283   -22993.791   -1395.0141    75.965389 
   23900     1595.034   -162.88175    1.4432203   -161.43853   -17008.783    4.2493682    4.2493682    4.2493682   -17008.783   -19115.506   -20794.985   -11115.857     6504.731   -19846.126   -22086.782    76.731393 
   24000    1312.5021   -162.61208    1.1875795    -161.4245   -40697.249      4.26228      4.26228      4.26228   -40697.249   -60416.732   -43456.786   -18218.229    11573.654   -32476.237   -25480.544    77.432972 
   24100    1971.0322   -163.19655    1.7834314   -161.41311   -4110.2585    4.2499926    4.2499926    4.2499926   -4110.2585   -34976.322    -10329.84    32975.387    9761.1473   -29977.344   -10195.339    76.765224 
   24200    2216.0819   -163.40929    2.0051574   -161.40414    30027.466     4.231562     4.231562     4.231562    30027.466    2833.6495    43734.306    43514.442    6403.9722   -25445.321    3231.0243    75.770843 
   24300    2181.8951   -163.39423    1.9742245      -161.42    -21897.65    4.2439782    4.2439782    4.2439782    -21897.65   -45159.695    1331.0305   -21864.284    366.71936   -27059.003   -842.02136    76.439779 
   24400    1690.4144   -162.94857    1.5295224   -161.41905   -9751.3534    4.2500418    4.2500418    4.2500418   -9751.3534   -31377.213   -47876.505    49999.657    1101.2631   -19434.967    12527.118    76.767889 
   24500      1570.15   -162.83633    1.4207047   -161.41563   -5764.5196    4.2511093    4.2511093    4.2511093   -5764.5196   -5288.9947   -17434.413    5429.8494   -10974.127   -12001.496    25209.123     76.82575 
   24600    2193.2916   -163.39718    1.9845364   -161.41265    1844.1691    4.2506022    4.2506022    4.2506022    1844.1691    -27527.98    36452.731   -3392.2435    5934.3293    536.79427    11030.891     76.79826 
   24700    2772.2356   -163.91842     2.508377   -161.41004    17815.995    4.2375727    4.2375727    4.2375727    17815.995   -4134.3611    45953.805     11628.54    12405.244    4035.4248    15959.663     76.09419 
   24800    2526.3958   -163.70535     2.285936   -161.41941    887.05772    4.2498016    4.2498016    4.2498016    887.05772   -5985.5262   -6180.7399    14827.439    18827.695    6573.4683    2301.2079    76.754877 
   24900     1720.729   -162.95963    1.5569518   -161.40268   -25460.746     4.271894     4.271894     4.271894   -25460.746   -59548.568   -44004.712    27171.041    26280.295    15793.387    17311.603    77.958128 
   25000     1758.145   -162.96595    1.5908065   -161.37515   -21745.065    4.2626871    4.2626871    4.2626871   -21745.065    -37693.15   -42660.485     15118.44    19703.439    4919.4378    18745.284    77.455164 
   25100    2412.5368   -163.55006     2.182914   -161.36715   -2520.1359    4.2464453    4.2464453    4.2464453   -2520.1359     28219.97     -3045.73   -32734.647    15245.919    22764.833    12420.923    76.573168 
   25200    2435.7947   -163.58813    2.2039583   -161.38418   -7067.5191     4.248578     4.248578     4.248578   -7067.5191     3562.044     21184.89   -45949.491    8865.2708     21647.82    9841.6974    76.688599 
   25300    1975.2355   -163.18537    1.7872345   -161.39813   -16517.441     4.249487     4.249487     4.249487   -16517.441   -51134.312    15133.129   -13551.141    4410.7835    16509.498   -2391.9842     76.73783 
   25400    1525.4805   -162.78944    1.3802868   -161.40915    15617.054    4.2401108    4.2401108    4.2401108    15617.054   -11302.323    2242.2527    55911.232     10698.72    24844.079    1393.9987    76.230999 
   25500    1705.7575   -162.97156    1.5434053   -161.42815   -17667.921    4.2430211    4.2430211    4.2430211   -17667.921    621.57482   -47105.784   -6519.5522    27658.964    15778.562    2478.4202    76.388075 
   25600    2098.2721   -163.33285    1.8985607   -161.43429   -1026.0096    4.2427421    4.2427421    4.2427421   -1026.0096     27637.68   -41002.665    10286.956    23100.454    26899.357   -2928.0991    76.373008 
   25700    1734.1283   -163.00505    1.5690757   -161.43597    13331.434      4.24223      4.24223      4.24223    13331.434    28464.681   -24791.779      36321.4    18670.295     7907.802   -16227.847    76.345359 
   25800    1187.3159   -162.50736    1.0743084   -161.43305   -15268.148     4.250659     4.250659     4.250659   -15268.148   -15445.465   -60896.303    30537.325    19776.819    1674.0681   -15928.278     76.80134 
   25900    1162.8485   -162.47226    1.0521698   -161.42009   -16148.984    4.2480961    4.2480961    4.2480961   -16148.984    -54925.59   -57954.049    64432.687    29329.533    10488.445   -29525.546    76.662506 
   26000    1711.1046   -162.96627    1.5482434   -161.41803   -4484.3435    4.2407853    4.2407853    4.2407853   -4484.3435   -11859.076   -21271.523    19677.569    29603.207    781.74117   -17831.771    76.267384 
   26100    2165.0314   -163.38717    1.9589659   -161.42821    15623.635    4.2441538    4.2441538    4.2441538    15623.635    29436.835   -48024.248    65458.318    21391.524   -4455.1354   -9860.7626    76.449272 
   26200    2471.8686   -163.66479    2.2365987   -161.42819   -12431.291    4.2531925    4.2531925    4.2531925   -12431.291   -4159.3535   -37156.622    4022.1023    19448.605   -7549.2531   -14676.942    76.938749 
   26300     2390.386   -163.58479    2.1628715   -161.42191     16540.46    4.2439256    4.2439256    4.2439256     16540.46    3875.3983    28408.054    17337.928   -7284.7863    2823.7663   -7162.8197    76.436939 
   26400    2194.8611   -163.40746    1.9859564   -161.42151   -1320.4745    4.2356991    4.2356991    4.2356991   -1320.4745    -30335.27   -26801.738    53175.584   -32039.636    13331.489   -1438.6405    75.993299 
   26500    1660.2305   -162.93559    1.5022114   -161.43337   -11345.408    4.2430242    4.2430242    4.2430242   -11345.408   -17179.714   -79446.538    62590.028   -42837.126    2291.6772    5654.6398    76.388246 
   26600    1365.4644    -162.6676    1.2355008    -161.4321     2171.054    4.2446684    4.2446684    4.2446684     2171.054    -5204.687   -25179.287    36897.136   -32285.328    -21338.24    7311.8336    76.477084 
   26700    1624.9685   -162.89761    1.4703056   -161.42731   -9002.0823    4.2503534    4.2503534    4.2503534   -9002.0823    40120.566   -65565.112   -1561.7011   -31584.958    1273.2099   -2156.0586    76.784779 
   26800    1902.7261   -163.14308    1.7216265   -161.42145   -36359.054    4.2525451    4.2525451    4.2525451   -36359.054   -18425.563   -76024.431   -14627.169   -50842.144    5716.1818   -2125.9218    76.903621 
   26900      1995.46   -163.22154    1.8055342     -161.416   -1330.3263    4.2415565    4.2415565    4.2415565   -1330.3263   -2395.1882   -28437.403    26841.612   -37208.263   -185.50376   -3464.5505    76.309002 
   27000    1527.2446   -162.80497     1.381883   -161.42309    4481.8405    4.2476762    4.2476762    4.2476762    4481.8405    60513.248   -62330.554    15262.827    -21141.98    5723.4184   -125.78254    76.639774 
   27100    1451.0467   -162.73379    1.3129375   -161.42085   -15636.405    4.2540162    4.2540162    4.2540162   -15636.405    47313.734   -39448.192   -54774.757   -9199.2515   -6466.0752   -583.58373    76.983456 
   27200    1889.9633   -163.12388    1.7100785    -161.4138    13434.199    4.2385195    4.2385195    4.2385195    13434.199    30002.214     42000.85   -31700.468   -1142.2021   -11139.225   -3878.8155    76.145202 
   27300    1928.5258    -163.1739    1.7449707   -161.42893    7885.9809    4.2423866    4.2423866    4.2423866    7885.9809    51788.561   -19321.735   -8808.8831   -1664.8989    -1020.432   -8027.4137    76.353813 
   27400    1840.2455   -163.08739    1.6650928   -161.42229   -36534.191    4.2540839    4.2540839    4.2540839   -36534.191   -12602.955   -70156.782   -26842.835   -6448.5884    1809.4963   -1443.8299    76.987133 
   27500    1642.3503   -162.89505     1.486033   -161.40902   -17978.613     4.256237     4.256237     4.256237   -17978.613   -6165.1372   -41483.224   -6287.4769    7756.4451    5098.6287   -1576.0084     77.10409 
   27600    1514.7575   -162.76695    1.3705844   -161.39637   -4682.6771    4.2654127    4.2654127    4.2654127   -4682.6771    22515.912    8155.1454   -44719.088    -7512.365   -771.31337    6064.8978    77.603833 
   27700     1749.287   -162.95781    1.5827917   -161.37502    6192.0512    4.2587609    4.2587609    4.2587609    6192.0512     11344.72    44589.654    -37358.22   -2976.5536    443.23537    22285.675    77.241333 
   27800    1831.7877   -163.03318      1.65744   -161.37574     12422.14    4.2436557    4.2436557    4.2436557     12422.14   -21309.877    60799.581   -2223.2847     5948.322    18748.204    20315.641    76.422356 
   27900    1742.3838   -162.97721    1.5765455   -161.40066   -14.805809    4.2415174    4.2415174    4.2415174   -14.805809   -5146.7286     -6793.27    11895.581   -2839.0998   -3426.7874    17578.643     76.30689 
   28000    1676.3457   -162.94241    1.5167928   -161.42562   -21186.144    4.2383108    4.2383108    4.2383108   -21186.144   -15092.771   -2973.1326   -45492.527    4136.6507     16668.84    17659.066    76.133956 
   28100    1442.3854   -162.74776    1.3051006   -161.44266    9421.0306    4.2409471    4.2409471    4.2409471    9421.0306    33152.613    30511.084   -35400.606    11254.285   -7007.8776    23740.532    76.276113 
   28200     999.9685   -162.34927   0.90479252   -161.44447   -20461.912    4.2550535    4.2550535    4.2550535   -20461.912   -13366.339    1742.8163   -49762.214    9341.7946   -4628.9038    32669.308    77.039787 
   28300    924.69103   -162.27184   0.83667987   -161.43516   -11045.988    4.2450677    4.2450677    4.2450677   -11045.988    -37129.97    31822.435    -27830.43    19894.809    6129.6578    29950.423    76.498665 
   28400    1421.4711    -162.7088    1.2861769   -161.42262    23424.552    4.2327684    4.2327684    4.2327684    23424.552    6223.5251    47725.323    16324.806   -5729.7493    5204.0225    21118.116    75.835668 
   28500    2239.0986   -163.45379    2.0259835   -161.42781   -41800.512    4.2524911    4.2524911    4.2524911   -41800.512   -25858.279   -55000.006    -44543.25   -6640.1914    1725.5869    8768.1238    76.900693 
   28600    2652.6378   -163.81922    2.4001624   -161.41906   -18305.849    4.2490439    4.2490439    4.2490439   -18305.849    23146.415   -35956.237   -42107.727   -17618.019    7715.4457    1911.2366    76.713827 
   28700    1966.9781   -163.19347    1.7797631   -161.41371     36857.25    4.2326464    4.2326464    4.2326464     36857.25    28532.084    68543.899    13495.768   -18197.307   -2946.8636    854.12087    75.829111 
   28800    1366.6792    -162.6641    1.2366001    -161.4275   -21973.009    4.2432055    4.2432055    4.2432055   -21973.009   -44641.558    -29925.01    8647.5416   -49551.195   -1787.7828   -5053.3191    76.398037 
   28900    1593.6583   -162.87228    1.4419755    -161.4303   -8512.0556    4.2393619    4.2393619    4.2393619   -8512.0556   -25644.245   -25874.159    25982.237   -48173.663   -961.09687   -3106.0937    76.190613 
   29000    1825.1944   -163.09083    1.6514742   -161.43936    23709.944    4.2401821    4.2401821    4.2401821    23709.944    48935.844    6065.7665     16128.22   -41058.552   -1394.7097   -9258.6706    76.234845 
   29100    1605.4077   -162.88561    1.4526066     -161.433    -37574.09    4.2549543    4.2549543    4.2549543    -37574.09   -26212.979   -62226.249   -24283.042   -56788.527    7732.8606   -17902.587    77.034398 
   29200     717.2848   -162.07284   0.64901436   -161.42382    10495.849    4.2423806    4.2423806    4.2423806    10495.849    3432.7132    48757.147   -20702.313   -52341.597    4972.3021   -18383.995     76.35349 
   29300     312.3234    -161.7083   0.28259678    -161.4257    10170.347    4.2391435    4.2391435    4.2391435    10170.347    7262.5299    34493.479   -11244.968   -37891.788    5555.9884   -7608.3527    76.178839 
   29400    981.94098     -162.315   0.88848083   -161.42651    -21421.76    4.2509544    4.2509544    4.2509544    -21421.76   -15690.914   -32925.709   -15648.657   -45475.732   -2598.9265   -15522.112    76.817354 
   29500    1927.2456    -163.1676    1.7438123   -161.42379   -3666.1601    4.2458254    4.2458254    4.2458254   -3666.1601    25290.003   -46626.293     10337.81   -34703.279   -1439.9927    -16390.73    76.539638 
   29600    1885.4433    -163.1283    1.7059887   -161.42231    33968.453     4.239678     4.239678     4.239678    33968.453    53053.377    4684.6973    44167.285    -18935.63   -5045.8463   -13422.667    76.207658 
   29700    1533.5335   -162.80711    1.3875734   -161.41953   -24678.382    4.2483342    4.2483342    4.2483342   -24678.382    -30997.49   -46308.715    3271.0579   -37654.504   -4168.8344   -12345.982    76.675397 
   29800    1535.2085     -162.803    1.3890889   -161.41391   -4035.5874    4.2383464    4.2383464    4.2383464   -4035.5874   -9198.2434     2957.767   -5866.2859   -24959.863   -12979.267   -13402.997    76.135876 
   29900    2095.2218   -163.31301    1.8958007   -161.41721    9955.0905    4.2391382    4.2391382    4.2391382    9955.0905    26437.725    34422.495   -30994.948   -2057.2592   -19536.124   -15818.172    76.178556 
   30000    2607.8061   -163.77834    2.3595978   -161.41874     -27359.5    4.2515826    4.2515826    4.2515826     -27359.5    6352.5394   -46536.882   -41894.158   -3165.9175   -26665.552   -18027.941    76.851417 
   30100    2211.4271   -163.41897    2.0009457   -161.41803    13397.096    4.2364539    4.2364539    4.2364539    13397.096    28737.777   -11265.925    22719.437    1235.3571   -35977.112   -5342.3938    76.033931 
   30200    1736.3917   -162.99269    1.5711237   -161.42157    19731.872     4.230597     4.230597     4.230597    19731.872    2042.5718    35614.083    21538.962   -254.58607   -41535.608     3933.465    75.719017 
   30300     1606.751   -162.88155    1.4538221   -161.42773   -15532.828     4.245887     4.245887     4.245887   -15532.828   -49069.394    34506.006   -32035.096    2599.6556   -49498.248   -5317.1026    76.542966 
   30400    1865.9552   -163.10702    1.6883555   -161.41867    -21928.41    4.2520864    4.2520864    4.2520864    -21928.41   -2992.3186   -16016.478   -46776.434    3582.7557   -36501.091    2649.7899    76.878739 
   30500    2124.9127   -163.33346    1.9226657    -161.4108     5040.524    4.2465457    4.2465457    4.2465457     5040.524    13252.018    -21469.41    23338.964    1540.4517   -31639.719    -1073.703    76.578599 
   30600    1979.1923    -163.2001    1.7908148   -161.40929    12100.806    4.2408584    4.2408584    4.2408584    12100.806   -11906.106    20524.191    27684.333   -886.62247   -21297.521    2677.0707     76.27133 
   30700    2077.3038   -163.29154    1.8795881   -161.41195   -13414.437    4.2461601    4.2461601    4.2461601   -13414.437   -25702.294   -22121.392    7580.3752   -2278.9306   -8833.0027    20438.665    76.557738 
   30800    2236.9317   -163.43691    2.0240228   -161.41288   -1261.1609    4.2389581    4.2389581    4.2389581   -1261.1609   -16314.604   -1727.8863    14259.008   -2731.7071    415.12742    6682.3829    76.168846 
   30900    2232.8743   -163.44583    2.0203516   -161.42548    30095.527    4.2322905    4.2322905    4.2322905    30095.527   -18144.767    33011.407    75419.941   -22336.941    8805.6856    7535.9272    75.809984 
   31000    2382.0662   -163.59395    2.1553436    -161.4386   -11073.251    4.2460831    4.2460831    4.2460831   -11073.251   -19687.657    3066.4701   -16598.565    1703.7609    15190.069   -1791.1962    76.553572 
   31100     1664.184   -162.94011    1.5057887   -161.43432   -6363.8318    4.2494597    4.2494597    4.2494597   -6363.8318   -40007.021    13475.012    7440.5133   -4562.3998    11660.174     878.7951     76.73635 
   31200    1116.5911   -162.43628    1.0103151   -161.42596   -1936.4886       4.2386       4.2386       4.2386   -1936.4886   -34755.769   -16992.059    45938.362   -15227.028    8507.5565     -1767.72    76.149544 
   31300    1311.5773   -162.60457    1.1867427   -161.41782    6682.5594    4.2401151    4.2401151    4.2401151    6682.5594    -16084.34   -20187.257    56319.275   -1371.3704    12845.044   -10291.162    76.231234 
   31400    1980.4051   -163.20653    1.7919122   -161.41461    948.65224    4.2481133    4.2481133    4.2481133    948.65224   -9581.2264    27236.543    -14809.36     -7491.73     22640.07   -4720.5671    76.663436 
   31500    2466.1032   -163.64314     2.231382   -161.41175   -10006.168    4.2486222    4.2486222    4.2486222   -10006.168   -4168.5018    18194.951   -44044.952    11925.443    17337.408     -5598.42    76.690988 
   31600    2206.7164   -163.40671    1.9966833   -161.41003    -3038.161    4.2434505    4.2434505    4.2434505    -3038.161   -16880.652    2800.6744    4965.4947    2398.7778    18334.282     3514.939    76.411268 
   31700    1583.7726   -162.84309    1.4330307   -161.41006   -5652.8892    4.2329103    4.2329103    4.2329103   -5652.8892   -33554.593    550.11677    16045.809    482.23103    31349.287    10528.534    75.843298 
   31800    1329.8173   -162.62723    1.2032467   -161.42399   -14574.803    4.2360034    4.2360034    4.2360034   -14574.803    -23115.39    -26212.09    5603.0726    9234.0859    38705.315   -1480.2944    76.009678 
   31900    1890.3015   -163.13956    1.7103845   -161.42917   -7533.9929    4.2458002    4.2458002    4.2458002   -7533.9929   -10587.364   -7253.2495   -4761.3647   -1064.6912    19228.233    6774.2872    76.538274 
   32000    2376.3601   -163.57286    2.1501806   -161.42268    -5745.406    4.2494515    4.2494515    4.2494515    -5745.406    2599.7346    32713.571   -52549.524    5217.1053    4977.1829    539.59407    76.735909 
   32100    2250.8549     -163.452    2.0366208   -161.41537   -14488.354    4.2429297    4.2429297    4.2429297   -14488.354   -37317.585    45358.057   -51505.533    1623.6976    13106.998   -1601.7678    76.383139 
   32200    1797.7937   -163.03675    1.6266815   -161.41007    4245.4052    4.2320369    4.2320369    4.2320369    4245.4052    4225.2926    42998.997   -34488.074    1262.2847   -8137.5346    2977.4752     75.79636 
   32300    1499.3655   -162.77849    1.3566574   -161.42183   -27853.748     4.241111     4.241111     4.241111   -27853.748   -34661.653   -10855.331   -38044.261    1159.3972   -24308.666   -6486.6235    76.284959 
   32400     1841.357   -163.08556    1.6660985   -161.41946   -21509.944    4.2562612    4.2562612    4.2562612   -21509.944   -4021.5549   -28175.759   -32332.519    -3707.912    -32212.52     4708.646    77.105404 
   32500    2362.5746   -163.54964    2.1377071   -161.41193    542.18529    4.2463595    4.2463595    4.2463595    542.18529    17183.456     35214.46   -50771.361    -16080.28   -46732.303   -4397.2533    76.568525 
   32600    2069.2685   -163.28591    1.8723176   -161.41359    2192.4192    4.2284925    4.2284925    4.2284925    2192.4192   -38526.243    82203.844   -37100.343   -10669.546    -65652.55    4054.0021    75.606076 
   32700    1323.5508   -162.63294    1.1975766   -161.43537    5983.0426    4.2353755    4.2353755    4.2353755    5983.0426   -5095.6821    53729.087   -30684.277   -12620.514   -58625.939    6471.1511    75.975881 
   32800    1015.2805   -162.36014   0.91864717   -161.44149   -26897.943    4.2501938    4.2501938    4.2501938   -26897.943   -89416.194   -993.30245    9715.6679   -11129.906   -68590.996    6789.9766    76.776125 
   32900    1274.8468   -162.59059    1.1535082   -161.43709   -21560.245    4.2412673    4.2412673    4.2412673   -21560.245    -73372.42   -11507.323    20199.006   -11124.184   -70943.045     15365.14    76.293391 
   33000    1230.7803   -162.54645    1.1136359   -161.43281    24589.101    4.2323765    4.2323765    4.2323765    24589.101    3655.9185    76545.532   -6434.1465   -3242.1989   -61821.226     2748.699    75.814607 
   33100    1215.8039   -162.53251    1.1000849   -161.43242     -18622.4    4.2406258    4.2406258    4.2406258     -18622.4    -47487.98    33366.636   -41745.855    11460.481   -80075.017   -4399.0868    76.258783 
   33200    1120.2876    -162.4438    1.0136597   -161.43014    9450.2874    4.2404044    4.2404044    4.2404044    9450.2874   -9914.0755    39872.817   -1607.8794    9421.6407   -73662.131   -15514.801    76.246839 
   33300    1231.4895   -162.54559    1.1142775   -161.43131    19991.862    4.2465363    4.2465363    4.2465363    19991.862   -3217.1883    39296.015     23896.76    11080.249   -62550.381   -9245.9988    76.578087 
   33400    1687.3913   -162.94689    1.5267871    -161.4201   -30813.803    4.2512648    4.2512648    4.2512648   -30813.803   -54259.828    5800.6064   -43982.189    1439.5401   -68267.467   -26005.829    76.834183 
   33500    1754.1092   -162.99753    1.5871549   -161.41038     25557.47    4.2370902    4.2370902    4.2370902     25557.47    40996.737      46781.1   -11105.426    2175.8652   -44183.351   -20428.143    76.068199 
   33600    1413.4101    -162.6914    1.2788831   -161.41252   -8408.4995    4.2392103    4.2392103    4.2392103   -8408.4995    7193.3522    38095.349     -70514.2   -4423.1958   -34650.771   -25050.251    76.182439 
   33700    1096.5694   -162.40837   0.99219903   -161.41617   -22832.225    4.2438229    4.2438229    4.2438229   -22832.225   -25891.616    29060.329   -71665.388   -4984.3481   -38102.311   -24856.147     76.43139 
   33800    1634.2893    -162.8972    1.4787393   -161.41846    9974.5174    4.2431561    4.2431561    4.2431561    9974.5174   -23939.428    43178.795    10684.185     -1071.75   -24021.416   -2102.2681    76.395367 
   33900    2317.6197   -163.51546     2.097031   -161.41843   -9313.7318    4.2459145    4.2459145    4.2459145   -9313.7318   -17015.723    12276.145   -23201.618   -15822.075   -1913.7604     4632.266    76.544452 
   34000    2171.8872   -163.38727    1.9651692    -161.4221   -7332.4925    4.2404266    4.2404266    4.2404266   -7332.4925   -15902.858    17825.364   -23919.984   -1103.3305    3433.0629     11826.02    76.248032 
   34100    1547.8088   -162.82575      1.40049   -161.42526     13494.48    4.2356854    4.2356854    4.2356854     13494.48    15280.501    38612.914   -13409.974   -10552.557    13397.228    7307.1003    75.992563 
   34200    933.67289    -162.2756   0.84480686   -161.43079    7540.8525    4.2429128    4.2429128    4.2429128    7540.8525    9624.3067    41248.272   -28250.021   -6532.5801    7496.1389    15484.867    76.382225 
   34300    1056.8296   -162.38486   0.95624163   -161.42862   -21792.617    4.2482951    4.2482951    4.2482951   -21792.617   -70810.107    14493.878   -9061.6237    3396.0108    18820.663    14104.588    76.673276 
   34400    1561.9045   -162.83638     1.413244   -161.42314   -4798.6144    4.2408842    4.2408842    4.2408842   -4798.6144   -61972.917     14123.84    33453.234   -4030.7942    33662.954    20947.773    76.272721 
   34500    1923.7798   -163.16387    1.7406764   -161.42319    13774.643     4.234103     4.234103     4.234103    13774.643   -14951.697    12771.136    43504.491    10281.969    18550.186    31480.072    75.907425 
   34600    1827.8924   -163.08441    1.6539154   -161.43049    4080.2438    4.2355755    4.2355755    4.2355755    4080.2438   -14532.098   -7005.2263    33778.055     12474.33    26723.853    25466.743     75.98665 
   34700    1414.7285   -162.71411     1.280076   -161.43404   -638.47701    4.2465953    4.2465953    4.2465953   -638.47701   -43231.268    8992.9834    32322.854    9987.2645    14857.401    21241.693    76.581278 
   34800    1133.9115   -162.44837     1.025987   -161.42238   -30168.099    4.2529228    4.2529228    4.2529228   -30168.099   -85314.119    8339.3352   -13529.513    24030.612    7154.9805    19670.192    76.924112 
   34900    1128.1434    -162.4414    1.0207679   -161.42063   -4204.0856    4.2397212    4.2397212    4.2397212   -4204.0856   -57320.297   -25422.998    70131.037    30527.232    2551.7359    7999.8567    76.209987 
   35000    1599.5429     -162.872       1.4473    -161.4247    10019.812    4.2299102    4.2299102    4.2299102    10019.812    -23024.12   -3419.5717    56503.128    14751.323   -903.49742     2682.656    75.682145 
   35100    2071.9318   -163.31124    1.8747275   -161.43651      2668.32    4.2384574    4.2384574    4.2384574      2668.32   -9365.0514    -25812.55    43182.562    22725.105   -474.32904   -7236.0269    76.141857 
   35200     1775.929   -163.04227    1.6068979   -161.43537   -12931.863     4.248227     4.248227     4.248227   -12931.863   -11540.236   -50727.045    23471.693    19354.357    4492.4642   -28178.927    76.669593 
   35300    1112.4893   -162.43286    1.0066037   -161.42626     -12017.2    4.2454619    4.2454619    4.2454619     -12017.2   -32690.278    16087.775   -19449.098    20193.554   -9204.9293   -22744.131    76.519981 
   35400    741.41579   -162.09358   0.67084858   -161.42274    -17379.91    4.2353987    4.2353987    4.2353987    -17379.91   -50580.032   -14343.894    12784.197    14052.496   -11250.234   -42499.667    75.977133 
   35500    977.57795   -162.31267   0.88453307   -161.42813   -14889.023    4.2282961    4.2282961    4.2282961   -14889.023   -58487.947     6801.726    7019.1518    10483.956   -10484.877    -39589.44    75.595539 
   35600    1365.6375   -162.67954    1.2356575   -161.44388    1528.1491    4.2420891    4.2420891    4.2420891    1528.1491   -25672.812    8894.9836    21362.275    7431.1943   -14452.553   -30708.637    76.337751 
   35700    1915.0861   -163.17108    1.7328101   -161.43827   -33540.036    4.2510186    4.2510186    4.2510186   -33540.036   -25126.541   -58947.994   -16545.572   -10392.611   -1357.9065   -36129.133    76.820833 
   35800    1969.8267   -163.21332    1.7823406   -161.43098     19290.24    4.2301858    4.2301858    4.2301858     19290.24    881.73282    58618.374   -1629.3862   -7423.6949    -17161.77   -18060.554    75.696942 
   35900    1737.6173   -163.00299    1.5722326   -161.43076    385.25188    4.2303971    4.2303971    4.2303971    385.25188   -15016.777   -12773.734    28946.266   -158.76591    8163.9783   -19924.103    75.708286 
   36000    1435.2635    -162.7297    1.2986566   -161.43104   -8035.7994    4.2420666    4.2420666    4.2420666   -8035.7994   -71948.709    50148.545   -2307.2334   -17464.329    738.68823    3564.9512    76.336535 
   36100    1622.4599   -162.89182    1.4680358   -161.42378   -28612.919    4.2441381    4.2441381    4.2441381   -28612.919   -60828.723    8739.3068    -33749.34   -19450.698    17795.623    5153.2542     76.44842 
   36200    2266.3449   -163.47378    2.0506365   -161.42315   -4502.0039    4.2409663    4.2409663    4.2409663   -4502.0039    14352.874    2831.1183   -30690.004   -15094.559     23219.39    23941.681    76.277149 
   36300    2694.4928   -163.85937    2.4380337   -161.42134    16498.848     4.230666     4.230666     4.230666    16498.848    36071.213    25408.978   -11983.646   -32285.523    15708.549    25405.886    75.722723 
   36400    2531.2174   -163.71879    2.2902987   -161.42849    11640.667    4.2386656    4.2386656    4.2386656    11640.667    2368.1935      51905.8   -19351.993   -19622.709    25895.071    17877.612    76.153078 
   36500    2165.4366   -163.37998    1.9593325   -161.42065   -9035.6378    4.2473739    4.2473739    4.2473739   -9035.6378   -11334.211   -15776.936    4.2335833   -25410.148    7909.2531    16748.327    76.623409 
   36600     1920.747   -163.14985    1.7379322   -161.41192     1773.206    4.2409131    4.2409131    4.2409131     1773.206   -28339.729    9956.9023    23702.445   -23681.681    16259.131    2435.9222    76.274279 
   36700    2016.4204   -163.24003    1.8244996   -161.41553    6959.7333    4.2424912    4.2424912    4.2424912    6959.7333   -1035.9598    33849.762   -11934.603   -22675.333    14073.136   -8557.3389     76.35946 
   36800    2262.6648   -163.46397    2.0473067   -161.41666   -6763.7272    4.2373024    4.2373024    4.2373024   -6763.7272    27942.389   -5821.5848   -42411.986   -19335.957    7194.0018    -27275.94    76.079625 
   36900     2191.587   -163.40736     1.982994   -161.42436    10976.835    4.2389074    4.2389074    4.2389074    10976.835    37036.804    15748.954   -19855.253   -15584.607    9801.2585   -37888.721    76.166114 
   37000    2226.1797   -163.43774    2.0142942   -161.42345   -9221.7281    4.2472985    4.2472985    4.2472985   -9221.7281   -12791.924   -20448.657    5575.3976   -19136.335     -7930.68   -33344.789    76.619333 
   37100    1975.2594   -163.20903    1.7872562   -161.42177    744.03029    4.2339814    4.2339814    4.2339814    744.03029   -13660.185    728.51561     15163.76   -15762.742   -4531.3703   -50665.022    75.900886 
   37200    1404.4123   -162.70097    1.2707418   -161.43023    13611.491    4.2368006    4.2368006    4.2368006    13611.491    41854.558    19796.102   -20816.187   -14968.414   -9590.4778   -52915.764      76.0526 
   37300    1190.6808    -162.4985     1.077353   -161.42114   -30180.652    4.2507023    4.2507023    4.2507023   -30180.652     12677.66   -23286.997   -79932.619   -9933.6933   -16473.969   -49353.216     76.80369 
   37400    1350.0015   -162.63501    1.2215098    -161.4135     7480.712    4.2410777    4.2410777    4.2410777     7480.712    19325.283    43103.768   -39986.915   -6797.0629   -11313.246   -49852.245    76.283163 
   37500    1734.3744   -162.98727    1.5692984   -161.41797    9036.3439    4.2385972    4.2385972    4.2385972    9036.3439    52101.139   -31863.322    6871.2151    3306.3509   -15382.313   -62060.108    76.149394 
   37600    1822.9373   -163.07159     1.649432   -161.42216   -11610.717    4.2446223    4.2446223    4.2446223   -11610.717    7356.0038   -18865.773   -23322.383    9410.3167   -10856.277   -79162.308    76.474588 
   37700    1371.6027   -162.66447     1.241055   -161.42341    11712.497    4.2381726    4.2381726    4.2381726    11712.497   -3287.0347    23912.252    14512.274    9185.7128   -11463.205   -62556.095    76.126509 
   37800    1043.3563   -162.36904   0.94405071   -161.42499    -10882.68    4.2379051    4.2379051    4.2379051    -10882.68    18755.333   -2572.4768   -48830.896    19862.099   -3490.4032   -53306.062    76.112096 
   37900    878.72432   -162.22043   0.79508823   -161.42534   -34857.996    4.2504362    4.2504362    4.2504362   -34857.996    13948.969   -8602.5834   -109920.37    14255.283    2234.7257   -64415.114    76.789265 
   38000    1303.3039   -162.60251    1.1792567   -161.42325    13225.361    4.2427729    4.2427729    4.2427729    13225.361    16207.932   -7552.2903    31020.441    19205.509   -2782.7162   -58717.077    76.374673 
   38100    1852.2021   -163.09669    1.6759114   -161.42078    13853.438    4.2367039    4.2367039    4.2367039    13853.438    16299.879    12990.931    12269.504     22232.54   -2023.9264   -61248.032    76.047393 
   38200    1718.3379   -162.98153    1.5547882   -161.42674    -20519.93     4.244308     4.244308     4.244308    -20519.93    37475.986    -85862.73   -13173.045    25555.505    8259.9068    -58156.23      76.4576 
   38300     1199.429   -162.50913    1.0852686   -161.42386    18477.101    4.2403886    4.2403886    4.2403886    18477.101    38407.825     31060.82   -14037.343     18216.04    1204.9406    -43289.34    76.245983 
   38400    1040.7181   -162.36609   0.94166365   -161.42443   -15605.427    4.2463787    4.2463787    4.2463787   -15605.427   -11574.239   -44275.595    9033.5528    26656.297     5428.454   -48504.967     76.56956 
   38500    1227.4662   -162.53205    1.1106372   -161.42141   -15759.355    4.2440902    4.2440902    4.2440902   -15759.355   -8524.7536   -31571.906   -7181.4051    14010.535    5386.0297   -48942.149    76.445831 
   38600    1836.8244   -163.08256    1.6619973   -161.42057     14931.98    4.2313596    4.2313596    4.2313596     14931.98    14094.067    3535.2791    27166.594   -4702.6802   -5245.1184    -36576.73     75.75997 
   38700    2182.1328   -163.40073    1.9744396   -161.42629   -359.52568     4.239652     4.239652     4.239652   -359.52568    7078.8798   -36835.323    28677.867    817.08609    11058.228   -34907.177    76.206258 
   38800    2173.0705   -163.38969    1.9662398   -161.42345    6242.4965    4.2461802    4.2461802    4.2461802    6242.4965    19822.652    8897.2608   -9992.4236   -14107.747   -10624.872   -27804.305    76.558826 
   38900    1881.1336   -163.11858    1.7020892   -161.41649   -9052.5055    4.2431608    4.2431608    4.2431608   -9052.5055    11548.175   -29700.365   -9005.3266   -18562.447    2737.5023   -32705.895    76.395622 
   39000    1622.8321   -162.88188    1.4683726   -161.41351   -8837.8771    4.2396672    4.2396672    4.2396672   -8837.8771    -13527.42     8548.083   -21534.295   -17924.238   -7624.2952   -24277.689    76.207076 
   39100    1718.1095   -162.96999    1.5545816   -161.41541   -940.28512    4.2346983    4.2346983    4.2346983   -940.28512   -54105.051    19782.253    31501.943   -24982.479   -20706.416   -2665.6767    75.939444 
   39200    2114.2402   -163.33275     1.913009   -161.41974   -14597.447    4.2415712    4.2415712    4.2415712   -14597.447   -48106.199   -13250.819    17564.678   -11163.142   -6464.5204   -4708.5869    76.309797 
   39300    2431.7415   -163.62102    2.2002908   -161.42073    7726.8728    4.2449461    4.2449461    4.2449461    7726.8728    21482.652   -27013.773     28711.74   -15410.202   -19650.426    11891.539    76.492091 
   39400    2513.9424    -163.6957    2.2746679   -161.42104   -4713.2398    4.2412655    4.2412655    4.2412655   -4713.2398     6206.118    -2680.817    -17665.02   -4084.7867   -1510.7033    6879.1332    76.293296 
   39500    2041.2779    -163.2686    1.8469911   -161.42161    4129.1153    4.2322916    4.2322916    4.2322916    4129.1153   -12846.791    28386.068   -3151.9321    5472.4719   -6423.0985    23014.128    75.810041 
   39600     1729.308   -162.99049    1.5647142   -161.42578    17774.541    4.2343512    4.2343512    4.2343512    17774.541   -13936.743    30092.347    37168.018    7213.4329    2469.3585    21930.722    75.920775 
   39700    2152.9738   -163.37319    1.9480559   -161.42514   -28610.375    4.2517041    4.2517041    4.2517041   -28610.375   -77606.218   -27928.189    19703.281    19175.401    22734.081    9217.6979    76.858001 
   39800    2613.4696   -163.77997    2.3647222   -161.41524   -11800.622    4.2441995    4.2441995    4.2441995   -11800.622   -23965.512    -9733.182   -1703.1723    10155.067    19944.528    17342.112    76.451739 
   39900    2448.7721   -163.62073    2.2157004   -161.40503    20391.795    4.2324642    4.2324642    4.2324642    20391.795    35525.893    52030.386   -26380.894    20252.935    30756.248    9833.7461    75.819318 
   40000    1943.6295   -163.17212    1.7586368   -161.41348   -2941.9141     4.243535     4.243535     4.243535   -2941.9141    17167.707     20059.65   -46053.099    23210.171    10890.871        10918    76.415836 
   40100    1974.8718   -163.19843    1.7869055   -161.41152   -24263.517    4.2478555    4.2478555    4.2478555   -24263.517   -35480.813    3997.8715   -41307.611    1233.1719    22161.538    10970.267    76.649481 
   40200     2436.411   -163.61604    2.2045159   -161.41152   -4803.7264    4.2438017    4.2438017    4.2438017   -4803.7264   -22560.701   -7231.8426    15381.364     1775.876    16875.884   -2302.5495    76.430247 
   40300     2415.293   -163.60007    2.1854079   -161.41466    3429.2762    4.2356153    4.2356153    4.2356153    3429.2762    7191.5861   -592.74267    3688.9851   -344.49784    7132.9737    9106.4716    75.988788 
   40400    1896.2607   -163.13372    1.7157766   -161.41794    1507.8521    4.2318792    4.2318792    4.2318792    1507.8521    16657.073    24051.692   -36185.208   -5052.2895    20189.806   -8424.7312    75.787887 
   40500    1714.5054   -162.97428    1.5513205   -161.42296   -5234.4642    4.2461599    4.2461599    4.2461599   -5234.4642    31394.742    15597.955    -62696.09    510.17944    7948.4298   -4132.6564    76.557726 
   40600    2125.8122   -163.33657    1.9234796    -161.4131   -30069.711    4.2498873    4.2498873    4.2498873   -30069.711   -31181.009    4264.6135   -63292.738   -22534.934    19121.618    3537.1067    76.759516 
   40700    2635.8085   -163.78813    2.3849349   -161.40319    1092.3416    4.2335434    4.2335434    4.2335434    1092.3416   -7555.9465    4152.7288    6680.2424   -6765.5022    25349.406   -13123.757    75.877329 
   40800    2635.2879   -163.79423    2.3844639   -161.40977    11695.263    4.2343791    4.2343791    4.2343791    11695.263    13616.876   -4836.2201    26305.132   -14957.969    13842.693    10104.824    75.922274 
   40900    2277.9141   -163.47743    2.0611046   -161.41632   -15922.022    4.2441736    4.2441736    4.2441736   -15922.022    5754.3292   -5935.1184   -47585.278   -3597.5586    21447.544    5727.4575    76.450338 
   41000     1960.562   -163.18518    1.7739577   -161.41122    9267.4121    4.2440336    4.2440336    4.2440336    9267.4121    50216.445    10990.963   -33405.171   -9423.3382    3691.7638    8730.3766    76.442777 
   41100    1549.1886   -162.81051    1.4017384   -161.40877   -5596.0505    4.2471584    4.2471584    4.2471584   -5596.0505   -2546.1636     16951.75   -31193.738   -15029.515    10935.332   -875.32039     76.61175 
   41200    1615.7346     -162.869    1.4619506   -161.40705    1564.9576    4.2409871    4.2409871    4.2409871    1564.9576   -18608.432    24203.058   -899.75329   -3678.1454    8039.4456    3519.8637    76.278276 
   41300    2008.8402   -163.22552    1.8176408   -161.40788    7114.5389    4.2341941    4.2341941    4.2341941    7114.5389   -22906.559    12156.744    32093.432    1621.4298    7953.0591    9360.1318    75.912326 
   41400    2409.9017   -163.59632    2.1805297   -161.41579   -21018.548    4.2432948    4.2432948    4.2432948   -21018.548   -16717.281    -24595.63   -21742.734    7401.0846    2042.8666    8311.8465    76.402858 
   41500    2334.1228   -163.52733    2.1119634   -161.41537    9378.6142    4.2404063    4.2404063    4.2404063    9378.6142    25348.787   -2015.7198    4802.7757    8107.8436   -213.45637    6481.7291     76.24694 
   41600    2080.3965   -163.29524    1.8823865   -161.41285   -10169.386    4.2407171    4.2407171    4.2407171   -10169.386    -21751.07    17806.908   -26563.996    13939.884    13182.096    -8369.468    76.263706 
   41700    1996.0139   -163.22197    1.8060353   -161.41594    1554.3816    4.2389017    4.2389017    4.2389017    1554.3816    -24240.89     13879.11    15024.925   -171.42161      17932.9   -990.53957    76.165806 
   41800    1957.5614   -163.18705    1.7712427   -161.41581    25184.135    4.2293984    4.2293984    4.2293984    25184.135    2889.6912    4221.4622    68441.252    7202.9939    6525.9405   -9549.3904    75.654678 
   41900    2285.5842   -163.49409    2.0680446   -161.42605   -17558.508    4.2419869    4.2419869    4.2419869   -17558.508   -3214.5285   -36821.643   -12639.351   -1813.4589    11361.461   -12685.043    76.332235 
   42000    2504.6218   -163.68867    2.2662344   -161.42244   -11098.069    4.2444567    4.2444567    4.2444567   -11098.069    43438.724    -40791.85    -35941.08    -759.8656      2742.95   -7538.6653    76.465641 
   42100    2397.9389   -163.58491    2.1697055   -161.41521    22139.182    4.2352154    4.2352154    4.2352154    22139.182    59327.176   -8344.9711    15435.341    10210.685   -7891.0903   -12764.456     75.96727 
   42200    2290.8128   -163.48912    2.0727756   -161.41635   -16364.545    4.2396451    4.2396451    4.2396451   -16364.545   -20795.549   -1140.5656    -27157.52   -15694.656   -10555.551    2554.8281    76.205887 
   42300    1994.8134   -163.21945    1.8049491   -161.41451   -598.68671    4.2364079    4.2364079    4.2364079   -598.68671    27871.951   -5270.9136   -24397.098     316.7831   -8985.0553    9067.3195    76.031454 
   42400    2079.2898   -163.29932    1.8813851   -161.41794    21860.601    4.2356156    4.2356156    4.2356156    21860.601      47303.2   -3274.2842    21552.886   -10238.065   -11127.687    17415.501    75.988806 
   42500    2335.1866   -163.53116    2.1129259   -161.41824   -9471.5638    4.2431591    4.2431591    4.2431591   -9471.5638    65229.379    -74990.72   -18653.351    11485.829   -15188.909    18278.244    76.395533 
   42600    2331.3675   -163.52469    2.1094703   -161.41522   -11379.018    4.2370717    4.2370717    4.2370717   -11379.018    59692.496    -55681.15   -38148.399   -595.13424   -11064.091    26751.748    76.067199 
   42700    2141.6739   -163.35321    1.9378316   -161.41538    20190.552    4.2330665    4.2330665    4.2330665    20190.552    19659.463    8019.0245    32893.169   -1617.7179    -16133.31    20772.648    75.851693 
   42800    2070.4566   -163.29016    1.8733926   -161.41676   -20617.382    4.2423654    4.2423654    4.2423654   -20617.382   -42933.397   -10054.822   -8863.9274     13254.81    -16062.98    22632.897    76.352669 
   42900    2048.2295   -163.26776    1.8532811   -161.41448   -16853.229    4.2412291    4.2412291    4.2412291   -16853.229   -19454.613   -7295.9351    -23809.14   -6839.2502   -33277.422     29359.96    76.291331 
   43000    2092.6296     -163.307    1.8934552   -161.41354    5549.0138    4.2372417    4.2372417    4.2372417    5549.0138    14035.917   -26555.997    29167.121    10764.831   -24412.469     13714.25    76.076356 
   43100    2165.2342   -163.37132    1.9591494   -161.41217   -23340.918    4.2420671    4.2420671    4.2420671   -23340.918    26105.067    -71692.46   -24435.362    -1191.157    -27669.33    27529.763    76.336561 
   43200    1890.5464   -163.12243    1.7106061   -161.41182   -3190.4585     4.238886     4.238886     4.238886   -3190.4585    37251.064   -44199.685   -2622.7549      8645.78   -34743.216    14309.433     76.16496 
   43300    1881.0855   -163.11435    1.7020457   -161.41231   -12207.668    4.2420462    4.2420462    4.2420462   -12207.668   -47851.699    -1440.423    12669.118     10965.03    -19876.78    16556.201    76.335434 
   43400    1889.0337   -163.11978    1.7092374   -161.41055   -32477.916    4.2459007    4.2459007    4.2459007   -32477.916    -67701.75    3222.4485   -32954.447    16713.986   -32605.831    19357.199    76.543707 
   43500    1746.3898   -162.98995    1.5801702   -161.40978    12547.008    4.2329307    4.2329307    4.2329307    12547.008    56299.816   -10072.429   -8586.3636    19298.727    -18267.31    12826.718     75.84439 
   43600     1608.595   -162.87294    1.4554906   -161.41745   -6005.2831     4.234562     4.234562     4.234562   -6005.2831    19690.224    -4832.564    -32873.51    24406.547   -18275.299    8332.0522    75.932111 
   43700    1548.8786   -162.82683    1.4014579   -161.42538   -21913.203    4.2417771    4.2417771    4.2417771   -21913.203     14347.36    -46553.43    -33533.54    27486.514   -14049.728   -10187.732    76.320906 
   43800    1580.5112   -162.85661    1.4300798   -161.42653    17897.556    4.2330473    4.2330473    4.2330473    17897.556    53526.004     615.7604   -449.09506    17149.013    3407.8484   -16255.084    75.850661 
   43900    1886.2204   -163.13724    1.7066918   -161.43055   -13237.656    4.2389583    4.2389583    4.2389583   -13237.656   -19319.299    6280.2804    -26673.95    22565.138   -10299.822   -20409.549    76.168858 
   44000    1947.4828    -163.1909    1.7621234   -161.42878    467.09257    4.2392042    4.2392042    4.2392042    467.09257    20454.454    10259.002   -29312.178    14211.152    9275.1464   -32325.338    76.182112 
   44100    1625.8872   -162.89486    1.4711369   -161.42372     4694.666    4.2344901    4.2344901    4.2344901     4694.666    52761.507   -27751.276   -10926.233    20049.752    -1200.742   -27044.859    75.928246 
   44200    1258.6112   -162.55799    1.1388179   -161.41917   -23311.282    4.2449076    4.2449076    4.2449076   -23311.282     34362.56   -69761.929   -34534.476    2473.2094    8992.6394   -22493.892    76.490013 
   44300    1606.9652   -162.86324    1.4540159   -161.40922    4001.1496    4.2422323    4.2422323    4.2422323    4001.1496     49693.11   -7504.4437   -30185.217    5950.9341    13436.246   -23181.523    76.345483 
   44400     2048.865   -163.26464    1.8538561   -161.41078   -634.30256    4.2396907    4.2396907    4.2396907   -634.30256     27221.16   -15924.528    -13199.54   -6360.7098    5373.6535   -25350.213    76.208346 
   44500    1870.7316   -163.10781    1.6926772   -161.41513    9448.9091     4.242642     4.242642     4.242642    9448.9091    37548.881    5124.0954   -14326.249   -3616.2813    10887.535    -28798.79    76.367601 
   44600    1393.4622   -162.67722    1.2608339   -161.41639   -9540.7686    4.2437454    4.2437454    4.2437454   -9540.7686     23798.19   -41457.497   -10962.998   -15432.905     7041.196   -17856.919    76.427201 
   44700     1310.244   -162.60077    1.1855363   -161.41523   -20496.853    4.2412793    4.2412793    4.2412793   -20496.853    37711.076   -74948.094   -24253.542   -16899.672    16382.244   -36788.945    76.294039 
   44800    1476.9127   -162.74988    1.3363416   -161.41354     17059.06    4.2350707    4.2350707    4.2350707     17059.06    89354.217   -9528.9192   -28648.118   -16832.221    4458.4208   -27823.621    75.959482 
   44900     1873.694   -163.11367    1.6953577   -161.41832   -21443.065    4.2461455    4.2461455    4.2461455   -21443.065   -7591.7859   -10230.037   -46507.372    -7838.903    -1629.496   -14662.904     76.55695 
   45000    1853.9125   -163.09258     1.677459   -161.41512   -15774.245    4.2414819    4.2414819    4.2414819   -15774.245   -15822.169    4223.1016   -35723.669   -15207.059   -4011.0013   -19070.605    76.304977 
   45100    1339.0625   -162.62411    1.2116119   -161.41249    16172.807    4.2311253    4.2311253    4.2311253    16172.807    42483.751     5461.817    572.85408   -16545.641   -19499.501    -23622.65    75.747388 
   45200    915.60761    -162.2493     0.828461   -161.42084   -12708.148    4.2466455    4.2466455    4.2466455   -12708.148    66751.683   -68278.604   -36597.523   -13640.982   -20958.576   -25953.093    76.583997 
   45300    1246.6488   -162.53764     1.127994   -161.40965   -2340.3673     4.250992     4.250992     4.250992   -2340.3673    44966.237   -2467.8201   -49519.519   -2966.9764   -28080.295   -23940.297     76.81939 
   45400     1854.476   -163.08031    1.6779688   -161.40234   -2664.2005    4.2432034    4.2432034    4.2432034   -2664.2005   -2236.3062    26757.232   -32513.528   -1522.7381   -33674.277   -43118.545    76.397922 
   45500    1761.0135   -163.00508     1.593402   -161.41168    214.90889    4.2370535    4.2370535    4.2370535    214.90889    17607.319     17586.49   -34549.082   -2430.7521   -13942.594   -43871.093    76.066219 
   45600      1189.49    -162.4968    1.0762755   -161.42052    12539.076    4.2337951    4.2337951    4.2337951    12539.076    13612.827    17374.138    6630.2633    8016.4568   -27691.778   -37904.378    75.890865 
   45700    763.34539   -162.11697   0.69069095   -161.42628   -19510.381    4.2473198    4.2473198    4.2473198   -19510.381   -3591.4934   -22069.231   -32870.419    8280.0361   -20472.867   -32779.094    76.620481 
   45800    941.43158   -162.26966   0.85182708   -161.41783   -18224.917     4.249488     4.249488     4.249488   -18224.917   -8723.3745   -30684.609   -15266.768    15809.336    -2029.142   -29482.418    76.737885 
   45900    1922.9027   -163.15447    1.7398828   -161.41459    5291.5479    4.2306435    4.2306435    4.2306435    5291.5479   -8808.6463    34343.922   -9660.6316    24239.857    5053.9889   -19827.533    75.721517 
   46000    2434.1018   -163.62376    2.2024264   -161.42133    16336.216    4.2250344    4.2250344    4.2250344    16336.216    12013.559     61207.14   -24212.053    19320.293    14561.156   -10352.218    75.420732 
   46100    2146.7035   -163.37422    1.9423824   -161.43183    9659.2682    4.2381317    4.2381317    4.2381317    9659.2682    16252.824    11761.502    963.47929     15749.64    14811.839   -8523.7044    76.124307 
   46200    1513.9418    -162.7936    1.3698464   -161.42375   -13996.595    4.2489586    4.2489586    4.2489586   -13996.595    22753.377   -50961.373   -13781.788    1556.0919    17073.144    1756.3008    76.709207 
   46300    1429.1755   -162.70427     1.293148   -161.41112    -14005.74    4.2461528    4.2461528    4.2461528    -14005.74    15428.364   -38622.833    -18822.75    2142.9517    3338.2155    4228.2242    76.557343 
   46400    2199.9204   -163.39605    1.9905342   -161.40552    9109.0516    4.2352734    4.2352734    4.2352734    9109.0516     24966.86    18553.055    -16192.76    5983.9005     12174.96    24520.226    75.970389 
   46500    2617.6104   -163.77615    2.3684689   -161.40768   -6725.7167    4.2388772    4.2388772    4.2388772   -6725.7167    1825.8084    12893.215   -34896.173    -3495.176    1756.3359    16562.723    76.164483 
   46600    2056.9252   -163.26981    1.8611492   -161.40866   -13292.063    4.2443624    4.2443624    4.2443624   -13292.063    878.42552    1346.6266   -42101.241   -33.920693     5319.059    33794.838    76.460542 
   46700    1417.7083   -162.68896    1.2827723   -161.40618   -24119.115    4.2455246    4.2455246    4.2455246   -24119.115    28004.985   -66017.524   -34344.806   -9066.4781   -1792.7554    25006.483    76.523368 
   46800    1637.6517   -162.88992    1.4817817   -161.40814   -4127.6401    4.2379367    4.2379367    4.2379367   -4127.6401     16564.42    -28047.04   -900.30075   -8349.0507   -2149.5935    31688.802    76.113797 
   46900    2194.9421   -163.39916    1.9860298   -161.41313    6695.8887    4.2278405    4.2278405    4.2278405    6695.8887   -860.71669    13801.491    7146.8918   -14565.105   -1527.0713    41912.619    75.571107 
   47000    2532.0223   -163.71602    2.2910269     -161.425    11261.219    4.2331074    4.2331074    4.2331074    11261.219   -420.77897    45313.432   -11108.996   -14889.428     492.1064    35872.001    75.853889 
   47100    2354.1351   -163.55451    2.1300709   -161.42444   -3467.9883    4.2449104    4.2449104    4.2449104   -3467.9883    3535.3562    20340.803   -34280.124   -3489.6067    5325.2228    36026.707     76.49016 
   47200    1907.4702   -163.13912    1.7259192    -161.4132   -12254.747     4.244459     4.244459     4.244459   -12254.747    12579.681   -17802.119   -31541.803   -27260.069   -4203.9488    28036.603    76.465762 
   47300    2122.7431   -163.32555    1.9207026   -161.40484     10236.35    4.2345394    4.2345394    4.2345394     10236.35    25958.981    17110.815   -12360.746    5299.5947    2032.1713    20373.624    75.930896 
   47400    2793.0953   -163.93727    2.5272513   -161.41002    3813.3606    4.2373091    4.2373091    4.2373091    3813.3606   -7189.1263    25419.884    -6790.676     8892.404   -2415.4175    17521.919    76.079989 
   47500    2986.9621   -164.11226    2.7026661    -161.4096   -9692.1754    4.2423051    4.2423051    4.2423051   -9692.1754   -64326.583    56656.595   -21406.539    22925.554   -8032.2069    8210.9785     76.34941 
   47600    2523.8722    -163.6922    2.2836526   -161.40855   -5878.6635    4.2388649    4.2388649    4.2388649   -5878.6635   -40808.375    29597.191   -6424.8068    22533.465   -4823.3579    11081.707    76.163819 
   47700     1940.983   -163.16748    1.7562422   -161.41124    8448.1085    4.2354649    4.2354649    4.2354649    8448.1085   -5780.2255    23145.805    7978.7466    19356.664   -1982.8045    7953.7091    75.980694 
   47800    1795.1757   -163.04198    1.6243127   -161.41767    7792.8129    4.2308743    4.2308743    4.2308743    7792.8129    2785.2087    15307.525    5285.7045    25326.921   -963.85115    14755.956    75.733908 
   47900    2232.1221   -163.44831     2.019671   -161.42864    14146.587    4.2347379    4.2347379    4.2347379    14146.587    1709.2289    45492.367    -4761.835    8322.2065     3709.848    22787.745    75.941579 
   48000    2633.4432   -163.81041    2.3827947   -161.42761    4834.6893     4.238333     4.238333     4.238333    4834.6893    -3586.787    34097.263   -16006.408    13831.588    10191.745    12574.817    76.135153 
   48100    2336.4528   -163.53903    2.1140716   -161.42496   -4542.2513    4.2367585    4.2367585    4.2367585   -4542.2513   -13618.293    17395.891   -17404.352   -316.03478    7123.8775    22442.034    76.050334 
   48200    1733.3599    -162.9903    1.5683805   -161.42192   -10066.312    4.2364597    4.2364597    4.2364597   -10066.312   -3844.2969   -23741.443   -2613.1957    943.45001    10747.593    7269.8935    76.034243 
   48300    1737.2229   -162.99107    1.5718758   -161.41919   -14637.001    4.2393619    4.2393619    4.2393619   -14637.001    11071.556   -46579.141   -8403.4171    10510.982    10692.337    803.25783    76.190615 
   48400     2410.834   -163.59451    2.1813733   -161.41314   -14596.987     4.251436     4.251436     4.251436   -14596.987   -10334.933   -11366.015   -22090.013    7739.1292     1391.469   -271.29599    76.843463 
   48500    3094.4168   -164.20178    2.7998934   -161.40188    -7820.158    4.2429841    4.2429841    4.2429841    -7820.158   -21616.967    1457.3727     -3300.88    12229.039    8522.6594   -13716.179    76.386078 
   48600     2787.019   -163.91928    2.5217533   -161.39753    16192.953    4.2384427    4.2384427    4.2384427    16192.953    18867.098    11613.943    18097.817    3206.2382    5594.5647    3123.5375    76.141067 
   48700     1833.279   -163.05713    1.6587894   -161.39834   -11002.453    4.2501239    4.2501239    4.2501239   -11002.453    31780.263   -51032.285   -13755.338    4135.9804    15409.627    4476.9834    76.772339 
   48800    1597.8438   -162.84458    1.4457627   -161.39881    8588.2965    4.2416326    4.2416326    4.2416326    8588.2965    28450.158   -17953.046    15267.778    6541.5475    11941.624    14150.914    76.313106 
   48900    2161.2194   -163.36069    1.9555168   -161.40517   -2284.3258    4.2356259    4.2356259    4.2356259   -2284.3258   -8739.7786    20215.854   -18329.053     7743.506    438.96491    13672.254     75.98936 
   49000     2720.157   -163.87525    2.4612552     -161.414     1706.345    4.2365333    4.2365333    4.2365333     1706.345   -26038.366    35487.924   -4330.5231    7402.4829   -3666.2783     2646.268     76.03821 
   49100    2407.8149   -163.59852    2.1786415   -161.41987    3374.9128    4.2331965    4.2331965    4.2331965    3374.9128   -11586.799    19318.133    2393.4043    -6390.665   -21185.513   -8840.2805    75.858682 
   49200    1556.9115   -162.83352    1.4087262   -161.42479   -8387.1832     4.242552     4.242552     4.242552   -8387.1832   -8813.4788    4821.9677   -21170.039     15222.78   -23564.601   -11278.689    76.362742 
   49300    1257.3226   -162.55309    1.1376519   -161.41544   -7443.5711    4.2467146    4.2467146    4.2467146   -7443.5711   -4107.2954   -16304.558   -1918.8598    4636.0058   -27851.856   -14179.758    76.587735 
   49400    1757.3658   -163.00341    1.5901015   -161.41331    10134.385     4.236652     4.236652     4.236652    10134.385    12714.403    46686.259   -28997.508    2483.7653   -37267.238   -20705.816      76.0446 
   49500    2198.9755   -163.40923    1.9896793   -161.41955   -3502.9188    4.2353025    4.2353025    4.2353025   -3502.9188   -16167.727    52330.563   -46671.593    1469.5823   -41752.951   -19789.928    75.971956 
   49600    1734.0125   -162.99169    1.5689709   -161.42272     5039.361    4.2367308    4.2367308    4.2367308     5039.361    20297.752    10337.902   -15517.571   -12068.383   -43046.477   -15581.627    76.048845 
   49700     1054.104    -162.3747   0.95377547   -161.42092   -1448.6684      4.23923      4.23923      4.23923   -1448.6684    46295.483   -32020.395   -18621.093   -4484.1469   -30735.335   -19619.918    76.183501 
   49800    1133.0294   -162.44081    1.0251888   -161.41562   -18682.069    4.2457868    4.2457868    4.2457868   -18682.069    44346.172   -56031.395   -44360.984    -18290.77    -36115.87    -25257.51    76.537546 
   49900    1963.5947   -163.19131    1.7767018   -161.41461    5737.6955    4.2363635    4.2363635    4.2363635    5737.6955    29441.859   -7704.0678   -4524.7047   -17312.819   -18287.964   -22561.974    76.029065 
   50000     2385.528   -163.57847    2.1584758   -161.41999    11100.597    4.2321061    4.2321061    4.2321061    11100.597    1170.8889    46886.541    -14755.64   -19830.117   -7120.1463   -31681.665    75.800076 
   50100      1948.22   -163.18623    1.7627904   -161.42344    -9784.792    4.2411712    4.2411712    4.2411712    -9784.792    22986.275   -31487.873   -20852.778   -20801.599    2119.3721       -36853    76.288209 
   50200    1254.8589    -162.5585    1.1354227   -161.42307   -7643.7488     4.239413     4.239413     4.239413   -7643.7488    33888.732   -57987.646    1167.6676   -14960.404    11539.572   -38149.787    76.193367 
   50300     1199.523   -162.50921    1.0853536   -161.42386    3299.7465    4.2373365    4.2373365    4.2373365    3299.7465    58897.818   -29098.491   -19900.088   -16613.002    13428.363   -42947.388    76.081467 
   50400    1648.7401   -162.91285    1.4918147   -161.42103   -9526.6478    4.2385306    4.2385306    4.2385306   -9526.6478     30305.83   -22858.706   -36027.068   -8411.2295    10054.925   -44718.673    76.145803 
   50500    1927.9764   -163.16222    1.7444736   -161.41774    9973.0924    4.2373743    4.2373743    4.2373743    9973.0924    -6777.418    56677.434   -19980.739   -9188.5162     594.7561    -47434.56    76.083502 
   50600    1697.7547   -162.95355    1.5361642   -161.41739     755.8236    4.2448615    4.2448615    4.2448615     755.8236    48005.235   -15790.555    -29947.21   -736.40825    10705.107   -47896.968    76.487517 
   50700    1396.2036   -162.67358    1.2633143   -161.41026   -15420.526    4.2448168    4.2448168    4.2448168   -15420.526    44198.303   -67337.766   -23122.113   -8932.6483    6861.0014   -47175.076    76.485101 
   50800    1417.3031   -162.69085    1.2824057   -161.40844    6434.2354    4.2382092    4.2382092    4.2382092    6434.2354    57143.218   -11865.614   -25974.898   -4902.3146    11510.764   -54810.196    76.128483 
   50900    1687.0651   -162.94208    1.5264919   -161.41559    3740.5003    4.2363151    4.2363151    4.2363151    3740.5003    68812.264   -18214.656   -39376.107    -39.21017    2357.1856   -52760.428    76.026459 
   51000    1709.4221   -162.96885     1.546721   -161.42213    4938.5299    4.2392403    4.2392403    4.2392403    4938.5299     32688.31     34809.42   -52682.141   -268.30726    943.93171   -53190.902     76.18406 
   51100    1420.0983   -162.70905    1.2849348   -161.42411    -14693.11    4.2393666    4.2393666    4.2393666    -14693.11    18068.616     -10703.9   -51444.045    16118.139   -2416.0219   -46242.052    76.190867 
   51200    1157.9021   -162.47248    1.0476941   -161.42478   -1998.3999     4.236257     4.236257     4.236257   -1998.3999    56353.172   -32005.883   -30342.488    13224.362   -4055.1341   -43374.789    76.023331 
   51300    1024.6747   -162.35258    0.9271472   -161.42543   -8464.1982    4.2404525    4.2404525    4.2404525   -8464.1982    62423.476   -60900.372   -26915.699    17614.564   -3909.6625   -34110.032     76.24943 
   51400    1348.8469    -162.6397     1.220465   -161.41924   -2779.1753    4.2402909    4.2402909    4.2402909   -2779.1753    42677.513   -11224.896   -39790.143    26182.249   -157.73758   -40201.984    76.240717 
   51500     2050.047   -163.26995    1.8549256   -161.41503    6260.7855    4.2415844    4.2415844    4.2415844    6260.7855    43448.056   -2739.4559   -21926.243    14094.351    3649.4148    -40111.05    76.310507 
   51600    1982.7436   -163.20448    1.7940281   -161.41045   -3160.6474    4.2504513    4.2504513    4.2504513   -3160.6474    21586.271   -11894.268   -19173.945    16356.159   -7737.9676   -29658.233    76.790081 
   51700     1404.896   -162.67645    1.2711795   -161.40527   -11678.029    4.2432896    4.2432896    4.2432896   -11678.029    28632.421   -60322.545   -3343.9636    18834.579   -3250.7342   -31319.158    76.402577 
   51800    1194.2589   -162.48511    1.0805906   -161.40452    13173.776     4.229097     4.229097     4.229097    13173.776    72275.327   -65670.732    32916.734    20450.442   -1900.5329   -29419.524    75.638503 
   51900     1711.211   -162.96551    1.5483396   -161.41717    820.86756    4.2323001    4.2323001    4.2323001    820.86756    10153.247   -19637.378    11946.734    8228.9871    10841.418   -12483.972      75.8105 
   52000    2144.5893   -163.36787    1.9404695    -161.4274   -7754.8979    4.2440041    4.2440041    4.2440041   -7754.8979    8505.6822   -9701.0095   -22069.366     463.4201    17542.753   -15187.505    76.441178 
   52100    1953.3883   -163.19173    1.7674668   -161.42426   -11585.614    4.2433588    4.2433588    4.2433588   -11585.614   -18091.078   -28032.846    11367.082   -695.19107    18785.582     11169.59    76.406316 
   52200    1345.8345    -162.6352    1.2177394   -161.41746    5497.4436    4.2308227    4.2308227    4.2308227    5497.4436     20944.34   -36946.469     32494.46   -8131.2687    24969.902    4311.3506    75.731139 
   52300     1120.966   -162.43821    1.0142736   -161.42394   -12040.443    4.2340979    4.2340979    4.2340979   -12040.443    11836.432    -77356.98    29399.218   -11882.251    19554.811    4047.0642     75.90715 
   52400    1453.3915    -162.7412    1.3150591   -161.42614   -19682.458    4.2458239    4.2458239    4.2458239   -19682.458   -36922.013   -45177.381     23052.02   -17278.741    19945.212    15528.343    76.539555 
   52500    2023.5612     -163.252    1.8309607   -161.42104     9959.096    4.2432971    4.2432971    4.2432971     9959.096   -8450.2464    25536.124     12791.41   -8233.1374    2313.9187     13929.57    76.402986 
   52600    2011.1067   -163.23339    1.8196916    -161.4137    11742.615    4.2388519    4.2388519    4.2388519    11742.615   -13432.707    34761.933     13898.62   -9438.5872    116.31997    24738.923    76.163121 
   52700    1354.5334   -162.63718    1.2256103   -161.41157    1008.6101     4.240283     4.240283     4.240283    1008.6101   -10430.066   -25642.703      39098.6   -21115.132   -10037.031    10294.091    76.240287 
   52800    980.72742   -162.29723   0.88738278   -161.40985   -6943.9439    4.2441112    4.2441112    4.2441112   -6943.9439    14857.224   -73892.971    38203.915   -15827.082   -5337.3866    6220.9594    76.446969 
   52900    1414.0754   -162.68505    1.2794852   -161.40557   -14736.447    4.2455243    4.2455243    4.2455243   -14736.447   -10288.628   -45182.433    11261.721   -7444.3424    -33514.61   -562.86699    76.523355 
   53000    2066.8439   -163.27583    1.8701238   -161.40571   -973.84482    4.2437094    4.2437094    4.2437094   -973.84482   -711.89711    6125.2118   -8334.8491    1458.5934   -22776.071    5066.9271    76.425257 
   53100     2179.063   -163.37944     1.971662   -161.40778   -3500.0611    4.2358334    4.2358334    4.2358334   -3500.0611   -21389.781    8977.4182    1912.1799    -8564.616   -26839.723   -3699.2995    76.000527 
   53200    1897.6263   -163.12825    1.7170122   -161.41123    8673.9256    4.2300547    4.2300547    4.2300547    8673.9256    4900.4536   -538.00078    21659.324   -2853.1112   -18789.732    7153.5388    75.689902 
   53300    1587.8462   -162.85532    1.4367166    -161.4186   -8070.3273    4.2418988    4.2418988    4.2418988   -8070.3273   -330.22844   -38082.368    14201.614   -10788.132   -10895.269   -1543.7575    76.327477 
   53400    1706.1374   -162.95597     1.543749   -161.41223   -17955.883    4.2466503    4.2466503    4.2466503   -17955.883    -51609.95    -24241.18     21983.48   -3967.3399   -10699.744   -4162.1464    76.584259 
   53500    2368.4821     -163.549    2.1430524   -161.40595   -6894.5556    4.2403555    4.2403555    4.2403555   -6894.5556   -34391.038    9277.8023    4429.5687    5839.4657    1873.4339   -1192.4158    76.244196 
   53600    2802.6478   -163.93933    2.5358946   -161.40343   -3094.8355    4.2415112    4.2415112    4.2415112   -3094.8355   -26358.181    37649.944   -20576.269    5878.0538      5801.84   -8710.5801    76.306557 
   53700    2552.4058   -163.70846    2.3094704   -161.39899    6614.9799     4.239435     4.239435     4.239435    6614.9799   -16931.693    31286.324    5490.3094    15682.153    4857.8447    10135.596    76.194554 
   53800    2017.5653   -163.22336    1.8255355   -161.39783    1921.4537    4.2430908    4.2430908    4.2430908    1921.4537   -3420.0261   -22745.596    31929.983    21318.667    7915.5555    8548.3177     76.39184 
   53900    1882.2158   -163.09978    1.7030684   -161.39671   -12554.414    4.2504456    4.2504456    4.2504456   -12554.414   -7703.4632   -52182.096    22222.317    29690.418     3083.899    12619.472    76.789772 
   54000    2347.6859   -163.52212    2.1242355   -161.39789    8416.2143    4.2349199    4.2349199    4.2349199    8416.2143   -3744.6765    7816.5705    21176.749    37196.302   -5105.1314    9680.0438    75.951366 
   54100    2838.5485   -163.97313    2.5683783   -161.40475     23207.81    4.2305381    4.2305381    4.2305381     23207.81    4857.2724    35302.568    29463.589     36112.56   -10842.096    10217.985    75.715855 
   54200    2742.7509   -163.89215    2.4816987   -161.41045   -4865.3048    4.2420064    4.2420064    4.2420064   -4865.3048    16711.115   -14640.644   -16666.386    27782.697   -15705.302    8910.4762    76.333288 
   54300    2261.4876   -163.44816    2.0462415   -161.40192   -13684.906    4.2451268    4.2451268    4.2451268   -13684.906    29172.863    -56085.16   -14142.422    29570.409   -7331.7657    9215.0017    76.501859 
   54400    1990.1489   -163.19649    1.8007286   -161.39576   -21385.717    4.2464103    4.2464103    4.2464103   -21385.717   -1120.2389   -65945.902    2908.9895    15705.344    -1547.799    1956.6206    76.571274 
   54500     2323.826   -163.50006    2.1026466   -161.39741   -7810.4137     4.234996     4.234996     4.234996   -7810.4137   -3514.6882   -9272.9941   -10643.559    14270.933     14348.21   -3016.4606     75.95546 
   54600    2587.8659   -163.74423    2.3415555   -161.40268    20197.823    4.2249834    4.2249834    4.2249834    20197.823    7077.6914    58063.477   -4547.6989     15578.83    4197.4463    -8883.519    75.418001 
   54700    2529.6111   -163.70818    2.2888453   -161.41934    2983.8422    4.2381524    4.2381524    4.2381524    2983.8422   -5265.7422    10286.431     3930.838    16423.321    19313.984   -7232.9237    76.125422 
   54800    2010.0063   -163.23416     1.818696   -161.41547   -13331.305    4.2460692    4.2460692    4.2460692   -13331.305    12493.191   -45803.424   -6683.6807    16863.013    12588.796   -13061.498    76.552821 
   54900    1688.1769   -162.93356     1.527498   -161.40606    1461.7648    4.2390768    4.2390768    4.2390768    1461.7648     25688.05   -36551.929    15249.174    9152.1314    25426.227   -7317.3437    76.175244 
   55000    1983.0915   -163.19921    1.7943429   -161.40487   -1188.1619    4.2368246    4.2368246    4.2368246   -1188.1619    6981.4824   -23432.944    12886.976    9894.6954    6535.2046   -15448.128    76.053892 
   55100    2662.3886   -163.81515    2.4089851   -161.40616      1781.19    4.2412766    4.2412766    4.2412766      1781.19   -4464.2209    29704.025   -19896.234    2045.5931   -2038.1127    518.28963    76.293898 
   55200    2769.1865   -163.91137    2.5056181   -161.40575   -15752.343    4.2450323    4.2450323    4.2450323   -15752.343    -23870.04    8685.7615    -32072.75    8099.0584   -8744.6683    -8878.781    76.496752 
   55300    2219.3239   -163.41307    2.0080909   -161.40498   -1514.8938    4.2374033    4.2374033    4.2374033   -1514.8938     27599.71   -30383.419   -1760.9724    9449.8616   -12234.691    6882.6059    76.085065 
   55400    1978.6766   -163.19428    1.7903481   -161.40394   -4810.4264    4.2334289    4.2334289    4.2334289   -4810.4264    18174.172   -57218.788    24613.336   -3600.9509   -15476.715     4297.789    75.871177 
   55500    2326.1696    -163.5185    2.1047671   -161.41373   -8847.4282    4.2367919    4.2367919    4.2367919   -8847.4282    5177.0112   -29944.209   -1775.0866    8784.8505   -14261.523    2378.6289    76.052133 
   55600    2665.9282    -163.8306    2.4121879   -161.41841     18054.43    4.2302389    4.2302389    4.2302389     18054.43    38550.862    34516.303   -18903.875    4349.5344   -6265.6952    5712.2524    75.699791 
   55700    2625.8858   -163.79929    2.3759566   -161.42334   -7352.8285    4.2390505    4.2390505    4.2390505   -7352.8285   -9625.0592     10481.66   -22915.087    3064.5318   -2459.6683   -8350.9401    76.173826 
   55800    2118.5419   -163.33715    1.9169012   -161.42025   -6447.1602    4.2386901    4.2386901    4.2386901   -6447.1602    24655.198   -22122.237   -21874.442    3060.3113    9590.3693   -4675.9716    76.154401 
   55900     1779.063     -163.025    1.6097336   -161.41526    15776.506    4.2241551    4.2241551    4.2241551    15776.506    50983.684   -5561.9966    1907.8296    11654.507    9478.9793   -14554.216    75.373653 
   56000    1865.7732   -163.11299    1.6881908    -161.4248   -16645.434    4.2367385    4.2367385    4.2367385   -16645.434    3838.7124   -40003.341   -13771.672    7882.6253      12047.7   -13324.437    76.049255 
   56100    2308.5046   -163.51077    2.0887834   -161.42199    9061.1757    4.2394608    4.2394608    4.2394608    9061.1757    33932.345     28924.36   -35673.179    16857.663    12191.077   -9026.3506    76.195949 
   56200    2457.3929   -163.64172    2.2235008   -161.41822    7649.8168     4.234707     4.234707     4.234707    7649.8168     11017.26     65068.44    -53136.25    21936.534    20070.578   -13111.253    75.939914 
   56300    2016.5746   -163.24189     1.824639   -161.41725   -11209.629    4.2375955    4.2375955    4.2375955   -11209.629    10518.847   -8351.0985   -35796.635     29946.96    8766.4282   -7244.7457    76.095415 
   56400    1624.8174   -162.88506    1.4701689   -161.41489    14316.005    4.2275042    4.2275042    4.2275042    14316.005    35636.113    4106.4877     3205.413     35263.96    9791.2533   -6589.6639    75.553074 
   56500    1806.8516   -163.05733    1.6348773   -161.42245   -2316.5257    4.2339789    4.2339789    4.2339789   -2316.5257    16940.001   -32245.205    8355.6273    41839.991    9727.6161   -1233.2674    75.900748 
   56600    2375.4282   -163.57066    2.1493373   -161.42132    -3519.711    4.2409823    4.2409823    4.2409823    -3519.711   -8150.8641   -3027.2902     619.0213    53649.001    -3187.874    915.79113    76.278015 
   56700    2721.7488   -163.87791    2.4626955   -161.41521    19321.587    4.2352837    4.2352837    4.2352837    19321.587    5126.3512    51280.632    1557.7766    43024.267    3953.3873    4175.9594    75.970942 
   56800    2331.7899   -163.52222    2.1098525   -161.41237   -11466.831     4.239044     4.239044     4.239044   -11466.831   -10532.737   -17997.539    -5870.218    43688.835   -7.2271326   -3617.2914    76.173477 
   56900      1622.62   -162.87597    1.4681807   -161.40778   -6913.8099    4.2338368    4.2338368    4.2338368   -6913.8099    8369.0574   -28472.596   -637.89081    34717.831    5229.2603    11914.784    75.893106 
   57000    1524.1096   -162.78746    1.3790464   -161.40841    -3462.705    4.2373132    4.2373132    4.2373132    -3462.705    20097.761   -25707.411   -4778.4659    26338.211    2015.8768    16892.888    76.080208 
   57100    2251.7969   -163.44554    2.0374731   -161.40807   -11600.536    4.2455798    4.2455798    4.2455798   -11600.536   -5473.5178   -15473.535   -13854.556    24572.812    527.12425    27519.628    76.526353 
   57200     2514.778    -163.6798     2.275424   -161.40437    9083.2498     4.237016     4.237016     4.237016    9083.2498    3991.6908     12885.14    10372.918     14409.71    1362.2936    34544.181    76.064204 
   57300    1945.0344   -163.16561     1.759908    -161.4057    1887.2131    4.2356288    4.2356288    4.2356288    1887.2131    13803.444   -8409.2189    267.41389    16649.021   -4368.8276    38699.114    75.989514 
   57400    1219.4309   -162.51355    1.1033667   -161.41019   -15704.253    4.2359095    4.2359095    4.2359095   -15704.253    39944.637   -84199.317   -2858.0775    11302.268    151.81429    54364.261    76.004625 
   57500    1076.6602   -162.38846   0.97418475   -161.41428   -1587.2473    4.2335063    4.2335063    4.2335063   -1587.2473    61653.347   -57523.854   -8891.2345    11815.692    4103.3375     58043.42    75.875337 
   57600    1570.6241   -162.84216    1.4211337   -161.42103   -14144.986     4.242052     4.242052     4.242052   -14144.986    12311.332   -20198.689     -34547.6    7421.6974    8730.4678    62930.308    76.335748 
   57700    2034.0228   -163.26021    1.8404266   -161.41978   -6168.4088    4.2408956    4.2408956    4.2408956   -6168.4088    25196.426   -8797.2358   -34904.416    1706.6187    5401.8553    74555.221    76.273338 
   57800    1707.5366   -162.96436     1.545015   -161.41934    7580.3151    4.2312856    4.2312856    4.2312856    7580.3151    59524.834   -11240.461   -25543.428    3471.6011    10656.603    80634.592    75.755998 
   57900    1043.8812   -162.36797   0.94452568   -161.42344   -10267.762    4.2332956    4.2332956    4.2332956   -10267.762    60740.071   -65074.305   -26469.052   -6956.1262     8529.131    78844.142    75.864011 
   58000    682.86508   -162.04169   0.61787068   -161.42382   -2778.6245    4.2403133    4.2403133    4.2403133   -2778.6245    82359.047    -64879.81    -25815.11   -4871.1913    7815.7437    74823.581     76.24192 
   58100    940.20593   -162.26894   0.85071808   -161.41822    -14726.73    4.2471165    4.2471165    4.2471165    -14726.73    47750.193   -60416.695   -31513.689   -4916.1371    6920.5987    78047.869    76.609482 
   58200    1490.7741   -162.75796    1.3488837   -161.40907     4354.727    4.2438914    4.2438914    4.2438914     4354.727    40613.408     8134.843    -35684.07   -21387.184    4655.0273    77303.012    76.435091 
   58300    1465.6908   -162.73153    1.3261879   -161.40534    18683.727    4.2361688    4.2361688    4.2361688    18683.727    47513.841   -13588.395    22125.736   -5693.3525     2698.183     78809.53    76.018586 
   58400     871.8456   -162.19696   0.78886422    -161.4081   -4654.2051    4.2382521    4.2382521    4.2382521   -4654.2051     46952.52   -43671.814   -17243.321   -10618.405   -2556.9205    81872.085    76.130792 
   58500    738.74396   -162.07967   0.66843106   -161.41124   -23504.703     4.240831     4.240831     4.240831   -23504.703    43892.076   -104735.35   -9670.8391   -6464.8761   -1920.6998    73461.058    76.269852 
   58600    1293.9598   -162.58571     1.170802   -161.41491    5456.5929    4.2406325    4.2406325    4.2406325    5456.5929    18776.128   -14301.605    11895.255    3232.9383   -12146.934    61354.009    76.259143 
   58700    1885.0616   -163.12157    1.7056434   -161.41593   -10298.787    4.2380317    4.2380317    4.2380317   -10298.787    6773.7604   -10517.705   -27152.417   -1841.2565   -9545.1021    68095.318    76.118918 
   58800    1772.2823   -163.01978    1.6035982   -161.41618    10394.328      4.23078      4.23078      4.23078    10394.328    61431.294   -45693.069    15444.759      7240.22   -7618.9949    62768.373    75.728844 
   58900    1160.7736   -162.46828    1.0502924   -161.41799    2048.1104    4.2392002    4.2392002    4.2392002    2048.1104    70713.907   -50886.144   -13683.432    5358.4755   -2159.5946    43256.148    76.181899 
   59000    919.12111   -162.23934   0.83164009    -161.4077   -16439.266    4.2494255    4.2494255    4.2494255   -16439.266    48312.168   -79641.394   -17988.572    6747.8555   -1310.0115    36324.889    76.734496 
   59100    1580.2682   -162.83201    1.4298599   -161.40215    1597.4712    4.2426015    4.2426015    4.2426015    1597.4712    66579.757   -52542.384   -9244.9589    11359.584    2386.7108    39679.867    76.365418 
   59200    2396.9528   -163.57039    2.1688132   -161.40158    13163.611    4.2341766    4.2341766    4.2341766    13163.611    17499.329    37560.515   -15569.011     13622.97    5828.4506    34822.462    75.911384 
   59300     2362.372   -163.54418    2.1375238   -161.40666    2211.3364    4.2389762    4.2389762    4.2389762    2211.3364   -8217.8973     24975.14   -10123.233    3982.6266    14884.344    28852.632    76.169819 
   59400    1836.5072   -163.06348    1.6617103   -161.40177   -19720.035    4.2510104    4.2510104    4.2510104   -19720.035    24298.043   -47909.597   -35548.551    135.87605    8944.4365    9121.0598    76.820391 
   59500    1742.1072   -162.96184    1.5762952   -161.38554   -22196.092    4.2490638    4.2490638    4.2490638   -22196.092    5142.6418   -46895.178   -24835.739   -1190.6674    13495.015   -8261.1547    76.714905 
   59600    2365.9735   -163.52255    2.1407825   -161.38177    2964.0291    4.2402255    4.2402255    4.2402255    2964.0291    7091.8304     17658.62   -15858.363     9220.645    9275.8585    -16278.24    76.237188 
   59700    2853.4758   -163.97071    2.5818849   -161.38882    12354.987    4.2373772    4.2373772    4.2373772    12354.987     -3041.56    30098.609     10007.91   -1859.5466    5090.2807   -26134.071    76.083655 
   59800    2633.5053   -163.77858     2.382851   -161.39573    14396.111    4.2374979    4.2374979    4.2374979    14396.111    -14585.17    13819.626    43953.877   -6269.6829   -7254.8217   -18919.256    76.090159 
   59900     2003.665   -163.21314    1.8129582   -161.40018   -4566.6489    4.2426622    4.2426622    4.2426622   -4566.6489   -1874.7698   -55779.477    43954.301   -6962.6701    2363.4706   -26571.504    76.368694 
   60000    1874.3779   -163.09018    1.6959765    -161.3942   -24674.007    4.2453892    4.2453892    4.2453892   -24674.007   -9893.9493   -77533.307    13405.236    122.86663   -1394.6342   -24443.546    76.516048 
   60100    2450.5463   -163.60778    2.2173058   -161.39048   -6564.5981     4.239956     4.239956     4.239956   -6564.5981   -32802.165    13057.008    51.362985   -7168.2426    5590.7945    -19294.96    76.222651 
   60200    2843.4506   -163.96478    2.5728139   -161.39196   -222.04872    4.2392787    4.2392787    4.2392787   -222.04872   -44060.732    33819.666    9574.9199   -1286.4099    3346.3165   -19723.229    76.186131 
   60300     2404.573   -163.57141    2.1757082    -161.3957   -12000.061    4.2433362    4.2433362    4.2433362   -12000.061   -31854.766   -34853.125    30707.706   -1224.9361   -2098.9908    -9222.118    76.405094 
   60400    1816.4304    -163.0388    1.6435444   -161.39526    857.09399    4.2417981    4.2417981    4.2417981    857.09399    22111.447   -35018.695     15478.53    5831.6624    3999.7763   -662.04045    76.322039 
   60500    1570.5656   -162.82002    1.4210807   -161.39894    1256.1206    4.2404429    4.2404429    4.2404429    1256.1206    61861.827   -51325.608   -6767.8573    10823.985     16.43834    3835.1935    76.248913 
   60600    1861.9717   -163.08696    1.6847512   -161.40221    13533.194    4.2412472    4.2412472    4.2412472    13533.194    71844.076    5128.9334   -36373.428    3715.3386    1177.4863    22153.317    76.292309 
   60700    2129.5989   -163.32519    1.9269059   -161.39828   -14793.001    4.2481208    4.2481208    4.2481208   -14793.001    36905.269   -16293.158   -64991.115   -839.15896   -1150.0348     42441.29    76.663839 
   60800    1860.1381   -163.07385    1.6830921   -161.39075   -27692.979     4.250901     4.250901     4.250901   -27692.979    8504.2049   -91817.083    233.94069   -7110.9171    5394.3721    58440.144     76.81446 
   60900    1418.0023   -162.67203    1.2830383   -161.38899   -5897.5938    4.2381722    4.2381722    4.2381722   -5897.5938     36235.91   -69414.339    15485.648   -3246.0817    2610.4835    71344.139     76.12649 
   61000    1017.6773   -162.31631   0.92081577    -161.3955    8747.7402    4.2347355    4.2347355    4.2347355    8747.7402    75115.156   -58608.558    9736.6231   -4254.9565    6308.0683    79780.301    75.941445 
   61100    1114.2886   -162.41218    1.0082318   -161.40394    377.49081    4.2461678    4.2461678    4.2461678    377.49081    105194.45   -42864.616   -61197.362    909.99952    -7687.718    89435.909    76.558154 
   61200    1353.0255   -162.62295    1.2242459    -161.3987    19274.632    4.2525345    4.2525345    4.2525345    19274.632    113238.07    7884.9866   -63299.165    7105.1616   -937.46492    78177.267    76.903043 
   61300    1388.2345    -162.6401    1.2561038   -161.38399    8534.3806    4.2513201    4.2513201    4.2513201    8534.3806    60895.838    -43079.51    7786.8143    3023.2029    751.11441    77307.046    76.837178 
   61400    1187.0593   -162.45143    1.0740762   -161.37735   -16354.314    4.2412355    4.2412355    4.2412355   -16354.314    53863.927   -71726.119    -31200.75    -1733.314   -769.11227    85398.321     76.29168 
   61500    1211.5736   -162.48652    1.0962572   -161.39026   -809.09005    4.2323883    4.2323883    4.2323883   -809.09005     46776.36      110.355   -49313.985    1606.7661    1078.2878    72016.894    75.815242 
   61600    1481.5398   -162.74979    1.3405284   -161.40926   -5389.3384    4.2352484    4.2352484    4.2352484   -5389.3384    32520.017   -6637.0516   -42050.981    4300.2644    5484.6691    60078.452    75.969046 
   61700    1720.8042   -162.97224    1.5570198   -161.41522   -9668.5376      4.24422      4.24422      4.24422   -9668.5376    27053.559    6030.8657   -62090.037    16432.628   -887.80749    48198.949    76.452847 
   61800    1729.9612   -162.97386    1.5653052   -161.40856   -16096.898    4.2485644    4.2485644    4.2485644   -16096.898    28200.092   -65677.629   -10813.156    19178.979    -4282.522    45083.102    76.687861 
   61900     1554.943   -162.80753    1.4069451   -161.40059    6485.2932    4.2379603    4.2379603    4.2379603    6485.2932    46219.536   -67759.658    40996.002    10813.693    -14703.33    25375.188    76.115072 
   62000    1496.2766   -162.75491    1.3538625   -161.40104    8020.3603    4.2336863    4.2336863    4.2336863    8020.3603    64185.712   -16992.383   -23132.249    3622.0311    -8735.475    25314.505    75.885015 
   62100    1755.5736   -162.99856    1.5884799   -161.41008   -17425.368     4.239034     4.239034     4.239034   -17425.368    16851.785    3304.7928   -72432.682   -4454.9833     3252.782     22468.58    76.172937 
   62200     2108.711   -163.31952     1.908006   -161.41152   -13592.117    4.2427985    4.2427985    4.2427985   -13592.117   -8865.5399    25589.344   -57500.156   -6599.5761    2169.9552    8036.7553    76.376055 
   62300    2360.1966   -163.53939    2.1355555   -161.40383    -8105.329    4.2465824    4.2465824    4.2465824    -8105.329      -8083.1   -22460.959    6228.0719   -10617.573    364.73701   -2595.6181    76.580581 
   62400    2213.4436   -163.39452    2.0027703   -161.39175   -5674.9867    4.2458343    4.2458343    4.2458343   -5674.9867    26673.165   -45900.285    2202.1598   -8043.7444    5509.7365   -15973.647    76.540119 
   62500    1925.8477   -163.12793    1.7425475   -161.38538    3746.9665    4.2426236    4.2426236    4.2426236    3746.9665    42417.209    14005.144   -45181.454    3589.2686    7375.9439   -27796.723    76.366609 
   62600    2080.7042   -163.27177    1.8826649    -161.3891    6132.2761    4.2390036    4.2390036    4.2390036    6132.2761    18283.351        50678   -50564.522    4442.2853    11572.631   -29291.759    76.171297 
   62700    2710.1209   -163.84687    2.4521744    -161.3947   -1457.6427    4.2381574    4.2381574    4.2381574   -1457.6427    1073.0584    22453.989   -27899.976    4283.2914    10790.999   -28542.563    76.125689 
   62800     3134.552   -164.23357    2.8362085   -161.39736   -12890.247    4.2442955    4.2442955    4.2442955   -12890.247   -22005.835   -26723.317    10058.412   -986.21517   -817.08048   -27598.899    76.456929 
   62900    2690.2512   -163.82848    2.4341959   -161.39428   -1815.6314     4.240369     4.240369     4.240369   -1815.6314    -6490.059   -21821.885     22865.05    9439.1659    1166.4237    -20551.32    76.244926 
   63000    1923.7367   -163.13541    1.7406374   -161.39477    8869.1196    4.2340037    4.2340037    4.2340037    8869.1196    47784.438    -5023.998   -16153.081    6030.3672   -1342.7209   -20516.915    75.902082 
   63100    1734.3556   -162.97149    1.5692814   -161.40221   -10542.255     4.241367     4.241367     4.241367   -10542.255    45930.182   -18681.975    -58874.97    -2797.042   -2178.6853   -7806.6484    76.298773 
   63200    2221.4004   -163.41273    2.0099698   -161.40276    1697.9585     4.240129     4.240129     4.240129    1697.9585    34980.321   -2824.6725   -27061.773   -9230.8606   -5897.3336     3976.636    76.231981 
   63300     2562.371   -163.72112    2.3184872   -161.40264    5462.0242    4.2414037    4.2414037    4.2414037    5462.0242   -1264.7914   -13094.261    30745.125   -6478.4673   -1867.5117    16181.496    76.300756 
   63400    1988.1876   -163.19737    1.7989539   -161.39842   -24478.599    4.2494329    4.2494329    4.2494329   -24478.599    2258.5659   -55581.467   -20112.895    152.23463    2166.7736    38745.224    76.734899 
   63500    1110.2361   -162.40241    1.0045649   -161.39785    4624.4699    4.2374133    4.2374133    4.2374133    4624.4699    74659.475    12883.657   -73669.723    414.66703    7854.7156    38742.917    76.085599 
   63600    914.46577   -162.23059   0.82742785   -161.40316    19263.812    4.2333272    4.2333272    4.2333272    19263.812    115381.51    14800.633   -72390.707    -4110.042     5629.034    43879.559    75.865707 
   63700    1505.2701   -162.77013    1.3620001   -161.40813   -18851.325    4.2485673    4.2485673    4.2485673   -18851.325    38608.148    -21906.16   -73255.965   -1280.0372    8580.4999    53563.592    76.688015 
   63800    1873.7089   -163.09536    1.6953712   -161.39999    -5473.242     4.246501     4.246501     4.246501    -5473.242   -238.45488     12121.08   -28302.351    4325.0195    20888.906     56659.53    76.576179 
   63900    1440.8397   -162.70201    1.3037021   -161.39831   -3687.1832    4.2369018    4.2369018    4.2369018   -3687.1832    30664.595   -15995.575    -25730.57     4670.753    12562.494     57191.13    76.058052 
   64000    782.36961   -162.11582   0.70790447   -161.40791   -2729.8884    4.2332555    4.2332555    4.2332555   -2729.8884    64309.635   -12035.749   -60463.552    2996.4996    13678.507    58388.296    75.861852 
   64100     667.9348    -162.0195   0.60436145   -161.41514    12037.199    4.2333994    4.2333994    4.2333994    12037.199    88171.093    19960.815   -72020.311   -3104.4392    328.15374    56341.196    75.869587 
   64200    1256.0548   -162.55902    1.1365048   -161.42252   -4154.9647    4.2459635    4.2459635    4.2459635   -4154.9647    60407.863   -20182.472   -52690.285    412.24388    5395.2945    56676.135    76.547103 
   64300    1717.8335   -162.96943    1.5543319    -161.4151   -16326.923    4.2462544    4.2462544    4.2462544   -16326.923    16555.399   -39109.252   -26426.915   -4702.3683     2240.217     68771.05    76.562839 
   64400    1315.8291   -162.60007    1.1905898   -161.40948    9055.9349    4.2324646    4.2324646    4.2324646    9055.9349     59936.31   -6478.0998   -26290.405   -11961.673    1412.1637    64121.166    75.819343 
   64500    495.24612   -161.86215   0.44810909   -161.41404   -12315.059    4.2363706    4.2363706    4.2363706   -12315.059    86660.183   -32975.425   -90629.936   -10333.372   -3396.3775    64770.624    76.029449 
   64600    265.40194   -161.65544   0.24014126    -161.4153    -9990.486     4.242621     4.242621     4.242621    -9990.486    85614.923    -11192.24   -104394.14   -17234.612   -4237.6272    51273.542    76.366469 
   64700    1019.9066   -162.33498   0.92283293   -161.41215    5887.0447    4.2440084    4.2440084    4.2440084    5887.0447    79589.404    7305.6042   -69233.874   -5136.4468   -7798.2063    50830.543    76.441412 
   64800    1813.4489    -163.0506    1.6408467   -161.40975   -10723.368    4.2393232    4.2393232    4.2393232   -10723.368    25295.734   -32249.294   -25216.545     -5456.75   -6776.5488    49402.518    76.188529 
   64900    1689.5494   -162.94178    1.5287398   -161.41304    9595.9317    4.2320169    4.2320169    4.2320169    9595.9317    39934.362    10553.536   -21700.103   -698.59343   -6993.7204    52542.376    75.795282 
   65000    1004.8988   -162.32958   0.90925352   -161.42033   -13455.681    4.2379269    4.2379269    4.2379269   -13455.681    61273.612   -24670.193   -76970.464    7608.4054   -3092.3797     53336.91    76.113272 
   65100     598.2927   -161.96163   0.54134781   -161.42028   -22478.929    4.2417475    4.2417475    4.2417475   -22478.929    49429.037   -2348.0166   -114517.81    14107.483    37.988165    47954.614    76.319312 
   65200    934.21021   -162.26632   0.84529303   -161.42103   -1893.6223    4.2381562    4.2381562    4.2381562   -1893.6223    60311.345   -14533.811   -51458.401    15028.284    -14.95603    44507.106    76.125628 
   65300    1578.7373    -162.8514    1.4284747   -161.42292    2172.0862    4.2325584    4.2325584    4.2325584    2172.0862    30826.132   -8352.1657   -15957.708    13135.601    3889.3234    48015.591    75.824384 
   65400    1740.6956   -163.00044     1.575018   -161.42542    4661.9313    4.2331808    4.2331808    4.2331808    4661.9313    5028.2792    20203.198   -11245.684    3907.1808    14248.012    47623.744    75.857834 
   65500    1271.0522   -162.57473    1.1500747   -161.42466   -8779.7654    4.2396057    4.2396057    4.2396057   -8779.7654    26511.385     966.5474   -53817.228    5481.6506    6527.7395    50379.289    76.203762 
   65600    880.96973   -162.21591   0.79711992   -161.41879    -6180.066    4.2398376    4.2398376    4.2398376    -6180.066     49178.14    27661.169   -95379.507   -9906.5988    14906.279    38975.434    76.216266 
   65700    1090.3166   -162.40074   0.98654135   -161.41419   -8372.7225    4.2407659    4.2407659    4.2407659   -8372.7225    53768.195   -4226.2463   -74660.116   -2796.8585    7747.9671    39785.578    76.266338 
   65800    1682.9102   -162.93586    1.5227325   -161.41313   -3704.2493    4.2437527    4.2437527    4.2437527   -3704.2493    37372.824   -15987.863   -32497.709   -4494.2214    6439.7786    34584.026    76.427596 
   65900    1861.4041   -163.09057    1.6842376   -161.40633    9041.7638    4.2406704    4.2406704    4.2406704    9041.7638    13251.608    19775.224   -5901.5408    6490.7918     7101.209    26414.725    76.261189 
   66000    1289.5813   -162.57086    1.1668403   -161.40402    3413.3969    4.2376877    4.2376877    4.2376877    3413.3969    13386.763     31845.89   -34992.463   -3715.2475    11602.779    27963.082    76.100381 
   66100    842.18425   -162.16889   0.76202601   -161.40686   -11753.222    4.2421922    4.2421922    4.2421922   -11753.222    7415.4293    15665.649   -58340.745    641.11391    1411.1184    24060.906    76.343316 
   66200    1245.8731   -162.53586    1.1272921   -161.40857   -6416.3034    4.2428632    4.2428632    4.2428632   -6416.3034   -4587.3038    24860.016   -39521.622    488.46623    3221.3968    25766.134    76.379547 
   66300    2132.9206   -163.33862    1.9299114   -161.40871    9478.7297    4.2331246    4.2331246    4.2331246    9478.7297   -9243.9043    8230.6072    29449.486   -3774.1772    6506.6774    20083.298    75.854815 
   66400    2318.2599   -163.50979    2.0976103   -161.41218    8271.5244    4.2302751    4.2302751    4.2302751    8271.5244   -8963.9605    26722.311    7056.2225    2885.6002    2969.5965    18790.567    75.701734 
   66500    1748.6959   -162.99757    1.5822568   -161.41531   -5928.5053    4.2382066    4.2382066    4.2382066   -5928.5053   -2949.0662     21997.87   -36834.319   -2058.2288    7295.4928    20159.818    76.128342 
   66600    1409.9264   -162.68798    1.2757311   -161.41225   -17862.198    4.2412048    4.2412048    4.2412048   -17862.198    5569.3897    5168.2429   -64324.228   -395.20801   -260.09639    20647.523     76.29002 
   66700    1985.8574   -163.20437    1.7968455   -161.40752    3978.4081    4.2355865    4.2355865    4.2355865    3978.4081    8998.2828    10736.307   -7799.3654   -3145.1119    5063.5234    21537.997    75.987241 
   66800    2849.0472   -163.98475    2.5778778   -161.40687    4094.4135    4.2388204    4.2388204    4.2388204    4094.4135    -14366.15   -20186.721    46836.112   -10044.159     6943.919    1017.8982    76.161421 
   66900    2903.7513   -164.02475    2.6273752   -161.39737   -22550.452    4.2506454    4.2506454    4.2506454   -22550.452   -25655.176   -39025.341     -2970.84   -10420.222    4571.6596   -333.31991    76.800604 
   67000    2220.4248   -163.38909     2.009087      -161.38   -30217.724     4.248519     4.248519     4.248519   -30217.724   -9256.2401   -10481.722   -70915.211   -17630.528    14133.192   -14264.954      76.6854 
   67100    2065.1785   -163.23636    1.8686169   -161.36775   -21940.941    4.2460806    4.2460806    4.2460806   -21940.941    6880.0094   -571.77642   -72131.057   -12079.841    7276.3892   -17421.249    76.553438 
   67200    2883.5057   -163.97769    2.6090565   -161.36863   -11518.712     4.246998     4.246998     4.246998   -11518.712   -6703.8472   -18873.226   -8979.0618   -14705.342    11381.942   -15847.996    76.603068 
   67300    3305.5808   -164.36079    2.9909589   -161.36983    4453.9695    4.2439846    4.2439846    4.2439846    4453.9695    -8341.597   -14314.583    36018.088    -5270.597    11356.994    -22951.58    76.440127 
   67400    2651.5929   -163.77674     2.399217   -161.37752    -2001.319    4.2415128    4.2415128    4.2415128    -2001.319    10677.652    8049.6798   -24731.289   -13922.549    9462.1928   -15018.018    76.306644 
   67500    2070.5295   -163.26284    1.8734586   -161.38938   -789.10483    4.2345385    4.2345385    4.2345385   -789.10483    23073.771    41263.105   -66704.191   -6931.1041    10660.243   -24188.513    75.930852 
   67600    2379.1903    -163.5583    2.1527414   -161.40555     4457.424    4.2279521    4.2279521    4.2279521     4457.424    22490.298    34533.089   -43651.115   -13517.436    17030.878   -21735.302    75.577093 
   67700     3039.489   -164.17299    2.7501935   -161.42279     3953.901    4.2341241    4.2341241    4.2341241     3953.901   -5665.2681    9045.3817    8481.5893     -3518.63    869.73614   -19031.096     75.90856 
   67800    3170.8062   -164.29437    2.8690121   -161.42536    2253.1138    4.2385811    4.2385811    4.2385811    2253.1138   -26056.402   -2437.7191    35253.462    4467.5686     8067.768   -30054.811    76.148523 
   67900    2552.3706   -163.72556    2.3094385   -161.41613    9678.8212    4.2364373    4.2364373    4.2364373    9678.8212    15546.416    11852.413    1637.6339    5623.4735   -3080.4301   -22326.936    76.033037 
   68000    1809.3056   -163.04377    1.6370978   -161.40667   -4486.1812    4.2413755    4.2413755    4.2413755   -4486.1812    17199.039    6484.8857   -37142.468    7780.0993     5668.307   -27493.756     76.29923 
   68100    2020.0464   -163.22297    1.8277804   -161.39519   -19845.996    4.2449665    4.2449665    4.2449665   -19845.996    8738.2618   -15610.388   -52665.862    5411.6209    3781.3158   -26774.706    76.493193 
   68200    2908.5865   -164.01779    2.6317502   -161.38604   -5244.4651    4.2460128    4.2460128    4.2460128   -5244.4651   -18379.549   -21847.497    24493.651    1700.0864    6877.6102   -18429.119    76.549769 
   68300    3063.2329   -164.14909    2.7716775   -161.37742   -8383.0035    4.2461018    4.2461018    4.2461018   -8383.0035   -26184.103   -42618.864    43653.957    1402.5408    3798.9879   -12939.686    76.554583 
   68400    2255.3952   -163.41787     2.040729   -161.37714   -13056.207    4.2386948    4.2386948    4.2386948   -13056.207   -8775.6807    -15547.65   -14845.289    2716.7038   -2032.1811    -3586.069    76.154654 
   68500    1679.1052   -162.90381    1.5192897   -161.38452    -4892.681    4.2337302    4.2337302    4.2337302    -4892.681    24639.562    7541.7916   -46859.397    2663.9123    2570.6645    5400.9186    75.887376 
   68600    1966.1635   -163.17906    1.7790261   -161.40003    7085.2895      4.23499      4.23499      4.23499    7085.2895    21614.811    11704.996   -12063.939     7160.982   -14151.772   -532.26193    75.955139 
   68700    2567.4416   -163.73407    2.3230751     -161.411    6063.4931    4.2392046    4.2392046    4.2392046    6063.4931    6749.9113    1273.3956    10167.173   -110.26269    445.53964    3264.9564    76.182131 
   68800    2497.2806   -163.66992    2.2595919   -161.41033   -1643.4017    4.2400506    4.2400506    4.2400506   -1643.4017    9260.3489   -21639.101    7448.5474    1207.8734   -15652.553   -2425.5432    76.227753 
   68900    1673.4575   -162.92006    1.5141795   -161.40588   -10278.905     4.239901     4.239901     4.239901   -10278.905    20256.196    8309.1689   -59402.081    -8554.954    2270.0207   -637.74576    76.219682 
   69000    1101.5784   -162.39786   0.99673132   -161.40113   -20945.674    4.2404683    4.2404683    4.2404683   -20945.674    17754.113    32848.154   -113439.29    848.39435   -14239.252   -737.48139    76.250282 
   69100    1463.4418   -162.72748    1.3241529   -161.40333   -14939.034    4.2376301    4.2376301    4.2376301   -14939.034    9679.4351   -917.29067   -53579.247   -10439.198   -3525.6918   -2016.4316    76.097281 
   69200    1904.0724   -163.13287    1.7228447   -161.41003    10366.239    4.2374695    4.2374695    4.2374695    10366.239    22632.856    4247.6019    4218.2586    3659.0414   -12755.342    112.94087    76.088629 
   69300    1702.8348   -162.95287    1.5407607   -161.41211    9670.7395    4.2405113    4.2405113    4.2405113    9670.7395    23957.806    19586.748   -14532.335   -7606.8085   -12606.163   -4483.8245      76.2526 
   69400    1051.1354   -162.35905    0.9510894   -161.40796   -5978.0667    4.2419468    4.2419468    4.2419468   -5978.0667     51335.72    5973.4239   -75243.344   -882.45361   -1970.7372   -8223.8071    76.330068 
   69500     857.0638   -162.17871   0.77548933   -161.40322   -5783.4859    4.2412479    4.2412479    4.2412479   -5783.4859    52110.806    11719.313   -81180.576   -6639.2341   -2465.0525   -8832.3717    76.292347 
   69600    1377.9381   -162.65079    1.2467874   -161.40401   -6168.6735    4.2371893    4.2371893    4.2371893   -6168.6735    13405.556    34027.905   -65939.482    3061.6025   -159.24043   -18140.051    76.073535 
   69700    1854.9176   -163.08857    1.6783684    -161.4102   -4733.5175    4.2346159    4.2346159    4.2346159   -4733.5175    -13269.14    5968.7262    -6900.139   -1156.4059   -5308.5131   -23994.135    75.935012 
   69800    1518.2157   -162.79305    1.3737134   -161.41933    7341.7887    4.2373123    4.2373123    4.2373123    7341.7887   -1751.4178    26945.774     -3168.99   -265.61607    3409.3974   -31740.606     76.08016 
   69900    676.26789    -162.0334    0.6119014    -161.4215   -8521.5006    4.2397868    4.2397868    4.2397868   -8521.5006    6938.2975    51507.811    -84010.61    4497.4543    3743.6833    -39290.18    76.213525 
   70000    348.49688   -161.73425    0.3153273   -161.41892    2586.3407    4.2388325    4.2388325    4.2388325    2586.3407    13731.084    28155.548   -34127.609   -1545.4599    6814.8187   -32781.099    76.162073 
   70100     897.8481   -162.23183   0.81239183   -161.41944    -15109.17    4.2382208    4.2382208    4.2382208    -15109.17   -812.14176      19919.2   -64434.568    5017.9693    11210.218   -42785.357    76.129107 
   70200    1540.8897   -162.81432    1.3942294   -161.42009    2362.4852    4.2347263    4.2347263    4.2347263    2362.4852   -20215.979    28900.358   -1596.9234   -4921.4722    13306.326   -41738.928    75.940952 
   70300    1349.9968    -162.6444    1.2215055    -161.4229   -2205.7215     4.238494     4.238494     4.238494   -2205.7215     16885.31    371.35827   -23873.833   -1827.0855    19311.837   -38580.058    76.143829 
   70400    594.61113   -161.95638   0.53801665   -161.41836   -4884.4855     4.244024     4.244024     4.244024   -4884.4855     49738.07    31869.934    -96261.46   -12456.165        28050   -36535.412    76.442258 
   70500    475.62717    -161.8391   0.43035746   -161.40874    11674.271    4.2440993    4.2440993    4.2440993    11674.271    52179.638    52274.588   -69431.413   -11124.833    24001.768   -30076.594    76.446326 
   70600    1305.5076   -162.58402    1.1812507   -161.40276   -4841.4641    4.2435833    4.2435833    4.2435833   -4841.4641    40373.043    1694.2586   -56591.694   -1647.2332    11267.449   -23181.192    76.418445 
   70700    1877.3782   -163.10548    1.6986912   -161.40679   -1197.7645      4.23448      4.23448      4.23448   -1197.7645     10506.11    15341.123   -29440.526   -3093.7724    17055.332   -30603.072    75.927702 
   70800    1608.0474      -162.87    1.4549951     -161.415    6768.9851    4.2317797    4.2317797    4.2317797    6768.9851    29109.052    23310.129   -32112.226   -4870.6647    5702.6568   -23692.013    75.782538 
   70900    999.52694   -162.32595   0.90439298   -161.42156   -14026.728    4.2419443    4.2419443    4.2419443   -14026.728    61408.738    12476.276    -115965.2   -2630.8279    1796.5977   -31667.251    76.329935 
   71000    958.16816   -162.28139   0.86697068   -161.41442    -6616.247    4.2473017    4.2473017    4.2473017    -6616.247    51065.911    30190.503   -101105.16    8529.5322    1651.1249   -29769.277    76.619506 
   71100    1471.8385   -162.73872    1.3317504   -161.40697    3304.3268    4.2424963    4.2424963    4.2424963    3304.3268    22837.016   -5397.4864   -7526.5487    5108.7604   -12856.089   -31042.778    76.359734 
   71200    1746.8609   -162.98448    1.5805965   -161.40389     9540.431    4.2321725    4.2321725    4.2321725     9540.431    17498.131    12555.557   -1432.3953    624.14519   -13910.443   -31155.819    75.803645 
   71300    1577.5063   -162.83734    1.4273608   -161.40998   -4842.7105    4.2351509    4.2351509    4.2351509   -4842.7105    12761.674   -3762.9473   -23526.858     2107.537   -9648.6222   -31578.564    75.963795 
   71400      1343.64   -162.62726    1.2157537   -161.41151   -27782.427    4.2456919    4.2456919    4.2456919   -27782.427    15243.936   -18294.314   -80296.904   -2564.5294   -11989.709   -31146.584    76.532417 
   71500    1565.3625   -162.82355    1.4163729   -161.40718     3044.383    4.2402511    4.2402511    4.2402511     3044.383    46768.609    40576.713   -78212.173    6489.1307   -18047.008   -8723.1953    76.238565 
   71600    2264.4613   -163.45262    2.0489322   -161.40369    13785.045    4.2387314    4.2387314    4.2387314    13785.045    21420.839     9692.054    10242.241    5029.8465   -21964.783   -22168.317    76.156627 
   71700    2685.1898   -163.83134    2.4296162   -161.40172   -1467.4699    4.2412463    4.2412463    4.2412463   -1467.4699    8839.4135   -27989.683     14747.86   -1798.8263   -2586.6653   -11866.084    76.292259 
   71800     2316.486   -163.49391    2.0960052   -161.39791   -2819.9862    4.2375065    4.2375065    4.2375065   -2819.9862   -373.34749    3012.0714   -11098.683   -4113.6398   -9708.2762   -17966.495    76.090624 
   71900    1717.0729   -162.95325    1.5536436   -161.39961   -6722.7122    4.2378724    4.2378724    4.2378724   -6722.7122    5981.8382    6859.2454    -33009.22   -6987.4848   -4497.8933   -12632.644    76.110335 
   72000    1797.8641   -163.03079    1.6267452   -161.40404   -14520.195    4.2379992    4.2379992    4.2379992   -14520.195    30270.801   -4139.0979   -69692.288   -2168.6135   -5110.6208   -18434.826    76.117169 
   72100    2597.5587    -163.7561    2.3503257   -161.40577    7417.8409    4.2380811    4.2380811    4.2380811    7417.8409    20248.332    1033.0345    972.15621   -6459.5222   -12017.265   -18783.994    76.121582 
   72200    3157.5263   -164.26163    2.8569962   -161.40464    27.221231    4.2435858    4.2435858    4.2435858    27.221231   -26597.421   -15334.629    42013.714     -8556.93    4703.3897   -9350.0603    76.418581 
   72300    2751.2547   -163.88981    2.4893931   -161.40042    -5238.382    4.2379445    4.2379445    4.2379445    -5238.382   -21508.576    2139.8609    3653.5689   -7695.6265   -17517.549   -6835.9591    76.114218 
   72400    2170.9049   -163.36053    1.9642804   -161.39625   -2657.4571    4.2317311    4.2317311    4.2317311   -2657.4571    13314.356    22461.963   -43748.691   -13568.168   -8726.9516   -347.20933    75.779929 
   72500    2062.1979   -163.26991      1.86592   -161.40399   -6344.8683    4.2381336    4.2381336    4.2381336   -6344.8683    30324.068    8633.8363   -57992.509   -972.06469   -8626.0351   -4446.8946     76.12441 
   72600    2648.0663   -163.80206     2.396026   -161.40604   -8705.8785    4.2382854    4.2382854    4.2382854   -8705.8785    12484.895    -7936.666   -30665.865   -16337.791   -6490.7294    2570.7635     76.13259 
   72700    3039.4119   -164.15751    2.7501238   -161.40739   -202.00247    4.2368696    4.2368696    4.2368696   -202.00247   -14752.837    -5597.011    19743.841   -5731.4012    7252.0142    1448.1606    76.056315 
   72800    2748.4114   -163.89664    2.4868204   -161.40982    7376.4731    4.2343209    4.2343209    4.2343209    7376.4731   -3079.7928    3387.4237    21821.788   -4497.6935   -10885.208    5332.1086    75.919146 
   72900    2105.0598   -163.31406    1.9047024   -161.40936    2816.4444    4.2292968    4.2292968    4.2292968    2816.4444    5209.1171    29042.809   -25802.593   -1090.6225    14843.809    677.92917    75.649227 
   73000    1735.1361   -162.98396    1.5699876   -161.41398   -10473.497    4.2390868    4.2390868    4.2390868   -10473.497    12354.215    25482.511   -69257.217    4796.8736    1821.3304    2086.1612    76.175782 
   73100    2207.7011   -163.40304    1.9975743   -161.40547   -15952.366    4.2430619    4.2430619    4.2430619   -15952.366    13532.353   -6564.6351   -54824.815    1991.4936    733.81847    4159.5843    76.390281 
   73200    3110.6153   -164.21548    2.8145501   -161.40093    1980.7327    4.2368821    4.2368821    4.2368821    1980.7327   -6603.8332    6503.9097    6042.1215    5939.6278     9051.365    65.305305     76.05699 
   73300    3333.7606   -164.41906    3.0164567    -161.4026    7115.2381    4.2368289    4.2368289    4.2368289    7115.2381   -8342.9973   -5497.5562    35186.268    5685.7146    1655.2451   -1414.8208    76.054123 
   73400    2705.6441   -163.85011    2.4481236   -161.40199    15243.762    4.2348221    4.2348221    4.2348221    15243.762    7020.2361     22212.71    16498.339    8439.7388    22699.169    295.12112    75.946105 
   73500    2077.9897    -163.2836    1.8802088   -161.40339   -11478.617    4.2431178    4.2431178    4.2431178   -11478.617    2778.1186    20454.011    -57667.98    1680.5261    10910.718    11318.665    76.393298 
   73600    1949.7655   -163.16347    1.7641888   -161.39928   -17209.896    4.2431923    4.2431923    4.2431923   -17209.896   -7847.7113     15678.94   -59460.916    5772.0721    14545.961    9068.5588    76.397323 
   73700    2307.6467   -163.48317    2.0880072   -161.39516    21401.468    4.2285052    4.2285052    4.2285052    21401.468    -2949.652     31927.83    35226.226    964.97849    22663.495    19854.794    75.606755 
   73800    2553.3928   -163.71714    2.3103634   -161.40677    4272.3396    4.2382964    4.2382964    4.2382964    4272.3396   -28550.806     9147.648    32220.177    8877.3032      20479.5    7289.3103    76.133183 
   73900    2403.4607   -163.58228    2.1747018   -161.40758    790.32379    4.2413403    4.2413403    4.2413403    790.32379   -15249.258    17938.752   -318.52291    10791.088    31234.185    19506.767    76.297332 
   74000    1865.9044   -163.09363    1.6883095   -161.40532     2414.212     4.233042     4.233042     4.233042     2414.212    9566.9659    43593.712   -45918.042    12416.497    21539.454    7815.2826    75.850374 
   74100    1495.5831   -162.76185     1.353235   -161.40861    -14322.09    4.2374744    4.2374744    4.2374744    -14322.09   -4306.7598    24532.588   -63192.098    15330.173    27963.132     6975.375    76.088891 
   74200    1759.4247   -163.00399    1.5919644   -161.41203    -2309.435    4.2345616    4.2345616    4.2345616    -2309.435   -6263.9431    17904.985   -18569.347    7599.6399    33539.662    2556.5377    75.932092 
   74300    2266.4248   -163.46782    2.0507088   -161.41711    4405.3163    4.2318948    4.2318948    4.2318948    4405.3163   -16502.241    1752.7663    27965.424    5786.5349    22629.535   -1016.7373    75.788724 
   74400    2257.6444   -163.46365    2.0427641   -161.42088   -577.88057    4.2381926    4.2381926    4.2381926   -577.88057   -15340.381   -12015.162    25621.901    -9362.626    25005.703    206.15988     76.12759 
   74500    1832.6912   -163.07807    1.6582575   -161.41982   -1832.5381    4.2367488    4.2367488    4.2367488   -1832.5381   -726.57778    33329.108   -38100.145   -6054.6834    21727.443   -8532.8596    76.049814 
   74600    1386.6069   -162.66884    1.2546311   -161.41421   -9357.3206    4.2365797    4.2365797    4.2365797   -9357.3206    492.85212    40653.853   -69218.667   -13631.449     25027.75    4128.4017    76.040705 
   74700     1365.317   -162.64487    1.2353675    -161.4095   -5552.6274    4.2398853    4.2398853    4.2398853   -5552.6274   -8591.9454    13984.166   -22050.103   -11928.983    8594.5579   -4447.7338    76.218839 
   74800    1844.1077   -163.07838    1.6685874   -161.40979   -3682.0019    4.2411629    4.2411629    4.2411629   -3682.0019   -53296.926    15506.888    26744.033   -14249.837    9257.2385    3877.9101    76.287762 
   74900     1927.184   -163.15305    1.7437566    -161.4093    2250.5953    4.2368812    4.2368812    4.2368812    2250.5953   -35715.093    17583.404    24883.475   -16673.295    21368.681   -1752.6013    76.056944 
   75000    1346.1226   -162.62637    1.2180001   -161.40837    3967.5263    4.2361291    4.2361291    4.2361291    3967.5263   -4907.5199    8254.4758    8555.6231    -24003.19    5200.3581   -6159.5155    76.016446 
   75100    1016.5099    -162.3287   0.91975949   -161.40894   -18951.943    4.2443074    4.2443074    4.2443074   -18951.943   -23070.021    21236.545   -55022.352   -16072.227    14169.118    7438.8042    76.457573 
   75200    1123.4122   -162.42332    1.0164869   -161.40683   -3167.4223     4.239747     4.239747     4.239747   -3167.4223   -11982.106    31556.076   -29076.237   -6509.9113    24756.273   -406.14286    76.211381 
   75300    1566.0128   -162.82457    1.4169613   -161.40761   -681.33918    4.2349359    4.2349359    4.2349359   -681.33918   -49540.576   -8502.5807    55999.139   -2826.1072    16566.377    10636.416     75.95223 
   75400    1533.4635   -162.80188      1.38751   -161.41437   -18641.723    4.2384807    4.2384807    4.2384807   -18641.723   -42434.104   -41614.877    28123.813    6358.9341    16712.517    5494.7172    76.143113 
   75500    1079.5878   -162.39569   0.97683375   -161.41885    3171.5901    4.2343958    4.2343958    4.2343958    3171.5901    1443.4773   -3136.9658    11208.259    8831.4553    24573.779    5982.4695    75.923174 
   75600    869.70272   -162.20685    0.7869253   -161.41992   -3577.0077    4.2358638    4.2358638    4.2358638   -3577.0077   -12280.567    10104.691   -8555.1467    5868.5957    16996.632    7414.8308    76.002166 
   75700    1035.2308   -162.35503   0.93669855   -161.41833   -15949.634    4.2385281    4.2385281    4.2385281   -15949.634    1436.2589    1721.7424   -51006.903    15232.283    17025.096   -7898.6065    76.145668 
   75800    1563.4398    -162.8336    1.4146332   -161.41897    9604.5699    4.2330949    4.2330949    4.2330949    9604.5699   -7386.7415    14910.641     21289.81    9971.4779     13450.21   -2121.8281    75.853221 
   75900    1772.8605   -163.02555    1.6041214   -161.42143    6360.4637    4.2354221    4.2354221    4.2354221    6360.4637   -27380.917     609.7797    45852.529    6989.6897    11214.287   -11999.218    75.978393 
   76000    1405.8169   -162.69136    1.2720127   -161.41935   -11303.495    4.2393559    4.2393559    4.2393559   -11303.495    9564.4874   -32076.562    -11398.41    1699.0076    9159.3663   -4909.1845    76.190289 
   76100    852.07964   -162.18363   0.77097956   -161.41265   -7449.0684    4.2384931    4.2384931    4.2384931   -7449.0684    29623.698    14637.538   -66608.441    -2576.337    12234.054   -4905.3617    76.143779 
   76200    685.16548   -162.03226   0.61995212   -161.41231   -15136.331    4.2381042    4.2381042    4.2381042   -15136.331    19174.824    21340.327   -85924.145   -11960.459   -3086.4465   -8130.3255    76.122825 
   76300    1163.6517   -162.46817    1.0528965   -161.41527   -8149.6536     4.233716     4.233716     4.233716   -8149.6536    36907.114   -7379.5511   -53976.524   -12234.017    6066.7774   -9824.6522    75.886613 
   76400     1568.055   -162.83988    1.4188091   -161.42108    6639.4716    4.2352541    4.2352541    4.2352541    6639.4716    3488.9836     25863.56   -9434.1283    -18547.62    2309.7323   -8848.7573    75.969353 
   76500    1357.4768    -162.6525    1.2282735   -161.42423   -18143.805    4.2391881    4.2391881    4.2391881   -18143.805   -15039.031   -9405.7768   -29986.609    -12496.83   -8342.6272   -14835.268    76.181242 
   76600    769.75508   -162.11791   0.69649058   -161.42142   -58.608135    4.2332218    4.2332218    4.2332218   -58.608135    56177.812    16388.773   -72742.409   -8441.0214   -10698.969   -21962.793    75.860042 
   76700    460.18786   -161.83887   0.41638764   -161.42248   -18390.424    4.2388181    4.2388181    4.2388181   -18390.424     40937.46    1989.9031   -98098.635    17.492824   -9510.4426   -18495.974    76.161297 
   76800    916.22912    -162.2498   0.82902337   -161.42078   -15918.976     4.241084     4.241084     4.241084   -15918.976    10664.732   -3543.6687   -54877.991    905.26796   -10577.954   -23414.262    76.283501 
   76900    1667.7899   -162.92719    1.5090514   -161.41813    21151.261    4.2362458    4.2362458    4.2362458    21151.261    47637.143    22955.911   -7139.2705    984.10983   -11079.819   -22797.654    76.022729 
   77000    1796.2783   -163.03852    1.6253104   -161.41321   -13043.976    4.2426673    4.2426673    4.2426673   -13043.976   -5213.4631   -27256.529   -6661.9368    3792.2792   -4216.8929   -26323.938    76.368967 
   77100    1216.4931   -162.50937    1.1007085   -161.40866   -7646.6761    4.2359979    4.2359979    4.2359979   -7646.6761    4205.3193    1067.8667   -28213.214   -1229.5549   -10941.624   -29294.449    76.009384 
   77200    932.65656   -162.25372   0.84388726   -161.40984    6123.8373    4.2345172    4.2345172    4.2345172    6123.8373    62737.407    -3064.677   -41301.218   -1372.5984    1208.4642   -28370.793    75.929706 
   77300    1288.1421    -162.5766    1.1655381   -161.41106    -20526.75    4.2457738    4.2457738    4.2457738    -20526.75    25073.491   -28903.633   -57750.107   -12008.933    -1705.486   -33904.193    76.536847 
   77400     1820.426   -163.05345    1.6471597   -161.40629    2533.0774     4.240712     4.240712     4.240712    2533.0774    30076.673   -9377.0305    -13100.41   -1402.9146   -13447.499   -33438.453     76.26343 
   77500    2079.3203   -163.28428    1.8814127   -161.40287    16489.902      4.23489      4.23489      4.23489    16489.902    30051.701   -5329.9075    24747.912   -11836.828    3475.9007   -37661.737     75.94976 
   77600    1811.8641   -163.04534    1.6394127   -161.40592   -5406.8522    4.2345094    4.2345094    4.2345094   -5406.8522   -29564.226    2774.8928    10568.777   -2691.3772   -1341.2694   -24097.301    75.929283 
   77700    1613.6219   -162.87159     1.460039   -161.41155   -4038.8562    4.2358319    4.2358319    4.2358319   -4038.8562     15908.16    -9336.604   -18688.124    9317.3006    6547.6116    -19904.92     76.00045 
   77800    1861.1987   -163.09639    1.6840517   -161.41234   -19944.169    4.2416415    4.2416415    4.2416415   -19944.169    17600.948   -32421.273   -45012.181    2139.9007     12797.29   -18637.963    76.313588 
   77900    2313.8844   -163.50248    2.0936512   -161.40882   -4288.1233    4.2356078    4.2356078    4.2356078   -4288.1233    17335.804   -10127.402   -20072.772    12727.526    14911.222   -6603.0303    75.988386 
   78000    2447.2058   -163.62341    2.2142832   -161.40913    17822.313    4.2309681    4.2309681    4.2309681    17822.313    14328.387   -7263.1433    46401.694     8225.795    21708.686   -7587.6924    75.738945 
   78100    2339.0119   -163.52872    2.1163871   -161.41234    -12078.92    4.2383233    4.2383233    4.2383233    -12078.92   -56861.157   -14694.707    35319.103    15620.405    23032.608    4240.6819    76.134631 
   78200    2101.0453   -163.30997    1.9010699    -161.4089   -2136.4086    4.2386377    4.2386377    4.2386377   -2136.4086   -19463.879    9509.9327    3544.7203    8312.3539    31379.582   -2457.8252    76.151575 
   78300    1990.2842   -163.20708     1.800851   -161.40623   -1118.0813     4.235621     4.235621     4.235621   -1118.0813    16306.423    9789.6174   -29450.285    10450.893    31974.062    2639.4357    75.989096 
   78400    2160.0782   -163.36477    1.9544842   -161.41029   -5006.9678    4.2335406    4.2335406    4.2335406   -5006.9678    17621.775   -3388.0348   -29254.644    13700.311    33852.893    5209.6601     75.87718 
   78500    2526.0335   -163.69945    2.2856082   -161.41384    9915.4623    4.2330643    4.2330643    4.2330643    9915.4623    26911.361   -16864.463    19699.489    4050.9894    27058.904    8809.1353    75.851576 
   78600    2726.9529   -163.88221    2.4674043   -161.41481    1999.5022    4.2378116    4.2378116    4.2378116    1999.5022   -5515.2128   -16457.892    27971.611    10961.002    19748.133    15212.885    76.107059 
   78700    2483.7652    -163.6589    2.2473629   -161.41153   -86.945762    4.2373738    4.2373738    4.2373738   -86.945762   -2609.9052   -6505.1529    8854.2208   -6784.6893      24288.1     12540.96    76.083475 
   78800    2043.3337   -163.25894    1.8488513   -161.41009    1336.8222    4.2319614    4.2319614    4.2319614    1336.8222     17003.28    16246.695   -29239.508    2461.2896    19895.901    27644.811    75.792299 
   78900    1958.8981    -163.1868    1.7724522   -161.41435    16477.106    4.2295203    4.2295203    4.2295203    16477.106    37459.927     43841.61   -31870.218   -7253.8727    20724.165     15498.17     75.66122 
   79000    2438.7248   -163.62655    2.2066095   -161.41994   -2045.4705     4.235232     4.235232     4.235232   -2045.4705    18827.856   -18750.351   -6213.9157    5751.4963     22636.12    22609.858     75.96816 
   79100     2876.897   -164.01932    2.6030769   -161.41625   -7408.7569    4.2401505    4.2401505    4.2401505   -7408.7569   -6963.1466   -41505.071    26241.947     740.7659    26366.129   -627.62837     76.23314 
   79200    2538.7387   -163.70687    2.2971041   -161.40977    8691.1066    4.2328004    4.2328004    4.2328004    8691.1066     8789.382    9682.1716    7601.7662     646.4712    25859.172   -6788.9304    75.837388 
   79300    1914.9546   -163.14134    1.7326912   -161.40865   -4658.0226    4.2333626    4.2333626    4.2333626   -4658.0226    28000.916   -5286.4392   -36688.545    3582.7257    28722.223   -13869.835     75.86761 
   79400    1786.9178    -163.0252    1.6168408   -161.40836   -16028.027    4.2377884    4.2377884    4.2377884   -16028.027    30187.183   -3416.0625   -74855.201   -2754.7694    29965.455    -33776.77     76.10581 
   79500    2373.0508    -163.5539    2.1471863   -161.40671     12238.69    4.2365478    4.2365478    4.2365478     12238.69    26217.054    13606.845   -3107.8301    8162.6055    27619.724   -21473.611    76.038991 
   79600    2829.2857   -163.96814    2.5599972   -161.40814   -803.44938    4.2390065    4.2390065    4.2390065   -803.44938    9205.0232    -40657.15    29041.779    -4275.032    30105.585   -24217.705    76.171455 
   79700    2616.0555   -163.77429     2.367062   -161.40723   -5402.5344    4.2345263    4.2345263    4.2345263   -5402.5344    46870.692   -54685.264   -8393.0309    7580.5527    26446.932   -20317.322    75.930193 
   79800    2059.2945   -163.26952     1.863293   -161.40622    -453.1469    4.2326693    4.2326693    4.2326693    -453.1469    56985.195   -29116.035   -29228.601   -3092.9141    21694.565   -13849.175    75.830343 
   79900    1852.7804   -163.08274    1.6764346    -161.4063   -11834.275    4.2405234    4.2405234    4.2405234   -11834.275    32117.354   -20245.148    -47375.03    1476.6926    19502.026   -9833.6826    76.253257 
   80000    2344.9125    -163.5238    2.1217261   -161.40207   -13207.639    4.2417365    4.2417365    4.2417365   -13207.639    9765.7033   -18858.913   -30529.707    3392.8006    24002.139   -11895.445    76.318718 
   80100    2939.0331   -164.05975    2.6592989   -161.40045   -3386.2402    4.2374883    4.2374883    4.2374883   -3386.2402   -12599.475   -17640.776     20081.53   -12647.723    17757.165   -8946.9016    76.089641 
   80200    2823.2152   -163.95843    2.5545045   -161.40392    7959.8184    4.2338375    4.2338375    4.2338375    7959.8184    6804.2231   -23104.465    40179.697    3831.6533    17618.647    -1531.629    75.893146 
   80300    2218.3435   -163.41508    2.0072038   -161.40787   -3043.0977    4.2345831    4.2345831    4.2345831   -3043.0977    27704.236   -16179.193   -20654.336   -11828.307    10741.772     949.7836    75.933246 
   80400    1810.5206   -163.04497    1.6381971   -161.40678   -19200.204    4.2407608    4.2407608    4.2407608   -19200.204     2193.428    3223.9444   -63017.984     841.6607    7358.3394    4138.7689    76.266064 
   80500    1998.9436   -163.21488    1.8086862   -161.40619   -4183.0183    4.2381241    4.2381241    4.2381241   -4183.0183   -17579.876    23146.987   -18116.166    -1218.136    3211.8359   -2842.0547    76.123896 
   80600    2308.8519    -163.4959    2.0890977   -161.40681    12375.494    4.2355219    4.2355219    4.2355219    12375.494   -28038.994    41531.249    23634.227   -7236.2595   -8794.6837   -5558.6826     75.98376 
   80700    2305.9297   -163.49212    2.0864536   -161.40567    8239.1901    4.2441655    4.2441655    4.2441655    8239.1901   -7391.3172    29864.762    2244.1255    292.21416   -25727.705    71.287874    76.449903 
   80800    1722.6653   -162.95257    1.5587038   -161.39387   -10759.823    4.2491039    4.2491039    4.2491039   -10759.823    6690.6669     15652.16   -54622.297     1022.133   -40188.412    2890.0638    76.717076 
   80900    1152.5966   -162.42696    1.0428936   -161.38407   -10786.231    4.2428515    4.2428515    4.2428515   -10786.231    11976.261    28652.927    -72987.88    7203.0174   -58365.057    1347.4501    76.378917 
   81000    1316.6068   -162.57497    1.1912935   -161.38367   -10341.978    4.2364351    4.2364351    4.2364351   -10341.978   -16861.221      47426.6   -61591.314    8213.5763   -75709.941    7319.0303    76.032921 
   81100    1608.5494   -162.85135    1.4554493   -161.39591    4677.1403    4.2390574    4.2390574    4.2390574    4677.1403    -37098.23    27072.707    24056.944    5108.4134   -85272.619    9093.7179    76.174199 
   81200    1499.0425   -162.75998    1.3563651   -161.40361   -5135.0661    4.2443883    4.2443883    4.2443883   -5135.0661   -31835.672    21915.763   -5485.2896    2259.5928   -102230.12    1992.5246    76.461942 
   81300    1097.7177   -162.39948   0.99323802   -161.40624   -7377.9974    4.2388545    4.2388545    4.2388545   -7377.9974   -30467.636     49680.94   -41347.296    1011.5487   -103665.32    6215.7441    76.163258 
   81400    908.17228   -162.22994   0.82173336   -161.40821   -204.22707    4.2296968    4.2296968    4.2296968   -204.22707   -9014.6429    61104.299   -52702.338   -4778.8657   -102127.72   -6836.5465    75.670691 
   81500    804.88807   -162.14583   0.72827964   -161.41755   -1539.4973    4.2373642    4.2373642    4.2373642   -1539.4973   -26954.053    41236.877   -18901.316    2447.6325   -104512.42   -1938.2131    76.082954 
   81600    1059.8986   -162.37622   0.95901851    -161.4172   -20818.731    4.2448881    4.2448881    4.2448881   -20818.731   -70897.841    10376.641   -1934.9935   -3394.2177   -111588.14   -3801.5509    76.488959 
   81700    1241.3512   -162.53807    1.1232007   -161.41487    4930.5916    4.2325475    4.2325475    4.2325475    4930.5916   -25058.554    21049.533    18800.795    -3790.397   -102284.95   -2436.0139    75.823798 
   81800     1117.996   -162.42676    1.0115863   -161.41517   -2337.4623    4.2326565    4.2326565    4.2326565   -2337.4623   -6691.9181    41272.066   -41592.534   -1393.9406   -97207.042    976.68014    75.829655 
   81900    972.52413   -162.29605   0.87996027   -161.41609   -26218.551    4.2412576    4.2412576    4.2412576   -26218.551   -20168.594    44397.063   -102884.12   -7604.8929   -100333.76   -1287.9056    76.292872 
   82000     1133.245     -162.438    1.0253839   -161.41262     3593.757    4.2379205    4.2379205    4.2379205     3593.757    3458.2447    44150.349   -36827.323    -2876.419   -82399.771    3853.2773    76.112926 
   82100    1566.3484   -162.82462     1.417265   -161.40735   -11078.831    4.2397072    4.2397072    4.2397072   -11078.831   -51319.017     22756.77   -4674.2472   -10468.932   -75158.713   -2385.4884    76.209233 
   82200    1753.2303   -162.98744    1.5863596   -161.40108   -18071.112    4.2421105    4.2421105    4.2421105   -18071.112    -63029.79    5109.9664    3706.4872   -2078.5388   -54066.105   -2978.7694    76.338908 
   82300    1729.9707   -162.95833    1.5653139   -161.39301   -9075.5385    4.2427714    4.2427714    4.2427714   -9075.5385    8560.8174    2818.8247   -38606.258   -300.66706   -41222.294   -4529.2346     76.37459 
   82400    1763.8267   -162.98333    1.5959475   -161.38738   -11305.873    4.2452775    4.2452775    4.2452775   -11305.873    10938.039    10895.747   -55751.405    -428.6393   -25250.025   -6720.6449    76.510008 
   82500     2176.413   -163.35153    1.9692642   -161.38226   -2950.9532    4.2432574    4.2432574    4.2432574   -2950.9532   -3718.9607    19722.172   -24856.071    4133.2901   -4622.2363    4731.1834    76.400838 
   82600    2838.0267   -163.94859    2.5679062   -161.38069    1790.9981    4.2396134    4.2396134    4.2396134    1790.9981   -31749.332    17331.709    19790.617   -2973.0742    12061.302   -8457.9155    76.204174 
   82700    2868.0028   -163.97927    2.5950292   -161.38424   -994.51582    4.2409025    4.2409025    4.2409025   -994.51582    -27482.56    -8154.667    32653.679    3211.0776    23395.379    -129.7611    76.273707 
   82800    2381.3239   -163.54151    2.1546719   -161.38684    2227.1945    4.2360951    4.2360951    4.2360951    2227.1945     11509.73   -17425.712    12597.565     -4893.83    23619.125   -7099.0104    76.014615 
   82900    2099.8842   -163.29357    1.9000194   -161.39355    6060.8433    4.2333133    4.2333133    4.2333133    6060.8433    50276.352   -14151.994   -17941.828    2720.6823    25081.547   -2490.2927    75.864959 
   83000    2383.3957   -163.55576    2.1565465   -161.39922   -3078.7629    4.2382317    4.2382317    4.2382317   -3078.7629    27438.577   -22294.641   -14380.225    1294.4339    30229.784   -230.40323    76.129696 
   83100    2891.1277   -164.01501    2.6159531   -161.39905    -1080.696    4.2374801    4.2374801    4.2374801    -1080.696    -14958.37   -21485.705    33201.987    1684.2786    27686.157    2453.7734    76.089199 
   83200    2974.8453   -164.09138    2.6917025   -161.39967    10017.313     4.235575     4.235575     4.235575    10017.313    -5304.317   -17789.719    53145.974    3108.7416     27055.18    2678.8219    75.986622 
   83300    2436.8708    -163.6045    2.2049319   -161.39957    447.85268    4.2360004    4.2360004    4.2360004    447.85268    6466.2376    -15302.11     10179.43    1221.0951    27717.897   -4612.7796    76.009518 
   83400    2208.7518   -163.39823    1.9985251    -161.3997    1334.6061    4.2343191    4.2343191    4.2343191    1334.6061    36541.924   -980.08202   -31558.024    6920.3697    27405.264    2365.5525     75.91905 
   83500     2250.905   -163.43933    2.0366661   -161.40267    804.63261    4.2368498    4.2368498    4.2368498    804.63261    39372.952    378.11508    -37337.17   -3839.0925    23369.959    -6002.161    76.055254 
   83600    2494.2651   -163.65771    2.2568635   -161.40084    1607.5612    4.2413263    4.2413263    4.2413263    1607.5612    3267.5935   -6145.6088    7700.6988    5760.2001    20121.116   -3178.3806    76.296579 
   83700    2442.8837   -163.60549    2.2103725   -161.39512    5683.8117    4.2408314    4.2408314    4.2408314    5683.8117   -24459.672    4728.2246    36782.882    3043.3376   -538.29067   -9098.2195    76.269871 
   83800    1926.6414   -163.13482    1.7432656   -161.39156   -307.05518    4.2403251    4.2403251    4.2403251   -307.05518    -31063.93    29608.821    533.94335    7765.8719   -15327.557   -3085.0817    76.242561 
   83900    1532.7325    -162.7779    1.3868485   -161.39105   -11741.774    4.2393802    4.2393802    4.2393802   -11741.774   -6120.1928    39039.341   -68144.472    2941.0435   -32286.405   -564.92183      76.1916 
   84000    1544.2567   -162.78853    1.3972759   -161.39125    5988.1092    4.2354694    4.2354694    4.2354694    5988.1092    304.64175    38367.748   -20708.063   -800.24147   -47986.731    724.58369    75.980935 
   84100     1814.978   -163.04228    1.6422303   -161.40005   -3762.0732    4.2395045    4.2395045    4.2395045   -3762.0732   -33787.724    22660.017   -158.51267   -1764.9253   -63268.634    3252.5964    76.198304 
   84200    1752.3922      -162.99    1.5856013    -161.4044   -8119.7615     4.238538     4.238538     4.238538   -8119.7615   -51067.225     17901.05    8806.8906   -3673.0638   -83318.568    1714.0558    76.146202 
   84300    1246.3954   -162.53139    1.1277647   -161.40362    17316.711    4.2293062    4.2293062    4.2293062    17316.711    -10247.51    42351.453    19846.191   -549.71001   -83478.382    3913.8646    75.649733 
   84400    795.44316   -162.13014   0.71973369    -161.4104   -13604.394    4.2359466    4.2359466    4.2359466   -13604.394   -6943.5213    53831.692   -87701.354   -690.23466   -93909.601    1702.2003    76.006621 
   84500    862.30485    -162.1924   0.78023155   -161.41217   -8926.0799    4.2377388    4.2377388    4.2377388   -8926.0799    10168.045    45096.654   -82042.939    4587.7503   -99669.547    2165.7764    76.103137 
   84600    1232.2787   -162.53148    1.1149917   -161.41649    7165.0673     4.231323     4.231323     4.231323    7165.0673    2496.6762    44613.234   -25614.708   -3253.2186    -99630.06   -1607.8528    75.758006 
   84700    1450.3657   -162.73511    1.3123214   -161.42279    -8822.002      4.23388      4.23388      4.23388    -8822.002   -40311.512    42914.268   -29068.762   -257.22056   -107635.39   -2868.0005     75.89543 
   84800    1097.5063   -162.41516   0.99304675   -161.42211   -7789.3517    4.2349065    4.2349065    4.2349065   -7789.3517   -47066.456    46056.986   -22358.585    49.721801   -104667.58   -2072.2343    75.950647 
   84900    580.37815   -161.94406   0.52513835   -161.41893   -9826.4889    4.2375038    4.2375038    4.2375038   -9826.4889   -2617.0648    46564.268    -73426.67   -8311.1879   -97853.985   -3922.9134    76.090476 
   85000    658.01186   -162.00816   0.59538296   -161.41278   -30988.492     4.238605     4.238605     4.238605   -30988.492   -12346.264    50949.458   -131568.67    1305.3791   -100150.54    3425.4629    76.149813 
   85100    1370.1658     -162.651    1.2397548   -161.41124   -2884.5365    4.2316793    4.2316793    4.2316793   -2884.5365   -15912.755     50382.09   -43122.945   -2455.4892   -99944.079   -790.43074    75.777147 
   85200    1917.8691   -163.15232    1.7353282     -161.417    5254.3115    4.2361387    4.2361387    4.2361387    5254.3115   -17561.134    29458.508    3865.5599    3525.4567   -86212.956    2709.8714     76.01696 
   85300    1834.2697   -163.07115    1.6596857   -161.41146   -13208.327    4.2412157    4.2412157    4.2412157   -13208.327   -67904.688    29444.009   -1164.3025    3670.0531   -83591.246    2117.6721    76.290607 
   85400    1126.3281   -162.42367    1.0191253   -161.40454   -3614.3196    4.2381154    4.2381154    4.2381154   -3614.3196   -44184.459    55311.958   -21970.458    1345.4835   -60589.042    1435.7139    76.123426 
   85500     867.1386   -162.18654   0.78460523   -161.40194   -24881.407    4.2388022    4.2388022    4.2388022   -24881.407   -24436.557    59907.757   -110115.42    2116.3955   -48372.114   -1838.3228    76.160439 
   85600    1553.3079    -162.8082    1.4054656   -161.40273   -4907.0221    4.2371635    4.2371635    4.2371635   -4907.0221   -26047.217    40607.737   -29281.586    2188.0814   -38927.566   -5723.9786    76.072148 
   85700    2425.0612   -163.59874    2.1942463    -161.4045    7194.2374    4.2398554    4.2398554    4.2398554    7194.2374   -28018.227    14034.801    35566.138    1453.4552   -25246.562    -4137.135    76.217225 
   85800    2427.5048   -163.59583    2.1964574   -161.39937    580.39513    4.2393946    4.2393946    4.2393946    580.39513   -28293.749    1757.4854    28277.449   -1385.2349   -14347.719   -6563.2454     76.19238 
   85900    1667.5772   -162.90633    1.5088589   -161.39748    12944.061     4.233947     4.233947     4.233947    12944.061   -5404.0956    24707.687    19528.591    8140.4503    220.75527    6443.6707    75.899034 
   86000    1344.0712   -162.61872    1.2161439   -161.40258   -7159.0373    4.2331214    4.2331214    4.2331214   -7159.0373   -480.25717    29537.316   -50534.171    3001.0572   -234.33987   -3029.0115    75.854645 
   86100    1925.7105   -163.15265    1.7424233   -161.41023    2286.2804    4.2326548    4.2326548    4.2326548    2286.2804    11861.006     3393.527   -8395.6919    10032.697    7333.6909    6430.7202    75.829562 
   86200    2863.2617   -164.00336    2.5907393   -161.41262    -1479.097    4.2373813    4.2373813    4.2373813    -1479.097    6741.1016   -32915.285    21736.893    3064.5845    8997.2534    8317.2974    76.083878 
   86300    2972.9666   -164.09797    2.6900026   -161.40797    3111.3992    4.2374239    4.2374239    4.2374239    3111.3992    11194.354   -32550.961    30690.804   -288.26505    17490.193    69.544744    76.086172 
   86400    2278.4083   -163.46282    2.0615517   -161.40127    11181.253    4.2316906    4.2316906    4.2316906    11181.253    35995.085   -3329.1847    877.85765    1557.8412    22798.134    4526.8638    75.777754 
   86500    1799.0067   -163.02653    1.6277791   -161.39875   -1820.0674    4.2372769    4.2372769    4.2372769   -1820.0674    35617.465    6039.8997   -47117.567   -5082.7509    22852.102    -2892.244    76.078255 
   86600    2259.2509   -163.44063    2.0442177   -161.39641   -1270.3319     4.240644     4.240644     4.240644   -1270.3319     12190.93   -9798.1568   -6203.7686     1411.107    30443.664   -892.63508    76.259762 
   86700    3177.5114   -164.26724    2.8750791   -161.39216    4007.4997    4.2378283    4.2378283    4.2378283    4007.4997    5574.4125   -29575.833    36023.919   -9743.3676    28782.913   -5851.3721    76.107956 
   86800    3241.1545   -164.32299    2.9326647   -161.39032   -6566.3734    4.2423176    4.2423176    4.2423176   -6566.3734   -3179.3072    -33576.48    17056.667     -3057.74    27167.839    2563.4863    76.350088 
   86900    2406.6083   -163.56485    2.1775498    -161.3873   -8308.2084    4.2375795    4.2375795    4.2375795   -8308.2084    10632.349   -12044.143   -23512.831   -6458.6483    25060.095   -8316.1524    76.094553 
   87000    1824.5088   -163.03675    1.6508539    -161.3859   -5384.0372    4.2328346    4.2328346    4.2328346   -5384.0372    16801.253    12148.232   -45101.596    229.11406     12791.44   -2801.8766    75.839226 
   87100    2193.2412   -163.37769    1.9844907    -161.3932   -15545.399     4.240071     4.240071     4.240071   -15545.399   -26113.806   -647.83054   -19874.561    228.78805    6269.6536   -5446.8188    76.228851 
   87200    2811.7359   -163.94416    2.5441178   -161.40004    8970.0128    4.2366349    4.2366349    4.2366349    8970.0128   -7747.0607   -17928.761     52585.86   -4013.8446   -3285.0062   -5351.2919    76.043678 
   87300    2743.6716   -163.88759    2.4825317   -161.40506     2269.836     4.231962     4.231962     4.231962     2269.836    1524.2424   -10728.746    16014.011    3627.5637   -6972.8352    3274.9124    75.792333 
   87400    1895.4045   -163.12367    1.7150019   -161.40867   -17396.946    4.2363267    4.2363267    4.2363267   -17396.946    19793.077   -2918.2255    -69065.69   -8335.7242   -8485.9471    1398.4834    76.027083 
   87500    1199.5886   -162.49396     1.085413   -161.40855   -7380.0082    4.2325692    4.2325692    4.2325692   -7380.0082    55904.072    14299.896   -92343.993    1417.1378    -9973.305    3999.5666    75.824962 
   87600     1395.972   -162.67584    1.2631048   -161.41273   -18064.129    4.2349504    4.2349504    4.2349504   -18064.129    20587.871    512.04756   -75292.307   -200.67977   -16962.403    8959.8899    75.953009 
   87700    2065.8301    -163.2838    1.8692065    -161.4146   -10881.561     4.237555     4.237555     4.237555   -10881.561    1326.1467   -22233.538   -11737.293   -2773.0916   -24224.029    12091.741    76.093234 
   87800    2331.0817    -163.5244    2.1092117   -161.41519    15033.305    4.2307689    4.2307689    4.2307689    15033.305    19805.753   -5811.2357    31105.399    6243.6235   -26199.961    7502.2611    75.728249 
   87900    1743.9614   -162.99574    1.5779729   -161.41776   -10093.548    4.2339385    4.2339385    4.2339385   -10093.548    29236.972   -1210.4942   -58307.123   -3169.0039   -34038.653    6361.1601    75.898579 
   88000    1106.0913     -162.418    1.0008147   -161.41719   -11515.049    4.2352883    4.2352883    4.2352883   -11515.049    40923.313    10781.066   -86249.527    4741.7043   -34290.093    12323.398    75.971192 
   88100    1320.6041   -162.61076    1.1949103   -161.41585   -14889.236    4.2342567    4.2342567    4.2342567   -14889.236    15432.261    9288.3038   -69388.273    -1541.567   -41438.062    5884.3602    75.915693 
   88200    1908.6531   -163.14479    1.7269894    -161.4178    -3912.969    4.2348894    4.2348894    4.2348894    -3912.969   -18078.564    7258.0426   -918.38509   -3794.6285   -43697.779    1938.1827    75.949728 
   88300    2116.1468   -163.33387    1.9147341   -161.41914    8030.5528    4.2335049    4.2335049    4.2335049    8030.5528   -19075.443    8041.6054    35125.496    1432.4408   -47281.099    8171.8859    75.875264 
   88400     1594.349   -162.86037    1.4426005   -161.41777    2295.1332    4.2365392    4.2365392    4.2365392    2295.1332   -4688.8231    26897.987   -15323.764   -4935.9795   -54789.342    988.54031    76.038528 
   88500     1047.066   -162.36169   0.94740732   -161.41428    12750.873    4.2342721    4.2342721    4.2342721    12750.873    31594.231    57686.076   -51027.688    5519.4363   -52425.908    82.499555    75.916518 
   88600    1201.2005   -162.50134    1.0868715   -161.41446    6873.0631    4.2336188    4.2336188    4.2336188    6873.0631    15135.259    59347.487   -53863.557   -219.89023   -59666.193    -1991.963    75.881387 
   88700    1700.1704   -162.95322    1.5383499   -161.41487    7579.1041     4.236457     4.236457     4.236457    7579.1041   -19554.108    38960.237    3331.1831    564.83217   -62673.944    771.14539      76.0341 
   88800    1842.5376   -163.08076    1.6671667   -161.41359    5899.8458    4.2375483    4.2375483    4.2375483    5899.8458   -26812.819    39544.222     4968.134    1101.8944   -70854.538    2375.1621    76.092872 
   88900    1361.6821   -162.63982    1.2320785   -161.40774   -7688.6323    4.2393319    4.2393319    4.2393319   -7688.6323   -40671.603    58548.149   -40942.443   -885.54762   -82255.155   -3444.5017    76.188999 
   89000    797.49304   -162.12489   0.72158846    -161.4033   -3085.9884    4.2382571    4.2382571    4.2382571   -3085.9884    1857.9451    77932.689   -89048.599    1400.1962   -80690.182   -3506.6984    76.131066 
   89100    894.26477   -162.21419   0.80914956   -161.40504    1001.6474     4.236174     4.236174     4.236174    1001.6474    3786.1954    69503.367    -70284.62    -3803.534   -87468.989   -3538.9797    76.018864 
   89200    1378.8223   -162.65851    1.2475874   -161.41092   -2519.4434      4.23625      4.23625      4.23625   -2519.4434   -50861.296    45249.786   -1946.8202    -1866.997   -95930.466    9125.7942    76.022953 
   89300     1487.991   -162.76158    1.3463655   -161.41522    -481.7789    4.2342794    4.2342794    4.2342794    -481.7789    -47020.25    37485.373    8089.5406   -3825.4222   -87270.027    -274.3276     75.91691 
   89400    968.93468    -162.2928   0.87671246   -161.41608    -6328.553    4.2366495    4.2366495    4.2366495    -6328.553   -36765.781    37913.735   -20133.614    3638.3137   -83074.601     8827.046    76.044463 
   89500    460.49039   -161.83246   0.41666138    -161.4158   -37221.978    4.2366255    4.2366255    4.2366255   -37221.978   -28685.341    46395.491   -129376.08    2783.3095   -89003.577    7723.1209    76.043173 
   89600    774.78866   -162.11927   0.70104506   -161.41822   -2921.1178     4.229645     4.229645     4.229645   -2921.1178    12152.321    56521.628   -77437.303    5488.7792    -81081.77    786.51351    75.667911 
   89700    1600.3212   -162.87236    1.4480042   -161.42436   -3479.7801    4.2362026    4.2362026    4.2362026   -3479.7801   -25228.972     34403.98   -19614.348    3573.3312   -83113.579    8203.7742    76.020405 
   89800    1991.4447   -163.22266     1.801901   -161.42076   -6741.4189    4.2399487    4.2399487    4.2399487   -6741.4189   -31121.396    11956.246   -1059.1066    3558.4351   -77239.175   -3906.4058    76.222255 
   89900    1361.9543   -162.64744    1.2323249   -161.41511    8692.7561    4.2358289    4.2358289    4.2358289    8692.7561   -16663.386    26401.239    16340.415    6503.7366   -68368.477    3558.2286    76.000284 
   90000     712.8334   -162.05976   0.64498664   -161.41477   -23983.805    4.2370338    4.2370338    4.2370338   -23983.805   -15656.584      46275.6   -102570.43    2865.5755    -69080.73   -2715.2015    76.065161 
   90100    649.34393   -162.00672   0.58754004   -161.41918   -8716.2518    4.2310279    4.2310279    4.2310279   -8716.2518   -2154.9031    48961.255   -72955.108    3483.7281   -64831.218   -7244.8829    75.742157 
   90200    1457.0365   -162.74494    1.3183572   -161.42658   -5240.0217    4.2330026    4.2330026    4.2330026   -5240.0217   -175.86742    22331.863   -37876.061     3883.979    -67230.77   -1984.4552    75.848258 
   90300    2184.4326   -163.40301    1.9765205   -161.42649   -6175.5219     4.239723     4.239723     4.239723   -6175.5219   -27516.405    9940.0732   -950.23378    706.09915   -64030.096   -11753.392    76.210085 
   90400    1871.4896   -163.11314    1.6933631   -161.41978    7479.7081    4.2364271    4.2364271    4.2364271    7479.7081   -9492.2443    21930.371    10000.998     1855.089   -56374.273   -7018.3981     76.03249 
   90500    979.74861   -162.30277   0.88649713   -161.41628   -2815.1354    4.2352453    4.2352453    4.2352453   -2815.1354    28163.447    40136.546     -76745.4   -4823.7816   -59553.318   -8201.3672    75.968876 
   90600    731.85902   -162.07703   0.66220142   -161.41483   -13068.514    4.2371339    4.2371339    4.2371339   -13068.514   -13658.699    47918.357   -73465.199   -3176.6741   -53013.954    -7398.979    76.070554 
   90700    1564.3687   -162.83043    1.4154737   -161.41496    383.28718    4.2379507    4.2379507    4.2379507    383.28718     30564.98    21073.807   -50488.926   -12392.696   -40758.103   -831.17462    76.114555 
   90800    2469.6399   -163.64483    2.2345821   -161.41025   -4402.1215     4.241369     4.241369     4.241369   -4402.1215   -30240.242   -363.64176    17397.519   -17723.477   -24319.915    949.94071     76.29888 
   90900    2200.1956   -163.39157    1.9907833   -161.40079    3789.9423    4.2419004    4.2419004    4.2419004    3789.9423     5854.929    18797.096   -13282.198   -5653.1023   -13296.464    2940.4007    76.327565 
   91000    1364.1623   -162.62969    1.2343227   -161.39536   -2155.4021     4.237869     4.237869     4.237869   -2155.4021    38362.625    28117.071   -72945.903   -4609.4938   -10633.691    4974.6115     76.11015 
   91100    1290.5752   -162.56437    1.1677395   -161.39663   -1099.6882    4.2336471    4.2336471    4.2336471   -1099.6882    13930.146    22220.714   -39449.925   -4563.0192   -3827.7256    9717.2424     75.88291 
   91200    2138.8062    -163.3402    1.9352368   -161.40496    12997.603    4.2347466    4.2347466    4.2347466    12997.603     18389.61    15574.246    5028.9533   -4396.8793    328.90641    6719.2456    75.942046 
   91300    2971.0664   -164.09775    2.6882833   -161.40947   -5526.4115    4.2407318    4.2407318    4.2407318   -5526.4115   -24255.962   -29718.634    37395.362   -1966.6065    8983.7559    11740.768    76.264498 
   91400    2629.9854   -163.78891    2.3796661   -161.40925   -510.19366    4.2360104    4.2360104    4.2360104   -510.19366   -232.27964   -22076.905    20778.604   -3912.5417    3015.6718    5640.3907    76.010055 
   91500    1919.0575   -163.14219    1.7364036   -161.40578    12648.874    4.2265033    4.2265033    4.2265033    12648.874    45006.782     25852.35    -32912.51    -633.2608    7457.5692    3452.7358    75.499424 
   91600    1699.6448   -162.95176    1.5378744   -161.41389   -10272.048    4.2351991    4.2351991    4.2351991   -10272.048    6592.1444    19567.211   -56975.499    4370.6282    9422.4021    4341.3867    75.966393 
   91700    2385.9668    -163.5737    2.1588729   -161.41482   -16805.385    4.2393335    4.2393335    4.2393335   -16805.385   -23713.884   -15661.163   -11041.108    5666.9019    3298.8136   -7134.7148    76.189083 
   91800    3045.1007   -164.16818    2.7552711   -161.41291    10433.942    4.2327947    4.2327947    4.2327947    10433.942   -8655.6159   -25671.109     65628.55    6005.6826    17656.954   -6483.3908    75.837084 
   91900    2731.3724    -163.8824    2.4714032   -161.41099    2860.8111    4.2360483    4.2360483    4.2360483    2860.8111    5639.0693   -21177.931    24121.295   -2598.1849    11915.972   -14287.605    76.012094 
   92000    1855.0597   -163.08466     1.678497   -161.40616   -9937.5142    4.2367723    4.2367723    4.2367723   -9937.5142    20780.103    269.99372   -50862.639   -1211.2047     19461.63   -12429.717    76.051077 
   92100    1540.8267   -162.79742    1.3941724   -161.40325   -18610.123    4.2371612    4.2371612    4.2371612   -18610.123    22580.735   -5218.6222   -73192.481   -12524.861    19753.786   -14786.193    76.072024 
   92200    2246.8638   -163.43781    2.0330096   -161.40481   -6536.8981    4.2389108    4.2389108    4.2389108   -6536.8981    16676.636   -25744.193   -10543.137   -8606.4594    21006.904   -5832.4091    76.166295 
   92300    2985.8341   -164.10655    2.7016455    -161.4049     17049.45    4.2325638    4.2325638    4.2325638     17049.45    2542.8451   -21246.549    69852.053   -4233.0781    22358.977   -1312.1382    75.824673 
   92400    2869.4788   -164.00339    2.5963648   -161.40702    2946.4053    4.2346583    4.2346583    4.2346583    2946.4053    3314.9154   -28669.659    34193.959   -10489.014    23174.116    4689.7954    75.937293 
   92500    2104.2905   -163.30965    1.9040063   -161.40564    -7500.562    4.2376517    4.2376517    4.2376517    -7500.562     36313.56   -8417.4893   -50397.757   -5414.5945    24667.379    9091.4869    76.098444 
   92600     1806.424   -163.03637    1.6344904   -161.40188    1555.6632    4.2309227    4.2309227    4.2309227    1555.6632    47275.657    21630.473    -64239.14   -3827.1473    22407.246    3190.4535    75.736508 
   92700    2502.5401   -163.67215    2.2643509    -161.4078   -200.33053    4.2396885    4.2396885    4.2396885   -200.33053    21243.173   -11510.563   -10333.602    1823.7411    21574.945    5941.3402    76.208223 
   92800    3339.3485   -164.42242    3.0215127    -161.4009    1181.3539    4.2441903    4.2441903    4.2441903    1181.3539   -18855.551   -25904.689    48304.301   -177.31453      13629.8     3266.894    76.451239 
   92900    3000.7745   -164.10808    2.7151638   -161.39292    7602.5794     4.237843     4.237843     4.237843    7602.5794    6285.4182    7100.3154    9422.0047    7435.7404    20038.256    11218.511    76.108749 
   93000    1973.3296   -163.17247      1.78551   -161.38696   -21131.147    4.2436897    4.2436897    4.2436897   -21131.147   -2373.1004    12223.443   -73243.783    5488.6674    5867.9747    5849.9341    76.424195 
   93100    1638.9228   -162.86214    1.4829318   -161.37921   -13472.308    4.2445309    4.2445309    4.2445309   -13472.308    13722.091    8872.6924   -63011.708    8925.0972   -6154.2752    10038.135    76.469649 
   93200    2166.4717   -163.34124    1.9602691   -161.38097   -6150.5428    4.2419848    4.2419848    4.2419848   -6150.5428   -2454.6268   -6671.5067   -9325.4949    -749.0658   -20625.938   -2378.0653    76.332118 
   93300    2383.2154   -163.54596    2.1563834   -161.38958   -16578.962    4.2428417    4.2428417    4.2428417   -16578.962   -53317.903   -11674.209    15255.227    1249.2101   -43968.803   -5036.7063    76.378388 
   93400    1711.9526   -162.94544    1.5490107   -161.39643    19157.015    4.2312465    4.2312465    4.2312465    19157.015    12519.518    41741.579    3209.9477   -2207.7636   -39812.847   -1318.4227    75.753895 
   93500    846.73661   -162.17258   0.76614508   -161.40643    2650.4538    4.2342951    4.2342951    4.2342951    2650.4538   -4554.7492    94374.094   -81867.984   -4123.3245   -51743.837   -10577.212    75.917755 
   93600     753.6056   -162.08702   0.68187818   -161.40514   -17344.656    4.2486266    4.2486266    4.2486266   -17344.656   -41032.501    95459.581   -106461.05     2954.635   -69194.655   -3857.5727     76.69123 
   93700    1497.5731   -162.75328    1.3550356   -161.39824    15088.191    4.2445385    4.2445385    4.2445385    15088.191   -6054.1068    56179.249   -4860.5703    1694.6455   -79479.351   -8210.6151    76.470059 
   93800    1756.0973   -162.98586    1.5889537    -161.3969   -3995.8304    4.2388689    4.2388689    4.2388689   -3995.8304     -61228.8    25736.427    23504.882   -1579.7757   -92863.776   -8901.6724    76.164038 
   93900     1084.713   -162.38236   0.98147112   -161.40089   -13375.248    4.2317435    4.2317435    4.2317435   -13375.248   -31482.236    50401.501    -59045.01    616.91749   -100791.58   -3766.9097    75.780594 
   94000    408.72115   -161.77633   0.36981949   -161.40651   -3033.8865     4.231692     4.231692     4.231692   -3033.8865    12939.896    62501.563   -84543.118    618.01464   -88900.641   -1562.1631    75.777828 
   94100    659.91445   -162.00841   0.59710446    -161.4113   -24371.481    4.2487398    4.2487398    4.2487398   -24371.481   -30666.197     48718.92   -91167.166   -2649.4503   -80697.311   -1603.1298    76.697356 
   94200    1809.5978   -163.03863    1.6373621   -161.40127   -239.92086    4.2473255    4.2473255    4.2473255   -239.92086   -29364.953    55526.174   -26880.984    6150.8074   -68063.067    4641.3949    76.620791 
   94300    2217.6908   -163.39522    2.0066133    -161.3886    30531.318    4.2342143    4.2342143    4.2342143    30531.318   -12653.742    83232.921    21014.774     2167.908   -48861.343    7284.0865    75.913413 
   94400    1637.6466   -162.87185     1.481777   -161.39007   -5751.2855    4.2390021    4.2390021    4.2390021   -5751.2855   -15126.196    59679.678   -61807.338    5778.9721   -42140.484    7374.7584    76.171219 
   94500    1130.2733   -162.41441    1.0226951   -161.39172   -19772.378    4.2396482    4.2396482    4.2396482   -19772.378    15085.707    42339.734   -116742.58   -6997.5813   -28863.622   -472.77254    76.206052 
   94600    1549.8206   -162.80193    1.4023103   -161.39961   -1729.1079    4.2366221    4.2366221    4.2366221   -1729.1079     16092.26    13204.728   -34484.312   -559.51898   -19101.106    6155.4815    76.042989 
   94700      2553.91   -163.71766    2.3108314   -161.40683    -7571.412    4.2389174    4.2389174    4.2389174    -7571.412   -10653.634   -21774.212    9713.6101   -2101.4088   -15320.024   -733.72284    76.166651 
   94800    2788.3391   -163.92752    2.5229479   -161.40458    1890.4203    4.2317018    4.2317018    4.2317018    1890.4203   -9469.4944   -19550.264     34691.02    -6869.643   -12932.565   -873.68184    75.778353 
   94900     2127.377   -163.33052    1.9248954   -161.40563   -4527.3573    4.2376799    4.2376799    4.2376799   -4527.3573     12462.46   -2479.4197   -23565.112    2848.2376    4103.7981    -4576.261    76.099961 
   95000    1541.9409   -162.79055    1.3951805   -161.39537   -32806.043    4.2448289    4.2448289    4.2448289   -32806.043    25004.524    3842.7774   -127265.43   -3219.0529    11452.687    -9313.235    76.485755 
   95100    2105.7745   -163.29779     1.905349   -161.39244   -3312.8957    4.2335699    4.2335699    4.2335699   -3312.8957    16420.028    447.74369   -26806.459    850.28231    13959.955   -2024.0983    75.878754 
   95200    2941.5775   -164.06034    2.6616012   -161.39874    6286.7826    4.2324427    4.2324427    4.2324427    6286.7826    18761.565   -27213.032    27311.815   -1143.7342     18124.67    -11018.19    75.818163 
   95300    2982.6144   -164.09963    2.6987322   -161.40089    3370.1161    4.2371978    4.2371978    4.2371978    3370.1161    7106.0868   -32300.583    35304.845    3636.5862    15774.469   -10559.475    76.073995 
   95400    2156.8958    -163.3517    1.9516046    -161.4001    1083.0477    4.2379046    4.2379046    4.2379046    1083.0477     19347.91   -15678.517   -420.25023    4344.3895    26548.234   -1022.5257     76.11207 
   95500     1773.424   -163.00307    1.6046313   -161.39843   -17876.699    4.2385599    4.2385599    4.2385599   -17876.699    29347.033    1613.2057   -84590.337    4318.5464    28668.699   -7014.4035    76.147382 
   95600    2392.5392   -163.56542    2.1648198    -161.4006    1546.7628    4.2310984    4.2310984    4.2310984    1546.7628    21161.194    10130.246   -26651.152    8496.4414    24084.926    2133.4217    75.745944 
   95700    3151.4067   -164.25981     2.851459   -161.40835    18421.386    4.2307828    4.2307828    4.2307828    18421.386    7733.7621   -7928.7381    55459.133   -2431.2655     27576.69    4771.7994    75.728996 
   95800    3048.4127   -164.16741    2.7582678   -161.40914   -1334.3739    4.2404793    4.2404793    4.2404793   -1334.3739   -22796.607   -23049.422    41842.907    3903.8551    29486.449    3939.0201    76.250879 
   95900    2185.6702   -163.37888    1.9776403   -161.40124    7164.4971    4.2376085    4.2376085    4.2376085    7164.4971    23442.505   -4207.1106     2258.097   -5958.6844    28828.233    411.00362    76.096117 
   96000    1752.2288   -162.98131    1.5854534   -161.39586   -5385.7463    4.2370432    4.2370432    4.2370432   -5385.7463    25500.873    7755.1419   -49413.254   -6239.1184    22283.792    -1153.287    76.065668 
   96100    2347.8649   -163.51801    2.1243975   -161.39362   -10159.315    4.2414521    4.2414521    4.2414521   -10159.315    10074.207   -145.83889   -40406.314   -901.00725    14202.924    7920.8951    76.303368 
   96200    3115.7227   -164.21356    2.8191714   -161.39439    10543.067    4.2351146    4.2351146    4.2351146    10543.067    19148.603   -1029.1324     13509.73   -5978.7281    6031.5548   -1260.1839    75.961845 
   96300    2892.1536   -164.01636    2.6168813   -161.39948   -6412.2971     4.238292     4.238292     4.238292   -6412.2971   -14213.732   -6011.4576    988.29843     6734.313   -8295.9341    3560.4518    76.132942 
   96400     1857.548   -163.08435    1.6807484    -161.4036   -5843.8352    4.2381505    4.2381505    4.2381505   -5843.8352    33091.425   -11566.743   -39056.188   -5266.4616   -11066.392    1873.0254    76.125316 
   96500    1261.3374   -162.54295    1.1412846   -161.40167    9047.6177    4.2299063    4.2299063    4.2299063    9047.6177    42488.944    12937.635   -28283.726   -910.43864   -13706.732   -151.03919    75.681936 
   96600    1593.4715   -162.85152    1.4418065   -161.40971   -19806.268    4.2388976    4.2388976    4.2388976   -19806.268   -3549.3728    3686.3665   -59555.796     1464.123   -20509.387    212.69248    76.165586 
   96700    2362.2572   -163.55008    2.1374199   -161.41266    10580.238    4.2372767    4.2372767    4.2372767    10580.238   -10300.913   -2934.9829    44976.611   -4115.2532   -14324.629     4163.467    76.078242 
   96800    2540.1358   -163.71076    2.2983683   -161.41239    16047.229    4.2311602    4.2311602    4.2311602    16047.229   -16910.694     23912.31    41140.071    7662.8816   -20754.472    3232.2156    75.749261 
   96900    1792.1079    -163.0357    1.6215369   -161.41417   -15858.372      4.23813      4.23813      4.23813   -15858.372   -31528.582    51304.102   -67350.636    -4167.576   -29288.346   -4701.4844    76.124216 
   97000    1055.5924   -162.36411   0.95512218   -161.40898    7843.6118    4.2361086    4.2361086    4.2361086    7843.6118   -13054.588    69580.561   -32995.138    2792.1087   -32668.907   -998.93388    76.015342 
   97100     1104.553   -162.40777   0.99942277   -161.40834   -14805.814    4.2376037    4.2376037    4.2376037   -14805.814   -16868.589    36420.525   -63969.377   -4203.4118   -39533.649   -10819.239    76.095856 
   97200    1675.0666   -162.92534    1.5156355    -161.4097   -3731.2152    4.2382974    4.2382974    4.2382974   -3731.2152   -51210.433     10010.25    30006.537   -2951.5228   -58391.874   -4252.5149    76.133236 
   97300    1759.9268   -163.00283    1.5924188   -161.41041    6248.5913    4.2341657    4.2341657    4.2341657    6248.5913   -30810.677    20308.987    29247.463   -2569.4566    -70792.11    2636.8777    75.910795 
   97400     1172.136   -162.47331    1.0605733   -161.41274   -8788.6255    4.2363921    4.2363921    4.2363921   -8788.6255   -7379.7542      33538.4   -52524.522   -1908.0315   -71775.257    -8541.285    76.030604 
   97500    869.07279   -162.19652   0.78635533   -161.41017   -13682.652    4.2384418    4.2384418    4.2384418   -13682.652   -14204.988    57980.101   -84823.069    1688.5826   -77127.978    5657.4713    76.141018 
   97600    1290.0275   -162.57772     1.167244   -161.41047   -13758.417    4.2377614    4.2377614    4.2377614   -13758.417   -7317.6263    55075.095   -89032.719   -1216.0558   -78816.588   -545.23754    76.104356 
   97700    1848.5268   -163.08616    1.6725859   -161.41357    7659.4189    4.2335803    4.2335803    4.2335803    7659.4189   -20314.127     35748.28    7544.1032    1508.3586   -77863.019    1844.4098    75.879316 
   97800    1736.9851    -162.9897    1.5716606   -161.41804     -927.601    4.2343387    4.2343387    4.2343387     -927.601   -9960.7279    13871.907   -6693.9822    621.35443   -87780.282    5737.0352      75.9201 
   97900    959.27537   -162.28864   0.86797252   -161.42067   -9826.2969    4.2357314    4.2357314    4.2357314   -9826.2969    9888.3157    27699.996   -67067.202   -1485.3515   -79418.454    1914.8909    75.995037 
   98000    357.23208   -161.74179    0.3232311   -161.41855   -11523.594    4.2329286    4.2329286    4.2329286   -11523.594    28628.938     54559.89   -117759.61    1545.8864   -76121.039    1957.5358    75.844277 
   98100    701.16497   -162.05579    0.6344288   -161.42137   -19923.735    4.2350842    4.2350842    4.2350842   -19923.735     15564.19    44906.837   -120242.23   -495.22476   -81391.458   -1059.9309    75.960206 
   98200    1514.5232   -162.79601    1.3703724   -161.42564   -2754.8907    4.2374473    4.2374473    4.2374473   -2754.8907    -9581.335    32502.402   -31185.739    1599.8318   -80376.254    4163.4168    76.087432 
   98300    1954.0565   -163.19268    1.7680713    -161.4246    7939.0747    4.2324533    4.2324533    4.2324533    7939.0747   -11090.097    25355.833    9551.4876   -485.41646   -84521.591   -6203.9396    75.818733 
   98400    1407.5383   -162.69909    1.2735703   -161.42552    3769.2616    4.2309471    4.2309471    4.2309471    3769.2616   -9222.2205    38012.265   -17482.259   -1200.8405   -81581.564   -6547.9069    75.737816 
   98500    497.24408   -161.87571   0.44991689   -161.42579   -13728.339    4.2355526    4.2355526    4.2355526   -13728.339    5729.1735    42332.682   -89246.872   -2947.5056   -82587.481   -3690.2074    75.985415 
   98600    350.35538   -161.74256   0.31700891   -161.42555   -764.35782    4.2345045    4.2345045    4.2345045   -764.35782    29843.407    32242.211   -64378.692   -2845.3065   -76932.388   -10462.279    75.929019 
   98700    1048.6504   -162.37484   0.94884088     -161.426   -9080.1446    4.2346736    4.2346736    4.2346736   -9080.1446   -11263.476    13519.361   -29496.318    -964.9147    -82599.36    -6628.689    75.938119 
   98800    1763.8033   -163.02305    1.5959263   -161.42713   -4160.6414    4.2330937    4.2330937    4.2330937   -4160.6414   -36761.096    18901.594    5377.5785    753.67936   -78919.422     -12105.6    75.853154 
   98900    1590.4654   -162.86471    1.4390865   -161.42562    12876.271    4.2322533    4.2322533    4.2322533    12876.271    -7524.947    49550.493   -3396.7313   -158.90107   -74346.423    -12203.19    75.807985 
   99000    739.97859   -162.09094   0.66954818   -161.42139   -12415.214    4.2408974    4.2408974    4.2408974   -12415.214   -8678.7052    59523.268   -88090.206    1380.2112   -74603.196   -7723.6183    76.273432 
   99100      432.581   -161.80418   0.39140838   -161.41277   -3898.8901    4.2390966    4.2390966    4.2390966   -3898.8901    12945.898    67394.131   -92036.699   -4183.2523   -73762.412   -15060.528    76.176311 
   99200    1174.4782    -162.4731    1.0626926    -161.4104    13038.169    4.2319626    4.2319626    4.2319626    13038.169    207.12039    50464.378   -11556.992   -156.50643   -67604.247   -6056.8485    75.792367 
   99300    1905.4653   -163.14016    1.7241051   -161.41606   -3906.3116     4.235616     4.235616     4.235616   -3906.3116   -53596.033    19943.049    21934.049    1229.9133   -77226.914     -10179.2    75.988828 
   99400    1606.2334   -162.87018    1.4533537   -161.41683   -3675.9569    4.2372743    4.2372743    4.2372743   -3675.9569   -22339.829     37412.69   -26100.732   -1093.5132   -68744.118   -6064.2334    76.078112 
   99500    824.37188   -162.15943     0.745909   -161.41352   -14547.685    4.2360785    4.2360785    4.2360785   -14547.685   -9283.6305    53348.432   -87707.856    -5457.989   -70441.232    7333.4345    76.013721 
   99600    714.37489   -162.06095   0.64638141   -161.41457   -21232.722    4.2355451    4.2355451    4.2355451   -21232.722   -9172.9489    57278.972   -111804.19   -5707.9312   -70797.333    5515.6981     75.98501 
   99700    1552.7031   -162.82249    1.4049184   -161.41757    3927.5008    4.2339051    4.2339051    4.2339051    3927.5008    -11380.29    59982.297   -36819.505   -389.03398   -60182.968    3326.0746    75.896779 
   99800    2429.4416   -163.61435    2.1982098   -161.41614    9073.5481    4.2377029    4.2377029    4.2377029    9073.5481   -43758.009    40637.615    30341.038   -1630.5316    -59527.69    10705.033    76.101204 
   99900    2016.8197   -163.23365    1.8248609   -161.40878   -120.12117     4.240067     4.240067     4.240067   -120.12117    -27569.07     51086.96   -23878.254    684.29118   -47568.277    4067.9178    76.228639 
  100000    1073.3793    -162.3746   0.97121619   -161.40338   -4127.7485    4.2378783    4.2378783    4.2378783   -4127.7485    9692.7036    65876.197   -87952.147    496.56085   -38117.031    7753.8649     76.11065 
Loop time of 38.0498 on 1 procs for 100000 steps with 8 atoms

Pair  time (%) = 12.9958 (34.1546)
Kspce time (%) = 9.30256 (24.4484)
Neigh time (%) = 0.0753539 (0.19804)
Comm  time (%) = 1.82084 (4.78542)
Outpt time (%) = 0.0744746 (0.195729)
Other time (%) = 13.7808 (36.2178)

Nlocal:    8 ave 8 max 8 min
Histogram: 1 0 0 0 0 0 0 0 0 0
Nghost:    2189 ave 2189 max 2189 min
Histogram: 1 0 0 0 0 0 0 0 0 0
Neighs:    2385 ave 2385 max 2385 min
Histogram: 1 0 0 0 0 0 0 0 0 0

Total # of neighbors = 2385
Ave neighs/atom = 298.125
Neighbor list builds = 452
Dangerous builds = 0
unfix 20
unfix 21
print "seeds:7463868"
seeds:7463868
