LAMMPS (10 Feb 2015)
# ---- initialize simulations
clear
units metal
dimension 3
boundary p p p
atom_style charge
atom_modify map array
# ---- create atoms
read_data /Users/eugeneragasa/pyflamestk_git/pypospack/tests/tests_integration/workflow/WorkflowLammpsThermalExpansion/param_9215/MgO_NaCl_unit.npt.T1700/lammps.structure
  triclinic box = (0 0 0) to (4.2565 4.2565 4.2565) with tilt (0 0 0)
  1 by 1 by 1 MPI processor grid
  reading atoms ...
  8 atoms
# ---- define interatomic potential
include potential.mod
mass 1 24.305
mass 2 15.999

group Mg type 1
4 atoms in group Mg
group O type 2
4 atoms in group O

set group Mg charge 1.57990545172
  4 settings made for charge
set group O charge -1.57990545172
  4 settings made for charge

variable R_cut equal 10.0

pair_style buck/coul/long ${R_cut}
pair_style buck/coul/long 10
pair_coeff 1 1 0.0 0.5 0.0 ${R_cut}
pair_coeff 1 1 0.0 0.5 0.0 10
pair_coeff 1 2 1322.20855758 0.285006791586 0.0 ${R_cut}
pair_coeff 1 2 1322.20855758 0.285006791586 0.0 10
pair_coeff 2 2 14469.0891926 0.219096223147 48.5612274161 ${R_cut}
pair_coeff 2 2 14469.0891926 0.219096223147 48.5612274161 10

kspace_style pppm 1.0e-5

neighbor 1.0 bin
neigh_modify every 1 delay 0 check yes
# ---- define settings
compute eng all pe/atom
compute eatoms all reduce sum c_eng
# ---- run minimization
reset_timestep 0
fix 1 all box/relax iso 0.0 vmax 0.001
thermo 10
thermo_style custom step pe lx ly lz xy xz yz press pxx pyy pzz pxy pxz pyz c_eatoms
min_style cg
minimize 1e-25 1e-25 5000 10000
PPPM initialization ...
  G vector (1/distance) = 0.352172
  grid = 8 8 8
  stencil order = 5
  estimated absolute RMS force accuracy = 3.68665e-05
  estimated relative force accuracy = 2.56024e-06
  using double precision FFTs
  3d grid and FFT values/proc = 3375 512
Neighbor list info ...
  1 neighbor list requests
  update every 1 steps, delay 0 steps, check yes
  master list distance cutoff = 11
Memory usage per processor = 4.06549 Mbytes
Step PotEng Lx Ly Lz Xy Xz Yz Press Pxx Pyy Pzz Pxy Pxz Pyz eatoms 
       0   -101.30442       4.2565       4.2565       4.2565            0            0            0    88329.967    88329.967    88329.967    88329.967 -1.1961844e-11 -2.4099438e-10 5.9240466e-12   -101.30442 
      10    -101.3918     4.299065     4.299065     4.299065            0            0            0    35693.934    35693.934    35693.934    35693.934 1.4632835e-11 -2.3788485e-11 -3.8066587e-11    -101.3918 
      20   -101.41159    4.3315082    4.3315082    4.3315082            0            0            0   -5.9294003   -5.9294003   -5.9294003   -5.9294003 1.7198652e-10 1.1926792e-10 -5.3176444e-11   -101.41159 
Loop time of 0.0132639 on 1 procs for 20 steps with 8 atoms

Minimization stats:
  Stopping criterion = linesearch alpha is zero
  Energy initial, next-to-last, final = 
        -101.304424021     -101.411593199     -101.411593199
  Force two-norm initial, final = 12.7549 0.00088671
  Force max component initial, final = 12.7549 0.000886651
  Final line search alpha, max atom move = 0.015625 1.38539e-05
  Iterations, force evaluations = 20 34

Pair  time (%) = 0.00357318 (26.939)
Kspce time (%) = 0.00221705 (16.7149)
Neigh time (%) = 0 (0)
Comm  time (%) = 0.000385761 (2.90835)
Outpt time (%) = 1.5974e-05 (0.120432)
Other time (%) = 0.00707197 (53.3173)

Nlocal:    8 ave 8 max 8 min
Histogram: 1 0 0 0 0 0 0 0 0 0
Nghost:    2189 ave 2189 max 2189 min
Histogram: 1 0 0 0 0 0 0 0 0 0
Neighs:    2344 ave 2344 max 2344 min
Histogram: 1 0 0 0 0 0 0 0 0 0

Total # of neighbors = 2344
Ave neighs/atom = 293
Neighbor list builds = 0
Dangerous builds = 0
unfix 1
# ---- define output variables ----
variable natoms equal "count(all)"
variable tot_energy equal "c_eatoms"
variable length_x equal "lx"
variable length_y equal "ly"
variable length_z equal "lz"
variable tilt_xy equal "xy"
variable tilt_xz equal "xz"
variable tilt_yz equal "yz"
variable tot_press equal "press"
variable press_xx equal "pxx"
variable press_yy equal "pyy"
variable press_zz equal "pzz"
variable press_xy equal "pxy"
variable press_xz equal "pxz"
variable press_yz equal "pyz"

# ---- output ----
print "pypospack:output_section:begin"
pypospack:output_section:begin
print "tot_energy = ${tot_energy}"
tot_energy = -101.411593198701
print "num_atoms = ${natoms}"
num_atoms = 8
print "xx = ${length_x}"
xx = 4.33150823558717
print "yy = ${length_y}"
yy = 4.33150823558717
print "zz = ${length_z}"
zz = 4.33150823558717
print "xy = ${tilt_xy}"
xy = 0
print "xz = ${tilt_xz}"
xz = 0
print "yz = ${tilt_yz}"
yz = 0
print "tot_press = ${tot_press}"
tot_press = -5.92940031006952
print "pxx = ${press_xx}"
pxx = -5.92940030994687
print "pyy = ${press_yy}"
pyy = -5.92940031012476
print "pzz = ${press_zz}"
pzz = -5.92940031013695
print "pxy = ${press_xy}"
pxy = 1.71986520125442e-10
print "pxz = ${press_xz}"
pxz = 1.19267916823708e-10
print "pyz = ${press_yz}"
pyz = -5.31764436793611e-11
print "pypospack:output_section:done"
pypospack:output_section:done
print "pypospack:lammps_sim:done"
pypospack:lammps_sim:done
#------------------------------------------------------------------------------
# RUN THERMOSTAT
# running using an NPT Nose-Hoover style thermostat
#------------------------------------------------------------------------------
variable tempdamp equal 0.1
variable pressdamp equal 1.0
# set initial velocities
velocity all create 1700 9487290 mom yes dist gaussian loop all
# fix for Nose-Hoover style thermostat
fix 20 all npt temp 1700 1700 0.1 aniso 0.0 0.0 1.0 drag 1.0 couple xyz
variable boxx equal lx
variable boxy equal ly
variable boxz equal lz
variable boxp equal press
variable boxt equal temp
# calculate averages every 10000 steps
reset_timestep 0
fix 21 all ave/time 10 10 100 v_boxx v_boxy v_boxz v_boxp v_boxt file lattice.out
thermo_style custom step temp pe ke etotal press lx ly lz press pxx pyy pzz pxy pxz pyz vol
thermo_modify flush yes
thermo 100
run 100000
PPPM initialization ...
  G vector (1/distance) = 0.351443
  grid = 8 8 8
  stencil order = 5
  estimated absolute RMS force accuracy = 3.81088e-05
  estimated relative force accuracy = 2.64651e-06
  using double precision FFTs
  3d grid and FFT values/proc = 3375 512
Memory usage per processor = 3.06549 Mbytes
Step Temp PotEng KinEng TotEng Press Lx Ly Lz Press Pxx Pyy Pzz Pxy Pxz Pyz Volume 
       0         1700    -101.4116    1.5381957   -99.873408    20209.143    4.3315082    4.3315082    4.3315082    20209.143    5083.0238    18237.008    37307.399   -2332.4201   -3311.9271    5302.6621      81.2676 
     100    869.29883   -100.46617   0.78655985   -99.679612   -10744.512    4.3629514    4.3629514    4.3629514   -10744.512   -1719.3848   -40851.005    10336.855     3663.907   -1287.1884   -24641.494    83.050283 
     200    1652.6895    -100.7594    1.4953882   -99.264011    -27107.38    4.4044085    4.4044085    4.4044085    -27107.38   -50704.957     -50215.9    19598.716   -61.492004    3432.0023    8509.2648    85.440304 
     300      1445.96   -100.21874     1.308335   -98.910405   -25189.973    4.4174446    4.4174446    4.4174446   -25189.973   -35046.389   -44973.068    4449.5381    1849.3226     1411.693   -20730.455    86.201207 
     400    1604.7059   -100.06285    1.4519717   -98.610878     -9818.52    4.4079701    4.4079701    4.4079701     -9818.52   -32909.711   -52415.075    55869.226    181.20752   -8915.6601   -9131.4199    85.647745 
     500    2176.2191   -100.41379    1.9690887   -98.444705    2170.3432     4.386428     4.386428     4.386428    2170.3432   -36096.209   -22665.784    65273.022    8860.0782    -5213.204   -5730.0796    84.398168 
     600    1887.1381    -100.1131    1.7075222   -98.405582   -2886.3807     4.390118     4.390118     4.390118   -2886.3807   -14074.911   -22741.553    28157.323   -465.29303    6821.8644   -16998.815    84.611342 
     700    2258.0459   -100.44292    2.0431274   -98.399795   -23926.351    4.4208169    4.4208169    4.4208169   -23926.351   -46099.717   -38089.436    12410.102    1947.4656   -1958.1659   -9212.5389    86.398774 
     800    1617.8855   -99.817912    1.4638968   -98.354015   -26505.116    4.4234646    4.4234646    4.4234646   -26505.116   -55961.235    -63311.47    39757.356    88.068435   -8168.2988   -16504.309    86.554102 
     900    1957.6477   -100.10829    1.7713207   -98.336966   -4736.1368    4.4088028    4.4088028    4.4088028   -4736.1368   -46602.956   -34506.656    66901.201   -219.95598    7654.8631    5240.6547    85.696292 
    1000    1035.6354   -99.282923   0.93706471   -98.345858    19204.324    4.3994683    4.3994683    4.3994683    19204.324   -23482.755   -16977.138    98072.864   -3535.0145   -22390.388   -25756.625    85.153122 
    1100    1645.5327   -99.813074    1.4889125   -98.324162    33812.507    4.3979484    4.3979484    4.3979484    33812.507   -16706.535   -30764.451    148908.51   -4125.1758    14109.225   -3862.8843    85.064901 
    1200    1764.6625   -99.943595    1.5967037   -98.346891   -26326.415    4.4166313    4.4166313    4.4166313   -26326.415    -29169.46    -53061.56    3251.7747   -1886.4604   -24796.567   -23416.686    86.153601 
    1300    2419.1621   -100.50851    2.1889087     -98.3196   -25630.388    4.4172215    4.4172215    4.4172215   -25630.388   -39741.626   -34043.415   -3106.1244    5305.4737   -4553.4545    6417.1726    86.188144 
    1400    1930.0408   -100.09673    1.7463414   -98.350384   -14961.512     4.403889     4.403889     4.403889   -14961.512   -52275.613   -16846.745    24237.823    3567.7068    1171.1008   -9644.0245    85.410074 
    1500    2423.8379   -100.54087    2.1931394   -98.347726   -6728.6415    4.4005056    4.4005056    4.4005056   -6728.6415   -45909.341   -36833.687    62557.103    3256.6217   -4599.4286   -11566.867    85.213368 
    1600    1492.7284    -99.70268     1.350652   -98.352028   -379.56152    4.4047794    4.4047794    4.4047794   -379.56152   -9112.9911   -12160.247    20134.554   -7336.0172   -9608.7668    -11197.43    85.461891 
    1700    1521.0139   -99.721832    1.3762453   -98.345586    17757.783    4.4092705    4.4092705    4.4092705    17757.783   -2311.7814    12967.253    42617.877   -9831.7326     3648.394    16157.009    85.723566 
    1800    1399.7904   -99.585145    1.2665598   -98.318586   -2618.9945    4.4123985    4.4123985    4.4123985   -2618.9945    90.061729   -21099.494    13152.449   -16896.735    -1955.776    2543.7509    85.906134 
    1900    1702.3133   -99.829151    1.5402889   -98.288863    9121.5853    4.4165564    4.4165564    4.4165564    9121.5853   -22347.074    42258.743    7453.0874   -6597.8185    5319.1305    2836.0955    86.149218 
    2000    1826.9201   -99.917989    1.6530357   -98.264953   -22254.331    4.4207518    4.4207518    4.4207518   -22254.331   -37550.303   -19652.941     -9559.75   -8673.1911      4234.64     18959.71    86.394955 
    2100    1526.3812   -99.632751    1.3811018   -98.251649   -11095.247    4.4203759    4.4203759    4.4203759   -11095.247    -16202.84   -4698.7206    -12384.18   -10385.652    7670.5921   -4840.9423     86.37292 
    2200    2204.5865   -100.22781    1.9947562   -98.233052   -7540.3985    4.4065168    4.4065168    4.4065168   -7540.3985   -57599.744     33052.65    1925.8989   -3864.1016    15165.974     -419.997    85.563057 
    2300    1157.5892   -99.297827     1.047411   -98.250416    20975.181    4.4028524    4.4028524    4.4028524    20975.181    17838.811   -61580.549    106667.28   -270.93311   -6939.6645   -18192.548    85.349774 
    2400    2100.6861   -100.17065    1.9007449   -98.269903   -17581.514    4.4226584    4.4226584    4.4226584   -17581.514   -39160.815   -3931.0608   -9652.6672   -5878.7471     16854.81   -137.34785    86.506791 
    2500    1563.9504   -99.672188    1.4150952   -98.257093    -22507.19    4.4205775    4.4205775    4.4205775    -22507.19   -21490.249   -77210.535    31179.215   -1199.7356    -4267.896   -24718.938    86.384737 
    2600    1931.4331   -99.999363    1.7476012   -98.251762   -1907.3028    4.4071521    4.4071521    4.4071521   -1907.3028   -41496.476   -9240.9611    45015.529    12329.705    32587.237    13035.385    85.600067 
    2700    1849.1557   -99.936239    1.6731549   -98.263084   -6349.8229    4.4008013    4.4008013    4.4008013   -6349.8229   -25928.957   -33091.135    39970.623    -1939.893   -8771.7335   -26435.106    85.230545 
    2800    2121.0504   -100.21478     1.919171   -98.295611   -21734.872    4.4107939    4.4107939    4.4107939   -21734.872   -34538.924   -54192.136    23526.443     10140.39    24241.324   -5404.0712    85.812448 
    2900    1746.1545   -99.880598    1.5799573   -98.300641   -9487.5711    4.4210737    4.4210737    4.4210737   -9487.5711   -42838.078    1946.2011    12429.164     7847.776    1609.4238   -17737.662    86.413835 
    3000    1768.6117   -99.885026    1.6002771   -98.284749   -22071.695    4.4252287    4.4252287    4.4252287   -22071.695   -36408.355   -59158.806    29352.074   -686.25017     9920.403   -7894.4688    86.657703 
    3100    1693.7932   -99.806737    1.5325796   -98.274157   -7459.3109    4.4239681    4.4239681    4.4239681   -7459.3109    3213.5245   -13121.701   -12469.756   -15804.681    12562.982   -16192.114    86.583663 
    3200    1439.0264   -99.545419    1.3020613   -98.243358    9647.8848     4.415321     4.415321     4.415321    9647.8848   -21042.692   -22963.327    72949.674    9718.3602    8188.2071    17357.023    86.076944 
    3300    1954.4251   -100.03346    1.7684049   -98.265054   -9731.3048    4.4151351    4.4151351    4.4151351   -9731.3048   -1485.6865    13243.263   -40951.491   -8913.9152    23584.619   -15078.535    86.066074 
    3400    2043.1874   -100.12213    1.8487189   -98.273408   -9504.7379    4.4194282    4.4194282    4.4194282   -9504.7379   -31300.287   -36962.992    39749.065   -21823.871   -957.57763    459.57709    86.317377 
    3500    1525.3986   -99.649778    1.3802127   -98.269565   -37586.116    4.4305587    4.4305587    4.4305587   -37586.116   -11162.889   -45786.521   -55808.938   -23.248055    11887.096   -11964.226    86.971204 
    3600    1776.0143   -99.854705    1.6069751    -98.24773    19852.524    4.4252762    4.4252762    4.4252762    19852.524    781.74816    25147.952     33627.87   -5139.9752   -19557.345    13282.005     86.66049 
    3700    1615.5993   -99.705807    1.4618282   -98.243979   -25014.886    4.4134384    4.4134384    4.4134384   -25014.886   -15162.243   -60875.407    992.99102   -6541.0282     6045.377   -11523.678     85.96689 
    3800    1828.2107   -99.928779    1.6542035   -98.274576   -2130.3817    4.4078143    4.4078143    4.4078143   -2130.3817   -4894.0422   -3986.4473    2489.3443    3899.0224   -22664.954   -1105.4508    85.638662 
    3900    1769.1599   -99.884089    1.6007731   -98.283316   -7092.1623    4.4167477    4.4167477    4.4167477   -7092.1623     1605.357     -9876.82   -13005.024   -4451.1692   -19461.177   -32668.746    86.160412 
    4000    1165.3217   -99.333804    1.0544076   -98.279396   -6075.9319    4.4224511    4.4224511    4.4224511   -6075.9319    -6594.546   -52981.548    41348.298    4501.1133   -9657.8614    16782.029    86.494624 
    4100    2488.1587   -100.50813    2.2513383   -98.256795   -25954.815    4.4288843    4.4288843    4.4288843   -25954.815    4461.3205   -45971.782   -36353.985   -3847.4361   -23367.142    -30780.55    86.872635 
    4200    1353.9244    -99.45741    1.2250592   -98.232351   -1754.7424    4.4219074    4.4219074    4.4219074   -1754.7424    15757.625   -53897.834    32875.981   -9244.6697   -3134.7801    4976.6237    86.462725 
    4300    1735.5192     -99.8193    1.5703342   -98.248966    10718.031    4.4192694    4.4192694    4.4192694    10718.031    29069.553    3238.7702   -154.22916   -12284.547   -8433.8745   -11229.708    86.308076 
    4400     1479.126   -99.594279    1.3383443   -98.255935    19989.454    4.4245102    4.4245102    4.4245102    19989.454    43596.953   -17446.798    33818.206   -12817.652     3349.185    9850.2414    86.615495 
    4500    1557.9044   -99.676361    1.4096246   -98.266737   -12308.807    4.4318221    4.4318221    4.4318221   -12308.807    12589.485   -17288.258   -32227.649   -15359.053   -9948.7848   -48.760274    87.045625 
    4600    1666.7976     -99.7627    1.5081535   -98.254547    28382.214    4.4343596    4.4343596    4.4343596    28382.214    15009.763    39592.674    30544.206   -24026.271   -1352.7434   -13739.382    87.195231 
    4700    1464.5696   -99.572682    1.3251734   -98.247508   -21702.283    4.4255392    4.4255392    4.4255392   -21702.283    15677.354   -55687.756   -25096.448     139.8065   -11559.282    11177.417    86.675941 
    4800    1438.6296   -99.549429    1.3017023   -98.247727    54633.696    4.4171293    4.4171293    4.4171293    54633.696     23492.87     63320.65    77087.568    296.69655   -12609.594    -9953.359    86.182748 
    4900    1832.5894   -99.922624    1.6581654   -98.264459   -7454.5395     4.424949     4.424949     4.424949   -7454.5395   -38680.451    6448.5975     9868.235   -3816.4878   -5946.7087    1805.7571    86.641269 
    5000    2088.8032   -100.15862     1.889993   -98.268627   -27977.732    4.4444342    4.4444342    4.4444342   -27977.732   -72842.895   -1753.7775   -9336.5223    6008.0788    17556.514    4068.3144    87.790886 
    5100    1402.7642    -99.52978    1.2692505    -98.26053   -5719.4454    4.4407122    4.4407122    4.4407122   -5719.4454   -43109.737    24649.484    1301.9169   -6234.2108   -3392.0773    10906.117    87.570512 
    5200    1938.7448   -100.00069     1.754217   -98.246473   -922.80145    4.4165091    4.4165091    4.4165091   -922.80145     -22468.5    34790.438   -15090.343    5042.8626    15691.079    16954.816     86.14645 
    5300    1836.9535   -99.941192    1.6621142   -98.279078    2929.8954    4.4196985    4.4196985    4.4196985    2929.8954   -21777.796    27851.387    2716.0951   -1328.5015   -1902.0352   -3448.5801    86.333218 
    5400     1180.704   -99.367315    1.0683258   -98.298989   -12371.994    4.4483948    4.4483948    4.4483948   -12371.994    -52365.21    46311.755   -31062.528   -2822.7636   -902.46655    6315.8022    88.025798 
    5500    2093.7339   -100.15145    1.8944544   -98.256993   -29358.862    4.4545337    4.4545337    4.4545337   -29358.862   -20425.024   -12882.712   -54768.851   -2744.6838    1292.6586    14804.322    88.390735 
    5600    782.08535   -98.947586   0.70764726   -98.239939    29885.504    4.4324501    4.4324501    4.4324501    29885.504   -36240.282    92391.723     33505.07    6521.8371    1518.6547   -2657.1764    87.082638 
    5700    2809.0607   -100.77767    2.5416972   -98.235972   -25169.512    4.4195539    4.4195539    4.4195539   -25169.512   -24156.353   -8890.8055   -42461.378    2789.8856   -10779.081   -1776.3178    86.324745 
    5800    1367.4742   -99.528359    1.2373194   -98.291039   -10943.635    4.4342164    4.4342164    4.4342164   -10943.635   -57469.711    22229.369    2409.4379    -33371.37   -3641.8995    10126.384    87.186784 
    5900    1817.5078   -99.924446    1.6445192   -98.279927    5747.0835    4.4444882    4.4444882    4.4444882    5747.0835    18654.737    42829.706   -44243.192   -17708.029    18831.954   -794.92727    87.794091 
    6000    1624.9369    -99.74883    1.4702771   -98.278553   -18008.662    4.4548893    4.4548893    4.4548893   -18008.662   -31463.714    36902.158   -59464.429   -20698.255    11042.942    15412.648    88.411903 
    6100    1293.3051   -99.418008    1.1702096   -98.247798    33917.072    4.4467286    4.4467286    4.4467286    33917.072    78433.666    11187.374    12130.175   -11573.455   -2681.3276    1729.3122    87.926925 
    6200      1708.13   -99.788025    1.5455519   -98.242473   -3371.6648    4.4413487    4.4413487    4.4413487   -3371.6648   -20701.208    34141.702   -23555.489   -7929.6032    12584.197    14773.306    87.608169 
    6300    1900.0601   -99.971383    1.7192143   -98.252169    1441.5858    4.4331409    4.4331409    4.4331409    1441.5858   -13163.691    66155.592   -48667.144   -1091.7506   -7122.1592    281.60812     87.12336 
    6400    2079.1501   -100.17935    1.8812587   -98.298093   -30299.099      4.43501      4.43501      4.43501   -30299.099    15059.688   -23130.965   -82826.021   -3070.9288   -11343.666   -907.70621    87.233605 
    6500     1155.509   -99.367935    1.0455289   -98.322406    17686.701    4.4302859    4.4302859    4.4302859    17686.701    65864.244   -17856.548    5052.4054    475.81891    5146.4757    15068.501    86.955138 
    6600     2085.857   -100.18486    1.8873273   -98.297531   -11049.451    4.4252354    4.4252354    4.4252354   -11049.451   -16933.453    40386.513   -56601.414    16619.738   -6584.0925   -8943.4236    86.658097 
    6700    1371.5801   -99.540934    1.2410345   -98.299899    7869.8014    4.4336225    4.4336225    4.4336225    7869.8014    59703.091    4646.5577   -40740.245   -12653.148     2767.485    12363.351    87.151756 
    6800    1856.9783   -99.963265     1.680233   -98.283032   -13996.297    4.4429011    4.4429011    4.4429011   -13996.297   -25695.495     44581.48   -60874.877   -2493.0144     12535.31     11603.02    87.700072 
    6900    1426.0657   -99.560234    1.2903343     -98.2699     1741.782    4.4461034    4.4461034    4.4461034     1741.782    47095.079    22883.427    -64753.16   -18606.632    7554.1897    3976.9187     87.88984 
    7000    1563.1148   -99.685664    1.4143391   -98.271325    16105.912    4.4392483    4.4392483    4.4392483    16105.912    76124.995    9185.0401   -36992.298    17566.181    1220.8524      438.439    87.483934 
    7100    1891.3443    -99.99952     1.711328   -98.288192   -11439.165     4.427135     4.427135     4.427135   -11439.165    1346.1942    52.022631   -35715.711     -17115.4    7740.1147    4756.1474    86.769742 
    7200     1746.405   -99.877007     1.580184   -98.296823    26818.092    4.4206202    4.4206202    4.4206202    26818.092   -13595.778    102549.49   -8499.4324   -8288.4072   -4569.5184    15520.795    86.387244 
    7300    1408.8399   -99.591718     1.274748    -98.31697    6204.7198    4.4403062    4.4403062    4.4403062    6204.7198    28195.861   -33242.772    23661.071    5341.0274    17361.141    11333.536    87.546493 
    7400    1443.6228   -99.593901    1.3062202   -98.287681   -11678.075    4.4522954    4.4522954    4.4522954   -11678.075    62516.676   -68001.869   -29549.033    4443.1753   -28554.273   -15772.713    88.257561 
    7500    1714.2403   -99.831038    1.5510806   -98.279957   -194.00727    4.4436947    4.4436947    4.4436947   -194.00727    42773.526   -41928.415   -1427.1328    10525.605    2068.5313    730.82963    87.747073 
    7600    1822.5102   -99.938603    1.6490455   -98.289557   -2641.5663    4.4276214    4.4276214    4.4276214   -2641.5663    6726.0917    13176.614   -27827.404   -2658.5791    140.03885   -4107.3827    86.798343 
    7700    2146.4004   -100.25223    1.9421082   -98.310127     6585.341    4.4219566    4.4219566    4.4219566     6585.341   -1097.7135    42069.347    -21215.61    3170.6104   -14319.158    4420.5404    86.465612 
    7800    1564.7266   -99.746785    1.4157975   -98.330987   -15522.794    4.4414327    4.4414327    4.4414327   -15522.794    19038.106   -59147.635   -6458.8523   -15356.838   -2764.8437   -19443.841     87.61314 
    7900    1836.3112   -99.964261     1.661533   -98.302728   -2845.8635    4.4457469    4.4457469    4.4457469   -2845.8635    6024.3136    22694.569   -37256.473    -3653.843   -2350.8118    12861.258    87.868702 
    8000    1391.6753   -99.539577    1.2592171    -98.28036    15248.091    4.4454469    4.4454469    4.4454469    15248.091    25584.654   -7921.3546    28080.973   -6006.0366    5796.8516   -636.19357    87.850916 
    8100    1534.0085   -99.652336    1.3880031   -98.264333   -6904.5869    4.4389398    4.4389398    4.4389398   -6904.5869    91557.113   -52368.719   -59902.154     9455.803    3404.2025    9178.2164    87.465696 
    8200    1802.9444   -99.902129    1.6313419   -98.270787    5829.7002    4.4222801    4.4222801    4.4222801    5829.7002    13172.857   -13291.306     17607.55   -9669.0998    2140.4038   -4415.0988    86.484589 
    8300    2059.5955    -100.1624    1.8635653   -98.298833   -26748.498    4.4323328    4.4323328    4.4323328   -26748.498     15233.03   -31260.249   -64218.275    10252.328    2796.7981    15972.175    87.075723 
    8400    1073.1118   -99.270642   0.97097408   -98.299668    23335.167    4.4434578    4.4434578    4.4434578    23335.167    105550.45   -24706.623   -10838.329    -17015.64    3775.3993    -14684.11    87.733039 
    8500     2086.137   -100.17151    1.8875806    -98.28393    -22068.44    4.4494941    4.4494941    4.4494941    -22068.44   -35104.799   -12689.852   -18410.671    20090.644    13304.705    12121.497    88.091076 
    8600    1649.7368   -99.754491    1.4927165   -98.261774    2974.2035    4.4362398    4.4362398    4.4362398    2974.2035    50617.131   -17737.174   -23957.347   -12050.477   -4712.6492   -14853.137    87.306188 
    8700    1476.6111   -99.605468    1.3360687   -98.269399     13198.54    4.4327719    4.4327719    4.4327719     13198.54    72533.824    6094.1869   -39032.391   -1915.7206    -2894.211    9948.3472    87.101605 
    8800    1795.4179   -99.902885    1.6245318   -98.278354    -22165.24     4.446819     4.446819     4.446819    -22165.24   -37667.642   -45340.813    16512.734    5152.7531   -1304.0848    3617.9748    87.932284 
    8900    1470.7864   -99.614513    1.3307985   -98.283714   -12005.149    4.4545468    4.4545468    4.4545468   -12005.149   -27079.757   -34466.335    25530.646   -27616.194   -1865.4566   -8340.8589    88.391514 
    9000    1757.7814   -99.853332    1.5904775   -98.262854   -15360.351    4.4459683    4.4459683    4.4459683   -15360.351   -16343.612   -10832.756   -18904.685    16.703387   -29007.584    147.79145    87.881828 
    9100     1253.981    -99.39729    1.1346283   -98.262662     25462.78    4.4379426    4.4379426    4.4379426     25462.78    37452.265    -41526.83    80462.907   -3957.6632   -1517.0284   -25411.741    87.406761 
    9200    2319.9246   -100.37316    2.0991165   -98.274048   -36047.594    4.4471518    4.4471518    4.4471518   -36047.594   -45284.085   -46004.582   -16854.115   -2059.6976   -8843.9236   -5040.6389    87.952031 
    9300    1613.3321   -99.743389    1.4597768   -98.283612    1774.9719    4.4468587    4.4468587    4.4468587    1774.9719    53650.447    -24291.03   -24034.501   -15568.555   -9094.2215    636.52773    87.934642 
    9400    1750.3659   -99.861157    1.5837679   -98.277389     3865.151    4.4418168    4.4418168    4.4418168     3865.151   -19163.162   -14160.789    44919.403   -6345.8415    -3542.359   -4851.1186    87.635876 
    9500    2295.2385   -100.36438      2.07678   -98.287601   -35572.628    4.4402015    4.4402015    4.4402015   -35572.628    -13275.21   -47499.967   -45942.708   -14728.423      3109.17   -6715.3856      87.5403 
    9600    1608.4354   -99.763688    1.4553462   -98.308342     10681.54    4.4385091    4.4385091    4.4385091     10681.54    34107.449    8028.9088   -10091.736    11190.078    1728.0568   -503.39979    87.440241 
    9700    1002.8553    -99.20942   0.90740459   -98.302015    32758.011    4.4437011    4.4437011    4.4437011    32758.011    132261.92     -1644.56   -32343.331   -8502.5316    63.533115   -19186.857    87.747454 
    9800    2190.1335   -100.25721    1.9816789   -98.275535   -24747.646    4.4484064    4.4484064    4.4484064   -24747.646    3799.6796   -69932.994   -8109.6227    27201.381    -3662.792   -2595.4678    88.026487 
    9900    920.66863    -99.11292   0.83304033   -98.279879    46479.476    4.4391942    4.4391942    4.4391942    46479.476       119185   -15529.561    35782.985   -2587.5554   -14290.912    8824.5103    87.480739 
   10000    2388.8025   -100.44586    2.1614387   -98.284418   -14904.969    4.4340254    4.4340254    4.4340254   -14904.969    42682.424   -48295.616   -39101.716    17605.071    16388.386   -2535.0762    87.175518 
   10100    1907.1703   -100.03687    1.7256478   -98.311221    7210.8899    4.4298419    4.4298419    4.4298419    7210.8899    31124.827   -27845.021    18352.864   -6709.8723   -11609.005   -11098.848    86.928997 
   10200     2057.593   -100.17333    1.8617534   -98.311577   -7830.4168    4.4419284    4.4419284    4.4419284   -7830.4168    853.04443    8441.8906   -32786.185     14215.75   -1379.8487    2355.1984     87.64248 
   10300    1104.3526   -99.285682   0.99924144   -98.286441    31115.723    4.4537869    4.4537869    4.4537869    31115.723    112659.63   -10001.347   -9311.1201   -4492.6847   -1680.7063    10523.779    88.346286 
   10400    1806.1683   -99.876416     1.634259   -98.242157   -22105.176    4.4670957    4.4670957    4.4670957   -22105.176    1235.0947   -23713.443    -43837.18    9032.0072   -3745.3876   -5011.2804    89.140643 
   10500    1417.3455   -99.486845     1.282444   -98.204401    2725.7329    4.4570585    4.4570585    4.4570585    2725.7329    61403.471   -2768.9147   -50457.357   -30741.105    159.37864    7291.0824    88.541116 
   10600    1547.0253   -99.601857     1.399781   -98.202076    33184.782    4.4324845    4.4324845    4.4324845    33184.782    51133.751    16919.834     31500.76    4334.1654    8184.9449    21496.934    87.084663 
   10700    1996.5559   -100.06862    1.8065258   -98.262093    527.91663    4.4345056    4.4345056    4.4345056    527.91663   -15729.836    8950.7765    8362.8092   -5279.4752   -7846.5975    7076.5241     87.20384 
   10800    2252.5782   -100.32474    2.0381801   -98.286557   -27910.085    4.4545778    4.4545778    4.4545778   -27910.085     27402.64   -54556.115    -56576.78   -4857.7288    6302.4409    1615.7182    88.393361 
   10900    1615.1278   -99.737505    1.4614016   -98.276104   -13494.856    4.4662236    4.4662236    4.4662236   -13494.856   -46570.652    21542.608   -15456.524    6401.8113    2196.3377    9996.5415    89.088446 
   11000    1748.7196     -99.8265    1.5822783   -98.244222    -16207.41    4.4651401    4.4651401    4.4651401    -16207.41    -25916.84   -13524.379   -9181.0111   -14713.251   -10132.995     22888.25    89.023626 
   11100     1581.025   -99.659922    1.4305447   -98.229377    -8957.342    4.4455864    4.4455864    4.4455864    -8957.342     8484.612     16051.03   -51407.668    7019.0789    9463.0292    -5322.065    87.859183 
   11200    2184.5584   -100.22235    1.9766344    -98.24572    2589.8308     4.417298     4.417298     4.417298    2589.8308   -10360.491   -1390.2717    19520.255    2809.5633    4996.3256   -15834.748    86.192626 
   11300    1813.9646   -99.958255    1.6413133   -98.316941    1750.2793    4.4312051    4.4312051    4.4312051    1750.2793    26965.279     11595.14   -33309.581    12875.293    565.71098    9099.9612    87.009276 
   11400    1265.4481   -99.470867     1.145004   -98.325863   -403.05968      4.46562      4.46562      4.46562   -403.05968    31435.499   -16274.848    -16369.83   -7405.3136    8942.0173   -3097.1277    89.052334 
   11500    2031.3489   -100.09836    1.8380072   -98.260354    -42435.48     4.474025     4.474025     4.474025    -42435.48   -61671.021   -23579.067   -42056.352     14621.26   -7379.7928    1432.7767     89.55611 
   11600    1847.2182   -99.895604    1.6714018   -98.224203   -50.290342    4.4472936    4.4472936    4.4472936   -50.290342   -952.05011    1401.7978   -600.61869    3671.3427   -6590.2686    1474.9267    87.960444 
   11700    1437.2927   -99.558787    1.3004926   -98.258295     23546.16    4.4250336    4.4250336    4.4250336     23546.16    58720.805    19986.766   -8069.0904    15508.378   -9839.1019    7588.1293    86.646238 
   11800    1001.5777   -99.224012   0.90624857   -98.317764    51221.432    4.4280236    4.4280236    4.4280236    51221.432    87449.143    29676.751    36538.404    9268.3753   -23771.544    309.81775    86.822001 
   11900    1645.1718   -99.837621     1.488586   -98.349035    6304.6276    4.4523109    4.4523109    4.4523109    6304.6276    -859.0254   -22540.402     42313.31   -3672.3469   -10742.244   -13702.994    88.258482 
   12000     1810.028   -99.947115    1.6377514   -98.309364   -13899.435    4.4632742    4.4632742    4.4632742   -13899.435   -33642.686   -39747.951    31692.331    7753.6555   -3793.1513   -6953.9471    88.912065 
   12100    1415.0644   -99.546468      1.28038   -98.266088    13020.553    4.4564598    4.4564598    4.4564598    13020.553    25888.736   -3419.8084    16592.732   -10124.431   -3089.4407   -3550.2008    88.505444 
   12200    2060.2445   -100.12219    1.8641525   -98.258039    -29725.22    4.4499717    4.4499717    4.4499717    -29725.22   -50681.937   -61990.927    23497.205    14791.368   -9354.3852    6485.9453    88.119445 
   12300    1772.0229   -99.871461    1.6033635   -98.268097    3720.1118    4.4435636    4.4435636    4.4435636    3720.1118   -22278.506    4413.2802    29025.561   -7932.2609    11336.205    9637.9904    87.739308 
   12400    1736.5804   -99.854909    1.5712945   -98.283615   -11059.072    4.4358181    4.4358181    4.4358181   -11059.072    -12826.21   -34908.043    14557.036    14024.366   -4763.4679   -2589.0853    87.281293 
   12500    1591.1098   -99.728972    1.4396696   -98.289302    9133.0745    4.4427389    4.4427389    4.4427389    9133.0745   -12531.227    3392.5135    36537.937   -2165.1938   -7217.1641    -2354.849    87.690462 
   12600    1879.5552   -99.974539     1.700661   -98.273878   -27931.866    4.4538091    4.4538091    4.4538091   -27931.866   -18458.067   -43869.917   -21467.615    7436.4416    7028.2696   -4453.7605    88.347606 
   12700    1591.9408   -99.687077    1.4404215   -98.246655    5310.7186    4.4515259    4.4515259    4.4515259    5310.7186   -29823.535      8052.71    37702.981    11641.321    6329.2335   -4572.5433    88.211803 
   12800    1846.7629   -99.907157    1.6709899   -98.236167   -24767.815    4.4413663    4.4413663    4.4413663   -24767.815   -24641.527   -81054.968     31393.05     13924.08    -8651.959   -4101.9663    87.609212 
   12900    1457.1634   -99.574009    1.3184721   -98.255537    1768.0924    4.4390295    4.4390295    4.4390295    1768.0924     33816.03   -64730.173     36218.42   -11486.226    15031.942   -1847.9698       87.471 
   13000    1644.9864    -99.74472    1.4884183   -98.256302   -43.143231     4.448619     4.448619     4.448619   -43.143231    18040.927    -10794.71   -7375.6469    20448.714   -10941.397   -643.47144    88.039108 
   13100    2061.9622   -100.12512    1.8657068   -98.259415   -44457.989    4.4564195    4.4564195    4.4564195   -44457.989   -18759.195   -69749.928   -44864.846    -12644.51   -3495.8117   -4583.9328    88.503039 
   13200    1025.6527   -99.168789   0.92803214   -98.240757    44917.371    4.4524533    4.4524533    4.4524533    44917.371    91640.525    12049.982    31061.607    11497.517   -11128.655   -16228.084    88.266948 
   13300    2041.9186   -100.09189    1.8475709   -98.244317    -29620.08     4.451234     4.451234     4.451234    -29620.08   -14134.516   -80510.718     5784.994   -7647.6336   -12540.431    3905.8279    88.194457 
   13400    1947.0211   -100.01843    1.7617056   -98.256727    4014.8998    4.4450892    4.4450892    4.4450892    4014.8998    29816.271    31267.133   -49038.704   -12595.055    -6565.316   -12677.686     87.82971 
   13500    1234.7795   -99.414908    1.1172545   -98.297653    17005.647    4.4344551    4.4344551    4.4344551    17005.647    24100.276    33927.116   -7010.4524   -10207.687    8288.7483    10045.048    87.200862 
   13600     1941.584   -100.06246     1.756786   -98.305676    5674.2219    4.4425096    4.4425096    4.4425096    5674.2219    25433.409   -51529.504     43118.76    10049.978   -10863.112    2007.5317    87.676889 
   13700    1392.5943   -99.540738    1.2600486   -98.280689   -20326.836    4.4588561    4.4588561    4.4588561   -20326.836   -41718.399     579.9604    -19842.07    -23907.34     925.8212    7764.0263    88.648293 
   13800    2175.8421   -100.21313    1.9687477    -98.24438    -26416.39    4.4521034    4.4521034    4.4521034    -26416.39   -3978.5165   -44458.393    -30812.26   -9408.6134    19255.529    11519.561    88.246142 
   13900    1523.3476   -99.629995    1.3783569   -98.251638    3459.4754     4.431996     4.431996     4.431996    3459.4754   -3204.4223    40577.246   -26994.398   -19174.008     19831.64   -4642.7345    87.055876 
   14000    1777.2488   -99.876338    1.6080921   -98.268246    3959.5025    4.4243033    4.4243033    4.4243033    3959.5025    57162.988   -40847.153   -4437.3273   -2178.5962    8162.7011     7498.342    86.603347 
   14100    1523.7058   -99.681472     1.378681   -98.302791   -2568.6768    4.4348057    4.4348057    4.4348057   -2568.6768    23450.116    2428.6789   -33584.826   -20617.415   -1416.3382    365.32888    87.221551 
   14200    2145.5075   -100.22967    1.9413002   -98.288374   -33155.495    4.4561508    4.4561508    4.4561508   -33155.495    1609.9572   -51746.128   -49330.313    12333.075    3798.6926   -847.48335    88.487032 
   14300    1127.4521   -99.283337    1.0201423   -98.263195     7605.735    4.4513102    4.4513102    4.4513102     7605.735    86402.576   -55325.873   -8259.4979   -27431.173    -10731.58    4946.0271    88.198986 
   14400    1632.6706   -99.710195    1.4772747   -98.232921    28263.218    4.4206811    4.4206811    4.4206811    28263.218   -10314.251    83859.219    11244.687    11452.302   -12172.187   -2286.9693    86.390811 
   14500    2141.7222   -100.20501    1.9378752   -98.267131    9088.5599     4.412338     4.412338     4.412338    9088.5599    58377.213   -11664.831   -19446.703   -8657.9855   -6406.8703    1575.2861    85.902601 
   14600    1555.1716   -99.742109    1.4071519   -98.334957     1352.333    4.4388728    4.4388728    4.4388728     1352.333    42360.451    18851.156   -57154.608    435.37914     5169.448    5147.4722    87.461739 
   14700    1509.9817   -99.655595    1.3662632   -98.289332   -19187.893    4.4550997    4.4550997    4.4550997   -19187.893    39664.476   -68770.482   -28457.672     4328.698    3117.4624    8973.2357    88.424433 
   14800    1846.3761   -99.925937    1.6706399   -98.255297    4311.4841    4.4320046    4.4320046    4.4320046    4311.4841    30855.045   -47419.349    29498.756     -7974.08   -385.07547   -4255.3535    87.056383 
   14900    1903.5549   -100.00025    1.7223764   -98.277878   -15904.408    4.4189647    4.4189647    4.4189647   -15904.408    9823.6415   -65662.181    8125.3169    26226.624   -9711.5455    554.74323    86.290224 
   15000     1728.276   -99.862827    1.5637804   -98.299047    35202.728     4.416144     4.416144     4.416144    35202.728    72519.188     33362.52   -273.52345   -2650.4517    7036.4674   -7460.3482    86.125089 
   15100    1579.2647   -99.763829    1.4289519   -98.334878   -20086.614    4.4426214    4.4426214    4.4426214   -20086.614   -48811.468   -32092.254     20643.88    1255.0704     5450.014   -8064.5793    87.683508 
   15200    1680.4266   -99.814954    1.5204853   -98.294468   -12147.083    4.4509749    4.4509749    4.4509749   -12147.083    14894.627   -62544.994    11209.119   -9319.8277   -4145.5265   -10801.477    88.179057 
   15300    1558.0504   -99.660485    1.4097567   -98.250728   -7593.5959    4.4264856    4.4264856    4.4264856   -7593.5959    36415.238   -56293.153   -2902.8731     11419.86   -6702.2392   -6668.8043    86.731563 
   15400    2171.8106   -100.22652    1.9650999   -98.261425   -1652.1782     4.421705     4.421705     4.421705   -1652.1782   -574.90814   -24592.764    20211.138    2446.5405    12395.758    4920.8337    86.450854 
   15500    1423.6522   -99.583124    1.2881504   -98.294973    -5103.733    4.4404306    4.4404306    4.4404306    -5103.733    19251.187    -62020.96    27458.574    12356.913   -3284.4378    8854.8047    87.553855 
   15600    1462.2643    -99.59572    1.3230875   -98.272633    9153.5987    4.4512243    4.4512243    4.4512243    9153.5987    6262.7722   -34341.238    55539.262    18285.505    4363.0578     13129.27    88.193878 
   15700    1671.3509   -99.757175    1.5122734   -98.244901   -7820.6772    4.4491699    4.4491699    4.4491699   -7820.6772    -66468.57    28382.528    14624.011    7175.7074    3574.8043    13908.426     88.07182 
   15800    1341.1027   -99.434066    1.2134579   -98.220608    28334.345    4.4317272    4.4317272    4.4317272    28334.345    28529.145   -24303.316    80777.206   -5793.6256    17466.766    14405.494    87.040036 
   15900     1921.156   -99.966872    1.7383023   -98.228569   -11138.207    4.4268793    4.4268793    4.4268793   -11138.207   -7336.1128   -55470.765    29392.258    9834.9626    26200.364    9352.0977    86.754707 
   16000    2334.9951   -100.36229    2.1127527   -98.249538   -31799.193    4.4266893    4.4266893    4.4266893   -31799.193   -58890.636   -41633.087     5126.142    17743.202    368.01512    4378.2638    86.743538 
   16100    1793.3753   -99.908307    1.6226837   -98.285623   -15087.294    4.4413625    4.4413625    4.4413625   -15087.294   -14400.235   -56228.468     25366.82   -8683.6385      11233.4    17933.603    87.608989 
   16200    1601.5654   -99.726366      1.44913   -98.277236    -11613.24    4.4455712    4.4455712    4.4455712    -11613.24     38247.05   -70495.088   -2591.6823    244.28033   -17699.705    20436.424    87.858284 
   16300    1675.0811   -99.785292    1.5156486   -98.269643    25130.086     4.430869     4.430869     4.430869    25130.086   -1331.4145   -26512.064    103233.74   -1139.3418   -25704.744    4183.2061    86.989481 
   16400    1426.1876   -99.582423    1.2904445   -98.291979    29153.208    4.4306448    4.4306448    4.4306448    29153.208    96727.698   -6257.0882   -3010.9869    15283.639   -7988.8053    6776.0985    86.976273 
   16500    1922.0346   -100.02149    1.7390973   -98.282392    -9230.218    4.4513228    4.4513228    4.4513228    -9230.218    35441.423   -48528.707    -14603.37   -6850.5294    7469.9186    3820.7831    88.199736 
   16600    1536.1877   -99.659716    1.3899749   -98.269741   -22582.814    4.4528044    4.4528044    4.4528044   -22582.814    13578.389   -87319.599    5992.7682    16010.982    7935.2137   -109.11065     88.28783 
   16700    1594.3455    -99.69231    1.4425973   -98.249713    22695.396    4.4266997    4.4266997    4.4266997    22695.396    43367.582   -2725.9651    27444.571   -3853.0963    23695.138   -20598.001    86.744146 
   16800    2149.8515   -100.21261    1.9452308   -98.267382   -25565.612    4.4308256    4.4308256    4.4308256   -25565.612   -12569.022   -32737.494   -31390.321   -4896.5528    7538.9447    3203.4789    86.986923 
   16900    1812.4693    -99.90027    1.6399603    -98.26031   -8891.2543    4.4531761    4.4531761    4.4531761   -8891.2543    11996.806    -21943.47   -16727.099   -14579.499   -3187.4332   -4723.4906    88.309944 
   17000    2055.8943    -100.0701    1.8602163   -98.209881    -35509.62    4.4548164    4.4548164    4.4548164    -35509.62   -52750.175   -4881.1403   -48897.546    7410.7554    4762.7609     15719.88    88.407567 
   17100    1330.9945   -99.402454    1.2043118   -98.198142    38222.132    4.4363132    4.4363132    4.4363132    38222.132    67670.969    48127.263   -1131.8351   -7652.8974    13124.246   -6984.1566    87.310523 
   17200    2065.5582   -100.08758    1.8689605   -98.218623   -10055.735    4.4234867    4.4234867    4.4234867   -10055.735    13100.951    5005.9887   -48274.145   -263.89751   -7096.4949     22708.51    86.555402 
   17300    1216.9456   -99.368301    1.1011179   -98.267183    27267.513    4.4364632    4.4364632    4.4364632    27267.513    22563.747    59680.922    -442.1319    20251.601   -19314.606   -4573.8548     87.31938 
   17400    1265.9554   -99.398712    1.1454631   -98.253249    19499.146    4.4522117    4.4522117    4.4522117    19499.146    10096.973    6742.4129    41658.053   -1672.5838    -13364.06    17255.838    88.252583 
   17500    1712.9789   -99.766685    1.5499394   -98.216746    -26846.14    4.4513589    4.4513589    4.4513589    -26846.14   -54854.119   -13794.769   -11889.533    35141.565   -7175.1303    13770.326     88.20188 
   17600    1404.2653   -99.476244    1.2706088   -98.205635    32641.087    4.4342039    4.4342039    4.4342039    32641.087     27801.42    49254.753    20867.088    11430.379   -16196.003    9503.9078    87.186048 
   17700    1531.0573   -99.607838    1.3853328   -98.222506    34803.526    4.4323628    4.4323628    4.4323628    34803.526   -5419.8599    84973.434    24857.004     15912.72    4394.1198     26770.94    87.077492 
   17800    1100.5531   -99.258775   0.99580357   -98.262972    32424.329    4.4585129    4.4585129    4.4585129    32424.329    51510.338    72599.537   -26836.888   -9081.7697    28497.322    26530.557    88.627825 
   17900    934.34756   -99.064352    0.8454173   -98.218934    5182.4908    4.4697269    4.4697269    4.4697269    5182.4908   -43425.491    108262.07   -49289.106   -4193.1274    24687.625   -1244.1701    89.298254 
   18000    1227.4131   -99.280195    1.1105892   -98.169606    43807.361    4.4425745    4.4425745    4.4425745    43807.361    22140.378    108457.15    824.55377    3598.5215    26710.922   -9552.1882    87.680732 
   18100    1338.0977   -99.395568    1.2107389   -98.184829     39006.18    4.4255228    4.4255228    4.4255228     39006.18    78378.229    11739.221     26901.09    10542.211    29658.458   -3053.5339    86.674978 
   18200    1807.9296   -99.863621    1.6358527   -98.227768    488.89301    4.4458928    4.4458928    4.4458928    488.89301    46505.822   -16267.677   -28771.466   -7713.3966    20339.847    535.58631    87.877353 
   18300    1427.1732   -99.499781    1.2913363   -98.208444   -23460.414    4.4618364    4.4618364    4.4618364   -23460.414   -64745.645    17013.438   -22649.034    83.296265    10313.987   -13798.044    88.826168 
   18400    1955.5577   -99.935652    1.7694297   -98.166222   -12956.512    4.4557558    4.4557558    4.4557558   -12956.512   -31186.128    3783.7112   -11467.119    16576.186   -14055.116   -8845.2196    88.463502 
   18500    2111.2602   -100.07975    1.9103126   -98.169442   -21407.911     4.451258     4.451258     4.451258   -21407.911   -58499.127     30058.94   -35783.545    12116.103   -9363.0926   -22264.837    88.195882 
   18600    2121.6802   -100.12171    1.9197409   -98.201969   -13150.429    4.4434726    4.4434726    4.4434726   -13150.429   -38705.598   -8470.0601    7724.3696    19736.526   -2583.5995   -10891.879     87.73392 
   18700    1700.5613   -99.754306    1.5387036   -98.215602   -2105.4125    4.4462359    4.4462359    4.4462359   -2105.4125   -55870.565     59239.06   -9684.7329   -5739.0937    4424.0254   -16960.281    87.897698 
   18800    1752.1184   -99.805715    1.5853535   -98.220361   -38421.092    4.4490329    4.4490329    4.4490329   -38421.092   -53028.146    3240.9862   -65476.117    1470.6063     16150.23   -3029.3981    88.063683 
   18900    1759.7548   -99.802365    1.5922632   -98.210102    10939.735    4.4331131    4.4331131    4.4331131    10939.735    18904.878    56938.129   -43023.801    19426.683   -10783.473    4073.5219    87.121719 
   19000    1435.3844   -99.542891     1.298766   -98.244125    25032.605     4.430323     4.430323     4.430323    25032.605   -8727.0875    118582.54   -34757.633    19705.564     10137.62   -4217.6801    86.957328 
   19100    2011.7216   -100.06773     1.820248   -98.247479   -25688.945    4.4472222    4.4472222    4.4472222   -25688.945    3051.0574   -12015.008   -68102.884     5704.657    2555.0498   -944.47403    87.956204 
   19200    1351.0176   -99.451407    1.2224292   -98.228978    23823.052    4.4395984    4.4395984    4.4395984    23823.052   -15907.155    61446.484    25929.828    3317.4612    3990.1168    -420.4241    87.504633 
   19300    1928.0659   -99.976941    1.7445546   -98.232387   -13596.044    4.4442625    4.4442625    4.4442625   -13596.044   -12616.018   -7970.5269   -20201.588    5631.7143    3729.6408   -11993.957    87.780713 
   19400    1675.5307   -99.751773    1.5160553   -98.235718   -1803.7178    4.4467393    4.4467393    4.4467393   -1803.7178   -64698.148    8064.8493    51222.145    14705.295    3509.6189    11969.701    87.927555 
   19500    1531.7546   -99.611523    1.3859637   -98.225559    2364.9954    4.4422545    4.4422545    4.4422545    2364.9954    35192.243    3124.2714   -31221.528     7653.488   -8541.5001   -11584.637    87.661786 
   19600    1716.6304   -99.782816    1.5532432   -98.229573    22242.489    4.4377831    4.4377831    4.4377831    22242.489   -3716.1836    5335.0305    65108.619    14196.975    30058.264    -4071.388    87.397342 
   19700    1181.9024   -99.323537    1.0694101   -98.254127    9116.9805    4.4412537    4.4412537    4.4412537    9116.9805    74419.538   -3424.0921   -43644.504   -8365.9153    3517.1436   -10630.979    87.602549 
   19800    1815.2756    -99.91039    1.6424995   -98.267891   -15592.032    4.4319129    4.4319129    4.4319129   -15592.032   -58809.765   -9442.3551    21476.024    21839.452    1979.8129    13858.081    87.050978 
   19900    2273.7417   -100.31339    2.0573293   -98.256063   -27963.968    4.4176306    4.4176306    4.4176306   -27963.968   -53840.262   -14339.945   -15711.696    8559.6443    19466.596   -2690.5555    86.212097 
   20000    1420.6714   -99.561755    1.2854534   -98.276302   -42979.646    4.4258486    4.4258486    4.4258486   -42979.646   -69635.598   -32283.137   -27020.203    21592.561      6467.13   -5957.4113    86.694122 
   20100    2311.2405   -100.36242     2.091259   -98.271162   -1396.5621    4.4167873    4.4167873    4.4167873   -1396.5621   -24851.132   -31834.679    52496.125   -5509.8203    -187.3446    -5661.397    86.162729 
   20200    1939.7662   -100.05615    1.7551412   -98.301007    -25968.14    4.4286019    4.4286019    4.4286019    -25968.14   -27139.684   -23268.879   -27495.858    14141.486    9977.5672   -5261.3695     86.85602 
   20300    1728.3754   -99.831707    1.5638704   -98.267837    6487.0718    4.4357388    4.4357388    4.4357388    6487.0718    6971.6854   -35973.099    48462.629    9584.5111    10919.927     6979.709    87.276615 
   20400    1599.7422   -99.702207    1.4474803   -98.254727   -3510.5201    4.4327011    4.4327011    4.4327011   -3510.5201    19059.776   -44298.016    14706.679    13329.731    25424.181   -4072.3437    87.097431 
   20500    1715.4598   -99.794705    1.5521841    -98.24252    24395.935    4.4286369    4.4286369    4.4286369    24395.935    72738.488   -36837.672     37286.99   -6084.2734   -3546.2669    2243.5112    86.858082 
   20600    1446.1314   -99.571776      1.30849   -98.263286    10116.618    4.4423104    4.4423104    4.4423104    10116.618    20324.985    18555.281    -8530.412   -3848.9612    16617.101   -5372.2784    87.665091 
   20700    1521.1074    -99.62165      1.37633    -98.24532   -4485.3732    4.4477171    4.4477171    4.4477171   -4485.3732     24031.74    17243.373   -54731.233    2394.2285    11630.982   -2682.3395    87.985576 
   20800     1663.563   -99.749143    1.5052267   -98.243916    161.01074    4.4270131    4.4270131    4.4270131    161.01074    11886.863    -8591.599   -2812.2313   -15853.209    49407.704    14136.426    86.762571 
   20900    1441.5021   -99.556322    1.3043013   -98.252021    33841.059    4.4098658    4.4098658    4.4098658    33841.059    18204.934    78045.288     5272.955   -10700.735    10251.676    16137.041    85.758293 
   21000    1529.1841    -99.66907    1.3836379   -98.285432    10194.063    4.4287542    4.4287542    4.4287542    10194.063   -25621.294    3272.1328    52931.351   -7567.0541    36852.665    18274.241    86.864981 
   21100     1621.628   -99.717085    1.4672831   -98.249802    314.09862    4.4476305    4.4476305    4.4476305    314.09862    18723.907    2378.3357   -20159.947   -8147.8719    14869.953    6785.6592    87.980432 
   21200    1195.5522   -99.301441    1.0817608    -98.21968    27060.401    4.4433462    4.4433462    4.4433462    27060.401    -13701.99    44005.272     50877.92   -10882.339    36364.555    7322.7364    87.726428 
   21300    1753.2022   -99.797665    1.5863342   -98.211331    2725.4237    4.4346504    4.4346504    4.4346504    2725.4237   -40040.013    16669.503    31546.781   -8984.3161   -6815.4682    11236.563    87.212383 
   21400    1963.3574   -100.00063     1.776487   -98.224142   -21157.517    4.4127672    4.4127672    4.4127672   -21157.517   -24923.445   -19790.466    -18758.64   -15382.949    19037.217    10436.045    85.927672 
   21500    1497.5944   -99.606834    1.3550549   -98.251779    45741.127    4.4025514    4.4025514    4.4025514    45741.127    15835.723     20704.14    100683.52     3561.711   -4188.1795    5211.6105     85.33227 
   21600    1399.6813   -99.555446    1.2664611   -98.288985   -16936.733    4.4271335    4.4271335    4.4271335   -16936.733   -31471.002    11845.258   -31184.457     -6900.14    21569.204   -77.513405     86.76965 
   21700    1819.5216   -99.909704    1.6463414   -98.263362   -19669.134    4.4383084    4.4383084    4.4383084   -19669.134     280.4325   -37345.578   -21942.257    2321.3277   -8092.0866   -12508.318     87.42838 
   21800    1626.8516   -99.708967    1.4720096   -98.236957   -15238.919    4.4257224    4.4257224    4.4257224   -15238.919   -4074.9281   -44912.687    3270.8582   -11215.193    18661.004    12895.337     86.68671 
   21900    1685.0664    -99.75321    1.5246835   -98.228527    28589.874    4.4093209    4.4093209    4.4093209    28589.874     60762.63    21867.648    3139.3431    6535.7552   -4180.5622    10307.806    85.726505 
   22000    1880.7198   -99.965294    1.7017148   -98.263579   -38013.886    4.4155055    4.4155055    4.4155055   -38013.886   -65524.018   -37623.871   -10893.767   -383.74519    25389.246    2098.7504    86.087734 
   22100    1822.4822   -99.920739    1.6490202   -98.271718   -4188.3421     4.426824     4.426824     4.426824   -4188.3421    11983.517   -3904.3802   -20644.163   -2141.3895    4987.5708    19415.528    86.751457 
   22200    1646.0388   -99.751481    1.4893705   -98.262111   -29435.719    4.4373342    4.4373342    4.4373342   -29435.719    -34068.74   -12349.612   -41888.805    928.10818    16164.129    859.83858    87.370823 
   22300    1690.7806   -99.777874    1.5298538   -98.248021   -12622.313    4.4310165    4.4310165    4.4310165   -12622.313   -72725.514    2616.5172    32242.057    753.13011   -11778.096    9190.3093    86.998167 
   22400    1462.0119   -99.565799    1.3228591    -98.24294    9979.7721    4.4166318    4.4166318    4.4166318    9979.7721   -35884.099    78513.888   -12690.472    12987.812    21538.654    6271.4133    86.153631 
   22500    1808.5589   -99.895612    1.6364221    -98.25919   -23210.007    4.4198793    4.4198793    4.4198793   -23210.007   -62241.013     4710.149   -12099.156   -5285.1885   -7616.8785    7396.0312    86.343812 
   22600    1214.1435   -99.363894    1.0985826   -98.265311    24133.756    4.4080956    4.4080956    4.4080956    24133.756   -10183.035    109016.62   -26432.321    1141.7515    23679.751    9445.2802    85.655059 
   22700    1828.4145   -99.919789    1.6543879   -98.265401    10171.903    4.4099783    4.4099783    4.4099783    10171.903   -17318.922   -3170.5248    51005.154    2857.1911    4338.2051    3538.9783    85.764855 
   22800    1392.1889   -99.530849    1.2596818   -98.271167   -14368.528    4.4271763    4.4271763    4.4271763   -14368.528   -46519.969    22400.632   -18986.246   -9853.6132    34649.587    5362.5547    86.772166 
   22900    1789.7473   -99.858522     1.619401   -98.239121    2239.6653    4.4227816    4.4227816    4.4227816    2239.6653   -17081.154    8182.6625    15617.487   -2882.3539    257.73121     4558.339    86.514015 
   23000    1469.0968   -99.582243    1.3292697   -98.252973    12827.967    4.4258225    4.4258225    4.4258225    12827.967   -17884.043     27309.87    29058.073    14798.881    6546.1578    22261.127    86.692591 
   23100    1359.0557   -99.487447    1.2297021   -98.257745   -1797.5991    4.4399964    4.4399964    4.4399964   -1797.5991   -7847.7969   -56320.417    58775.417   -33236.886    7061.7652    11772.015     87.52817 
   23200    1686.9184   -99.769264    1.5263592   -98.242905    2466.3303    4.4351812    4.4351812    4.4351812    2466.3303   -36807.784    -45690.52    89897.295    4788.3844    14117.824   -959.99475    87.243708 
   23300    1228.5168   -99.366652    1.1115878   -98.255065    44057.597    4.4188394    4.4188394    4.4188394    44057.597    60828.206    -11643.95    82988.535   -29762.042   -9395.5197    8853.5459    86.282885 
   23400    1780.4017   -99.892178    1.6109449   -98.281233    25517.404    4.4265665    4.4265665    4.4265665    25517.404    18036.712    17342.135    41173.364    9702.0505   -4707.1479    13215.153     86.73632 
   23500    1463.8897   -99.633193    1.3245582   -98.308635   -9421.6056    4.4326228    4.4326228    4.4326228   -9421.6056    9135.2342   -65727.999    28327.948     -27213.3    1797.0335    10146.303    87.092816 
   23600    2466.9121   -100.51837    2.2321139   -98.286259   -23794.299    4.4284912    4.4284912    4.4284912   -23794.299      26277.4   -44025.347    -53634.95    12148.515   -4582.5395    -1361.396    86.849509 
   23700     1743.285   -99.894537    1.5773609   -98.317176   -40670.044    4.4190485    4.4190485    4.4190485   -40670.044    -34105.41   -78703.447   -9201.2765    -36807.49      -4864.5    6944.7143    86.295132 
   23800    1396.9448   -99.577466     1.263985   -98.313481    48271.298    4.3967011    4.3967011    4.3967011    48271.298     164317.7   -1572.9363   -17930.867    22497.731   -11302.364    15715.751    84.992542 
   23900    1604.1526   -99.796141     1.451471    -98.34467    19603.519    4.4142692    4.4142692    4.4142692    19603.519    94143.938   -6518.9779   -28814.404   -20142.934    11031.212   -4762.5144    86.015444 
   24000    1829.3731   -99.985526    1.6552552   -98.330271   -41806.143    4.4323737    4.4323737    4.4323737   -41806.143   -53501.883   -36360.945   -35555.601    11105.758   -22356.501    10297.079    87.078132 
   24100    1996.8955    -100.1102     1.806833   -98.303371   -12765.932    4.4182973    4.4182973    4.4182973   -12765.932      36613.1   -44109.717   -30801.179   -20226.407    11381.517    13310.099     86.25113 
   24200     1869.426   -100.00461    1.6914959   -98.313115   -19420.697    4.4007531    4.4007531    4.4007531   -19420.697    6878.6732    -29910.56   -35230.203     -7215.54   -13293.417    11056.887    85.227748 
   24300     1010.228   -99.248417    0.9140755   -98.334342    35736.239    4.3933988    4.3933988    4.3933988    35736.239    145479.17   -6729.1582   -31541.292    5684.9059    12884.639    729.79918    84.801176 
   24400    2449.6346    -100.5535    2.2164808   -98.337022   -12873.951    4.4167265    4.4167265    4.4167265   -12873.951    40077.678   -59624.225   -19075.304   -14963.624   -11374.109    16042.365    86.159175 
   24500    1640.5299   -99.795943     1.484386   -98.311557   -26779.456    4.4147896    4.4147896    4.4147896   -26779.456    -9906.232    -8761.602   -61670.534    7047.0135    11237.546    1913.1602    86.045868 
   24600    1885.5386   -100.00441     1.706075   -98.298334   -16537.176    4.4192328    4.4192328    4.4192328   -16537.176    14905.955   -27562.417   -36955.066   -327.91129    -11728.99    -10575.85     86.30593 
   24700    2000.2816   -100.09144    1.8098968   -98.281541   -28309.659    4.4234441    4.4234441    4.4234441   -28309.659   -39009.999    1323.3735   -47242.351    16721.219    5641.5202   -10817.789    86.552901 
   24800    1633.9371   -99.752991    1.4784206   -98.274571   -18592.541     4.428217     4.428217     4.428217   -18592.541   -32067.157    8158.8255   -31869.292     5784.504   -894.23948   -10293.383    86.833375 
   24900    1556.2441   -99.674526    1.4081224   -98.266404    2482.2321    4.4383493    4.4383493    4.4383493    2482.2321    69315.477    -21722.67   -40146.111    5911.9971    20317.531   -20572.673    87.430796 
   25000    1631.9271   -99.732461     1.476602   -98.255859    12173.392    4.4277947    4.4277947    4.4277947    12173.392    75193.145   -45230.704    6557.7346    9424.8078    15888.869   -2166.6359    86.808533 
   25100    1911.4039   -99.987842    1.7294784   -98.258363    12417.607    4.4284504    4.4284504    4.4284504    12417.607    45991.996    10947.894    -19687.07   -18015.933    9817.4314    11521.778    86.847106 
   25200    1096.6919   -99.244965   0.99230983   -98.252655    14833.285    4.4334512    4.4334512    4.4334512    14833.285    45814.408   -18965.967    17651.416   -43621.407    8276.5262    1305.2121    87.141654 
   25300     2042.995   -100.07888    1.8485448    -98.23034   -18092.677    4.4284244    4.4284244    4.4284244   -18092.677   -36611.016   -1028.3877   -16638.628   -4393.3919    20155.822    13657.217    86.845575 
   25400     1465.942   -99.569359    1.3264151   -98.242944     5955.527     4.422164     4.422164     4.422164     5955.527    67930.943   -15557.951   -34506.412   -16429.472    4298.9491    17446.308     86.47778 
   25500    1365.8983   -99.499542    1.2358935   -98.263649    26245.816    4.4165392    4.4165392    4.4165392    26245.816    18950.615    45216.416    14570.416   -22657.018   -5710.7048   -447.83916    86.148212 
   25600     1925.963   -100.02777    1.7426518   -98.285115    3234.5857    4.4312081    4.4312081    4.4312081    3234.5857    40622.969   -257.58897   -30661.622    8287.9955   -629.51242    22567.138    87.009454 
   25700    1240.9407   -99.397204    1.1228293   -98.274375   -22470.675    4.4388115    4.4388115    4.4388115   -22470.675   -13881.985   -5110.2743   -48419.765   -16538.736    3569.5851    32063.912    87.458111 
   25800    2247.2894   -100.27341    2.0333947   -98.240016   -2919.8503    4.4070459    4.4070459    4.4070459   -2919.8503   -24499.672    15380.225    359.89594   -1150.4229   -4209.6527   -8433.3169    85.593884 
   25900    1729.7836   -99.836173    1.5651445   -98.271028    3671.1446     4.412452     4.412452     4.412452    3671.1446    11471.393    13800.645   -14258.605    2009.5622    17717.173    30544.649    85.909262 
   26000    1583.1531   -99.714514    1.4324702   -98.282044   -16843.352    4.4325543    4.4325543    4.4325543   -16843.352   -27783.696   -20937.691   -1808.6686    7125.1615   -9713.1831    6745.7688    87.088777 
   26100    1625.0522   -99.740877    1.4703814   -98.270496   -1340.1024    4.4420384    4.4420384    4.4420384   -1340.1024    4917.5336    8743.7514   -17681.592   -13053.289     9967.453    11367.462     87.64899 
   26200    1793.6253   -99.870658    1.6229099   -98.247748   -3414.7301    4.4417752    4.4417752    4.4417752   -3414.7301   -21144.957   -8354.7341    19255.501     12430.87    7896.1501    38796.693    87.633412 
   26300    1374.5051   -99.469349    1.2436811   -98.225668    14215.482    4.4360993    4.4360993    4.4360993    14215.482   -36017.666     42481.42    36182.691   -387.29712    1928.1137    26648.135    87.297897 
   26400     2082.963     -100.096    1.8847087   -98.211289   -19282.868    4.4329985    4.4329985    4.4329985   -19282.868   -42864.883   -32951.274    17967.553    19713.506    9840.9004   -10255.649    87.114963 
   26500     1459.859   -99.562023    1.3209111   -98.241112   -22002.411    4.4245006    4.4245006    4.4245006   -22002.411   -54222.355    15085.694   -26870.573   -11564.114    -25973.52    12585.433    86.614934 
   26600    1654.4285   -99.741231    1.4969617    -98.24427    41089.072     4.417416     4.417416     4.417416    41089.072    15486.216    24649.648    83131.352    -13102.38    7672.0763    9442.1414    86.199529 
   26700     1688.384   -99.807139    1.5276853   -98.279454   -32525.607    4.4457201    4.4457201    4.4457201   -32525.607   -28181.699    -46673.54   -22721.584    6905.2259    1865.4223    15611.626    87.867109 
   26800    1355.2956   -99.472515    1.2262999   -98.246215    11699.467    4.4429522    4.4429522    4.4429522    11699.467      27329.8   -19440.831    27209.433    8039.3124    6033.4687    12835.377    87.703096 
   26900    1796.5194   -99.859123    1.6255285   -98.233595    14630.041    4.4207276    4.4207276    4.4207276    14630.041    21279.028    1218.0505    21393.043   -9140.3427   -2098.8385    28934.271    86.393542 
   27000    1722.2778   -99.801524    1.5583532   -98.243171    23009.098    4.4221694    4.4221694    4.4221694    23009.098    74603.578   -43292.336    37716.053   -14208.733   -5785.6377   -16340.903    86.478096 
   27100    1957.3013   -100.02198    1.7710074   -98.250971   -16327.032    4.4362245    4.4362245    4.4362245   -16327.032    -29642.61    7846.7451   -27185.232   -2586.2467    2136.8724   -4944.5478    87.305287 
   27200    1797.2992   -99.871621    1.6262341   -98.245387     6461.302    4.4444839    4.4444839    4.4444839     6461.302   -6774.0024   -19317.058    45474.966   -24777.291    14809.051    9971.5305    87.793836 
   27300    1190.9992   -99.328158    1.0776411   -98.250517   -22290.376    4.4397549    4.4397549    4.4397549   -22290.376    31085.205   -31539.615   -66416.718    10607.646   -20212.449    5800.1248    87.513889 
   27400    2373.5386   -100.38054    2.1476277   -98.232909    9508.9303    4.4065691    4.4065691    4.4065691    9508.9303    12905.636   -10395.676    26016.831   -16178.768    11729.789   -12042.866    85.566101 
   27500    1101.3933   -99.281615   0.99656378   -98.285051   -3600.0781    4.4113989    4.4113989    4.4113989   -3600.0781    60091.541    4276.8648    -75168.64    16449.538   -30203.241     15895.38    85.847763 
   27600    1550.7062   -99.705113    1.4031116   -98.302001    1760.0296     4.420915     4.420915     4.420915    1760.0296     91869.54   -49438.921   -37150.531   -6926.5796   -13927.881   -1927.2414    86.404528 
   27700    1526.6945   -99.695593    1.3813853   -98.314208   -13528.507    4.4237545    4.4237545    4.4237545   -13528.507    47517.609    9645.2813   -97748.412    2056.2225     11280.83   -1062.9147    86.571123 
   27800    2265.0756   -100.35261     2.049488   -98.303125    -30156.73    4.4236777    4.4236777    4.4236777    -30156.73   -35326.152   -35369.601   -19774.437    12456.521   -6884.3425     3596.824    86.566616 
   27900    1432.2491     -99.5838    1.2959291   -98.287871    15433.346    4.4206141    4.4206141    4.4206141    15433.346    40686.356    30988.218   -25374.537    7100.8335    -5909.857    9.2897966    86.386886 
   28000    2498.8271   -100.53787    2.2609913   -98.276878   -33961.441    4.4218694    4.4218694    4.4218694   -33961.441   -15469.188   -34401.218   -52013.916   -7467.9992   -14916.717    10026.183    86.460501 
   28100    1449.3765   -99.590826    1.3114263     -98.2794    11863.284     4.412842     4.412842     4.412842    11863.284   -8707.2431    69622.366    -25325.27    1600.4455   -6922.2662    12010.201    85.932044 
   28200    1652.4569   -99.778467    1.4951777   -98.283289    15074.445    4.4243272    4.4243272    4.4243272    15074.445    25408.054     37072.17   -17256.889    24729.844   -3786.7811    16844.602    86.604748 
   28300    1542.9045   -99.665317    1.3960524   -98.269264   -41029.427    4.4380792    4.4380792    4.4380792   -41029.427    -78490.76    538.70594   -45136.228   -32344.838   -7920.7028    19736.298    87.414838 
   28400    1622.1352   -99.718602     1.467742    -98.25086    6190.5525    4.4270325    4.4270325    4.4270325    6190.5525   -691.91443    69129.377   -49865.805    6036.5825    -3963.571    19026.264    86.763711 
   28500    1580.1471   -99.679783    1.4297503   -98.250032    37819.636    4.4098803    4.4098803    4.4098803    37819.636    7443.2407    126692.02    -20676.35    -24366.43   -121.86974    9748.5656    85.759136 
   28600     1648.987   -99.772397    1.4920381   -98.280359    6224.0563    4.4250474    4.4250474    4.4250474    6224.0563     10689.12    32303.141   -24320.093    -21154.99   -8272.4854    22447.452    86.647051 
   28700    1749.5411   -99.850704    1.5830216   -98.267682   -13918.181    4.4435519    4.4435519    4.4435519   -13918.181   -47107.012    36698.107   -31345.638   -16362.305   -126.85544    27296.378    87.738613 
   28800    1373.8625   -99.503746    1.2430997   -98.260646    12344.608    4.4408064    4.4408064    4.4408064    12344.608    -62749.46    131879.84   -32096.555   -10011.362    5465.4445    23808.086    87.576084 
   28900    2060.9112   -100.12461    1.8647557   -98.259858   -10272.994    4.4392379    4.4392379    4.4392379   -10272.994   -50040.609    34563.601   -15341.973    -8443.956   -9198.4458    14460.132    87.483323 
   29000     2112.734   -100.16345    1.9116462     -98.2518   -27628.102    4.4337863    4.4337863    4.4337863   -27628.102    -50509.94    26455.993    -58830.36    9696.0783    5433.9981    12199.807    87.161414 
   29100    2120.6434   -100.17644    1.9188027   -98.257635   -166.90432    4.4250627    4.4250627    4.4250627   -166.90432   -39653.134    72560.116   -33407.695    20103.008   -2129.7388    7044.5208     86.64795 
   29200     855.9987   -99.045448   0.77452562   -98.270922    35888.083    4.4383111    4.4383111    4.4383111    35888.083    76929.843    30232.856    501.54788   -9030.4178    18748.271    24201.602    87.428538 
   29300     1844.881   -99.915809    1.6692871   -98.246522    -19904.21    4.4531672    4.4531672    4.4531672    -19904.21   -37742.522    21623.169   -43593.277     25320.35   -4538.5935    14922.989    88.309416 
   29400    1143.0688   -99.263808    1.0342727   -98.229535    18509.424    4.4440863    4.4440863    4.4440863    18509.424   -19004.931    121284.87   -46751.665    11197.639   -7305.4341    10005.042    87.770273 
   29500    1605.7692   -99.680383    1.4529337    -98.22745    11929.712    4.4297283    4.4297283    4.4297283    11929.712   -36786.062    97757.683   -25182.486    31146.775   -5190.9784     17056.69    86.922313 
   29600    2203.1955   -100.23468    1.9934976   -98.241179   -7060.3827    4.4254039    4.4254039    4.4254039   -7060.3827   -41025.286   -1684.1696    21528.307    8699.5164   -1491.0158    7692.7733    86.667992 
   29700    1331.9362   -99.489273    1.2051639   -98.284109   -4009.6226    4.4454419    4.4454419    4.4454419   -4009.6226   -54703.746    35221.612    7453.2657    22194.728   -11673.651    5726.1426    87.850615 
   29800    2141.8309   -100.18222    1.9379736    -98.24425   -24354.566    4.4483218    4.4483218    4.4483218   -24354.566   -6380.1384   -61619.434   -5064.1255   -4255.1056    9056.7211    1863.4864    88.021463 
   29900    1418.9297   -99.503039    1.2838774   -98.219162    17459.944    4.4447336    4.4447336    4.4447336    17459.944    -8488.286    23652.219      37215.9   -15865.815   -8546.0525    16307.438     87.80863 
   30000    1623.9819   -99.686968    1.4694129   -98.217555    5089.2706    4.4565922    4.4565922    4.4565922    5089.2706    57297.632   -14730.152   -27299.668    -4601.387    37431.259    14854.761     88.51333 
   30100    1333.3234   -99.400324     1.206419   -98.193905   -10320.991    4.4568225    4.4568225    4.4568225   -10320.991    22135.229    9249.2108   -62347.413    -6155.739    10578.267   -2597.5501    88.527055 
   30200         2398   -100.35157    2.1697608   -98.181808   -19478.612    4.4333466    4.4333466    4.4333466   -19478.612   -9966.3942   -46880.251   -1589.1909   -1704.5736    10279.394    362.32333    87.135484 
   30300     2051.448   -100.07145    1.8561933   -98.215256   -9643.0224    4.4200182    4.4200182    4.4200182   -9643.0224      22521.9   -6555.7983   -44895.169   -1886.9229    4981.6816    4425.6104    86.351952 
   30400    1754.3102   -99.859554    1.5873368   -98.272217    8853.7627    4.4372562    4.4372562    4.4372562    8853.7627    30331.914    28598.395   -32369.022   -2784.6767    22657.742    5944.0304    87.366214 
   30500     1645.943   -99.772026    1.4892838   -98.282743   -23663.075    4.4608969    4.4608969    4.4608969   -23663.075   -22852.201   -40649.523   -7487.4999   -9502.3393    1151.8057   -3500.0957    88.770067 
   30600    2212.3757   -100.21786     2.001804   -98.216051   -14082.354    4.4549571    4.4549571    4.4549571   -14082.354    3466.0745   -44771.694    -941.4433   -614.36878    11430.579   -4935.4518    88.415943 
   30700    1088.7883   -99.191185   0.98515853   -98.206026    43479.205    4.4213867    4.4213867    4.4213867    43479.205    86019.544   -48619.985    93038.056    5244.1401   -9501.9466      4170.06    86.432185 
   30800    1797.8342   -99.874801    1.6267182   -98.248083    505.49672    4.4127893    4.4127893    4.4127893    505.49672   -30075.406   -24584.981    56176.877   -4847.2069   -1335.0005   -385.49554    85.928963 
   30900    2335.4151   -100.40028    2.1131326   -98.287152   -29786.142    4.4285672    4.4285672    4.4285672   -29786.142   -15959.154   -63275.428   -10123.845   -386.60505   -10601.631    3211.1844    86.853976 
   31000    1453.2971   -99.599825    1.3149738   -98.284851   -17629.613     4.450507     4.450507     4.450507   -17629.613   -45651.292   -72098.517    64860.969    1335.9599   -3242.3869   -1618.7742    88.151247 
   31100    1730.6363   -99.800949    1.5659161   -98.235033   -19660.642    4.4488254    4.4488254    4.4488254   -19660.642   -13043.024    -45855.68   -83.221237   -1425.3461   -11471.489    1805.6853    88.051366 
   31200    1161.8618   -99.277518     1.051277   -98.226241    33141.565    4.4172016    4.4172016    4.4172016    33141.565    45512.511   -20095.645    74007.827    9955.1983    -7645.277   -7445.7438    86.186981 
   31300    2513.7889   -100.54253     2.274529   -98.267997    3361.1372    4.4071785    4.4071785    4.4071785    3361.1372    44608.196   -38898.289    4373.5046   -285.26886    17516.307    8964.6598    85.601607 
   31400    1645.1284   -99.807664    1.4885468   -98.319117    2445.9746     4.427366     4.427366     4.427366    2445.9746    12607.167   -38628.365    33359.122   -3594.8147   -21726.054   -3081.6235    86.783325 
   31500    2028.4119   -100.11898    1.8353497   -98.283633   -31402.098    4.4480941    4.4480941    4.4480941   -31402.098    7508.0243   -56250.347   -45463.972    8272.9502    3096.6218   -5153.5673    88.007947 
   31600    1686.2805   -99.773039     1.525782   -98.247257   -2953.8679    4.4426595    4.4426595    4.4426595   -2953.8679    13525.311   -41462.251    19075.336    4424.8546   -32848.517    12369.688    87.685762 
   31700    2095.8771   -100.13251    1.8963936   -98.236115   -22448.471    4.4306585    4.4306585    4.4306585   -22448.471    24835.923   -57374.058   -34807.277    7436.7466    14894.704    3419.7986    86.977084 
   31800    1467.4271   -99.593822    1.3277589   -98.266063    26741.364    4.4125018    4.4125018    4.4125018    26741.364    107123.36   -39617.224    12717.955    7074.7189   -39216.369   -2148.0081     85.91217 
   31900    1309.9731   -99.508302    1.1852912    -98.32301    22151.186    4.4160023    4.4160023    4.4160023    22151.186    50758.826   -4232.1134    19926.846    4227.6746     9695.064    14124.576    86.116796 
   32000    2138.6113   -100.25535    1.9350604    -98.32029   -20476.222    4.4278695    4.4278695    4.4278695   -20476.222   -14803.157   -31388.491   -15237.018    10522.207   -14694.066    5849.6957    86.812934 
   32100    1271.8142   -99.449934    1.1507642    -98.29917    14438.317    4.4333027    4.4333027    4.4333027    14438.317    58874.334   -15573.015    13.632142   -2476.5939    11941.294   -3320.5812    87.132899 
   32200    1970.4193   -100.05974    1.7828767   -98.276859   -16366.639    4.4358218    4.4358218    4.4358218   -16366.639   -25158.685   -48398.498    24457.267    8827.6393   -14378.998   -9117.4065    87.281517 
   32300    1825.5717   -99.917294    1.6518157   -98.265479   -8440.6378    4.4288364    4.4288364    4.4288364   -8440.6378    37077.972   -33339.493   -29060.392    251.24424    6207.4694    362.76689    86.869817 
   32400    1610.5528   -99.742206     1.457262   -98.284944    975.57787    4.4326948    4.4326948    4.4326948    975.57787    44576.566   -62630.326    20980.493    22726.792   -5503.8811    14958.029     87.09706 
   32500    1852.1143   -99.959505     1.675832   -98.283673   -1377.0901    4.4320344    4.4320344    4.4320344   -1377.0901   -37512.902    12695.341     20686.29   -4605.2198    7226.8832    8694.8769    87.058139 
   32600    1378.1556   -99.537432    1.2469842   -98.290448    380.15837     4.426853     4.426853     4.426853    380.15837    69162.703   -43857.374   -24164.853   -9100.2777    8782.2939     13069.68    86.753162 
   32700    1613.7794   -99.747511    1.4601816    -98.28733    27134.438    4.4263975    4.4263975    4.4263975    27134.438     48480.31     21298.35    11624.654   -1259.7606    8231.1548    8313.6846    86.726385 
   32800     1301.482   -99.472389    1.1776082   -98.294781   -23733.427    4.4327182    4.4327182    4.4327182   -23733.427   -3814.8708   -62012.988   -5372.4213    6999.2659    26945.736   -3950.4825    87.098436 
   32900    1629.4882   -99.745525    1.4743952    -98.27113    36366.897    4.4299844    4.4299844    4.4299844    36366.897    54413.765    26172.566    28514.361   -947.31924    1117.1524    10542.102    86.937386 
   33000    1451.7553   -99.589137    1.3135787   -98.275559   -21684.892    4.4407825    4.4407825    4.4407825   -21684.892   -21585.006   -25441.264   -18028.407    16208.916    9627.1278   -16381.063     87.57467 
   33100    2165.7819    -100.2271     1.959645   -98.267457   -19628.314    4.4388186    4.4388186    4.4388186   -19628.314    -40661.51    11165.555   -29388.986   -3196.9709    7218.2992    21749.688    87.458534 
   33200     1215.831   -99.377397    1.1001094   -98.277288    36855.086    4.4194267    4.4194267    4.4194267    36855.086    90666.165    24620.761   -4721.6664    9136.9064   -4702.2063   -7018.6368     86.31729 
   33300    1965.4922   -100.06708    1.7784187   -98.288665   -8083.7975    4.4209108    4.4209108    4.4209108   -8083.7975    22583.292   -5905.0741    -40929.61    1190.7125   -13621.032    16226.494    86.404283 
   33400    1768.8133   -99.890109    1.6004595   -98.289649     7049.491    4.4373207    4.4373207    4.4373207     7049.491    25919.804    29067.255   -33838.586   -16248.158    5325.9922    116.16746    87.370022 
   33500    1472.8089   -99.611659    1.3326284   -98.279031    -3378.844    4.4433349    4.4433349    4.4433349    -3378.844    -47907.17    68419.459   -30648.822   -28535.307   -17533.313     15527.73    87.725759 
   33600     2091.901   -100.14959     1.892796   -98.256799   -13673.347    4.4485478    4.4485478    4.4485478   -13673.347   -27905.572   -17179.088    4064.6207   -12655.681    3327.8252    3266.5832    88.034881 
   33700    1463.9238   -99.563953     1.324589   -98.239364    1777.0935    4.4459423    4.4459423    4.4459423    1777.0935    8042.2728    1123.8496   -3834.8418    5815.2303   -19151.157    4946.0229    87.880288 
   33800    1431.0506   -99.522858    1.2948446   -98.228013    18355.442    4.4456343    4.4456343    4.4456343    18355.442   -36240.945   -2376.0499     93683.32   -18028.855   -40833.931    10191.711    87.862026 
   33900    1192.8564   -99.295072    1.0793215   -98.215751    10033.902    4.4384172    4.4384172    4.4384172    10033.902    41452.038   -37808.733    26458.399   -18283.158   -32996.045    9361.2325    87.434807 
   34000    1959.4057   -99.993112    1.7729114   -98.220201    19373.689    4.4305363    4.4305363    4.4305363    19373.689   -2015.8106   -17699.719    77836.598   -3050.3431   -3181.3759    13527.313    86.969887 
   34100    1660.4202    -99.74239    1.5023831   -98.240007    -14471.42    4.4395038    4.4395038    4.4395038    -14471.42   -37549.627   -12220.374    6355.7412    5962.9637   -2387.9302   -10784.139    87.499039 
   34200    2250.3265   -100.25419    2.0361427   -98.218051   -17095.386    4.4360629    4.4360629    4.4360629   -17095.386   -25274.795    8180.0313   -34191.393    12923.727   -665.07682    6651.5829    87.295748 
   34300     1426.947   -99.530438    1.2911316   -98.239306   -983.83675    4.4413294    4.4413294    4.4413294   -983.83675    -39299.99    37942.188   -1593.7082   -5661.3871   -26845.824   -3699.4402    87.607031 
   34400     1784.842   -99.855778    1.6149626   -98.240815   -9508.4381    4.4297876    4.4297876    4.4297876   -9508.4381    925.52229   -33233.129    3782.2925   -18834.792   -17599.508    498.42334    86.925802 
   34500    1643.1726   -99.723877    1.4867771     -98.2371    26917.165    4.4148293    4.4148293    4.4148293    26917.165    48505.645    23129.677    9116.1743    13639.722     9101.271    3355.1935    86.048193 
   34600    1742.6772   -99.834844     1.576811   -98.258033   -3594.3695    4.4410303    4.4410303    4.4410303   -3594.3695   -46576.617    24715.182    11078.326   -19947.913   -1512.5095    218.41993    87.589331 
   34700    926.31123   -99.065087   0.83814587   -98.226941    12766.029    4.4489792    4.4489792    4.4489792    12766.029     59606.87   -58538.758    37229.975   -11836.479    -13850.23    10821.785    88.060493 
   34800    2205.7764   -100.21427    1.9958328   -98.218436    -16884.92    4.4310295    4.4310295    4.4310295    -16884.92   -1206.8152   -42425.336   -7022.6103   -14150.867    5762.1927    13127.699    86.998932 
   34900    1800.3419   -99.878783    1.6289872   -98.249796    9605.5267    4.4193266    4.4193266    4.4193266    9605.5267    37320.482   -50126.704    41622.802    16263.845   -1417.9368    -3737.572    86.311425 
   35000    1404.4332   -99.558041    1.2707607    -98.28728    12943.481    4.4301582    4.4301582    4.4301582    12943.481    29186.894   -10601.841    20245.391   -3474.8532   -4005.5727     5873.085    86.947623 
   35100    1723.0191   -99.832815    1.5590239   -98.273791   -3396.5781    4.4547781    4.4547781    4.4547781   -3396.5781    38177.787   -56136.465    7768.9438    19184.844   -2914.8718    2226.5925    88.405284 
   35200    1732.6816   -99.782898    1.5677667   -98.215131   -49041.922    4.4560891    4.4560891    4.4560891   -49041.922   -19768.515   -72059.431   -55297.819   -7652.4709     23.41206    1862.2074     88.48336 
   35300    2204.7982   -100.19241    1.9949478   -98.197462    5140.0314    4.4126301    4.4126301    4.4126301    5140.0314    18204.787   -29947.535    27162.842    19056.446    26965.973    7898.9372    85.919666 
   35400    1649.4367   -99.740668     1.492445   -98.248223    21812.958    4.4066482    4.4066482    4.4066482    21812.958    43474.251   -30658.588    52623.212    14534.254   -9959.7016    1298.7602     85.57071 
   35500    1851.6265   -99.970503    1.6753906   -98.295113   -35655.815    4.4231582    4.4231582    4.4231582   -35655.815   -9015.2768    -56173.88   -41778.288    34508.243    4838.0115     8320.941     86.53612 
   35600    1987.3039   -100.11507    1.7981544   -98.316914    9865.4922    4.4276128    4.4276128    4.4276128    9865.4922    68694.247   -39261.786    164.01595   -3757.9571     -6342.83    480.23111    86.797839 
   35700    892.60585   -99.125271   0.80764853   -98.317623    31421.574    4.4255567    4.4255567    4.4255567    31421.574    161829.82    -22242.69   -45322.406    38461.524    5593.6978   -4083.0973    86.676974 
   35800    1986.2731   -100.09254    1.7972217   -98.295317   -7363.8544    4.4384996    4.4384996    4.4384996   -7363.8544     3583.975   -48451.962    22776.424   -2367.2267    -8563.002    5857.7229    87.439681 
   35900     2084.573    -100.1409    1.8861655   -98.254737   -47205.013    4.4360426    4.4360426    4.4360426   -47205.013    -29520.82   -78927.052   -33167.168     17761.57   -544.58194    6765.3338    87.294551 
   36000     1839.771   -99.906239    1.6646635   -98.241575   -10670.189    4.4276216    4.4276216    4.4276216   -10670.189    22633.915   -43926.901   -10717.581   -14322.273   -4020.2144    757.03134    86.798357 
   36100    2031.8729   -100.09073    1.8384813   -98.252249    -29223.84    4.4215233    4.4215233    4.4215233    -29223.84    1738.0069   -68990.544   -20418.982    24830.434   -18969.593    7706.5438    86.440199 
   36200      1631.67    -99.76376    1.4763693   -98.287391    5262.0233    4.4111441    4.4111441    4.4111441    5262.0233    87533.521   -38077.763   -33669.688   -20551.126    15524.452    2623.3603    85.832891 
   36300    2035.2317   -100.15144    1.8415204   -98.309919   -7144.0057    4.3980493    4.3980493    4.3980493   -7144.0057    6634.7947   -44658.384    16591.573    35357.612   -27659.363   -1463.0055    85.070751 
   36400    1476.1754   -99.647502    1.3356745   -98.311827    42549.446    4.3994473    4.3994473    4.3994473    42549.446     100111.6   -21368.075     48904.81   -17409.755    12188.018    9479.1366    85.151903 
   36500    1532.5829   -99.698579    1.3867133   -98.311865   -21667.649     4.413197     4.413197     4.413197   -21667.649   -24288.812    -55329.21    14615.074    35748.454   -17704.762    6268.7448    85.952781 
   36600    2198.0231   -100.26749    1.9888175   -98.278677   -8720.5271    4.4235995    4.4235995    4.4235995   -8720.5271     42760.75   -64515.765   -4406.5664   -21707.142   -1636.3701    5343.1911    86.562024 
   36700    1219.9808   -99.371239    1.1038643   -98.267375   -6276.3756    4.4222415    4.4222415    4.4222415   -6276.3756   -24900.562   -50056.765      56128.2    26253.843    13529.253    8515.0335     86.48233 
   36800     2145.291   -100.18704    1.9411043    -98.24594   -12819.531    4.4020354    4.4020354    4.4020354   -12819.531    16064.127   -55515.921    993.19977   -19765.114   -13011.771   -8705.4984    85.302271 
   36900    1606.0828   -99.722224    1.4532175   -98.269006    29142.002    4.3911861    4.3911861    4.3911861    29142.002    13845.316   -31867.897    105448.59    37294.715    11444.149    26051.113    84.673115 
   37000     1740.431   -99.868945    1.5747786   -98.294167    8099.6486    4.4084081    4.4084081    4.4084081    8099.6486    50304.185    16032.473   -42037.712   -8228.9827    287.88191    5977.5188    85.673277 
   37100    1633.1837   -99.775765     1.477739   -98.298026    -29280.35     4.432255     4.432255     4.432255    -29280.35    27357.197   -70294.383   -44903.862    20868.213    3617.7257     16140.52    87.071137 
   37200    2072.4926    -100.1467    1.8752349   -98.271469   -25623.096    4.4133431    4.4133431    4.4133431   -25623.096    6247.5702   -43418.825   -39698.033    7422.4897   -1762.1301   -27778.451    85.961318 
   37300    1046.3832   -99.221301   0.94678947   -98.274511    24136.497    4.3815976    4.3815976    4.3815976    24136.497    123542.37    -34027.66   -17105.216    15080.838   -13026.075    33944.554    84.119652 
   37400    2186.7576    -100.2791    1.9786242   -98.300476   -10183.156    4.3840043    4.3840043    4.3840043   -10183.156    13481.278   -11121.104   -32909.642    913.12284    15620.115   -12503.344    84.258343 
   37500    1739.5871   -99.902133     1.574015   -98.328118   -35266.326    4.4092127    4.4092127    4.4092127   -35266.326   -27434.904   -29999.439   -48364.635   -1055.6692   -11364.361    3509.3865    85.720196 
   37600    1751.3786   -99.892859    1.5846841   -98.308175   -16484.637    4.4293131    4.4293131    4.4293131   -16484.637    59819.898   -51181.785   -58092.022    9043.5446   -15770.726   -8895.3539    86.897871 
   37700     1768.792   -99.882799    1.6004401   -98.282359   -26512.945    4.4122439    4.4122439    4.4122439   -26512.945    -25574.51    13265.332   -67229.656   -2738.1611   -24608.235    16937.194    85.897105 
   37800    1545.0353   -99.661709    1.3979804   -98.263729    21260.454    4.3858768    4.3858768    4.3858768    21260.454    98249.537    6624.4996   -41092.673   -3655.6329    5142.0851   -19134.837    84.366355 
   37900    1487.7259    -99.65128    1.3461256   -98.305154    24961.972    4.3966642    4.3966642    4.3966642    24961.972    99800.912     12070.49   -36985.485    11108.432   -17245.365    13110.943    84.990406 
   38000    1238.0527   -99.446725    1.1202161   -98.326509   -19740.199     4.410531     4.410531     4.410531   -19740.199    29015.004   -5457.4308    -82778.17    1426.7986   -6960.3683   -19627.902    85.797104 
   38100    2341.9369   -100.43189    2.1190337   -98.312856     2172.591    4.4122972    4.4122972    4.4122972     2172.591   -4499.8131    21157.977   -10140.391    11635.696    4817.3785    1052.9386    85.900218 
   38200    1386.8921    -99.56837    1.2548891   -98.313481   -25035.576    4.4241455    4.4241455    4.4241455   -25035.576    7781.5049   -7325.8516   -75562.381    5340.2796    18277.348   -20482.966    86.594079 
   38300    1888.1164   -99.980835    1.7084074   -98.272428   -10606.428    4.4102527    4.4102527    4.4102527   -10606.428    34654.679    -41551.73   -24922.231   -5205.1651   -5180.4372      2876.69    85.780865 
   38400    1854.5907   -99.948555    1.6780726   -98.270482    4340.1626     4.397119     4.397119     4.397119    4340.1626    9748.9736    22768.531   -19497.017    -8812.885    2214.4143   -21257.036    85.016782 
   38500    1864.3903   -99.981012    1.6869395   -98.294073    -13455.31     4.403825     4.403825     4.403825    -13455.31    31237.413   -28472.181   -43131.162   -4391.3292   -16286.197    12152.099    85.406349 
   38600    1150.2132   -99.367783    1.0407371   -98.327045    33281.896    4.4103705    4.4103705    4.4103705    33281.896    92694.686    13266.265   -6115.2626    2247.2178    10145.346   -17414.069    85.787738 
   38700    1797.3994    -99.93374    1.6263248   -98.307415   -14961.084    4.4280353    4.4280353    4.4280353   -14961.084   -5825.1514   -1423.6826   -37634.419    -16358.92   -15314.356     22845.36    86.822688 
   38800    1923.0131   -100.00463    1.7399826   -98.264646   -43778.986    4.4253412    4.4253412    4.4253412   -43778.986   -30680.006   -40734.466   -59922.485    18063.701    3973.4058    2121.7397    86.664308 
   38900    1493.3593   -99.592644    1.3512229   -98.241421    37472.708    4.3943729    4.3943729    4.3943729    37472.708    109184.86    16768.126   -13534.865   -39.471706   -5808.5371     8235.377    84.857595 
   39000    1843.2944   -99.948133    1.6678515   -98.280282   -6485.1628    4.3984349    4.3984349    4.3984349   -6485.1628    32290.748   -12709.899   -39036.337    500.40567    1060.2428     1440.528     85.09313 
   39100    2323.6492   -100.40341    2.1024866   -98.300924   -20954.337    4.4127309    4.4127309    4.4127309   -20954.337   -12476.747   -34737.214   -15649.051    9526.1361   -2975.1565    8742.4457    85.925552 
   39200    1807.9585   -99.966748    1.6358788    -98.33087   -12619.305    4.4152174    4.4152174    4.4152174   -12619.305    6978.1415   -24593.688    -20242.37    6912.2292    13282.962   -374.41727    86.070884 
   39300    2194.1598   -100.30902    1.9853219   -98.323698   -17404.743    4.4198422    4.4198422    4.4198422   -17404.743    17023.324   -50280.115   -18957.439    3658.3448    13999.561     -12123.2     86.34164 
   39400    1414.4336   -99.602589    1.2798092    -98.32278   -4187.4412    4.4048697    4.4048697    4.4048697   -4187.4412    38393.913   -14473.443   -36482.794    44635.703   -3244.2146    3616.5786    85.467144 
   39500    1921.6777   -100.06841    1.7387744   -98.329639    20474.348    4.3923036    4.3923036    4.3923036    20474.348     83718.31   -9289.1064   -13006.159   -7401.1096   -2353.8017   -5266.1298    84.737773 
   39600     761.6862   -99.060028   0.68918968   -98.370838   -2232.7014    4.4131627    4.4131627    4.4131627   -2232.7014     47531.75   -21798.441   -32431.413     30776.66    1857.1357   -2917.4209    85.950778 
   39700    1693.3985   -99.872684    1.5322225   -98.340462    17192.794    4.4156456    4.4156456    4.4156456    17192.794    84077.352    14821.351   -47320.322    2581.3419    5157.6086    12283.645    86.095929 
   39800    1481.8429   -99.690641    1.3408026   -98.349839   -5798.6739    4.4119067    4.4119067    4.4119067   -5798.6739   -7701.2474   -16099.603    6404.8283    28272.184    16066.068   -6919.5239    85.877411 
   39900    2248.6947   -100.37138    2.0346663   -98.336709   -3524.1737    4.4071238    4.4071238    4.4071238   -3524.1737    2476.2301    30385.673   -43434.424   -6613.8457   -3131.8386   -2154.8056    85.598419 
   40000    1772.2855   -99.960836    1.6036012   -98.357234   -12862.644    4.3980374    4.3980374    4.3980374   -12862.644    6287.9607   -12837.649   -32038.245     47217.52   -2992.6877     -8510.79    85.070063 
   40100    2355.1979   -100.48025    2.1310325   -98.349214    6564.9362    4.4028449    4.4028449    4.4028449    6564.9362    731.38565    37621.491   -18658.068   -23215.334   -188.24772   -1400.0201    85.349339 
   40200    1267.8586   -99.494826    1.1471851    -98.34764   -14877.565    4.4156413    4.4156413    4.4156413   -14877.565    21102.769   -29012.493   -36722.971    48364.007    9060.4934    1564.7732     86.09568 
   40300    1636.3011   -99.800393    1.4805597   -98.319833    821.41459    4.4184546    4.4184546    4.4184546    821.41459    11858.254    18016.472   -27410.482   -13738.326   -2667.4099   -9153.3921    86.260344 
   40400    1910.1692   -100.03466    1.7283612   -98.306298   -20068.667    4.4098009    4.4098009    4.4098009   -20068.667   -20972.417   -11488.247   -27745.335    52510.768   -10017.781    6836.5073    85.754505 
   40500    1537.7305   -99.698597    1.3913708   -98.307226    15346.816    4.4037312    4.4037312    4.4037312    15346.816    14152.791    56595.216   -24707.558   -9505.7297   -1643.5595   -12321.967    85.400889 
   40600    1703.5566   -99.854129    1.5414138   -98.312715    15208.167    4.4033808    4.4033808    4.4033808    15208.167    61820.014   -5327.6153   -10867.898    22759.807    9128.0636    10995.083    85.380509 
   40700    1745.2537   -99.897715    1.5791422   -98.318573   -10288.498    4.4165395    4.4165395    4.4165395   -10288.498   -23368.312    13003.845   -20501.027   -7462.0423    447.61207   -615.67218    86.148232 
   40800    1030.9475   -99.245263   0.93282294    -98.31244    28365.001    4.4106432    4.4106432    4.4106432    28365.001    47446.986    58379.138    -20731.12     15467.04   -1363.1225    12856.627    85.803653 
   40900    1714.0854   -99.855519    1.5509405   -98.304579     18673.09    4.3972906    4.3972906    4.3972906     18673.09    1658.5785    90731.328   -36370.637   -4114.3452   -4418.4163   -12551.289    85.026736 
   41000     1558.961    -99.73941    1.4105807   -98.328829    -802.7691    4.3871403    4.3871403    4.3871403    -802.7691    11568.428    37386.996   -51363.731    11253.169    203.91873    36748.481    84.439289 
   41100    2292.0771   -100.40903    2.0739195    -98.33511    1240.5233     4.391576     4.391576     4.391576    1240.5233   -14471.802    29191.967   -10998.595   -12564.797   -3415.0284   -7649.2407    84.695671 
   41200    1235.7223   -99.456338    1.1181075    -98.33823    10473.629    4.4088949    4.4088949    4.4088949    10473.629    23891.613    86652.909   -79123.634   -4147.9701   -2693.4597    16194.517    85.701663 
   41300    2205.2947   -100.29277     1.995397   -98.297372   -25447.434     4.422791     4.422791     4.422791   -25447.434   -38275.131    11639.485   -49706.656   -4293.3111    1689.6135    10678.023    86.514568 
   41400    1507.8448   -99.642517    1.3643296   -98.278188     11475.34    4.4106858    4.4106858    4.4106858     11475.34   -1902.4145    64375.465    -28047.03   -6532.9004    873.23996    29743.344     85.80614 
   41500    1668.9765   -99.778802     1.510125   -98.268677    30596.834    4.3996878    4.3996878    4.3996878    30596.834    25978.924    95555.271   -29743.694   -11370.598    1004.9837   -15393.704    85.165867 
   41600    2060.7274    -100.1361    1.8645894   -98.271508   -18992.903    4.3975864    4.3975864    4.3975864   -18992.903   -37441.817    13747.126   -33284.018    21702.755    2670.9168    28666.864    85.043898 
   41700    1156.9249   -99.339525    1.0468099   -98.292715    33968.475    4.3996966    4.3996966    4.3996966    33968.475    21277.288    102074.04   -21445.903   -22521.493    4018.3891   -491.13741    85.166379 
   41800    2177.6188   -100.25887    1.9703553   -98.288515   -14188.598    4.4092708    4.4092708    4.4092708   -14188.598   -17768.033    25296.372   -50094.133    22693.914    7480.2546    8741.1147    85.723581 
   41900    1505.9825   -99.656784    1.3626446   -98.294139    3980.2659    4.4089638    4.4089638    4.4089638    3980.2659   -17840.363    76116.126   -46334.965   -10604.911    3281.5179    733.62435    85.705679 
   42000      1900.25   -100.00759    1.7193862   -98.288208   -20844.579    4.4139359    4.4139359    4.4139359   -20844.579   -14156.142   -20174.789   -28202.807    1148.8895     2822.014   -5654.9105    85.995964 
   42100    1594.5463   -99.719923     1.442779   -98.277143    4966.3042    4.3966849    4.3966849    4.3966849    4966.3042   -13907.901    39238.529   -10431.715   -6481.2536     5135.425    11909.545    84.991602 
   42200    1915.5493   -100.00404    1.7332292   -98.270813   -2469.4047     4.392931     4.392931     4.392931   -2469.4047   -33018.266    25626.442   -16.390877    8730.3171    2933.6894   -16933.562    84.774094 
   42300    1787.8333   -99.899508    1.6176692   -98.281839   -16929.958    4.4116039    4.4116039    4.4116039   -16929.958    -12781.71   -6075.3791   -31932.786   -4945.2547   -3832.4609    19766.056    85.859734 
   42400     1654.814   -99.772978    1.4973105   -98.275667   -2198.6543    4.4125468    4.4125468    4.4125468   -2198.6543   -23411.943     60642.84    -43826.86   -9790.2125   -2391.8821   -17632.956    85.914801 
   42500    2069.7998   -100.14999    1.8727984   -98.277196    -2677.961    4.4113031    4.4113031    4.4113031    -2677.961   -30796.569    56330.294   -33567.608   -16237.935    1666.7438     8012.749    85.842171 
   42600    1410.5498   -99.590942    1.2762951   -98.314647    1995.8711    4.4071671    4.4071671    4.4071671    1995.8711     5144.361     77587.71   -76744.458    10138.867    3690.4729   -25312.131    85.600945 
   42700     2675.362   -100.75186    2.4207237   -98.331136   -33746.388     4.412933     4.412933     4.412933   -33746.388   -67930.072    17508.873   -50817.966   -14779.524     3454.935    12282.771     85.93736 
   42800    872.74467   -99.116131   0.78967772   -98.326454    57415.092    4.4095324    4.4095324    4.4095324    57415.092    12479.642    170007.45   -10241.819    589.54371    941.00801   -17602.362     85.73884 
   42900    1883.3756   -100.02119    1.7041178   -98.317069   -20291.953    4.4176388    4.4176388    4.4176388   -20291.953   -58535.391    42033.747   -44374.215    3210.2335    12452.049     6615.255    86.212574 
   43000    2011.3622   -100.10504    1.8199228   -98.285114    11556.963    4.4091171    4.4091171    4.4091171    11556.963   -3878.1501    78290.943   -39741.904    13010.256   -1071.3463   -11608.142    85.714619 
   43100    780.53403   -99.011047   0.70624359   -98.304803   -5320.4817    4.4034054    4.4034054    4.4034054   -5320.4817   -41588.406    74459.345   -48832.384    9922.5849    15299.968    2973.8176    85.381938 
   43200    2502.8665   -100.55778    2.2646462   -98.293136   -700.92946    4.3933951    4.3933951    4.3933951   -700.92946   -29440.215    49394.943   -22057.516   -6425.4561   -22619.635   -2122.0702    84.800962 
   43300    1512.0546   -99.692705    1.3681388   -98.324566   -8991.8227    4.4022466    4.4022466    4.4022466   -8991.8227     -20909.3    26378.891    -32445.06   -9329.4089    20167.167   -19315.327    85.314547 
   43400    1155.3539   -99.365846    1.0453885   -98.320457   -11956.605    4.4109231    4.4109231    4.4109231   -11956.605   -3879.9642    7126.3617   -39116.212    17982.275   -17472.577    22739.595     85.81999 
   43500    2898.1229   -100.91086    2.6222825   -98.288579   -22567.194    4.4028292    4.4028292    4.4028292   -22567.194   -23949.287    1618.8156   -45371.111   -37645.992    7973.6695   -9562.1067    85.348427 
   43600     851.4453   -99.075632    0.7704056   -98.305227    10959.784    4.3951024    4.3951024    4.3951024    10959.784    2421.7315    54823.154   -24365.534    22647.913   -13549.057    22032.041    84.899864 
   43700    2446.3899   -100.51696     2.213545   -98.303415    -14083.33     4.399862     4.399862     4.399862    -14083.33   -13057.299    13883.242   -43075.933   -26363.224     16917.77    -8253.102    85.175988 
   43800    1653.0137   -99.811469    1.4956815   -98.315787    -20019.74    4.4121319    4.4121319    4.4121319    -20019.74   -23862.524    9260.2258    -45456.92    8928.3087   -15205.293    10081.574    85.890567 
   43900    1829.8011   -99.966677    1.6556425   -98.311035    1869.8877    4.4071307    4.4071307    4.4071307    1869.8877    48038.046   -12057.851   -30370.531    7657.4433    23434.376   -7375.0666    85.598823 
   44000    1928.7682   -100.05082      1.74519   -98.305628   -6473.0336    4.4164019    4.4164019    4.4164019   -6473.0336   -22294.162    22223.664   -19348.602   -23.405028    9845.9576   -2241.0294    86.140181 
   44100    1635.0023   -99.783905    1.4793844   -98.304521    21385.675    4.4085003    4.4085003    4.4085003    21385.675    75751.227    9787.0757   -21381.277    9526.1059    3543.0225   -6225.4389    85.678655 
   44200    1689.3633   -99.840992    1.5285714    -98.31242   -622.66526    4.4001656    4.4001656    4.4001656   -622.66526    9408.2281    34901.006    -46177.23   -6594.1945    20538.218   -10120.704    85.193617 
   44300    1859.2863   -99.999836    1.6823214   -98.317515    45095.941     4.399976     4.399976     4.399976    45095.941    84373.765    52791.131   -1877.0743    26237.554    3891.7168   -16851.413    85.182606 
   44400    1427.4784   -99.623722    1.2916125    -98.33211   -18592.698    4.4163524    4.4163524    4.4163524   -18592.698   -11364.767   -12260.771   -32152.556   -10139.562    21040.008   -17354.247     86.13728 
   44500    1943.9058   -100.05949    1.7588868   -98.300599   -790.67276    4.4160141    4.4160141    4.4160141   -790.67276   -1625.6368    35359.287   -36105.668   -7943.8782   -15872.525     6322.968     86.11749 
   44600    1990.9639   -100.08783     1.801466   -98.286362     19556.97    4.3936402    4.3936402    4.3936402     19556.97    52111.974   -11550.602    18109.538   -9568.1644     31703.65   -15732.529    84.815157 
   44700    1561.3499   -99.738043    1.4127422   -98.325301   -36890.329    4.4131758    4.4131758    4.4131758   -36890.329   -20540.347   -30951.515   -59179.125   -2783.9898   -33076.076    17358.806    85.951546 
   44800    1813.0043   -99.945524    1.6404444    -98.30508    11830.147    4.4119831    4.4119831    4.4119831    11830.147   -40443.987    99375.998    -23441.57   -17683.105    12819.355   -778.30674    85.881874 
   44900    1520.8864   -99.679128      1.37613   -98.302998    17235.889    4.4042295    4.4042295    4.4042295    17235.889    10087.607     71408.38   -29788.321   -6806.7508   -6891.9272    20538.457    85.429887 
   45000     1943.756   -100.05762    1.7587513   -98.298873   -16303.832    4.4101603    4.4101603    4.4101603   -16303.832   -21054.529    28182.389   -56039.357    21698.483    19735.017    9224.8132    85.775474 
   45100    2324.4808   -100.41167    2.1032391   -98.308435   -39671.534    4.4140981    4.4140981    4.4140981   -39671.534   -57829.268   -2116.4976   -59068.837   -4376.0666   -21855.605    3672.2019    86.005444 
   45200    1003.3522   -99.234027   0.90785411   -98.326173     15871.54    4.4141509    4.4141509    4.4141509     15871.54    1113.7871      83615.7   -37114.868   -14539.334    15859.019    8979.2716    86.008529 
   45300    2235.2887   -100.32834    2.0225362   -98.305803   -17217.892    4.4162232    4.4162232    4.4162232   -17217.892   -48684.237    38346.682   -41316.121    3756.4784    1790.0513   -13230.022     86.12972 
   45400    1941.4834   -100.07362     1.756695   -98.316921   -19646.266    4.4173694    4.4173694    4.4173694   -19646.266   -14158.338   -14948.924   -29831.536   -3238.1489    7039.0166    17444.834    86.196801 
   45500    1411.3128    -99.57348    1.2769855   -98.296494    19715.786    4.4133223    4.4133223    4.4133223    19715.786   -15160.159    88665.495   -14357.979   -2535.3379    3739.4722   -5926.1782    85.960103 
   45600    2263.9653   -100.33257    2.0484834   -98.284085    -28644.43    4.4190709    4.4190709    4.4190709    -28644.43   -41744.752    -26617.79   -17570.749   -11133.483    6304.4783    15035.545    86.296445 
   45700    1264.2838   -99.408837    1.1439506   -98.264887    4225.7287    4.4227256    4.4227256    4.4227256    4225.7287   -28564.146    65687.798   -24446.465    3236.4917     10395.89   -13599.495    86.510732 
   45800    2412.7572   -100.43098    2.1831134   -98.247867   -19740.329      4.41119      4.41119      4.41119   -19740.329   -18064.987    -12013.47    -29142.53   -13692.121    621.76892    26371.954     85.83557 
   45900    1344.7804   -99.488072    1.2167856   -98.271287   -5921.9768    4.3951472    4.3951472    4.3951472   -5921.9768   -22140.077   -7375.7834     11749.93   -17013.847    7533.5008   -22.201454    84.902462 
   46000    1754.0352   -99.864396    1.5870879   -98.277308    15220.858    4.3989917    4.3989917    4.3989917    15220.858    36024.582     15251.93   -5613.9367    9081.3081    1919.3012    17393.267     85.12545 
   46100    1798.9403   -99.922208     1.627719   -98.294489   -23413.019    4.4113923    4.4113923    4.4113923   -23413.019   -53768.908   -34782.362    18312.214    -13580.31     14526.97    11797.156    85.847382 
   46200    1589.8495   -99.712712    1.4385293   -98.274183   -22606.393    4.4217908    4.4217908    4.4217908   -22606.393   -13094.673   -49521.951   -5202.5554    2184.4103   -838.65297   -2096.0365    86.455888 
   46300    1686.6076   -99.789134     1.526078   -98.263056   -22780.242    4.4098211    4.4098211    4.4098211   -22780.242    568.75454   -37138.083   -31771.397    8315.4617    22141.377    6722.5006    85.755686 
   46400     1784.063   -99.859131    1.6142577   -98.244874   -3363.1436    4.3921655    4.3921655    4.3921655   -3363.1436   -4979.2372   -36882.122    31771.928    468.49086   -6035.1693    2210.0783    84.729781 
   46500    1623.3572   -99.746937    1.4688477    -98.27809   -32308.578    4.3968889    4.3968889    4.3968889   -32308.578   -12660.333   -34766.211   -49499.191   -8286.8884      34019.4    8102.0667    85.003432 
   46600    1674.3222   -99.795495    1.5149619   -98.280533    7379.6137    4.4141367    4.4141367    4.4141367    7379.6137   -17418.355    8164.9498    31392.247    13614.415   -18389.491    -18930.45    86.007699 
   46700    1376.7429   -99.519125    1.2457059   -98.273419    -7232.725    4.4226911    4.4226911    4.4226911    -7232.725    18223.603   -11109.738    -28812.04   -1482.6415    25119.664     16848.49     86.50871 
   46800    2053.3435    -100.1155    1.8579083   -98.257595   -5628.6052    4.4119314    4.4119314    4.4119314   -5628.6052   -30379.755    5249.9851    8243.9544    2109.4777   -16758.185    -13938.86    85.878855 
   46900    1486.4409   -99.593912     1.344963   -98.248949    36179.976    4.3854896    4.3854896    4.3854896    36179.976    65095.573    26392.563    17051.791    13753.978    17063.889    10113.155    84.344014 
   47000    1709.4696   -99.832529     1.546764   -98.285765    18497.925    4.3900077    4.3900077    4.3900077    18497.925   -13012.722    47525.887     20980.61    10831.814   -2457.4898   -5944.2115    84.604963 
   47100    1784.3374   -99.932864     1.614506   -98.318359    382.01699     4.423316     4.423316     4.423316    382.01699    16550.035   -6217.1164   -9186.8672      446.585    1711.3935   -8597.7113    86.545382 
   47200    1458.1367     -99.5938    1.3193527   -98.274447   -3605.5872    4.4375668    4.4375668    4.4375668   -3605.5872    -75447.82    79621.068   -14990.009    20592.447   -3033.5708    2828.4267    87.384559 
   47300    2114.7897   -100.16026    1.9135061   -98.246756   -28436.726    4.4184101    4.4184101    4.4184101   -28436.726   -27210.114   -10745.773   -47354.291   -24364.909    24840.024   -31929.578     86.25774 
   47400    1632.8222   -99.712046    1.4774119   -98.234634    38229.732    4.3834447    4.3834447    4.3834447    38229.732    14425.711    70457.715     29805.77    43507.552   -10206.226    866.42201    84.226079 
   47500    2042.0358   -100.13723    1.8476769   -98.289555   -33153.405    4.3942999    4.3942999    4.3942999   -33153.405   -33024.299   -44015.934   -22419.982   -23779.579    25377.947   -19901.161    84.853365 
   47600    1585.3408   -99.748773    1.4344497   -98.314324   -634.27804    4.4159975    4.4159975    4.4159975   -634.27804    -48431.65    68113.302   -21584.487    19770.867   -4971.3457   -4604.9175    86.116517 
   47700    1920.7498    -100.0231    1.7379348   -98.285166   -22382.655    4.4351964    4.4351964    4.4351964   -22382.655   -60051.707     1092.822   -8189.0804   -14985.431    2633.9352    1691.1503    87.244605 
   47800    1288.6727   -99.419002    1.1660181   -98.252984    8730.2882      4.42412      4.42412      4.42412    8730.2882   -48048.086    69111.518    5127.4325    23613.689    6932.0074   -1276.8518     86.59258 
   47900     1851.627   -99.927083     1.675391   -98.251692    22974.368    4.3968431    4.3968431    4.3968431    22974.368    8263.4233    91213.495   -30553.814   -6235.6275   -9925.3427   -7369.5139    85.000777 
   48000    1696.9217   -99.846161    1.5354104    -98.31075   -9540.4388    4.3972893    4.3972893    4.3972893   -9540.4388   -40446.484    -419.3668    12244.534   -8225.9973    14777.845    -9126.607    85.026659 
   48100    1539.1362   -99.710497    1.3926428   -98.317854    13123.055    4.4147923    4.4147923    4.4147923    13123.055   -30109.088    98713.556   -29235.303    11506.624    -14873.27   -13839.236     86.04603 
   48200    1902.5095   -100.01914    1.7214306   -98.297714   -16119.998    4.4233287    4.4233287    4.4233287   -16119.998    2305.2538   -8700.9084    -41964.34   -23609.416    2187.0488   -2417.2266    86.546126 
   48300    1512.4405   -99.641138     1.368488    -98.27265    14305.825    4.4178718    4.4178718    4.4178718    14305.825   -21374.787    119579.66   -55287.402   -711.48766    -7467.641    16030.575    86.226215 
   48400    1880.4335   -99.983538    1.7014557   -98.282082   -13583.737     4.405213     4.405213     4.405213   -13583.737   -13371.231   -10098.302   -17281.678    -11226.25    9222.8937   -16785.645    85.487132 
   48500    1174.7964   -99.370065    1.0629805   -98.307085    49013.089    4.4039819    4.4039819    4.4039819    49013.089    46521.123    140790.58   -40272.438    1252.1472    -14210.66   -5413.6914    85.415481 
   48600    2086.0469   -100.19234    1.8874991   -98.304842   -30502.034    4.4231563    4.4231563    4.4231563   -30502.034   -46242.381    -38814.96   -6448.7603   -12558.386     15051.25    5600.1975    86.536006 
   48700    1614.6112    -99.73734    1.4609341   -98.276406   -33771.886    4.4303443    4.4303443    4.4303443   -33771.886   -40892.485    25003.198   -85426.371     4452.333   -23540.732   -18934.269    86.958577 
   48800     1547.753   -99.641701    1.4004395   -98.241262    30782.873    4.4174947    4.4174947    4.4174947    30782.873    3609.5773    66215.958    22523.085   -15008.707     16564.56   -15748.979    86.204137 
   48900    1674.9319   -99.768912    1.5155136   -98.253399   -35844.903    4.4173708    4.4173708    4.4173708   -35844.903   -59146.467   -9588.6757   -38799.568   -29484.438   -24976.021    -3486.874    86.196885 
   49000    1952.1793    -100.0239    1.7663729    -98.25753    38019.405     4.412937     4.412937     4.412937    38019.405    2503.6601    95863.029    15691.528    11198.265    3897.9727   -18422.109    85.937593 
   49100    1502.9399   -99.655912    1.3598916   -98.296021    -42850.14    4.4273899    4.4273899    4.4273899    -42850.14   -10267.391   -54788.594   -63494.436   -7460.2253   -30651.605    111.36081    86.784731 
   49200    2249.2323   -100.30651    2.0351526   -98.271359    7767.2044    4.4129949    4.4129949    4.4129949    7767.2044    6500.6655    30205.959   -13405.012    10259.283   -3235.7501   -11479.328    85.940976 
   49300    1180.8144   -99.352328    1.0684257   -98.283903    45756.665    4.3995375    4.3995375    4.3995375    45756.665    109328.68   -26401.496    54342.807   -4004.5686   -12068.258   -6965.4996    85.157141 
   49400    2672.1448   -100.70322    2.4178128   -98.285403   -36699.445    4.4205315    4.4205315    4.4205315   -36699.445   -38741.391   -48283.662   -23073.281    24828.373   -3854.3982   -3044.4398    86.382044 
   49500    1331.3165   -99.497349    1.2046032   -98.292746    2564.3331    4.4304274    4.4304274    4.4304274    2564.3331    45526.365   -37474.354   -359.01124   -3870.5772   -18501.128   -16766.426    86.963471 
   49600    1421.1735   -99.568737    1.2859077   -98.282829     25313.13    4.4221374    4.4221374    4.4221374     25313.13    62430.673   -15463.767    28972.483    14548.228    7335.1885    7225.2254    86.476218 
   49700    1772.1252   -99.878806    1.6034561    -98.27535    25325.997    4.4036923    4.4036923    4.4036923    25325.997    49137.637    10829.067    16011.288   -16114.589   -4614.2569   -18728.358    85.398628 
   49800    2158.3622   -100.23824    1.9529315   -98.285308   -2485.3581    4.4148215    4.4148215    4.4148215   -2485.3581    3846.8647   -20285.014    8982.0745   -1328.9555    581.40232    20579.929    86.047734 
   49900    1107.5462   -99.297292     1.002131   -98.295161    20043.979    4.4341917    4.4341917    4.4341917    20043.979    111808.35   -65619.184    13942.765   -11060.569   -25390.086   -22358.721    87.185328 
   50000    1512.3536   -99.632721    1.3684093   -98.264311    20990.784    4.4352566    4.4352566    4.4352566    20990.784   -24537.528   -7318.0542    94827.933   -6050.6662   -14681.567    7218.2319    87.248154 
   50100    1927.0053   -99.990882    1.7435949   -98.247287   -22272.219    4.4259035    4.4259035    4.4259035   -22272.219   -14910.489   -51603.743   -302.42368   -2727.7007   -1931.6242   -29854.888     86.69735 
   50200    1996.1847   -100.05498    1.8061898   -98.248793    30402.304    4.4157805    4.4157805    4.4157805    30402.304    52188.889   -19781.736    58799.759    5067.2661   -10203.953     9756.394     86.10382 
   50300    892.93882    -99.08808   0.80794981    -98.28013     31181.56    4.4230343    4.4230343    4.4230343     31181.56    15933.449   -35775.732    113386.96   -8843.9288    17124.425   -23208.455     86.52885 
   50400    2140.0713   -100.19257    1.9363815    -98.25619   -9514.0348    4.4304198    4.4304198    4.4304198   -9514.0348    25856.195   -49315.084   -5083.2149   -10612.001    6276.9872    2218.5623    86.963027 
   50500    1526.8393   -99.634869    1.3815163   -98.253353   -8430.6217    4.4226498    4.4226498    4.4226498   -8430.6217    916.89784   -63769.753     37560.99    309.74137    9640.0637   -101.37748    86.506283 
   50600    2279.5407   -100.31669    2.0625763   -98.254116   -14977.792    4.4225531    4.4225531    4.4225531   -14977.792    16213.056   -28229.199   -32917.234    5377.3291   -14002.328     10731.34    86.500611 
   50700    1950.5109   -100.03486    1.7648633   -98.269999   -15504.348    4.4293023    4.4293023    4.4293023   -15504.348    49365.816   -70517.947   -25360.914    4462.0459   -3893.3341   -10322.601    86.897239 
   50800    1530.3901    -99.63664    1.3847291   -98.251911   -4658.7686    4.4402806    4.4402806    4.4402806   -4658.7686    36147.852   -39011.277   -11112.881   -9188.1128   -3194.3599     20650.67    87.544981 
   50900    1702.2802   -99.782202    1.5402589   -98.241943    -9843.912    4.4200032    4.4200032    4.4200032    -9843.912   -4764.7964   -56616.082    31849.143    15212.899   -20928.866    3606.0389    86.351077 
   51000    1835.1448   -99.914152    1.6604775   -98.253674    24687.907     4.414735     4.414735     4.414735    24687.907    45316.181    43218.049   -14470.508   -812.08597   -1074.9841    6246.6246    86.042676 
   51100    1457.8101   -99.591596    1.3190573   -98.272538   -15048.196    4.4290772    4.4290772    4.4290772   -15048.196   -43950.346    -31091.78    29897.538    12480.775   -1546.1281    2412.8344     86.88399 
   51200    1957.3397   -100.02906    1.7710421   -98.258016    14846.237     4.427295     4.427295     4.427295    14846.237    12885.077    28801.769    2851.8662   -1956.6562   -802.91265    2861.2031    86.779148 
   51300    1417.0118   -99.541886    1.2821421   -98.259744   -12029.987    4.4218069    4.4218069    4.4218069   -12029.987   -15577.573     11862.89   -32375.278    18298.295   -2957.6494    -8220.485    86.456833 
   51400    1943.6276   -100.00643    1.7586351   -98.247793    7338.7957    4.4222614    4.4222614    4.4222614    7338.7957    43798.032   -12564.179   -9217.4662    6460.5014    6501.1753   -10900.455    86.483494 
   51500    1900.1036   -99.972471    1.7192537   -98.253218   -20849.868     4.430376     4.430376     4.430376   -20849.868   -35478.171     31284.43   -58355.863    7444.8503    3735.6117    6018.1769    86.960445 
   51600     1520.322   -99.614021    1.3756193   -98.238402    15277.849    4.4345411    4.4345411    4.4345411    15277.849    49847.096    37935.925   -41949.474   -17717.343    -9915.605   -12716.212     87.20594 
   51700    2114.2208   -100.15906    1.9129914    -98.24607   -31087.225    4.4267131    4.4267131    4.4267131   -31087.225   -21158.676   -58879.464   -13223.535    20551.574   -1545.4998   -7192.5226    86.744936 
   51800    1745.4202   -99.820977    1.5792929   -98.241684    23813.981    4.4135149    4.4135149    4.4135149    23813.981    20398.004    63284.019   -12240.079   -7120.4453   -3599.8538    6178.6239    85.971362 
   51900    1898.1377   -99.972913    1.7174749   -98.255438   -16526.669    4.4200614    4.4200614    4.4200614   -16526.669   -1089.2945   -50489.521    1998.8066     1601.499   -4259.5453    4556.9219    86.354485 
   52000     1533.857   -99.639146    1.3878661    -98.25128   -5578.5134    4.4282515    4.4282515    4.4282515   -5578.5134   -46936.466    32238.046   -2037.1208   -7149.3543   -4674.4418   -13744.393    86.835403 
   52100    1656.1586   -99.742771    1.4985271   -98.244244   -4037.7196    4.4190118    4.4190118    4.4190118   -4037.7196    19826.992   -16353.364   -15586.787   -1380.1782    57.848039     9590.999    86.292986 
   52200     2142.788   -100.18322    1.9388396   -98.244377   -4112.3814    4.4062971    4.4062971    4.4062971   -4112.3814   -23656.702   -3692.0068    15011.565   -19107.541    10468.454    3352.1954    85.550259 
   52300    1258.8709   -99.422145    1.1390528   -98.283092    26280.221    4.4240852    4.4240852    4.4240852    26280.221    51252.407    19893.676    7694.5799   -3083.4669   -16321.388    5997.0271     86.59054 
   52400    2260.1774   -100.29993     2.045056   -98.254873   -42449.786    4.4440637    4.4440637    4.4440637   -42449.786    -60856.79   -59198.661   -7293.9072   -11823.457   -4100.3983   -11477.678    87.768936 
   52500    2075.8225   -100.09813    1.8782478   -98.219878   -26265.694    4.4376847    4.4376847    4.4376847   -26265.694   -28540.709   -50028.702   -227.67086    16566.425    9416.3216   -7467.9267    87.391526 
   52600    1789.7154   -99.843283    1.6193721   -98.223911    6595.6043    4.4282952    4.4282952    4.4282952    6595.6043   -40235.174    6655.8877    53366.099   -15792.925   -7994.4394    14880.014    86.837974 
   52700    1923.0151    -99.96983    1.7399845   -98.229846   -612.46108    4.4297945    4.4297945    4.4297945   -612.46108   -62671.732   -8552.4067    69386.755    8260.1057    924.32642   -8597.9577     86.92621 
   52800    1197.2325   -99.334512    1.0832811   -98.251231    24377.781    4.4324631    4.4324631    4.4324631    24377.781   -18588.089   -27030.495    118751.93    1830.8122      5092.16   -404.14144    87.083401 
   52900     1940.611   -100.02455    1.7559056   -98.268648   -26062.254     4.428042     4.428042     4.428042   -26062.254   -43100.006   -16785.121   -18301.637   -105.44867    4066.2833   -15352.863    86.823083 
   53000    1672.3674   -99.782961    1.5131932   -98.269768    7760.8337    4.4117895    4.4117895    4.4117895    7760.8337   -8174.0833   -19068.658    50525.242    -4865.391    7567.8479   -15472.288     85.87057 
   53100    2061.1891   -100.16479    1.8650072   -98.299781    -16434.91    4.4235487    4.4235487    4.4235487    -16434.91   -59361.177    24757.055   -14700.608    852.21908   -219.35033   -5575.9828    86.559039 
   53200    1835.2019   -99.951839    1.6605292   -98.291309   -31066.308    4.4536168    4.4536168    4.4536168   -31066.308   -47805.325   -19242.616   -26150.982    11298.698   -1992.3708    7604.9141    88.336167 
   53300    1328.4023   -99.438534    1.2019663   -98.236568    13130.624      4.45101      4.45101      4.45101    13130.624   -32919.617    24805.068    47506.421    507.19164   -3674.5467   -7797.2606    88.181139 
   53400    1755.7724   -99.786783    1.5886598   -98.198123    16308.123     4.423917     4.423917     4.423917    16308.123    10328.628   -49928.972    88524.711   -7169.1191   -3911.7283   -3300.7562    86.580662 
   53500    1711.3438   -99.762184    1.5484598   -98.213724    11440.416    4.4143842    4.4143842    4.4143842    11440.416   -60504.257    21300.015    73525.489    14061.901   -9705.9306    16882.155     86.02217 
   53600     1818.943   -99.914496    1.6458179   -98.268678   -11959.356    4.4299156    4.4299156    4.4299156   -11959.356   -40843.862    12578.175   -7612.3814    7764.4318    795.84759    24181.709    86.933337 
   53700    1634.7452   -99.754326    1.4791518   -98.275174   -4764.5911    4.4421824    4.4421824    4.4421824   -4764.5911   -2326.7652   -16894.645    4927.6367   -5570.1195    94.309704    14484.144    87.657518 
   53800    2263.9984   -100.31238    2.0485134    -98.26387   -29376.706    4.4506832    4.4506832    4.4506832   -29376.706    -70114.36    6675.2302   -24690.988    -4842.295   -14515.039    3362.3114    88.161721 
   53900    2130.0781   -100.16608    1.9273394   -98.238737   -31035.423    4.4511273    4.4511273    4.4511273   -31035.423   -37955.067   -53246.088   -1905.1137   -3748.5703   -21156.956    21382.222     88.18811 
   54000    2213.3677   -100.21278    2.0027016   -98.210077   -7317.5852    4.4466135    4.4466135    4.4466135   -7317.5852   -20969.026   -28031.911    27048.182     1045.062    14738.557    15501.475    87.920095 
   54100    1747.5123   -99.788912    1.5811859   -98.207726   -34842.742     4.453595     4.453595     4.453595   -34842.742   -45182.981   -33177.921   -26167.325   -8478.2912    2109.4576     28290.46    88.334866 
   54200    1953.9733   -99.960781    1.7679961   -98.192785   -5629.2236    4.4490298    4.4490298    4.4490298   -5629.2236   -26939.465   -54551.572    64603.366   -18783.292    1161.7331     18310.25      88.0635 
   54300    1800.1118   -99.839164    1.6287789   -98.210385   -11488.908    4.4352845    4.4352845    4.4352845   -11488.908    23942.401   -32879.534   -25529.592    3046.6178    5923.1748   -10597.952    87.249804 
   54400    1912.9271   -99.966603    1.7308567   -98.235746      19130.6    4.4293935    4.4293935    4.4293935      19130.6    46376.819   -21363.491    32378.471   -7821.9802   -3782.4912    2673.5455    86.902605 
   54500    1529.1372   -99.657951    1.3835955   -98.274356   -403.43625    4.4379665    4.4379665    4.4379665   -403.43625   -7645.7708   -33500.805    39936.267   -1270.7242    19163.358    2114.4061    87.408176 
   54600    2075.2532   -100.14203    1.8777327   -98.264293   -9790.7821    4.4359046    4.4359046    4.4359046   -9790.7821    32463.485   -55167.185   -6668.6457    -13246.15    8180.3866   -6317.8332    87.286402 
   54700    1420.3341   -99.551873    1.2851481   -98.266725    22215.739    4.4204283    4.4204283    4.4204283    22215.739    91284.816   -46256.107    21618.508    1231.4239    16507.503   -15497.885    86.375994 
   54800     2230.284   -100.29666    2.0180078   -98.278654   -17863.326    4.4286223    4.4286223    4.4286223   -17863.326    26481.965   -53915.196   -26156.746   -2232.9351   -11660.704   -16875.511    86.857218 
   54900    1297.3014   -99.448713    1.1738255   -98.274887   -9909.3922     4.444107     4.444107     4.444107   -9909.3922    29611.292   -64761.743     5422.274    1090.9501    18400.697   -15640.738    87.771499 
   55000    1693.3741   -99.779294    1.5322005   -98.247093    22646.772    4.4348224    4.4348224    4.4348224    22646.772    7658.2045    20894.595    39387.516   -7625.6392    30641.494   -3231.3443    87.222532 
   55100    2003.9749   -100.06264    1.8132386     -98.2494   -31873.611    4.4309898    4.4309898    4.4309898   -31873.611   -40832.929    -19499.56   -35288.343     1876.911   -16287.527   -14510.971    86.996597 
   55200    2042.6812   -100.09211    1.8482608   -98.243847   -18837.545    4.4236383    4.4236383    4.4236383   -18837.545    -13379.14    17506.786   -60640.282   -20966.957   -12552.109   -3623.9593      86.5643 
   55300    1304.0722   -99.437894    1.1799519   -98.257942    15558.894    4.4296131    4.4296131    4.4296131    15558.894    21444.105    33632.438    -8399.862    236.37338    22339.143    17872.703     86.91553 
   55400    1913.7457   -99.975792    1.7315973   -98.244195   -12478.163    4.4461004    4.4461004    4.4461004   -12478.163   -11385.171    34218.605   -60267.925    -35403.15   -9054.8037   -346.57135    87.889662 
   55500    1315.3799   -99.426888    1.1901834   -98.236705    6718.4282    4.4448913    4.4448913    4.4448913    6718.4282    19178.685    52066.115   -51089.515   -18987.143   -3516.7458    98.971429    87.817977 
   55600    1679.6409   -99.742748    1.5197743   -98.222974    19731.557    4.4425149    4.4425149    4.4425149    19731.557    31617.386    42477.086   -14899.801   -28736.484   -14456.981   -10287.186    87.677199 
   55700    969.36717   -99.112348   0.87710378   -98.235244    3453.9657    4.4424245    4.4424245    4.4424245    3453.9657    55279.573    24273.104    -69190.78   -23946.764    4175.9844    5693.3367     87.67185 
   55800    2178.4383   -100.19236    1.9710967   -98.221264   -14916.534    4.4394625    4.4394625    4.4394625   -14916.534    11524.064   -4080.5601   -52193.105    3144.3969   -6872.2373   -16375.971    87.496597 
   55900    1770.1333   -99.851248    1.6016538   -98.249594   -14221.586    4.4268223    4.4268223    4.4268223   -14221.586    3266.4489   -49585.486    3654.2781    -14316.04   -9096.2501   -3893.8793    86.751355 
   56000    2216.0215   -100.28474    2.0051028   -98.279638   -14765.751    4.4207628    4.4207628    4.4207628   -14765.751    53666.913   -44744.749   -53219.418   -15613.654    824.56674   -24502.196    86.395603 
   56100    1687.6902   -99.836158    1.5270575   -98.309101    -3844.934    4.4254175    4.4254175    4.4254175    -3844.934    42002.947   -42525.617   -11012.132   -11714.349    8078.0176     13589.56    86.668792 
   56200    1988.1977   -100.09788    1.7989631   -98.298918    -15278.36    4.4317153    4.4317153    4.4317153    -15278.36    51000.591   -56123.318   -40712.354    339.57906   -20461.051   -25751.135    87.039336 
   56300    1492.7535   -99.628851    1.3506747   -98.278176    14811.403    4.4397909    4.4397909    4.4397909    14811.403    26441.986    1867.7354    16124.488   -15764.429   -1606.8122    16854.671    87.516016 
   56400    1627.8571   -99.713811    1.4729193   -98.240892   -4935.4426    4.4414951    4.4414951    4.4414951   -4935.4426    63300.663   -49712.297   -28394.694   -18293.156   -4334.9745   -29171.222    87.616836 
   56500    1631.9188   -99.694133    1.4765944   -98.217538    10000.084    4.4303681    4.4303681    4.4303681    10000.084    75978.353   -37707.965   -8270.1378   -963.97776    5867.0442    28255.672    86.959978 
   56600    858.38137   -98.989955    0.7766815   -98.213274    41633.037    4.4207976    4.4207976    4.4207976    41633.037    143035.25    9330.6421   -27466.782    2613.3346   -8010.9723   -36862.316    86.397642 
   56700    2069.5787   -100.10078    1.8725983   -98.228178   -11600.214    4.4279076    4.4279076    4.4279076   -11600.214    23166.313   -35824.208   -22142.748    1593.4096   -5500.7385    18223.907    86.815174 
   56800    1802.7707   -99.863537    1.6311848   -98.232352    3505.9575    4.4373193    4.4373193    4.4373193    3505.9575     38198.24   -18960.422   -8719.9452    -3701.496   -13429.136   -19182.647    87.369939 
   56900    1483.9478   -99.576176    1.3427072   -98.233469    4223.9355    4.4390824    4.4390824    4.4390824    4223.9355    14583.977    25745.584   -27657.754    8846.6288   -24170.404    22630.943    87.474126 
   57000    1982.3432   -100.01435    1.7936658    -98.22068    -23828.98    4.4328487    4.4328487    4.4328487    -23828.98   -37962.519   -21259.201    -12265.22    3990.6651   -7434.9015   -24171.273    87.106128 
   57100    1549.1689   -99.624099    1.4017206   -98.222378   -15699.985    4.4218775    4.4218775    4.4218775   -15699.985   -27936.708   -18712.443   -450.80458   -5612.0721   -18425.058    20256.759    86.460975 
   57200    1972.2442   -100.01695     1.784528   -98.232419    5818.2908    4.4130697    4.4130697    4.4130697    5818.2908   -12983.638    34462.106   -4023.5957   -22788.475    16701.828   -17729.611    85.945343 
   57300    1257.2436    -99.40963    1.1375804   -98.272049    5372.6907    4.4251486    4.4251486    4.4251486    5372.6907    26206.911    23107.323   -33196.162   -12950.707    -4340.833    27238.445    86.652994 
   57400    1976.4463   -100.04998    1.7883301    -98.26165   -24519.101     4.442062     4.442062     4.442062   -24519.101   -14423.973   -1823.1218   -57310.208   -3900.2306   -2324.2514   -17497.704    87.650387 
   57500     1207.174   -99.330416    1.0922764    -98.23814   -675.95742    4.4391413    4.4391413    4.4391413   -675.95742    7430.7009    12442.633   -21901.206   -14092.701   -8931.9347    42222.057    87.477611 
   57600    1896.9086   -99.917315    1.7163628   -98.200952    11754.207    4.4088949    4.4088949    4.4088949    11754.207   -21240.392    42796.893     13706.12    12888.342   -4482.3615   -6758.3994    85.701662 
   57700    1472.8218   -99.573054    1.3326401   -98.240413   -4718.8227    4.4029038    4.4029038    4.4029038   -4718.8227    12703.718   -31835.891    4975.7053   -2519.2475   -2377.1713    19570.109    85.352763 
   57800    2439.1078   -100.45443     2.206956   -98.247478   -6075.8799    4.4187146    4.4187146    4.4187146   -6075.8799   -15440.518    2738.2815   -5525.4029    23334.658   -16271.438   -9603.1678    86.275575 
   57900     1263.533   -99.411937    1.1432712   -98.268666   -26565.516    4.4213755    4.4213755    4.4213755   -26565.516   -10279.534   -50731.581   -18685.433   -11113.084    2733.2355    28480.775    86.431533 
   58000    2108.7824   -100.16653    1.9080706   -98.258459   -6706.6595    4.4121274    4.4121274    4.4121274   -6706.6595    -14861.38    -5196.435   -62.163005    14792.399   -12476.166    7807.2574      85.8903 
   58100    1485.8256   -99.618912    1.3444062   -98.274506   -6836.8055     4.395151     4.395151     4.395151   -6836.8055    31682.793   -61114.011    8920.8014    7484.3703   -4468.1402    23435.375     84.90268 
   58200    1691.8846   -99.824664    1.5308528   -98.293811   -4075.4518    4.3987975    4.3987975    4.3987975   -4075.4518    2186.6162   -2473.7158   -11939.256    7948.2853   -6400.8971     -884.683    85.114181 
   58300    1715.8969   -99.846119    1.5525796   -98.293539   -15582.685    4.4204932    4.4204932    4.4204932   -15582.685   -4321.5734   -51620.383    9193.9004    3362.0808    4012.0596    25157.533    86.379798 
   58400    1512.0811   -99.640288    1.3681628   -98.272125    -3539.277     4.418569     4.418569     4.418569    -3539.277    68398.208   -44593.738   -34422.302    12321.653   -11843.786   -3880.8028    86.267048 
   58500    1727.9194   -99.823548    1.5634578    -98.26009    16072.893    4.4094495    4.4094495    4.4094495    16072.893    38079.434   -4288.0501    14427.294    6201.8019      276.637    24875.349    85.734005 
   58600    1521.2984   -99.636946    1.3765028   -98.260444    692.84512    4.4177561    4.4177561    4.4177561    692.84512    59351.249   -38096.584   -19176.129    4211.1784   -15999.678   -9405.8012    86.219444 
   58700    1853.4216   -99.937448    1.6770148   -98.260433   -16798.891    4.4107082    4.4107082    4.4107082   -16798.891    8965.8359    -14884.48   -44478.027    5046.6174    12165.097    7776.3558    85.807449 
   58800    1543.8917   -99.684135    1.3969457    -98.28719    25860.277    4.4175141    4.4175141    4.4175141    25860.277    102610.04   -37300.705    12271.499     13987.59    19285.216   -12288.985    86.205275 
   58900    1541.5375   -99.679178    1.3948156   -98.284362    3801.1309    4.4292512    4.4292512    4.4292512    3801.1309    72848.388    -51138.13   -10306.865    7455.1242    5591.5793    12231.052    86.894226 
   59000    2072.3302   -100.14483    1.8750879   -98.269744   -20755.035    4.4329056    4.4329056    4.4329056   -20755.035    1296.2292   -17500.091   -46061.242    14042.346    13911.252   -14116.186    87.109485 
   59100    1985.8067    -100.0469    1.7967997   -98.250096   -25998.154     4.434624     4.434624     4.434624   -25998.154   -19541.749   -31051.587   -27401.125    32826.771    3446.4026    12365.915    87.210826 
   59200    1892.1022   -99.942022    1.7120139   -98.230008   -8535.7006    4.4367576    4.4367576    4.4367576   -8535.7006   -40928.335    14551.316    769.91635    12336.938    10925.808   -7344.8853    87.336765 
   59300    2064.8571   -100.08583    1.8683261   -98.217505   -30425.274    4.4473548    4.4473548    4.4473548   -30425.274   -61065.104    3848.6385   -34059.355    29242.388    11713.074    3349.8278    87.964073 
   59400    1693.7984   -99.733927    1.5325844   -98.201343   -40096.599    4.4510131    4.4510131    4.4510131   -40096.599   -35610.644   -19148.761   -65530.393   -6696.7849    -3778.048   -10840.291    88.181325 
   59500    2178.2977   -100.15808    1.9709696   -98.187115   -19873.774    4.4364099    4.4364099    4.4364099   -19873.774   -1503.6885   -34044.708   -24072.925    17558.655   -26305.446   -3271.3125    87.316236 
   59600    1375.0726   -99.459275    1.2441946   -98.215081   -3803.2235    4.4252972    4.4252972    4.4252972   -3803.2235    31071.497   -27683.093   -14798.074   -7554.1094    12758.525   -20108.576    86.661727 
   59700    2099.6904   -100.13738     1.899844   -98.237537   -5743.9174    4.4161846    4.4161846    4.4161846   -5743.9174    -21544.47   -17386.239    21698.956    42384.271   -9948.0405    9681.8551    86.127462 
   59800    1364.1513   -99.514161    1.2343127   -98.279849    17527.803    4.4238477    4.4238477    4.4238477    17527.803     8873.826    65075.013   -21365.429   -6736.0692    2934.1374   -3805.5159    86.576594 
   59900     1588.777   -99.694619    1.4375588    -98.25706   -18938.265    4.4499135    4.4499135    4.4499135   -18938.265   -15034.452    11974.279   -53754.622    41729.933    10372.318   -3993.1135    88.115989 
   60000    1576.5635   -99.635529    1.4265078   -98.209021   -23102.304    4.4551311    4.4551311    4.4551311   -23102.304    3170.8925   -36508.408   -35969.395    2770.0653    10077.018   -33846.532    88.426304 
   60100    2139.2619   -100.10741    1.9356492   -98.171761   -25131.531    4.4324469    4.4324469    4.4324469   -25131.531   -15631.922   -37417.665   -22345.006     14762.37    7126.0959   -5908.1023    87.082447 
   60200    1819.5036   -99.849561    1.6463251   -98.203236   -10695.639    4.4156931    4.4156931    4.4156931   -10695.639   -2278.0458   -21084.641   -8724.2304   -4765.8886    10554.328   -27225.444    86.098711 
   60300    1706.1741   -99.785262    1.5437822    -98.24148    13551.189    4.4203841    4.4203841    4.4203841    13551.189    39853.588    6299.7288    -5499.751   -6352.7928   -4365.6938    6520.9003    86.373399 
   60400    1802.6312   -99.878735    1.6310586   -98.247676   -25040.943    4.4319363    4.4319363    4.4319363   -25040.943   -14984.861   -22040.556   -38097.412     11403.36    32874.017   -30608.676    87.052355 
   60500    1741.1617   -99.827772    1.5754397   -98.252332   -19989.258     4.431768     4.431768     4.431768   -19989.258   -71268.272    33603.509   -22303.011   -385.13251   -21973.292   -13087.422    87.042441 
   60600     1981.555   -100.03663    1.7929526   -98.243674   -6764.1371    4.4308701    4.4308701    4.4308701   -6764.1371   -41861.823    61108.601   -39539.189   -653.36903    31127.169   -20027.408    86.989542 
   60700    1329.0122   -99.445557    1.2025182   -98.243039   -24664.726    4.4391986    4.4391986    4.4391986   -24664.726   -65174.647    191.34555   -9010.8757    17231.849   -20709.397   -3355.7269    87.480994 
   60800    1933.4506     -99.9615    1.7494267   -98.212074    17095.254    4.4243715    4.4243715    4.4243715    17095.254    19069.123   -5672.0694     37888.71    23654.123    9927.6613    23916.329     86.60735 
   60900    906.40256   -99.049376   0.82013208   -98.229244    17623.251    4.4119497    4.4119497    4.4119497    17623.251    11820.088    54009.378   -12959.714    19351.754   -28462.161    -2195.997    85.879926 
   61000    2275.7313   -100.29318    2.0591295   -98.234049    6982.7422    4.4146274    4.4146274    4.4146274    6982.7422    39058.773    4662.6675   -22773.214    33714.121    7676.3337     13060.98    86.036387 
   61100    908.60731   -99.093485   0.82212699   -98.271358    4749.5393    4.4237399    4.4237399    4.4237399    4749.5393    -8837.116    99283.165   -76197.432    19674.119   -28538.819   -477.82457    86.570264 
   61200    1669.1032   -99.755003    1.5102397   -98.244763    31560.519    4.4208408    4.4208408    4.4208408    31560.519   -13861.964    158526.33   -49982.808    5848.8155     10364.21    25972.637    86.400177 
   61300    1707.2116   -99.826923    1.5447209   -98.282202   -22964.267    4.4133041    4.4133041    4.4133041   -22964.267   -51088.645    19067.085    -36871.24    7317.5201   -31378.667   -2599.1308     85.95904 
   61400    1630.6411   -99.765219    1.4754383    -98.28978    44455.823    4.4042338    4.4042338    4.4042338    44455.823    35307.374    127510.49   -29450.396    657.11936    2564.5922    5130.8053    85.430137 
   61500    1638.9262   -99.789393    1.4829348   -98.306458   -43963.721    4.4177726    4.4177726    4.4177726   -43963.721   -20804.089    -54025.49   -57061.583   -498.98034   -13766.034    5376.5786    86.220405 
   61600    1813.1328   -99.932037    1.6405607   -98.291476   -11878.617    4.4145791    4.4145791    4.4145791   -11878.617   -2774.0754    14832.324   -47694.099    4822.2844    6528.9929     10022.56    86.033563 
   61700    1439.6544   -99.576477    1.3026296   -98.273847   -10190.498     4.408527     4.408527     4.408527   -10190.498     3119.021    5437.3841   -39127.899    3187.0909    -30984.69   -4967.4012    85.680208 
   61800     1798.171    -99.89427    1.6270229   -98.267247   -22247.094    4.4006705    4.4006705    4.4006705   -22247.094   -45204.735   -19302.243   -2234.3055    12631.735    18736.191    1832.7671    85.222949 
   61900    1840.1573   -99.947884     1.665013   -98.282871     11697.57    4.4133196    4.4133196    4.4133196     11697.57    10184.893    61978.942   -37071.126    15436.032   -11000.029     10902.05    85.959948 
   62000    1112.8277   -99.287958    1.0069099   -98.281048   -33251.731    4.4208703    4.4208703    4.4208703   -33251.731   -54653.005   -844.26391   -44257.923    35438.286     14998.24   -15179.028    86.401903 
   62100    2481.7255   -100.49597    2.2455173    -98.25045   -7857.4799    4.4084246    4.4084246    4.4084246   -7857.4799    2258.5575   -2991.5446   -22839.453   -6152.9936    1916.1362    1615.1261    85.674236 
   62200    1205.1319   -99.370668    1.0904286   -98.280239   -35314.969    4.4135885    4.4135885    4.4135885   -35314.969   -33727.061   -19659.408   -52558.438     32815.43    19985.552    1004.2527    85.975658 
   62300    2008.0054   -100.08264    1.8168855   -98.265757   -13300.409    4.4061694    4.4061694    4.4061694   -13300.409   -14792.986    20487.644   -45595.885   -3278.0748    2815.5823      13542.9     85.54282 
   62400    1295.1683   -99.454642    1.1718955   -98.282747    43896.047    4.3926175    4.3926175    4.3926175    43896.047    62077.113    83211.526   -13600.497     20755.61    8299.6945   -4499.0708    84.755942 
   62500    1496.5978   -99.648871    1.3541532   -98.294718    2484.9436    4.4163819    4.4163819    4.4163819    2484.9436    28737.941    38675.531    -59958.64    9444.4124   -28969.673    4846.2934    86.139007 
   62600    1791.6511   -99.890926    1.6211236   -98.269802   -29143.469    4.4214141    4.4214141    4.4214141   -29143.469   -36179.467    835.28191   -52086.222     9348.965    9067.3774   -15041.659    86.433792 
   62700    1585.0061   -99.689248    1.4341468   -98.255101    21572.002    4.3979055    4.3979055    4.3979055    21572.002     71491.94    16432.979   -23208.913    10445.645   -12433.224    4550.4241    85.062411 
   62800    1479.3443   -99.614269    1.3385418   -98.275727    848.07459     4.407427     4.407427     4.407427    848.07459   -37931.631    57512.355     -17036.5    31319.045    499.39741   -8702.7518    85.616087 
   62900    1595.8715   -99.713013    1.4439781   -98.269035   -39915.001    4.4101683    4.4101683    4.4101683   -39915.001   -60850.945    -14989.32   -43904.739    23994.886   -14580.172   -11585.965    85.775939 
   63000    1985.7949   -100.05749     1.796789   -98.260699    11938.085     4.407079     4.407079     4.407079    11938.085    10556.034     46401.01   -21142.791   -8811.7874   -6274.9462    13412.845     85.59581 
   63100    931.62323   -99.122735   0.84295228   -98.279783   -28660.737     4.415082     4.415082     4.415082   -28660.737   -74529.263    29566.485   -41019.432     33710.34    -20483.04   -3190.5849    86.062969 
   63200    2518.9585   -100.53232    2.2792066    -98.25311    10223.187    4.3996517    4.3996517    4.3996517    10223.187    24534.457    43470.126   -37335.022   -8259.7003    -5020.095    8421.9167    85.163773 
   63300    815.28325   -99.042664   0.73768542   -98.304979   -6302.0859    4.4169348    4.4169348    4.4169348   -6302.0859    -58570.21    93847.857   -54183.905    36776.374   -29906.076   -4614.2613    86.171366 
   63400    2285.4227   -100.33489    2.0678985   -98.266996   -28928.076    4.4246069    4.4246069    4.4246069   -28928.076    5202.6716   -36005.247   -55981.654   -79.490677    2770.5622    12814.812    86.621175 
   63500    1600.7082   -99.721137    1.4483544   -98.272783   -25280.932    4.4060603    4.4060603    4.4060603   -25280.932   -49329.228   -1254.5631   -25259.005    12655.041   -20803.953    5815.3958    85.536465 
   63600    1368.0566   -99.505663    1.2378463   -98.267817    38379.061    4.3856223    4.3856223    4.3856223    38379.061    94739.747    46644.515    -26247.08     25046.17     12904.12    12012.435    84.351669 
   63700    1583.8019    -99.75736    1.4330573   -98.324303   -4426.5792    4.4033873    4.4033873    4.4033873   -4426.5792   -10805.631    37871.196   -40345.302    2916.7861   -21275.246    9776.8765    85.380884 
   63800    1870.6528   -100.01307     1.692606   -98.320463   -33044.782    4.4268929    4.4268929    4.4268929   -33044.782   -44344.802    19674.577   -74464.121    16141.961    3633.7261    24005.147    86.755505 
   63900    1335.8373   -99.505588    1.2086937   -98.296894    31322.208    4.4192876    4.4192876    4.4192876    31322.208    70439.056    56222.317   -32694.749    5243.0712    -2735.174   -4808.8853    86.309142 
   64000    1838.5521   -99.947396    1.6635606   -98.283835   -11239.714    4.4043012    4.4043012    4.4043012   -11239.714     18587.98   -6530.4553   -45776.666    17739.601   -1998.3771    13974.454     85.43406 
   64100    1598.6348   -99.719989    1.4464784    -98.27351    47681.822    4.3977216    4.3977216    4.3977216    47681.822    58996.671    82780.395    1268.3993   -12692.953    9507.4387   -15935.252    85.051738 
   64200    1661.5429   -99.804348    1.5033989    -98.30095    860.75006    4.4186571    4.4186571    4.4186571    860.75006    61436.548   -21460.718    -37393.58    17498.138   -8411.0663    18968.176    86.272205 
   64300    1983.2403   -100.07593    1.7944775   -98.281454   -38413.731    4.4356243    4.4356243    4.4356243   -38413.731   -24840.988   -26751.854   -63648.352    -11911.62    15128.835    -947.7622    87.269857 
   64400     1443.986   -99.571898    1.3065488   -98.265349    36860.996    4.4099216    4.4099216    4.4099216    36860.996    64052.165     73570.31   -27039.486    21733.465   -4369.2169    6383.6693    85.761546 
   64500    2134.6771   -100.21616    1.9315007   -98.284661   -28515.804    4.4050338    4.4050338    4.4050338   -28515.804   -35757.422    33273.187   -83063.178   -13431.655    14341.326   -1747.1252    85.476697 
   64600    1886.1397   -100.01242    1.7066189   -98.305799    20144.753    4.4143903    4.4143903    4.4143903    20144.753    5876.0548    99341.996   -44783.792    21541.493   -2258.3506    2301.8454    86.022525 
   64700      1484.09   -99.660661    1.3428358   -98.317825    -3160.314    4.4261269    4.4261269    4.4261269    -3160.314    36050.317    24683.129   -70214.388   -9009.5597    29615.277   -6345.7576     86.71048 
   64800    2224.5085   -100.28923     2.012782   -98.276445   -18736.207    4.4359873    4.4359873    4.4359873   -18736.207   -20691.918   -567.99841   -34948.705   -4220.9887   -7607.7094   -16974.325    87.291284 
   64900    980.97361   -99.152388   0.88760554   -98.264782    29700.466    4.4257071    4.4257071    4.4257071    29700.466    83708.547    58292.174   -52899.323     19618.89    17304.101    -21772.17    86.685811 
   65000    2294.5975   -100.33337    2.0762001   -98.257168   -386.12381    4.4171826    4.4171826    4.4171826   -386.12381    23129.824    10623.311   -34911.506    5233.8472   -4256.7373    -15235.71    86.185867 
   65100    1699.9817   -99.802041    1.5381792   -98.263862   -3412.6701    4.4206092    4.4206092    4.4206092   -3412.6701    20305.938    19380.972    -49924.92    13056.254    23862.827   -19246.282    86.386595 
   65200    2023.6987   -100.08102    1.8310851   -98.249931   -18559.999    4.4281121    4.4281121    4.4281121   -18559.999    27304.137   -7523.5002   -75460.633    2812.9366   -9197.1197    13904.103    86.827206 
   65300    2090.6376   -100.13059    1.8916529   -98.238938   -46952.328    4.4442095    4.4442095    4.4442095   -46952.328   -46941.335   -68345.649       -25570    39019.321   -5.6142227   -13283.378    87.777575 
   65400    1330.0531   -99.428136      1.20346   -98.224676   -3204.2817       4.4379       4.4379       4.4379   -3204.2817    54432.386   -3081.7126   -60963.519   -13112.608    -19749.76    8741.9032    87.404249 
   65500    2554.4359   -100.52431    2.3113073   -98.213004   -26837.079    4.4124232    4.4124232    4.4124232   -26837.079   -7326.8428   -50303.733   -22880.662    43457.351    6299.5252   -6809.1612    85.907579 
   65600    1319.2826   -99.436651    1.1937146   -98.242936    25866.861     4.397736     4.397736     4.397736    25866.861    112338.79   -5225.7352   -29512.478    1103.6045   -17599.541    24707.878    85.052577 
   65700    2146.4553   -100.23599    1.9421579   -98.293833   -197.74694    4.4114154    4.4114154    4.4114154   -197.74694    43059.518    6893.2071   -50545.966    23999.371   -14543.941   -676.89542    85.848729 
   65800    1492.3163   -99.675601    1.3502791   -98.325322    -7412.475    4.4379707    4.4379707    4.4379707    -7412.475    12536.921    14261.947   -49036.292    27751.492    -10783.99    14441.527    87.408426 
   65900    1687.4316   -99.796468    1.5268236   -98.269645    9325.4686    4.4459481    4.4459481    4.4459481    9325.4686    66552.153   -1614.2989   -36961.448    4403.6373    2701.7145   -5292.4472    87.880633 
   66000    1030.6795   -99.182277   0.93258043   -98.249697    25697.542    4.4140757    4.4140757    4.4140757    25697.542    62541.092    48716.999   -34165.464    9357.5081   -3839.6609    8215.2861    86.004136 
   66100    1777.9665   -99.858747    1.6087415   -98.250005    21513.281    4.4027459    4.4027459    4.4027459    21513.281   -2442.9422    94214.794    -27232.01   -446.04357   -9004.2396   -7892.9113    85.343583 
   66200    1199.9782    -99.38772    1.0857655   -98.301954    18650.301    4.4142046    4.4142046    4.4142046    18650.301    17182.564    57961.582   -19193.243     29601.12    6925.1847    20136.064    86.011669 
   66300    1938.9822   -100.07459    1.7544319   -98.320156   -5587.7286    4.4337706    4.4337706    4.4337706   -5587.7286    33110.018    12312.188   -62185.392    4477.1288   -13943.672   -10428.506     87.16049 
   66400    1801.3162   -99.922588    1.6298688   -98.292719   -21650.559     4.445945     4.445945     4.445945   -21650.559    2804.7558   -2610.5522   -65145.882    37262.908   -5760.7691    12872.373    87.880446 
   66500    1382.9697   -99.519599    1.2513401   -98.268259    14618.184    4.4250372    4.4250372    4.4250372    14618.184    101953.69   -1857.6015   -56241.533   -7112.9228   -15831.197    6065.0493     86.64645 
   66600    1868.5097   -99.949421    1.6906668   -98.258755    26484.187    4.3968772    4.3968772    4.3968772    26484.187    74453.124     35519.81   -30520.373    25279.632    6577.7015    3347.3942    85.002757 
   66700    1380.7578    -99.55835    1.2493387   -98.309011    20952.647    4.4112238    4.4112238    4.4112238    20952.647   -17312.979    123477.16   -43306.243   -1500.1712   -26654.355   -27817.617    85.837544 
   66800    1230.0962   -99.392961    1.1130169   -98.279945    1220.4079    4.4419995    4.4419995    4.4419995    1220.4079    34510.741   -13260.797   -17588.719    25316.117   -3520.9336   -15088.652     87.64669 
   66900    1470.3971   -99.560522    1.3304462   -98.230076   -6777.5116    4.4411633    4.4411633    4.4411633   -6777.5116   -47469.245    36838.106   -9701.3955    3485.1005   -2081.1798   -22184.303    87.597202 
   67000     1934.661   -99.946589    1.7505219   -98.196067   -11912.302     4.428615     4.428615     4.428615   -11912.302   -6936.3939    22051.515   -50852.027    7046.7425   -7448.2132    2114.6199    86.856792 
   67100    2001.3019   -100.01988      1.81082   -98.209064   -18439.298    4.4228133    4.4228133    4.4228133   -18439.298    -14596.86   -997.43988   -39723.594    3738.1955    -14603.15   -2038.2887    86.515881 
   67200    1629.2426   -99.693676    1.4741729   -98.219503    30621.494    4.4095298    4.4095298    4.4095298    30621.494    38158.477    14636.901    39069.105    91.397942    3815.4491   -2200.0532    85.738692 
   67300    1712.2852   -99.818212    1.5493116     -98.2689   -5497.9798    4.4072494    4.4072494    4.4072494   -5497.9798    33962.708   -36339.547   -14117.101    2721.4112   -31821.475    12645.819    85.605742 
   67400    2467.7004   -100.51423    2.2328272   -98.281402   -18928.281    4.4218978    4.4218978    4.4218978   -18928.281    24650.826   -31861.628   -49574.041   -13339.379   -3936.4169   -12746.343    86.462166 
   67500    1361.5947   -99.498847    1.2319995   -98.266847     11497.02    4.4249683    4.4249683    4.4249683     11497.02    54797.989    23084.434   -43391.364    18686.702   -16478.666    9017.7784    86.642404 
   67600    1449.9626    -99.56419    1.3119566   -98.252233    22294.112    4.4401954    4.4401954    4.4401954    22294.112      98628.5    8642.8159   -40388.981   -15890.159   -14626.152    -7483.433    87.539939 
   67700    1342.6973   -99.465613    1.2149007   -98.250713   -37938.304       4.4273       4.4273       4.4273   -37938.304   -35682.144   -31511.453   -46621.314    36214.477   -40507.156    5088.9848    86.779439 
   67800    1683.0474   -99.764565    1.5228566   -98.241709    34275.958    4.3850376    4.3850376    4.3850376    34275.958    104640.11    3084.9903   -4897.2262   -5840.9567   -6187.1549    -2689.453    84.317936 
   67900     1513.336    -99.66639    1.3692983   -98.297092    16849.788    4.3874755    4.3874755    4.3874755    16849.788    15548.156    60573.797    -25572.59    6708.0709    1416.8042   -321.65619    84.458645 
   68000    1768.8174   -99.929619    1.6004632   -98.329156   -5866.0725    4.4237265    4.4237265    4.4237265   -5866.0725    6007.8316    162.65958   -23768.709    8969.3456   -17064.271    12837.903    86.569477 
   68100    1500.9732   -99.644139    1.3581121   -98.286027   -13481.935    4.4510025    4.4510025    4.4510025   -13481.935   -27201.532    5493.2285     -18737.5     1088.841   -2165.0452    -15095.17    88.180695 
   68200     1542.382    -99.64411    1.3955797    -98.24853   -18111.027    4.4301337    4.4301337    4.4301337   -18111.027   -20075.778     9583.558   -43840.861    28101.323   -20616.157    12367.636    86.946181 
   68300    1499.3975   -99.586315    1.3566863   -98.229629    45728.679    4.3904097    4.3904097    4.3904097    45728.679    10778.635    81467.197    44940.207   -14906.589    12799.497    12232.467    84.628207 
   68400    1138.1513   -99.315768    1.0298232   -98.285945    26754.072    4.3895349    4.3895349    4.3895349    26754.072    3990.2022    46439.264    29832.751    8066.9464   -23045.546    26831.785     84.57763 
   68500    2222.5601   -100.31716    2.0110191   -98.306139   -12998.185    4.4184059    4.4184059    4.4184059   -12998.185   -877.69811   -14195.256   -23921.601   -22818.822    16016.519   -34736.568    86.257495 
   68600     1064.971   -99.258766   0.96360815   -98.295158    -17273.07    4.4337865    4.4337865    4.4337865    -17273.07   -39724.018   -19074.941    6979.7493    18526.141   -27039.691    27896.988    87.161427 
   68700     2224.547   -100.26656    2.0128169   -98.253743   -1368.1181    4.4160074    4.4160074    4.4160074   -1368.1181   -17026.229   -10521.916     23443.79   -20596.937    14382.895   -13518.814    86.117095 
   68800    1277.4177    -99.39865    1.1558344   -98.242816      32076.1    4.3940872    4.3940872    4.3940872      32076.1    36675.887    44570.412    14982.002    35203.925   -25721.657    1594.4644    84.841047 
   68900    2317.7712   -100.35874    2.0971681    -98.26157    3136.9545    4.4085858    4.4085858    4.4085858    3136.9545    591.07626   -30301.705    39121.492   -22544.651     9115.975   -7204.6278    85.683636 
   69000    1464.1594   -99.604679    1.3248022   -98.279877   -29612.201    4.4194938    4.4194938    4.4194938   -29612.201   -36414.519   -13608.164    -38813.92      24131.2   -20501.145    744.91252    86.321222 
   69100    2042.7215   -100.12241    1.8482974   -98.274113    4002.4794    4.4152727    4.4152727    4.4152727    4002.4794    42524.955   -45912.316    15394.799   -21720.907   -5927.4969    4862.9515    86.074122 
   69200    1577.5409   -99.704871    1.4273921   -98.277479    6604.8607    4.3984015    4.3984015    4.3984015    6604.8607   -30175.904    44300.166    5690.3199    13360.388   -5495.4934   -7638.2227    85.091195 
   69300    1463.8864   -99.619662    1.3245551   -98.295107    43190.938    4.3939058    4.3939058    4.3939058    43190.938    59194.674    26783.663    43594.479   -2033.2278   -15941.547    20695.571     84.83054 
   69400    2217.4291   -100.30646    2.0063765   -98.300079    -11296.52    4.4235864    4.4235864    4.4235864    -11296.52    -27664.47    16274.263   -22499.352    5923.4378    6472.1875   -4073.0532    86.561257 
   69500    1255.8641   -99.444519    1.1363323   -98.308187    -24698.95    4.4109333    4.4109333    4.4109333    -24698.95   -25433.389    -39098.16   -9565.3006    4415.7184    -8918.105    34967.454    85.820584 
   69600    2319.4103   -100.37871    2.0986511   -98.280063    30173.281    4.3931907    4.3931907    4.3931907    30173.281    33031.022   -12.384278    57501.207    726.22453    647.69501   -10091.224    84.789126 
   69700    1055.5771    -99.26988   0.95510837   -98.314771   -1960.8524    4.4037529    4.4037529    4.4037529   -1960.8524   -450.05839    16014.231    -21446.73    13257.206    -1313.626    42272.116    85.402157 
   69800    2167.0762   -100.26933    1.9608161   -98.308514   -15127.741    4.4117762    4.4117762    4.4117762   -15127.741   -7066.6402   -49529.713    11213.132    -17793.65     22574.18   -5391.6995    85.869793 
   69900    1488.0775   -99.644917    1.3464438   -98.298473    636.63534    4.4162617    4.4162617    4.4162617    636.63534   -13317.502    -31366.48    46593.888    15576.242   -772.34608    17913.127    86.131973 
   70000    1902.1465   -100.00625    1.7211021   -98.285152   -18842.985    4.4102576    4.4102576    4.4102576   -18842.985   -12664.015     -40461.5   -3403.4395    -18546.88    6690.8716   -5023.6768    85.781151 
   70100    1687.1606   -99.805955    1.5265784   -98.279376    23709.182    4.3894256    4.3894256    4.3894256    23709.182    21929.265    4684.8654    44513.415   -655.63048    1341.8336     14126.48    84.571316 
   70200    1658.1269   -99.794203    1.5003081   -98.293895    4649.1131    4.3854419    4.3854419    4.3854419    4649.1131    17612.795   -29657.872    25992.416    4303.0436   -10803.509    5016.6021    84.341261 
   70300    1712.7455   -99.857683    1.5497281   -98.307954   -14276.774    4.4093377    4.4093377    4.4093377   -14276.774   -4943.0496   -42325.069    4437.7974   -4951.2194    2099.5514    8505.0346    85.727484 
   70400     1340.436   -99.492978    1.2128547   -98.280124   -1480.8023    4.4168758    4.4168758    4.4168758   -1480.8023    18027.524   -46023.716    23553.785    4385.6798   -8598.7845    22974.113     86.16791 
   70500    1944.4721   -100.01185    1.7593992   -98.252449   -37509.216    4.4133148    4.4133148    4.4133148   -37509.216   -9494.8607    -66317.47   -36715.316   -14253.349    4840.7523   -14102.726    85.959667 
   70600    1810.1017   -99.884947     1.637818   -98.247129     3018.023    4.4028574    4.4028574    4.4028574     3018.023    27073.144   -40551.924    22532.848    11883.142    15121.983    31906.688    85.350065 
   70700    1461.3213    -99.58099    1.3222343   -98.258755    33755.821    4.3883361    4.3883361    4.3883361    33755.821    26679.431    21134.068    53453.962   -5030.4762   -15798.121   -5319.3595    84.508354 
   70800    1985.5411   -100.08282    1.7965593   -98.286259   -11010.681    4.3971114    4.3971114    4.3971114   -11010.681   -1830.1658   -25360.033   -5841.8444   -4795.8526    25015.132    19429.259    85.016342 
   70900    1629.6194   -99.754172    1.4745139   -98.279658    640.34851    4.4136012    4.4136012    4.4136012    640.34851    13294.174   -34674.285    23301.156    15946.334   -1689.8591   -2186.4483      85.9764 
   71000     1791.386   -99.886974    1.6208837    -98.26609   -27760.418    4.4125785    4.4125785    4.4125785   -27760.418   -11094.252   -16564.212   -55622.789   -17548.628     8701.174    22539.212    85.916653 
   71100    2185.4954   -100.23232    1.9774822   -98.254842   -2249.2216     4.406348     4.406348     4.406348   -2249.2216   -12868.537   -35926.805    42047.677    15473.091    11057.284   -17124.956    85.553223 
   71200    1366.0511   -99.509296    1.2360317   -98.273265   -20335.748    4.4009929    4.4009929    4.4009929   -20335.748   -9452.3674    10905.475   -62460.351   -20194.355    11470.881    27273.907    85.241678 
   71300    2535.8613   -100.55422    2.2945006   -98.259721   -5047.4015    4.3964207    4.3964207    4.3964207   -5047.4015    2616.3033   -15148.326   -2610.1813    27814.832    10229.728   -6090.1833    84.976285 
   71400    1201.8025   -99.361053    1.0874162   -98.273636    13072.644    4.4065349    4.4065349    4.4065349    13072.644    10406.045    35422.177   -6610.2917   -15810.831    5978.4303    25609.112    85.564113 
   71500    1972.1544    -100.0373    1.7844468   -98.252851    -14268.08    4.4225585    4.4225585    4.4225585    -14268.08    9766.4504   -28822.445   -23748.246    11211.037    15685.131    3854.0726    86.500925 
   71600    1431.9294   -99.540976    1.2956398   -98.245336   -26732.311    4.4145304    4.4145304    4.4145304   -26732.311    1797.8196   -41875.029   -40119.724    -11270.67    3606.3946    13313.403    86.030716 
   71700    1941.0027   -99.980881      1.75626   -98.224621    37001.752    4.3855218    4.3855218    4.3855218    37001.752    59868.896    23900.961    27235.399    10045.522   -1355.5657   -24165.372    84.345871 
   71800    1758.4414   -99.870804    1.5910747   -98.279729    -19230.76     4.402378     4.402378     4.402378    -19230.76   -2857.8255   -33543.759   -21290.697   -29063.773    8231.4342    21703.419    85.322189 
   71900    1935.3347   -100.02568    1.7511315   -98.274552   -2074.6707     4.430348     4.430348     4.430348   -2074.6707   -21115.149    57.438047    14833.699    11564.358    3473.8784    -4930.294    86.958798 
   72000    1835.9475   -99.904344    1.6612039    -98.24314   -39746.749    4.4266458    4.4266458    4.4266458   -39746.749   -35500.186   -82420.683   -1319.3769   -33687.993   -10765.012   -477.34458    86.740978 
   72100    2220.3096    -100.2197    2.0089828   -98.210715   -8108.7961    4.4119907    4.4119907    4.4119907   -8108.7961   -51875.018    9987.2738    17561.356    6320.9071    368.20387   -5129.0188     85.88232 
   72200    1082.2254   -99.218969   0.97922028   -98.239748     4209.242    4.4214817    4.4214817    4.4214817     4209.242   -36402.457   -43222.098    92252.281   -52871.984   -19305.893   -2567.3969    86.437757 
   72300    1863.2659   -99.901004    1.6859221   -98.215082     5208.941    4.4288461    4.4288461    4.4288461     5208.941    5409.6443    16707.044   -6489.8649   -7325.2519    3652.2902    1479.4451    86.870387 
   72400    1421.3598   -99.521013    1.2860763   -98.234937    38904.385    4.4146075    4.4146075    4.4146075    38904.385    59341.357   -46683.661    104055.46   -29293.935   -12516.162   -10745.685    86.035223 
   72500    1815.1587   -99.889722    1.6423937   -98.247328   -4426.5973    4.4104141    4.4104141    4.4104141   -4426.5973    23235.116   -32595.775    -3919.133    20833.225   -1235.1102    10564.906    85.790282 
   72600    1648.8244   -99.753253     1.491891   -98.261362    39304.662    4.3975477    4.3975477    4.3975477    39304.662    44627.057   -7705.1388    80992.068   -8110.2034   -16125.534   -18740.178    85.041652 
   72700    1355.8196   -99.527627    1.2267741   -98.300853    21130.427    4.4062144    4.4062144    4.4062144    21130.427    47851.416    32051.431   -16511.566   -696.62557   -8513.5457    3559.1763    85.545443 
   72800     1652.898   -99.783432    1.4955768   -98.287856   -3413.0808    4.4202493    4.4202493    4.4202493   -3413.0808   -31958.211    4935.3894    16783.579   -23902.898    -13677.42   -11670.896      86.3655 
   72900     1296.213   -99.434895    1.1728408   -98.262054    36581.332    4.4172172    4.4172172    4.4172172    36581.332    2295.9204    48754.175    58693.902    1216.6651    -13277.85    -10499.69    86.187894 
   73000    1555.9894   -99.651187    1.4078919   -98.243295   -9659.6095    4.4276099    4.4276099    4.4276099   -9659.6095   -71031.126    54240.626   -12188.328   -15100.771    2544.8848   -12796.532    86.797666 
   73100    1928.5939   -99.972857    1.7450323   -98.227825   -21079.488    4.4258885    4.4258885    4.4258885   -21079.488   -36306.087    38380.253   -65312.631    12310.778    13797.257   -7021.5745    86.696468 
   73200      952.215   -99.100298   0.86158414   -98.238714    41916.906     4.408527     4.408527     4.408527    41916.906    568.02305    72410.202    52772.491    34297.336   -8084.5529    204.52079    85.680211 
   73300    1920.8536   -99.987021    1.7380287   -98.248993    3562.0292    4.4028603    4.4028603    4.4028603    3562.0292    980.81629    22590.887   -12885.616    7958.4716   -7234.3714    -11635.19    85.350236 
   73400    1704.4886   -99.821133    1.5422571   -98.278876   -18482.513    4.4109412    4.4109412    4.4109412   -18482.513   -5552.8442    6967.7729   -56862.467    27581.775    7058.4663    25054.001    85.821047 
   73500     1515.877   -99.642027    1.3715974    -98.27043   -31109.959    4.4230559    4.4230559    4.4230559   -31109.959   -33637.443   -39984.757   -19707.677   -9290.0628   -2916.6245   -33091.587    86.530114 
   73600    1768.1066   -99.848318      1.59982   -98.248498   -9892.1486    4.4153966    4.4153966    4.4153966   -9892.1486   -32197.656    3826.3837   -1305.1733    7807.0493   -3516.1487    8454.0266    86.081367 
   73700    1407.6863   -99.539903    1.2737041   -98.266199   -14275.552    4.4051431    4.4051431    4.4051431   -14275.552   -64300.622   -504.13583    21978.103   -35611.552    4768.2224    13891.235    85.483063 
   73800    2065.1037   -100.14086    1.8685492   -98.272309   -14188.499     4.400982     4.400982     4.400982   -14188.499   -40620.589    12570.659   -14515.567     2985.017   -7216.2509   -14628.269    85.241048 
   73900    1253.4918   -99.432285    1.1341857   -98.298099    17091.653    4.4106962    4.4106962    4.4106962    17091.653   -59054.539    59970.928     50358.57   -2992.4603    7806.5372    5745.7477    85.806749 
   74000    1680.5873   -99.800879    1.5206307   -98.280248    1610.6315     4.423985     4.423985     4.423985    1610.6315    -81099.38    99001.474   -13070.201    313.70861   -2919.9832   -13168.438    86.584656 
   74100    1568.1734   -99.679951    1.4189163   -98.261035   -2092.3299    4.4179825    4.4179825    4.4179825   -2092.3299   -35722.639    81277.758   -51832.109    16453.429   -1950.8524    10537.519    86.232699 
   74200    1700.2569   -99.793097    1.5384282   -98.254669    23111.494    4.4045503    4.4045503    4.4045503    23111.494    8486.3934    48960.633    11887.455    25255.707   -945.67538   -8941.3219    85.448556 
   74300    1333.5499   -99.483513     1.206624   -98.276889   -1738.1941    4.4066129    4.4066129    4.4066129   -1738.1941   -20283.878    16839.806   -1770.5109    9707.7162    10128.581    6506.2094    85.568654 
   74400    2112.8701   -100.17972    1.9117693   -98.267951   -6820.2581    4.4270471    4.4270471    4.4270471   -6820.2581   -21798.329   -14377.358    15714.912   -3317.0248   -7337.3559    392.20715    86.764573 
   74500    1218.4036    -99.35006    1.1024372   -98.247623   -9692.5026    4.4328765    4.4328765    4.4328765   -9692.5026   -34209.863    46175.327   -41042.972    15412.391    17063.849     6134.722    87.107771 
   74600    1686.1619   -99.733406    1.5256748   -98.207731    29278.853    4.4220937    4.4220937    4.4220937    29278.853    14130.516    37163.856    36542.187    6668.5243   -7548.1738    9923.0287    86.473656 
   74700    1707.6713   -99.765269    1.5451369   -98.220133   -25283.015      4.41504      4.41504      4.41504   -25283.015   -39801.116    16677.922    -52725.85    5086.1077     27941.56    10740.602    86.060511 
   74800    1965.9205   -100.02165    1.7788062   -98.242839   -9342.3429    4.4114409    4.4114409    4.4114409   -9342.3429   -3395.3968   -22491.951   -2139.6808   -17079.769    -5624.657    20539.753    85.850217 
   74900    1896.3265   -99.973339    1.7158361   -98.257503   -7272.8723    4.4133739    4.4133739    4.4133739   -7272.8723    -18259.02    7236.2804   -10795.878   -3629.4158    18594.311   -20452.884    85.963122 
   75000    1415.0862   -99.560855    1.2803997   -98.280455   -10668.003     4.402369     4.402369     4.402369   -10668.003      29116.1   -24950.209   -36169.901   -26783.009   -8813.4222    38053.606    85.321667 
   75100     2209.617   -100.27987    1.9993079    -98.28056    6431.6792    4.4044068    4.4044068    4.4044068    6431.6792   -6281.2612    17012.236    8564.0626   -22591.051    24976.248    -18442.93    85.440203 
   75200    1057.2234   -99.256229   0.95659795   -98.299631   -54.607849    4.4153652    4.4153652    4.4153652   -54.607849    1312.7077    12866.342   -14342.873   -12321.188    1148.8117    25678.142    86.079531 
   75300    2166.2102   -100.22097    1.9600325   -98.260942    9535.2916    4.4217736    4.4217736    4.4217736    9535.2916     13551.97    40733.148   -25679.243   -24229.071    18255.036   -13786.398    86.454881 
   75400    1221.4985   -99.355456    1.1052375   -98.250218   -23051.739    4.4276156    4.4276156    4.4276156   -23051.739    36253.624   -62051.751   -43357.092   -15307.629    2756.5167    8616.7115    86.798003 
   75500    2010.3225   -100.03887    1.8189821   -98.219892   -1517.8457     4.414681     4.414681     4.414681   -1517.8457    43587.961   -29300.213   -18841.285   -17180.182    14250.699    -197.1483     86.03952 
   75600    1673.0168   -99.745778    1.5137808   -98.231997   -22775.851     4.418277     4.418277     4.418277   -22775.851    37528.459   -64121.545   -41734.467     10249.15   -8235.3624    15470.081    86.249944 
   75700    1436.5393   -99.537088    1.2998109   -98.237277    1986.1574    4.4261093    4.4261093    4.4261093    1986.1574    41104.618   -18270.152   -16875.994    7324.4109    7250.3179    10674.989    86.709445 
   75800    1753.1994   -99.810903    1.5863317   -98.224571   -7680.9575    4.4246826    4.4246826    4.4246826   -7680.9575   -12638.617   -18481.604     8077.348    19917.031    -7141.257    24518.422    86.625621 
   75900    1618.3214   -99.692918    1.4642912   -98.228627    4011.0946      4.42171      4.42171      4.42171    4011.0946   -802.27467   -7073.9347    19909.493   -71.580887   -5295.4965    17865.559     86.45115 
   76000    1731.9537   -99.796187    1.5671081   -98.229079    4270.1457    4.4158274    4.4158274    4.4158274    4270.1457    5151.6695    7649.0213     9.746377    3884.4527    1790.1372    25936.616    86.106568 
   76100    1400.9788   -99.508028     1.267635   -98.240393    19148.121     4.421228     4.421228     4.421228    19148.121   -22839.335     51307.39    28976.308    9134.3349   -11454.585    22919.025    86.422877 
   76200    1485.5659   -99.598517    1.3441712   -98.254345   -6693.2454    4.4278724    4.4278724    4.4278724   -6693.2454   -1143.4566   -11128.786   -7807.4933    -2788.178    11784.552    29216.969    86.813104 
   76300     1534.607   -99.633398    1.3885446   -98.244854    21862.311    4.4180506    4.4180506    4.4180506    21862.311   -61399.159    59066.819    67919.272   -3574.0284    5813.6132    26532.284    86.236684 
   76400    1383.1745    -99.52354    1.2515253   -98.272015     11590.29    4.4275185    4.4275185    4.4275185     11590.29   -22881.909   -43163.318     100816.1   -994.45716     26550.54    44592.687    86.792289 
   76500    1622.9188   -99.717822    1.4684511   -98.249371    15597.425    4.4369363    4.4369363    4.4369363    15597.425   -67064.607    48045.862    65811.019   -7900.5571    3346.0632    12544.995    87.347321 
   76600    1052.9647   -99.194083   0.95274459   -98.241338    8279.2011    4.4419391    4.4419391    4.4419391    8279.2011    8095.8593    11434.958    5306.7858   -2428.3388    18140.028    42641.123    87.643116 
   76700    1958.1007   -99.975611    1.7717307    -98.20388    11997.647    4.4239289    4.4239289    4.4239289    11997.647   -15396.873    21527.234    29862.579    13583.692   -10607.035   -2547.4786    86.581365 
   76800    1727.3158   -99.769507    1.5629117   -98.206595    14984.871    4.3955832    4.3955832    4.3955832    14984.871   -6955.9476    42789.666    9120.8958   -11147.221    1652.3902    65101.375    84.927728 
   76900    2072.1859   -100.13114    1.8749574   -98.256181    18215.888    4.4023885    4.4023885    4.4023885    18215.888    38113.583    4518.7474    12015.332   -6718.4115   -730.61254   -7995.3702    85.322802 
   77000     960.4294   -99.171127   0.86901671    -98.30211    18046.491    4.4316858    4.4316858    4.4316858    18046.491    19771.694    57495.325   -23127.545    23895.728    3492.5011    27734.252    87.037595 
   77100    1630.8587   -99.734155    1.4756352    -98.25852   -5952.4178    4.4403253    4.4403253    4.4403253   -5952.4178    -48135.16    38887.459   -8609.5524    -4449.645   -2241.7377    3106.5252    87.547626 
   77200    1714.7403   -99.791657    1.5515331   -98.240124    2285.6216    4.4227085    4.4227085    4.4227085    2285.6216    -5131.848    27112.843    -15124.13    3460.8553   -2130.6113    27684.414    86.509728 
   77300    1711.5557   -99.785972    1.5486515    -98.23732    21275.977    4.4027209    4.4027209    4.4027209    21275.977   -48588.578    96650.089    15766.419   -8321.1077   -5456.3394    9492.9465    85.342128 
   77400    1033.7694   -99.231057   0.93537627   -98.295681    23713.887    4.3998129    4.3998129    4.3998129    23713.887   -11714.653    12582.791    70273.524      18332.3   -13289.883    19049.097    85.173134 
   77500    1917.3658   -100.05064    1.7348729   -98.315765    -7897.775    4.4236547    4.4236547    4.4236547    -7897.775   -55822.964    -13168.92    45298.559   -5305.8996   -10671.342   -14284.742    86.565267 
   77600    1874.9013   -99.981471    1.6964501   -98.285021   -44048.251    4.4554547    4.4554547    4.4554547   -44048.251   -61142.497   -61236.017   -9766.2381   -7950.8069   -10487.029    12277.588    88.445573 
   77700    1956.8101   -99.985083    1.7705629    -98.21452   -27224.024     4.450949     4.450949     4.450949   -27224.024   -54889.395   -5574.7264   -21207.951   -14978.344   -5666.2597   -8089.3632    88.177515 
   77800    1576.3655   -99.615096    1.4263287   -98.188767   -179.44454    4.4085088    4.4085088    4.4085088   -179.44454   -19564.887    7583.3204    11443.233   -4697.2006   -26.651727    36203.664    85.679147 
   77900    2258.2804   -100.26361    2.0433395   -98.220268    3082.9762    4.3894925    4.3894925    4.3894925    3082.9762    5061.2743   -1220.3436    5407.9977   -5032.4034   -18319.637   -18441.369    84.575182 
   78000    1558.1662   -99.689658    1.4098615   -98.279796    23558.852    4.3922825    4.3922825    4.3922825    23558.852    -8859.452    49612.889    29923.118    5836.2361   -10350.749    16368.752    84.736555 
   78100    1937.0245   -100.07586    1.7526604   -98.323199   -10755.713    4.4337167    4.4337167    4.4337167   -10755.713   -14852.348     -59949.5     42534.71    8471.1259   -18613.508   -6638.2406    87.157308 
   78200    1165.0186   -99.324921    1.0541333   -98.270787   -44642.122    4.4499272    4.4499272    4.4499272   -44642.122   -24115.452   -82765.806   -27045.108    9799.1034   -34592.994    36247.539      88.1168 
   78300    1944.1314   -99.980134     1.759091   -98.221043    26687.781    4.3996349    4.3996349    4.3996349    26687.781    45739.857   -30456.301    64779.787    12412.365    15022.811    5896.9077    85.162797 
   78400    1829.1141   -99.898541    1.6550209    -98.24352    2827.1515    4.3827559    4.3827559    4.3827559    2827.1515    24088.847   -58629.316    43021.923   -925.67756   -23104.997    38454.608    84.186383 
   78500     1504.652   -99.685163    1.3614407   -98.323722    9749.8039    4.4073443    4.4073443    4.4073443    9749.8039    14176.832   -63172.347    78244.927    13253.417    19698.012    13209.843     85.61127 
   78600    1797.3958   -99.936309    1.6263215   -98.309987    -19661.15    4.4419199    4.4419199    4.4419199    -19661.15   -25183.921   -45418.762    11619.234   -5498.2796    16201.024    22834.271    87.641977 
   78700    1747.0778   -99.828853    1.5807927    -98.24806   -13090.325    4.4438415    4.4438415    4.4438415   -13090.325   -23754.856   -52482.783    36966.664    13082.958   -27676.025    11278.836     87.75577 
   78800    1665.8431   -99.739026    1.5072898   -98.231736    19157.074    4.4051939    4.4051939    4.4051939    19157.074    87917.026   -36455.692     6009.888    -9593.365    22178.116    21034.307    85.486015 
   78900    2203.2224   -100.21699     1.993522   -98.223464    14268.191    4.3762556    4.3762556    4.3762556    14268.191    16852.608   -5526.4887    31478.453    35900.889   -28675.337    9628.3866    83.812357 
   79000     1272.048   -99.448273    1.1509758   -98.297297    39751.929    4.4060638    4.4060638    4.4060638    39751.929    98930.408   -22941.642    43267.021   -17157.554    10844.524    20589.992     85.53667 
   79100    1800.3144   -99.908235    1.6289623   -98.279273   -56296.615     4.433823     4.433823     4.433823   -56296.615   -58988.378   -81027.834   -28873.634    36827.685   -22097.683    25334.474    87.163578 
   79200    1736.2981   -99.816666     1.571039   -98.245627    7323.8912    4.4143755    4.4143755    4.4143755    7323.8912    18165.929   -34886.696    38692.441    -9347.045   -15650.815    1398.1339    86.021658 
   79300    1390.7535   -99.512813     1.258383    -98.25443    18664.718    4.3993292    4.3993292    4.3993292    18664.718    28669.803   -45382.646    72706.996      13053.4    5574.9809    24138.692    85.145045 
   79400    1725.7602   -99.830226    1.5615041   -98.268722    31921.837    4.3993119    4.3993119    4.3993119    31921.837    6605.0938    32733.018    56427.399     9234.915   -35797.212   -3870.9941    85.144041 
   79500    1213.6793   -99.403017    1.0981626   -98.304855    7442.5227    4.4220627    4.4220627    4.4220627    7442.5227   -16243.898    19662.201    18909.265    10775.858    5503.3811    38622.101    86.471836 
   79600    2041.4536    -100.0987    1.8471501   -98.251554   -27807.126    4.4407426    4.4407426    4.4407426   -27807.126   -48796.012    -7481.126    -27144.24   -7609.9914     -9974.51    1511.8725    87.572312 
   79700    1112.8481   -99.225565    1.0069283   -98.218637    40784.468    4.4070014    4.4070014    4.4070014    40784.468    67983.076    35272.434    19097.893    10500.639    6316.2993    11201.184    85.591291 
   79800    2141.9444   -100.16769    1.9380763   -98.229615    8377.8345     4.400446     4.400446     4.400446    8377.8345   -28893.823    36314.988    17712.339     212.6575    9050.6301    357.82219    85.209907 
   79900    1870.0944   -99.952541    1.6921007    -98.26044   -487.58588    4.4046753    4.4046753    4.4046753   -487.58588    3731.9307    35149.577   -40344.265   -6499.8316    -19394.85    1741.1425    85.455829 
   80000    1281.2301   -99.454294    1.1592839    -98.29501    1840.0836    4.4158595    4.4158595    4.4158595    1840.0836   -39789.309    27629.552    17680.008    19050.139    24688.059   -2043.6737    86.108441 
   80100      2437.81   -100.47658    2.2057818   -98.270797   -24914.226    4.4179837    4.4179837    4.4179837   -24914.226    12620.705   -50637.145   -36726.238   -7915.3292   -295.18066    11846.357    86.232771 
   80200    1227.9745   -99.399222    1.1110972   -98.288124    2375.2501    4.3869759    4.3869759    4.3869759    2375.2501    -46139.32    35997.362    17267.709    26415.887    31596.236    10924.644    84.429798 
   80300    2187.2875   -100.27092    1.9791037   -98.291814    19931.535    4.3898277    4.3898277    4.3898277    19931.535    8684.7989    33490.179    17619.626   -5294.6278   -9635.8875   -2041.3355    84.594557 
   80400    1745.5189   -99.882981    1.5793822   -98.303599   -18750.253    4.4151511    4.4151511    4.4151511   -18750.253   -8587.3357   -28507.942   -19155.482    13016.634    33222.312   -2240.7379     86.06701 
   80500    1525.7895   -99.665391    1.3805664   -98.284825    16729.675    4.4119847    4.4119847    4.4119847    16729.675   -42501.918    31013.356    61677.588    2094.8603   -1837.1335    6021.0638    85.881968 
   80600    1491.6179   -99.641872    1.3496473   -98.292225    16694.834    4.4003119    4.4003119    4.4003119    16694.834    29588.903    45860.521   -25364.924   -9516.4066    8641.1229   -3536.2717    85.202115 
   80700     2103.369   -100.18454    1.9031725   -98.281369    8428.8687    4.3975013    4.3975013    4.3975013    8428.8687   -34849.643    20773.894    39362.355    11197.383    6408.5003    3301.3787    85.038957 
   80800    1122.3637   -99.323816    1.0155382   -98.308278    20112.173    4.3991185    4.3991185    4.3991185    20112.173    8833.8893    37580.417    13922.213   -19619.349     3365.557    5391.7115    85.132814 
   80900    2216.1376   -100.30644    2.0052079   -98.301234    5102.8903    4.4133286    4.4133286    4.4133286    5102.8903   -7004.3207    25648.772   -3335.7803    7032.8917    12535.595   -7232.6433    85.960475 
   81000    1156.8911   -99.347475    1.0467794   -98.300696    9692.3062    4.4152185    4.4152185    4.4152185    9692.3062   -58257.641    41422.057    45912.502   -9819.0838     12005.64    34290.731    86.070954 
   81100    1571.9459   -99.709964    1.4223297   -98.287634   -26497.452    4.4004853    4.4004853    4.4004853   -26497.452   -17615.592   -19873.786   -42002.977    -786.0768     17602.98   -22113.127     85.21219 
   81200    2212.3015   -100.28494    2.0017368   -98.283198    1590.8106    4.3923426    4.3923426    4.3923426    1590.8106    -27797.45    19835.358    12734.524    8363.7964   -11086.837    12453.022    84.740031 
   81300    1257.9648    -99.45964     1.138233   -98.321407   -3349.6396    4.4062515    4.4062515    4.4062515   -3349.6396    5618.7172     5170.166   -20837.802   -2388.8438    16176.312   -7168.4341    85.547603 
   81400    2095.6335   -100.19805    1.8961732   -98.301873   -37017.437    4.4171173    4.4171173    4.4171173   -37017.437   -12486.867    -39240.99   -59324.453    13113.115   -21773.617   -20153.345    86.182044 
   81500    1986.7032   -100.08439    1.7976108    -98.28678   -5685.1919    4.4027918    4.4027918    4.4027918   -5685.1919   -21621.137   -402.55911    4968.1202    15687.599    38486.134    10784.488    85.346252 
   81600    1272.0771   -99.435127    1.1510021   -98.284125    8566.7779    4.3904935    4.3904935    4.3904935    8566.7779    1136.1059    31026.871   -6462.6435   -8672.9552   -36082.711   -26559.199    84.633052 
   81700    2282.7209   -100.34082    2.0654538   -98.275369   -7535.2174    4.4092403    4.4092403    4.4092403   -7535.2174   -11058.039   -9194.8823   -2352.7305   -7776.1674    11303.249    11796.282    85.721804 
   81800    997.03739   -99.194828   0.90214038   -98.292688   -20212.739    4.4118459    4.4118459    4.4118459   -20212.739   -19741.822   -4452.0973   -36444.297    9779.5282   -19441.767   -26669.215    85.873863 
   81900    2225.9751   -100.29417    2.0141091    -98.28006    13188.964    4.3980959    4.3980959    4.3980959    13188.964   -10669.357    78690.584   -28454.333    3802.2328   -9370.4338    11302.336    85.073456 
   82000    1501.7569   -99.655198    1.3588212   -98.296377   -9310.5634    4.3995101    4.3995101    4.3995101   -9310.5634    8006.6032   -9499.1009   -26439.192   -8868.6953   -2803.9656   -29016.261    85.155551 
   82100    1914.2374   -100.02676    1.7320422   -98.294715   -13765.819    4.4109916    4.4109916    4.4109916   -13765.819   -33472.334    41574.474   -49399.597    14415.778   -22061.756    30604.963     85.82399 
   82200    1814.6137     -99.9122    1.6419006   -98.270299   -9634.6556    4.4242632    4.4242632    4.4242632   -9634.6556     19086.08   -19372.033   -28618.013   -1084.4925    -9044.832   -26138.204    86.600991 
   82300    1182.9327    -99.34079    1.0703424   -98.270448   -10199.355    4.4060234    4.4060234    4.4060234   -10199.355      75220.2   -41090.424    -64727.84    7020.8295   -15410.328    23306.853    85.534318 
   82400    2300.1537   -100.34256    2.0812274   -98.261334    9006.8477    4.3857542    4.3857542    4.3857542    9006.8477     11993.51    14632.944    394.08939    18592.816    7336.6839    7547.1125    84.359277 
   82500    1440.8458   -99.595879    1.3037075   -98.292171    -1777.356    4.3904319    4.3904319    4.3904319    -1777.356    29932.676    8132.2446   -43396.989    1130.7971   -19958.473   -2770.2456    84.629491 
   82600    1537.3715   -99.686206     1.391046    -98.29516    10791.874    4.4195882    4.4195882    4.4195882    10791.874    30514.002    14717.291   -12855.672   -5596.6243    17654.327    27451.083    86.326758 
   82700    1649.0856   -99.756161    1.4921273   -98.264034   -24715.428    4.4211002    4.4211002    4.4211002   -24715.428   -57188.911    47606.801   -64564.174    8818.6478   -40083.934   -7445.6623    86.415388 
   82800     1330.511   -99.457782    1.2038743   -98.253908    12925.612    4.3959514    4.3959514    4.3959514    12925.612   -21647.086    85117.428   -24693.507    -13029.42    46664.805    11574.413    84.949075 
   82900    2403.1967   -100.43097    2.1744629   -98.256508    1747.8362    4.3842184    4.3842184    4.3842184    1747.8362   -27712.616    56706.066   -23749.941    10492.593   -37105.066   -14918.248    84.270688 
   83000    817.30288   -99.057211   0.73951282   -98.317699   -14224.813    4.3953442    4.3953442    4.3953442   -14224.813    -27833.05    16821.893   -31663.283    903.74962    65797.171    19070.916    84.913875 
   83100    2277.4462   -100.36786    2.0606811   -98.307177     14242.82    4.3987182    4.3987182    4.3987182     14242.82    47268.775    44944.476    -49484.79    12144.951   -14938.611   -1448.0815    85.109577 
   83200     1188.142   -99.401431    1.0750558   -98.326375   -32396.547    4.4122266    4.4122266    4.4122266   -32396.547    -34319.02    6514.2613   -69384.883   -3486.5115    30811.836    8656.4889    85.896094 
   83300      1920.25   -100.02108    1.7374825   -98.283598   -17706.229    4.4066684    4.4066684    4.4066684   -17706.229    19453.297   -30088.646    -42483.34    4222.8148    -2534.754    19855.908    85.571887 
   83400    1682.5061   -99.784689    1.5223669   -98.262322    31058.396    4.3824931    4.3824931    4.3824931    31058.396    31590.267    53517.248    8067.6743    11113.062    21620.614   -19907.387    84.171239 
   83500    1148.4497   -99.324985    1.0391415   -98.285843    4178.5222    4.3955738    4.3955738    4.3955738    4178.5222    4002.7594     62502.94   -53970.133   -4774.3992   -12264.086    -4469.768    84.927186 
   83600    2585.8527    -100.6103    2.3397338   -98.270562   -23531.826    4.4103688    4.4103688    4.4103688   -23531.826    -55647.57    33514.437   -48462.345    5301.7532    16660.784   -15974.047    85.787639 
   83700    1076.7869   -99.251324   0.97429943   -98.277024   -47574.701    4.4126985    4.4126985    4.4126985   -47574.701   -343.80579   -54602.419   -87777.879    -5771.661   -7505.4705    18043.568    85.923659 
   83800    2142.9448   -100.19062    1.9389815   -98.251642     7894.117    4.3934088    4.3934088    4.3934088     7894.117    22886.834    33929.702   -33134.185    1996.9211   -96.096982   -23857.295    84.801756 
   83900    1225.2841   -99.383554    1.1086628   -98.274891     10138.34    4.3822687    4.3822687    4.3822687     10138.34    29566.051    59321.164   -58472.195    4191.1751   -4028.3583    49245.834    84.158311 
   84000     1975.702   -100.08466    1.7876567   -98.297006    7835.3088     4.390384     4.390384     4.390384    7835.3088    25455.586    38603.385   -40553.045   -7212.7275   -7521.1917   -31846.889    84.626724 
   84100    1687.8567   -99.828725    1.5272082   -98.301517   -13608.477    4.4203908    4.4203908    4.4203908   -13608.477    17825.159    18690.686   -77341.276    1885.0146    8035.2907    46610.121    86.373794 
   84200    1677.7919   -99.786188    1.5181013   -98.268087   -42080.011    4.4242151    4.4242151    4.4242151   -42080.011   -33255.097   -26806.792   -66178.144   -6824.5462   -16568.679    -16536.84    86.598168 
   84300    1856.5047   -99.929469    1.6798045   -98.249665    3657.1713    4.3921227    4.3921227    4.3921227    3657.1713     11820.02    51148.886   -51997.393   -19968.109    32962.492     13555.62    84.727304 
   84400    2063.6993   -100.13152    1.8672785   -98.264242    13695.249    4.3825959    4.3825959    4.3825959    13695.249    49867.552    16008.252   -24790.058    11557.926   -17366.926   -16687.999    84.177163 
   84500    1396.6937   -99.578131    1.2637578   -98.314373   -6075.9604    4.4028005    4.4028005    4.4028005   -6075.9604    35618.164    12246.612   -66092.658   -5456.1926     28170.19    818.92618    85.346757 
   84600     2384.475   -100.43147    2.1575231   -98.273948   -32777.206    4.4331979    4.4331979    4.4331979   -32777.206    19508.945    -59919.89   -57920.671    2297.7013   -6848.1276    12792.735    87.126716 
   84700    1510.8116   -99.619364    1.3670141    -98.25235    -51925.03    4.4309338    4.4309338    4.4309338    -51925.03   -46103.895   -10440.473   -99230.721    4091.0036    40587.013   -16812.754    86.993298 
   84800    1916.9656   -99.948982    1.7345108   -98.214472    60022.922    4.3930687    4.3930687    4.3930687    60022.922    107968.21    36709.873    35390.684    4133.6038     9172.864   -6110.2373    84.782061 
   84900    1393.1008   -99.517253    1.2605069   -98.256746    668.11012    4.3961308    4.3961308    4.3961308    668.11012   -42215.172    98064.616   -53845.113   -10189.685      24415.2   -25142.144    84.959477 
   85000    1519.2095   -99.622027    1.3746127   -98.247415    31174.675    4.4098969    4.4098969    4.4098969    31174.675    88638.674    33559.051   -28673.701   -12997.716   -15712.027    7640.0621    85.760106 
   85100    1554.3881   -99.668926     1.406443   -98.262483   -4486.3364    4.4144357    4.4144357    4.4144357   -4486.3364   -35945.876    39794.192   -17307.324    -8261.756    28466.546   -31470.593    86.025181 
   85200    1822.3609   -99.895053    1.6489105   -98.246143   -1200.5475    4.4121713    4.4121713    4.4121713   -1200.5475    48134.244   -15975.061   -35760.826   -8264.0217   -11904.791    33038.219    85.892864 
   85300    1756.2969   -99.826595    1.5891343    -98.23746    19362.832    4.3942473    4.3942473    4.3942473    19362.832    38946.589    22022.482   -2880.5768   -10467.367    26106.106    -14207.07    84.850321 
   85400    1979.8838    -100.0438    1.7914405   -98.252358   -613.16733    4.3932472    4.3932472    4.3932472   -613.16733     15768.32   -20094.232    2486.4096   -9356.6312    -12340.71    44710.203    84.792401 
   85500    1819.1254   -99.899334    1.6459829   -98.253351    -2048.563    4.4036352    4.4036352    4.4036352    -2048.563    5357.3304     29422.26   -40925.279   -2215.9016    22261.054   -3111.5525    85.395307 
   85600    1661.3095   -99.749449    1.5031877   -98.246262   -15600.914    4.4163458    4.4163458    4.4163458   -15600.914    30561.833   -16135.264   -61229.311   -5132.1983   -22879.933    32852.022    86.136895 
   85700    1827.0458    -99.87277    1.6531494   -98.219621    -18041.78    4.4191146    4.4191146    4.4191146    -18041.78   -23066.326    22527.772   -53586.786    15596.729     12575.76    9357.0955    86.299009 
   85800    1457.6663   -99.552316    1.3189271   -98.233389   -3811.9089    4.3947612    4.3947612    4.3947612   -3811.9089    50489.778   -13124.025    -48801.48   -11112.617   -1498.6178    37333.591    84.880091 
   85900    1749.0772   -99.828692    1.5826018    -98.24609    32621.064     4.384667     4.384667     4.384667    32621.064     57313.01    45773.353   -5223.1713    4396.8722   -4508.1895    5087.5258    84.296562 
   86000    1493.1067   -99.632885    1.3509943    -98.28189   -5659.8624    4.3908016    4.3908016    4.3908016   -5659.8624    75139.446    -26425.01   -65694.023   -3146.3988   -8679.4561    54028.318    84.650873 
   86100    2226.0022    -100.2856    2.0141335   -98.271465    2058.8313    4.4053129    4.4053129    4.4053129    2058.8313     23006.75    8611.8867   -25442.143   -8689.2097   -5699.2073   -25623.069    85.492948 
   86200    942.99293   -99.121796   0.85323982   -98.268556   -12603.261    4.4157058    4.4157058    4.4157058   -12603.261    13068.684   -20560.984   -30317.484    6483.2822   -14830.217    55006.797    86.099454 
   86300    2250.7415   -100.27834    2.0365182   -98.241818   -14286.743     4.394733     4.394733     4.394733   -14286.743    2841.2186   -15403.315   -30298.133   -1863.7918   -6449.8894   -21134.828    84.878457 
   86400     1242.327   -99.390865    1.1240836   -98.266782    14800.726    4.3916007    4.3916007    4.3916007    14800.726     47390.63   -14282.527    11294.076   -18289.459   -7288.2584    35686.833      84.6971 
   86500    1599.7891   -99.712167    1.4475228   -98.264645   -8622.1759     4.401335     4.401335     4.401335   -8622.1759    6962.2431    -29357.98   -3470.7903    11928.685   -29499.731   -2997.7185    85.261558 
   86600    1962.5047   -100.04473    1.7757155    -98.26901   -31791.372    4.4084969    4.4084969    4.4084969   -31791.372   -18857.937    -53102.93   -23413.248   -30837.178    22547.028    18874.588    85.678451 
   86700     2060.123   -100.11841    1.8640425   -98.254367   -61630.453    4.4156191    4.4156191    4.4156191   -61630.453   -68392.018   -59798.736   -56700.604    22548.239   -7419.9057    7753.5922    86.094379 
   86800    1606.9874   -99.695249     1.454036   -98.241213    18156.249     4.380871     4.380871     4.380871    18156.249    23871.333     2837.199    27760.215    -27931.06    9457.4936     10731.63    84.077812 
   86900    1886.6307   -99.972031    1.7070631   -98.264968    758.30276    4.3710568    4.3710568    4.3710568    758.30276    -5581.291   -11901.379    19757.578    35759.135    536.31754    4004.5555    83.514014 
   87000    2412.3685   -100.47738    2.1827617   -98.294617   -40959.805    4.4080239    4.4080239    4.4080239   -40959.805    -50872.42   -52410.336    -19596.66   -22108.857    41.558297    -435.7677    85.650877 
   87100    1665.0164   -99.765669    1.5065418   -98.259128   -33882.153    4.4381879    4.4381879    4.4381879   -33882.153   -11620.794   -57580.512   -32445.154    28113.056    11941.185    8787.4395     87.42126 
   87200    2145.7547   -100.13696    1.9415239   -98.195436   -29239.007     4.441784     4.441784     4.441784   -29239.007   -37348.079   -34374.873   -15994.068    3160.7078   -10884.267    13230.942    87.633933 
   87300    1383.0487   -99.445554    1.2514115   -98.194142   -8392.7366    4.4104678    4.4104678    4.4104678   -8392.7366    12194.697   -68448.627     31075.72    35208.395   -2334.9019    28856.613    85.793416 
   87400    1979.3801   -99.985286    1.7909847   -98.194302    28199.184     4.371519     4.371519     4.371519    28199.184    8023.5105    50622.087    25951.954    9620.8693    -33259.12    13975.801    83.540506 
   87500    1686.8486   -99.798485    1.5262961   -98.272189   -4586.6042    4.3938145    4.3938145    4.3938145   -4586.6042    9900.9268   -40358.536    16697.797    37941.054    9949.4714    20071.944    84.825254 
   87600    1590.2638   -99.705801    1.4389041   -98.266897   -36653.544    4.4196982    4.4196982    4.4196982   -36653.544   -44637.075   -34098.713   -31224.844    20855.644   -37282.508   -17654.256    86.333201 
   87700    2007.5199   -100.06018    1.8164462   -98.243731    6919.2899    4.4127049    4.4127049    4.4127049    6919.2899    7700.8852    54668.558   -41611.574   -9521.2185   -2743.1331    20562.869    85.924034 
   87800    1200.0405   -99.354193    1.0858218   -98.268371   -26718.197    4.3989565    4.3989565    4.3989565   -26718.197   -11844.671   -47675.749    -20634.17    34782.213   -25950.589   -28840.407     85.12341 
   87900    2310.7587   -100.34248     2.090823   -98.251658    29965.395    4.3770584    4.3770584    4.3770584    29965.395    81593.074    25017.661   -16714.552   -1572.9224    7468.7667    12503.094    83.858487 
   88000    1300.7456   -99.480785     1.176942   -98.303843   -21513.269    4.3941932    4.3941932    4.3941932   -21513.269    210.09731    -7936.886   -56813.017    28775.783   -18150.131   -18176.341    84.847186 
   88100    1897.8182   -100.00591    1.7171858   -98.288722   -1089.0251    4.4100517    4.4100517    4.4100517   -1089.0251    46095.253   -11141.897   -38220.431    1757.5668    18856.247   -11406.462    85.769135 
   88200    1768.3199   -99.891954     1.600013   -98.291941   -3053.9646    4.4036791    4.4036791    4.4036791   -3053.9646   -2686.2494    7973.1478   -14448.792    13931.555   -13619.863   -5720.2156    85.397862 
   88300    1512.4212   -99.661039    1.3684705   -98.292569    1367.6973    4.4004856    4.4004856    4.4004856    1367.6973    13817.166    -1032.958    -8681.116   -1172.0273    7938.6653   -34918.429    85.212208 
   88400    1929.4992    -100.0224    1.7458514   -98.276553    22094.286    4.3975447    4.3975447    4.3975447    22094.286    -5249.704    35392.717    36139.845    1484.4307    12004.129   -11438.644    85.041474 
   88500    1510.0455   -99.646244    1.3663209   -98.279923   -33159.569    4.4088845    4.4088845    4.4088845   -33159.569   -12653.312    -30074.02   -56751.373    7167.9899    -29407.38   -39512.835    85.701055 
   88600    2354.3219   -100.37953    2.1302399   -98.249285    4781.2669    4.3972201    4.3972201    4.3972201    4781.2669   -33901.001    10916.606    37328.196   -15138.258    10132.887    164.46949    85.022645 
   88700    1746.2846   -99.861978     1.580075   -98.281903   -20223.611    4.3994001    4.3994001    4.3994001   -20223.611   -13629.623    -13978.07    -33063.14    20524.244   -13032.954   -49862.198     85.14916 
   88800    2234.6511   -100.29167    2.0219593   -98.269713   -13022.644    4.4113502    4.4113502    4.4113502   -13022.644   -14647.647   -19452.804   -4967.4804   -5715.6742    10897.664    7626.4005    85.844923 
   88900    1551.6518   -99.674674    1.4039671   -98.270707   -752.39794    4.4161495    4.4161495    4.4161495   -752.39794     12954.41   -22251.077    7039.4728    4088.4307   -19918.946   -41989.422    86.125408 
   89000    2228.1998   -100.26145     2.016122   -98.245332   -26315.262    4.4228995    4.4228995    4.4228995   -26315.262   -9495.7607   -41977.428   -27472.597   -3463.0349    7324.3249   -6854.1715    86.520936 
   89100    1522.1773   -99.627532    1.3772981   -98.250234    738.83228    4.3981335    4.3981335    4.3981335    738.83228   -21150.012    4538.5458    18827.963    4972.9919   -17234.594   -17867.903     85.07564 
   89200    1727.4453    -99.81064    1.5630288   -98.247611    29903.353    4.3905757    4.3905757    4.3905757    29903.353    26869.018    8981.1994    53859.841   -394.29017     5163.534   -24159.136    84.637807 
   89300    1738.7239   -99.841643    1.5732339   -98.268409   -16802.395    4.4040257    4.4040257    4.4040257   -16802.395     723.7998   -2798.2742   -48332.712    -907.6126   -27024.998   -21310.132    85.418026 
   89400    1587.0827   -99.719727    1.4360258   -98.283701    14850.799    4.4039564    4.4039564    4.4039564    14850.799   -8333.1521    54614.755   -1729.2069    11806.379    1280.8751   -17616.255    85.413996 
   89500    1824.7687   -99.923603     1.651089   -98.272514    3902.0319    4.4137783    4.4137783    4.4137783    3902.0319    57825.817   -20729.857   -25389.865   -19835.687    1113.3413   -13852.247    85.986755 
   89600    1214.3307   -99.363343    1.0987519   -98.264591   -17145.451    4.4079454    4.4079454    4.4079454   -17145.451   -29878.419   -14687.457   -6870.4762    29954.338    6804.1732   -19753.108    85.646302 
   89700    2402.5488    -100.4247    2.1738766   -98.250826    14062.991    4.3901727    4.3901727    4.3901727    14062.991     26303.92    19521.684   -3636.6316   -11765.078   -5130.5229    8327.1771    84.614504 
   89800    1345.4124   -99.512266    1.2173574   -98.294909    12404.411    4.3931494    4.3931494    4.3931494    12404.411    40487.896   -12393.764    9119.1019    53956.551   -4445.4319   -17692.458    84.786738 
   89900    2190.2712   -100.26278    1.9818034   -98.280976   -10605.197    4.4235299    4.4235299    4.4235299   -10605.197    -10938.46    10082.309    -30959.44   -5222.2508     15617.52    2283.0423    86.557938 
   90000    1160.0777   -99.283278    1.0496627   -98.233615   -73573.472    4.4466066    4.4466066    4.4466066   -73573.472   -64466.692   -93752.961   -62500.763    45691.707   -13668.884   -18461.941    87.919686 
   90100    2382.4469   -100.33852     2.155688   -98.182835   -407.39641     4.411599     4.411599     4.411599   -407.39641   -4908.1441   -19318.563    23004.518   -18078.632    9381.6701    3173.2501     85.85945 
   90200    1765.3722   -99.797996    1.5973459    -98.20065   -9637.2382    4.3868355    4.3868355    4.3868355   -9637.2382   -38923.761    -26293.11    36305.156    23824.914     6368.272   -27192.212     84.42169 
   90300    1848.4673    -99.92284    1.6725321   -98.250308    17061.175    4.4024149    4.4024149    4.4024149    17061.175   -15811.299    24771.306    42223.518   -5456.5894    2001.9821   -3637.0965    85.324333 
   90400    1392.6399   -99.524197    1.2600898   -98.264107   -13751.053    4.4313897    4.4313897    4.4313897   -13751.053    8200.7799   -19687.239   -29766.701    36833.745    16735.326   -18424.209    87.020152 
   90500    2012.5926   -100.04749     1.821036   -98.226458   -46062.069    4.4332809    4.4332809    4.4332809   -46062.069    -43790.59   -57501.908   -36893.709   -10209.294   -3282.9421   -12211.953    87.131611 
   90600    1608.1687   -99.709644    1.4551048    -98.25454    35337.456    4.3764467    4.3764467    4.3764467    35337.456    49939.076    50754.098    5319.1949    21740.557    35621.402    1209.1748    83.823336 
   90700    1832.1608   -99.919089    1.6577776   -98.261312    20008.865    4.3489314    4.3489314    4.3489314    20008.865     14271.85    30336.153    15418.592   -15278.326   -26659.585   -28224.027    82.252229 
   90800    1888.5174   -100.02871    1.7087702   -98.319943    13320.244    4.3882425    4.3882425    4.3882425    13320.244    24220.299   -10988.365    26728.799   -14681.229    18359.347    12837.241    84.502946 
   90900    1360.0546   -99.526236     1.230606    -98.29563   -34086.134    4.4234939    4.4234939    4.4234939   -34086.134   -43659.745    13093.094    -71691.75    8111.3289    2968.2614   -7590.1327    86.555823 
   91000    1650.0023   -99.761253    1.4929567   -98.268296   -12162.799     4.409603     4.409603     4.409603   -12162.799   -38828.782   -46212.398    48552.783   -35069.935   -2577.9678    5960.6462    85.742963 
   91100    1619.7098   -99.721079    1.4655475   -98.255532    31548.963     4.379147     4.379147     4.379147    31548.963    46024.697    26403.144    22219.049    25877.593    15586.105   -21319.607    83.978587 
   91200    1756.7475   -99.876034    1.5895421   -98.286492    4758.3212    4.3796266    4.3796266    4.3796266    4758.3212   -12077.496    8893.6884    17458.772   -55495.168   -4099.1319    14787.837    84.006184 
   91300    1818.7845   -99.935678    1.6456745   -98.290004    5835.8057    4.4079567    4.4079567    4.4079567    5835.8057    18960.129   -13979.574    12526.862     25020.93    12437.878   -3967.1534    85.646962 
   91400    780.91489   -98.991336   0.70658821   -98.284748   -16385.761    4.4176578    4.4176578    4.4176578   -16385.761   -56835.699   -52472.144     60150.56   -73761.518   -12293.657   -12545.686    86.213685 
   91500    2851.1013   -100.81439    2.5797364   -98.234651   -13057.819    4.4001001    4.4001001    4.4001001   -13057.819   -18559.419   -6056.7513   -14557.286    15226.657    11468.594    25013.828    85.189813 
   91600    1168.5934   -99.325909    1.0573679   -98.268541   -203.87793     4.380561     4.380561     4.380561   -203.87793   -60708.999    33019.749    27077.616   -58066.461    6212.8679   -10111.837    84.059961 
   91700    2143.1829   -100.22162    1.9391969   -98.282424    19452.555     4.390571     4.390571     4.390571    19452.555    11303.295    47648.203   -593.83193    17414.512    5795.1954     13327.55    84.637539 
   91800    1646.6343   -99.779006    1.4899093   -98.289097   -27799.588     4.422709     4.422709     4.422709   -27799.588   -86911.815    38214.021    -34700.97   -40019.999   -9932.7544   -18912.999    86.509759 
   91900    1399.7912   -99.543131    1.2665605    -98.27657   -30684.063    4.4159425    4.4159425    4.4159425   -30684.063   -76125.253    26172.378   -42099.313    38711.758    4443.2622    7826.3094    86.113299 
   92000     2144.169   -100.19611    1.9400892   -98.256017     12027.07    4.3766269    4.3766269    4.3766269     12027.07    12598.403   -4176.5978    27659.406    -5549.788    1322.5913    -34642.21    83.833689 
   92100    1288.7427   -99.460003    1.1660815   -98.293921   -8921.6278    4.3827593    4.3827593    4.3827593   -8921.6278   -58217.371    22594.575    8857.9133    29644.338   -27423.524    24047.301    84.186577 
   92200    1881.7726   -100.00149    1.7026674   -98.298825   -33264.977    4.4102288    4.4102288    4.4102288   -33264.977   -77895.399   -31603.591    9704.0602    32570.028    20027.713   -4604.3143    85.779471 
   92300    1756.9128   -99.871372    1.5896917    -98.28168   -38281.764    4.4152258    4.4152258    4.4152258   -38281.764   -74335.752    4869.7995   -45379.339    16344.227   -23263.061    8621.8424     86.07138 
   92400    1584.4601   -99.719283    1.4336528   -98.285631   -11013.351    4.3846372    4.3846372    4.3846372   -11013.351   -33049.745    -11921.57    11931.262    34822.459    22666.756    15459.806     84.29484 
   92500    1772.2207   -99.881167    1.6035425   -98.277624    35996.388    4.3790186    4.3790186    4.3790186    35996.388   -27333.499    98369.478    36953.184   -3453.7343   -11913.444     -3550.06      83.9712 
   92600    1374.0396   -99.541265    1.2432599   -98.298005   -344.50277    4.4044943    4.4044943    4.4044943   -344.50277   -39850.732    34040.615     4776.609    43119.069    23710.815    -12848.08    85.445295 
   92700    1568.6997   -99.693796    1.4193925   -98.274404    -2897.584    4.4169533    4.4169533    4.4169533    -2897.584   -18424.483    25519.464   -15787.733   -31152.749    -19766.48   -1978.2985    86.172446 
   92800    2120.4121   -100.16748    1.9185934   -98.248884   -1641.8085    4.4092173    4.4092173    4.4092173   -1641.8085   -4854.9181    19409.833    -19480.34    40954.653    20438.873    179.95807    85.720463 
   92900    1174.1678   -99.316766    1.0624117   -98.254354    25524.468    4.3901853    4.3901853    4.3901853    25524.468    33258.096   -4395.5473    47710.856    -43389.14   -18781.252    26.106021    84.615234 
   93000    2214.7356   -100.25631    2.0039393   -98.252372    1893.4205    4.3907738    4.3907738    4.3907738    1893.4205    12084.848    31224.043   -37628.629    20303.106    23402.248   -4314.8477    84.649265 
   93100    1069.3354   -99.244716    0.9675571   -98.277159    16191.009    4.3934134    4.3934134    4.3934134    16191.009    20670.242   -5324.8749    33227.659   -41398.281   -9864.8017    6303.8737    84.802021 
   93200    2060.9653   -100.13437    1.8648047   -98.269566   -4808.1548     4.406644     4.406644     4.406644   -4808.1548    18992.095    3650.5608    -37067.12    7580.3912    4205.3354   -33022.778    85.570467 
   93300    1257.5979   -99.394201     1.137901     -98.2563    -22541.35    4.4100641    4.4100641    4.4100641    -22541.35   -15382.774   -75130.706    22889.428   -39673.863   -9424.8613     38466.61    85.769863 
   93400    1847.0691   -99.908305     1.671267   -98.237038    8354.8115    4.3804128    4.3804128    4.3804128    8354.8115    19441.861   -29094.147     34716.72    7477.7675   -4822.7433   -35364.839    84.051434 
   93500    1868.5144   -99.948716    1.6906711   -98.258045   -13851.876    4.3850599    4.3850599    4.3850599   -13851.876    -1970.936   -54913.701     15329.01   -21857.945    12182.281    22904.192     84.31922 
   93600    1578.0736   -99.704682    1.4278741   -98.276808   -3540.4086     4.397274     4.397274     4.397274   -3540.4086    19768.891   -56231.573    25841.457   -17323.556    -15283.47   -5331.5959    85.025772 
   93700    1768.6478   -99.880312    1.6003097   -98.280003   -20071.625    4.3975181    4.3975181    4.3975181   -20071.625   -18825.828   -17543.881   -23845.167   -7375.8333    5811.9243    13144.578    85.039934 
   93800    1786.9961   -99.898551    1.6169117    -98.28164   -8633.5785    4.3961994    4.3961994    4.3961994   -8633.5785    8541.4619   -30165.964   -4276.2336   -12861.754   -13831.242    10016.566    84.963452 
   93900    1633.5775   -99.749849    1.4780952   -98.271754    2318.6303    4.4008092    4.4008092    4.4008092    2318.6303    -32730.62    46946.774    -7260.263   -14068.553    2162.0789    4093.7456    85.231005 
   94000    1780.0266   -99.865483    1.6106055   -98.254878   -39344.355    4.4117298    4.4117298    4.4117298   -39344.355   -35267.777   -52349.388   -30415.901   -9154.4739   -9559.2299    17775.553    85.867082 
   94100    1880.9329   -99.937249    1.7019076   -98.235341    11919.391    4.4086217    4.4086217    4.4086217    11919.391   -4267.6747    6379.0103    33646.836   -17865.288    8142.7506    1403.9241     85.68573 
   94200    1579.9404   -99.654848    1.4295633   -98.225285    -14790.78    4.4140568    4.4140568    4.4140568    -14790.78   -29071.453   -47364.173    32063.287    9585.9506    2875.1912      29739.7    86.003028 
   94300    1514.1292   -99.588713    1.3700159   -98.218697    26654.152    4.3977091    4.3977091    4.3977091    26654.152    24149.401    -29871.94    85684.993   -25567.194    12479.786   -11406.587    85.051016 
   94400    1629.5067   -99.705216    1.4744119   -98.230804     39600.44    4.3891005    4.3891005    4.3891005     39600.44     63012.14    14630.451    41158.729   -1153.9065    13745.068    39533.694    84.552523 
   94500    1297.0864   -99.424504    1.1736311   -98.250873   -12490.284    4.3943556    4.3943556    4.3943556   -12490.284    5438.2637   -45756.023    2846.9081   -11987.597   -7165.9121   -37395.537    84.856593 
   94600     2104.306   -100.15579    1.9040203   -98.251766    15247.292    4.3850317    4.3850317    4.3850317    15247.292     36087.55   -26319.723     35974.05    -588.9204    15402.232    44500.189    84.317595 
   94700    1063.1682   -99.238327   0.96197697    -98.27635   -12520.574    4.3967186    4.3967186    4.3967186   -12520.574    14084.218   -25648.496   -25997.444   -10071.907   -10269.666    -41935.12    84.993556 
   94800    1870.8261   -99.959806    1.6927628   -98.267043   -8310.4589    4.3856917    4.3856917    4.3856917   -8310.4589   -20091.759   -39297.829    34458.211   -13208.492    13489.776    27370.894    84.355671 
   94900    1344.9082   -99.498602    1.2169012   -98.281701    20264.782    4.3787318    4.3787318    4.3787318    20264.782    60909.329   -2521.4021    2406.4181    20419.116   -1459.9989    -35170.94    83.954706 
   95000    2164.6327   -100.23814    1.9586052   -98.279535   -22448.047    4.3952436    4.3952436    4.3952436   -22448.047   -31327.795   -19358.227    -16658.12   -15697.019   -2239.6982    21143.483    84.908044 
   95100    1306.8568   -99.467489    1.1824715   -98.285017    9170.5047    4.3904641    4.3904641    4.3904641    9170.5047    2805.6855    29616.636   -4910.8076      33702.8    2668.3209   -29706.284    84.631355 
   95200    2135.2527   -100.21903    1.9320216   -98.287012   -6081.2184    4.3868855    4.3868855    4.3868855   -6081.2184   -20923.398     786.7746    1892.9683    -19965.12   -10966.359    1710.6305    84.424579 
   95300    1532.5289   -99.673791    1.3866643   -98.287127     25453.51    4.3833282    4.3833282    4.3833282     25453.51    25835.984    43715.477    6809.0693    24829.526    11487.723    1599.3917    84.219367 
   95400    1712.6347   -99.845879    1.5496279   -98.296251    531.74224    4.3884824    4.3884824    4.3884824    531.74224   -4941.7024    4741.5927    1795.3364    6082.3442   -18346.231   -13944.414    84.516805 
   95500    2151.7919    -100.2279    1.9469865   -98.280915    -4421.162    4.3968336    4.3968336    4.3968336    -4421.162    7226.3607   -24049.342    3559.4951    11001.167    32258.861    30178.187    85.000229 
   95600     1390.126   -99.525447    1.2578152   -98.267632    20704.297    4.3985043    4.3985043    4.3985043    20704.297    26564.923    30034.918    5513.0496    11316.959   -18354.177   -23782.684    85.097162 
   95700    2026.6227   -100.08525    1.8337308   -98.251518   -32034.217    4.4061875    4.4061875    4.4061875   -32034.217   -19693.693    -59535.28   -16873.678    15143.916    12730.217    52400.286    85.543878 
   95800     1579.171   -99.676649    1.4288671   -98.247782    9609.2351    4.3873861    4.3873861    4.3873861    9609.2351    -13162.67    47359.544   -5369.1682    7739.1666   -13385.032   -33330.866    84.453482 
   95900    1664.7479   -99.758218    1.5062989   -98.251919     18535.85    4.3745166    4.3745166    4.3745166     18535.85    29034.373    23610.519    2962.6566    1568.7089    378.32538      37325.8    83.712479 
   96000    1976.1748   -100.06159    1.7880845   -98.273503   -13558.692    4.3953345    4.3953345    4.3953345   -13558.692   -43522.003   -10118.057    12963.984    32487.669   -3449.6488   -19278.492    84.913312 
   96100    1487.1709   -99.606466    1.3456235   -98.260843   -14815.609    4.4139958    4.4139958    4.4139958   -14815.609     6992.775   -22092.225   -29347.378   -12465.578   -3623.1917    22436.249    85.999464 
   96200    1724.1949   -99.809964    1.5600878   -98.249876   -38985.407    4.4092254    4.4092254    4.4092254   -38985.407   -61820.151   -59265.307    4129.2389    48673.864    9930.8482   -6020.3527    85.720938 
   96300    1685.4745   -99.777928    1.5250528   -98.252875    17539.227    4.3740731    4.3740731    4.3740731    17539.227    80190.161   -6569.2389    -21003.24   -16735.026   -43607.658      32571.8    83.687023 
   96400    1485.7178   -99.603799    1.3443086    -98.25949    38387.406    4.3616561    4.3616561    4.3616561    38387.406    48944.477    31674.441      34543.3    36148.149    33280.072   -4101.8604    82.976335 
   96500    1699.7476   -99.830767    1.5379674     -98.2928     1007.199    4.3919633    4.3919633    4.3919633     1007.199    40054.351   -9996.9042    -27035.85   -17839.384   -36361.446    22979.201     84.71808 
   96600    1405.4335   -99.549435    1.2716658   -98.277769   -27040.022    4.4107523    4.4107523    4.4107523   -27040.022   -30849.205    -86496.17    36225.309    44734.347    25649.438    8064.1728    85.810023 
   96700    1838.2976   -99.921101    1.6633303    -98.25777   -12835.392    4.3911171    4.3911171    4.3911171   -12835.392   -29211.762    18592.259   -27886.674    -4838.091   -43755.916    18867.617    84.669121 
   96800    1591.4305   -99.696491    1.4399598   -98.256531    9167.3735    4.3764775    4.3764775    4.3764775    9167.3735   -18859.746    2584.8984    43776.968    31214.487    8014.7207   -927.82606    83.825101 
   96900    2072.5293   -100.15004    1.8752681    -98.27477   -21294.642    4.3811721    4.3811721    4.3811721   -21294.642   -37403.719    5486.3205   -31966.527   -5285.0215   -22652.038    9036.3787    84.095146 
   97000    1763.4471    -99.88766     1.595604   -98.292056   -2528.6766    4.3863789    4.3863789    4.3863789   -2528.6766   -8032.7799   -8859.1428    9305.8928    30467.839   -18426.392   -5093.7817    84.395333 
   97100    1561.3676   -99.702022    1.4127582   -98.289263   -13922.671    4.3900792    4.3900792    4.3900792   -13922.671   -35480.607    5462.3973   -11749.803   -2853.8692    12847.408    10220.923    84.609099 
   97200    1418.0125   -99.577234    1.2830475   -98.294187    7203.3267    4.3863365    4.3863365    4.3863365    7203.3267    59304.674   -20804.209   -16890.485    6817.2611   -24545.931   -1301.3361    84.392887 
   97300    2036.8013   -100.12378    1.8429406   -98.280844    10286.574    4.3818452    4.3818452    4.3818452    10286.574    21919.862    20799.648   -11859.789    16191.548    13112.245    2046.5713    84.133917 
   97400    913.83691   -99.128318   0.82685884   -98.301459    13244.961     4.386312     4.386312     4.386312    13244.961    38273.018    49944.273   -48482.409    2948.3093   -35794.676   -1506.5171    84.391471 
   97500    2613.7711   -100.62986     2.364995   -98.264869    -19141.14    4.4067321    4.4067321    4.4067321    -19141.14    16869.899   -20502.725   -53790.593     12526.53    17762.457    6183.3405    85.575598 
   97600    934.10051   -99.115637   0.84519377   -98.270443   -40942.992    4.4029644    4.4029644    4.4029644   -40942.992   -44790.427   -392.41062    -77646.14   -20208.378   -33609.339   -8159.1649    85.356288 
   97700    2555.5313   -100.54906    2.3122984   -98.236762    7005.8653    4.3824518    4.3824518    4.3824518    7005.8653    33621.795    6776.6733   -19380.872    3431.9216    18422.488    11228.605    84.168857 
   97800    1530.7494   -99.650102    1.3850543   -98.265048    -26365.06    4.3816769    4.3816769    4.3816769    -26365.06   -35859.144    37255.218   -80491.253   -8027.9527   -13726.346   -7723.8064    84.124221 
   97900    2353.0386   -100.38251    2.1290788   -98.253434    8508.3961    4.3920246    4.3920246    4.3920246    8508.3961    53854.778   -16112.001   -12217.589   -7805.7982    12339.974    2241.4783    84.721627 
   98000     1061.826   -99.237982   0.96076248   -98.277219   -7214.9652    4.3954827    4.3954827    4.3954827   -7214.9652   -20840.988    66103.236   -66907.144    2601.4997   -16019.424    3852.1346    84.921904 
   98100    2258.2323    -100.2904     2.043296   -98.247101   -5199.9784    4.3983183    4.3983183    4.3983183   -5199.9784   -6228.1055     4650.971   -14022.801    13993.413    16915.889   -712.45408    85.086365 
   98200    979.20694   -99.138241   0.88600702   -98.252234   -34644.219    4.4020345    4.4020345    4.4020345   -34644.219   -68821.053    8210.4913   -43322.096     2706.306   -26538.828    14184.633    85.302216 
   98300    2293.8446   -100.31575    2.0755188   -98.240228   -5032.2426    4.3855385    4.3855385    4.3855385   -5032.2426   -22932.493    7544.2544    291.51049   -17016.331    20434.174   -15726.291    84.346833 
   98400    1335.4589   -99.477445    1.2083512   -98.269094   -11481.196    4.3854711    4.3854711    4.3854711   -11481.196   -49103.404    28554.499   -13894.684    31929.506   -23596.176    9984.2917    84.342945 
   98500    1675.7479   -99.785737    1.5162519   -98.269485    9295.6507    4.3917525    4.3917525    4.3917525    9295.6507    14605.424    26067.765   -12786.236   -13800.501     10493.03   -15741.642    84.705883 
   98600    1846.9498   -99.931545     1.671159   -98.260386   -30963.865    4.4128608    4.4128608    4.4128608   -30963.865   -51777.857    14468.241    -55581.98    6836.3775   -29194.155    8574.8258     85.93314 
   98700    1733.1186     -99.8073    1.5681621   -98.239138   -21532.406    4.4014976    4.4014976    4.4014976   -21532.406   -60659.125    38796.966   -42735.058   -13884.296   -8250.4818    769.77414    85.271007 
   98800    1837.4456   -99.885795    1.6625594   -98.223236    35207.968    4.3653584    4.3653584    4.3653584    35207.968    26206.633    20863.879    58553.393   -4565.4134   -27499.439    1087.7689    83.187813 
   98900    1718.3702   -99.818867    1.5548175    -98.26405   -1254.6433    4.3834898    4.3834898    4.3834898   -1254.6433   -51831.422     55746.83   -7679.3385    1786.1332    6121.0699    23406.275    84.228682 
   99000    1530.8398   -99.655127     1.385136   -98.269991    6575.0808    4.4064007    4.4064007    4.4064007    6575.0808   -11242.209    4427.6113     26539.84   -7670.7006   -25593.385    4927.9619    85.556292 
   99100    1542.2549   -99.644738    1.3954647   -98.249273    21117.786    4.4085691    4.4085691    4.4085691    21117.786    26322.924     49778.08   -12747.647    3685.0623   -12182.434    16968.573    85.682664 
   99200    1188.5444   -99.330894    1.0754199   -98.255475    3160.2811    4.3930669    4.3930669    4.3930669    3160.2811   -23324.885    17093.848     15711.88   -18791.236   -35134.329    1506.7787     84.78196 
   99300    2161.5192    -100.2057     1.955788   -98.249914     17435.81    4.3762998    4.3762998    4.3762998     17435.81   -671.75005    14162.852    38816.328    9505.9212    -26717.98    2750.1781    83.814895 
   99400    1168.4354     -99.3457    1.0572249   -98.288475    4255.2901    4.3913689    4.3913689    4.3913689    4255.2901   -14729.861    3692.8811     23802.85   -22896.798   -32951.853    3594.0777    84.683689 
   99500    1287.6897   -99.452042    1.1651287   -98.286913   -20067.521    4.4031229    4.4031229    4.4031229   -20067.521   -52362.439    1001.7677   -8841.8923     14192.24   -48718.474   -8276.5202    85.365509 
   99600    2019.6256   -100.09513    1.8273997   -98.267729    14587.941    4.3875844    4.3875844    4.3875844    14587.941   -17562.447    16634.505    44691.766   -2456.6233   -12494.907    14813.137    84.464933 
   99700    1620.2026   -99.741798    1.4659933   -98.275805   -20283.787    4.3945107    4.3945107    4.3945107   -20283.787   -40248.478    5413.9193   -26016.801   -634.13116   -33850.664   -7097.0273    84.865579 
   99800     1557.455   -99.668615     1.409218   -98.259397    20162.353    4.3910184    4.3910184    4.3910184    20162.353    12769.963    36574.192    11142.903    19035.809   -5080.9501    10897.002    84.663412 
   99900    1656.4081   -99.770534    1.4987528   -98.271781     7536.142    4.3921456    4.3921456    4.3921456     7536.142    45776.064   -17418.558   -5749.0795   -23440.941   -35979.087    -1596.738    84.728631 
  100000    1820.3252   -99.910251    1.6470685   -98.263182   -9329.3481    4.4010478    4.4010478    4.4010478   -9329.3481    -18239.04    36293.651   -46042.656    11674.752    4767.5568    3149.0928    85.244872 
Loop time of 21.2476 on 1 procs for 100000 steps with 8 atoms

Pair  time (%) = 6.2153 (29.2517)
Kspce time (%) = 5.30473 (24.9662)
Neigh time (%) = 0.191668 (0.902068)
Comm  time (%) = 0.854939 (4.02369)
Outpt time (%) = 0.0244069 (0.114869)
Other time (%) = 8.6566 (40.7414)

Nlocal:    8 ave 8 max 8 min
Histogram: 1 0 0 0 0 0 0 0 0 0
Nghost:    1720 ave 1720 max 1720 min
Histogram: 1 0 0 0 0 0 0 0 0 0
Neighs:    2048 ave 2048 max 2048 min
Histogram: 1 0 0 0 0 0 0 0 0 0

Total # of neighbors = 2048
Ave neighs/atom = 256
Neighbor list builds = 2617
Dangerous builds = 0
unfix 20
unfix 21
print "seeds:9487290"
seeds:9487290
