LAMMPS (10 Feb 2015)
# ---- initialize simulations
clear
units metal
dimension 3
boundary p p p
atom_style charge
atom_modify map array
# ---- create atoms
read_data /Users/eugeneragasa/pyflamestk_git/pypospack/tests/tests_integration/workflow/WorkflowLammpsThermalExpansion/param_7495/MgO_NaCl_unit.npt.T500/lammps.structure
  triclinic box = (0 0 0) to (4.2565 4.2565 4.2565) with tilt (0 0 0)
  1 by 1 by 1 MPI processor grid
  reading atoms ...
  8 atoms
# ---- define interatomic potential
include potential.mod
mass 1 24.305
mass 2 15.999

group Mg type 1
4 atoms in group Mg
group O type 2
4 atoms in group O

set group Mg charge 1.61805343549
  4 settings made for charge
set group O charge -1.61805343549
  4 settings made for charge

variable R_cut equal 10.0

pair_style buck/coul/long ${R_cut}
pair_style buck/coul/long 10
pair_coeff 1 1 0.0 0.5 0.0 ${R_cut}
pair_coeff 1 1 0.0 0.5 0.0 10
pair_coeff 1 2 1411.7842896 0.281421547192 0.0 ${R_cut}
pair_coeff 1 2 1411.7842896 0.281421547192 0.0 10
pair_coeff 2 2 12275.1016291 0.0833185517679 22.1397903537 ${R_cut}
pair_coeff 2 2 12275.1016291 0.0833185517679 22.1397903537 10

kspace_style pppm 1.0e-5

neighbor 1.0 bin
neigh_modify every 1 delay 0 check yes
# ---- define settings
compute eng all pe/atom
compute eatoms all reduce sum c_eng
# ---- run minimization
reset_timestep 0
fix 1 all box/relax iso 0.0 vmax 0.001
thermo 10
thermo_style custom step pe lx ly lz xy xz yz press pxx pyy pzz pxy pxz pyz c_eatoms
min_style cg
minimize 1e-25 1e-25 5000 10000
PPPM initialization ...
  G vector (1/distance) = 0.352505
  grid = 8 8 8
  stencil order = 5
  estimated absolute RMS force accuracy = 3.81397e-05
  estimated relative force accuracy = 2.64865e-06
  using double precision FFTs
  3d grid and FFT values/proc = 3375 512
Neighbor list info ...
  1 neighbor list requests
  update every 1 steps, delay 0 steps, check yes
  master list distance cutoff = 11
Memory usage per processor = 4.06549 Mbytes
Step PotEng Lx Ly Lz Xy Xz Yz Press Pxx Pyy Pzz Pxy Pxz Pyz eatoms 
       0   -106.97328       4.2565       4.2565       4.2565            0            0            0    38192.574    38192.574    38192.574    38192.574 8.7875882e-11 -6.3416216e-11 -7.5192229e-11   -106.97328 
       9   -106.99342    4.2893301    4.2893301    4.2893301            0            0            0     -3.54441     -3.54441     -3.54441     -3.54441 -1.7895043e-11 -1.1181496e-10 -2.9549514e-11   -106.99342 
Loop time of 0.00917792 on 1 procs for 9 steps with 8 atoms

Minimization stats:
  Stopping criterion = linesearch alpha is zero
  Energy initial, next-to-last, final = 
        -106.973281584     -106.993416645     -106.993416645
  Force two-norm initial, final = 5.51503 0.00172663
  Force max component initial, final = 5.51503 0.00051974
  Final line search alpha, max atom move = 0.00390625 2.03024e-06
  Iterations, force evaluations = 9 26

Pair  time (%) = 0.00247383 (26.9541)
Kspce time (%) = 0.00155473 (16.9399)
Neigh time (%) = 0 (0)
Comm  time (%) = 0.0002985 (3.25237)
Outpt time (%) = 0 (0)
Other time (%) = 0.00485086 (52.8536)

Nlocal:    8 ave 8 max 8 min
Histogram: 1 0 0 0 0 0 0 0 0 0
Nghost:    2189 ave 2189 max 2189 min
Histogram: 1 0 0 0 0 0 0 0 0 0
Neighs:    2344 ave 2344 max 2344 min
Histogram: 1 0 0 0 0 0 0 0 0 0

Total # of neighbors = 2344
Ave neighs/atom = 293
Neighbor list builds = 0
Dangerous builds = 0
unfix 1
# ---- define output variables ----
variable natoms equal "count(all)"
variable tot_energy equal "c_eatoms"
variable length_x equal "lx"
variable length_y equal "ly"
variable length_z equal "lz"
variable tilt_xy equal "xy"
variable tilt_xz equal "xz"
variable tilt_yz equal "yz"
variable tot_press equal "press"
variable press_xx equal "pxx"
variable press_yy equal "pyy"
variable press_zz equal "pzz"
variable press_xy equal "pxy"
variable press_xz equal "pxz"
variable press_yz equal "pyz"

# ---- output ----
print "pypospack:output_section:begin"
pypospack:output_section:begin
print "tot_energy = ${tot_energy}"
tot_energy = -106.993416644887
print "num_atoms = ${natoms}"
num_atoms = 8
print "xx = ${length_x}"
xx = 4.28933011317114
print "yy = ${length_y}"
yy = 4.28933011317114
print "zz = ${length_z}"
zz = 4.28933011317114
print "xy = ${tilt_xy}"
xy = 0
print "xz = ${tilt_xz}"
xz = 0
print "yz = ${tilt_yz}"
yz = 0
print "tot_press = ${tot_press}"
tot_press = -3.54441004469774
print "pxx = ${press_xx}"
pxx = -3.5444100447524
print "pyy = ${press_yy}"
pyy = -3.54441004470836
print "pzz = ${press_zz}"
pzz = -3.54441004463246
print "pxy = ${press_xy}"
pxy = -1.78950429729069e-11
print "pxz = ${press_xz}"
pxz = -1.1181495634962e-10
print "pyz = ${press_yz}"
pyz = -2.95495135207349e-11
print "pypospack:output_section:done"
pypospack:output_section:done
print "pypospack:lammps_sim:done"
pypospack:lammps_sim:done
#------------------------------------------------------------------------------
# RUN THERMOSTAT
# running using an NPT Nose-Hoover style thermostat
#------------------------------------------------------------------------------
variable tempdamp equal 0.1
variable pressdamp equal 1.0
# set initial velocities
velocity all create 500 7283753 mom yes dist gaussian loop all
# fix for Nose-Hoover style thermostat
fix 20 all npt temp 500 500 0.1 aniso 0.0 0.0 1.0 drag 1.0 couple xyz
variable boxx equal lx
variable boxy equal ly
variable boxz equal lz
variable boxp equal press
variable boxt equal temp
# calculate averages every 10000 steps
reset_timestep 0
fix 21 all ave/time 10 10 100 v_boxx v_boxy v_boxz v_boxp v_boxt file lattice.out
thermo_style custom step temp pe ke etotal press lx ly lz press pxx pyy pzz pxy pxz pyz vol
thermo_modify flush yes
thermo 100
run 100000
PPPM initialization ...
  G vector (1/distance) = 0.352181
  grid = 8 8 8
  stencil order = 5
  estimated absolute RMS force accuracy = 3.87093e-05
  estimated relative force accuracy = 2.68821e-06
  using double precision FFTs
  3d grid and FFT values/proc = 3375 512
Memory usage per processor = 3.06549 Mbytes
Step Temp PotEng KinEng TotEng Press Lx Ly Lz Press Pxx Pyy Pzz Pxy Pxz Pyz Volume 
       0          500   -106.99342   0.45241051   -106.54101    6118.6879    4.2893301    4.2893301    4.2893301    6118.6879    7330.9044    5367.8097    5657.3496    1384.0931    2763.4956   -3402.5859    78.916609 
     100    107.15713    -106.5737  0.096958026   -106.47675   -5141.2719    4.3151388    4.3151388    4.3151388   -5141.2719   -6601.3967   -6731.3911   -2091.0278   -3493.1536   -7005.2621   -84.768405     80.34971 
     200    409.16813   -106.72585   0.37022392   -106.35562    667.51972    4.3046341    4.3046341    4.3046341    667.51972   -7296.8855    1904.5709    7394.8738   -1210.6029    40.136405    1500.6283    79.764332 
     300    354.17426   -106.57381   0.32046431   -106.25335     8538.669    4.3109974    4.3109974    4.3109974     8538.669    8475.8609     6188.732    10951.414   -1248.4486   -3079.9742    4829.2509    80.118589 
     400    372.11842   -106.50348   0.33670057   -106.16678   -9707.2205    4.3204639    4.3204639    4.3204639   -9707.2205   -12940.204   -8686.4789   -7494.9787   -6241.2241   -6691.1623   -1164.1694    80.647545 
     500    763.27435   -106.79685   0.69062667   -106.10622   -133.03341    4.3098295    4.3098295    4.3098295   -133.03341    7108.7191   -8007.5951    499.77573    761.11134    3349.4017    744.53424    80.053492 
     600    251.28097   -106.31471   0.22736431   -106.08734    167.98041    4.3246406    4.3246406    4.3246406    167.98041   -7611.6306   -5215.5771    13331.149   -6656.4917   -2207.4094    843.70267    80.881661 
     700    644.58637   -106.65945   0.58323529   -106.07622   -5579.0712    4.3133977    4.3133977    4.3133977   -5579.0712   -17524.504   -3622.8866    4410.1773   -4650.2846    1423.3292     7240.359    80.252491 
     800    364.45745   -106.40772   0.32976876   -106.07795    14278.966    4.3208396    4.3208396    4.3208396    14278.966    20696.341    18433.905    3706.6514    4297.6412   -10364.395    3705.7812    80.668582 
     900    530.30314   -106.55972   0.47982942   -106.07989   -7488.8838    4.3150727    4.3150727    4.3150727   -7488.8838   -7082.2921   -263.44952    -15120.91   -2575.6396   -879.44172   -290.17878    80.346017 
    1000    463.69342   -106.49949   0.41955955   -106.07993    3313.7783    4.3202263    4.3202263    4.3202263    3313.7783    24159.334   -3762.8367   -10455.163    2446.5174    -4216.031   -3302.3529    80.634237 
    1100     591.5621   -106.61347   0.53525782   -106.07821   -7432.8188    4.3186287    4.3186287    4.3186287   -7432.8188   -9057.6534   -9098.5186   -4142.2845   -4993.4507   -4303.0553    -2695.235    80.544817 
    1200    583.42194   -106.60783   0.52789244   -106.07994   -5874.4644    4.3148501    4.3148501    4.3148501   -5874.4644    6677.7403   -11977.578   -12323.556   -5411.7555   -494.58055    -1649.263    80.333582 
    1300    439.03852    -106.4779   0.39725128   -106.08065    3198.1644    4.3243941    4.3243941    4.3243941    3198.1644    1817.1614    5578.7716    2198.5602    4253.3907    -8646.192    1484.5571    80.867833 
    1400    441.98592   -106.48023   0.39991815   -106.08032    4363.9361    4.3090044    4.3090044    4.3090044    4363.9361    6246.1276    8113.4169   -1267.7362   -1031.5592   -951.17694    2068.2699    80.007521 
    1500    326.87041   -106.37898   0.29575922   -106.08322     2571.734    4.3255858    4.3255858    4.3255858     2571.734    5466.5424   -3783.4444     6032.104   -1010.9535   -5020.7801    7744.9348    80.934706 
    1600    745.89181   -106.75322   0.67489858   -106.07832   -1322.7513    4.3114113    4.3114113    4.3114113   -1322.7513   -165.92524   -3565.8504   -236.47831   -1666.5268    1569.8344    1398.3826    80.141668 
    1700     391.7991   -106.43988   0.35450806   -106.08537   -5497.1268    4.3186619    4.3186619    4.3186619   -5497.1268    1936.5371   -16348.223   -2079.6945   -6004.0676   -2172.7765    1023.0275    80.546677 
    1800    641.11633   -106.66126   0.58009552   -106.08116   -10052.355      4.32147      4.32147      4.32147   -10052.355   -18505.829   -13099.108    1447.8718    -4109.463    3482.7715    1742.4048    80.703896 
    1900    490.48666    -106.5253   0.44380263    -106.0815    5996.9561    4.3103964    4.3103964    4.3103964    5996.9561    7322.1106    10239.638    429.11928    3308.8836   -6566.2786    1350.5253    80.085081 
    2000    310.93695   -106.36514   0.28134229    -106.0838   -2694.7615    4.3260269    4.3260269    4.3260269   -2694.7615   -14764.036    598.42297    6081.3286   -229.23399   -3984.6499    6236.3285    80.959468 
    2100    626.73694    -106.6454   0.56708475   -106.07831    7296.9804    4.3098889    4.3098889    4.3098889    7296.9804    11989.751    12831.601   -2930.4112    8030.4339   -2618.5058    -3551.286    80.056801 
    2200    328.69301   -106.38092   0.29740834   -106.08351   -9982.8565     4.325972     4.325972     4.325972   -9982.8565   -13531.206   -13520.527   -2896.8365   -7107.8866   -1088.9669    1011.0857    80.956386 
    2300     787.2907   -106.78971   0.71235717   -106.07735   -5964.8494    4.3123732    4.3123732    4.3123732   -5964.8494   -7839.8906   -6285.0908   -3769.5667   -4495.9721   -979.70379   -3669.4419     80.19532 
    2400    451.47874   -106.49085   0.40850745   -106.08234    5348.9491    4.3182504    4.3182504    4.3182504    5348.9491    3796.3847    4628.8553    7621.6073    2340.9443   -2009.9237    3211.0466    80.523653 
    2500    494.25765    -106.5288   0.44721471   -106.08158   -7148.7655    4.3197054    4.3197054    4.3197054   -7148.7655   -20885.163    5394.8599   -5955.9929   -7781.5227    2624.0735   -3223.3006    80.605073 
    2600       358.27   -106.40384   0.32417022   -106.07967     16055.12    4.3135158    4.3135158    4.3135158     16055.12    18426.648    20856.426    8882.2863    11988.298   -916.24223    6751.0741    80.259079 
    2700    504.41625   -106.53728   0.45640643   -106.08087   -8641.0114    4.3220301    4.3220301    4.3220301   -8641.0114    -7491.056   -18712.085    280.10691   -7653.2068   -1971.6825   -2154.0312    80.735281 
    2800    617.10201    -106.6365   0.55836686   -106.07813   -1116.9128    4.3139294    4.3139294    4.3139294   -1116.9128    15.002576    659.79532   -4025.5362    -3738.738    3655.2098    2758.7807    80.282167 
    2900    531.30934   -106.56185   0.48073986   -106.08111   -1309.1466    4.3203338    4.3203338    4.3203338   -1309.1466   -2115.2997   -16596.688    14784.547   -513.97133   -912.43607   -3234.3673    80.640259 
    3000    552.01786   -106.58225   0.49947736   -106.08277   -7430.7405    4.3148902    4.3148902    4.3148902   -7430.7405   -6536.2561   -9046.4514    -6709.514     -6696.73   -323.61915   -1878.3346    80.335824 
    3100    318.44801   -106.37244   0.28813845    -106.0843    12468.643    4.3197094    4.3197094    4.3197094    12468.643    14125.914    5173.6496    18106.365    7729.4531   -4978.7407     2730.646    80.605298 
    3200    597.80756   -106.62119   0.54090884   -106.08028   -6547.6133    4.3185228    4.3185228    4.3185228   -6547.6133   -4290.4135   -3010.0126   -12342.414    3983.1853   -7484.4435     1678.697    80.538891 
    3300    287.27723   -106.34191   0.25993447   -106.08197    10372.447    4.3138571    4.3138571    4.3138571    10372.447   -2256.6481    13668.706    19705.284   -2577.8543   -147.46537    4232.2158    80.278133 
    3400    660.93663   -106.67757   0.59802935   -106.07954   -14928.551    4.3230418    4.3230418    4.3230418   -14928.551    -22129.41    -9011.289   -13644.954    639.97135    2243.3449   -4252.7946    80.791991 
    3500    506.70995   -106.53817   0.45848181   -106.07969    4771.8149    4.3104902    4.3104902    4.3104902    4771.8149    6333.5772   -5379.2236    13361.091   -10564.777   -6325.4544    337.15324    80.090315 
    3600    531.52047   -106.56194   0.48093089     -106.081   -8161.8182    4.3259406    4.3259406    4.3259406   -8161.8182   -11778.092   -10354.767   -2352.5948    178.74022    127.88281     2735.401    80.954621 
    3700    556.52861   -106.58246   0.50355878    -106.0789    3738.9007    4.3117567    4.3117567    4.3117567    3738.9007    10738.385    10111.303   -9632.9856    2183.3138   -2125.3209    -2655.294    80.160926 
    3800    208.47256   -106.27362   0.18863036   -106.08499    9048.1404    4.3185835    4.3185835    4.3185835    9048.1404   -17140.745    24182.333    20102.833   -1166.8565     183.8481   -4222.8258     80.54229 
    3900    631.33708   -106.65425   0.57124706   -106.08301   -9854.2857      4.31813      4.31813      4.31813   -9854.2857   -12312.634    1689.6827   -18939.906    821.07239    1633.9964   -10874.451    80.516919 
    4000    525.16026   -106.55948   0.47517604    -106.0843    6277.0274    4.3104367    4.3104367    4.3104367    6277.0274   -10428.139    4898.9343    24360.286    -6800.062   -2033.1291    6201.9864     80.08733 
    4100    562.59696     -106.591   0.50904955   -106.08195   -19582.125    4.3293007    4.3293007    4.3293007   -19582.125   -28660.567   -14990.619    -15095.19   -1104.7807   -857.44636   -5890.3717    81.143408 
    4200    474.28902   -106.50556   0.42914668   -106.07641    19229.201    4.3021315    4.3021315    4.3021315    19229.201    8192.9342    30764.586    18730.082     360.3358    257.43132    2494.5196    79.625294 
    4300    351.71518   -106.39783   0.31823929   -106.07959    -10321.74    4.3326799    4.3326799    4.3326799    -10321.74   -24248.324    1203.5209   -7920.4165    3336.3565   -1128.3295   -3099.8146    81.333563 
    4400    599.73229   -106.61824   0.54265038   -106.07559    8199.6973    4.3046731    4.3046731    4.3046731    8199.6973    15019.844    10013.822   -434.57467    978.56488    449.34886   -3840.5916      79.7665 
    4500     461.0711   -106.50168   0.41718682    -106.0845    1251.5253    4.3173348    4.3173348    4.3173348    1251.5253   -10258.345   -5560.7493     19573.67   -950.67868   -158.88884   -3486.4598    80.472442 
    4600    526.10751    -106.5595   0.47603313   -106.08346   -21016.094    4.3268314    4.3268314    4.3268314   -21016.094   -25012.668   -17737.107   -20298.506   -8158.5917    595.59701    2189.5733    81.004642 
    4700    499.53365   -106.52814   0.45198854   -106.07615    26623.057    4.2934341    4.2934341    4.2934341    26623.057     12542.45    33373.198    33953.524    2566.8925   -4760.4133   -2911.1462    79.143345 
    4800    440.34086   -106.47546   0.39842966   -106.07703   -27764.832    4.3422341    4.3422341    4.3422341   -27764.832   -33438.719   -17282.285   -32573.491   -2297.7701   -3958.0196   -2784.2161     81.87281 
    4900    536.62097   -106.55661   0.48554593   -106.07106    23069.486    4.2920166    4.2920166    4.2920166    23069.486    19003.121    16851.917     33353.42    1850.7154    3500.1631   -11452.901    79.064984 
    5000    357.94942   -106.40802   0.32388016   -106.08414   -7838.9549    4.3265689    4.3265689    4.3265689   -7838.9549   -3013.8357   -17981.969   -2521.0604   -3450.8175   -1606.9833   -3310.4106    80.989901 
    5100    669.39402    -106.6885   0.60568178   -106.08281   -14650.454    4.3155502    4.3155502    4.3155502   -14650.454    -15647.91   -21385.439   -6918.0145   -11945.214   -1632.7206     5921.661    80.372694 
    5200    505.79444   -106.54053   0.45765343   -106.08288    21494.464    4.2992698    4.2992698    4.2992698    21494.464     24337.12    19007.319    21138.952    3871.5063     -4169.95   -7238.0612    79.466501 
    5300    538.80827   -106.56627   0.48752505   -106.07874   -27639.612    4.3358261    4.3358261    4.3358261   -27639.612   -34125.435   -23281.088   -25512.313    -7362.902   -1087.3792    624.47311    81.510876 
    5400    332.56374   -106.37276   0.30091066   -106.07185    34101.798    4.2922205    4.2922205    4.2922205    34101.798    38361.465    15422.032    48521.897    4134.2157    4339.0799   -6237.5939    79.076251 
    5500    518.18555   -106.54588   0.46886518   -106.07701   -16904.324    4.3317053    4.3317053    4.3317053   -16904.324     -10780.7   -19128.475   -20803.796   -1191.7979    2716.7274   -4242.2201     81.27869 
    5600    575.78945   -106.59832   0.52098639   -106.07734    5253.4428    4.3047516    4.3047516    4.3047516    5253.4428    17368.726   -8811.7838    7203.3863   -8220.6956   -1880.0706    5349.6878    79.770861 
    5700    521.33229   -106.55689   0.47171241   -106.08518    5902.9443    4.3104143    4.3104143    4.3104143    5902.9443    23126.231   -949.12026   -4468.2774   -269.81248    1119.8427   -4457.3202    80.086084 
    5800    475.90914   -106.51203   0.43061259   -106.08142   -15509.662    4.3292777    4.3292777    4.3292777   -15509.662   -5741.8364   -18350.225   -22436.924    2087.6048    1193.4855    -367.6261    81.142119 
    5900    426.36562   -106.46084   0.38578458   -106.07505    26922.147    4.2931242    4.2931242    4.2931242    26922.147    28029.168    17071.055    35666.219   -3405.0294     3854.177   -5565.7881    79.126206 
    6000    471.48327   -106.50573   0.42660797   -106.07912   -9933.3323    4.3322635    4.3322635    4.3322635   -9933.3323    -4924.424   -6294.6771   -18580.896    6084.2881    906.09389   -11657.161    81.310118 
    6100    543.11289   -106.56851   0.49141995   -106.07709    5587.2527    4.3048823    4.3048823    4.3048823    5587.2527   -5411.3725    1156.6744    21016.456   -14241.893    -6591.492    313.96889    79.778127 
    6200    478.86215   -106.51534   0.43328454   -106.08206    5341.7775    4.3108588    4.3108588    4.3108588    5341.7775    33939.075     197.6535   -18111.396   -1215.8897   -3531.9804    -5983.259    80.110859 
    6300    600.38838   -106.62155   0.54324402   -106.07831   -18172.091    4.3281344    4.3281344    4.3281344   -18172.091   -8485.3617   -25745.726   -20285.185   -5224.0401   -1074.7907    2981.6141    81.077847 
    6400    455.49341   -106.48705   0.41214001   -106.07491    20506.504    4.2944021    4.2944021    4.2944021    20506.504    28886.108    15604.343     17029.06   -6694.6549    1620.9594   -4537.7671    79.196887 
    6500    478.48857   -106.51279   0.43294651   -106.07984   -10446.804     4.327691     4.327691     4.327691   -10446.804   -13217.968   -12113.595   -6008.8485    2026.5639    1812.8664   -9906.5039    81.052931 
    6600      437.488   -106.47531   0.39584833   -106.07946    4606.7674    4.3089106    4.3089106    4.3089106    4606.7674   -9754.2977    6496.7272    17077.873   -9874.2411   -4105.1314   -917.81935    80.002297 
    6700    497.18647   -106.53196   0.44986477   -106.08209    5619.4115    4.3057643    4.3057643    4.3057643    5619.4115    23317.186   -3217.8675   -3241.0846   -2702.2671    2223.0256   -3107.0393    79.827174 
    6800    680.86918   -106.69452   0.61606474   -106.07846   -23613.644    4.3284131    4.3284131    4.3284131   -23613.644   -17330.592   -29961.913   -23548.428    1720.2538    3724.2871    1751.5104    81.093513 
    6900    447.23552   -106.48228    0.4046681   -106.07761    10273.124    4.3001059    4.3001059    4.3001059    10273.124    15876.553   -1411.9389    16354.757   -7178.4408    496.91452    2192.4165    79.512875 
    7000     513.6487   -106.54522   0.46476014   -106.08046    -9805.562    4.3223674    4.3223674    4.3223674    -9805.562   -9077.3327   -14799.042   -5540.3115    3617.9684    -790.8789   -10278.291    80.754186 
    7100    415.99473   -106.45774   0.37640078   -106.08134   -3478.6756    4.3159977    4.3159977    4.3159977   -3478.6756   -8251.2037   -1255.1054    -929.7179   -8428.9147   -3883.0897   -3520.0589    80.397697 
    7200    455.74273   -106.49266    0.4123656   -106.08029    13906.938    4.2999958    4.2999958    4.2999958    13906.938    6966.4906    18329.903    16424.421   -8680.1585   -4962.1189   -7480.7369    79.506764 
    7300    572.49378   -106.59737    0.5180044   -106.07937   -22713.621    4.3301927    4.3301927    4.3301927   -22713.621   -10168.427   -25710.437   -32261.999   -1451.0738   -1020.7674   -4566.7634    81.193578 
    7400    497.57434   -106.52989   0.45021572   -106.07967    10548.175    4.2973358    4.2973358    4.2973358    10548.175   -1357.1596    1260.9953    31740.689   -13253.105   -860.09791    1837.8299    79.359307 
    7500    496.71401    -106.5345   0.44943727   -106.08506   -7518.2644    4.3190086    4.3190086    4.3190086   -7518.2644     3319.479   -8543.0442   -17331.228    4823.2736   -3077.4331   -14969.449    80.566075 
    7600    424.56147   -106.46788   0.38415214   -106.08373    1799.1437    4.3148905    4.3148905    4.3148905    1799.1437   -9854.0346    12346.413    2905.0533   -13441.608   -3191.2299   -3539.2141    80.335842 
    7700    506.33134   -106.54163   0.45813923   -106.08349    9635.6099    4.3026614    4.3026614    4.3026614    9635.6099      14904.1    11593.476    2409.2537   -5376.3988   -4245.9523   -5992.8867    79.654722 
    7800    488.21805   -106.52192   0.44174995   -106.08017   -18155.798    4.3301223    4.3301223    4.3301223   -18155.798   -16912.513   -13637.241    -23917.64   -126.28181    1789.9476   -889.89495    81.189615 
    7900    592.70108     -106.612   0.53628839   -106.07572    8672.0029     4.294737     4.294737     4.294737    8672.0029    3462.5426    6806.0677    15747.398   -2468.8891    2269.8761    1896.3041    79.215417 
    8000    494.64343   -106.53028   0.44756377   -106.08272    -7997.126    4.3231674    4.3231674    4.3231674    -7997.126   -11351.808    3712.5916   -16352.162   -878.21763    1604.2991   -7450.7097    80.799029 
    8100    510.61834   -106.54521    0.4620182   -106.08319    -4146.862    4.3136883    4.3136883    4.3136883    -4146.862    -19914.48    5414.7202    2059.1739   -4742.3822     1934.768   -4412.1775    80.268707 
    8200    446.43169   -106.48749   0.40394077   -106.08355     19694.91    4.2968874    4.2968874    4.2968874     19694.91    30578.644    16994.689    11511.396   -10894.158    -4149.307    694.76337     79.33447 
    8300    513.21558   -106.54263   0.46436824   -106.07826   -24466.282    4.3360685    4.3360685    4.3360685   -24466.282   -20877.063   -20351.573    -32170.21    3690.5592    2524.3967   -4108.7388    81.524547 
    8400    563.43578   -106.58087   0.50980854   -106.07106    23982.612    4.2847833    4.2847833    4.2847833    23982.612    24559.333    28884.592    18503.912   -6706.0752   -253.55158    4032.3025    78.665911 
    8500    442.17774   -106.48394   0.40009171   -106.08384   -13349.963    4.3276915    4.3276915    4.3276915   -13349.963   -30843.088    554.89781   -9761.6995   -3999.0909   -767.00893   -10903.819    81.052959 
    8600    645.96105   -106.66685   0.58447914   -106.08237   -5499.6475    4.3093716    4.3093716    4.3093716   -5499.6475   -8380.1999   -8388.7012    269.95875   -2946.7132   -3083.6336   -6536.6987    80.027976 
    8700    356.18616   -106.40516   0.32228472   -106.08288    20543.125    4.2984675    4.2984675    4.2984675    20543.125     13165.07    16241.763    32222.541   -13556.866   -7052.7825    2475.2924    79.422023 
    8800    613.78711   -106.62979   0.55536748   -106.07443   -25355.952    4.3322835    4.3322835    4.3322835   -25355.952   -4076.9244   -32045.544   -39945.389     6904.235   -6373.6126   -12912.576    81.311244 
    8900    394.42585   -106.42643    0.3568848   -106.06954    30545.255     4.288376     4.288376     4.288376    30545.255    28407.005    29012.923    34215.836   -5454.9512    902.43583    7805.6441    78.863956 
    9000    520.98352   -106.54949   0.47139684   -106.07809   -20558.897    4.3249713    4.3249713    4.3249713   -20558.897    -29114.96   -16989.032   -15572.698   -2394.8903   -10.443506   -13816.299    80.900218 
    9100    538.00228   -106.56746   0.48679577   -106.08067    7546.5276    4.3029934    4.3029934    4.3029934    7546.5276    5413.0474    3866.1419    13360.393   -2600.7814    559.18194   -1480.6953    79.673158 
    9200    455.01557   -106.49918   0.41170765   -106.08747    4052.4624    4.3072097    4.3072097    4.3072097    4052.4624   -7505.8664   -5465.5506    25128.804   -9376.6954   -549.42694    3564.4119    79.907595 
    9300    553.19536   -106.58266   0.50054279   -106.08212   -12289.426    4.3223078    4.3223078    4.3223078   -12289.426    1044.6753   -24693.273   -13219.679    1381.2047    1097.2317   -1629.2629    80.750844 
    9400    443.31638   -106.47783   0.40112197   -106.07671    21273.261    4.2959826    4.2959826    4.2959826    21273.261    14089.483    18796.364    30933.937    1235.4396    5615.5227    489.67518    79.284365 
    9500    459.71811   -106.49526   0.41596261    -106.0793   -16143.901    4.3243981    4.3243981    4.3243981   -16143.901   -25349.849   -20738.802   -2343.0516   -7023.9931    988.99381   -608.63824    80.868055 
    9600    565.43036   -106.58785   0.51161327   -106.07624    12564.831    4.3005156    4.3005156    4.3005156    12564.831    3457.5499     16003.84    18233.103    1840.6117   -2834.7749   -8046.8033    79.535604 
    9700    488.54449   -106.52666   0.44204532   -106.08462    -6719.987    4.3126021    4.3126021    4.3126021    -6719.987   -12867.004   -21275.545    13982.588   -14596.431   -3303.0437    5462.0973     80.20809 
    9800    515.78133   -106.54899   0.46668978    -106.0823   -4017.3656    4.3161332    4.3161332    4.3161332   -4017.3656   -5896.1443   -17263.972     11108.02   -2554.8581   -2962.6585   -9181.7259    80.405272 
    9900    522.27297   -106.55219   0.47256356   -106.07962    14680.951    4.2993279    4.2993279    4.2993279    14680.951    10057.576    6712.6655     27272.61     296.5335    326.81878   -479.35934    79.469727 
   10000    355.56981   -106.40437   0.32172704   -106.08264   -10271.138    4.3215363    4.3215363    4.3215363   -10271.138   -20817.645   -18309.653    8313.8846    -7571.011   -164.36283   -3937.4588    80.707611 
   10100    622.03394   -106.63932   0.56282938   -106.07649     8802.139    4.3026864    4.3026864    4.3026864     8802.139   -2901.6883    20281.576    9026.5293    4544.5025   -2367.0309   -7917.6289    79.656108 
   10200    491.37056   -106.52786   0.44460241   -106.08325    -10997.46    4.3132958    4.3132958    4.3132958    -10997.46   -14444.552   -21818.726    3270.8989   -13820.924    280.25039    6885.4588    80.246801 
   10300      506.977   -106.54128   0.45872344   -106.08255   -2700.0007    4.3117148    4.3117148    4.3117148   -2700.0007   -11409.499    -9241.211    12550.708    -1573.835   -2370.5673    246.85423    80.158594 
   10400    594.89474   -106.61824   0.53827326   -106.07996    2145.8737    4.3090829    4.3090829    4.3090829    2145.8737    4927.4765   -5854.9858    7365.1305   -722.79289    7035.6543     5308.901    80.011891 
   10500    245.98593   -106.30722   0.22257324   -106.08465   -773.14686    4.3125164    4.3125164    4.3125164   -773.14686   -18143.501   -13755.924    29579.984   -4162.2094    3679.6713    -993.7703    80.203308 
   10600    628.00896    -106.6484    0.5682357   -106.08016    6080.0026    4.3074048    4.3074048    4.3074048    6080.0026   -6454.6627    16913.915    7780.7561    3862.8229    602.74025    1936.7332    79.918452 
   10700    517.54756   -106.55228   0.46828791   -106.08399   -13679.777    4.3155565    4.3155565    4.3155565   -13679.777   -26032.604   -18670.658    3663.9299   -11687.428   -700.83482   -1672.3858    80.373043 
   10800    439.33439    -106.4824   0.39751899   -106.08488    2239.8132    4.3031929    4.3031929    4.3031929    2239.8132    -7143.236   -5484.8607    19347.536   -5395.4777   -993.72417    6062.1522    79.684243 
   10900    681.43703   -106.69892   0.61657854   -106.08234   -8114.2758    4.3182163    4.3182163    4.3182163   -8114.2758   -9436.6598   -7414.7659   -7491.4015    511.20264    1841.1418   -12253.212    80.521745 
   11000    220.66432   -106.28651   0.19966171   -106.08685    9248.4519    4.3046235    4.3046235    4.3046235    9248.4519   -5052.9505    3517.3437    29280.963   -6938.2304    3047.8913    1611.6039    79.763739 
   11100    592.84971   -106.62056   0.53642287   -106.08414    1933.3589    4.3119262    4.3119262    4.3119262    1933.3589   -10150.255    14118.803    1831.5278    7344.0465   -4417.2101   -5086.3656    80.170385 
   11200     555.8311   -106.58665   0.50292766   -106.08372    -3832.158    4.3140086    4.3140086    4.3140086    -3832.158   -18021.033   -3585.6666    10110.225   -6858.7582   -421.76812    5677.2654    80.286593 
   11300    370.60559   -106.42163   0.33533172    -106.0863    -1034.584    4.3034493    4.3034493    4.3034493    -1034.584   -14026.521   -6692.5721    17615.341   -6079.6532   -254.94081    3298.6832    79.698488 
   11400    779.43558   -106.78697   0.70524969   -106.08172   -11263.227    4.3181833    4.3181833    4.3181833   -11263.227   -18409.624   -4674.0789   -10705.979    3511.6007   -1359.7864    3363.5555      80.5199 
   11500    228.33814   -106.29407   0.20660514   -106.08746    14263.954    4.3030611    4.3030611    4.3030611    14263.954   -4976.6259    12566.379    35202.108   -7739.6787    6365.7609   -263.37904     79.67692 
   11600    571.73879   -106.60776   0.51732127   -106.09043   -5358.3002    4.3128475    4.3128475    4.3128475   -5358.3002    -11050.08    968.53069   -5993.3515    8611.1268   -2213.7043    7887.2912    80.221784 
   11700     536.3052   -106.57382   0.48526021   -106.08856    9282.3487    4.3085943    4.3085943    4.3085943    9282.3487    3347.0191    8289.8077    16210.219   -3965.8555    992.30932   -4236.4474    79.984678 
   11800    408.30769   -106.45847   0.36944538   -106.08902    -8014.927    4.3075289    4.3075289    4.3075289    -8014.927   -20054.538   -14463.406    10473.163   -8207.1845   -1510.5567    5842.9485     79.92536 
   11900    656.43413   -106.67595   0.59395539   -106.08199   -7347.7962    4.3164794    4.3164794    4.3164794   -7347.7962   -19664.925   -1399.3672   -979.09618    2521.2735   -42.690127   -8320.3988    80.424618 
   12000    497.50376   -106.53102   0.45015186   -106.08087     7490.367    4.3023159    4.3023159    4.3023159     7490.367   -8895.9758    17118.153    14248.924   -8572.7393    4736.3127   -3089.8213    79.635533 
   12100    369.03675   -106.41803   0.33391221   -106.08412   -8837.3316    4.3188241    4.3188241    4.3188241   -8837.3316   -12885.453   -10247.424   -3379.1183    7798.4007   -1577.4629    3404.7974     80.55575 
   12200    575.53787   -106.60032   0.52075876   -106.07956    14234.481    4.3028741    4.3028741    4.3028741    14234.481    14055.521    6894.0928    21753.829    2308.1037   -518.85532   -2974.3644    79.666534 
   12300    428.96358   -106.47392   0.38813526   -106.08579    -4362.284    4.3103383    4.3103383    4.3103383    -4362.284    -10999.29   -18431.277    16343.716   -6587.8656    -1277.236    3498.0031    80.081844 
   12400    583.46663   -106.61009   0.52793287   -106.08216   -4791.1219    4.3139988    4.3139988    4.3139988   -4791.1219   -13695.696   -10646.434    9968.7636    4146.8003    1004.8173    711.38528    80.286043 
   12500    556.45598   -106.58428   0.50349306   -106.08078     9189.418    4.2999027    4.2999027    4.2999027     9189.418   -4421.3176     14442.13    17547.441   -4540.7436   -569.49748    -2791.262    79.501602 
   12600    431.09707   -106.47537   0.39006569    -106.0853   -18347.839    4.3217404    4.3217404    4.3217404   -18347.839   -19704.726   -19548.124   -15790.666    6409.4684    3885.9031    6495.6197    80.719048 
   12700    469.77942   -106.50821    0.4250663   -106.08315     21058.25     4.299202     4.299202     4.299202     21058.25    12235.953    5522.2133    45416.585    5267.4476   -7126.1025   -743.83366    79.462744 
   12800     431.3709   -106.48027   0.39031345   -106.08995   -11978.887    4.3167833    4.3167833    4.3167833   -11978.887   -5212.8035   -24932.877   -5790.9793   -7804.3749    2193.1986   -4166.9413    80.441607 
   12900    548.16354   -106.57974   0.49598989   -106.08375    1519.0272    4.3071206    4.3071206    4.3071206    1519.0272   -5392.1348   -10832.136    20781.352     2184.319   -3989.4483    602.26217    79.902635 
   13000     512.7773   -106.54609   0.46397168   -106.08212   -5048.3711    4.3103735    4.3103735    4.3103735   -5048.3711   -9165.0008    5347.8255   -11327.938   -8676.6621    2835.3371   -11041.481    80.083806 
   13100    443.92247   -106.48385   0.40167038   -106.08218   -7366.7281    4.3104847    4.3104847    4.3104847   -7366.7281   -21119.494   -1305.8833    325.19291   -906.81992     524.2367     3190.005    80.090003 
   13200    529.76519    -106.5605   0.47934268   -106.08116    7086.8802    4.3082656    4.3082656    4.3082656    7086.8802     2740.473    7793.1096    10727.058    8051.0064   -1352.3229    1183.9793    79.966376 
   13300    501.88543   -106.53786   0.45411649   -106.08375   -12853.192    4.3140002    4.3140002    4.3140002   -12853.192    -4166.999    -23666.53   -10726.048   -6954.7208   -3453.5866   -3500.4465    80.286123 
   13400    434.46806   -106.47695   0.39311583   -106.08383    13708.266    4.3016637    4.3016637    4.3016637    13708.266    6504.0009    4532.6495    30088.148    3410.2627    2697.6799    2289.8966    79.599323 
   13500    572.29741   -106.59917   0.51782672   -106.08134   -17166.295    4.3214277    4.3214277    4.3214277   -17166.295   -15081.132   -9200.7643    -27216.99   -4778.4506     447.6298   -4705.2258    80.701527 
   13600    442.96057   -106.48137   0.40080004   -106.08057    12801.705    4.2963323    4.2963323    4.2963323    12801.705   -2148.8555    19708.778    20845.194    1260.0374    4299.2857   -457.05795    79.303728 
   13700    529.32016   -106.56114      0.47894    -106.0822   -7691.8498    4.3197853    4.3197853    4.3197853   -7691.8498   -8477.3203   -10041.407   -4556.8221    9432.0321     -1492.02    5157.7004     80.60955 
   13800    497.23835   -106.53325   0.44991171   -106.08334   -2816.4334    4.3049376    4.3049376    4.3049376   -2816.4334    7815.9553   -10031.358   -6233.8973   -826.96933   -5267.1436   -12548.573    79.781204 
   13900     415.2738   -106.46153   0.37574847   -106.08578    9451.5103    4.3075501    4.3075501    4.3075501    9451.5103    4711.3684   -2991.1087    26634.271    -4166.516    3832.0605    2148.3138    79.926541 
   14000    675.87022     -106.694   0.61154158   -106.08246   -13613.024    4.3175128    4.3175128    4.3175128   -13613.024   -6768.3262   -10484.347     -23586.4   -3983.1641   -5079.0786   -11068.849    80.482399 
   14100    349.79171   -106.39824   0.31649889   -106.08174    23995.013     4.295501     4.295501     4.295501    23995.013    7155.8646    25713.285    39115.888   -6334.9244    3163.2628   -2341.7875      79.2577 
   14200    587.58889    -106.6106   0.53166278   -106.07894   -15825.082    4.3239403    4.3239403    4.3239403   -15825.082   -13461.802   -15286.415   -18727.029    3807.0423    -3530.622    647.87852    80.842375 
   14300    396.82477   -106.43878   0.35905539   -106.07973    17528.972    4.2939569    4.2939569    4.2939569    17528.972    28325.696    9217.2308    15043.988    509.50061   -4222.5908   -9799.5046    79.172259 
   14400    543.30877    -106.5777   0.49159719    -106.0861   -13112.313    4.3162065    4.3162065    4.3162065   -13112.313   -10490.824   -19959.007   -8887.1087    -6638.572    3628.6491   -1082.7408    80.409367 
   14500    611.75887   -106.63613   0.55353228    -106.0826    740.16251    4.3079118    4.3079118    4.3079118    740.16251    4532.2818    963.29759   -3275.0918     645.5189     3822.086   -3711.9718    79.946675 
   14600     377.2422   -106.42559   0.34133667   -106.08425    3092.1511    4.3069921    4.3069921    4.3069921    3092.1511   -4224.5796    7564.2427    5936.7902    -3207.763   -733.27718   -2085.2627    79.895481 
   14700    486.02948   -106.52038   0.43976969   -106.08061   -472.81609    4.3144159    4.3144159    4.3144159   -472.81609   -3326.9989    1526.6908    381.85992      5754.89    4584.0668    6757.9722    80.309333 
   14800    441.84216    -106.4803   0.39978807   -106.08051    13817.065    4.3015854    4.3015854    4.3015854    13817.065    33634.587    4041.1694    3775.4381    4701.5104   -8045.4237   -7658.0107    79.594975 
   14900    502.51471   -106.53518   0.45468587   -106.08049   -17560.546    4.3190345    4.3190345    4.3190345   -17560.546   -10198.495   -21468.061   -21015.082   -4216.4912    8442.9452   -3090.2887    80.567525 
   15000    651.60434   -106.66676    0.5895853   -106.07718    6121.9483     4.296992     4.296992     4.296992    6121.9483    8384.1073    1745.5087    8236.2289   -3809.5297    322.10081   -2934.1248    79.340262 
   15100    444.25556   -106.48647   0.40197177    -106.0845   -19726.822    4.3196837    4.3196837    4.3196837   -19726.822   -6694.9756   -22419.378   -30066.114    -1870.081   -3938.0761   -11155.391    80.603861 
   15200    433.88651   -106.47554   0.39258964   -106.08295    13960.713    4.3005525    4.3005525    4.3005525    13960.713    11966.512    5305.6417    24609.986   -2852.0248    1165.6307    4700.9354    79.537654 
   15300    531.70408   -106.56444   0.48109702   -106.08334   -5188.7555    4.3129601    4.3129601    4.3129601   -5188.7555    14647.939   -7684.5127   -22529.692     6715.901   -6385.5638   -11713.543    80.228064 
   15400    382.21985   -106.42848   0.34584055   -106.08264    232.87868    4.3089046    4.3089046    4.3089046    232.87868   -6228.2432    848.63642    6078.2428   -5969.5814    909.25271   -2941.6841    80.001964 
   15500    676.14384   -106.69184   0.61178915   -106.08005   -1647.7009    4.3024196    4.3024196    4.3024196   -1647.7009    6298.7059   -6451.1824   -4790.6261   -4165.2817     4785.556   -4906.8114     79.64129 
   15600    413.53229   -106.45777   0.37417271    -106.0836   -11183.304     4.317897     4.317897     4.317897   -11183.304    4688.4496   -23576.958   -14661.402   -790.01893   -6605.5683   -9658.2542    80.503884 
   15700    569.93486   -106.59699   0.51568904    -106.0813    10596.778     4.296041     4.296041     4.296041    10596.778    18656.767    2307.9383     10825.63   -452.60341    5020.2803     4085.079    79.287594 
   15800    455.61007   -106.49389   0.41224557   -106.08164   -15177.023    4.3226756    4.3226756    4.3226756   -15177.023   -4135.4151    -13412.77   -27982.883    3977.8807   -2916.0486   -2685.4464    80.771462 
   15900    509.17657   -106.54064   0.46071366   -106.07993    8788.0135    4.2970417    4.2970417    4.2970417    8788.0135    6542.5145    14887.255    4934.2707    -1415.797    2084.3987   -2700.2327    79.343014 
   16000    522.33198   -106.55356   0.47261695   -106.08094   -3987.1274    4.3146825    4.3146825    4.3146825   -3987.1274    3025.5619   -11563.581    -3423.363   -8866.9427    1948.3554   -1012.3614    80.324225 
   16100    455.55416   -106.49396   0.41219497   -106.08176    3341.0241    4.3071281    4.3071281    4.3071281    3341.0241    19837.779   -11891.176    2076.4697   -469.35899   -7788.4684   -8469.1807    79.903051 
   16200    588.87307   -106.61582   0.53282473   -106.08299    192.37482    4.3027708    4.3027708    4.3027708    192.37482     5797.676    -9474.469    4253.9174   -4121.1277   -5441.9828    1910.4326    79.660798 
   16300    463.55102   -106.50264    0.4194307    -106.0832   -14075.499    4.3181524    4.3181524    4.3181524   -14075.499   -2835.6565   -24964.026   -14426.816    1067.3635    4562.3773   -2588.2299    80.518168 
   16400     590.7114   -106.61441   0.53448809   -106.07992    5882.1501    4.2962608    4.2962608    4.2962608    5882.1501    17888.455    4601.3079   -4843.3123   -1615.5579   -9048.7335   -7923.3237    79.299769 
   16500    456.93647    -106.4957   0.41344572   -106.08225   -6017.1783     4.319357     4.319357     4.319357   -6017.1783   -1492.1567   -16688.191    128.81237    -4522.859    3522.7521    967.08528    80.585571 
   16600    417.71837   -106.45807   0.37796036   -106.08011    13811.546    4.2979575    4.2979575    4.2979575    13811.546    36430.751    2290.6906    2713.1968   -3405.5657   -9084.4108   -17418.621    79.393757 
   16700    461.22016   -106.50136   0.41732169   -106.08403   -4812.5707    4.3135394    4.3135394    4.3135394   -4812.5707     -15094.3   -11666.312    12322.899   -1991.7791   -2881.5706   -135.69791    80.260398 
   16800    599.84058   -106.62352   0.54274837   -106.08077   -6896.8937    4.3082706    4.3082706    4.3082706   -6896.8937    -5217.766   -12164.795     -3308.12   -1020.6191    4123.0331   -7256.7427    79.966651 
   16900    538.61255   -106.57152   0.48734796   -106.08417   -19.734735    4.3015927    4.3015927    4.3015927   -19.734735    7522.4402   -7905.5962    323.95175     2314.898   -5484.6201   -1680.1165    79.595377 
   17000    509.66227   -106.54226   0.46115313   -106.08111   -18342.803    4.3212945    4.3212945    4.3212945   -18342.803   -15430.971   -29116.313   -10481.123   -4107.0834   -3700.6992     1837.002    80.694067 
   17100    555.26008   -106.57796   0.50241098   -106.07555    18494.641    4.2881583    4.2881583    4.2881583    18494.641    34213.189    8934.7378    12335.996    -2386.514   -3300.8504   -6239.0072     78.85195 
   17200    322.91616   -106.37328   0.29218132    -106.0811   -12836.247    4.3240916    4.3240916    4.3240916   -12836.247   -19701.345   -13360.271   -5447.1239   -3282.2213   -11476.797   -4000.9602     80.85086 
   17300    670.04423   -106.68587    0.6062701    -106.0796     6269.087    4.2953063    4.2953063    4.2953063     6269.087   -111.48128     10331.25    8587.4925   -2236.2958   -287.94175     1378.786    79.246925 
   17400    414.00091   -106.46502   0.37459673   -106.09042   -468.48678    4.3071273    4.3071273    4.3071273   -468.48678    3039.8074   -4860.5357    415.26801    2323.4024   -6455.5048   -5795.5063    79.903007 
   17500    527.45277   -106.56121   0.47725035   -106.08396   -19499.516    4.3179256    4.3179256    4.3179256   -19499.516   -22289.403   -22311.369   -13897.778    1522.6827   -13265.008    3806.3286    80.505482 
   17600    572.29386   -106.59302   0.51782351   -106.07519    17764.835    4.2880394    4.2880394    4.2880394    17764.835    25637.071     10027.95    17629.484   -1620.8398    2142.8738   -11642.649     78.84539 
   17700    392.76399   -106.43225   0.35538111   -106.07687   -23036.512    4.3254034    4.3254034    4.3254034   -23036.512   -22623.195   -20234.685   -26251.655   -2160.4807   -14987.718   -7120.3942    80.924467 
   17800    617.91273    -106.6333   0.55910042    -106.0742     13927.08    4.2925067    4.2925067    4.2925067     13927.08    4248.3891     25172.17     12360.68    110.71535    5182.2886   -2443.1839    79.092072 
   17900    390.01556   -106.43646   0.35289427   -106.08357   -863.51614    4.3107485    4.3107485    4.3107485   -863.51614    2375.3441    735.22948   -5701.1221    1430.2671   -6677.5665   -6418.6311    80.104712 
   18000    552.82884   -106.58192   0.50021115   -106.08171   -11601.105    4.3113687    4.3113687    4.3113687   -11601.105   -20391.853   -6992.4592   -7419.0018    5857.0581   -9248.3604    4207.7379    80.139288 
   18100    482.24575   -106.51462   0.43634609   -106.07828    13775.699    4.2962813    4.2962813    4.2962813    13775.699    17650.399    4289.7686     19386.93   -1778.8832    1811.7307   -7538.2792    79.300903 
   18200    556.30293   -106.58422   0.50335459   -106.08087   -20256.804    4.3158418    4.3158418    4.3158418   -20256.804    -19432.71   -14053.309   -27284.395   -1704.1805   -10795.596    429.14924    80.388989 
   18300    458.09706   -106.49457   0.41449585   -106.08008    10903.098    4.3011618    4.3011618    4.3011618    10903.098    1205.8895    18548.799    12954.607    510.38682   -2877.5222   -1198.9456    79.571464 
   18400     523.7968   -106.55604   0.47394235    -106.0821   -736.44244    4.3060438    4.3060438    4.3060438   -736.44244    1984.0195      3684.73   -7878.0768    2441.7165   -360.58332    1214.2818    79.842722 
   18500    389.42589   -106.43552   0.35236073   -106.08316    3383.9664    4.3098325    4.3098325    4.3098325    3383.9664   -4998.0439    7571.5291     7578.414    5204.7192   -16256.619    -92.68699    80.053656 
   18600    584.59649   -106.60854   0.52895519   -106.07958    1266.7676    4.3046517    4.3046517    4.3046517    1266.7676     6538.713   -6680.1778    3941.7675    3792.1126     2118.868   -684.09652    79.765307 
   18700    532.71312    -106.5639   0.48201002   -106.08189   -2990.0337    4.3057223    4.3057223    4.3057223   -2990.0337   -5960.1044    498.37174   -3508.3685   -4037.3896    -7190.609   -9158.4967    79.824837 
   18800    495.15061   -106.52979   0.44802268   -106.08176     -4745.51    4.3112245    4.3112245    4.3112245     -4745.51   -13838.729     2532.265   -2930.0665    4580.5015   -4860.7748    1264.9062    80.131251 
   18900    546.65853   -106.57576   0.49462812   -106.08113    1383.8999    4.3001471    4.3001471    4.3001471    1383.8999   -2444.3671    8952.1612   -2356.0944    1594.9505     6366.239   -6857.6173    79.515157 
   19000    340.02791   -106.39219    0.3076644   -106.08452    8233.1103    4.3088169    4.3088169    4.3088169    8233.1103    13213.482    9615.6887    1870.1604     5587.158   -11958.245   -1536.7791    79.997079 
   19100    630.40834   -106.65362   0.57040671   -106.08322   -8893.9016    4.3081349    4.3081349    4.3081349   -8893.9016   -122.13831   -15390.882   -11168.684    5996.1708    6299.8683   -526.53465    79.959095 
   19200    479.66775   -106.51805   0.43401346   -106.08403    9321.8448     4.299713     4.299713     4.299713    9321.8448    9481.0353    4886.2803    13598.219   -5240.6763    114.13837   -6989.6822     79.49108 
   19300    612.77238   -106.63613   0.55444933   -106.08168   -16922.078    4.3172908    4.3172908    4.3172908   -16922.078   -23262.746    -13306.41   -14197.079    5805.4631   -3326.8259    5051.7581    80.469985 
   19400    409.54305    -106.4506   0.37056315   -106.08004     12457.13     4.297443     4.297443     4.297443     12457.13    8225.6904    9844.7108    19300.988    4040.2602    1257.7774   -815.28878    79.365247 
   19500    434.50052   -106.47461    0.3931452   -106.08147    3302.3836    4.3107382    4.3107382    4.3107382    3302.3836    21013.534    4670.6925   -15777.075    5928.2554   -8685.2867    2755.8973    80.104138 
   19600    498.71406   -106.53177   0.45124696   -106.08053    25.926183    4.3079021    4.3079021    4.3079021    25.926183    888.54066   -3068.4574    2257.6953    9800.4166   -3217.1174    1288.7197    79.946134 
   19700    520.95038   -106.55305   0.47136685   -106.08168    4208.6141    4.2999676    4.2999676    4.2999676    4208.6141    14093.438   -109.37699   -1358.2184   -4728.8557    2120.3995   -1681.3628    79.505204 
   19800    576.18041   -106.60225   0.52134015   -106.08091   -9412.6996    4.3147178    4.3147178    4.3147178   -9412.6996   -9868.5792   -11641.232   -6728.2876    4838.2662   -7221.7346   -3090.8913    80.326193 
   19900    484.32429   -106.52008   0.43822679   -106.08185    8904.5342    4.2978482    4.2978482    4.2978482    8904.5342    14002.097   -1061.2473    13772.753    7952.1522    3712.2745    886.68415    79.387702 
   20000    427.94908   -106.46982   0.38721732    -106.0826    3889.0172    4.3121337    4.3121337    4.3121337    3889.0172    15170.693    5127.2656   -8630.9066    2544.5097   -3094.1674   -4770.5353    80.181959 
   20100    517.22667   -106.54772   0.46799756   -106.07972    1144.3328    4.3064258    4.3064258    4.3064258    1144.3328   -9490.5297    10824.515    2099.0134    13720.357    1156.4617    1957.4408    79.863974 
   20200    455.01244   -106.49396   0.41170481   -106.08225    3333.0711    4.3018076    4.3018076    4.3018076    3333.0711    11835.741    188.02963   -2024.5573    -2839.115    8327.5795   -7897.4057    79.607311 
   20300    675.60147   -106.68961   0.61129841   -106.07831   -11461.231     4.314323     4.314323     4.314323   -11461.231   -8617.2417   -10529.808   -15236.642    1502.8954    1341.6633   -5241.9895    80.304149 
   20400    470.62539   -106.50582   0.42583174   -106.07999    2938.2427    4.3009913    4.3009913    4.3009913    2938.2427    8842.0968   -3968.8334    3941.4648    10245.637    2747.3449    606.99617    79.562002 
   20500     439.3807   -106.48016   0.39756089    -106.0826    1766.4088    4.3080965    4.3080965    4.3080965    1766.4088    526.99423    12416.239   -7644.0066    148.94733    6952.4361   -5893.7109    79.956958 
   20600    491.47033   -106.52532   0.44469268   -106.08063   -139.35531    4.3099977    4.3099977    4.3099977   -139.35531   -11460.385    8729.0178    2313.3009    12502.611   -6189.1545    6646.6363    80.062864 
   20700    410.25387   -106.45386   0.37120632   -106.08265    3189.9802    4.3004814    4.3004814    4.3004814    3189.9802   -322.22302    2707.5555    7184.6081    3582.6554    7180.4677   -3667.8828    79.533704 
   20800    709.21094    -106.7219   0.64170897   -106.08019   -9571.1754    4.3105831    4.3105831    4.3105831   -9571.1754   -4035.2951   -10461.636   -14216.595   -1668.4932   -1913.4567   -611.64712     80.09549 
   20900    412.74824   -106.45748   0.37346328   -106.08401    2325.7099    4.3054461    4.3054461    4.3054461    2325.7099    -4997.821    2851.2044    9123.7463    13335.989   -1429.2341    975.99504    79.809481 
   21000     457.2494   -106.49816   0.41372887   -106.08444    633.28072    4.3037718    4.3037718    4.3037718    633.28072    2880.4498    15953.712    -16934.32    1224.2826    2557.7618    286.32706    79.716406 
   21100    457.59111   -106.49594   0.41403805    -106.0819    1852.9978    4.3113499    4.3113499    4.3113499    1852.9978   -8164.0711     6649.839    7073.2256    10610.512   -3604.0635    3297.5472    80.138243 
   21200    506.68585   -106.54014      0.45846   -106.08168   -5922.9562     4.302346     4.302346     4.302346   -5922.9562   -3634.8271   -11132.784   -3001.2576    8508.2773     3063.126    3461.0712    79.637206 
   21300    533.42073   -106.56265   0.48265029      -106.08   -2341.4289    4.3100876    4.3100876    4.3100876   -2341.4289   -4028.3442   -4455.3991    1459.4566   -4425.2703    4231.6756   -5285.6957     80.06787 
   21400    615.04416   -106.63601   0.55650488    -106.0795   -10101.326    4.3069278    4.3069278    4.3069278   -10101.326   -17715.403   -13510.381    921.80488    12840.904    3706.1012    1075.2971    79.891904 
   21500     331.1756   -106.38368   0.29965464   -106.08403    9591.6081    4.3013007    4.3013007    4.3013007    9591.6081    12680.176    14049.292    2045.3568    1692.3717    6159.3428   -1339.2093    79.579171 
   21600    597.22706   -106.62157   0.54038359   -106.08119   -7196.7375    4.3123419    4.3123419    4.3123419   -7196.7375   -9780.1881   -2790.9997   -9019.0246    7800.3473    2555.0015   -1005.1871    80.193574 
   21700    387.45445   -106.43434   0.35057692   -106.08376    71.475496    4.3020295    4.3020295    4.3020295    71.475496    6426.7883   -10598.328    4385.9659    9949.5225    366.48154    600.62742     79.61963 
   21800    609.96699   -106.63321   0.55191095    -106.0813   -8937.7693    4.3089102    4.3089102    4.3089102   -8937.7693    -9420.591   -6360.4374    -11032.28   -5010.1414    7180.8986   -6428.6207    80.002272 
   21900    581.51818   -106.60581   0.52616987   -106.07964   -9794.3718    4.3088567    4.3088567    4.3088567   -9794.3718   -15313.818   -15362.578    1293.2803    11640.042   -4140.5991    94.815521    79.999293 
   22000    372.02141   -106.41932   0.33661279    -106.0827    5916.2807    4.3019132    4.3019132    4.3019132    5916.2807     8100.163    9895.9377   -247.25864    1802.6927    7152.5408    -811.1825    79.613174 
   22100    562.29257   -106.58847   0.50877413   -106.07969   -2819.6399    4.3113153    4.3113153    4.3113153   -2819.6399   -2614.8529    -4905.813   -938.25399    10382.854   -6360.4583    4073.7326    80.136314 
   22200    301.44956     -106.355    0.2727579   -106.08224    5816.9182    4.3060157    4.3060157    4.3060157    5816.9182    5602.2293   -6343.6308    18192.156    11775.879   -3137.7198    4173.4115    79.841159 
   22300     659.8736   -106.67577    0.5970675   -106.07871    -6741.527    4.3045268    4.3045268    4.3045268    -6741.527   -5028.5204   -7424.3298   -7771.7307   -3126.1452    2018.6529    4063.8953    79.758367 
   22400    462.32118   -106.50043   0.41831792   -106.08211    -5838.144    4.3085843    4.3085843    4.3085843    -5838.144   -11510.878   -14771.149    8767.5949    10527.466   -94.490899   -3200.9146    79.984123 
   22500    506.47562   -106.54229   0.45826978   -106.08402    -10102.78    4.3046235    4.3046235    4.3046235    -10102.78   -5659.5893   -11829.223   -12819.529    418.27725    224.99443    8088.4228     79.76374 
   22600    534.26494    -106.5665   0.48341414   -106.08308    6673.0772    4.3045465    4.3045465    4.3045465    6673.0772    4047.2462    1236.2816    14735.704    4548.7173    2088.4838   -4106.7424    79.759462 
   22700    341.09319    -106.3941   0.30862828   -106.08547   -6885.2907    4.3118259    4.3118259    4.3118259   -6885.2907    -12098.81   -14134.367    5577.3051    11431.948   -6475.0988    6717.4484    80.164789 
   22800    590.81173   -106.61604   0.53457887   -106.08147    3812.7117    4.2982146    4.2982146    4.2982146    3812.7117     3914.039    30.129201    7493.9668   -6674.9801    4427.9643   -2546.9412    79.408003 
   22900    539.71091   -106.57044   0.48834177    -106.0821   -14060.717    4.3132842    4.3132842    4.3132842   -14060.717   -17184.851   -19825.672   -5171.6285    10733.347    1225.6967   -3304.8814    80.246155 
   23000    493.93064   -106.52939   0.44691882   -106.08247   -9248.1411    4.3044211    4.3044211    4.3044211   -9248.1411   -9575.4787   -15500.274     -2668.67   -325.95301   -2106.3669   -174.41071    79.752489 
   23100    521.47335   -106.55128   0.47184004   -106.07944    7638.3056    4.3037171    4.3037171    4.3037171    7638.3056    2949.8142    7051.8905    12913.212    5479.1492     929.1469    233.80038    79.713364 
   23200    415.03858   -106.45914   0.37553563    -106.0836   -12809.255    4.3123204    4.3123204    4.3123204   -12809.255   -22003.896   -18543.198    2119.3278    15470.335   -6872.5916    2853.7836    80.192372 
   23300    431.03655   -106.47078   0.39001093   -106.08077    16311.357    4.2984499    4.2984499    4.2984499    16311.357    10208.962    17128.934    21596.175   -2999.4686   -1752.5268    4369.4346    79.421049 
   23400    673.86511   -106.69025   0.60972731   -106.08052   -15282.464      4.31271      4.31271      4.31271   -15282.464   -23013.866   -16498.179   -6335.3481    11487.584   -433.45529     1512.522    80.214107 
   23500    399.21727   -106.44559   0.36122017   -106.08437     3151.764    4.3007009    4.3007009    4.3007009     3151.764   -5027.6536   -216.69775    14699.643    904.04051   -4455.4731    169.93944    79.545885 
   23600    583.05621   -106.60904   0.52756151   -106.08148    581.81605     4.309164     4.309164     4.309164    581.81605   -4788.7267    6793.1266    -258.9518    1269.5119   -4385.5905    10081.688    80.016409 
   23700    382.63373   -106.43061   0.34621504    -106.0844   -1112.5661     4.306131     4.306131     4.306131   -1112.5661   -9534.8371   -3245.3254    9442.4643    14659.501    -4637.464   -890.32756     79.84757 
   23800    421.55128   -106.46451   0.38142845   -106.08308    6596.1451    4.3032336    4.3032336    4.3032336    6596.1451    2648.5406    12245.714    4894.1809   -3750.5829   -6827.4514     9085.668    79.686502 
   23900    676.78342   -106.69246   0.61236787   -106.08009   -9350.9489    4.3116274    4.3116274    4.3116274   -9350.9489   -16171.546   -12280.558    399.25774    7057.3162    4120.1446   -5395.4659    80.153718 
   24000    434.03635   -106.47348   0.39272521   -106.08075    637.45433    4.3040641    4.3040641    4.3040641    637.45433   -9907.5271    1835.5988    9984.2913    3430.8914   -3216.0757    1285.5494    79.732649 
   24100    658.12516   -106.67421   0.59548547   -106.07872   -2835.4124    4.3070635    4.3070635    4.3070635   -2835.4124   -6633.0884    2123.0567   -3996.2056   -5457.8563    2580.2843   -681.15522    79.899455 
   24200    341.96676   -106.39128   0.30941871   -106.08186    7208.3478    4.3062896    4.3062896    4.3062896    7208.3478   -74.238036    8724.1318     12975.15    19999.681   -3443.5773    3444.0852    79.856392 
   24300    493.80153   -106.52938     0.446802   -106.08258    194.95609    4.3065149    4.3065149    4.3065149    194.95609    1823.2544    7403.9978   -8642.3839   -2198.9248   -4273.3446   -41.373716    79.868927 
   24400     548.7185   -106.57716   0.49649203   -106.08067    4719.3835    4.3046392    4.3046392    4.3046392    4719.3835    6258.7144   -5079.5462    12978.982    8343.3829    948.32385    1859.7079    79.764612 
   24500    490.62949   -106.52771   0.44393188   -106.08378   -4343.0651    4.3070567    4.3070567    4.3070567   -4343.0651   -12780.931    3504.4163   -3752.6805     7198.257   -668.32949   -1239.7532     79.89908 
   24600    580.68547   -106.60653   0.52541642   -106.08112   -1426.9577    4.3080432    4.3080432    4.3080432   -1426.9577   -5321.9258   -6002.2931     7043.346   -6265.5528   -3322.4879     4924.231    79.953989 
   24700    417.63332   -106.46058   0.37788341   -106.08269     13172.59    4.3008584    4.3008584    4.3008584     13172.59    13725.307    12707.389    13085.074    18996.099    1557.2674     3084.269    79.554626 
   24800    428.65726   -106.47058    0.3878581   -106.08272   -1100.3661    4.3138671    4.3138671    4.3138671   -1100.3661    4745.0721   -6408.9196   -1637.2509    1250.7526   -8777.4423    4263.7233    80.278692 
   24900    555.37487    -106.5821   0.50251485   -106.07958    10626.501    4.2982831    4.2982831    4.2982831    10626.501    18112.096    5108.5006    8658.9083    2098.4555   -1654.5023    7576.4432    79.411801 
   25000    493.14065   -106.52937   0.44620402   -106.08317   -13208.831    4.3128166    4.3128166    4.3128166   -13208.831   -18998.509   -11817.125   -8810.8598    11554.672    2751.4676   -3845.4092     80.22006 
   25100    629.53918   -106.65018   0.56962028   -106.08056    2118.6622     4.304267     4.304267     4.304267    2118.6622    16.199589   -3946.1986    10285.986   -10725.748   -7124.7832    7055.5654    79.743925 
   25200    447.73696   -106.48744   0.40512181   -106.08232    6389.1509    4.3035252    4.3035252    4.3035252    6389.1509    11721.713    3897.4038     3548.336    17937.292    4927.0595    -1787.327    79.702704 
   25300    415.97733   -106.45954   0.37638503   -106.08316    1221.0674    4.3113221    4.3113221    4.3113221    1221.0674    4770.2374    -10542.41    9435.3744     6696.266   -6807.9019    3741.4175     80.13669 
   25400    543.83216   -106.57234   0.49207077   -106.08027    15269.138    4.2980634    4.2980634    4.2980634    15269.138    18058.253     16139.64    11609.522   -19.539054   -686.47053     1544.181    79.399623 
   25500    457.99753   -106.49711   0.41440579    -106.0827   -15171.077    4.3152132    4.3152132    4.3152132   -15171.077   -28619.513   -18782.154    1888.4359    19421.323    2053.4137   -591.47612    80.353865 
   25600    672.71743   -106.68765   0.60868887   -106.07896    5053.4703    4.2991902    4.2991902    4.2991902    5053.4703    5930.0169    9279.0195   -48.625463    -8532.367    3068.8159   -3645.1583    79.462086 
   25700    426.69494   -106.46806   0.38608255   -106.08197   -2787.4392    4.3100954    4.3100954    4.3100954   -2787.4392   -742.73827    -6400.357   -1219.2222    19071.067   -1221.0036    3107.1129    80.068308 
   25800    489.52866   -106.52496   0.44293582   -106.08202   -497.20857    4.3070642    4.3070642    4.3070642   -497.20857    3122.7346    -1435.071   -3179.2894    10929.375    2872.8244   -2533.3314    79.899497 
   25900    454.19295   -106.49122   0.41096333   -106.08026     15989.11    4.3008556    4.3008556    4.3008556     15989.11    8062.0067    19187.003    20718.322    207.54953   -8557.9374    9022.9079    79.554469 
   26000    468.49649    -106.5074   0.42390547   -106.08349   -13487.275    4.3129746    4.3129746    4.3129746   -13487.275   -24366.995   -17584.726    1489.8953    18238.393    6249.8239    606.94921    80.228873 
   26100    662.54457   -106.67831   0.59948425   -106.07882    5293.8583    4.3016061    4.3016061    4.3016061    5293.8583    581.39589    9677.6675    5622.5114   -6176.1367   -3492.7664    2670.9102    79.596121 
   26200    455.42789   -106.49594   0.41208072   -106.08385   -1784.2132    4.3049965    4.3049965    4.3049965   -1784.2132    762.41384   -8465.2718    2350.2184    10173.258   -2854.5221    3328.2547    79.784478 
   26300    403.64581   -106.44928   0.36522722   -106.08405   -5548.7521    4.3119272    4.3119272    4.3119272   -5548.7521   -8997.5997   -1495.3132   -6153.3434    14870.248   -3465.8166    2876.6632     80.17044 
   26400    516.41341   -106.54739   0.46726171   -106.08013    11256.809    4.3019752    4.3019752    4.3019752    11256.809    1387.4602    12807.633    19575.336    -3196.895   -9942.9519    6622.4821    79.616613 
   26500    403.09518   -106.44853   0.36472899    -106.0838   -5251.7722    4.3067131    4.3067131    4.3067131   -5251.7722   -11794.279   -12775.488    8814.4502    24225.127   -1286.1073     4333.157    79.879956 
   26600    636.35671   -106.65424   0.57578893   -106.07845   -1541.1519    4.3106198    4.3106198    4.3106198   -1541.1519    -12083.21    534.13831    6925.6162   -5160.5224    144.70066   -529.69856    80.097536 
   26700     536.3989    -106.5649     0.485345   -106.07955   -10293.625    4.3032896    4.3032896    4.3032896   -10293.625   -13131.266   -13944.176   -3805.4333    15453.404   -210.71755   -2636.8276    79.689614 
   26800    387.35566   -106.43402   0.35048754   -106.08353    45.093467    4.3053779    4.3053779    4.3053779    45.093467   -9176.6501   -489.09265    9801.0231    15594.036    2511.3699     2504.446    79.805683 
   26900    658.99327   -106.67646   0.59627096   -106.08018   -6376.5715    4.3111819    4.3111819    4.3111819   -6376.5715   -13216.429   -1017.8298   -4895.4554    111.26152   -205.56655   -2397.4963    80.128875 
   27000    278.18764   -106.33789   0.25171002   -106.08618    1889.6229     4.298069     4.298069     4.298069    1889.6229   -8382.3609   -8786.6168    22837.846    28914.377   -2240.9847    7020.7068    79.399935 
   27100    659.89681   -106.68182    0.5970885   -106.08473   -3345.3266    4.3095873    4.3095873    4.3095873   -3345.3266   -11942.582   -4929.4305    6836.0323   -6362.3084     5759.903   -4715.5215    80.039995 
   27200    501.95156   -106.53968   0.45417632    -106.0855   -15274.767    4.3097352    4.3097352    4.3097352   -15274.767   -22816.288   -18231.691    -4776.322    13566.937   -5830.5629    2423.9899    80.048232 
   27300    443.18758   -106.48563   0.40100543   -106.08463    7487.2346     4.296099     4.296099     4.296099    7487.2346   -955.49813   -4268.3704    27685.572    13453.858    2206.3083    3510.0059    79.290808 
   27400    630.71048   -106.64814    0.5706801   -106.07746   -11408.071    4.3194982    4.3194982    4.3194982   -11408.071   -14612.876   -6975.6041   -12635.734   -2229.4474   -8640.9505    5763.4053    80.593477 
   27500     167.0078   -106.23398   0.15111217   -106.08287     10477.51    4.2949708    4.2949708    4.2949708     10477.51   -1676.2584   -1826.5028    34935.291    27352.005   -4632.0541    8800.9173    79.228358 
   27600    655.62523   -106.67236   0.59322349   -106.07914   -5348.6728    4.3119931    4.3119931    4.3119931   -5348.6728   -2154.6316   -8439.6394   -5451.7474   -368.31811   -6314.7605     7396.698    80.174113 
   27700     409.1678   -106.45289   0.37022363   -106.08267   -2701.5715    4.3080678    4.3080678    4.3080678   -2701.5715   -13220.225   -9747.7129    14863.223    13369.797    1910.2702   -2176.9223    79.955362 
   27800    560.96979   -106.58847   0.50757725   -106.08089   -4020.7305      4.29896      4.29896      4.29896   -4020.7305   -6540.6561   -16323.662    10802.126    14745.637   -1525.8847    6854.8808    79.449325 
   27900    660.93136   -106.67794   0.59802458   -106.07992   -2652.2076    4.3116391    4.3116391    4.3116391   -2652.2076    -6503.553   -5875.3738    4422.3039    -4255.737    5154.4222   -3687.2172    80.154372 
   28000    211.95516   -106.27911   0.19178149   -106.08733   -1164.0728    4.3014108    4.3014108    4.3014108   -1164.0728    -16850.69   -11122.446    24480.918    26534.231   -4379.5785    5080.1313    79.585282 
   28100    659.45432   -106.68106   0.59668813   -106.08437    -1085.845    4.3057428    4.3057428    4.3057428    -1085.845    8672.5335   -2907.6986   -9022.3698   -1081.9647    4525.2027    111.93215    79.825978 
   28200    475.65268   -106.51556   0.43038054   -106.08518   -1763.3833    4.3092199    4.3092199    4.3092199   -1763.3833   -11951.557     -9795.32    16456.727    13349.221   -113.79374   -2468.0434    80.019526 
   28300    487.34723   -106.52547   0.44096202   -106.08451   -4053.0096    4.3019277    4.3019277    4.3019277   -4053.0096   -7342.7612   -13211.671    8395.4031    10976.437    2831.7842   -663.56781     79.61398 
   28400    626.48305   -106.64594   0.56685503   -106.07909    1827.7146    4.3100238    4.3100238    4.3100238    1827.7146    -6300.228   -11648.657    23432.029   -7401.2162   -2035.1907    2552.0002    80.064317 
   28500    390.15191   -106.43609   0.35301765   -106.08307   -3813.1605    4.3053765    4.3053765    4.3053765   -3813.1605   -15331.254   -9877.7342    13769.506    22749.601   -4533.6172    705.32045    79.805607 
   28600    525.94828   -106.55615   0.47588905   -106.08026    5447.5327    4.3055627    4.3055627    4.3055627    5447.5327    14450.488    263.65008    1628.4598   -3587.2792   -4353.9207    11992.246    79.815965 
   28700    513.77697   -106.54621    0.4648762   -106.08134    947.16935    4.3067027    4.3067027    4.3067027    947.16935   -6411.1243   -2170.9736    11423.606    14583.245    -2553.853   -1453.2907    79.879376 
   28800    426.67821   -106.46994   0.38606741   -106.08387   -1138.9141    4.3047774    4.3047774    4.3047774   -1138.9141   -1438.1145   -7422.1465    5443.5188    13118.513     1320.083    4653.0717    79.772296 
   28900    576.16274   -106.60257   0.52132416   -106.08125    4662.2233    4.3063784    4.3063784    4.3063784    4662.2233   -2630.7721   -10619.041    27236.483   -9318.2583   -2947.1863     7764.119    79.861335 
   29000    540.26321   -106.57336   0.48884151   -106.08452   -1782.8021    4.3037976    4.3037976    4.3037976   -1782.8021   -6308.1213   -3774.9025    4734.6175    17964.218    522.75651    941.94746    79.717838 
   29100    457.52888   -106.49824   0.41398175   -106.08426    2960.3705    4.3097973    4.3097973    4.3097973    2960.3705    3423.5879    -3417.444    8874.9674   -793.02412   -2771.8516      5643.55    80.051693 
   29200    507.70645   -106.54149   0.45938347   -106.08211    845.95828    4.3045781    4.3045781    4.3045781    845.95828   -1057.3639     3340.801    254.43767    7051.8601    6777.0298    -3376.633    79.761217 
   29300    414.94517   -106.45858   0.37545111   -106.08313    6221.9722    4.3033056    4.3033056    4.3033056    6221.9722   -149.33803   -4783.0415    23598.296     14955.78   -145.39912    -5191.302    79.690502 
   29400    551.62756   -106.58019   0.49912421   -106.08107   -7558.6026    4.3115781    4.3115781    4.3115781   -7558.6026    -10044.56   -14752.737    2121.4893   -9675.6815    3800.6858    3684.0915    80.150967 
   29500    532.44105   -106.56168   0.48176385   -106.07992    2797.1123    4.3012033    4.3012033    4.3012033    2797.1123    -7223.856   -8317.1744    23932.367    12886.502   -5487.9523   -1759.1723    79.573768 
   29600    548.65398   -106.57761   0.49643366   -106.08118   -1384.1167    4.3083001    4.3083001    4.3083001   -1384.1167    -8119.286   -5063.9466    9030.8825    886.00535    577.77402     2682.069    79.968293 
   29700    422.98351   -106.46652   0.38272437   -106.08379    2013.4039    4.3048324    4.3048324    4.3048324    2013.4039   -874.25311   -816.72017    7731.1849    2446.6866   -4743.0702    5726.4701    79.775354 
   29800     432.9873   -106.47473   0.39177601   -106.08296    4727.0238    4.3055297    4.3055297    4.3055297    4727.0238    -2908.244   -2140.9507    19230.266    16885.506     5954.153   -5978.3836    79.814125 
   29900    560.62119   -106.59016   0.50726183   -106.08289   -7294.7686    4.3068812    4.3068812    4.3068812   -7294.7686   -7123.4625   -2782.3288   -11978.515   -6008.5883   -5778.0152    14659.392    79.889313 
   30000    505.18047   -106.53948    0.4570979   -106.08238   -3039.6902    4.3052499    4.3052499    4.3052499   -3039.6902    -13816.39   -11738.192    16435.511    7855.9246   -1001.6961    -3.725795    79.798567 
   30100    662.29226   -106.67932   0.59925595   -106.08006   -6480.5877    4.3081879    4.3081879    4.3081879   -6480.5877   -14754.371   -7312.0807    2624.6886     330.9466    41.506245    8004.3123    79.962049 
   30200     323.5659   -106.37589   0.29276922   -106.08312     5158.335    4.3031284    4.3031284    4.3031284     5158.335   -1614.8768   -3029.9829    20119.865   -1225.9691    1658.7407    1888.8834    79.680657 
   30300    517.40974    -106.5502    0.4681632   -106.08203   -358.47228    4.3099767    4.3099767    4.3099767   -358.47228   -2791.7268   -4442.4359    6158.7458    12717.057     6128.518   -1133.5052    80.061693 
   30400     506.9207   -106.54024    0.4586725   -106.08156    4086.1619    4.3020624    4.3020624    4.3020624    4086.1619    9539.8059     7062.878   -4344.1982   -623.08467    348.36567    270.53953    79.621455 
   30500    389.19282   -106.43669   0.35214984   -106.08454   -1752.1622    4.3069456    4.3069456    4.3069456   -1752.1622   -9668.6961   -8106.4579    12518.667     3241.015   -2959.9412    6572.5491    79.892894 
   30600     717.0282   -106.72937   0.64878219   -106.08059   -13736.575    4.3094077    4.3094077    4.3094077   -13736.575   -18553.002   -14124.407   -8532.3158     3500.009   -469.50163   -6327.3717     80.02999 
   30700    340.49763   -106.39226   0.30808941   -106.08417    9723.0321    4.2965788    4.2965788    4.2965788    9723.0321    2295.6499    4822.2022    22051.244   -6157.2238    3097.6438     6090.003    79.317377 
   30800    608.78552   -106.63355   0.55084193   -106.08271   -14121.542    4.3168449    4.3168449    4.3168449   -14121.542     -15669.5   -17280.251   -9414.8744    8564.3055   -2009.1707   -4179.4515    80.445053 
   30900    432.80275    -106.4736   0.39160902   -106.08199     12155.84    4.2977563    4.2977563    4.2977563     12155.84    13542.755    11330.495     11594.27    2483.3659    3225.5961    5223.8545    79.382607 
   31000    372.81097   -106.42219    0.3373272   -106.08486   -3941.1962    4.3070341    4.3070341    4.3070341   -3941.1962   -5424.2325   -10592.552    4193.1961   -143.29473   -6834.0387    9289.1506    79.897823 
   31100    601.63677   -106.62389   0.54437359   -106.07951   -10810.742    4.3119257    4.3119257    4.3119257   -10810.742   -18520.673   -13218.684   -692.86841    5894.6204    3297.1545   -674.79012    80.170355 
   31200    461.37915   -106.49863   0.41746555   -106.08117    6178.1557    4.2928807    4.2928807    4.2928807    6178.1557    36.609777     7422.332    11075.525   -5937.8609    4085.7858    6266.2514    79.112747 
   31300    612.80435   -106.63489   0.55447826   -106.08041   -22713.023    4.3192241    4.3192241    4.3192241   -22713.023   -26846.043   -32099.561   -9193.4655    4310.7262    1894.3398    -406.3482    80.578133 
   31400    390.44217   -106.43405   0.35328028   -106.08077    14123.773    4.2952164    4.2952164    4.2952164    14123.773    12779.559    9934.9372    19656.821    3546.6113    3321.6552    2258.2923    79.241951 
   31500    427.10392   -106.47068    0.3864526   -106.08423   -7558.2899    4.3074772    4.3074772    4.3074772   -7558.2899   -4249.4273   -14181.871   -4243.5718   -182.92414   -787.75355    3846.3795    79.922482 
   31600    521.78715   -106.55246   0.47212398   -106.08034   -3687.5942     4.309888     4.309888     4.309888   -3687.5942    -9176.847   -10791.136    8905.2002    1367.8502   -1801.7616   -1088.3389    80.056748 
   31700     545.6486   -106.57519   0.49371432   -106.08147    -1229.378    4.2958353    4.2958353    4.2958353    -1229.378    -534.2366    4516.1947    -7670.092   -1202.6072     7649.819   -4526.7066    79.276207 
   31800    548.84238   -106.57747   0.49660412   -106.08086   -18473.818    4.3167685    4.3167685    4.3167685   -18473.818    -26100.35   -27869.632   -1451.4711   -8696.9466   -1617.2438    3034.3913    80.440778 
   31900    480.57744   -106.51488   0.43483657   -106.08004     12647.27    4.2947331    4.2947331    4.2947331     12647.27    5316.4859    11942.042    20683.283    1897.8631    7.2970332   -5245.7622    79.215204 
   32000    445.42593    -106.4873   0.40303074   -106.08427   -6739.4591    4.3100448    4.3100448    4.3100448   -6739.4591   -4423.6581   -13349.028   -2445.6909   -3524.9076   -1698.6183    6544.6421    80.065488 
   32100      513.476   -106.54564   0.46460388   -106.08104    6895.8431    4.3054533    4.3054533    4.3054533    6895.8431    7721.3428   -1626.9558    14593.142    -1178.546   -2324.4668   -1728.7016    79.809881 
   32200    517.74887   -106.55089   0.46847005   -106.08242   -4605.8144    4.3008281    4.3008281    4.3008281   -4605.8144    1591.8613    1352.3992   -16761.704    423.33754     9192.916   -1112.2933    79.552946 
   32300    482.03408   -106.51821   0.43615456   -106.08206   -6591.6913    4.3104345    4.3104345    4.3104345   -6591.6913   -13726.185   -13943.866    7894.9773   -8348.0237    2039.5951    895.51966     80.08721 
   32400    576.51685   -106.60268   0.52164456   -106.08104    4661.8692    4.3000783    4.3000783    4.3000783    4661.8692   -4550.7985    17404.299    1132.1067    2560.9358    2119.2714    2663.9032    79.511345 
   32500     403.4296   -106.44917   0.36503158   -106.08413   -2076.9974    4.3076401    4.3076401    4.3076401   -2076.9974     787.2008   -8025.2527    1007.0596    716.43262    1299.9027   -2748.4434    79.931551 
   32600    542.56549   -106.57168   0.49092465   -106.08076    7970.6756     4.303773     4.303773     4.303773    7970.6756    12287.926    5521.7698    6102.3314   -3015.0509   -360.94532    3273.6636    79.716472 
   32700    438.25495   -106.48017   0.39654229   -106.08363   -3712.7692    4.3063337    4.3063337    4.3063337   -3712.7692    551.97228   -4068.3197   -7621.9602    2229.7355    4618.2173   -11121.756    79.858848 
   32800    527.74114   -106.56021   0.47751127    -106.0827    525.04636    4.3023253    4.3023253    4.3023253    525.04636   -2577.7094   -4231.3539    8384.2023   -9535.5339    3198.8038   -1322.6718    79.636055 
   32900    612.63871   -106.63634   0.55432838   -106.08201   -5424.2667    4.3083313    4.3083313    4.3083313   -5424.2667   -13230.791    223.47386   -3265.4831   -5339.6012   -8629.9951   -2513.3379    79.970034 
   33000    389.59542   -106.43677   0.35251412   -106.08425    1114.0722    4.3026115    4.3026115    4.3026115    1114.0722    9893.9962   -767.96823   -5783.8114    1680.5328    2302.9956   -8118.6513     79.65195 
   33100    548.94797    -106.5785   0.49669966    -106.0818    2110.1863    4.3046014    4.3046014    4.3046014    2110.1863    9030.4963    291.56313   -2991.5005   -10502.791   -1968.8808    1828.8262    79.762515 
   33200    415.08056   -106.45849   0.37557362   -106.08291   -531.52777    4.3083957    4.3083957    4.3083957   -531.52777    1579.3599   -4350.3643    1176.4211    4080.4641     4440.299   -9489.3913    79.973622 
   33300    573.17019    -106.6005   0.51861643   -106.08188     1947.155    4.2997104    4.2997104    4.2997104     1947.155    3520.5484   -5574.9132    7895.8297   -10598.458    4715.7275   -672.17345    79.490936 
   33400    568.07883   -106.59521   0.51400966    -106.0812    -3275.032    4.3095328    4.3095328    4.3095328    -3275.032   -10290.287   -9327.0586    9792.2493   -5352.1694   -3706.5647    2315.0209    80.036958 
   33500    445.25861   -106.48623   0.40287935   -106.08335   -2245.6837    4.3027605    4.3027605    4.3027605   -2245.6837    18162.789   -4649.1096    -20250.73    4058.0174    4454.0777   -3354.1298    79.660225 
   33600    452.44876   -106.49149   0.40938514   -106.08211    2988.7688    4.3058302    4.3058302    4.3058302    2988.7688    2924.7002    286.27312    5755.3331   -5887.4186     5317.693   -947.37049    79.830838 
   33700    507.97236   -106.54162   0.45962407     -106.082   -175.39204    4.3053717    4.3053717    4.3053717   -175.39204    2162.3524   -6893.0125     4204.484     1354.735    1329.8456   -4467.8829     79.80534 
   33800    487.30075   -106.52353   0.44091996   -106.08261   -723.33215    4.3053515    4.3053515    4.3053515   -723.33215   -3047.7749   -2801.9028    3679.6813   -3279.4671     3098.569   -8021.2066    79.804216 
   33900    607.99944   -106.63067   0.55013067   -106.08054    2360.4948    4.3042659    4.3042659    4.3042659    2360.4948    -2139.886   -9264.7428    18486.113   -9287.8756   -5776.5956    3356.8335    79.743862 
   34000    449.38261    -106.4896   0.40661083   -106.08299   -3958.9723    4.3061595    4.3061595    4.3061595   -3958.9723    16638.178   -8063.2526   -20451.842    2161.5729   -1327.7105   -10201.125    79.849158 
   34100    466.05712   -106.50396   0.42169828   -106.08226    6547.6987    4.3038784    4.3038784    4.3038784    6547.6987   -291.61562    160.56922    19774.142   -5856.8102    4081.3025   -985.86276    79.722331 
   34200    528.65629   -106.56061   0.47833932   -106.08227   -835.56728    4.3044968    4.3044968    4.3044968   -835.56728    2064.9488    -8353.198    3781.5473    -2358.052   -2312.2019   -10011.382    79.756699 
   34300    435.16923   -106.47726   0.39375026   -106.08351   -3801.0207    4.3064635    4.3064635    4.3064635   -3801.0207   -8207.8997    3314.4397    -6509.602   -153.89742   -1610.9914   -6609.3433    79.866071 
   34400    638.40259   -106.65791   0.57764008   -106.08027      2349.64    4.3035171    4.3035171    4.3035171      2349.64   -892.08665   -5179.4381    13120.445   -10548.669   -953.44957    2377.4573    79.702254 
   34500    439.36494   -106.48079   0.39754664   -106.08325   -6311.4503    4.3087932    4.3087932    4.3087932   -6311.4503    3415.5988   -10659.762   -11690.188    1976.0855    -245.3021   -2111.9836    79.995754 
   34600    456.82329    -106.4945   0.41334331   -106.08116    12193.313    4.3005942    4.3005942    4.3005942    12193.313     8796.474   -2111.1085    29894.573   -5054.4695    7566.2207   -2855.1238    79.539965 
   34700    568.07551   -106.59526   0.51400666   -106.08125   -4284.8614    4.3079288    4.3079288    4.3079288   -4284.8614   -37.891694   -12053.882   -762.81065    652.25064    1020.1689    2225.9063    79.947621 
   34800    374.03882   -106.42204   0.33843819   -106.08361   -4909.6297    4.3051978    4.3051978    4.3051978   -4909.6297   -4461.4889     3791.875   -14059.275    832.91663    -691.6123   -10051.055    79.795668 
   34900    668.93668   -106.68626   0.60526797   -106.08099    2164.0863    4.3012181    4.3012181    4.3012181    2164.0863   -5407.0674   -2402.4359    14301.762    -7098.677    376.40068    7273.3434    79.574589 
   35000    409.94766   -106.45605   0.37092926   -106.08512   -10229.185    4.3115027    4.3115027    4.3115027   -10229.185   -8201.7373   -15997.989   -6487.8278   -96.040978   -2120.4383   -5714.9375    80.146761 
   35100    509.13026   -106.54337   0.46067176    -106.0827    10583.688    4.2973093    4.2973093    4.2973093    10583.688    9829.3105    1244.9758    20676.777   -1196.3814    2811.0599   -6974.7384    79.357843 
   35200    554.49596   -106.58353    0.5017196   -106.08181   -5342.1774    4.3108805    4.3108805    4.3108805   -5342.1774   -871.88162   -8443.2691   -6711.3814   -340.55058   -3136.6223   -2096.5199    80.112069 
   35300     339.9585   -106.39129    0.3076016   -106.08369   -2807.1966    4.3042634    4.3042634    4.3042634   -2807.1966     2376.943    5450.6866   -16249.219    5624.1852   -5785.1712   -7490.2087    79.743725 
   35400    691.96288     -106.706   0.62610255    -106.0799    1473.1625    4.3014104    4.3014104    4.3014104    1473.1625   -9414.6901   -1955.5774    15789.755   -3146.3982   -2019.7245     3482.043    79.585263 
   35500    361.33792     -106.411   0.32694614   -106.08406    -6534.308    4.3107905    4.3107905    4.3107905    -6534.308   -5872.5089   -10409.721   -3320.6943   -4160.1107    -1197.126   -412.27504    80.107055 
   35600    610.54335   -106.63466   0.55243245   -106.08223    -3583.928    4.3008105    4.3008105    4.3008105    -3583.928   -3197.5846   -7454.2718   -99.927542    3498.8445   -1113.6352   -3372.4424    79.551968 
   35700    491.77499    -106.5274   0.44496834   -106.08244    5032.3607    4.3056332    4.3056332    4.3056332    5032.3607    1123.9071   -119.45436    14092.629   -3439.7426    420.73906    2328.4105    79.819881 
   35800    367.97206   -106.41803   0.33294885   -106.08508   -2150.0866    4.3063896    4.3063896    4.3063896   -2150.0866   -3825.9114    571.71381   -3196.0621    5455.7009     -7680.05    5728.9005     79.86196 
   35900    556.43973   -106.58443   0.50347837   -106.08095    6926.7858    4.3057101    4.3057101    4.3057101    6926.7858   -6390.3006   -260.93353    27431.591    770.47929   -907.87029    1407.6771    79.824162 
   36000    472.33651   -106.50986      0.42738   -106.08248   -1141.1436    4.3017435    4.3017435    4.3017435   -1141.1436   -2337.6442    1196.6956   -2282.4822   -2343.2739   -1520.0664    5802.5673    79.603751 
   36100    558.44128   -106.58775   0.50528941   -106.08246   -17845.827    4.3129732    4.3129732    4.3129732   -17845.827   -18835.789   -21013.019   -13688.675     1069.981   -1158.7119   -9433.3404    80.228796 
   36200    589.77393   -106.61411   0.53363985   -106.08047    12654.779    4.2963951    4.2963951    4.2963951    12654.779    107.70628    1549.3161    36307.316   -285.03782    3885.6447      2818.28    79.307203 
   36300    388.62638   -106.43907   0.35163732   -106.08743   -8737.2174     4.310376     4.310376     4.310376   -8737.2174   -10677.033   -6850.5754   -8684.0434    1371.0433   -6631.9651   -89.426086    80.083947 
   36400    517.82351   -106.55115    0.4685376   -106.08262    6252.1002    4.3049071    4.3049071    4.3049071    6252.1002   -2102.1429    1071.2395    19787.204    10563.058    954.18001    1134.6738     79.77951 
   36500    484.42688   -106.52147   0.43831962   -106.08315    4597.1136    4.2967837    4.2967837    4.2967837    4597.1136    4818.2125    11274.652   -2301.5236   -889.26036   -222.68308    1123.7936    79.328727 
   36600    427.45257    -106.4702   0.38676807   -106.08343   -19579.989    4.3174276    4.3174276    4.3174276   -19579.989   -16672.741   -25061.045   -17006.182      5827.65   -854.60005   -1023.0965    80.477631 
   36700    657.34676   -106.67177   0.59478116   -106.07699      18234.7    4.2902587    4.2902587    4.2902587      18234.7    7262.5049    4353.8421    43087.754    1943.1344    39.497677    1427.4666    78.967871 
   36800    436.34282   -106.47845   0.39481215   -106.08364   -22860.403    4.3171541    4.3171541    4.3171541   -22860.403   -19715.921   -17455.436   -31409.851   -1693.5424   -7605.4239    11575.768    80.462341 
   36900    504.99798   -106.53851   0.45693279   -106.08158    9873.8557    4.2975857    4.2975857    4.2975857    9873.8557    3925.9159    6161.1175    19534.534    11710.144   -5569.3775   -2805.8212    79.373152 
   37000    513.24679   -106.54557   0.46439648   -106.08118    680.57251    4.3040656    4.3040656    4.3040656    680.57251    3583.7539    5655.9666    -7198.003    762.16413    2059.9089    5080.9987     79.73273 
   37100    337.93608   -106.38955   0.30577167   -106.08378   -10189.785    4.3108752    4.3108752    4.3108752   -10189.785   -10720.193   -15660.427   -4188.7338    7073.7727   -1988.5469   -583.11196    80.111772 
   37200    675.16601   -106.68929   0.61090439   -106.07839    12161.778     4.291964     4.291964     4.291964    12161.778    14088.304   -529.27254    22926.301    5597.1786     1252.034    47.222221    79.062073 
   37300    499.73992   -106.53453   0.45217518   -106.08235   -24482.601    4.3176802    4.3176802    4.3176802   -24482.601   -15763.877   -21355.624   -36328.301   -2920.0932     620.0618    7916.4201     80.49176 
   37400    445.13034   -106.48562   0.40276328   -106.08286    13774.558    4.2931485    4.2931485    4.2931485    13774.558    16900.358    1342.7695    23080.546    10434.634   -1293.0153   -1546.8259    79.127551 
   37500    554.37704   -106.58305     0.501612   -106.08144   -1565.3682    4.3102807    4.3102807    4.3102807   -1565.3682    1281.5889   -7185.9588    1208.2654    6439.6918    11762.306   -3260.8531    80.078637 
   37600    291.62984   -106.34771   0.26387281   -106.08384    7168.3722    4.3047684    4.3047684    4.3047684    7168.3722    8447.7988   -1.9185249    13059.236    4345.3168    751.28165    559.79962    79.771796 
   37700    623.59101    -106.6427   0.56423825   -106.07846    1676.3552    4.3022598    4.3022598    4.3022598    1676.3552    1155.2833   -5369.9033    9243.6857    14521.321     971.9813   -4075.6828    79.632417 
   37800    524.07001   -106.55462   0.47418956   -106.08043   -7908.5286    4.3078354    4.3078354    4.3078354   -7908.5286   -2076.1777   -4814.5812   -16834.827   -6031.2694   -682.27953    8019.0424    79.942425 
   37900    498.62733   -106.53361   0.45116849   -106.08244   -3526.0872    4.3029271    4.3029271    4.3029271   -3526.0872    6205.5666   -17541.915    758.08694    12219.014   -6593.5412    3686.5379    79.669478 
   38000    602.38448   -106.62624   0.54505014   -106.08119    4749.0181    4.3046788    4.3046788    4.3046788    4749.0181    3830.8846   -5279.4147    15695.584    4034.6842    1668.6809   -357.18404    79.766816 
   38100    329.96217   -106.38428    0.2985567   -106.08573    5195.8875    4.3039744    4.3039744    4.3039744    5195.8875    13062.182    1083.5541    1441.9261    2034.1759    608.00682    2037.4325    79.727666 
   38200    559.96475   -106.58916   0.50666787    -106.0825   -1717.8664    4.3052683    4.3052683    4.3052683   -1717.8664   -11425.693    1564.0488    4708.0444      13299.7   -5180.3123   -790.49145    79.799592 
   38300    533.05441   -106.56463   0.48231883   -106.08231    1938.2749    4.3021923    4.3021923    4.3021923    1938.2749    4062.6819    5772.3899   -4020.2471   -7329.0684    2986.8012    4729.3124    79.628668 
   38400    500.96316   -106.53647     0.453282   -106.08319   -10163.954    4.3093283    4.3093283    4.3093283   -10163.954   -4866.9564   -17389.491   -8235.4136    3847.7612   -2537.7637    6092.6609    80.025562 
   38500    593.35717   -106.61633   0.53688204   -106.07945    9113.6056    4.3008301    4.3008301    4.3008301    9113.6056    8324.6197   -547.48974    19563.687    3097.7834    6697.9747   -3107.0475    79.553056 
   38600     352.1944   -106.40276   0.31867289   -106.08409   -1125.0852     4.306987     4.306987     4.306987   -1125.0852    7310.8822   -849.34211   -9836.7957    -1097.149    6451.9193   -617.35012    79.895199 
   38700    464.05192   -106.50136   0.41988393   -106.08147    6695.4487    4.3049054    4.3049054    4.3049054    6695.4487   -2517.4733    14606.914    7996.9051    11039.729    -2231.304   -1880.7128    79.779415 
   38800    583.92503   -106.60897   0.52834764   -106.08062    2130.8256    4.3011333    4.3011333    4.3011333    2130.8256    4000.5258    5466.9231   -3074.9722    -1771.062    5983.6722    467.42253    79.569879 
   38900    447.17843   -106.48886   0.40461644   -106.08425    -10481.14    4.3089125    4.3089125    4.3089125    -10481.14   -13859.739   -6889.3044   -10694.378     -486.502   -5603.3211    7787.7676    80.002402 
   39000    631.66389   -106.65244   0.57154276   -106.08089    10203.631    4.2982738    4.2982738    4.2982738    10203.631    10823.008    5261.6124    14526.272    7878.1615    1925.3764   -3937.8263    79.411285 
   39100    358.52454   -106.41197   0.32440054   -106.08757   -8491.7788    4.3093483    4.3093483    4.3093483   -8491.7788   -15737.704    6709.6202   -16447.252   -4797.6402    906.81154   -1615.1964    80.026676 
   39200    441.74348   -106.48423   0.39969879   -106.08453     10098.69    4.3016467    4.3016467    4.3016467     10098.69    9208.6747    19238.239    1849.1573    9960.2629   -6048.9723    973.67328    79.598375 
   39300    675.37994   -106.69351   0.61109796   -106.08241   -3083.6095    4.3043643    4.3043643    4.3043643   -3083.6095   -5008.3977    2547.9916   -6790.4223   -3867.0827    2727.0461    1815.1324    79.749333 
   39400    318.51725   -106.37249    0.2882011   -106.08429   -9412.6172    4.3102531    4.3102531    4.3102531   -9412.6172   -11090.949   -6522.4176   -10624.485   -5113.5508   -5738.0697    6034.1556    80.077096 
   39500    800.59131   -106.80124   0.72439184   -106.07685    8941.6337    4.2949387    4.2949387    4.2949387    8941.6337      5644.98    9415.3624    11764.559   -1305.0096   -1132.8878    899.21684    79.226579 
   39600    268.61443   -106.32916   0.24304799   -106.08611   -7787.3427    4.3133259    4.3133259    4.3133259   -7787.3427   -19190.876    7756.4673   -11927.619   -3757.4158     7098.346   -5652.4179    80.248478 
   39700    508.54669    -106.5446   0.46014373   -106.08445    5994.2116    4.2983185    4.2983185    4.2983185    5994.2116    7128.7439    19210.696   -8356.8055   -870.76246   -6168.7648    5928.4423    79.413763 
   39800     642.2079    -106.6633    0.5810832   -106.08222   -964.66942    4.3048463    4.3048463    4.3048463   -964.66942   -309.78211    3970.2309    -6554.457    5007.2473    6566.4578   -1760.2303    79.776128 
   39900    273.70324   -106.33483   0.24765244   -106.08718   -9211.8081    4.3083767    4.3083767    4.3083767   -9211.8081   -8614.7296   -829.28509    -18191.41     -9458.05   -3295.9435    3711.2649    79.972563 
   40000    795.30596   -106.79889   0.71960955   -106.07928    9879.7708    4.2980932    4.2980932    4.2980932    9879.7708    7011.3047    7806.4545    14821.553    2951.8229   -1772.8268   -558.15538    79.401275 
   40100    341.14014   -106.39542   0.30867076   -106.08675    1080.9314    4.3082444    4.3082444    4.3082444    1080.9314   -6458.9701    21269.478   -11567.714   -1904.7917    5960.6711   -7661.2973    79.965193 
   40200    382.60018    -106.4326   0.34618469   -106.08642    1210.3758     4.303905     4.303905     4.303905    1210.3758    1672.8936    10622.978   -8664.7446    945.56781   -3244.7396    968.64644    79.723808 
   40300    667.19636   -106.68424   0.60369328   -106.08055    5607.1332    4.3017247    4.3017247    4.3017247    5607.1332    12055.078    9571.8337   -4805.5117    228.27787    2528.0202   -1389.2097    79.602708 
   40400    381.34384   -106.43165   0.34504792    -106.0866   -13167.976    4.3085156    4.3085156    4.3085156   -13167.976   -8482.0641   -8304.8134    -22717.05    -5777.833   -31.562652    -197.7848    79.980294 
   40500    688.24993   -106.70326     0.622743   -106.08051    4690.1582    4.3026692    4.3026692    4.3026692    4690.1582    6040.1871     848.0687    7182.2188   -9330.4208   -4644.3852   -640.73743    79.655153 
   40600    428.51373   -106.47049   0.38772823   -106.08277    2498.5754    4.3036081    4.3036081    4.3036081    2498.5754    1600.8795    24164.076   -18269.229    4301.2727    8489.6655   -4861.4783    79.707311 
   40700    325.50956   -106.38001   0.29452789   -106.08548    1058.0552    4.3068995    4.3068995    4.3068995    1058.0552    6495.9815    4158.3283   -7480.1443   -7005.2043   -4537.7658    356.38199     79.89033 
   40800    700.32968   -106.71325   0.63367301   -106.07957    7649.2645    4.3005236    4.3005236    4.3005236    7649.2645    13379.405    9536.0015    32.387279    6358.2632    2563.7714    2281.9146    79.536049 
   40900    406.53583   -106.45448   0.36784216   -106.08663   -8656.6817    4.3065304    4.3065304    4.3065304   -8656.6817   -2812.3421   -9696.7106   -13460.992   -4899.8597    348.10106   -485.89456     79.86979 
   41000    651.13587   -106.67103   0.58916142   -106.08187   -4034.4409    4.3054521    4.3054521    4.3054521   -4034.4409   -4614.6816   -3114.9103   -4373.7307   -4427.1756   -8437.4905    2688.7569    79.809812 
   41100    386.00318   -106.43196   0.34926379    -106.0827    6896.0928    4.3016104    4.3016104    4.3016104    6896.0928    8233.9608    19199.609   -6745.2917     9449.592    9371.6221   -5853.8946    79.596362 
   41200    399.73329    -106.4466   0.36168708   -106.08491   -1836.4119    4.3079742    4.3079742    4.3079742   -1836.4119    11673.333    2134.9774   -19317.546    1743.8191   -6345.0631   -1159.6497     79.95015 
   41300    620.19717   -106.64165   0.56116743   -106.08048     11851.59    4.3005484    4.3005484    4.3005484     11851.59    18861.312    9450.7318    7242.7254    3870.7374    4608.6561   -812.43037    79.537422 
   41400    451.65649   -106.49426   0.40866828   -106.08559   -12936.614    4.3067268    4.3067268    4.3067268   -12936.614   -887.90613   -16737.944   -21183.991    1413.3658   -988.32505    -4602.836    79.880718 
   41500    581.35865   -106.60887   0.52602552   -106.08285    1541.6154    4.3040674    4.3040674    4.3040674    1541.6154    1062.8614    1116.4485    2445.5363   -6442.2103   -4451.5235    1330.7107    79.732832 
   41600    550.55716   -106.58129   0.49815568   -106.08314   -3270.4632    4.3042671    4.3042671    4.3042671   -3270.4632     3659.233    -2664.067   -10806.556    4970.5061    5054.1765   -6557.0699    79.743931 
   41700    280.15238   -106.34046   0.25348776   -106.08698    1580.8441    4.3058327    4.3058327    4.3058327    1580.8441    10280.974    5726.5926   -11265.035    5299.7109   -103.17985   -2836.3284    79.830977 
   41800    694.47345    -106.7087   0.62837417   -106.08032    9488.7564    4.3001344    4.3001344    4.3001344    9488.7564    13378.918    17020.424   -1933.0731    -2007.514   -3819.6992   -1836.3469    79.514457 
   41900    350.04512   -106.40346   0.31672818   -106.08673   -18224.233    4.3103607    4.3103607    4.3103607   -18224.233   -12225.619   -16705.635   -25741.445    7284.1106    5783.1119   -1085.3608    80.083093 
   42000      621.621   -106.64628   0.56245574   -106.08382    4160.1926    4.2979147    4.2979147    4.2979147    4160.1926    1525.9831    10486.212    468.38277   -4527.1815   -9784.6909   -1259.2457    79.391383 
   42100    597.16453   -106.62306   0.54032702   -106.08273   -3160.4121    4.3096761    4.3096761    4.3096761   -3160.4121    8574.5213   -6549.9014   -11505.856    9294.7923    6203.1962    1241.4802    80.044944 
   42200    205.17494   -106.27339    0.1856466   -106.08774    4356.0175    4.3027307    4.3027307    4.3027307    4356.0175    11664.441    9650.1503   -8246.5388    11101.194    1109.9506   -4296.3315    79.658569 
   42300    679.49277   -106.69447   0.61481934   -106.07965    8103.9944    4.3043975    4.3043975    4.3043975    8103.9944    7565.9198    15740.069    1005.9946    4584.9578   -2124.8135    207.03745    79.751179 
   42400     360.8934   -106.41162   0.32654393   -106.08507   -6451.1602    4.3078367    4.3078367    4.3078367   -6451.1602   -521.63978   -3878.5871   -14953.254    2392.9045    6105.4164   -2756.2051    79.942492 
   42500    629.20958   -106.65191   0.56932205   -106.08259   -2843.4204     4.300545     4.300545     4.300545   -2843.4204   -6496.7475    2923.9302   -4957.4439     1410.709   -5656.5829    1214.8954    79.537234 
   42600    651.86207   -106.67134    0.5898185   -106.08152   -526.43244    4.3073951    4.3073951    4.3073951   -526.43244     9482.717   -2325.4914    -8736.523    -5606.263   -818.73933    1252.2225    79.917911 
   42700    213.76012   -106.28142   0.19341465   -106.08801   -52.124993     4.302328     4.302328     4.302328   -52.124993    4349.3611    13453.201   -17958.937     9755.904    6542.5378   -3576.8219    79.636202 
   42800    620.08324   -106.64433   0.56106435   -106.08327    5182.7672    4.3059309    4.3059309    4.3059309    5182.7672   -445.37267    7143.8651    8849.8092   -3987.5618   -6053.0828   -1021.2114    79.836439 
   42900    486.54986   -106.52646   0.44024053   -106.08622   -3971.9061    4.3035762    4.3035762    4.3035762   -3971.9061   -79.128797   -3541.1129   -8295.4768   -158.56077    7934.3091   -363.40431    79.705534 
   43000    503.81473   -106.54254   0.45586215   -106.08668   -1727.2302    4.3041115    4.3041115    4.3041115   -1727.2302    -8080.742   -723.28935    3622.3406    1473.3496   -4102.4265    1983.9249    79.735281 
   43100    669.82634   -106.68701   0.60607295   -106.08094   -4170.0152    4.3084204    4.3084204    4.3084204   -4170.0152   -3451.1883   -227.75729   -8831.0999   -4031.3077   -1210.4114   -621.22064    79.974995 
   43200    224.35445   -106.28868   0.20300062   -106.08568    5430.5133    4.3004469    4.3004469    4.3004469    5430.5133    10943.153    9623.5219   -4275.1356    7887.5686       4889.4   -2643.7902     79.53179 
   43300    615.01255   -106.63632   0.55647628   -106.07984   -2252.7243    4.3104967    4.3104967    4.3104967   -2252.7243   -3265.0689    603.37575   -4096.4798    5506.9575   -2404.9159   -6074.2466    80.090676 
   43400    400.06362   -106.44505   0.36198597   -106.08307    5976.6972    4.2991317    4.2991317    4.2991317    5976.6972    8410.0941   -1407.9285    10927.926   -6427.7661    6760.8737   -593.62513    79.458842 
   43500    534.11148   -106.56603    0.4832753   -106.08276   -13371.208    4.3110567    4.3110567    4.3110567   -13371.208   -10642.639   -15652.649   -13818.336    2269.7976    -896.1251   -3462.4977    80.121891 
   43600    649.10481   -106.66675   0.58732367   -106.07943    7856.9305    4.2999246    4.2999246    4.2999246    7856.9305   -3021.5077    9050.8877    17541.412   -10100.926   -211.65376    4108.4507    79.502816 
   43700    300.84079   -106.35911   0.27220707    -106.0869     -4387.36    4.3053496    4.3053496    4.3053496     -4387.36    1414.8925   -7366.1337   -7210.8388   -1062.6718    4104.0034   -4381.5598    79.804112 
   43800    633.02548   -106.65415   0.57277476   -106.08137    1653.9963    4.3078029    4.3078029    4.3078029    1653.9963    2873.3306    904.07602    1184.5823    3567.9694    6378.3444   -326.70178    79.940612 
   43900    383.68641   -106.43162   0.34716753   -106.08445    7675.3868    4.2978221    4.2978221    4.2978221    7675.3868    15251.697   -8261.4531    16035.916   -9972.6305     2894.883    69.276477    79.386255 
   44000    473.13761    -106.5126   0.42810485    -106.0845    -20185.83    4.3135372    4.3135372    4.3135372    -20185.83   -11809.658   -21427.378   -27320.453    -96.22006     10495.94    3273.1825    80.260275 
   44100    684.63261   -106.69807   0.61946997    -106.0786    12937.877    4.2970578    4.2970578    4.2970578    12937.877    717.08292    13930.705    24165.842   -9122.0347   -7694.0682    1945.4168    79.343907 
   44200    369.65565   -106.41961    0.3344722   -106.08513   -16299.574    4.3111777    4.3111777    4.3111777   -16299.574   -13428.082   -13803.573   -21667.067   -3492.2128    5591.3684   -1992.2006    80.128639 
   44300    547.14029   -106.57664   0.49506403   -106.08157    11178.552    4.3012891    4.3012891    4.3012891    11178.552    8531.2482    10986.096    14018.312    5422.9351    1665.2203   -6279.0577    79.578526 
   44400    476.98917   -106.51412   0.43158983   -106.08253   -262.07657    4.3048819    4.3048819    4.3048819   -262.07657    11783.356   -15958.996    3389.4099   -4379.3578    2042.0547   -1076.5629    79.778105 
   44500     350.2186   -106.40353   0.31688515   -106.08664   -12197.292    4.3077148    4.3077148    4.3077148   -12197.292   -1369.3251   -15627.542   -19595.008   -3022.7947    6453.1989   -2387.2211    79.935707 
   44600    749.85934   -106.75866   0.67848849   -106.08017     7837.683    4.2982261    4.2982261    4.2982261     7837.683    5225.0159    6694.6477    11593.385   -760.08226    -1389.181   -1356.6491    79.408645 
   44700    379.31298   -106.42997   0.34321035   -106.08676   -15314.404    4.3119304    4.3119304    4.3119304   -15314.404   -15151.614   -11731.135   -19060.462   -7096.8938     410.8248   -2611.9084    80.170615 
   44800    462.63858   -106.50239   0.41860511   -106.08379    11532.667    4.2990779    4.2990779    4.2990779    11532.667    12701.859    7382.2324     14513.91      7209.63    11602.782   -5386.2834     79.45586 
   44900    548.36935   -106.57832   0.49617611   -106.08215    2896.2326    4.3072386    4.3072386    4.3072386    2896.2326    13885.317   -11261.217    6064.5978   -2745.9773    1928.6418    1249.1552    79.909202 
   45000    339.46123   -106.39159   0.30715165   -106.08444     -3691.02    4.3080016    4.3080016    4.3080016     -3691.02    10759.057   -15748.804   -6083.3138   -4298.7051    6843.3101    5.5210298    79.951676 
   45100    752.22061   -106.75752   0.68062502   -106.07689    2150.7916     4.301045     4.301045     4.301045    2150.7916    8426.7733   -548.25184   -1426.1467     -1572.59    79.751268    4425.9326    79.564983 
   45200    421.46475   -106.46358   0.38135016   -106.08223   -11080.418    4.3089493    4.3089493    4.3089493   -11080.418   -14596.206   -7746.2931   -10898.756   -6223.6285   -8066.5479   -1333.3712    80.004451 
   45300    511.72596   -106.54483   0.46302041   -106.08181    2764.6855     4.303414     4.303414     4.303414    2764.6855    14005.708   -4077.7993   -1633.8528    1410.7671    7645.6655   -1507.6274    79.696526 
   45400     485.3788   -106.52051   0.43918094   -106.08133    10312.884    4.3035189    4.3035189    4.3035189    10312.884    17749.519    2244.8399    10944.293    5292.9362   -3609.8391    -1249.698    79.702355 
   45500    437.84276   -106.48166   0.39616933   -106.08549   -5985.6402    4.3060294    4.3060294    4.3060294   -5985.6402    5369.0963   -13510.164   -9815.8526   -6754.0697    540.63892    -1202.481    79.841921 
   45600    637.40883   -106.65852    0.5767409   -106.08178    6815.7526    4.3030552    4.3030552    4.3030552    6815.7526    8597.1124    5131.7892    6718.3564    3724.1776    927.99514   -1128.6009    79.676595 
   45700    477.59274   -106.51668   0.43213595   -106.08454   -6844.5575    4.3058149    4.3058149    4.3058149   -6844.5575   -7301.8991   -10484.734   -2747.0398    1729.1548   -5671.3881   -212.33575     79.82999 
   45800    443.47418    -106.4848   0.40126476   -106.08353    4221.1374    4.3074378    4.3074378    4.3074378    4221.1374    19606.701   -2891.7449   -4051.5436    428.81513    7206.9981   -5692.4727    79.920291 
   45900    495.12349   -106.52869   0.44799814   -106.08069     9945.528    4.3014552    4.3014552    4.3014552     9945.528    17468.814   -1634.1005     14001.87    14467.121    5093.5636   -1961.8987     79.58775 
   46000    390.79512   -106.43836   0.35359964   -106.08476   -10572.805    4.3088334    4.3088334    4.3088334   -10572.805   -8080.6155     -11543.4     -12094.4   -6567.2664   -2111.1895   -4717.9538    79.997998 
   46100    660.30155   -106.67765   0.59745472    -106.0802    7272.2045    4.3014163    4.3014163    4.3014163    7272.2045    4906.7626   -1311.6455    18221.496    4934.2566    1086.9112    340.40388    79.585586 
   46200    515.90412    -106.5506   0.46680089    -106.0838    -9786.482    4.3073362    4.3073362    4.3073362    -9786.482   -9936.5499   -11620.512   -7802.3839    3780.4043   -6882.6561    1079.1461    79.914631 
   46300    411.88722   -106.45673   0.37268421   -106.08404    3829.9289    4.3058528    4.3058528    4.3058528    3829.9289    16092.565   -6186.2506    1583.4723   -3283.4657    -694.8948   -979.10087    79.832095 
   46400    594.61806   -106.61943   0.53802292    -106.0814    7848.5766    4.2983132    4.2983132    4.2983132    7848.5766    5394.2337    4831.6232    13319.873    11979.099    1572.2686   -79.594499    79.413467 
   46500    344.86044   -106.39785   0.31203697   -106.08581   -15418.311    4.3139359    4.3139359    4.3139359   -15418.311   -18997.465   -18928.755   -8328.7135   -3043.0311    -6142.529   -1684.7099     80.28253 
   46600    672.92245   -106.68922   0.60887438   -106.08034    10491.269     4.295478     4.295478     4.295478    10491.269    13758.457    3002.9604     14712.39   -2181.0771   -6823.9133    734.07494    79.256426 
   46700    458.65007   -106.49905   0.41499622   -106.08406   -9282.0853    4.3107349    4.3107349    4.3107349   -9282.0853   -2149.2329   -16036.105   -9660.9179     10908.13   -1019.8562    1351.3046    80.103952 
   46800    443.39648   -106.48361   0.40119446   -106.08242     563.7527    4.3051972    4.3051972    4.3051972     563.7527    13496.669   -8815.3872   -2990.0237   -6494.4139   -5452.9751    1697.6001    79.795637 
   46900    600.50183   -106.62264   0.54334667   -106.07929    9786.8231    4.2986611    4.2986611    4.2986611    9786.8231   -1543.6167    13774.557    17129.529    14976.667    8067.1382    -4375.633    79.432753 
   47000     379.4093   -106.42677   0.34329751   -106.08348   -11110.749    4.3139637    4.3139637    4.3139637   -11110.749   -21080.245   -15567.051     3315.047    1871.7177   -7523.6745    423.94509    80.284085 
   47100    590.45557   -106.61344    0.5342566   -106.07918    11049.819    4.2969483    4.2969483    4.2969483    11049.819    10653.728    12159.982    10335.748   -3587.4121   -3430.1217   -5775.5421    79.337842 
   47200    446.35765   -106.48673   0.40387379   -106.08285    -4937.902     4.306928     4.306928     4.306928    -4937.902    5505.0633   -18997.892   -1320.8773    19354.041   -2188.5319    4395.7754    79.891914 
   47300    482.58754    -106.5195   0.43665535   -106.08284   -1964.9104    4.3069338    4.3069338    4.3069338   -1964.9104     6460.996   -1189.9072    -11165.82   -4973.7484    -1465.855   -2828.4603    79.892238 
   47400    654.64479   -106.67226   0.59233637   -106.07992    2811.3654    4.3005037    4.3005037    4.3005037    2811.3654   -6634.8134    2919.7304    12149.179    15272.114   -412.40926    155.27619    79.534943 
   47500    382.85006    -106.4304   0.34641078   -106.08399   -3919.6428     4.308412     4.308412     4.308412   -3919.6428   -10898.557   -5072.2278    4211.8564    3512.5064   -827.38217   -4348.2193    79.974527 
   47600    518.02194   -106.54948   0.46871714   -106.08076    6106.4063    4.3044299    4.3044299    4.3044299    6106.4063     8914.165    1979.5556    7425.4982   -4242.0205   -11870.496    191.58871    79.752977 
   47700    434.13571   -106.47554   0.39281512   -106.08273    2411.9428    4.3017662    4.3017662    4.3017662    2411.9428    6161.0159   -9797.8838    10872.696    18461.272    1337.3141    521.47348    79.605012 
   47800    519.32666   -106.55272   0.46989768   -106.08282   -4617.4807    4.3086936    4.3086936    4.3086936   -4617.4807   -5957.1648    26.901003   -7922.1784   -2620.4683    -5715.762    3076.8752    79.990208 
   47900    634.29275   -106.65489   0.57392141   -106.08097   -3059.6701    4.3031697    4.3031697    4.3031697   -3059.6701   -6859.1444   -3613.8736    1294.0077    7744.5412    3055.0177    2507.5745    79.682951 
   48000    382.62255   -106.42914   0.34620493   -106.08294   -2889.5421    4.3038514    4.3038514    4.3038514   -2889.5421   -3343.8068   -2877.0469   -2447.7725      10157.5   -109.18283   -2076.1389    79.720831 
   48100    568.88506   -106.59553   0.51473915   -106.08079    1386.5079    4.3079469    4.3079469    4.3079469    1386.5079    10666.619   -10524.171    4017.0757   -8856.2414     -8223.56    354.76466    79.948631 
   48200    393.30339   -106.43918   0.35586917   -106.08331    5025.4445    4.3016916    4.3016916    4.3016916    5025.4445   -715.73931   -3113.4402    18905.513    24000.194   -1559.5116    -908.7657    79.600868 
   48300    565.69539   -106.59491   0.51185308   -106.08305    -2913.587    4.3055132    4.3055132    4.3055132    -2913.587   -11114.938   -6536.0788    8910.2556   -1100.6546   -1849.8754    3585.9003     79.81321 
   48400    525.79617   -106.55736   0.47575142    -106.0816   -215.01793    4.3068104    4.3068104    4.3068104   -215.01793   -2266.7392    3774.6958   -2153.0103    5375.9882     1327.976   -2079.7615     79.88537 
   48500    404.54541   -106.44925   0.36604119   -106.08321   -2964.6978    4.3006752    4.3006752    4.3006752   -2964.6978   -380.88755   -11732.688    3219.4822    18501.652    1960.4127    260.09984    79.544457 
   48600    649.80954   -106.66853   0.58796133   -106.08057   -4397.3048      4.30894      4.30894      4.30894   -4397.3048    5862.5455   -9856.6476   -9197.8124   -8497.0535   -3441.0376   -6456.0344    80.003931 
   48700    416.68232    -106.4612   0.37702292   -106.08418   -1626.7707    4.3035782    4.3035782    4.3035782   -1626.7707   -15057.639   -10262.167    20439.494    28137.831   -3332.4061    2830.8466    79.705648 
   48800    564.08234   -106.59331   0.51039355   -106.08292     2271.313    4.3027137    4.3027137    4.3027137     2271.313   -7169.4383   -1641.6783    15625.056     277.2438    7181.3216   -111.93776    79.657624 
   48900    428.57378   -106.46958   0.38778256    -106.0818    3502.4761    4.3091661    4.3091661    4.3091661    3502.4761    2530.5977    2991.8382    4984.9924    1162.3275   -2327.8129    5048.7523    80.016529 
   49000    406.69656   -106.45137    0.3679876   -106.08338   -1768.3774    4.2993904    4.2993904    4.2993904   -1768.3774   -1378.8254   -13082.503     9156.196    21778.965    8013.5376   -1886.5408     79.47319 
   49100    682.37024   -106.69789   0.61742293   -106.08046    -1730.382    4.3079444    4.3079444    4.3079444    -1730.382    11432.894   -4020.4205    -12603.62   -7660.2488   -6806.7279    2152.9866     79.94849 
   49200    464.08135   -106.50446   0.41991056   -106.08455   -6870.7876    4.3041599    4.3041599    4.3041599   -6870.7876     -16613.5   -13937.963    9939.1007    23006.729   -1315.4245   -251.70812    79.737972 
   49300    528.83797    -106.5618   0.47850371    -106.0833    680.42431    4.3040892    4.3040892    4.3040892    680.42431    1215.1493   -1265.9719    2092.0954    4220.4617    -2051.232    5009.5867    79.734046 
   49400    403.58856   -106.44771   0.36517541   -106.08253    8546.1808    4.3052339    4.3052339    4.3052339    8546.1808    7647.5156   -856.08651    18847.113   -3262.5238    3073.5097    3336.8733    79.797677 
   49500    408.97945   -106.45618    0.3700532   -106.08612   -4713.1793    4.3032278    4.3032278    4.3032278   -4713.1793   -6375.5101    -19042.95    11278.922    27413.452   -2129.4544    283.15694     79.68618 
   49600    743.38244   -106.75232   0.67262805   -106.07969    2805.0917    4.3060548    4.3060548    4.3060548    2805.0917    6806.9412   -2876.9755    4485.3095   -5242.8141     3580.682   -3234.8708    79.843335 
   49700    423.14487   -106.46826   0.38287037   -106.08539   -8005.0377    4.3027547    4.3027547    4.3027547   -8005.0377   -7542.5298   -16026.941   -445.64208    23659.535   -4475.8014   -3387.0912    79.659903 
   49800    462.73623   -106.50344   0.41869347   -106.08475   -4093.8236    4.3079829    4.3079829    4.3079829   -4093.8236    1876.8783   -9656.6237   -4501.7254    8275.1118     5510.855     265.9866    79.950636 
   49900    554.66865   -106.58388   0.50187585   -106.08201     10248.36    4.3002477    4.3002477    4.3002477     10248.36      19634.1   -3786.9275    14897.908   -1904.6599    8373.9126   -504.52448    79.520739 
   50000    317.33022    -106.3756   0.28712705   -106.08847    -10982.41    4.3090114    4.3090114    4.3090114    -10982.41   -21981.659   -30781.614    19816.044    29880.886    755.77674    1489.5616    80.007913 
   50100    755.17458   -106.76281   0.68329783   -106.07951    10108.474     4.300991     4.300991     4.300991    10108.474    10284.558   -1397.9441    21438.809   -6543.9167    3330.5587   -4760.6828    79.561984 
   50200    362.94127   -106.41521   0.32839689   -106.08681   -10049.994     4.306339     4.306339     4.306339   -10049.994   -13231.226   -17613.521    694.76425    22302.944   -6814.5327   -629.41787    79.859143 
   50300    407.71019    -106.4554   0.36890475    -106.0865   -1920.8637    4.3057019    4.3057019    4.3057019   -1920.8637    2919.4078   -10931.899    2249.9006     7393.049    978.37633   -211.24767    79.823704 
   50400    745.77298   -106.75592   0.67479107   -106.08113    2719.6572    4.3018191    4.3018191    4.3018191    2719.6572    5987.2973   -108.04801    2279.7223   -124.72077   -2258.9472    5708.5512    79.607951 
   50500    231.12603   -106.29818   0.20912769   -106.08905   -12411.794    4.3092352    4.3092352    4.3092352   -12411.794   -26364.562   -33238.987    22368.167    30766.275    821.71717    2984.5915    80.020378 
   50600    692.74401    -106.7078   0.62680934   -106.08099    10175.544    4.2988648    4.2988648    4.2988648    10175.544     16467.23   -3918.8462    17978.247   -7416.0394   -9781.9227    3938.3968    79.444045 
   50700    367.73749   -106.41949   0.33273661   -106.08675   -5434.7871    4.3095382    4.3095382    4.3095382   -5434.7871   -3621.3361   -25806.299    13123.274    20956.963    1488.2391   -3146.5155    80.037258 
   50800    432.64857   -106.47661   0.39146952   -106.08514    1275.5251    4.3021281    4.3021281    4.3021281    1275.5251     9394.795   -8671.3813    3103.1616    7316.4278   -4203.2106    2750.8169    79.625102 
   50900    779.82748   -106.78646   0.70560429   -106.08085   -4963.6985    4.3069688    4.3069688    4.3069688   -4963.6985   -6074.4357   -7548.6301   -1268.0297   -845.84859    9790.5456   -690.77883    79.894188 
   51000    295.38766   -106.35396   0.26727297   -106.08669   -6738.2795    4.3042666    4.3042666    4.3042666   -6738.2795   -11442.415   -25910.622    17138.198      31211.3   -1193.8578    2528.0289    79.743902 
   51100     609.5443   -106.63431   0.55152849   -106.08278     3166.218    4.3038543    4.3038543    4.3038543     3166.218    15265.475   -9118.6635    3351.8422   -10599.503   -1008.4147   -5339.5107    79.720989 
   51200    386.12803    -106.4335   0.34937675   -106.08413    976.87914    4.3080143    4.3080143    4.3080143    976.87914   -537.67763   -21320.534    24788.849    15227.157   -4751.5078    -3423.266    79.952384 
   51300    492.71022   -106.52914   0.44581456   -106.08333    3327.9636    4.2983619    4.2983619    4.2983619    3327.9636   -1587.5377    2063.8889    9507.5395    8857.6718    1104.5734   -6959.1511    79.416168 
   51400    625.59053   -106.64654   0.56604746    -106.0805    -10378.33    4.3136584    4.3136584    4.3136584    -10378.33    -15424.22   -13760.236   -1950.5354   -5314.5058   -1238.8838    2178.5642    80.267042 
   51500    389.47186   -106.43555   0.35240233   -106.08314    6317.5533     4.296324     4.296324     4.296324    6317.5533    14772.989   -5086.9977    9266.6687    30267.576   -549.62023   -525.79487    79.303266 
   51600    557.31682    -106.5868   0.50427197   -106.08253    -6060.428    4.3115253    4.3115253    4.3115253    -6060.428    3543.5281   -15755.232   -5969.5796   -9670.7688   -7572.8495    4191.8205    80.148022 
   51700    469.21118   -106.50752   0.42455214   -106.08297    610.13808    4.3021344    4.3021344    4.3021344    610.13808   -726.12049   -13332.221    15888.756    10603.874   -6858.0814     182.3723    79.625453 
   51800    503.55029   -106.53848   0.45562288   -106.08286    2606.8331    4.2996468    4.2996468    4.2996468    2606.8331   -7468.1825   -4826.9383     20115.62    13617.881    2467.6482    1569.6613    79.487407 
   51900    495.27145   -106.52992   0.44813202   -106.08179   -10146.339    4.3138027    4.3138027    4.3138027   -10146.339   -8046.6586   -17216.663   -5175.6959   -7136.4547   -3683.2432    579.71756    80.275093 
   52000    439.84753   -106.47987   0.39798329   -106.08189    9249.6395    4.2934418    4.2934418    4.2934418    9249.6395    16845.089    -4205.125    15108.955    26201.645    3147.8205    3379.3908    79.143773 
   52100    619.89344   -106.64206   0.56089261   -106.08117   -11638.792    4.3138326    4.3138326    4.3138326   -11638.792   -10009.143   -16321.465   -8585.7688   -7778.9447   -6807.8154    1602.9328    80.276767 
   52200    473.87533   -106.51082   0.42877235   -106.08205   -91.426743    4.3011816    4.3011816    4.3011816   -91.426743    -2850.374     -9373.89    11949.984     4977.808   -1112.8028   -1032.0746    79.572561 
   52300    479.98418   -106.51552   0.43429977   -106.08122    4291.4236    4.3031927    4.3031927    4.3031927    4291.4236    5135.6912   -6225.8083    13964.388     13828.84     4093.915   -2353.2666    79.684228 
   52400    465.51306   -106.50298     0.421206   -106.08177   -2160.1332    4.3091941    4.3091941    4.3091941   -2160.1332    9247.6032   -6238.3318    -9489.671   -5707.3106    4075.6689   -6394.3263    80.018087 
   52500    376.89305   -106.42456   0.34102075   -106.08353    7740.8178    4.2991728    4.2991728    4.2991728    7740.8178    6332.6744   -3994.7198    20884.499    17524.117   -1408.3795   -625.04033    79.461122 
   52600    718.08343   -106.72935   0.64973698   -106.07962   -9466.0616     4.308028     4.308028     4.308028   -9466.0616   -9260.2426   -7239.1986   -11898.744   -2785.2451    2551.3427    -4217.309    79.953146 
   52700    376.53466   -106.42463   0.34069647   -106.08393    1861.6733     4.304604     4.304604     4.304604    1861.6733    12542.383    -12811.67    5854.3067   -2749.3539   -4188.8959      3432.01     79.76266 
   52800     566.1518    -106.5946   0.51226605   -106.08233    405.48873    4.3030276    4.3030276    4.3030276    405.48873    4669.1187   -5159.2696    1706.6171    16434.092    4839.5196   -3404.0131    79.675059 
   52900    515.68714   -106.55055   0.46660456   -106.08395    3050.7185    4.3037491    4.3037491    4.3037491    3050.7185    9589.1247    1171.2305   -1608.1997   -5813.4917    3305.3697    2710.0884    79.715145 
   53000     361.9577    -106.4136   0.32750694   -106.08609   -2762.0347    4.3074801    4.3074801    4.3074801   -2762.0347   -17219.015    -1890.839     10823.75    9610.5457   -4922.2706    -3819.527    79.922646 
   53100    653.05396   -106.67193   0.59089694   -106.08104    1785.4227    4.3009022    4.3009022    4.3009022    1785.4227    4858.4712   -43.467893    541.26476    2953.8229   -1453.6979    2703.9138    79.557054 
   53200    392.88714    -106.4399   0.35549254   -106.08441   -5307.8287    4.3092968    4.3092968    4.3092968   -5307.8287    5753.8304   -12629.472   -9047.8449   -7092.7607   -2693.4955    2488.4764     80.02381 
   53300    618.52905   -106.64117   0.55965808   -106.08151    770.44432    4.3005096    4.3005096    4.3005096    770.44432    2316.6939   -3728.8737    3723.5128    16835.497   -2533.4033    2637.7897    79.535271 
   53400    520.48979   -106.55336    0.4709501   -106.08241   -3782.6209    4.3066711    4.3066711    4.3066711   -3782.6209   -647.22223   -2739.2664    -7961.374    -6209.355    7532.9715   -608.15779    79.877618 
   53500    379.89825   -106.42837   0.34373992   -106.08463    158.03899    4.3047587    4.3047587    4.3047587    158.03899       -10382    6161.0693    4695.0478    148.40762   -5976.7674   -3095.3575    79.771259 
   53600    569.40682   -106.59668   0.51521126   -106.08147    4279.0387    4.3034287    4.3034287    4.3034287    4279.0387    8622.3008   -285.62331    4500.4387    933.68602    629.82357   -2396.1105    79.697343 
   53700    380.82092   -106.42961   0.34457478   -106.08503   -3807.1438    4.3062944    4.3062944    4.3062944   -3807.1438    1935.8374   -2198.8399   -11158.429   -9258.6378    2638.1651   -3324.0311    79.856662 
   53800    620.87441   -106.64388   0.56178021    -106.0821   -2869.2722    4.3014658    4.3014658    4.3014658   -2869.2722   -8423.2948   -12821.291    12636.769    7046.2075   -224.37077      2803.09    79.588333 
   53900    533.82045   -106.56546   0.48301196   -106.08245   -8870.8946    4.3086353    4.3086353    4.3086353   -8870.8946    58.769034   -10310.864   -16360.589    621.55539    7331.1418   -4394.5308    79.986962 
   54000    418.81116   -106.46311   0.37894914   -106.08416    1325.2387    4.3013609    4.3013609    4.3013609    1325.2387   -4437.7311   -3655.2668    12068.714   -8980.9379    27.937798    1744.5527    79.582516 
   54100    556.43204   -106.58494    0.5034714   -106.08147    4597.7337    4.3059662    4.3059662    4.3059662    4597.7337    17182.049    -4082.132    693.28371    4917.9639   -7887.3382   -6859.6256    79.838407 
   54200     354.0622   -106.40591   0.32036292   -106.08554   -1044.8291    4.3048371    4.3048371    4.3048371   -1044.8291   -3203.4019   -1340.9233    1409.8378   -7216.7127    5337.4491   -430.63752    79.775618 
   54300    569.74877   -106.59799   0.51552066   -106.08247   -4779.9201    4.3055922    4.3055922    4.3055922   -4779.9201   -12336.354   -11133.301    9129.8951    2202.8756   -3958.1173   -673.53869    79.817603 
   54400    623.35947   -106.64554   0.56402875   -106.08151    1834.8457     4.301834     4.301834     4.301834    1834.8457    14919.089   -3843.9949   -5570.5567    5084.9122    5936.3097    2885.7048    79.608773 
   54500    354.06458   -106.40617   0.32036507   -106.08581   -6120.7618    4.3096043    4.3096043    4.3096043   -6120.7618   -5090.1154   -16208.058    2935.8879   -11116.345    152.72179    1044.7129    80.040941 
   54600    644.34726   -106.66374   0.58301894   -106.08072     9955.985    4.2993855    4.2993855    4.2993855     9955.985    16082.223   -670.79468    14456.526    561.99177   -2940.2178   -175.25499    79.472919 
   54700    343.29829   -106.39757   0.31062351   -106.08695   -2349.3618    4.3064166    4.3064166    4.3064166   -2349.3618   -6555.6872   -8175.4005    7683.0024   -6363.3713    4195.3141   -6605.6699    79.863458 
   54800    523.66054   -106.55963   0.47381906   -106.08581   -5822.2301    4.3065136    4.3065136    4.3065136   -5822.2301   -15699.158   -528.62793   -1238.9049   -6083.8237    8893.7309     1908.104    79.868857 
   54900    708.96786   -106.72219   0.64148902    -106.0807    7443.1574    4.2993132    4.2993132    4.2993132    7443.1574    18809.374    1008.3931    2511.7057    3328.4762   -354.26117   -3226.3709    79.468909 
   55000    288.47682   -106.34781   0.26101989   -106.08679   -9049.8575    4.3117174    4.3117174    4.3117174   -9049.8575   -8190.8005   -13525.913   -5432.8586   -10101.967    5809.8353     107.8543    80.158736 
   55100    609.26644   -106.63109   0.55127708   -106.07981    12623.432     4.299122     4.299122     4.299122    12623.432    11901.375    2774.3482    23194.574   -8204.5382   -4792.6385    -4253.937    79.458309 
   55200    421.63234   -106.46554    0.3815018   -106.08404   -830.63136    4.3065624    4.3065624    4.3065624   -830.63136   -6373.1208    1696.8971    2184.3296   -950.18609    1942.4684   -9657.3249    79.871574 
   55300     445.9915   -106.48861   0.40354248   -106.08507   -6108.3615    4.3059281    4.3059281    4.3059281   -6108.3615   -18922.113    6530.9385     -5933.91   -14282.351    8538.7516    1003.0919    79.836286 
   55400    688.11112    -106.7029   0.62261741   -106.08029    5686.8146    4.3015203    4.3015203    4.3015203    5686.8146    6185.7973    2999.9751    7874.6715    7653.7215   -3859.0569   -1148.6056    79.591358 
   55500    355.62272   -106.40791   0.32177491   -106.08613   -15754.421    4.3091474    4.3091474    4.3091474   -15754.421    -17337.46   -14543.641   -15382.164   -9443.2125    8749.2545    256.37891    80.015487 
   55600    517.43849   -106.55166   0.46818922   -106.08347    10492.496    4.2997456    4.2997456    4.2997456    10492.496   -3397.1588    8755.1535    26119.494     -8957.03   -2306.7224   -1646.7269    79.492892 
   55700    550.99953   -106.58217   0.49855596   -106.08362   -1497.9567    4.3082823    4.3082823    4.3082823   -1497.9567   -5163.3869    9414.4681   -8744.9514    1829.2752    4462.6304   -6055.9572    79.967306 
   55800    369.32739   -106.42057   0.33417518   -106.08639   -5574.0232    4.3034688    4.3034688    4.3034688   -5574.0232   -21798.678    4250.0386    826.57009   -13986.438    6982.9637    709.16145    79.699571 
   55900    676.03821   -106.69337   0.61169358   -106.08167    2330.7836    4.3031719    4.3031719    4.3031719    2330.7836   -1012.3472   -2574.0876    10578.786    3467.3632    1177.0784     4413.156    79.683074 
   56000    440.24979   -106.48428   0.39834727   -106.08593   -11562.579    4.3084536    4.3084536    4.3084536   -11562.579   -17048.677   -11122.215    -6516.846   -4850.3752    745.36225   -7136.6988    79.976846 
   56100    446.46088   -106.48881   0.40396718   -106.08484    7191.5566    4.3028027    4.3028027    4.3028027    7191.5566   -9419.4948    14541.439    16452.726   -14390.698    4181.9765    298.35651    79.662569 
   56200    580.37055   -106.60589   0.52513147   -106.08076    2089.8525    4.3069473    4.3069473    4.3069473    2089.8525   -4026.6706    21837.735   -11541.506    711.25649   -6579.3484   -10621.458    79.892991 
   56300    268.26716   -106.32907   0.24273377   -106.08634   -1058.4632    4.3029168    4.3029168    4.3029168   -1058.4632   -12218.638   -3102.5199    12145.769    -16356.65     9543.813    892.86753    79.668904 
   56400    730.78661   -106.74245   0.66123108   -106.08122   -6259.4222     4.306882     4.306882     4.306882   -6259.4222    -8894.656    -9392.439   -491.17164    452.95583   -1445.3604   -3024.3761    79.889356 
   56500    448.21194   -106.49044   0.40555158   -106.08489    1882.4582     4.303471     4.303471     4.303471    1882.4582   -8656.9927   -506.79413    14811.161    3858.3393    3836.1182   -8338.9981    79.699694 
   56600    433.44412   -106.47849   0.39218935    -106.0863    -3162.089    4.3060047    4.3060047    4.3060047    -3162.089   -20910.436    14441.964   -3017.7949   -14634.115    6512.8223   -5554.3564    79.840547 
   56700    559.20716   -106.58721   0.50598239   -106.08123    4318.5249    4.3061069    4.3061069    4.3061069    4318.5249   -6943.5221    14977.796    4921.3014    4756.9496   -5635.5091   -837.39874    79.846229 
   56800    395.15264   -106.44219   0.35754242   -106.08465   -7119.1305    4.3023069    4.3023069    4.3023069   -7119.1305   -9201.4179   -7016.6409   -5139.3327   -12114.648    11149.885   -1442.9335    79.635034 
   56900    607.31948   -106.63201   0.54951543   -106.08249   -4400.3713    4.3086829    4.3086829    4.3086829   -4400.3713   -10610.361   -9402.2433    6811.4901   -4311.1893   -1156.3503     4430.456    79.989614 
   57000    541.39449   -106.57269   0.48986511   -106.08282     597.8838    4.3033223    4.3033223    4.3033223     597.8838   -7116.7209    6404.1813    2506.1909    8730.5965    4900.0401   -441.19464    79.691432 
   57100     347.1072   -106.40071   0.31406989   -106.08664   -772.00659    4.3027057    4.3027057    4.3027057   -772.00659   -20469.193    8369.1778    9783.9952   -17890.974      4642.47   -3727.9359    79.657182 
   57200    593.35071   -106.61925   0.53687619   -106.08237   -1792.6848    4.3097129    4.3097129    4.3097129   -1792.6848   -13054.672    4704.5481    2972.0692    2080.9355   -4667.0293    4753.2543    80.046991 
   57300    542.92857   -106.57493   0.49125318   -106.08368   -2970.5492    4.3000672    4.3000672    4.3000672   -2970.5492   -3316.1721   -7374.7191    1779.2437   -7387.2077    2148.3485   -3688.0236    79.510726 
   57400    428.97007   -106.47335   0.38814113   -106.08521   -2807.6059    4.3093907    4.3093907    4.3093907   -2807.6059   -11478.177    -2877.277    5932.6365   -6548.8436    3764.0397    1803.3448    80.029039 
   57500    597.17851   -106.62176   0.54033966   -106.08142    1877.8804    4.3033981    4.3033981    4.3033981    1877.8804   -9124.4223    18952.566   -4194.5029    12414.594   -6599.6087   -8981.0928    79.695643 
   57600    257.37937   -106.31871   0.23288226   -106.08583    5352.7539    4.3031308    4.3031308    4.3031308    5352.7539   -18037.881    13108.686    20987.456   -11505.105     9684.825   -5248.1628     79.68079 
   57700    658.55742   -106.67764    0.5958766   -106.08176    -11269.09    4.3091555    4.3091555    4.3091555    -11269.09   -23235.655    483.61057   -11055.226   -703.78971    -9978.772    -4432.536    80.015938 
   57800    568.33635   -106.59655   0.51424267   -106.08231     6842.345    4.2986013    4.2986013    4.2986013     6842.345    -2739.665    1376.3847    21890.315   -1210.6901    2855.3696    3318.2211    79.429439 
   57900    428.64534    -106.4727   0.38784731   -106.08485   -16544.346    4.3127652    4.3127652    4.3127652   -16544.346   -25549.104   -4997.4466   -19086.487   -10911.681    5910.8524   -6191.7836    80.217189 
   58000    480.61125   -106.51644   0.43486716   -106.08157    16171.867    4.2957682    4.2957682    4.2957682    16171.867    1223.3127    32065.949     15226.34    8091.6106   -8941.8298    2987.5304    79.272495 
   58100    444.44213   -106.48687   0.40214058   -106.08473   -9984.8299    4.3112349    4.3112349    4.3112349   -9984.8299   -23171.463    1899.7866   -8682.8135   -7841.5183    14124.461   -7819.9754    80.131829 
   58200     477.9213   -106.51632   0.43243323   -106.08389   -4383.7721    4.3028133    4.3028133    4.3028133   -4383.7721   -15975.285    4100.8117   -1276.8426   -7753.6848    -8235.662    1327.6157    79.663154 
   58300    705.81934   -106.71968   0.63864017   -106.08104   -327.01347    4.3018786    4.3018786    4.3018786   -327.01347   -11345.421    3530.8815    6833.4991    2082.1765    1364.6962    791.71314     79.61125 
   58400    365.61104   -106.41596   0.33081256   -106.08514   -11041.765    4.3115209    4.3115209    4.3115209   -11041.765   -28816.614    2701.2404   -7009.9223   -12186.218    5013.4815   -3534.8916     80.14778 
   58500    450.92248   -106.49065   0.40800414   -106.08265    15406.577    4.2959988    4.2959988    4.2959988    15406.577    396.15028    29925.278    15898.302    6609.5816   -8756.3092   -3886.4359    79.285261 
   58600    550.25545   -106.57979    0.4978827   -106.08191   -6264.9865    4.3123822    4.3123822    4.3123822   -6264.9865   -15219.737    6402.4868   -9977.7089    781.72334    8045.2634   -2936.6059    80.195822 
   58700    373.60829   -106.42196   0.33804864   -106.08391   -1264.9244    4.3001782    4.3001782    4.3001782   -1264.9244   -8978.2398    2226.7388    2956.7279   -9898.7651   -4987.6661   -2010.7226    79.516884 
   58800    722.90945   -106.73481   0.65410366   -106.08071   -6531.9586    4.3054319    4.3054319    4.3054319   -6531.9586   -12856.232     1566.216   -8305.8594    2146.9137   -9145.8857    1620.2994    79.808688 
   58900    414.21547   -106.45943   0.37479086   -106.08464    56.841159     4.306997     4.306997     4.306997    56.841159   -19756.779    13563.278    6364.0247   -8768.2794    9375.4243   -327.02233    79.895757 
   59000    494.28561   -106.53134   0.44724001    -106.0841    3267.2498     4.300061     4.300061     4.300061    3267.2498   -9423.2839    19233.971   -8.9375942   -2844.7821   -15802.528   -6109.2537    79.510384 
   59100    473.72285   -106.50985   0.42863439   -106.08122    4690.8033    4.3100733    4.3100733    4.3100733    4690.8033   -9968.2441     15840.94    8199.7144    5945.5057    10617.953    284.97504    80.067077 
   59200    478.55275   -106.51692   0.43300459   -106.08392   -4587.4477    4.2978431    4.2978431    4.2978431   -4587.4477   -7046.8031   -3421.9893   -3293.5508   -14307.973   -1981.4627   -3344.9003    79.387418 
   59300    541.67774   -106.57401    0.4901214   -106.08389   -5072.4156    4.3099187    4.3099187    4.3099187   -5072.4156   -10651.602   -2549.5716   -2016.0734    618.61683   -9407.5473    15.181131    80.058458 
   59400    629.67938   -106.65219   0.56974713   -106.08244   -2524.9651    4.3039301    4.3039301    4.3039301   -2524.9651   -14349.897    9544.4831   -2769.4818   -9260.5696    12052.754    90.500428      79.7252 
   59500    322.58287   -106.37733   0.29187976   -106.08545    2220.1604    4.3017577    4.3017577    4.3017577    2220.1604   -8150.8178    16253.187   -1441.8884   -3117.3835   -12284.888   -7794.3332    79.604542 
   59600    545.21867   -106.57478   0.49332531   -106.08146    1497.1087    4.3085582    4.3085582    4.3085582    1497.1087   -7270.5839    12233.024   -471.11364    4832.0942    5423.0492    185.88524    79.982668 
   59700    478.07577   -106.51516   0.43257301   -106.08258   -964.67435    4.3018526    4.3018526    4.3018526   -964.67435   -1984.0393    -5595.182    4685.1983   -5250.6853    2204.7183    406.76991    79.609806 
   59800    479.22699   -106.51788   0.43361465   -106.08426   -5655.9219     4.306201     4.306201     4.306201   -5655.9219   -9289.7311   -4308.7285   -3369.3061   -6006.9118   -14916.261   -1949.9911    79.851463 
   59900    702.94779   -106.71648   0.63604193   -106.08044    -1951.312      4.30399      4.30399      4.30399    -1951.312   -7785.3271     2631.007   -699.61586    294.24192    6764.8374    3933.1404    79.728531 
   60000     254.6444   -106.31632    0.2304076   -106.08591    198.66514    4.3046888    4.3046888    4.3046888    198.66514   -15069.641    15910.718    -245.0807   -8229.6248   -8967.7669   -6391.3848     79.76737 
   60100    569.58788   -106.59884   0.51537508   -106.08346    121.96767    4.3039196    4.3039196    4.3039196    121.96767    1972.1462    10349.665   -11955.909    7156.6104    -5089.467   -2197.6157    79.724618 
   60200    514.32971   -106.54851   0.46537633   -106.08314    4778.2839    4.3050004    4.3050004    4.3050004    4778.2839    6144.8501    -755.1175     8945.119   -3687.6996    7165.2692    2051.3234    79.784693 
   60300     480.0951   -106.51967   0.43440014   -106.08527   -11945.879    4.3049514    4.3049514    4.3049514   -11945.879   -8158.9638   -10688.046   -16990.627   -8407.7225   -18834.921   -5636.4425    79.781973 
   60400    583.84199   -106.60982    0.5282725   -106.08155    6283.5428    4.3044939    4.3044939    4.3044939    6283.5428   -950.68833    3905.5906    15895.726   -1233.4715    6038.1694    -435.4718    79.756536 
   60500    488.74044   -106.52603   0.44222262   -106.08381   -8128.5231    4.3062295    4.3062295    4.3062295   -8128.5231   -20658.574    3540.0312   -7267.0263     -8957.36   -6437.2211   -3498.9289    79.853052 
   60600      371.831   -106.42197   0.33644051   -106.08553    6165.6149    4.3023999    4.3023999    4.3023999    6165.6149    9762.6549    8948.4591   -214.26926    2279.0802   -6829.4388   -7615.1641    79.640194 
   60700     647.5262   -106.66705   0.58589532   -106.08116    2999.2485    4.3062618    4.3062618    4.3062618    2999.2485    9028.1008    6536.8483   -6567.2036    2341.8539    5876.0292    7420.5095    79.854849 
   60800     339.2325   -106.39371   0.30694469   -106.08677   -6362.7623    4.3030778    4.3030778    4.3030778   -6362.7623   -6170.8728    -6082.575    -6834.839   -7939.8016   -16101.249    -5384.546    79.677848 
   60900    586.81699   -106.61536   0.53096435    -106.0844    161.38408    4.3060214    4.3060214    4.3060214    161.38408   -3614.0005   -3393.0394    7491.1921   -1450.3664    665.68421    721.36319    79.841476 
   61000    655.78885   -106.67611   0.59337153   -106.08274   -3064.5912    4.3055933    4.3055933    4.3055933   -3064.5912   -12119.109    158.28046    2767.0551   -2778.5027   -1308.0959   -1388.6142    79.817661 
   61100    254.34256   -106.31791   0.23013449   -106.08778    6018.2324    4.3021983    4.3021983    4.3021983    6018.2324    411.59948    8743.7901    8899.3078   -3876.5619   -12114.192   -5096.9535    79.629002 
   61200    661.64249   -106.67891   0.59866803   -106.08025    2743.4431    4.3087007    4.3087007    4.3087007    2743.4431    7797.8892    2034.5337   -1602.0936    8876.2711    3108.3519     1474.425    79.990606 
   61300    277.14793   -106.33644   0.25076927   -106.08567    9071.4089    4.2998652    4.2998652    4.2998652    9071.4089    2401.2286    5470.1017    19342.896   -5598.4267   -14614.578    103.43383    79.499524 
   61400    580.84115   -106.61112   0.52555727   -106.08557   -11711.779    4.3090129    4.3090129    4.3090129   -11711.779   -9297.3382     -17964.6   -7873.3984   -1779.3165   -6898.0588   -8008.0236    80.007997 
   61500    706.74275   -106.72051   0.63947569   -106.08104    5195.4417    4.3034626    4.3034626    4.3034626    5195.4417   -1576.6191   -1379.3993    18542.344    -3744.009    4048.7709    1878.6859    79.699222 
   61600    357.25498   -106.40997   0.32325182   -106.08671   -8120.0766    4.3031495    4.3031495    4.3031495   -8120.0766   -18159.689   -8111.5345    1910.9937    -8605.445   -17298.284   -6849.6227    79.681829 
   61700    519.65889   -106.55376   0.47019828   -106.08356    5678.6862    4.3093494    4.3093494    4.3093494    5678.6862    1297.4268   -3481.3015    19219.933    2934.1507    1551.5914     2605.271    80.026738 
   61800    467.24651   -106.50619   0.42277446   -106.08341    10180.206      4.30019      4.30019      4.30019    10180.206    597.92904    12989.567    16953.121   -1750.5788   -12276.862    5412.0885     79.51754 
   61900     389.1434   -106.44062   0.35210512   -106.08851   -7505.9937    4.3067899    4.3067899    4.3067899   -7505.9937   -8086.8889   -6085.8761   -8345.2162   -3421.6765     -9783.68   -6309.8194    79.884233 
   62000    675.65148   -106.69296   0.61134366   -106.08162    2850.5201    4.3063288    4.3063288    4.3063288    2850.5201    1172.6824   -751.11178    8129.9897   -371.10133    5902.7285   -669.03785    79.858575 
   62100    495.23299   -106.53391   0.44809722   -106.08582   -11400.512    4.3024874    4.3024874    4.3024874   -11400.512   -20737.026   -10002.294   -3462.2155   -9705.2105   -11869.603    -4228.783    79.645058 
   62200    409.63753     -106.457   0.37064864   -106.08635    498.19945    4.3082117    4.3082117    4.3082117    498.19945   -1315.1907   -12310.595    15120.384   -2068.0887   -4463.8988   -6067.9148    79.963372 
   62300     709.0548   -106.72302   0.64156769   -106.08145    4609.2016    4.3011516    4.3011516    4.3011516    4609.2016    7503.3979     6214.825    109.38181    3687.9421   -2725.6655     1688.624    79.570897 
   62400    182.63183   -106.25373   0.16524912   -106.08849    1467.7425    4.3085564    4.3085564    4.3085564    1467.7425   -3669.9229    3716.0095     4357.141   -3380.2236   -11147.594   -7273.5396     79.98257 
   62500    639.04033   -106.65919   0.57821712   -106.08097    658.35997    4.3044497    4.3044497    4.3044497    658.35997    4131.9933    3388.9117   -5545.8251    6622.7168    5786.9312   -10535.246    79.754083 
   62600    481.11913   -106.52032    0.4353267   -106.08499     1490.716    4.3024491    4.3024491    4.3024491     1490.716    -12364.05    4965.4046    11870.793   -7514.1416   -7546.2224    2348.8077    79.642931 
   62700    493.10562    -106.5312   0.44617232   -106.08503   -14479.711    4.3105362    4.3105362    4.3105362   -14479.711   -12644.705   -21812.504   -8981.9253   -4105.9037   -9407.3334   -11916.326    80.092878 
   62800    711.16111   -106.72315   0.64347352   -106.07968    5242.8558    4.2992413    4.2992413    4.2992413    5242.8558    9129.4023    3756.6613    2842.5039    93.342329    3682.5754    5888.1691    79.464921 
   62900    261.52494   -106.32244   0.23663326   -106.08581   -1397.7326    4.3086933    4.3086933    4.3086933   -1397.7326   -10657.622   -3739.8727    10204.297   -3515.7371   -8941.8278    -7960.808    79.990193 
   63000    516.95307   -106.55177      0.46775   -106.08402    121.32252    4.3044269    4.3044269    4.3044269    121.32252    6995.3652   -421.70841   -6209.6892    1569.7365    5092.8629   -10428.906    79.752812 
   63100    513.94939   -106.54801    0.4650322   -106.08298    9441.2496     4.302148     4.302148     4.302148    9441.2496   -2383.6792    11982.557    18724.871   -1479.1088   -1655.8218    1565.7278    79.626207 
   63200    533.98974   -106.56768   0.48316514   -106.08452   -18547.531     4.309997     4.309997     4.309997   -18547.531   -16336.763   -17859.301    -21446.53   -9762.3459   -8419.5355   -8055.9838    80.062822 
   63300    595.43088   -106.61919   0.53875838   -106.08043     3783.955    4.3024242    4.3024242    4.3024242     3783.955    3062.9501    1403.1837    6885.7311   -567.93786    3445.0437   -4666.4538    79.641547 
   63400    511.84154   -106.54545   0.46312498   -106.08233   -1857.6544    4.3054556    4.3054556    4.3054556   -1857.6544   -10843.753    1492.2849    3778.5048   -3963.7604   -3086.7503   -486.26142    79.810005 
   63500    323.85369   -106.37814   0.29302963   -106.08511    1932.9562    4.3085499    4.3085499    4.3085499    1932.9562    7561.7219    460.04534   -2222.8988    1282.8495   -124.23871   -19493.103    79.982208 
   63600     600.9279   -106.62439    0.5437322   -106.08066    14300.029    4.2994203    4.2994203    4.2994203    14300.029    9346.8233    22516.031    11037.233    8954.1933    6137.2346    2473.6518    79.474846 
   63700    397.88302   -106.44517   0.36001291   -106.08516   -7655.5411    4.3096562    4.3096562    4.3096562   -7655.5411    -7336.782   -4354.5281   -11275.313   -6571.5665   -8331.6075   -8305.0789    80.043831 
   63800    536.00801   -106.56818   0.48499131   -106.08319    -822.9037    4.3028267    4.3028267    4.3028267    -822.9037   -526.61778   -2776.1195    834.02615     772.6375    2603.9309   -10999.455    79.663901 
   63900    673.51164   -106.69195   0.60940748   -106.08254    2387.7466    4.3017696    4.3017696    4.3017696    2387.7466   -5501.2363    11578.324    1086.1524    -4807.786    1955.7482    2083.5149    79.605202 
   64000    278.59718   -106.33929   0.25208059   -106.08721   -6546.4185    4.3117776    4.3117776    4.3117776   -6546.4185   -5495.2715   -6192.6583   -7951.3258   -3216.1358    -3865.007   -19874.017    80.162094 
   64100    664.09282   -106.68237   0.60088514   -106.08148    11689.469    4.2960207    4.2960207    4.2960207    11689.469    14562.171    20918.484   -412.24715    2164.9983    6864.1362    1778.9857     79.28647 
   64200     376.2224   -106.42621   0.34041393    -106.0858   -1960.1154    4.3103775    4.3103775    4.3103775   -1960.1154   -3139.7071   -6504.4622    3763.8232   -3984.3595   -7975.4736   -2175.5496    80.084032 
   64300    498.72562   -106.53606   0.45125742    -106.0848   -6157.7113    4.3040806    4.3040806    4.3040806   -6157.7113    3462.0316   -13334.378   -8600.7875   -8662.6383   -620.12646   -13133.004    79.733565 
   64400    656.98001   -106.67452   0.59444932   -106.08007    8324.8566    4.3032239    4.3032239    4.3032239    8324.8566   -3440.0148    18199.891    10214.694   -1971.5924     1516.254    2828.8866    79.685962 
   64500    369.57133   -106.41967   0.33439591   -106.08527   -10225.388    4.3082074    4.3082074    4.3082074   -10225.388   -14455.946    2004.7093   -18224.928   -7292.5633   -4642.2296   -14260.614    79.963136 
   64600    537.94322    -106.5695   0.48674233   -106.08275    4051.7487    4.3033981    4.3033981    4.3033981    4051.7487    6000.9521     10933.88   -4779.5858    6164.7568    3903.9466   -4799.7137    79.695639 
   64700    572.50089   -106.59981   0.51801084    -106.0818   -805.77665     4.305938     4.305938     4.305938   -805.77665    1199.2672   -3810.6728     194.0756    2739.0345   -2349.0538   -53.779962    79.836834 
   64800    342.98239    -106.3966   0.31033768   -106.08627   -5144.5838    4.3047182    4.3047182    4.3047182   -5144.5838    11317.608   -17353.903   -9397.4569   -7005.6888   -4901.5453   -19761.419    79.769007 
   64900    629.30948   -106.65064   0.56941244   -106.08123    11419.808    4.3046929    4.3046929    4.3046929    11419.808    588.80243    26890.764    6779.8568    1449.3871    4713.3254    775.53492      79.7676 
   65000    421.91827   -106.46783   0.38176052   -106.08607   -3925.6433    4.3045439    4.3045439    4.3045439   -3925.6433    -6547.989    7699.6162   -12928.557   -6720.2014   -4773.4032   -14859.512    79.759316 
   65100    461.53014   -106.50283   0.41760217   -106.08523   -3078.0597    4.3061842    4.3061842    4.3061842   -3078.0597   -4787.6558    3573.4224   -8019.9457   -50.512352    3573.0454   -9385.8967     79.85053 
   65200    769.64451   -106.77779   0.69639052    -106.0814   -153.52044    4.3022532    4.3022532    4.3022532   -153.52044    874.53963    3395.2759   -4730.3769    2072.5992    2679.9208    6148.1182    79.632051 
   65300    252.09191   -106.31721   0.22809806   -106.08911   -4945.3952    4.3082301    4.3082301    4.3082301   -4945.3952   -281.04716    -1981.002   -12574.136   -11075.771   -6401.7292   -19784.919    79.964397 
   65400    577.31401   -106.60582   0.52236584   -106.08346    9381.9146     4.303866     4.303866     4.303866    9381.9146    7324.8776    31477.366     -10656.5   -7238.3491    4136.5667    3503.6074     79.72164 
   65500    426.15892   -106.47037   0.38559755   -106.08477    5896.1765    4.3038424    4.3038424    4.3038424    5896.1765    2851.9115    10485.666    4350.9522   -5355.6221   -6598.0668   -7032.8981    79.720326 
   65600    436.17366   -106.48069    0.3946591   -106.08603   -14413.893    4.3082285    4.3082285    4.3082285   -14413.893   -3000.5829   -19131.638   -21109.459   -5234.7837   -779.37277   -12936.962     79.96431 
   65700    702.13913    -106.7152   0.63531024   -106.07989    8742.4293    4.3010021    4.3010021    4.3010021    8742.4293    4439.0078    10373.384    11414.897    4622.8349    666.37471    6789.9675    79.562598 
   65800    408.28414   -106.45521   0.36942407   -106.08579    -15574.52    4.3106779    4.3106779    4.3106779    -15574.52   -16702.587    -3402.085   -26618.887     120.0539   -6730.4306   -20862.597    80.100775 
   65900    431.47189   -106.47483   0.39040483   -106.08442    10929.252     4.298982     4.298982     4.298982    10929.252    16153.235    14440.624     2193.897   -11160.507    643.29647   -2958.3489    79.450546 
   66000    610.53503   -106.63553   0.55242493    -106.0831   -5482.5456    4.3096187    4.3096187    4.3096187   -5482.5456    2165.0689   -8701.6327   -9911.0732    4469.7256   -4489.7869   -6450.2925    80.041743 
   66100    282.55536   -106.34202   0.25566203   -106.08636   -1666.8567    4.3046334    4.3046334    4.3046334   -1666.8567    14056.576   -11758.929   -7298.2174   -6486.6463   -5770.1432       -12871     79.76429 
   66200    728.43546   -106.73959   0.65910371   -106.08048    4783.7829    4.3015335    4.3015335    4.3015335    4783.7829    483.08683    10322.708    3545.5535    3868.8652     3051.512    3912.7473    79.592093 
   66300    402.53851   -106.44894    0.3642253   -106.08472   -9795.2112     4.311311     4.311311     4.311311   -9795.2112   -14835.479   -1302.2242    -13247.93    1131.3073   -4385.9045   -9960.5277     80.13607 
   66400    451.87362   -106.49263   0.40886474   -106.08377    1684.7748    4.2981701    4.2981701    4.2981701    1684.7748    4813.3395   -1957.8177    2198.8026   -13700.427   -173.52278   -5012.4754    79.405541 
   66500    642.94028   -106.66339   0.58174587   -106.08164   -3186.5178    4.3092881    4.3092881    4.3092881   -3186.5178     12409.19   -15110.793   -6857.9501    1109.9952    492.69982    2395.9819    80.023327 
   66600    302.47947   -106.36101   0.27368978   -106.08732   -696.81108     4.303373     4.303373     4.303373   -696.81108    15943.517   -9433.4642   -8600.4856   -221.87602   -6234.3731   -13455.579    79.694245 
   66700    686.11357    -106.7035   0.62080998   -106.08269    901.29023    4.3028198    4.3028198    4.3028198    901.29023   -1222.7658    6676.3229   -2749.6864   -4855.9334    2076.8169    7300.1376    79.663517 
   66800    407.89765   -106.45294   0.36907436   -106.08387     -3683.32    4.3102026    4.3102026    4.3102026     -3683.32   -8515.1871     4851.971   -7386.7437    5522.8012   -221.26166    -9332.133    80.074281 
   66900    478.21649   -106.51625   0.43270033   -106.08355   -5211.8118    4.2997038    4.2997038    4.2997038   -5211.8118    2530.3257   -12577.706   -5588.0552    -14825.55   -3563.2845   -10204.843    79.490569 
   67000     619.3439   -106.64157   0.56039537   -106.08117     2644.973    4.3083831    4.3083831    4.3083831     2644.973    13859.851    -11324.82    5399.8885   -1406.9645    1668.3012    2072.8592    79.972916 
   67100    418.47176   -106.46404   0.37864204    -106.0854   -2895.0964      4.30367      4.30367      4.30367   -2895.0964     12576.81   -6609.6214   -14652.478    6840.7826   -8525.5886    -18253.29    79.710749 
   67200    454.46396   -106.49547   0.41120855   -106.08426    6279.7059    4.3032869    4.3032869    4.3032869    6279.7059     1830.469    4037.0426    12971.606   -9576.6058    489.07289    2959.8998    79.689463 
   67300    604.39165   -106.62874   0.54686627   -106.08188   -2514.0807    4.3069035    4.3069035    4.3069035   -2514.0807   -7063.3743     9232.267   -9711.1347    6537.5229   -2759.9235   -9043.9447     79.89055 
   67400    400.90623   -106.44816   0.36274838   -106.08541   -3644.6336    4.3033237    4.3033237    4.3033237   -3644.6336    552.93777   -13959.657    2472.8186   -9164.7701   -2109.1824   -11626.918    79.691509 
   67500    680.27924    -106.6969   0.61553095   -106.08136    2947.3061    4.3049138    4.3049138    4.3049138    2947.3061    7270.8823   -72.411521    1643.4476   -3353.3029   -3331.3657    4152.7992    79.779877 
   67600    358.66561   -106.40926   0.32452818   -106.08474    2722.8023    4.3057356    4.3057356    4.3057356    2722.8023    8767.3797    471.31325   -1070.2861    10989.053   -3414.7284   -10024.263    79.825577 
   67700    404.71499   -106.45019   0.36619463     -106.084    1635.9696    4.3036036    4.3036036    4.3036036    1635.9696    798.23574    2910.9765    1198.6966   -8286.2651   -5496.9642     3079.498    79.707059 
   67800    621.87471   -106.64324   0.56268531   -106.08055    3686.8599    4.3057177    4.3057177    4.3057177    3686.8599    -4955.983    7536.1196    8480.4432   -649.63289    1203.2175   -1267.1068    79.824585 
   67900    525.32312   -106.55914    0.4753234   -106.08381    -14352.89    4.3066952    4.3066952    4.3066952    -14352.89   -8435.7332   -18719.997   -15902.939   -2424.8256   -2477.7365   -9585.0921    79.878961 
   68000    549.81525   -106.57968   0.49748439    -106.0822    10346.833    4.2999552    4.2999552    4.2999552    10346.833   -1583.1455    16062.105    16561.539   -13015.858   -1127.6774    1600.7839    79.504517 
   68100    450.17894    -106.4911   0.40733137   -106.08376   -4168.3048     4.309512     4.309512     4.309512   -4168.3048    1565.8291   -3222.8469   -10847.897    11470.268    3179.8371   -6766.3372      80.0358 
   68200    334.65853   -106.38871   0.30280608    -106.0859    5691.4996    4.3001781    4.3001781    4.3001781    5691.4996    1211.4673    4574.5825    11288.449   -5322.6638   -8926.6294   -5477.8507    79.516879 
   68300    690.50709   -106.70704   0.62478532   -106.08226    57.545246    4.3063784    4.3063784    4.3063784    57.545246   -1457.3506   -2457.5807     4087.567   -4023.2335    5699.4343   -731.22306    79.861333 
   68400    518.38553   -106.55439   0.46904612   -106.08534    -9967.584    4.3049553    4.3049553    4.3049553    -9967.584   -3964.4971   -16669.542   -9268.7129    3974.5555   -4414.0465   -17884.982     79.78219 
   68500    444.19676   -106.48707   0.40191857   -106.08515    4801.2002    4.3031231    4.3031231    4.3031231    4801.2002   -8619.2534    12682.534     10340.32   -9809.9003   -384.94136    1582.2224    79.680366 
   68600    538.94308   -106.56999   0.48764702   -106.08234   -1991.2927    4.3077111    4.3077111    4.3077111   -1991.2927   -269.74156    2675.5172   -8379.6539    9622.9116   -1640.9254   -4782.3777    79.935502 
   68700    309.28836   -106.36526   0.27985061   -106.08541    8912.5907    4.3015403    4.3015403    4.3015403    8912.5907    12167.263    3710.5446    10859.965    3605.6141   -7332.3681   -7098.3233    79.592468 
   68800     678.2568   -106.69359   0.61370101   -106.07989   -7082.1724    4.3091495    4.3091495    4.3091495   -7082.1724    981.22843   -13265.127   -8962.6187   -7156.3967   -4607.9121    5506.5528    80.015606 
   68900    408.20125   -106.45138   0.36934907   -106.08203    3750.1467    4.2997766    4.2997766    4.2997766    3750.1467    9385.9608   -11815.096    13679.576    2847.9761    2247.2935   -13836.288    79.494606 
   69000    549.64683   -106.57988     0.497332   -106.08254   -12101.799    4.3098405    4.3098405    4.3098405   -12101.799   -17483.908   -4616.1433   -14205.346   -9461.1735   -7326.0087    2793.3532    80.054102 
   69100    527.06316   -106.55846   0.47689782   -106.08156    10112.258    4.3003903    4.3003903    4.3003903    10112.258    441.77488    14069.191    15825.808   -1746.6891     4334.991    -2789.025    79.528653 
   69200    432.33788   -106.47732    0.3911884   -106.08613   -3158.2719    4.3053498    4.3053498    4.3053498   -3158.2719    8895.9569   -3832.9145   -14537.858    7114.3886   -2713.7906    -7988.772    79.804125 
   69300    501.15825    -106.5361   0.45345851   -106.08264    400.36822    4.3064135    4.3064135    4.3064135    400.36822    2045.7015   -7553.5637    6708.9669   -8357.4219   -5343.0883   -197.17951     79.86329 
   69400    485.09402   -106.52238   0.43892326   -106.08346    -2900.508    4.3003777    4.3003777    4.3003777    -2900.508    7588.6811   -12155.488   -4134.7166    2087.7408    11752.028   -8367.3884    79.527954 
   69500    546.07981   -106.57715   0.49410449   -106.08304   -10374.011    4.3096553    4.3096553    4.3096553   -10374.011   -14188.188   -9157.8822   -7775.9625   -2604.6886   -6910.2662   -7321.8193    80.043781 
   69600    579.96781   -106.60578   0.52476706   -106.08101    6262.5085    4.3009131    4.3009131    4.3009131    6262.5085   -2525.6342    12367.164     8945.996   -2410.7515    5816.3198    3344.1584    79.557661 
   69700    379.11702   -106.42753   0.34303305    -106.0845   -4932.0346    4.3066871    4.3066871    4.3066871   -4932.0346    12447.687   -9011.5448   -18232.246    11314.534   -1575.7823   -10902.334    79.878511 
   69800    446.87115   -106.48648    0.4043384   -106.08214     9633.221    4.3035398    4.3035398    4.3035398     9633.221    15168.018    4247.1942    9484.4508    117.34309   -5806.8051    1204.4908    79.703514 
   69900    542.89324   -106.57475   0.49122121   -106.08353   -8130.8704    4.3053811    4.3053811    4.3053811   -8130.8704    7744.1211   -13187.519   -18949.213   -1337.8402    7887.4062   -4565.6679    79.805864 
   70000    496.50974   -106.53264   0.44925245   -106.08339   -3063.4084    4.3054646    4.3054646    4.3054646   -3063.4084   -4378.9632   -7761.1989    2949.9368    244.14245   -1345.1716   -6594.2313    79.810505 
   70100     713.9832   -106.72682     0.646027   -106.08079    -5849.108    4.3032721    4.3032721    4.3032721    -5849.108   -8588.4624   -3735.0386   -5223.8229   -6231.0535   -3724.8366    6014.3065    79.688642 
   70200    249.84824   -106.31323   0.22606794   -106.08716   -3085.7417    4.3056208    4.3056208    4.3056208   -3085.7417    12748.505   -12142.278   -9863.4518    3092.5922    10318.031   -10083.359    79.819195 
   70300    600.78776   -106.62699   0.54360539   -106.08338    7561.1766    4.3032966    4.3032966    4.3032966    7561.1766     18680.98    8294.0324   -4291.4822    2909.7218   -5040.7312    947.37008        79.69 
   70400    480.64653   -106.51995   0.43489908   -106.08505    607.07345    4.3059697    4.3059697    4.3059697    607.07345    8834.3868   -3376.1552   -3637.0113    217.79405    12177.215   -7017.2723    79.838597 
   70500    367.40513   -106.41911   0.33243588   -106.08667   -1135.4606    4.3021443    4.3021443    4.3021443   -1135.4606     3294.868    2082.8747   -8784.1246    1728.9359    7634.4581   -6719.6479    79.626001 
   70600    780.95683     -106.787   0.70662615   -106.08038   -5070.0925    4.3068242    4.3068242    4.3068242   -5070.0925   -10543.103   -7621.2877    2954.1128    3339.3771   -3163.1795   -571.93281    79.886139 
   70700    318.35816   -106.37562   0.28805715   -106.08756   -828.17062    4.3034008    4.3034008    4.3034008   -828.17062    6554.6881    2958.6372   -11997.837   -927.08807    10972.809   -8548.6395    79.695794 
   70800    566.31398   -106.59852   0.51241279   -106.08611   -677.68846    4.3043321    4.3043321    4.3043321   -677.68846    14360.726   -6591.2474   -9802.5437    11719.617    1083.9618   -3713.1546    79.747545 
   70900    453.77201   -106.49505   0.41058245   -106.08447    12924.741    4.3038668    4.3038668    4.3038668    12924.741    20306.819    3057.0471    15410.357     75.21073    6437.3518   -2764.8054    79.721682 
   71000    328.13265   -106.38473   0.29690132   -106.08783   -8836.1321    4.3064299    4.3064299    4.3064299   -8836.1321    3825.2165    -10524.08   -19809.533    3349.3762    10076.025   -8080.7698    79.864198 
   71100    709.28511   -106.72157   0.64177608    -106.0798    3204.4781    4.3052241    4.3052241    4.3052241    3204.4781   -4682.4867    2627.9976    11667.924    313.66595   -4834.2475    5600.8557    79.797133 
   71200    627.78486   -106.64994   0.56803293   -106.08191   -8495.1676    4.3045732    4.3045732    4.3045732   -8495.1676   -7328.5013   -112.68315   -18044.318   -4100.1159     2653.877    -5011.585    79.760946 
   71300    371.48752   -106.42112   0.33612971   -106.08499   -4594.9925    4.3072564    4.3072564    4.3072564   -4594.9925    1554.2441   -9429.5382   -5909.6833    4245.2831    5810.0566   -1390.1232    79.910191 
   71400    587.55892   -106.61116   0.53163565   -106.07953    6711.3579    4.3051992    4.3051992    4.3051992    6711.3579    14852.039   -2414.1798    7696.2145    3819.7499    652.22504    1494.4923     79.79575 
   71500    352.11196   -106.40323    0.3185983   -106.08463     425.6883    4.3034618    4.3034618    4.3034618     425.6883     17481.14   -3789.8737   -12414.202    4141.2226    15398.414   -14079.102    79.699183 
   71600    474.45293   -106.51304   0.42929498   -106.08375    3833.9391    4.3056784    4.3056784    4.3056784    3833.9391    4354.7706   -655.13056    7802.1771    11154.516    -502.5426    5395.6431    79.822399 
   71700    685.90264   -106.70208   0.62061912   -106.08146   -6085.8573    4.3042212    4.3042212    4.3042212   -6085.8573   -4211.3792   -6182.2654   -7863.9274   -394.21946    1985.1002   -9997.3466    79.741382 
   71800    323.64701    -106.3794   0.29284261   -106.08655   -705.66032     4.304671     4.304671     4.304671   -705.66032   -4032.5063     1933.606   -18.080744    2822.6758    9366.4603   -3044.0761    79.766381 
   71900    668.36446    -106.6881   0.60475021   -106.08335   -1805.4502    4.3051509    4.3051509    4.3051509   -1805.4502    4358.0097   -8512.3032    -1262.057     8186.824   -493.40824     161.2885    79.793062 
   72000    364.87367   -106.41603   0.33014537   -106.08588    12971.919    4.3021864    4.3021864    4.3021864    12971.919    25870.986    12737.263    307.50811   -1498.8024    8789.6392   -10501.599    79.628343 
   72100    449.04646    -106.4902   0.40630668    -106.0839   -9276.3911    4.3094831    4.3094831    4.3094831   -9276.3911    3631.1934   -15333.674   -16126.693     11195.86    3717.7359    1759.0313    80.034189 
   72200    564.40992   -106.59083   0.51068996   -106.08014    4933.3208     4.300273     4.300273     4.300273    4933.3208    386.51012    2876.9674    11536.485   -1934.3138   -5850.2866    144.06157    79.522142 
   72300    595.71925   -106.62186   0.53901929   -106.08284   -12593.043     4.307601     4.307601     4.307601   -12593.043   -11154.338   -8175.0608   -18449.731   -2575.9822    6075.3183   -2465.9661    79.929372 
   72400    483.97611    -106.5208   0.43791176   -106.08289   -513.83825    4.3058889    4.3058889    4.3058889   -513.83825    223.12754   -9799.6164    8034.9741    8021.5956   -545.31464    6675.8248    79.834105 
   72500    482.71924   -106.51814   0.43677451   -106.08136    5630.3244    4.3022284    4.3022284    4.3022284    5630.3244    16452.958    8818.1441   -8380.1289   -405.86219    996.02346   -4338.0786    79.630672 
   72600    369.40937   -106.41775   0.33424936    -106.0835   -1824.6496    4.3075753    4.3075753    4.3075753   -1824.6496    3266.8285    70.040902   -8810.8181    11631.594    10366.521   -862.74024    79.927943 
   72700    558.12589   -106.58724   0.50500404   -106.08223    2544.9868     4.301083     4.301083     4.301083    2544.9868   -5601.8383    9787.2836    3449.5149    6573.6949   -9287.3549    4670.3998     79.56709 
   72800    601.70851   -106.62748   0.54443851   -106.08304    -11238.18    4.3070207    4.3070207    4.3070207    -11238.18   -11867.999    -4230.565   -17615.976   -5538.2123    9321.0631   -8679.5993    79.897075 
   72900    421.85175   -106.46594   0.38170033   -106.08424   -2738.7718    4.3039457    4.3039457    4.3039457   -2738.7718   -5556.9446   -10412.081    7752.7105    7922.4057    3311.6973    4204.2363     79.72607 
   73000    540.89156   -106.57168   0.48941005   -106.08227   -1805.4026     4.304408     4.304408     4.304408   -1805.4026    2454.6278   -1586.9554   -6283.8803    935.86614   -585.76017   -8137.9615    79.751762 
   73100     362.3903   -106.41222   0.32789836   -106.08432    8049.7904    4.3047738    4.3047738    4.3047738    8049.7904     7239.107    19757.479   -2847.2147    5862.3334    12236.772   -5768.5752    79.772096 
   73200    576.34761   -106.60306   0.52149143   -106.08156   -2406.0293    4.3055981    4.3055981    4.3055981   -2406.0293   -10045.097    7630.0093   -4802.9999    8147.5471   -4629.3126    1539.8464    79.817932 
   73300    473.40745   -106.50954   0.42834901   -106.08119   -2318.6862    4.3044484    4.3044484    4.3044484   -2318.6862   -9953.6054    8883.2529   -5885.7062   -8108.8478    3687.9701   -5747.7965    79.754005 
   73400     585.6065   -106.61157   0.52986907    -106.0817    -11371.58    4.3044081    4.3044081    4.3044081    -11371.58   -12235.495    -12902.64   -8976.6068     3667.083    7009.7354    4079.0484    79.751768 
   73500    506.36737     -106.541   0.45817183   -106.08283    1652.6946    4.3045827    4.3045827    4.3045827    1652.6946   -1885.3867   -386.66971    7230.1402    2713.1558   -6537.2469    1412.5072    79.761474 
   73600    442.36981   -106.48433    0.4002655   -106.08407    660.84693    4.3040255    4.3040255    4.3040255    660.84693   -3976.5844    23612.914   -17653.789    2793.9718    11324.857    89.823251    79.730502 
   73700    439.08643   -106.48002   0.39729463   -106.08273    5625.4203    4.3059113    4.3059113    4.3059113    5625.4203   -7135.4054    10676.032    13335.634     11097.94   -1124.6896    5516.8046    79.835349 
   73800    510.86121   -106.54484   0.46223796    -106.0826   -1586.5179    4.3021631    4.3021631    4.3021631   -1586.5179   -9563.1113    12893.697   -8090.1397   -2161.8129   -4195.8587    659.55904    79.627047 
   73900    505.79756    -106.5411   0.45765626   -106.08344   -7777.5684    4.3082609    4.3082609    4.3082609   -7777.5684   -19380.746   -6010.9389    2058.9798    -1699.878    15083.326   -826.45049    79.966111 
   74000    716.87542   -106.72942   0.64864394   -106.08078    2122.0848     4.300773     4.300773     4.300773    2122.0848   -2191.5655    4967.6923    3590.1277    4584.1893   -11019.902     -2164.16    79.549887 
   74100    300.20791   -106.35795   0.27163443   -106.08632   -1624.5373    4.3069859    4.3069859    4.3069859   -1624.5373    -13950.71    15659.031   -6581.9322   -2396.9398    12460.879   -4251.4368    79.895136 
   74200    495.63157   -106.53203   0.44845786   -106.08357    5107.7658    4.3036573    4.3036573    4.3036573    5107.7658   -84.342365    15917.989    -510.3494    7621.5877    3962.7227   -5090.2557    79.710043 
   74300    492.34428   -106.52969   0.44548345   -106.08421    6122.2601    4.3022636    4.3022636    4.3022636    6122.2601    -8352.844    18984.008    7735.6162    306.81992   -4260.9517    1874.1198    79.632626 
   74400    448.59792    -106.4916   0.40590082    -106.0857   -14654.812    4.3093749    4.3093749    4.3093749   -14654.812   -28011.907   -1926.9341   -14025.595   -6522.0151    17744.281   -6333.2795    80.028162 
   74500    812.54356   -106.81472   0.73520649   -106.07952    5783.4693    4.2979719    4.2979719    4.2979719    5783.4693    -1229.024    4712.9353    13866.497   -1230.9584    -4520.516    3273.9127    79.394555 
   74600     329.4704    -106.3844   0.29811174   -106.08629    -13349.28    4.3120477    4.3120477    4.3120477    -13349.28   -23995.663   -2248.6198   -13803.557   -1164.5695    8325.4911   -2307.4368    80.177157 
   74700    445.91885   -106.48846   0.40347675   -106.08499    5807.1717    4.2986939    4.2986939    4.2986939    5807.1717    271.24403    19754.405   -2604.1341    904.84563    9286.7211    419.85802    79.434571 
   74800    527.44221   -106.55924    0.4772408     -106.082    9573.9148     4.307778     4.307778     4.307778    9573.9148   -5159.5848    22650.968    11230.361    9266.8106   -5560.9487    2118.1768    79.939226 
   74900    345.03119   -106.39911   0.31219147   -106.08692   -8314.4374    4.3037944    4.3037944    4.3037944   -8314.4374   -24189.961    17810.668    -18564.02   -2107.1634    13937.407   -2053.7764    79.717664 
   75000     642.2206   -106.66366    0.5810947   -106.08256    3182.7179    4.3032305    4.3032305    4.3032305    3182.7179   -9331.4466   -3592.4785    22472.079   -3473.0297   -330.30241   -6080.6517    79.686329 
   75100    617.25171   -106.64276   0.55850232   -106.08426    -12537.96    4.3072596    4.3072596    4.3072596    -12537.96   -19731.845   -4552.9165   -13329.118   -1099.4463    1957.7479   -1776.5003    79.910369 
   75200    320.54104   -106.37784   0.29003227   -106.08781    152.92748    4.3014602    4.3014602    4.3014602    152.92748   -15438.334    8193.5934    7703.5232   -6097.7603    12248.348   -6206.1237    79.588023 
   75300    636.84378   -106.65866   0.57622963   -106.08243    6358.4268    4.3068643    4.3068643    4.3068643    6358.4268   -900.67782    19379.383    596.57536    3027.1939   -7682.8916   -2302.6553    79.888372 
   75400    311.37848   -106.36873   0.28174179   -106.08698    5429.8119    4.3017525    4.3017525    4.3017525    5429.8119   -14694.201    26826.133    4157.5038    1495.9408    13603.033    1375.0606    79.604253 
   75500    524.60935   -106.55891   0.47467757   -106.08423   -5782.9867    4.3073278    4.3073278    4.3073278   -5782.9867   -10905.448   -9954.5172    3511.0052   -7754.3874    2101.9713   -5460.0354    79.914166 
   75600    670.66347   -106.68773    0.6068304    -106.0809    530.47466    4.3017422    4.3017422    4.3017422    530.47466   -11216.534    2141.5453    10666.413   -1711.3893    3732.1335    4434.8088     79.60368 
   75700    382.54667   -106.43197   0.34613627   -106.08584   -10820.873    4.3073652    4.3073652    4.3073652   -10820.873   -30422.749    3252.6654   -5292.5361    -5913.723     12335.37   -735.79501    79.916246 
   75800    584.93635   -106.61107    0.5292627    -106.0818     5303.805    4.3030406    4.3030406    4.3030406     5303.805   -4219.6918    15819.159    4311.9474   -2070.9721   -3311.1454   -2566.0126     79.67578 
   75900    406.43987   -106.45135   0.36775533    -106.0836    6391.8628    4.3041738    4.3041738    4.3041738    6391.8628   -8199.1574    23029.923    4344.8229    8069.1152     13322.26    1747.0168    79.738743 
   76000     429.7547   -106.47248   0.38885108   -106.08363   -5351.4067    4.3071078    4.3071078    4.3071078   -5351.4067   -5358.7524   -1033.1397   -9662.3279   -3969.1187     3851.505    -10609.54    79.901923 
   76100     578.5721   -106.60403   0.52350419   -106.08053    8477.9664    4.2999714    4.2999714    4.2999714    8477.9664    -115.7059    280.57873    25269.026   -888.16064    3391.9817   -1302.1256    79.505414 
   76200    537.84865   -106.57048   0.48665676   -106.08383   -16004.484    4.3097262    4.3097262    4.3097262   -16004.484   -31282.305     2993.916   -19725.063   -3856.2619    10851.709   -3928.2389    80.047736 
   76300    459.42054   -106.49913   0.41569336   -106.08344     7727.743    4.2995228    4.2995228    4.2995228     7727.743   -5046.2635    6289.7384    21939.754   -6667.7523   -5058.4398   -6890.9624    79.480534 
   76400    569.18363    -106.5984   0.51500931   -106.08339   -5151.0873    4.3061777    4.3061777    4.3061777   -5151.0873   -13234.154    8448.7482   -10667.857    5696.1893    8209.5992   -189.02926    79.850167 
   76500    309.17121   -106.36546    0.2797446   -106.08572    2774.3003    4.3048843    4.3048843    4.3048843    2774.3003    -4309.115     11439.03    1192.9858   -1502.7388     5814.472   -4382.1897    79.778238 
   76600    621.55298   -106.64507    0.5623942   -106.08268    457.17454    4.3016764    4.3016764    4.3016764    457.17454    2636.7701   -10159.492    8894.2457   -5292.4625   -1682.8121    73.821744    79.600028 
   76700    510.56509   -106.54522   0.46197002   -106.08325   -7405.1107    4.3089387    4.3089387    4.3089387   -7405.1107    -19021.86    5720.7119   -8914.1842   -812.00227    11221.339    4487.5152    80.003859 
   76800    512.09159   -106.54578   0.46335123   -106.08242   -109.73389    4.3007167    4.3007167    4.3007167   -109.73389   -11731.618   -1331.3818    12733.799   -9235.1622   -5929.6173     -2359.24    79.546762 
   76900    520.40886   -106.55236   0.47087687   -106.08148   -4943.3461    4.3083904    4.3083904    4.3083904   -4943.3461   -17256.262    1458.8099    967.41353    3289.8897    8654.5892    -555.1146    79.973324 
   77000    403.82397   -106.44864   0.36538842   -106.08325    6556.5118    4.3009903    4.3009903    4.3009903    6556.5118    -1989.409    15373.398    6285.5465     2228.757     6569.033    139.24768    79.561946 
   77100    550.36836   -106.58067   0.49798486   -106.08269   -4195.2708    4.3066071    4.3066071    4.3066071   -4195.2708    3267.7665   -16837.834    984.25519   -2488.4088   -1899.5066   -7494.0994    79.874058 
   77200    466.31971    -106.5046   0.42193588   -106.08267    3411.1581    4.3037568    4.3037568    4.3037568    3411.1581   -2324.9576    5930.9021    6627.5298    494.36884    10134.764    5540.8883     79.71557 
   77300    562.50581   -106.59207   0.50896707    -106.0831   -8016.7279    4.3033002    4.3033002    4.3033002   -8016.7279   -17037.405   -1879.8808    -5132.898   -6320.3199   -6167.6792   -10523.438    79.690201 
   77400    450.32946   -106.49093   0.40746756   -106.08347    2600.3749    4.3067633    4.3067633    4.3067633    2600.3749   -13680.851    2332.4014    19149.574    172.63359    2480.9316   -701.49159    79.882748 
   77500    578.09541   -106.60526   0.52307288   -106.08219    602.90177    4.3016267    4.3016267    4.3016267    602.90177   -3904.3392    11820.716   -6107.6713    6758.0077    4992.9473    -3362.417    79.597266 
   77600    328.72245   -106.38176   0.29743498   -106.08432    3033.1132    4.3074305    4.3074305    4.3074305    3033.1132    7682.5246   -11030.931    12447.746   -1746.0103   -6663.4202   -3859.2869    79.919883 
   77700    600.86349   -106.62455   0.54367391   -106.08088   -1018.6531    4.3031353    4.3031353    4.3031353   -1018.6531    8757.6262   -9729.0146   -2084.5708    3009.6423    4411.2851    5766.6803    79.681041 
   77800    486.32984   -106.52331   0.44004146   -106.08327   -2110.0459    4.3051532    4.3051532    4.3051532   -2110.0459   -14991.202    4935.8646    3725.2003   -5740.6301   -4636.5473    -2453.882    79.793191 
   77900    555.37338   -106.58624   0.50251351   -106.08372   -7352.7006     4.304817     4.304817     4.304817   -7352.7006   -11939.676   -9428.3781   -690.04733   -2807.0702   -4123.9619    1611.6589    79.774499 
   78000    592.99977   -106.61846   0.53655865    -106.0819    3917.0357    4.3024683    4.3024683    4.3024683    3917.0357    521.21406    10818.468    411.42505    4370.1385    6705.0776     4398.552    79.643994 
   78100    309.47635    -106.3655   0.28002071   -106.08548   -902.68339    4.3066902    4.3066902    4.3066902   -902.68339    5926.3303   -5875.3194   -2759.0611   -415.33136   -10304.911   -2036.6859    79.878685 
   78200    532.46001   -106.56502     0.481781   -106.08324    2183.8616    4.3015892    4.3015892    4.3015892    2183.8616    14214.471   -10393.778    2730.8925    1525.7224    1761.1066    5355.1593    79.595186 
   78300    554.45532   -106.58428   0.50168283    -106.0826    729.73062    4.3068849    4.3068849    4.3068849    729.73062   -8195.2581    1119.3564    9265.0936   -2403.4749   -2717.3972   -441.32749    79.889516 
   78400     511.8549   -106.54794   0.46313707   -106.08481   -11375.682    4.3027221    4.3027221    4.3027221   -11375.682   -11129.108   -14584.436   -8413.5009   -4543.8731   -4980.2974   -5616.0741    79.658091 
   78500    546.70466   -106.57806   0.49466986   -106.08339    2982.4205    4.3062761    4.3062761    4.3062761    2982.4205    912.20247   -1066.6303    9101.6894    1248.5426    3417.0851    6624.2097    79.855645 
   78600    527.20372   -106.56065     0.477025   -106.08363    1958.9032    4.3026614    4.3026614    4.3026614    1958.9032    8135.0708    2788.8296   -5047.1907    1881.2344   -8087.7071   -8797.4317    79.654718 
   78700    238.73552   -106.30371   0.21601292    -106.0877    5688.3704    4.3054092    4.3054092    4.3054092    5688.3704    15077.185   -9049.6343    11037.561    1969.3171   -4366.5302    5906.8467    79.807427 
   78800    755.65987   -106.76344   0.68373693   -106.07971    2807.9702     4.304552     4.304552     4.304552    2807.9702    9072.7784   -4073.3976    3424.5298    3159.6786   -794.78767    1584.4023    79.759769 
   78900    361.79554   -106.41384    0.3273602   -106.08648   -1519.9587    4.3015189    4.3015189    4.3015189   -1519.9587   -7276.6911   -9629.5938    12346.409   -5346.0172   -7074.6189   -3400.0726    79.591283 
   79000    567.05443   -106.60007   0.51308277   -106.08698   -12987.597    4.3083437    4.3083437    4.3083437   -12987.597   -9060.3972   -22482.709   -7419.6853    1283.7667    1589.9941    9131.5756    79.970722 
   79100    657.09377   -106.67671   0.59455225   -106.08216     10971.15    4.3011022    4.3011022    4.3011022     10971.15    7403.0017    11381.041    14129.406    23.783268   -3421.6969    161.78993    79.568154 
   79200    205.47075   -106.27518   0.18591426   -106.08927   -8089.9906    4.3079585    4.3079585    4.3079585   -8089.9906    12227.718   -23029.718   -13467.972    2036.6817   -9704.5918    3803.5515    79.949276 
   79300    563.27214    -106.5928   0.50966047   -106.08314    11258.748     4.300844     4.300844     4.300844    11258.748    23288.693    9917.8611    569.68929     4208.872    2384.4084    8992.2311    79.553828 
   79400    537.17088   -106.57048    0.4860435   -106.08443   -5163.9803    4.3086669    4.3086669    4.3086669   -5163.9803    -3848.972   -15787.333    4144.3643    -1922.796   -4162.9857   -6039.5984    79.988723 
   79500    443.55683   -106.48673   0.40133954   -106.08539   -10653.004    4.3023821    4.3023821    4.3023821   -10653.004   -6733.1194   -11539.168   -13686.724    -4201.697   -495.03681    9603.9643    79.639211 
   79600     702.9929   -106.71773   0.63608275   -106.08164    3447.2775    4.3045482    4.3045482    4.3045482    3447.2775   -3301.3274   -1496.7258    15139.886   -1384.7427    4952.8871   -3332.3598    79.759558 
   79700    357.86604   -106.41077   0.32380472   -106.08697   -7407.9684    4.3062184    4.3062184    4.3062184   -7407.9684    9806.5723   -18448.306   -13582.171   -1801.0382    -6960.851    3930.7258    79.852432 
   79800    358.91826   -106.41168   0.32475678   -106.08692    9319.4947    4.3005121    4.3005121    4.3005121    9319.4947      23054.8    5073.6878   -170.00407    1184.1406    2576.1899    6851.1638    79.535409 
   79900    665.23882    -106.6838   0.60192207   -106.08188   -4432.9005    4.3096965    4.3096965    4.3096965   -4432.9005   -3899.9873     613.1171   -10011.831    1584.5159    6404.3693   -3749.1202     80.04608 
   80000    423.22955   -106.46759   0.38294699   -106.08464   -626.75487    4.2996253    4.2996253    4.2996253   -626.75487   -102.20233   -2476.0976    698.03528   -6571.1969   -4910.2763    9987.9425    79.486219 
   80100    634.23264   -106.65617   0.57386702    -106.0823   -8004.5849    4.3087462    4.3087462    4.3087462   -8004.5849   -14076.044   -1208.6797   -8729.0308    957.39873    10983.578   -2152.1113    79.993138 
   80200    444.41224   -106.48516   0.40211353   -106.08305     6925.675     4.301706     4.301706     4.301706     6925.675    16091.843   -5095.7712    9780.9532   -237.96008   -2291.7626    5770.6495    79.601671 
   80300    400.48784   -106.44768   0.36236982   -106.08531   -546.96509    4.3052559    4.3052559    4.3052559   -546.96509    15483.312   -7906.4669   -9217.7399    5284.3177   -1142.1327    3573.5127    79.798904 
   80400    510.28108   -106.54337   0.46171305   -106.08166    4336.7615    4.3061842    4.3061842    4.3061842    4336.7615   -478.63653    15882.996    -2394.075    4329.3581    13326.765    1209.7324    79.850531 
   80500    576.74588   -106.60348   0.52185179   -106.08163   -4193.7472    4.3010232    4.3010232    4.3010232   -4193.7472    280.34337   -13212.938    351.35282   -1259.5853   -3562.7865    1046.9562     79.56377 
   80600    460.43025   -106.50011   0.41660697   -106.08351   -6183.7985     4.308118     4.308118     4.308118   -6183.7985    -15385.84    8662.8989   -11828.454   -3090.3609    8455.1335     5369.708    79.958154 
   80700    592.63885   -106.61812   0.53623209   -106.08189    5566.3901    4.3008449    4.3008449    4.3008449    5566.3901    10693.659   -826.54921    6832.0607    1307.6461    6943.3448   -3140.2077    79.553874 
   80800    405.90737   -106.45164   0.36727352   -106.08437    1654.0392    4.3067933    4.3067933    4.3067933    1654.0392    11082.104    397.47912    -6517.465    114.07882   -4605.0233    9893.4406    79.884422 
   80900    442.73558   -106.48435   0.40059646   -106.08376    3568.7706    4.3024292    4.3024292    4.3024292    3568.7706   -3731.6973    12762.575    1675.4337    2943.8694    18262.647   -1915.0999    79.641825 
   81000    608.99412    -106.6328   0.55103068   -106.08177   -5776.2753     4.305522     4.305522     4.305522   -5776.2753   -7528.9071   -10141.623    341.70423   -3191.9604    -1370.733    4430.4477      79.8137 
   81100    471.37024   -106.51047    0.4265057   -106.08396   -4419.0149    4.3049775    4.3049775    4.3049775   -4419.0149   -13429.084   -2858.5642    3030.6033   -7755.5403    6394.1988    7385.7136    79.783423 
   81200    592.91942    -106.6187   0.53648595   -106.08222    143.51067    4.3038152    4.3038152    4.3038152    143.51067   -2193.9492    9720.0286   -7095.5474     1148.548     8444.566   -2144.6209     79.71882 
   81300    434.30625   -106.47538   0.39296942   -106.08241    5567.9585    4.3059511    4.3059511    4.3059511    5567.9585    12215.929    426.08069    4061.8655   -317.68196   -3685.4813    11989.504    79.837566 
   81400    412.93204   -106.45806   0.37362958   -106.08443    56.158983    4.3021505    4.3021505    4.3021505    56.158983   -7318.7508    18622.412   -11135.185    3161.9236     17092.97   -4722.1161    79.626346 
   81500    527.41816   -106.55927   0.47721904   -106.08205    2538.0891    4.3067772    4.3067772    4.3067772    2538.0891   -8096.1631    4383.1546    11327.276   -684.80082     1152.809    3981.4664    79.883522 
   81600     633.8901   -106.65672   0.57355708   -106.08316    -8027.903    4.3025603    4.3025603    4.3025603    -8027.903    -13936.29   -9437.7972   -709.62215   -4682.6942    4591.6652   -427.53138    79.649104 
   81700    403.26434   -106.45057   0.36488205   -106.08569    2384.5887    4.3050174    4.3050174    4.3050174    2384.5887    -12395.99    19278.943     270.8134   -957.08908    12083.456    1628.4346    79.785643 
   81800    603.41705   -106.62788   0.54598442   -106.08189     2595.208    4.3045029    4.3045029    4.3045029     2595.208    10419.124   -1381.7235   -1251.7767    5785.6963    -4118.727    804.94765     79.75704 
   81900    260.13991   -106.32183   0.23538006   -106.08645    7686.2466    4.3042118    4.3042118    4.3042118    7686.2466   -1137.6845    28366.068   -4169.6434    1402.6515    17182.894    1916.3421    79.740859 
   82000    590.08357   -106.61588   0.53392001   -106.08196    -336.0442     4.305619     4.305619     4.305619    -336.0442   -9119.3792    6195.4124    1915.8342    4955.3883     4064.702   -3783.4044    79.819091 
   82100     606.8333   -106.63151   0.54907552   -106.08244   -2863.9283    4.3033805    4.3033805    4.3033805   -2863.9283   -11107.614    2060.3468    455.48265   -5566.1286    634.20751    9924.4663    79.694662 
   82200    424.54066    -106.4691   0.38413331   -106.08496   -8614.8775    4.3055471    4.3055471    4.3055471   -8614.8775   -25236.069    3561.4842   -4170.0478   -2512.0717    14237.002    1917.3377    79.815094 
   82300    670.97433    -106.6883   0.60711168   -106.08119     35.90264    4.3030483    4.3030483    4.3030483     35.90264   -308.06654    1722.0723   -1306.2979   -108.48526   -11212.731    5266.4717    79.676207 
   82400     283.7858   -106.34184   0.25677536   -106.08507    4451.2072    4.3068384    4.3068384    4.3068384    4451.2072   -5690.6651    21305.492   -2261.2057    749.89961    16762.824    4275.0753    79.886932 
   82500     565.8987   -106.59587   0.51203704   -106.08383   -1668.2225    4.3007926    4.3007926    4.3007926   -1668.2225   -7229.8608    10385.083   -8159.8896   -2137.3994    2843.9506   -3666.5509    79.550976 
   82600    534.09711    -106.5667   0.48326229   -106.08344    1042.4545    4.3064967    4.3064967    4.3064967    1042.4545   -7606.0492     10362.56     370.8525   -1608.3208   -4365.5596      6167.88    79.867916 
   82700    512.64033   -106.54908   0.46384774   -106.08523   -15429.058    4.3038253    4.3038253    4.3038253   -15429.058   -24991.354   -6766.4636   -14529.355    -9626.124     15093.73    109.30383    79.719379 
   82800    517.56893   -106.55177   0.46830725   -106.08346    1095.0618    4.3034918    4.3034918    4.3034918    1095.0618   -9823.8168    11504.163    1604.8396    3058.9053   -12210.873   -1109.2892     79.70085 
   82900     520.1817   -106.55333   0.47067133   -106.08266   -3089.4053    4.3076029    4.3076029    4.3076029   -3089.4053   -7166.5234    1672.0236    -3773.716    44.853111        11958   -1842.5505     79.92948 
   83000    323.15081   -106.37645   0.29239365   -106.08405    6870.4032    4.3011937    4.3011937    4.3011937    6870.4032   -620.50577    19544.472    1687.2438     2996.849    8525.5287   -851.29691    79.573233 
   83100    597.64672   -106.62136   0.54076331   -106.08059   -1732.3027    4.3069774    4.3069774    4.3069774   -1732.3027   -2345.5394    1025.8119   -3877.1807    2255.6242   -9484.2599   -1999.0801    79.894663 
   83200    465.47177   -106.50398   0.42116864   -106.08281   -3844.2698    4.3037501    4.3037501    4.3037501   -3844.2698   -12176.848    7425.6955   -6781.6568   -5508.7982    15288.809    8142.1764    79.715198 
   83300    517.02724   -106.55149   0.46781711   -106.08367   -6213.6917    4.3035879    4.3035879    4.3035879   -6213.6917   -18912.984    8600.6833   -8328.7741    839.08365   -12063.306   -2804.9732    79.706188 
   83400    641.07469   -106.66301   0.58005785   -106.08295    19.909817    4.3033162    4.3033162    4.3033162    19.909817   -2000.6198    5161.7971   -3101.4478    796.39092    355.64997    5768.2123    79.691092 
   83500    260.50142   -106.32301   0.23570716   -106.08731    3016.5831    4.3051933    4.3051933    4.3051933    3016.5831   -71.439557    7723.1053    1398.0835    670.17327    14901.129    -713.9734    79.795422 
   83600    597.94667   -106.62367   0.54103472   -106.08263   -3479.3705    4.3043173    4.3043173    4.3043173   -3479.3705    4014.1615   -7129.3581   -7322.9148   -635.56963   -17109.045     2575.974     79.74672 
   83700    500.41017   -106.53519   0.45278164   -106.08241    1507.3627    4.3051481    4.3051481    4.3051481    1507.3627   -6765.5731    10358.306    929.35502   -4906.0644    11896.037     5842.972    79.792907 
   83800    595.13082   -106.62127   0.53848687   -106.08278   -10618.396    4.3036689    4.3036689    4.3036689   -10618.396   -22039.336    2017.8166   -11833.668   -8684.9741   -7710.6326    93.689585    79.710688 
   83900    529.95782   -106.56116   0.47951697   -106.08165    6487.4187    4.3065921    4.3065921    4.3065921    6487.4187   -920.36976    20083.343     299.2832    2998.5101   -5746.7013   -461.67368    79.873225 
   84000    421.01248   -106.46483   0.38094094   -106.08389    2244.4931    4.3015925    4.3015925    4.3015925    2244.4931    6471.1893   -1754.0724    2016.3624   -6232.6491    18428.998   -3049.3652    79.595369 
   84100    345.14924   -106.39693   0.31229829   -106.08464    1142.8267    4.3066708    4.3066708    4.3066708    1142.8267    1522.7878    4408.9358   -2503.2434    2139.0067   -13585.492    -563.3115    79.877603 
   84200    736.71404   -106.74784   0.66659435   -106.08125   -3843.0812    4.3029055    4.3029055    4.3029055   -3843.0812   -6993.2189   -1722.9256   -2813.0992    -3355.839      5382.88   -4217.2103    79.668275 
   84300    432.20465   -106.47647   0.39106785    -106.0854   -1192.1424    4.3028264    4.3028264    4.3028264   -1192.1424    -15276.37     12995.72    -1295.778   -6333.2775    3962.2923    3269.1464    79.663883 
   84400    576.69667   -106.60565   0.52180727   -106.08384   -2311.7936    4.3084344    4.3084344    4.3084344   -2311.7936    671.75132     1125.958     -8733.09    5386.3791   -11347.492   -7103.3608    79.975776 
   84500     346.4109   -106.39753   0.31343986   -106.08409    16326.217    4.2998535    4.2998535    4.2998535    16326.217    19070.804    21907.312    8000.5338    2144.0754     16789.79    1360.6175    79.498874 
   84600    407.87207   -106.45406   0.36905122   -106.08501   -7813.6622    4.3080902    4.3080902    4.3080902   -7813.6622   -7626.3693   -949.23868   -14865.379    1281.0512   -5027.5152   -3326.8542    79.956607 
   84700    682.13358    -106.6978    0.6172088   -106.08059     1270.842    4.3028805    4.3028805    4.3028805     1270.842   -5879.8951    12710.679   -3018.2579    1588.0032   -6623.2595    1160.7549     79.66689 
   84800    507.52544   -106.54183   0.45921969   -106.08261   -11727.297    4.3058197    4.3058197    4.3058197   -11727.297   -19198.411     -6856.73    -9126.749   -5486.6032    10412.249     3445.217    79.830256 
   84900    499.52721   -106.53445   0.45198271   -106.08247   -6163.3412     4.304635     4.304635     4.304635   -6163.3412    542.65343   -8071.1913   -10961.486   -3598.5636   -16195.558    1137.6239     79.76438 
   85000    422.21104   -106.46463   0.38202542    -106.0826    10839.805    4.3028788    4.3028788    4.3028788    10839.805    9710.1554    17812.597    4996.6636    6015.9799    12019.019   -1082.6895    79.666793 
   85100    488.45342   -106.52788   0.44196292   -106.08592   -8308.9991    4.3056304    4.3056304    4.3056304   -8308.9991   -12911.437     2420.094   -14435.654   -10042.241    2009.2887     413.2611    79.819728 
   85200    561.09537    -106.5912   0.50769088   -106.08351    6246.6525    4.3023884    4.3023884    4.3023884    6246.6525   -5358.3287    21815.062    2283.2242     2126.993   -10869.889   -2541.0927    79.639558 
   85300    584.09533   -106.61229   0.52850173   -106.08379   -15873.816     4.306834     4.306834     4.306834   -15873.816   -19281.243   -15561.714    -12778.49   -7187.5689    11039.845   -1110.6104    79.886685 
   85400    373.82462   -106.42216   0.33824437   -106.08392   -1028.1671    4.3042097    4.3042097    4.3042097   -1028.1671   -943.39347    3583.7677   -5724.8757   -2936.8464   -9571.1023    854.21202    79.740743 
   85500    599.38093   -106.62344   0.54233246   -106.08111    588.42428    4.3039075    4.3039075    4.3039075    588.42428    9301.8706   -2647.4269   -4889.1709    8831.9613    6197.0706   -11026.623    79.723944 
   85600    310.98444   -106.36566   0.28138526   -106.08428     5574.888    4.3050299    4.3050299    4.3050299     5574.888   -3004.9312     10823.57    8906.0255   -2630.8352    11341.989    246.37781    79.786335 
   85700    584.92808   -106.60989   0.52925522   -106.08064    -2708.736    4.3058365    4.3058365    4.3058365    -2708.736   -6018.5294   -3415.6106     1307.932    2468.1512   -5414.2872   -9101.7072    79.831188 
   85800    444.54667   -106.48417   0.40223517   -106.08194    1839.9232    4.3031561    4.3031561    4.3031561    1839.9232   -12438.933     10448.76    7509.9427    1136.0289    6641.4468    70.744098    79.682198 
   85900    551.95361   -106.58259   0.49941922   -106.08317   -6666.0218    4.3046181    4.3046181    4.3046181   -6666.0218   -12760.154   -588.09775   -6649.8132   -6543.6114    146.73518    529.70019     79.76344 
   86000    606.89561   -106.63213    0.5491319     -106.083    2857.4327    4.3033761    4.3033761    4.3033761    2857.4327    5777.0694    4077.2812   -1282.0526    5572.6651   -5227.1036   -4765.8498    79.694417 
   86100    299.55952   -106.35739   0.27104775   -106.08634   -94.627803    4.3043332    4.3043332    4.3043332   -94.627803   -4442.6557   -6075.5872     10234.36   -1661.2166    13936.426   -1175.6026    79.747602 
   86200    578.27807   -106.60674   0.52323815    -106.0835   -2983.8149    4.3041527    4.3041527    4.3041527   -2983.8149   -351.89717   -16250.187    7650.6394   -8044.7398   -4966.4754   -136.37903    79.737571 
   86300    477.51902   -106.51608   0.43206924   -106.08401    2107.7373    4.3045667    4.3045667    4.3045667    2107.7373   -7356.0165    7195.9241    6483.3042    3364.4717     1445.459   -3146.6533    79.760585 
   86400    623.57932   -106.64736   0.56422767   -106.08313    -9594.429    4.3045037    4.3045037    4.3045037    -9594.429   -19882.485   -3082.3508   -5818.4516    -12867.03     2427.198    4652.4046    79.757085 
   86500    532.18216   -106.56164    0.4815296   -106.08011    5248.8945    4.3071963    4.3071963    4.3071963    5248.8945    1422.5179    11701.948    2622.2173     6177.404   -4846.0687   -8475.7755    79.906847 
   86600     404.0374   -106.44835   0.36558153   -106.08277   -1575.1529    4.3018243    4.3018243    4.3018243   -1575.1529   -763.44374    -14979.99    11017.975   -390.36372    12300.742   -5759.2718    79.608237 
   86700    413.18544   -106.45744   0.37385887   -106.08358    5437.5114    4.3066844    4.3066844    4.3066844    5437.5114     3178.182   -6216.6071    19350.959    -6088.431    9262.2963    455.97473    79.878361 
   86800    610.89613   -106.63493   0.55275166   -106.08218    1495.6819    4.3028465    4.3028465    4.3028465    1495.6819    6812.4526   -9444.9139     7119.507    5930.9604    2754.9618   -10271.353    79.664998 
   86900     401.1502   -106.44821   0.36296913   -106.08524   -7417.8943    4.3046731    4.3046731    4.3046731   -7417.8943   -20356.944     -4627.73    2730.9911   -10152.067    9106.6933    2750.3341    79.766501 
   87000    664.10328   -106.68256   0.60089461   -106.08167   -653.98818    4.3054024    4.3054024    4.3054024   -653.98818   -1251.6108   -1571.0176    860.66392    2305.6516   -2810.7824    -8485.815    79.807049 
   87100    449.23217   -106.49075   0.40647471   -106.08428     704.0831    4.3023997    4.3023997    4.3023997     704.0831   -5618.5123    148.67293    7582.0887    320.99541    2961.1255   -7284.3572    79.640185 
   87200    418.28703   -106.46444   0.37847489   -106.08597   -51.926312    4.3072262    4.3072262    4.3072262   -51.926312   -11082.426   -4229.8019    15156.449   -10568.681    10430.583    3354.3598    79.908514 
   87300    614.87343   -106.63796    0.5563504   -106.08161    9914.3046    4.3010535    4.3010535    4.3010535    9914.3046    19966.888    4968.3654    4807.6601   -1887.9382   -2912.3467   -3267.6997    79.565454 
   87400    283.78438   -106.34366   0.25677407   -106.08689   -8634.4409    4.3064658    4.3064658    4.3064658   -8634.4409   -14380.302   -10471.934    -1051.086   -10182.988    8584.1016    361.12038    79.866199 
   87500    673.64279   -106.69186   0.60952615   -106.08234   -5946.7214    4.3045353    4.3045353    4.3045353   -5946.7214    -2004.909   -10072.198   -5763.0569   -5293.1544   -1493.2354    278.50838     79.75884 
   87600    560.79011   -106.59045   0.50741467   -106.08304    4614.8757    4.3024542    4.3024542    4.3024542    4614.8757   -167.93389    12935.083    1077.4777    2007.1936    363.16903   -7584.9588     79.64321 
   87700    414.66908   -106.46163    0.3752013   -106.08643   -9349.1633    4.3079896    4.3079896    4.3079896   -9349.1633   -17797.132   -13044.826    2794.4678   -8423.0748    12725.725    3466.9656    79.951009 
   87800    489.24318   -106.52503   0.44267751   -106.08235    17876.651    4.3007503    4.3007503    4.3007503    17876.651    20806.718    24700.465     8122.772   -756.13836    4264.3316   -1388.5103    79.548626 
   87900    382.55899   -106.43234   0.34614741   -106.08619   -3714.7107     4.306098     4.306098     4.306098   -3714.7107    2559.9514     -15915.4    2211.3169   -2639.9434    7516.0808   -3570.2289    79.845736 
   88000     541.7134   -106.57354   0.49015366   -106.08339   -4862.4492    4.3063538    4.3063538    4.3063538   -4862.4492   -4912.4011   -1672.8486   -8002.0978   -3870.9814       8588.8   -1541.0444    79.859968 
   88100    689.45513   -106.70468   0.62383349   -106.08084   -1954.1467    4.3023927    4.3023927    4.3023927   -1954.1467    1834.4855   -79.760421   -7617.1651    7180.6056   -8808.1893     -10859.6    79.639797 
   88200    448.56226   -106.48935   0.40586856   -106.08348    -10739.57    4.3065018    4.3065018    4.3065018    -10739.57    -12320.98   -11530.115    -8367.614   -12343.813    7309.0277   -1016.0817    79.868201 
   88300    451.33351   -106.49047   0.40837604    -106.0821    8148.7743    4.3061205    4.3061205    4.3061205    8148.7743    8081.4777      16926.4   -561.55509   -2853.3509   -462.25546   -832.52732    79.846986 
   88400    480.46735     -106.517   0.43473695   -106.08226    2846.7733    4.3017339    4.3017339    4.3017339    2846.7733    12530.916    -853.2925   -3137.3038   -9631.2306   -1546.1909   -2946.7493    79.603219 
   88500    428.66902   -106.47339   0.38786874   -106.08552    2951.9098    4.3055671    4.3055671    4.3055671    2951.9098   -6584.7308    11208.426    4232.0345   -8660.5006    10562.604    932.12751    79.816208 
   88600    646.32608   -106.66721   0.58480942    -106.0824   -8718.0755    4.3047493    4.3047493    4.3047493   -8718.0755   -2747.1644   -8987.8704   -14419.192    2321.2074   -11821.097   -1942.7876    79.770733 
   88700    400.17938   -106.44681   0.36209071   -106.08472   -3400.3751    4.3018367    4.3018367    4.3018367   -3400.3751    -3632.102   -1360.4722    -5208.551   -8493.6855    450.10458   -3712.5907    79.608926 
   88800    601.69742   -106.62777   0.54442847   -106.08334   -7013.4828    4.3084146    4.3084146    4.3084146   -7013.4828   -3817.4311   -7842.2983   -9380.7189   -2035.9474    4413.1392    7413.3284     79.97467 
   88900    400.48814   -106.44656   0.36237008   -106.08419    8403.5273    4.3002259    4.3002259    4.3002259    8403.5273    16388.935    13224.431   -4402.7841    176.74348   -6020.9684   -4359.3486     79.51953 
   89000    486.52942   -106.52433   0.44022204   -106.08411   -2110.9039    4.3085915    4.3085915    4.3085915   -2110.9039   -6205.9301   -8108.8617      7982.08    -2981.472     10453.86    2016.9172    79.984526 
   89100    488.46971   -106.52378   0.44197766    -106.0818    5131.7123    4.3022006    4.3022006    4.3022006    5131.7123   -1792.7792    16792.974    394.94187    2267.9657   -3430.0518    -3663.795    79.629131 
   89200    460.27088   -106.50048   0.41646276   -106.08402   -6127.2505    4.3046579    4.3046579    4.3046579   -6127.2505   -7564.8832   -2238.5254    -8578.343   -1908.4562   -9995.2828   -5674.0653    79.765655 
   89300    681.08306   -106.69625   0.61625827   -106.07999   -5231.4199    4.3072618    4.3072618    4.3072618   -5231.4199   -8696.4942    940.25953   -7938.0251   -13739.604    5465.9436    747.72362    79.910493 
   89400    383.07063    -106.4305   0.34661036   -106.08389    8133.8555    4.2971854    4.2971854    4.2971854    8133.8555    19922.471    9146.0265   -4666.9311    2885.7033   -10622.947     -2249.02    79.350979 
   89500    460.51854   -106.50171   0.41668686   -106.08502   -12412.537    4.3124491    4.3124491    4.3124491   -12412.537     -11284.8    -24413.15     -1539.66   -13821.644    2871.7142   -5629.5625    80.199551 
   89600    505.25472   -106.53888   0.45716509   -106.08171     19375.56    4.2964607    4.2964607    4.2964607     19375.56    8616.5329    31733.595    17776.552    1081.7983    995.06135   -1586.0511    79.310834 
   89700    488.08445   -106.52761   0.44162907   -106.08598   -16631.599     4.309808     4.309808     4.309808   -16631.599   -16090.079   -11663.297   -22141.422   -6340.8775    -15454.81   -4032.9507     80.05229 
   89800    594.74804   -106.61991   0.53814052   -106.08177     4297.497    4.3027173    4.3027173    4.3027173     4297.497   -4426.7421    14869.703    2449.5303   -8687.9677    944.56718    1153.6717    79.657823 
   89900    529.19719   -106.56144   0.47882874   -106.08261   -134.78189    4.3013411    4.3013411    4.3013411   -134.78189     16687.16   -6800.0201   -10291.485    5241.1889     -6571.54    3813.6798    79.581413 
   90000     280.9836   -106.34086   0.25423987   -106.08662   -8554.3178    4.3104706    4.3104706    4.3104706   -8554.3178   -6389.6782   -11250.318   -8022.9575   -5013.2223   -3854.0779   -5923.2066    80.089222 
   90100     651.5672   -106.67037   0.58955169   -106.08081     14574.88    4.2972584    4.2972584    4.2972584     14574.88    10425.037    13149.898    20149.704    997.25651    4999.5276    1538.2532    79.355022 
   90200    441.17346   -106.48511   0.39918302   -106.08592   -13439.239    4.3098238    4.3098238    4.3098238   -13439.239   -15732.131   -5517.2548   -19068.332   -1740.2901   -12225.943   -1592.9237    80.053174 
   90300    494.61731   -106.53216   0.44754014   -106.08462    1432.7847    4.3014981    4.3014981    4.3014981    1432.7847    -4663.633    7402.9002    1559.0869   -12166.019   -4872.9403    1045.6313    79.590129 
   90400    694.13784   -106.70915    0.6280705   -106.08108   -752.30259    4.3047674    4.3047674    4.3047674   -752.30259    2338.4037    2052.1114   -6647.4229   -1981.9675   -234.56725    1313.9425    79.771743 
   90500    251.71506   -106.31555   0.22775708   -106.08779    -1839.446    4.3047069    4.3047069    4.3047069    -1839.446   -2664.2739    1927.3384   -4781.4023   -4724.4356   -8063.5523   -5598.5943    79.768379 
   90600    590.28493   -106.61787   0.53410221   -106.08377    4975.0802    4.3043172    4.3043172    4.3043172    4975.0802   -2206.2379   -2769.6048    19901.083    -12906.09    7133.2912   -5822.3634    79.746716 
   90700    503.74359   -106.54047   0.45579778   -106.08468   -19.784258    4.3038536    4.3038536    4.3038536   -19.784258   -1381.8238    2006.0707   -683.59962    4669.1137    -6481.438   -1149.5766    79.720951 
   90800     414.8726   -106.46316   0.37538544   -106.08778   -9690.3054    4.3048979    4.3048979    4.3048979   -9690.3054   -7899.7665   -16048.677   -5122.4729   -16974.149   -9173.1788   -5656.6787    79.778997 
   90900    703.10361   -106.71796   0.63618292   -106.08178    2001.2754    4.3052781    4.3052781    4.3052781    2001.2754   -1478.4151    13708.426   -6226.1844    3631.7869    3997.1576    2416.5127    79.800134 
   91000     355.1854   -106.40634   0.32137921   -106.08496     -944.522    4.3027784    4.3027784    4.3027784     -944.522   -888.22159   -1592.1109   -353.23348   -753.52597   -7451.6469   -5361.2363    79.661218 
   91100    405.36054   -106.45255   0.36677874   -106.08578   -363.63032       4.3072       4.3072       4.3072   -363.63032   -15356.734    42.498563    14223.344   -8588.6393    1981.9329   -4248.2292    79.907055 
   91200    630.46243   -106.65175   0.57045566   -106.08129    9613.7201    4.2998109    4.2998109    4.2998109    9613.7201    7532.5066    3381.9419    17926.712    5958.0831    1789.0011    2222.7749    79.496512 
   91300    400.66201   -106.44988   0.36252741   -106.08735   -16282.356    4.3103099    4.3103099    4.3103099   -16282.356   -21752.251     -16273.1   -10821.718   -14498.169   -13191.301   -1369.6519    80.080264 
   91400    638.23817   -106.66012   0.57749131   -106.08263    2794.5573    4.3008257    4.3008257    4.3008257    2794.5573    9410.7297    1432.3895   -2459.4472   -3223.7928    6509.5365    5189.2081    79.552808 
   91500    518.53322   -106.55212   0.46917976   -106.08294   -2724.5596    4.3057564    4.3057564    4.3057564   -2724.5596    -6769.585   -4419.7171    3015.6232   -3244.0334   -1332.6412    -2261.589    79.826732 
   91600    325.02591   -106.38046   0.29409027   -106.08637    -2391.663    4.3064446    4.3064446    4.3064446    -2391.663   -14442.696   -8831.0874    16098.795    -13831.35   -3212.6122   -3408.5886    79.865016 
   91700    635.36274   -106.65461   0.57488956   -106.07972    11150.652    4.2999324    4.2999324    4.2999324    11150.652    1074.7964    9832.7101    22544.451    404.92715    5621.4968   -3079.1086    79.503249 
   91800    423.22963   -106.46852   0.38294706   -106.08557   -15663.262    4.3107266    4.3107266    4.3107266   -15663.262   -23723.214   -12191.783   -11074.788     -11866.3   -12130.491   -598.24147    80.103488 
   91900    483.41604   -106.52173   0.43740499   -106.08433    6413.8265    4.2976656    4.2976656    4.2976656    6413.8265    19115.823   -613.90353    739.55945    -6256.611    1194.2822   -3369.7972    79.377583 
   92000    690.62222   -106.70695   0.62488949   -106.08206   -7600.7648    4.3105332    4.3105332    4.3105332   -7600.7648   -11414.862   -7411.5494   -3975.8831    4449.6294     7284.856    297.14312    80.092708 
   92100    284.84487   -106.34371   0.25773362   -106.08598    2408.0643    4.3031749    4.3031749    4.3031749    2408.0643    4924.4095   -14624.686    16924.469   -13310.089   -11433.065   -5026.8954    79.683243 
   92200    568.25756   -106.59692   0.51417138   -106.08275    5648.5418    4.3009243    4.3009243    4.3009243    5648.5418   -6949.7042    6323.5085    17571.821    3737.3677     5978.497   -3279.0976    79.558282 
   92300    449.96349   -106.49204   0.40713642   -106.08491   -5528.6837     4.309758     4.309758     4.309758   -5528.6837   -1463.2186   -11670.477    -3452.356   -7395.2803   -6856.7802   -107.33093    80.049503 
   92400    461.91921   -106.50287   0.41795421   -106.08492   -877.28176    4.3012491    4.3012491    4.3012491   -877.28176    3967.5004    -937.5397   -5661.8059   -9226.3003   -3057.5022   -3254.6892    79.576306 
   92500    767.79801   -106.77494   0.69471977   -106.08022   -3927.2128    4.3059827    4.3059827    4.3059827   -3927.2128   -3583.6022    -2388.501   -5809.5351     5735.804     10627.91    4995.9742    79.839323 
   92600    293.62405   -106.35183   0.26567721   -106.08615      5412.45    4.3050633    4.3050633    4.3050633      5412.45    12950.079   -5996.6198    9283.8904   -12881.338   -13376.903    -2291.695    79.788192 
   92700    489.95115   -106.52823    0.4433181   -106.08491     114.4109    4.3046008    4.3046008    4.3046008     114.4109   -3108.5916    -6574.324    10026.148    -226.0887    -3114.836   -417.61394    79.762482 
   92800    494.43577   -106.53072   0.44737588   -106.08334    8519.2917    4.3035458    4.3035458    4.3035458    8519.2917    10945.826    4093.5353    10518.514    -3753.519    659.09081    -2310.384    79.703846 
   92900    502.04601   -106.54015   0.45426178   -106.08589   -13293.733    4.3063312    4.3063312    4.3063312   -13293.733   -22569.481    -9428.848   -7882.8695   -10084.241   -10092.277   -2631.5926    79.858707 
   93000    583.63631   -106.61002    0.5280864   -106.08193    3352.0932    4.3028526    4.3028526    4.3028526    3352.0932    5847.4166    9529.7759   -5320.9128    7779.9488    8567.2722   -428.71724    79.665341 
   93100     486.5281   -106.52372   0.44022085    -106.0835    -6474.552    4.3071532    4.3071532    4.3071532    -6474.552   -3883.1581   -11527.357   -4013.1406   -11197.381   -6849.3075    2004.7122    79.904447 
   93200    371.60446   -106.42171   0.33623553   -106.08548    5430.1904    4.3027937    4.3027937    4.3027937    5430.1904    4630.0769    522.38377    11138.111   -2107.0722   -9596.4738    -4436.989    79.662068 
   93300    622.15493   -106.64614   0.56293886    -106.0832    5918.6595    4.3055536    4.3055536    4.3055536    5918.6595    6258.3632   -5103.0584    16600.674   -196.48893    9271.8229   -1774.1449    79.815454 
   93400     410.6153   -106.45819   0.37153335   -106.08665   -2349.1265    4.3043068    4.3043068    4.3043068   -2349.1265   -13073.542    3726.1285    2300.0334   -12973.488   -8395.5848    -5022.194    79.746137 
   93500    482.20951   -106.52118    0.4363133   -106.08487   -3436.7788    4.3046365    4.3046365    4.3046365   -3436.7788    6942.8248   -6069.0476   -11184.114    7441.2388    2514.6486   -4846.1987    79.764465 
   93600    616.61259   -106.64084   0.55792403   -106.08291   -5526.8663    4.3058224    4.3058224    4.3058224   -5526.8663   -8908.6998   -2780.3043   -4891.5949     -9171.21   -4118.4907     6020.479    79.830408 
   93700    399.07065   -106.44645   0.36108751   -106.08536    2622.2019    4.3018672    4.3018672    4.3018672    2622.2019    1553.1335   -2802.3454    9115.8174   -3424.3118   -11197.899   -5782.2396    79.610616 
   93800     566.2713   -106.59474   0.51237417   -106.08236   -3122.9491    4.3100674    4.3100674    4.3100674   -3122.9491   -5511.6555    -13443.16    9585.9686    5415.7565    4631.9246    123.07888    80.066745 
   93900    411.47354   -106.45565    0.3723099   -106.08334    12581.579    4.2977528    4.2977528    4.2977528    12581.579    15097.599    13232.894    9414.2438   -5869.0775   -504.40733   -1955.9986    79.382412 
   94000    450.42129   -106.49364   0.40755065   -106.08609   -11397.641    4.3110876    4.3110876    4.3110876   -11397.641   -5567.5271   -11326.858   -17298.539    7695.8322   -7650.4323   -6218.0234    80.123615 
   94100    664.01137   -106.68203   0.60081144   -106.08122    2125.5966    4.3013832    4.3013832    4.3013832    2125.5966    5233.0507    5464.5784   -4320.8393    1286.9121    3694.8352    7247.1983    79.583749 
   94200    467.27731   -106.50705   0.42280233   -106.08425   -494.25046    4.3025051    4.3025051    4.3025051   -494.25046   -5132.5037   -4450.0999    8099.8522   -8508.0854   -7828.3739   -1553.5175    79.646038 
   94300    415.38151   -106.46013   0.37584592   -106.08429   -10043.538    4.3118458    4.3118458    4.3118458   -10043.538   -10414.393    -19022.51   -693.71101    8088.2752    3438.1939    -4994.627    80.165899 
   94400    514.88602     -106.547   0.46587969   -106.08112    18432.249    4.2927628    4.2927628    4.2927628    18432.249    27522.242    9039.2161    18735.289   -7960.8423     5115.245     2858.241     79.10623 
   94500    440.68024   -106.48327   0.39873674   -106.08454   -13720.772    4.3159316    4.3159316    4.3159316   -13720.772   -18157.009   -6887.7584   -16117.549    490.94827   -6376.3474   -9423.2293    80.394002 
   94600    602.15285   -106.62592   0.54484055   -106.08108     5264.664    4.2973074    4.2973074    4.2973074     5264.664    17888.563    2730.5167   -4825.0875    2021.6197   -388.82776    1928.2052    79.357736 
   94700    567.59973   -106.59591   0.51357616   -106.08233   -3239.8781    4.3051075    4.3051075    4.3051075   -3239.8781   -12687.283    5831.9104   -2864.2619   -12418.239   -4857.9624    5651.5231    79.790649 
   94800     408.2423   -106.45378   0.36938621   -106.08439   -5992.2117     4.308354     4.308354     4.308354   -5992.2117   -3058.5627   -8321.3836    -6596.689    8381.7839   -3491.9574   -13459.022    79.971298 
   94900    526.09681   -106.55839   0.47602345   -106.08236    13582.312    4.2979262    4.2979262    4.2979262    13582.312    13739.181    17427.904    9579.8527   -1483.8918    3240.7702    8439.0569    79.392024 
   95000    448.69225   -106.48974   0.40598618   -106.08375   -5005.6256    4.3098417    4.3098417    4.3098417   -5005.6256   -4836.4373   -2491.3523   -7689.0871    2221.8087    -2523.666   -8246.9203    80.054171 
   95100    490.07771   -106.52769   0.44343261   -106.08426    1261.2233     4.300015     4.300015     4.300015    1261.2233    10658.063    704.27779   -7578.6705    6617.6202   -4963.9483   -1505.8065    79.507833 
   95200    635.89218   -106.65707   0.57536861    -106.0817   -4931.0673    4.3080707    4.3080707    4.3080707   -4931.0673   -3463.3095    2512.9985   -13842.891   -3074.1554    771.06142    12755.731    79.955522 
   95300    502.98289   -106.53893   0.45510949   -106.08383    2720.9309    4.3010401    4.3010401    4.3010401    2720.9309    3340.9143    7996.0677   -3174.1893    4185.1121   -6766.1311   -11164.035    79.564709 
   95400    409.92662   -106.45591   0.37091022     -106.085    2363.1372    4.3081899    4.3081899    4.3081899    2363.1372    2001.9877    8467.5379   -3380.1141    7380.9692    6861.7203    1447.7477    79.962159 
   95500    512.27399   -106.54582   0.46351627    -106.0823    8145.7034    4.3006003    4.3006003    4.3006003    8145.7034    9330.5734    4562.7015    10543.835    -1969.922    1032.1074    -355.6631    79.540303 
   95600    402.94574   -106.45085   0.36459377   -106.08626    -8202.511    4.3080306    4.3080306    4.3080306    -8202.511   -6702.4709   -8771.0232   -9134.0388    3263.3738   -824.59985   -9687.4337    79.953292 
   95700    588.90444   -106.61549   0.53285311   -106.08264     307.2453    4.3028737    4.3028737    4.3028737     307.2453    11710.442   -1398.8998   -9389.8066   -2276.0019    60.330132     14154.83     79.66651 
   95800    656.46272   -106.67683   0.59398126   -106.08285   -7007.1459    4.3033089    4.3033089    4.3033089   -7007.1459   -9443.0141    1943.3439   -13521.767   -2153.9989   -6322.2912   -7617.2651    79.690688 
   95900    301.97284   -106.36009   0.27323138   -106.08686   -1269.4647    4.3067371    4.3067371    4.3067371   -1269.4647    8810.5685   -2212.2175   -10406.745    8198.9132   -3403.8899   -5132.9821    79.881291 
   96000    637.82322   -106.65906   0.57711586   -106.08195    4908.2599    4.2998062    4.2998062    4.2998062    4908.2599    6188.0039   -139.77537    8676.5511   -2434.4321     3956.995    13707.802    79.496253 
   96100    348.41938    -106.4012   0.31525718   -106.08594   -5128.8781    4.3108424    4.3108424    4.3108424   -5128.8781   -4993.4416     1126.034   -11519.227    4286.0644   -3892.7577    -12139.57    80.109946 
   96200    525.94274   -106.55964   0.47588404   -106.08375     1901.447    4.2968454    4.2968454    4.2968454     1901.447    11070.593   -2945.1861   -2421.0664    1318.2507    -606.1781    15238.117    79.332144 
   96300    601.07902   -106.62597   0.54386893    -106.0821   -10262.706    4.3110559    4.3110559    4.3110559   -10262.706    -14238.85     4601.466   -21150.735    1841.0972   -2783.3843   -2551.4316     80.12185 
   96400    470.98359   -106.51126   0.42615585    -106.0851    -7306.395    4.3011099    4.3011099    4.3011099    -7306.395   -3646.0707   -5278.1984   -12994.916     8037.723   -8847.2017   -8284.0108    79.568585 
   96500    553.44725   -106.58529    0.5007707   -106.08452    4214.9388     4.303097     4.303097     4.303097    4214.9388    5769.3252    3958.7158    2916.7755    2096.8618    6261.1014    10396.893    79.678916 
   96600    456.12263   -106.49687   0.41270934   -106.08416    2344.0793    4.3087224    4.3087224    4.3087224    2344.0793    484.67176    13359.877   -6812.3104   -2804.2494   -1328.4421   -3481.0579    79.991813 
   96700    395.97177   -106.44342   0.35828358   -106.08514    6745.0161    4.2981784    4.2981784    4.2981784    6745.0161    10889.922    7569.1566    1775.9696    2757.2833    1925.1681    152.20756    79.405997 
   96800     567.1463   -106.59433   0.51316589   -106.08117   -6686.3924    4.3113421    4.3113421    4.3113421   -6686.3924   -4762.8329    842.21809   -16138.562    -2052.512   -47.050395    6605.5658    80.137808 
   96900    605.13933   -106.62984   0.54754278    -106.0823   -2096.8512    4.2972902    4.2972902    4.2972902   -2096.8512   -5638.6666    5486.0284   -6137.9155    2672.8488    -6696.208    -13046.67    79.356781 
   97000    457.79312   -106.49882   0.41422083    -106.0846   -6654.9962    4.3109342    4.3109342    4.3109342   -6654.9962   -2606.1795   -5587.0698   -11771.739    5411.8344   -1579.8775    8024.8185    80.115066 
   97100     542.3942   -106.57353   0.49076967   -106.08276    7248.3229    4.2984829    4.2984829    4.2984829    7248.3229    1847.1217    14180.426    5717.4207   -9287.7413    1617.4867    4432.8648    79.422875 
   97200    327.19702   -106.38327   0.29605474   -106.08721    6655.6277    4.3057559    4.3057559    4.3057559    6655.6277    9861.4735     12500.79   -2395.3804    2043.1997   -2931.5507   -4897.7928    79.826708 
   97300    601.29837   -106.62688    0.5440674   -106.08281   -2111.0893    4.3066696    4.3066696    4.3066696   -2111.0893    3275.7935   -6378.8143   -3230.2471   -1002.0805    5076.7115    9485.3831    79.877539 
   97400    510.77311   -106.54657   0.46215824   -106.08441    5732.1037    4.2974061    4.2974061    4.2974061    5732.1037   -2581.9973    18463.896    1314.4127   -1706.3957   -6379.0434    -9070.472    79.363203 
   97500    523.73111     -106.557   0.47388292   -106.08312   -14747.174    4.3133085    4.3133085    4.3133085   -14747.174   -12572.295   -11468.712   -20200.514    5075.7729   -5218.5768    3282.7709    80.247509 
   97600    576.62846   -106.60273   0.52174555   -106.08099    9354.0254    4.2931262    4.2931262    4.2931262    9354.0254    1123.0576    10702.237    16236.782   -7671.5401    3879.7893     2154.356    79.126317 
   97700    321.78891   -106.37716   0.29116137     -106.086    -4391.615    4.3133852    4.3133852    4.3133852    -4391.615    203.07752    1454.4051   -14832.328   -2382.3792   -4141.3462   -3595.7861    80.251791 
   97800    651.59624   -106.67087   0.58957797    -106.0813    8184.2893    4.2978348    4.2978348    4.2978348    8184.2893    16318.281    -2274.194    10508.781    4488.8624    7862.6041   -3575.8249    79.386957 
   97900    347.07668   -106.40203   0.31404228   -106.08799    5292.8992      4.30347      4.30347      4.30347    5292.8992   -7318.5605    25276.179    -2078.921   -5578.1273   -3048.4758   -2992.2254    79.699636 
   98000    564.23643    -106.5942   0.51053297   -106.08367   -15477.159    4.3103234    4.3103234    4.3103234   -15477.159   -19114.291   -3599.4693   -23717.718    1942.1249   -7568.3566   -11098.238    80.081013 
   98100    631.99681   -106.65181     0.571844   -106.07997    10519.731    4.2939098    4.2939098    4.2939098    10519.731    2685.3928    18081.161    10792.638   -6798.4744    1503.9872    7923.3559    79.169653 
   98200    363.59571   -106.41453   0.32898904   -106.08554   -18043.425    4.3129429    4.3129429    4.3129429   -18043.425   -17353.802   -9879.0233   -26897.451   -7594.3246   -5720.7543    -7322.465    80.227103 
   98300    596.12595   -106.62166   0.53938729   -106.08227    11097.532    4.2963472    4.2963472    4.2963472    11097.532    20003.583     7876.656    5412.3575    5392.1507     36.83262   -1546.0015    79.304549 
   98400    398.64978   -106.44654    0.3607067   -106.08583    1624.1072    4.3062349    4.3062349    4.3062349    1624.1072   -8600.9368    16647.632   -3174.3741   -5637.1918    1874.6673     1268.495    79.853354 
   98500    438.93948   -106.48496   0.39716167    -106.0878   -11415.401    4.3036393    4.3036393    4.3036393   -11415.401   -17427.522    4522.1781   -21340.858    -3172.292   -9907.9882   -8023.7401    79.709045 
   98600    720.15917   -106.73486   0.65161516   -106.08325    6769.7363    4.3026734    4.3026734    4.3026734    6769.7363    723.61658    16488.464    3097.1285   -1761.5639    301.52103    2561.3275    79.655383 
   98700    459.48934   -106.50363   0.41575561   -106.08787   -8962.0439    4.3047242    4.3047242    4.3047242   -8962.0439   -11892.313   -1240.6275   -13753.191   -5629.7423   -4500.1391   -3871.2685    79.769339 
   98800    328.81459   -106.38563   0.29751835   -106.08812    6852.7287    4.3042364    4.3042364    4.3042364    6852.7287    8195.9589    15542.534    -3180.307    4383.7392   -1529.5032   -11976.078    79.742222 
   98900      645.179   -106.66564   0.58377152   -106.08186    5769.7964    4.3036573    4.3036573    4.3036573    5769.7964    -3674.241     8206.634    12776.996    1217.2604    7052.6399   -5098.9881    79.710044 
   99000    269.45317   -106.33261   0.24380689   -106.08881     484.3454    4.3017662    4.3017662    4.3017662     484.3454   -10439.463    14319.277   -2426.7781   -5947.1645   -8465.5922   -9661.9466    79.605013 
   99100     743.4774   -106.75586   0.67271397   -106.08315   -5209.6056    4.3083334    4.3083334    4.3083334   -5209.6056   -11040.225    -4227.739   -360.85307    1450.6078   -173.13935   -5902.8084    79.970149 
   99200     578.0267    -106.6079   0.52301071   -106.08489    6040.7674    4.2973722    4.2973722    4.2973722    6040.7674    376.73188    17083.943    661.62711   -3696.3445   -6825.4404    6211.2591    79.361323 
   99300    213.94815   -106.28358   0.19358478   -106.08999   -11100.308     4.310049     4.310049     4.310049   -11100.308   -9583.5341   -3887.8126   -19829.577    411.24747   -4506.7981   -16351.459    80.065722 
   99400    714.07459   -106.72851   0.64610969   -106.08241    11083.761    4.2977657    4.2977657    4.2977657    11083.761    7838.2677    3382.9971    22030.018     5193.277    4018.0379    5114.9262    79.383127 
   99500    371.02918   -106.42346     0.335715   -106.08775   -3730.8295    4.3071636    4.3071636    4.3071636   -3730.8295   -8547.1781    2229.9264   -4875.2369   -6047.5974    -6265.536   -7465.0266    79.905025 
   99600    562.62976   -106.59495   0.50907923   -106.08587   -7835.7291    4.3019317    4.3019317    4.3019317   -7835.7291   -10332.833   -11471.096    -1703.258    521.04329   -4920.2355    -4461.934    79.614199 
   99700    595.97076   -106.62226   0.53924687   -106.08301    5357.9157      4.30342      4.30342      4.30342    5357.9157    332.40467    17901.618   -2160.2756    2784.8113   -2038.0596    4029.2531    79.696857 
   99800    383.64747   -106.43437   0.34713229   -106.08723   -13111.998    4.3069614    4.3069614    4.3069614   -13111.998   -14647.837    -7599.457   -17088.699   -2890.5849   -8124.3019   -11150.043    79.893772 
   99900    470.54663   -106.51055   0.42576048   -106.08479    12621.581    4.2991289    4.2991289    4.2991289    12621.581    9921.9847    5245.5785     22697.18     10031.86    5744.1455   -5926.4832    79.458691 
  100000     581.8956   -106.60933   0.52651136   -106.08282   -6289.6438    4.3090487    4.3090487    4.3090487   -6289.6438   -8334.7676   -14212.889    3678.7254   -1387.4801    809.43652    2381.4869    80.009989 
Loop time of 22.1369 on 1 procs for 100000 steps with 8 atoms

Pair  time (%) = 7.11751 (32.1522)
Kspce time (%) = 5.30202 (23.951)
Neigh time (%) = 0 (0)
Comm  time (%) = 1.06252 (4.79974)
Outpt time (%) = 0.0238266 (0.107633)
Other time (%) = 8.63107 (38.9894)

Nlocal:    8 ave 8 max 8 min
Histogram: 1 0 0 0 0 0 0 0 0 0
Nghost:    2189 ave 2189 max 2189 min
Histogram: 1 0 0 0 0 0 0 0 0 0
Neighs:    2344 ave 2344 max 2344 min
Histogram: 1 0 0 0 0 0 0 0 0 0

Total # of neighbors = 2344
Ave neighs/atom = 293
Neighbor list builds = 0
Dangerous builds = 0
unfix 20
unfix 21
print "seeds:7283753"
seeds:7283753
