LAMMPS (10 Feb 2015)
# ---- initialize simulations
clear
units metal
dimension 3
boundary p p p
atom_style charge
atom_modify map array
# ---- create atoms
read_data /Users/eugeneragasa/pyflamestk_git/pypospack/tests/tests_integration/workflow/WorkflowLammpsThermalExpansion/MgO_NaCl_unit.npt.T1300/lammps.structure
  triclinic box = (0 0 0) to (4.2565 4.2565 4.2565) with tilt (0 0 0)
  1 by 1 by 1 MPI processor grid
  reading atoms ...
  8 atoms
# ---- define interatomic potential
include potential.mod
mass 1 24.305
mass 2 15.999

group Mg type 1
4 atoms in group Mg
group O type 2
4 atoms in group O

set group Mg charge 2.0
  4 settings made for charge
set group O charge -2.0
  4 settings made for charge

variable R_cut equal 10.0

pair_style buck/coul/long ${R_cut}
pair_style buck/coul/long 10
pair_coeff 1 1 0.0 0.5 0.0 ${R_cut}
pair_coeff 1 1 0.0 0.5 0.0 10
pair_coeff 1 2 1279.69 0.29969 0.0 ${R_cut}
pair_coeff 1 2 1279.69 0.29969 0.0 10
pair_coeff 2 2 9547.96 0.21916 32.0 ${R_cut}
pair_coeff 2 2 9547.96 0.21916 32.0 10

kspace_style pppm 1.0e-5

neighbor 1.0 bin
neigh_modify every 1 delay 0 check yes
# ---- define settings
compute eng all pe/atom
compute eatoms all reduce sum c_eng
# ---- run minimization
reset_timestep 0
fix 1 all box/relax iso 0.0 vmax 0.001
thermo 10
thermo_style custom step pe lx ly lz xy xz yz press pxx pyy pzz pxy pxz pyz c_eatoms
min_style cg
minimize 1e-25 1e-25 5000 10000
PPPM initialization ...
  G vector (1/distance) = 0.354854
  grid = 8 8 8
  stencil order = 5
  estimated absolute RMS force accuracy = 5.34408e-05
  estimated relative force accuracy = 3.71126e-06
  using double precision FFTs
  3d grid and FFT values/proc = 3375 512
Neighbor list info ...
  1 neighbor list requests
  update every 1 steps, delay 0 steps, check yes
  master list distance cutoff = 11
Memory usage per processor = 4.06549 Mbytes
Step PotEng Lx Ly Lz Xy Xz Yz Press Pxx Pyy Pzz Pxy Pxz Pyz eatoms 
       0    -164.6599       4.2565       4.2565       4.2565            0            0            0   -75586.685   -75586.685   -75586.685   -75586.685 9.4798587e-11 1.6226154e-10 -3.4446142e-11    -164.6599 
      10   -164.72135     4.213935     4.213935     4.213935            0            0            0   -8637.4527   -8637.4527   -8637.4527   -8637.4527 -1.5549588e-10 2.0227431e-10 -1.1495762e-10   -164.72135 
      15   -164.72214      4.20883      4.20883      4.20883            0            0            0    5.5876567    5.5876567    5.5876567    5.5876567 2.0554645e-10 4.244052e-10 1.3955449e-10   -164.72214 
Loop time of 0.020561 on 1 procs for 15 steps with 8 atoms

Minimization stats:
  Stopping criterion = linesearch alpha is zero
  Energy initial, next-to-last, final = 
        -164.659901251     -164.722138416     -164.722138416
  Force two-norm initial, final = 10.9148 0.000791362
  Force max component initial, final = 10.9148 0.000788889
  Final line search alpha, max atom move = 0.015625 1.23264e-05
  Iterations, force evaluations = 15 55

Pair  time (%) = 0.00562954 (27.3797)
Kspce time (%) = 0.00325346 (15.8235)
Neigh time (%) = 0 (0)
Comm  time (%) = 0.000627995 (3.0543)
Outpt time (%) = 1.88351e-05 (0.0916059)
Other time (%) = 0.0110312 (53.6509)

Nlocal:    8 ave 8 max 8 min
Histogram: 1 0 0 0 0 0 0 0 0 0
Nghost:    2189 ave 2189 max 2189 min
Histogram: 1 0 0 0 0 0 0 0 0 0
Neighs:    2344 ave 2344 max 2344 min
Histogram: 1 0 0 0 0 0 0 0 0 0

Total # of neighbors = 2344
Ave neighs/atom = 293
Neighbor list builds = 0
Dangerous builds = 0
unfix 1
# ---- define output variables ----
variable natoms equal "count(all)"
variable tot_energy equal "c_eatoms"
variable length_x equal "lx"
variable length_y equal "ly"
variable length_z equal "lz"
variable tilt_xy equal "xy"
variable tilt_xz equal "xz"
variable tilt_yz equal "yz"
variable tot_press equal "press"
variable press_xx equal "pxx"
variable press_yy equal "pyy"
variable press_zz equal "pzz"
variable press_xy equal "pxy"
variable press_xz equal "pxz"
variable press_yz equal "pyz"

# ---- output ----
print "pypospack:output_section:begin"
pypospack:output_section:begin
print "tot_energy = ${tot_energy}"
tot_energy = -164.722138415744
print "num_atoms = ${natoms}"
num_atoms = 8
print "xx = ${length_x}"
xx = 4.20883001371435
print "yy = ${length_y}"
yy = 4.20883001371435
print "zz = ${length_z}"
zz = 4.20883001371435
print "xy = ${tilt_xy}"
xy = 0
print "xz = ${tilt_xz}"
xz = 0
print "yz = ${tilt_yz}"
yz = 0
print "tot_press = ${tot_press}"
tot_press = 5.58765665687492
print "pxx = ${press_xx}"
pxx = 5.58765665651822
print "pyy = ${press_yy}"
pyy = 5.58765665647238
print "pzz = ${press_zz}"
pzz = 5.58765665763416
print "pxy = ${press_xy}"
pxy = 2.0554645346851e-10
print "pxz = ${press_xz}"
pxz = 4.24405202668874e-10
print "pyz = ${press_yz}"
pyz = 1.39554488680613e-10
print "pypospack:output_section:done"
pypospack:output_section:done
print "pypospack:lammps_sim:done"
pypospack:lammps_sim:done
#------------------------------------------------------------------------------
# RUN THERMOSTAT
# running using an NPT Nose-Hoover style thermostat
#------------------------------------------------------------------------------
variable tempdamp equal 0.1
variable pressdamp equal 1.0
# set initial velocities
velocity all create 1300 9252124 mom yes dist gaussian loop all
# fix for Nose-Hoover style thermostat
fix 20 all npt temp 1300 1300 0.1 aniso 0.0 0.0 1.0 drag 1.0 couple xyz
variable boxx equal lx
variable boxy equal ly
variable boxz equal lz
variable boxp equal press
variable boxt equal temp
# calculate averages every 10000 steps
reset_timestep 0
fix 21 all ave/time 10 10 100 v_boxx v_boxy v_boxz v_boxp v_boxt file lattice.out
thermo_style custom step temp pe ke etotal press lx ly lz press pxx pyy pzz pxy pxz pyz vol
thermo_modify flush yes
thermo 100
run 100000
PPPM initialization ...
  G vector (1/distance) = 0.355405
  grid = 8 8 8
  stencil order = 5
  estimated absolute RMS force accuracy = 5.20839e-05
  estimated relative force accuracy = 3.61703e-06
  using double precision FFTs
  3d grid and FFT values/proc = 3375 512
Memory usage per processor = 3.06549 Mbytes
Step Temp PotEng KinEng TotEng Press Lx Ly Lz Press Pxx Pyy Pzz Pxy Pxz Pyz Volume 
       0         1300   -164.72213    1.1762673   -163.54587    16858.081      4.20883      4.20883      4.20883    16858.081    19210.389    7388.3128     23975.54    94.591315    10922.445    4678.1632    74.556267 
     100    1065.0648   -164.34687   0.96369301   -163.38318   -12445.135    4.2422592    4.2422592    4.2422592   -12445.135    2813.0774   -44799.621    4651.1389   -1732.9848    7938.7035   -3590.2646    76.346932 
     200    771.38826   -163.77169   0.69796831   -163.07372   -14711.165    4.2482688    4.2482688    4.2482688   -14711.165    14874.312   -51089.614   -7918.1936    3523.4087   -3355.6406    1087.2379    76.671854 
     300    974.91643   -163.66523   0.88212487   -162.78311    23909.295    4.2310596    4.2310596    4.2310596    23909.295    1440.0698   -8852.8103    79140.626    6348.6907    5719.3724   -840.47631    75.743859 
     400     1036.882   -163.50741   0.93819264   -162.56922   -43294.273    4.2535897    4.2535897    4.2535897   -43294.273   -25299.149   -48663.471     -55920.2     -5085.74   -3400.2461   -345.27655    76.960308 
     500     1220.328   -163.52942    1.1041784   -162.42524    5242.1146    4.2496097    4.2496097    4.2496097    5242.1146    35209.808   -39576.629    20093.165    2186.4733   -503.13804    759.96378    76.744479 
     600    1299.8863   -163.54097    1.1761644    -162.3648   -8634.2335    4.2570421    4.2570421    4.2570421   -8634.2335    16180.953   -36416.297   -5667.3564     3313.329   -12051.713    13569.277    77.147853 
     700    1520.8285   -163.71278    1.3760776    -162.3367   -28976.581     4.259999     4.259999     4.259999   -28976.581   -25191.614   -39386.938   -22351.193    497.29932   -11300.721   -5014.5507     77.30872 
     800    1345.9293    -163.5483    1.2178251   -162.33048   -4273.3326    4.2438312    4.2438312    4.2438312   -4273.3326    1529.9271   -31022.439    16672.514    2619.7708    13238.864   -6780.1694    76.431836 
     900    1065.4321    -163.3198   0.96402532   -162.35578   -12730.909    4.2632616    4.2632616    4.2632616   -12730.909   -15319.517   -48609.296    25736.087   -7975.3048   -11114.212     2833.839     77.48648 
    1000    1464.8694   -163.67414    1.3254446   -162.34869   -16267.071    4.2545796    4.2545796    4.2545796   -16267.071   -33255.579     -21031.9    5486.2653    -7885.911    25918.031   -8581.2495    77.014048 
    1100    1536.5897   -163.73448    1.3903387   -162.34414     26673.83    4.2350496    4.2350496    4.2350496     26673.83    22506.239    5082.2037    52433.046    8117.3811    9416.0634    684.61971    75.958346 
    1200    1279.3865   -163.52214    1.1576158   -162.36453   -13578.717    4.2720596    4.2720596    4.2720596   -13578.717   -6205.3417   -38137.197    3606.3869    4463.8537    10195.846    1712.3552    77.967196 
    1300    687.86013   -162.96371    0.6223903   -162.34132    2247.7583    4.2668069    4.2668069    4.2668069    2247.7583   -3374.8126   -19316.192    29434.279     3549.118    28270.349   -4834.1135    77.679955 
    1400    1103.8093   -163.32094   0.99874989   -162.32219    32469.148     4.242561     4.242561     4.242561    32469.148    21783.725   -6937.6816    82561.401   -3257.5853    16825.261    16520.095    76.363229 
    1500      1235.65   -163.47079    1.1180421   -162.35275   -11328.985    4.2626962    4.2626962    4.2626962   -11328.985   -36733.891   -18795.423     21542.36   -12130.515   -16432.414   -7836.7791     77.45566 
    1600     1219.595   -163.45794    1.1035152   -162.35443   -16507.411    4.2754908    4.2754908    4.2754908   -16507.411   -64663.839   -27049.956    42191.561    1717.3718   -5717.5997   -28448.182    78.155207 
    1700    1244.3085   -163.48005    1.1258764   -162.35418    6532.9226    4.2516913    4.2516913    4.2516913    6532.9226     -32106.4    22979.526    28725.641   -1511.7515    1749.1216    21963.576     76.85731 
    1800    1264.7379   -163.50004    1.1443615   -162.35568    9751.9069    4.2412669    4.2412669    4.2412669    9751.9069   -16656.379     4227.715    41684.385    412.55903   -2793.6646   -5010.3215    76.293371 
    1900    1815.0515   -164.00066    1.6422967   -162.35837   -45279.912    4.2643198    4.2643198    4.2643198   -45279.912   -56588.009   -48317.448   -30934.278    6564.1185   -6304.2162    2074.0395    77.544198 
    2000    1467.1734   -163.67355    1.3275293   -162.34602    14061.951    4.2564105    4.2564105    4.2564105    14061.951   -16493.792     16610.55    42069.097    3103.9323    1213.7413    7524.6557    77.113519 
    2100     1552.968   -163.75382     1.405158   -162.34866    1566.4867    4.2541707    4.2541707    4.2541707    1566.4867   -38462.473    22915.281    20246.652   -5174.9218    6156.4401    3967.6907    76.991847 
    2200    1493.9418   -163.69796      1.35175   -162.34621   -14142.326    4.2508925    4.2508925    4.2508925   -14142.326   -35546.694     17792.15   -24672.434   -3989.2011    6733.3561   -18380.139    76.813997 
    2300    1033.2341   -163.28184   0.93489194   -162.34695    42154.123      4.24968      4.24968      4.24968    42154.123     7059.016    89273.359    30129.994   -3454.4961   -4521.2042    1491.1147    76.748284 
    2400    1080.2441   -163.32543   0.97742756   -162.34801   -20988.582     4.271269     4.271269     4.271269   -20988.582   -85952.293    72210.654   -49224.106    7890.5416    8045.1255    15503.455    77.923915 
    2500    1337.1115   -163.56239    1.2098466   -162.35254    7775.0227    4.2382267    4.2382267    4.2382267    7775.0227   -20190.036     66548.26   -23033.156    13789.583    18734.802   -11914.669    76.129427 
    2600    1189.8787   -163.44904    1.0766272   -162.37241     38509.11    4.2436145    4.2436145    4.2436145     38509.11    21911.348    57180.802    36435.181    14904.958    13728.361   -13019.518    76.420132 
    2700    1095.2825   -163.33493   0.99103463    -162.3439   -65893.144    4.2811364    4.2811364    4.2811364   -65893.144   -88278.465   -29996.217   -79404.752    17773.983    19079.775    -11868.42    78.465219 
    2800    963.91884   -163.20183   0.87217403   -162.32965    20019.657    4.2358279    4.2358279    4.2358279    20019.657   -49174.654    96877.185    12356.439    17957.184    17201.774    -4285.489     76.00023 
    2900    1003.4877   -163.25517    0.9079768   -162.34719    20705.125    4.2375559    4.2375559    4.2375559    20705.125   -30427.576    71402.316    21140.636    11460.043    13521.345   -20452.934    76.093285 
    3000    1267.7386   -163.49694    1.1470765   -162.34987   -28388.967    4.2742177    4.2742177    4.2742177   -28388.967   -38234.336    17813.205   -64745.769    12074.147    13090.986    10265.332    78.085412 
    3100    1334.7622    -163.5587    1.2077209   -162.35098    16582.394    4.2442411    4.2442411    4.2442411    16582.394    22542.465    7799.3717    19405.345    22048.047    10517.246    10778.299    76.453989 
    3200    1215.2407   -163.44528    1.0995753   -162.34571    35651.274    4.2285117    4.2285117    4.2285117    35651.274   -16545.393    60225.175    63274.041    19194.511    15611.467   -12302.365    75.607105 
    3300    1039.8275   -163.31023   0.94085776   -162.36938    4776.6469    4.2625064    4.2625064    4.2625064    4776.6469     -45815.5    8586.8745    51558.566    5121.1767    11513.544    17187.555    77.445314 
    3400    1668.9148   -163.85679    1.5100692   -162.34672   -31877.181    4.2687143    4.2687143    4.2687143   -31877.181    -51967.01   -5575.6061   -38088.926   -7280.8752    971.31517    1281.4567    77.784179 
    3500    1755.5115   -163.91969    1.5884237   -162.33127   -511.60691    4.2427202    4.2427202    4.2427202   -511.60691   -29764.084    7419.4776    20809.786   -6817.2243   -5752.9361    6925.7085    76.371826 
    3600    1298.8447   -163.51597     1.175222   -162.34075     5256.717    4.2449669    4.2449669    4.2449669     5256.717   -8615.0654    51108.211   -26722.994   -7580.4861   -4916.8466    12650.925    76.493216 
    3700    1017.2166   -163.27193   0.92039892   -162.35153   -11338.168    4.2592959    4.2592959    4.2592959   -11338.168   -30962.969    2297.8839   -5349.4192   -15270.232   -7323.7679      7903.76    77.270447 
    3800    1041.6977   -163.28999   0.94254996   -162.34744    -9711.997    4.2579918    4.2579918    4.2579918    -9711.997   -70550.055   -1631.4953     43045.56   -6988.5572   -15558.362   -9891.4172    77.199497 
    3900    1245.8284   -163.47111    1.1272517   -162.34386    1120.9409    4.2467444    4.2467444    4.2467444    1120.9409   -10240.477    22425.435   -8822.1356   -23548.287   -17049.826    14562.141    76.589346 
    4000     1411.963    -163.6257    1.2775738   -162.34813    2486.3146     4.239115     4.239115     4.239115    2486.3146    -9442.951    9219.2738    7682.6209   -21799.656   -22542.792    1437.8651    76.177303 
    4100    1114.3628   -163.37788    1.0082989   -162.36958   -27810.508     4.259181     4.259181     4.259181   -27810.508   -65346.137    12058.387   -30143.773   -24417.803   -21502.102    3096.8825    77.264197 
    4200    1023.9795   -163.28797    0.9265182   -162.36145   -34135.192    4.2526293    4.2526293    4.2526293   -34135.192    -64263.42   -42509.215    4367.0579   -28224.707   -9315.6002    -5749.602    76.908191 
    4300    1336.3408   -163.54712    1.2091492   -162.33797    29134.273    4.2224322    4.2224322    4.2224322    29134.273   -15508.327    74129.923    28781.224   -18827.464   -9351.7287   -4834.1695    75.281466 
    4400    1449.6358   -163.67872    1.3116609   -162.36706   -14824.363    4.2536982    4.2536982    4.2536982   -14824.363   -46987.314    13231.417   -10717.193   -6215.8122   -5190.2805    21243.334    76.966196 
    4500    1654.0817   -163.84211    1.4966478   -162.34546   -16571.304    4.2612617    4.2612617    4.2612617   -16571.304   -18536.639   -20741.946   -10435.326    1034.6878    -1641.218   -14175.352    77.377485 
    4600    1839.1998   -163.99323    1.6641467   -162.32908    606.03529    4.2374037    4.2374037    4.2374037    606.03529   -9179.0969    2574.2119    8422.9909   -4627.2716    13477.602    18809.652    76.085083 
    4700    1434.4264   -163.63929    1.2978991   -162.34139   -6691.2333     4.252335     4.252335     4.252335   -6691.2333   -38793.473    22308.159   -3588.3862    371.04194   -7351.2926   -5757.4781     76.89222 
    4800    1455.5238   -163.65586    1.3169885   -162.33887    9924.0407    4.2433651    4.2433651    4.2433651    9924.0407   -10922.667    24646.287    16048.502     2140.897    237.43307   -6019.1692    76.406657 
    4900    1693.1793   -163.88429    1.5320242   -162.35226   -2587.2406    4.2527902    4.2527902    4.2527902   -2587.2406   -36974.383    3570.5683    25642.093   -2570.7613    5113.1152    8277.5311    76.916917 
    5000    1539.3083   -163.74675    1.3927985   -162.35395   -12816.872     4.261738     4.261738     4.261738   -12816.872   -46605.578     2121.822    6033.1409    15771.806   -284.68611   -5301.3175    77.403437 
    5100     972.1035   -163.22779   0.87957968   -162.34821    35453.134    4.2176598    4.2176598    4.2176598    35453.134    27857.888    55233.897    23267.615   -8370.3823   -11854.964   -2536.8032    75.026492 
    5200    754.01073   -163.07823   0.68224476   -162.39599    27896.291     4.241521     4.241521     4.241521    27896.291    12800.535    45910.679     24977.66   -2654.6362   -14024.109   -5523.3422    76.307086 
    5300    774.51221   -163.04243   0.70079492   -162.34163    -70232.81     4.287582     4.287582     4.287582    -70232.81   -131674.96   -15400.239   -63623.232   -6798.5157   -10187.663    13059.018    78.820158 
    5400    999.58599   -163.23314   0.90444641   -162.32869    14370.812    4.2305811    4.2305811    4.2305811    14370.812   -40051.676    79291.758    3872.3531   -21070.931   -23607.539   -6903.5203    75.718163 
    5500    964.13567   -163.21223   0.87237022   -162.33986    66467.895    4.2260361    4.2260361    4.2260361    66467.895    59374.323     85990.44    54038.923   -13304.159   -32738.643   -6759.6877    75.474387 
    5600    1020.1658   -163.25271   0.92306746   -162.32964   -59580.512    4.2760234    4.2760234    4.2760234   -59580.512   -95451.917   -39485.674   -43803.945   -25920.536   -37162.733   -8500.4948    78.184418 
    5700    981.91734   -163.21741   0.88845945   -162.32895     13376.83    4.2374683    4.2374683    4.2374683     13376.83    35557.888    32482.315   -27909.714    -9898.392   -19282.482   -6202.3342    76.088563 
    5800    918.46105   -163.16649   0.83104286   -162.33545    -929.9973    4.2305029    4.2305029    4.2305029    -929.9973   -19347.338    10438.109    6119.2364   -9973.9287   -11433.333   -469.90293    75.713965 
    5900    1476.2834   -163.68174    1.3357722   -162.34597    -31372.51    4.2568902    4.2568902    4.2568902    -31372.51   -10300.002   -32993.356   -50824.171   -6402.1556   -13004.447    -25147.48    77.139591 
    6000    1780.6133   -163.95295    1.6111363   -162.34181    1520.4254    4.2485439    4.2485439    4.2485439    1520.4254    16753.388   -2693.3741   -9498.7381    14196.555    822.41449    4993.3011     76.68675 
    6100     1508.594   -163.71122    1.3650075   -162.34621    5049.1396    4.2497109    4.2497109    4.2497109    5049.1396    22429.252   -1418.7798   -5863.0537   -4244.0552    17376.851    -2848.255    76.749961 
    6200    1385.2202   -163.60011    1.2533764   -162.34673    22087.366    4.2380988    4.2380988    4.2380988    22087.366    57942.273    37625.406   -29305.581   -4845.5616    22088.647    7356.9136     76.12253 
    6300    1502.6127   -163.72185    1.3595955   -162.36225   -4806.9244    4.2460216    4.2460216    4.2460216   -4806.9244    1419.7483    13652.267   -29492.788    9282.7302    9618.1174   -4389.7073    76.550249 
    6400    1623.8882   -163.82288    1.4693282   -162.35355   -16313.427    4.2580148    4.2580148    4.2580148   -16313.427   -10466.842   -470.86459   -38002.574   -1650.5382    12704.192   -5433.5255    77.200749 
    6500    1906.6396   -164.06245    1.7251676   -162.33728    6775.1738    4.2397094    4.2397094    4.2397094    6775.1738    18388.908      21605.7   -19669.087    7696.8371    22360.524    17326.568    76.209354 
    6600    1704.4789   -163.89001    1.5422484   -162.34776   -15326.644    4.2480865    4.2480865    4.2480865   -15326.644   -30519.218   -1412.9885   -14047.725   -12831.374    18463.282   -3078.9451    76.661982 
    6700    1212.4158   -163.44713    1.0970193   -162.35011   -21651.177    4.2377098    4.2377098    4.2377098   -21651.177   -59943.168   -6316.0965     1305.732   -13705.981    2214.1043    10222.958    76.101571 
    6800    1135.4113   -163.39385     1.027344   -162.36651   -12425.116      4.24236      4.24236      4.24236   -12425.116   -9313.0982    1057.6866   -29019.936    -20421.24   -212.60644   -13231.379    76.352379 
    6900    803.86628   -163.08841   0.72735511   -162.36106   -44302.016    4.2613399    4.2613399    4.2613399   -44302.016    -52428.39   -35822.916   -44654.741   -32201.001    -5681.332   -4124.3348    77.381745 
    7000    976.78651   -163.22931   0.88381697   -162.34549    46441.192     4.233797     4.233797     4.233797    46441.192    110200.12    31688.552   -2565.0979   -20294.662   -15315.442    4660.7631    75.890967 
    7100    1108.3724   -163.36302    1.0028786   -162.36014    -8213.344    4.2511999    4.2511999    4.2511999    -8213.344    -19998.67    12265.162   -16906.523   -30926.487   -16045.403    -13018.35     76.83066 
    7200    993.13431   -163.24314    0.8986088   -162.34453   -10012.774    4.2625042    4.2625042    4.2625042   -10012.774    -4810.605   -31871.844    6644.1258   -21537.779   -1313.9815   -6685.3665    77.445193 
    7300    1076.4389    -163.3096   0.97398457   -162.33562     14932.93    4.2365437    4.2365437    4.2365437     14932.93   -7901.3373    31004.381    21695.747    -3884.343   -4879.7506   -16211.624    76.038766 
    7400    1082.6075   -163.33106   0.97956604    -162.3515    12417.503    4.2413801    4.2413801    4.2413801    12417.503    33266.136    7205.8817   -3219.5075   -15825.509    -15164.84   -1563.2389    76.299482 
    7500    1228.0926   -163.46623     1.111204   -162.35502   -7527.3287    4.2630951    4.2630951    4.2630951   -7527.3287    7799.6929   -34761.991    4380.3119    6495.6601   -8674.9079    2174.2416    77.477407 
    7600    1437.5442   -163.64183    1.3007202   -162.34111   -37000.483    4.2638741    4.2638741    4.2638741   -37000.483   -27405.515   -37986.483   -45609.451    821.65959    254.10518    3430.2206    77.519887 
    7700    1350.6424   -163.55481    1.2220896   -162.33272    20747.366    4.2285456    4.2285456    4.2285456    20747.366    13974.266    32297.297    15970.535    15072.926     21132.74     2004.819    75.608923 
    7800    1396.5153   -163.61641    1.2635964   -162.35281    10901.021    4.2390789    4.2390789    4.2390789    10901.021    1171.4767     20560.31    10971.277    12787.919    3930.8529   -19235.847    76.175359 
    7900    1517.4518   -163.71518    1.3730223   -162.34216   -56323.777    4.2711778    4.2711778    4.2711778   -56323.777   -49937.467   -62589.331   -56444.531     9074.569    6556.4592    18442.151    77.918925 
    8000    1648.0309   -163.82431     1.491173   -162.33314    22704.125    4.2370313    4.2370313    4.2370313    22704.125    12130.835   -14021.851    70003.392    14564.213    9666.9462    1625.2494    76.065026 
    8100    1379.6563   -163.58942     1.248342   -162.34108    39872.995    4.2328017    4.2328017    4.2328017    39872.995    87051.163    20478.141     12089.68   -7506.7555   -5239.5249    8670.0315    75.837457 
    8200    1318.8252   -163.54119    1.1933008   -162.34789   -18289.692    4.2596731    4.2596731    4.2596731   -18289.692   -11980.678   -36046.116    -6842.283   -7676.6247   -10445.864    20029.933     77.29098 
    8300    1237.1061   -163.46453    1.1193596   -162.34517    3741.6651    4.2383767    4.2383767    4.2383767    3741.6651    -28554.81   -3591.4003    43371.206   -5833.7994   -9455.7997    3789.9687    76.137511 
    8400    1021.5106   -163.27318   0.92428426    -162.3489    3372.9765    4.2369798    4.2369798    4.2369798    3372.9765   -34202.819     36015.36    8306.3886   -457.56553   -9760.6386    11382.447    76.062252 
    8500    1123.8874   -163.36752     1.016917    -162.3506   -29138.132      4.25328      4.25328      4.25328   -29138.132   -48110.308   -38957.467   -346.62042   -11203.208   -18372.611   -8284.8448    76.943495 
    8600    1292.6014   -163.52163    1.1695729   -162.35205    1436.3399    4.2391672    4.2391672    4.2391672    1436.3399   -5708.6505   -2173.9717    12191.642   -10010.131   -937.84573    9463.7752    76.180115 
    8700    1402.7496   -163.62928    1.2692374   -162.36004     23281.16    4.2424357    4.2424357    4.2424357     23281.16   -16114.908    20352.592    65605.795   -12668.477   -3790.5477   -3371.3909    76.356463 
    8800     1354.292   -163.57722    1.2253919   -162.35183   -33867.653    4.2558172    4.2558172    4.2558172   -33867.653   -57175.715   -42404.545   -2022.6998   -10661.111   -21547.962   -29186.753    77.081275 
    8900    1352.4196   -163.56247    1.2236977   -162.33878   -7104.9305    4.2487802    4.2487802    4.2487802   -7104.9305   -68703.318   -38845.972    86234.498   -3177.2207   -4105.2128   -14069.991    76.699546 
    9000    1290.5118   -163.50497    1.1676822   -162.33729    12948.154    4.2436219    4.2436219    4.2436219    12948.154   -5875.9571    49206.989   -4486.5695   -6671.1196   -2995.5482   -19751.079    76.420528 
    9100    1287.6523   -163.51301    1.1650949   -162.34792   -23460.103    4.2554547    4.2554547    4.2554547   -23460.103   -48797.647   -24110.062    2527.4018   -5421.9025    3343.5456   -18171.519    77.061582 
    9200    1189.5764   -163.42227    1.0763538   -162.34592     1327.154    4.2354925    4.2354925    4.2354925     1327.154   -16771.566    6505.1926    14247.835   -7814.6871    14134.468   -22297.254    75.982183 
    9300    1135.1631    -163.3848    1.0271194   -162.35768    23425.197    4.2377561    4.2377561    4.2377561    23425.197     24595.67    12181.213    33498.707   -7799.4201    10265.673    1777.4109    76.104066 
    9400    956.71049   -163.21276   0.86565176   -162.34711   -61324.428    4.2725865    4.2725865    4.2725865   -61324.428   -91987.065   -62350.971   -29635.247   -7437.7533    18337.753      6165.47    77.996048 
    9500    1200.6315   -163.42973    1.0863566   -162.34337    14079.512    4.2350136    4.2350136    4.2350136    14079.512   -10783.589    11566.944     41455.18    2585.7477    16368.924    4979.4332    75.956409 
    9600    1422.5604   -163.62967    1.2871625   -162.34251    38981.586    4.2283258    4.2283258    4.2283258    38981.586    77471.607    47281.221   -7808.0698    9276.2692    17760.919    11498.546    75.597134 
    9700      1581.64   -163.77236    1.4311011   -162.34126   -37404.981    4.2678674    4.2678674    4.2678674   -37404.981   -55970.588   -43072.296   -13172.058   -7788.3894    17117.044    17252.865    77.737889 
    9800     1850.438    -164.0018    1.6743151   -162.32749   -20664.615    4.2407466    4.2407466    4.2407466   -20664.615   -43860.969    -21847.19    3714.3139    7652.2999     14877.72    17339.431    76.265298 
    9900    1402.1889    -163.5943      1.26873   -162.32557    21519.682     4.229773     4.229773     4.229773    21519.682   -112.83097     37307.65    27364.227    17186.267    10195.948    5245.0017    75.674781 
   10000     1108.363   -163.34519    1.0028701   -162.34232    -6350.758     4.248432     4.248432     4.248432    -6350.758   -44137.095    19398.063    5686.7576    22967.742   -11385.247   -4427.5863    76.680693 
   10100    1432.2245   -163.63273    1.2959069   -162.33683    2620.7673    4.2455292    4.2455292    4.2455292    2620.7673   -13113.695    14677.131    6298.8651    8546.3804    1732.0079    6767.1458    76.523618 
   10200    1544.5011   -163.73141    1.3974971   -162.33391   -12913.311    4.2597769    4.2597769    4.2597769   -12913.311   -20423.089   -6110.3095   -12206.533    8729.8801   -16368.849    6312.8985    77.296629 
   10300    1291.7497   -163.49864    1.1688023   -162.32984   -22861.841    4.2470366    4.2470366    4.2470366   -22861.841   -43367.634   -11917.552   -13300.336    9755.1733   -27158.761   -5178.6301    76.605156 
   10400    1014.0003   -163.24156   0.91748876   -162.32407    42202.679    4.2235227    4.2235227    4.2235227    42202.679   -40984.021    77630.115    89961.944    6411.1647   -10663.488   -12238.055    75.339805 
   10500    923.38545    -163.1826   0.83549856    -162.3471   -27683.911    4.2577889    4.2577889    4.2577889   -27683.911   -70882.679    20122.786    -32291.84    4343.8981   -30606.282   -8734.6448    77.188462 
   10600         1109   -163.34074    1.0034465   -162.33729   -42575.772    4.2517103    4.2517103    4.2517103   -42575.772   -26611.437   -40203.587   -60912.292     6532.785   -12238.305   -12455.748    76.858338 
   10700    1112.4728   -163.33317    1.0065888   -162.32659    39482.338    4.2206551    4.2206551    4.2206551    39482.338    30600.514    12819.491    75027.009    -10591.11   -14246.785   -9390.9332     75.18645 
   10800    1072.0978   -163.32452   0.97005666   -162.35446   -25498.597    4.2516213    4.2516213    4.2516213   -25498.597   -36351.497    -8400.065   -31744.228   -6687.6653    -17600.74   -6563.3827    76.853512 
   10900    1382.2183   -163.59771    1.2506601   -162.34705   -4378.2527    4.2484603    4.2484603    4.2484603   -4378.2527   -31772.569   -20388.521    39026.332    5325.1629     907.8558    -8774.786    76.682221 
   11000    1565.3855   -163.75521    1.4163937   -162.33882   -8189.9395     4.230099     4.230099     4.230099   -8189.9395   -18547.396   -4132.4691   -1889.9532   -2769.2536    4109.2549   -2408.8817    75.692282 
   11100    1594.9252   -163.79063    1.4431219   -162.34751   -10082.796    4.2424763    4.2424763    4.2424763   -10082.796   -26186.059    7383.3521   -11445.683   -1345.7151    15960.361    2037.5028    76.358656 
   11200    1635.4765   -163.82614    1.4798135   -162.34633   -2404.0811    4.2426801    4.2426801    4.2426801   -2404.0811    -24535.16    28245.816     -10922.9   -620.49994    27393.924   -9537.0283    76.369661 
   11300    1481.9202   -163.69226    1.3408725   -162.35139   -8556.4818    4.2554866    4.2554866    4.2554866   -8556.4818   -60512.608    11833.739    23009.424    9307.2678    23173.252   -1330.8104    77.063316 
   11400    1127.1746   -163.36536    1.0198912   -162.34547   -16457.742     4.244954     4.244954     4.244954   -16457.742   -48376.166   -9925.7297    8928.6686    15681.847     30924.26   -13686.878    76.492521 
   11500    829.95466   -163.09234   0.75096042   -162.34138    32182.854     4.230641     4.230641     4.230641    32182.854   -39536.723    97869.976    38215.309   -3102.0111     34577.27    -5785.435    75.721382 
   11600    744.05779   -163.02194   0.67323913   -162.34871   -36683.808    4.2595077    4.2595077    4.2595077   -36683.808   -103595.32    23909.905   -30366.012    4008.4478     40178.11    2022.5032    77.281977 
   11700    1050.0437   -163.29051   0.95010163   -162.34041    5417.5635       4.2397       4.2397       4.2397    5417.5635   -40664.942    60851.178   -3933.5454    30.700779    20922.445   -2710.3654    76.208844 
   11800    1440.3151   -163.64178    1.3032273   -162.33855    14888.167    4.2277163    4.2277163    4.2277163    14888.167   -24374.059    35818.779     33219.78    6190.0248    16025.294   -10554.116     75.56445 
   11900    1244.6044   -163.47429    1.1261442   -162.34815   -48925.774    4.2571323    4.2571323    4.2571323   -48925.774   -93028.209   -6858.2982   -46890.815   -1485.7916    34335.172   -5189.5791    77.152758 
   12000    1052.5772   -163.29661   0.95239397   -162.34421    10143.987    4.2375605    4.2375605    4.2375605    10143.987   -43115.686    26757.619    46790.028   -3490.0815    25461.314    11904.512    76.093531 
   12100    1158.8766   -163.39612    1.0485759   -162.34754    20529.643    4.2312759    4.2312759    4.2312759    20529.643   -27354.612     89862.67   -919.12689   -5806.9151    5384.4946   -1488.5577    75.755476 
   12200    1422.8157   -163.63408    1.2873935   -162.34669   -24447.738    4.2546358    4.2546358    4.2546358   -24447.738   -60077.824    18923.737   -32189.128   -8731.8153    9504.1277    -4950.821    77.017102 
   12300     1665.107   -163.84746    1.5066238   -162.34083   -11295.887    4.2406065    4.2406065    4.2406065   -11295.887   -40156.832   -12731.309     19000.48    7865.5024    8700.0455   -121.29803     76.25774 
   12400    1176.0448   -163.41337    1.0641101   -162.34926    12114.143    4.2350558    4.2350558    4.2350558    12114.143   -32804.267    31755.307    37391.388    4726.0101    964.07181     819.8945    75.958681 
   12500    1035.7696   -163.29153   0.93718607   -162.35435   -6149.6121    4.2365141    4.2365141    4.2365141   -6149.6121   -51276.068    3018.6922    29808.539   -3280.2411    2140.2233   -13122.936    76.037172 
   12600    1218.4518   -163.45836    1.1024808   -162.35588    7484.0027    4.2423643    4.2423643    4.2423643    7484.0027    -48183.54    48564.549    22070.999     10737.74   -1647.8288   -4157.1105    76.352607 
   12700    1423.4385   -163.63581    1.2879571   -162.34786   -36705.624    4.2580008    4.2580008    4.2580008   -36705.624   -55029.209   -21600.161   -33487.502    8005.8782   -5547.8241   -13835.486    77.199985 
   12800    1397.5626   -163.61077     1.264544   -162.34623    22086.001    4.2243288    4.2243288    4.2243288    22086.001    9933.6929    41595.547    14728.762   -10265.824   -9749.8199    4200.6797    75.382951 
   12900     1289.331   -163.52489    1.1666138   -162.35827    43451.633    4.2248251    4.2248251    4.2248251    43451.633    26189.174    48960.299    55205.426    2272.2632   -8901.9452    6316.3331    75.409524 
   13000     1345.472   -163.56194    1.2174113   -162.34453   -56400.028    4.2665516    4.2665516    4.2665516   -56400.028   -77056.858   -37954.002   -54189.225   -1046.0721   -15821.179    6904.7162    77.666014 
   13100    1049.2762   -163.28862   0.94940711   -162.33922   -3362.5444     4.234689     4.234689     4.234689   -3362.5444   -33830.456     16725.79    7017.0333    9147.9901   -30441.495     16962.94    75.938948 
   13200    771.88096   -163.03565   0.69841411   -162.33724    41229.671    4.2197734    4.2197734    4.2197734    41229.671    24684.002    108278.39   -9273.3801   -1109.4705    -26140.47    18100.487    75.139342 
   13300    864.92714   -163.12911   0.78260426    -162.3465   -32506.047    4.2506343    4.2506343    4.2506343   -32506.047   -44684.094   -28592.892   -24241.156    2165.3804   -31167.528    24419.831         76.8 
   13400    1106.0792   -163.34556    1.0008037   -162.34476    1964.2908    4.2425156    4.2425156    4.2425156    1964.2908   -8245.2447    26656.595   -12518.478    14246.302   -36797.078     5883.487    76.360775 
   13500    1080.3457   -163.32546   0.97751952   -162.34794   -19992.378    4.2390435    4.2390435    4.2390435   -19992.378   -35183.599     4575.864     -29369.4    5361.5928   -42926.358   -1540.6728    76.173446 
   13600    856.38694   -163.12685    0.7748769   -162.35197   -6230.7418    4.2358327    4.2358327    4.2358327   -6230.7418   -38782.931    18972.084    1118.6215    3879.9849   -29818.464    8231.6065    76.000489 
   13700    875.31601   -163.14973   0.79200432   -162.35773    18780.264    4.2390033    4.2390033    4.2390033    18780.264    1298.0254    83343.556   -28300.791   -11900.004   -21556.677   -13368.173    76.171281 
   13800    1333.3051   -163.55457    1.2064025   -162.34817   -25573.561    4.2511682    4.2511682    4.2511682   -25573.561    2517.9093   -10583.271   -68655.322   -4060.0097   -19232.658   -16357.615    76.828946 
   13900     1774.473   -163.94257    1.6055805   -162.33699     17736.46    4.2335653    4.2335653    4.2335653     17736.46    9631.2813    17538.672    26039.426    7550.7696   -12928.153   -17923.572    75.878511 
   14000    1764.4805   -163.93892    1.5965391   -162.34239    7733.8629    4.2391482    4.2391482    4.2391482    7733.8629    1882.6346    16975.443    4343.5116   -801.23318   -40.937075   -4447.6686    76.179096 
   14100    1562.7088   -163.74542    1.4139718   -162.33145   -20371.194    4.2564065    4.2564065    4.2564065   -20371.194   -54848.535     17799.41   -24064.457     392.5796    5933.5205   -164.21905    77.113302 
   14200    1460.8896    -163.6443    1.3218436   -162.32246    21577.282    4.2360263    4.2360263    4.2360263    21577.282   -17071.933    53586.229     28217.55   -604.76405    4865.3895   -18675.543    76.010913 
   14300     1542.287    -163.7238    1.3954937   -162.32831    642.42524    4.2389912    4.2389912    4.2389912    642.42524    -16878.76   -1631.6694    20437.705   -3870.1614   -4777.5586    -5562.094    76.170628 
   14400    1711.6266   -163.87715    1.5487157   -162.32844   -3666.1397    4.2506434    4.2506434    4.2506434   -3666.1397    -31160.62    3729.6014    16432.599    694.78913   -2719.9602    1080.0854    76.800494 
   14500     1772.999     -163.934    1.6042467   -162.32976    12629.191    4.2394674    4.2394674    4.2394674    12629.191    1463.3621    40330.672   -3906.4621    15614.459     1504.605    5338.5507    76.196303 
   14600    1642.1808   -163.82175    1.4858797   -162.33587     18439.48    4.2344855    4.2344855    4.2344855     18439.48    133.05654    26876.995    28308.389    -10082.65    10577.267   -10544.356    75.928001 
   14700    1544.5786   -163.73791    1.3975672   -162.34034   -5072.7337    4.2486236    4.2486236    4.2486236   -5072.7337   -34158.013    6565.3649    12374.446    3536.2992    6247.8048    7630.0496    76.691064 
   14800    1683.6142   -163.85794    1.5233695   -162.33457   -35579.225     4.249932     4.249932     4.249932   -35579.225   -38291.552   -30990.822   -37455.301    109.62382      6594.34     16796.25    76.761941 
   14900      1510.69   -163.69735     1.366904   -162.33045    26730.658    4.2286466    4.2286466    4.2286466    26730.658    28156.222    30237.488    21798.265    6909.1289    18982.803   -759.89732    75.614342 
   15000    1320.4338   -163.54365    1.1947562   -162.34889    32910.797    4.2389582    4.2389582    4.2389582    32910.797    56208.224   -4606.2948    47130.461    11818.409     26086.99    5604.6518    76.168848 
   15100    1594.7014   -163.77814    1.4429193   -162.33522   -38687.071    4.2648984    4.2648984    4.2648984   -38687.071    -13977.43    -58644.61   -43439.172   -7564.8336    15078.377    21107.683    77.575764 
   15200    1620.5735   -163.79568     1.466329   -162.32935   -1511.0727    4.2383696    4.2383696    4.2383696   -1511.0727   -10780.243    32143.612   -25896.587   -3365.8084    19195.257    16010.963    76.137123 
   15300    1428.7964   -163.61021     1.292805   -162.31741    37188.003    4.2130293    4.2130293    4.2130293    37188.003    36263.187    36910.451    38390.372   -3801.0692    24303.731    11122.599    74.779653 
   15400    1289.6775   -163.51277    1.1669273   -162.34584    -23216.38    4.2521776    4.2521776    4.2521776    -23216.38   -1441.3536   -36688.064   -31519.723    2956.3132    18704.971    13066.129    76.883682 
   15500    1232.2111   -163.44108    1.1149305   -162.32615   -9504.4095    4.2580182    4.2580182    4.2580182   -9504.4095    3583.6987   -9241.6206   -22855.307    3691.7867    16870.266     13598.63     77.20093 
   15600     1191.374   -163.39181    1.0779802   -162.31383    21787.874    4.2248341    4.2248341    4.2248341    21787.874    14071.762   -1654.2377    52946.098    -3112.057    11869.983    8798.6921    75.410007 
   15700    1453.1466   -163.64266    1.3148376   -162.32783    701.09224    4.2262774    4.2262774    4.2262774    701.09224   -13812.177    16402.031   -486.57726    5038.9153    8923.3851    10263.276     75.48732 
   15800    1364.7752   -163.57765    1.2348773   -162.34277    2438.1035    4.2429304    4.2429304    4.2429304    2438.1035   -32611.224    31290.807    8634.7281   -4437.9872    558.80993    2155.0069     76.38318 
   15900    1161.5946   -163.38982    1.0510352   -162.33879   -19032.914     4.259198     4.259198     4.259198   -19032.914   -26255.325    -18646.85   -12196.568    13023.957   -9841.7313    9394.5371    77.265121 
   16000    1330.5289   -163.54032    1.2038905   -162.33643    14301.144    4.2318777    4.2318777    4.2318777    14301.144    48201.862    1318.7535   -6617.1823     14624.88   -16460.823    12103.545    75.787804 
   16100    1464.4256   -163.65246     1.325043   -162.32741    25698.089    4.2171772    4.2171772    4.2171772    25698.089    27813.464    31907.259    17373.544    3195.3154   -21170.179    3853.1386    75.000741 
   16200    1287.2045   -163.50477    1.1646897   -162.34008   -35394.729    4.2593042    4.2593042    4.2593042   -35394.729   -39233.518    -35515.92   -31434.751    3137.0798   -25494.568    2517.2131    77.270901 
   16300    1443.5422   -163.64629    1.3061473   -162.34015    -6799.592    4.2408784    4.2408784    4.2408784    -6799.592    13213.656    1319.4159   -34931.848   -4968.6236   -32247.468   -7504.3476    76.272408 
   16400    1570.6848    -163.7414    1.4211886   -162.32022    30808.863    4.2081386    4.2081386    4.2081386    30808.863    22359.297    63343.446    6723.8461   -1108.2513   -44949.517   -474.81004    74.519529 
   16500    1381.6948   -163.59909    1.2501865    -162.3489   -31878.135    4.2500252    4.2500252    4.2500252   -31878.135   -41759.095    13280.996   -67156.305   -13008.548   -36052.239   -7887.7964    76.766992 
   16600    1264.4471   -163.47202    1.1440983   -162.32793   -8077.7702    4.2543378    4.2543378    4.2543378   -8077.7702    22547.119    -498.8527   -46281.577   -7287.0843   -32727.368    7485.8427     77.00092 
   16700     1325.471   -163.51406     1.199314   -162.31475    24695.564    4.2269933    4.2269933    4.2269933    24695.564    15305.264      35742.7    23038.729   -16887.309   -31700.254   -11178.538    75.525684 
   16800    1256.3029    -163.4673    1.1367292   -162.33057   -13250.322    4.2380814    4.2380814    4.2380814   -13250.322   -37648.443    14390.623   -16493.146   -4810.9267    -40645.36    3095.3173    76.121596 
   16900    1189.8685   -163.41543    1.0766181   -162.33881   -13253.646    4.2405884    4.2405884    4.2405884   -13253.646   -21314.473    17626.534   -36072.998   -3852.5811   -34208.304    16877.586    76.256761 
   17000    1004.1317   -163.25399   0.90855945   -162.34543    148.53219    4.2368236    4.2368236    4.2368236    148.53219   -24894.164    35395.794   -10056.034   -13791.743   -33258.169    6472.5984    76.053838 
   17100    1014.6668   -163.26301   0.91809186   -162.34492   -2807.9028    4.2360529    4.2360529    4.2360529   -2807.9028   -23544.723    48483.497   -33362.483    5449.2171   -43643.114    17343.254    76.012346 
   17200     1143.167    -163.3789    1.0343615   -162.34453    9506.1376    4.2386778    4.2386778    4.2386778    9506.1376   -1968.4835    22724.045     7762.851    11611.867   -22480.718   -4450.9069    76.153734 
   17300    1217.0478   -163.44176    1.1012104   -162.34055   -23957.953    4.2454095    4.2454095    4.2454095   -23957.953   -52921.054   -5300.3723   -13652.434    11315.933   -39889.312    20815.634    76.517144 
   17400    1075.5883   -163.31267   0.97321488   -162.33946   -1414.5945    4.2321005    4.2321005    4.2321005   -1414.5945   -38752.196    51360.884   -16852.472    9637.8877   -34336.395    51.319554    75.799777 
   17500    775.78324    -163.0477   0.70194497   -162.34576    19633.032    4.2312355    4.2312355    4.2312355    19633.032   -14239.179    12810.142    60328.132    9930.0797   -23614.477    1464.9277    75.753308 
   17600     899.5219   -163.15671   0.81390632    -162.3428   -34264.865    4.2472782    4.2472782    4.2472782   -34264.865   -74261.613    677.28287   -29210.265    8029.8539   -24265.303   -5669.3007    76.618229 
   17700    1094.2774   -163.33194   0.99012519   -162.34181   -10872.141    4.2351821    4.2351821    4.2351821   -10872.141   -30517.463    14833.669   -16932.629    13665.579   -2541.6371   -9123.0786    75.965476 
   17800    947.88517   -163.20258   0.85766642   -162.34491    2880.7614    4.2270013    4.2270013    4.2270013    2880.7614   -1189.8133   -20870.561    30702.658    6951.2694    234.96183   -7794.1327    75.526112 
   17900    600.25407   -162.89912    0.5431225   -162.35599   -6337.0853    4.2396827    4.2396827    4.2396827   -6337.0853   -67084.638    18261.724    29811.657    14928.094    10746.981   -11337.596    76.207914 
   18000    723.87753   -163.00854    0.6549796   -162.35356   -4361.8774    4.2360162    4.2360162    4.2360162   -4361.8774   -44070.822    2436.6559    28548.534    13796.357    11534.947   -5198.6613    76.010366 
   18100    845.48784   -163.11445   0.76501516   -162.34944    3824.3743    4.2375747    4.2375747    4.2375747    3824.3743   -39192.796    20435.993    30229.925    9385.8829    16354.206   -6419.2147    76.094296 
   18200    709.40031   -162.98872    0.6418803   -162.34684   -21809.575    4.2423389    4.2423389    4.2423389   -21809.575   -76868.895   -12776.382    24216.552    13184.508    23701.976     310.5229    76.351238 
   18300     637.6438   -162.92053   0.57695351   -162.34357    23789.991    4.2303202    4.2303202    4.2303202    23789.991   -2079.4236    17325.507     56123.89    2148.6931    17353.176   -15155.309    75.704155 
   18400    888.84969   -163.14861   0.80424988   -162.34436   -13099.976    4.2432331    4.2432331    4.2432331   -13099.976   -13865.557    -21159.75   -4274.6223    14835.071    17786.199    14645.286    76.399529 
   18500    936.24585   -163.18428   0.84713492   -162.33715   -27560.717    4.2450811    4.2450811    4.2450811   -27560.717   -67005.433   -9038.7214   -6637.9956    13194.752    27353.319    216.38492    76.499392 
   18600    883.31925   -163.13358   0.79924582   -162.33433    18951.756    4.2300238    4.2300238    4.2300238    18951.756    11054.464    23453.736    22347.068     12806.87    7674.6933    4649.0933    75.688244 
   18700     956.5977   -163.20742    0.8655497   -162.34187    -15953.92    4.2392157    4.2392157    4.2392157    -15953.92   -39664.904   -5122.4297   -3074.4261    11142.265    7452.6143   -136.88287     76.18273 
   18800    1084.5629   -163.32281   0.98133531   -162.34147   -2156.9655    4.2365106    4.2365106    4.2365106   -2156.9655   -19776.405    38495.557   -25190.048   -4371.6345   -1152.8313    923.98878    76.036986 
   18900    865.87637   -163.12571   0.78346314   -162.34225   -3150.2119    4.2352218    4.2352218    4.2352218   -3150.2119    26256.967   -8193.7265   -27513.876    5723.0612   -22113.286   -2388.4253    75.967612 
   19000    555.42387   -162.84814   0.50255919   -162.34558   -15501.347    4.2446236    4.2446236    4.2446236   -15501.347   -41937.382   -35401.952    30835.294   -12155.724    -22673.37   -4179.1831    76.474661 
   19100    945.53667   -163.19775   0.85554145   -162.34221   -4707.6736    4.2353092    4.2353092    4.2353092   -4707.6736   -10376.969    18166.893   -21912.945   -2908.2165   -35072.333   -1817.4999    75.972316 
   19200    962.22635   -163.21646   0.87064262   -162.34582   -2483.5552    4.2374394    4.2374394    4.2374394   -2483.5552   -30947.608     10443.74    13053.202    -2291.659   -43638.069   -15733.537    76.087008 
   19300    832.69487   -163.09951   0.75343982   -162.34607   -15352.136    4.2461484    4.2461484    4.2461484   -15352.136   -40462.238    9872.5131   -15466.683   -7648.3667    -56204.34   -8806.2227    76.557104 
   19400    824.53283   -163.08196   0.74605463    -162.3359    16695.528    4.2361957    4.2361957    4.2361957    16695.528    16656.345    33053.331    376.90806    -4470.513    -55803.01    -17566.77    76.020029 
   19500    617.70103   -162.89206   0.55890887   -162.33315   -28282.915    4.2394901    4.2394901    4.2394901   -28282.915   -27038.444   -12941.457   -44868.842   -20282.478    -60229.53   -10154.893    76.197529 
   19600    510.61912   -162.80191   0.46201891   -162.33989   -4396.9963    4.2315492    4.2315492    4.2315492   -4396.9963   -34601.271    22425.147   -1014.8644   -4418.5857   -70219.964    1697.5685    75.770157 
   19700    946.93241    -163.2054   0.85680435    -162.3486    2942.4603    4.2333487    4.2333487    4.2333487    2942.4603    -18141.13    21232.485    5736.0267   -10840.675   -73102.169   -11112.827    75.866861 
   19800    1004.9949   -163.25799   0.90934051   -162.34865   -29089.884    4.2495604    4.2495604    4.2495604   -29089.884   -37746.024    2793.2751   -52316.902   -9484.9846   -63242.219     4384.216    76.741809 
   19900    873.47763   -163.13741   0.79034091   -162.34707   -1564.0794    4.2318006    4.2318006    4.2318006   -1564.0794   -23597.031    40907.496   -22002.704    5127.3993    -75447.78    5624.5815    75.783663 
   20000    899.77725   -163.15473   0.81413737   -162.34059    1592.2367    4.2182053    4.2182053    4.2182053    1592.2367    -13048.67    50350.158   -32524.778    1488.6887   -80712.204     6336.217    75.055604 
   20100    603.29998   -162.89859    0.5458785   -162.35271   -8696.2799    4.2472533    4.2472533    4.2472533   -8696.2799   -31996.204    16436.277   -10528.913    1812.9953   -70254.663    9492.9262    76.616887 
   20200     783.4096   -163.04596   0.70884547   -162.33712   -29750.614     4.250355     4.250355     4.250355   -29750.614   -68099.994    13946.673   -35098.521    2615.1218   -74001.659   -5213.9553    76.784861 
   20300    905.36491   -163.14408   0.81919319   -162.32489    12685.012    4.2184786    4.2184786    4.2184786    12685.012   -25991.503    80024.711   -15978.171    6222.4539   -79653.116    7263.1885    75.070198 
   20400    759.73605   -163.03082   0.68742514    -162.3434    7626.3245    4.2326008    4.2326008    4.2326008    7626.3245   -17701.412    69869.694   -29289.309    5095.3739   -76142.062   -4382.3976     75.82666 
   20500    762.63928   -163.02646   0.69005204    -162.3364   -29427.556    4.2499456    4.2499456    4.2499456   -29427.556   -63331.015    7383.0697   -32334.722     2708.482   -72634.055    -6609.209    76.762676 
   20600    613.86475   -162.88929   0.55543773   -162.33385    4760.3396    4.2286309    4.2286309    4.2286309    4760.3396   -20675.469    44997.687   -10041.199   -5129.4411   -75077.295    1054.0289    75.613498 
   20700    487.75809   -162.78231   0.44133377   -162.34098   -3676.4569    4.2290171    4.2290171    4.2290171   -3676.4569   -38164.526    47432.162   -20297.007    222.44837   -82684.971   -1017.7212    75.634221 
   20800    645.81255   -162.92805   0.58434477   -162.34371   -5124.9702    4.2382964    4.2382964    4.2382964   -5124.9702   -31530.063     7726.354    8428.7985    4742.7199   -73226.824    2170.3689    76.133181 
   20900    803.29912   -163.06883   0.72684193   -162.34198   -6610.3936    4.2411903    4.2411903    4.2411903   -6610.3936    -5640.776    14970.751   -29161.156   -1891.4751   -69479.253    7339.7297    76.289238 
   21000     985.9907   -163.23099    0.8921451   -162.33885   -13464.406    4.2373737    4.2373737    4.2373737   -13464.406   -48557.965    45451.785   -37287.038    1964.7579   -76826.103    7868.6048     76.08347 
   21100    1062.7453   -163.29853    0.9615943   -162.33693    13098.192    4.2236717    4.2236717    4.2236717    13098.192    5752.4151    60890.852   -27348.692    1934.0102   -68856.818    5493.8022     75.34778 
   21200    855.26636   -163.12117   0.77386297    -162.3473   -640.92897    4.2374783    4.2374783    4.2374783   -640.92897    20272.761    15495.337   -37690.885    5214.5315   -59464.168    12351.053    76.089104 
   21300    709.99019   -162.98597   0.64241404   -162.34355   -15527.416    4.2431147    4.2431147    4.2431147   -15527.416   -23424.713    5880.0279   -29037.564   -3722.0048   -52823.743    11009.661     76.39313 
   21400    614.53922   -162.89286     0.556048   -162.33681    9001.0435    4.2260613    4.2260613    4.2260613    9001.0435    4392.3984    47446.904   -24836.172    481.24688   -57420.113    9295.8257    75.475741 
   21500    702.13601   -162.97608   0.63530741   -162.34078    9443.5881    4.2347126    4.2347126    4.2347126    9443.5881    18203.825    43308.365   -33181.426   -3303.3671   -45325.521     3193.241    75.940217 
   21600    1001.3213   -163.24118   0.90601652   -162.33517   -10711.504    4.2434638    4.2434638    4.2434638   -10711.504   -783.11534     13009.46   -44360.856   -3836.0102   -43352.693   -10978.569    76.411987 
   21700     1108.604   -163.33683    1.0030882   -162.33374     -7337.71    4.2320384    4.2320384    4.2320384     -7337.71   -14858.888    36921.264   -44075.505   -3263.3179   -56020.906   -15281.605    75.796438 
   21800    951.82294   -163.20017    0.8612294   -162.33894    4200.4956    4.2303356    4.2303356    4.2303356    4200.4956    7987.7963      33184.1   -28570.409    133.65585   -52854.872   -14272.674    75.704985 
   21900    642.82107   -162.92535   0.58163801   -162.34371    -10048.57    4.2341529    4.2341529    4.2341529    -10048.57    15320.445   -27291.279   -18174.877   -4077.1669   -39808.207   -24635.629    75.910108 
   22000    641.54658   -162.92657   0.58048483   -162.34608   -5262.8188    4.2334718    4.2334718    4.2334718   -5262.8188    2046.6553    13461.193   -31296.305   -3115.1633   -43171.998   -27000.687    75.873482 
   22100     825.1324   -163.09315   0.74659713   -162.34656   -205.87739    4.2351889    4.2351889    4.2351889   -205.87739    16009.723    12491.758   -29119.114    3280.6184   -45481.073   -16478.282    75.965843 
   22200    999.35017   -163.25443   0.90423304    -162.3502   -1366.0556    4.2303442    4.2303442    4.2303442   -1366.0556    3391.0737   -894.79852    -6594.442   -12001.986   -27170.516   -22693.392    75.705445 
   22300    1246.1791   -163.47452     1.127569   -162.34696    15038.253    4.2251717    4.2251717    4.2251717    15038.253    9241.7612    46172.007   -10299.011   -1682.2757   -34211.115   -8542.6812    75.428086 
   22400     1147.569   -163.38894    1.0383446    -162.3506   -9879.4726    4.2424967    4.2424967    4.2424967   -9879.4726   -22409.473   -2107.2707   -5121.6741   -784.23518   -31446.621   -6784.7341    76.359755 
   22500    1028.0216   -163.26957   0.93017557   -162.33939   -19021.136    4.2443475    4.2443475    4.2443475   -19021.136   -10300.415   -38310.551    -8452.442   -11723.095   -22923.179    -6687.466    76.459739 
   22600    1331.8093   -163.53356     1.205049   -162.32852    22065.536    4.2233438    4.2233438    4.2233438    22065.536    36396.389    17247.215    12553.002   -2206.4799   -16372.298    652.32917    75.330235 
   22700    1418.2606   -163.61999     1.283272   -162.33671   -2199.1092    4.2374874    4.2374874    4.2374874   -2199.1092    -7937.861    21416.975   -20076.441    2281.4952   -18659.395    1017.7413    76.089591 
   22800    1564.4693   -163.74659    1.4155647   -162.33102   -13875.023    4.2451458    4.2451458    4.2451458   -13875.023   -11707.559    1007.7199   -30925.229   -3136.0876    -16461.22    2875.1206    76.502887 
   22900    1453.4162    -163.6409    1.3150815   -162.32581    5725.1317    4.2290153    4.2290153    4.2290153    5725.1317   -4799.6719    27118.256   -5143.1891   -4148.9749   -9806.4688    7193.5208    75.634122 
   23000    1392.7336    -163.5883    1.2601746   -162.32812   -3681.2857    4.2330422    4.2330422    4.2330422   -3681.2857   -17620.074    20340.312   -13764.095    2742.3987   -15836.252    4323.0624    75.850387 
   23100    1637.5037   -163.81164    1.4816478   -162.32999   -5467.5769    4.2379871    4.2379871    4.2379871   -5467.5769    1974.8313    -6423.543   -11954.019   -611.49547   -10909.362    7083.5173    76.116514 
   23200    1644.6928    -163.8197    1.4881526   -162.33155   -16126.384    4.2367311    4.2367311    4.2367311   -16126.384   -4556.5405   -24112.625   -19709.987    3416.7897   -1157.2081    18479.616    76.048861 
   23300    1665.8061   -163.84004    1.5072563   -162.33279    12168.868      4.22867      4.22867      4.22867    12168.868    41429.041    7997.2634   -12919.701   -1077.9713   -6194.9004    10714.642    75.615599 
   23400    1645.7611   -163.82615    1.4891192   -162.33703    7176.8346     4.230893     4.230893     4.230893    7176.8346    4303.4305    17684.887   -457.81356   -6405.4667    5575.6483    3304.8845    75.734914 
   23500     1588.716   -163.77326    1.4375036   -162.33576   -14139.375     4.242098     4.242098     4.242098   -14139.375   -12193.844    -20598.96   -9625.3214    1761.8117    2960.5554    15611.962    76.338229 
   23600    1769.4318   -163.93387    1.6010191   -162.33286    7569.4028    4.2276203    4.2276203    4.2276203    7569.4028    10341.914    5060.7984    7305.4955   -1842.9552    6602.4785   -3044.7058    75.559297 
   23700    1996.9224   -164.14137    1.8068574   -162.33452    5508.8894    4.2265148    4.2265148    4.2265148    5508.8894    7765.3218      6584.82    2176.5264   -2343.3568    9418.8593   -1720.1489    75.500041 
   23800    1985.1427   -164.13216    1.7961989   -162.33596    9085.1832    4.2357883    4.2357883    4.2357883    9085.1832    51059.952   -23961.809    157.40687   -3695.0036    12640.891   -2634.9434    75.998103 
   23900    1906.5762   -164.05692    1.7251102   -162.33181   -17816.385    4.2388237    4.2388237    4.2388237   -17816.385   -496.59255   -32404.503   -20548.059     158.1396    9599.9673   -7882.2327    76.161603 
   24000    1772.5729   -163.93675    1.6038613   -162.33289   -1103.1248    4.2297818    4.2297818    4.2297818   -1103.1248    2995.0378   -1132.3107   -5172.1015    4102.6666    10395.509   -5268.2613    75.675253 
   24100    1788.1903   -163.94829    1.6179921    -162.3303    38775.846     4.218591     4.218591     4.218591    38775.846    19987.933     42734.42    53605.186   -3953.4554    15788.581   -695.55428    75.076198 
   24200    1880.2513   -164.04221    1.7012909   -162.34092   -24737.887    4.2470221    4.2470221    4.2470221   -24737.887   -25859.133   -18277.843   -30076.683    3727.5674    18200.244    7977.8442    76.604371 
   24300    1837.8865   -163.99162    1.6629583   -162.32866   -15142.991    4.2455445    4.2455445    4.2455445   -15142.991   -12267.645   -22852.573   -10308.756   -2231.7112    8898.8875    -4962.177    76.524446 
   24400    1889.8928   -164.01842    1.7100148   -162.30841    29929.431    4.2164251    4.2164251    4.2164251    29929.431    25622.641    34789.732    29375.921   -2815.1091    6067.8424    7551.9257    74.960622 
   24500    1662.6283   -163.82679    1.5043811    -162.3224   -23365.061    4.2383531    4.2383531    4.2383531   -23365.061   -14697.678   -30719.794   -24677.711   -9392.3264    8019.3332    8628.0328    76.136237 
   24600    1399.9096   -163.58494    1.2666676   -162.31828   -14190.121    4.2433839    4.2433839    4.2433839   -14190.121   -30145.881   -37868.836    25444.354    5015.5651    3606.7205    5493.2326    76.407675 
   24700    1543.6087   -163.71402    1.3966896   -162.31733    6107.7173    4.2270877    4.2270877    4.2270877    6107.7173   -15482.996    29717.964     4088.184    7791.6552   -3928.8554    11532.784    75.530746 
   24800    1828.4552   -163.98233    1.6544247    -162.3279    1219.6534    4.2323978    4.2323978    4.2323978    1219.6534   -19540.161    2760.7772    20438.344   -8030.7956   -4633.1815     5833.376    75.815748 
   24900      1923.08    -164.0731    1.7400432   -162.33306    6525.8275    4.2323407    4.2323407    4.2323407    6525.8275    6046.7087     1273.532    12257.242    12400.717   -6485.7768    8161.8115     75.81268 
   25000    1736.1156   -163.90493    1.5708739   -162.33406    2358.5597    4.2366248    4.2366248    4.2366248    2358.5597    10424.756    17518.706   -20867.782    1724.5544   -6467.4358    -3212.661    76.043132 
   25100    1544.1241   -163.72411    1.3971559   -162.32696   -24060.799    4.2402225    4.2402225    4.2402225   -24060.799   -47344.757   -8016.7066   -16820.935   -3499.9229   -10406.134   -2432.2608    76.237027 
   25200    1341.1382   -163.53749    1.2134901     -162.324    1842.0044    4.2297351    4.2297351    4.2297351    1842.0044   -3543.6835    11474.369    -2404.672    90.135864   -12585.385    353.41892    75.672749 
   25300    1373.5048   -163.57145     1.242776   -162.32868    4245.2239    4.2292265    4.2292265    4.2292265    4245.2239    4584.6789     4006.111    4144.8817    1998.6149   -5922.5017   -468.60296    75.645454 
   25400    1687.3412    -163.8592    1.5267418   -162.33245   -17234.006     4.238738     4.238738     4.238738   -17234.006   -15328.607    -500.4701   -35872.942   -2484.7705   -12986.692    286.28794     76.15698 
   25500    1536.5906   -163.72251    1.3903394   -162.33217    25943.029    4.2364612    4.2364612    4.2364612    25943.029    24794.847    50366.255    2667.9837   -3198.6844   -5518.3046    9589.2909    76.034327 
   25600    1286.4155   -163.49288    1.1639758   -162.32891   -12347.855    4.2382105    4.2382105    4.2382105   -12347.855    -28738.55      11855.1   -20160.115    7228.4715   -8293.8421     13737.63    76.128552 
   25700    1175.3889   -163.38753    1.0635166   -162.32401   -26932.591     4.236177     4.236177     4.236177   -26932.591   -33421.563    2120.2693   -49496.479    -146.0175   -24550.118    1797.9878    76.019023 
   25800    1061.0046   -163.28438   0.96001921   -162.32436    15135.945    4.2314256    4.2314256    4.2314256    15135.945   -9043.5177    33447.765    21003.588    3759.6799   -21810.115    6601.7643     75.76352 
   25900    1241.6834   -163.45264    1.1235013   -162.32914   -31197.785    4.2415416    4.2415416    4.2415416   -31197.785   -37081.938   -30052.913   -26458.505    13621.587    -22961.47    8150.2654    76.308198 
   26000    1424.3835   -163.62326    1.2888121   -162.33445    14556.997    4.2258824    4.2258824    4.2258824    14556.997    32162.419    12438.729   -930.15758    6917.1434   -25303.409    4999.9742    75.466153 
   26100    1347.1928   -163.56135    1.2189684   -162.34238      14037.4    4.2259773    4.2259773    4.2259773      14037.4   -12392.656    47433.574    7071.2804    871.62204   -23411.627     840.8711     75.47124 
   26200    1269.3269   -163.48911    1.1485137   -162.34059   -25635.539    4.2440318    4.2440318    4.2440318   -25635.539   -35262.274   -7707.2528    -33937.09    5410.8683    -25957.91   -2005.3423     76.44268 
   26300    1276.7056   -163.48871      1.15519   -162.33352    15316.311    4.2273546    4.2273546    4.2273546    15316.311    -15978.85    21204.899    40722.885     2902.079    -19140.18    3839.5971    75.545052 
   26400    1379.5366    -163.5834    1.2482337   -162.33517   -11538.251     4.230102     4.230102     4.230102   -11538.251   -25529.514    14433.367   -23518.607   -7512.8496   -31855.938   -4972.0501    75.692444 
   26500    1752.4207   -163.92339    1.5856271   -162.33777    9959.6064    4.2280677    4.2280677    4.2280677    9959.6064    19013.424    1250.9833    9614.4123     1060.667   -15889.379   -899.43322    75.583289 
   26600    1657.0677   -163.84233    1.4993497   -162.34298    5703.0963    4.2332043    4.2332043    4.2332043    5703.0963    19433.993    9232.1712   -11556.875   -4294.2745   -12730.149    4934.1176    75.859101 
   26700    1228.9169   -163.44765    1.1119498    -162.3357   -20521.999    4.2468957    4.2468957    4.2468957   -20521.999   -31303.709    7843.7387   -38106.027   -1201.5562   -21828.766    7955.3579    76.597532 
   26800    1166.7413   -163.38325     1.055692   -162.32755    27847.407    4.2201017    4.2201017    4.2201017    27847.407    1231.3979    42738.718    39572.105    2048.5707    -14675.65    7030.1703    75.156881 
   26900    1319.3576   -163.53072    1.1937825   -162.33694    12980.918    4.2300569    4.2300569    4.2300569    12980.918     39782.16      6593.21   -7432.6156    4732.6232   -15690.843    3173.0442    75.690024 
   27000    1502.2909   -163.68874    1.3593044   -162.32944   -38498.761    4.2504087    4.2504087    4.2504087   -38498.761   -33807.934   -48344.896   -33343.451    12507.503   -17662.085    6379.0344    76.787775 
   27100     1498.144   -163.68572    1.3555521   -162.33017    19489.673    4.2183191    4.2183191    4.2183191    19489.673    32233.333    2059.9251     24175.76    8310.7273   -15881.497    5516.4581    75.061683 
   27200    1296.8085   -163.51174    1.1733795   -162.33836    7245.6458    4.2241177    4.2241177    4.2241177    7245.6458    8806.1931    21849.167   -8918.4229    10925.088   -12168.739    6131.2024    75.371652 
   27300    1254.7492   -163.47173    1.1353234   -162.33641   -23588.941    4.2445077    4.2445077    4.2445077   -23588.941   -56421.524    -22066.79    7721.4913    8768.1173   -7432.5035     1168.206    76.468397 
   27400    1511.1151   -163.70039    1.3672887    -162.3331    17837.469    4.2238422    4.2238422    4.2238422    17837.469    19427.868    20114.987    13969.551   -665.06588   -9677.4416   -1530.6008    75.356906 
   27500    1830.6251   -163.99452    1.6563881   -162.33813    2444.1132    4.2316454    4.2316454    4.2316454    2444.1132   -12381.688    19440.526    273.50088   -1307.0634   -12400.105   -1122.9529    75.775323 
   27600    1998.3114   -164.14193    1.8081141   -162.33382   -16751.582    4.2403735    4.2403735    4.2403735   -16751.582   -10917.587   -18446.166   -20890.994   -542.47969   -16452.417   -1884.9553    76.245169 
   27700    1796.4785   -163.95605    1.6254915   -162.33056    19633.163      4.22581      4.22581      4.22581    19633.163     19755.19    6821.8829    32322.415   -3714.8326   -4611.4029   -1193.7076    75.462277 
   27800    1328.7264   -163.53773    1.2022595   -162.33547   -3766.5781    4.2332905    4.2332905    4.2332905   -3766.5781   -3212.0992    11525.701   -19613.336   -5679.5447   -6184.4638   -6105.1066    75.863733 
   27900    1262.2853   -163.47435    1.1421422   -162.33221   -9511.3203     4.237953     4.237953     4.237953   -9511.3203   -20151.019    1922.1153   -10305.058   -8803.4146   -5580.5929   -3582.8313    76.114677 
   28000    1547.9923    -163.7304     1.400656   -162.32974     9363.661     4.230205     4.230205     4.230205     9363.661   -1292.0946    11994.926    17388.152    3649.1118    1844.1442    455.01687    75.697974 
   28100    1691.7106   -163.86168    1.5306953   -162.33098   -16915.588    4.2370934    4.2370934    4.2370934   -16915.588    2572.9062   -9692.1159   -43627.554    5854.5237   -11600.094    3812.3973    76.068368 
   28200    1715.1647   -163.88048     1.551917   -162.32856    4715.8677    4.2338556    4.2338556    4.2338556    4715.8677     6973.634   -6998.4765    14172.446    2361.6465   -9442.1033    4355.9185     75.89412 
   28300    1424.6244   -163.62031    1.2890301   -162.33128   -3562.6621    4.2326632    4.2326632    4.2326632   -3562.6621    14063.164    9404.7347   -34155.885    2332.6229   -11128.922    5478.8394    75.830015 
   28400    1210.6303   -163.42917    1.0954037   -162.33376   -19020.049    4.2360605    4.2360605    4.2360605   -19020.049   -38554.186    11464.242   -29970.202    1084.5499   -16455.874    998.95901    76.012752 
   28500    1300.7777   -163.51027     1.176971    -162.3333      14440.5    4.2261091    4.2261091    4.2261091      14440.5   -4295.1667    35866.358    11750.309    6634.7113   -11338.866    8912.9496    75.478302 
   28600    1473.5037   -163.67101    1.3332571   -162.33776   -10253.562    4.2390615    4.2390615    4.2390615   -10253.562    2255.6178   -7962.3057   -25053.997   -3973.2179   -19756.779   -4424.8762    76.174417 
   28700    1618.7332   -163.79541    1.4646638   -162.33074   -2767.3994    4.2392535    4.2392535    4.2392535   -2767.3994   -6520.2897     -14575.8    12793.892    1494.2343   -18100.075    1788.3122    76.184772 
   28800    1557.7748    -163.7355    1.4095074   -162.32599   -3548.3761    4.2286743    4.2286743    4.2286743   -3548.3761    957.82374    15193.985   -26796.937   -11602.837   -23200.898   -9140.9461    75.615827 
   28900    1401.5799   -163.59955    1.2681789   -162.33137    15062.204    4.2282995    4.2282995    4.2282995    15062.204    6533.1647    23270.938     15382.51   -1833.0322   -20190.988   -4524.6655    75.595721 
   29000    1263.7768   -163.47971    1.1434918   -162.33622    2278.3248    4.2343679    4.2343679    4.2343679    2278.3248    1240.5047    9383.6603   -3789.1907   -2920.2324    -18885.04   -1401.7795    75.921674 
   29100    1361.2569   -163.56573    1.2316939   -162.33404   -20478.191    4.2433799    4.2433799    4.2433799   -20478.191   -36845.514    12026.756   -36615.815   -6041.8571   -24183.254   -1154.9842    76.407456 
   29200    1474.6151   -163.66638    1.3342627   -162.33212    26880.363    4.2251603    4.2251603    4.2251603    26880.363    27716.633    32782.575    20141.882   -4750.9377   -18243.819    2249.2928    75.427477 
   29300    1533.5218   -163.72415    1.3875628   -162.33659    2332.0218    4.2302387    4.2302387    4.2302387    2332.0218     23384.98    2643.0062   -19031.921   -5798.6105   -19944.383    498.36073    75.699778 
   29400    1286.8062   -163.49297    1.1643293   -162.32864   -26635.749    4.2498852    4.2498852    4.2498852   -26635.749   -46015.812   -11568.025    -22323.41    10921.651   -29923.462    5961.8134    76.759403 
   29500    1083.0359   -163.30511   0.97995366   -162.32515    2054.7464    4.2284617    4.2284617    4.2284617    2054.7464   -6972.1827    18262.776   -5126.3541   -2057.2982   -26959.676    5239.0336    75.604424 
   29600    1059.9219   -163.28625    0.9590396   -162.32721    11880.249    4.2247697    4.2247697    4.2247697    11880.249   -5125.3848    33195.359     7570.773    2724.8574   -35156.533    10399.789    75.406557 
   29700    1349.6688   -163.55756    1.2212087   -162.33635   -8024.7097    4.2416549    4.2416549    4.2416549   -8024.7097   -36113.956    6200.7569      5839.07   -4931.5204   -25241.502   -5450.4478    76.314313 
   29800    1474.8309   -163.67181     1.334458   -162.33735    2822.8475    4.2339532    4.2339532    4.2339532    2822.8475   -2394.5171    29760.493   -18897.433   -1364.5589   -25422.146    4791.3578    75.899369 
   29900    1198.9227   -163.41931    1.0848105    -162.3345    7914.4143    4.2321226    4.2321226    4.2321226    7914.4143   -29195.891    54633.197   -1694.0632   -3648.7902   -35961.942    3873.5748    75.800962 
   30000    934.22344   -163.17571     0.845305    -162.3304   -12725.379    4.2405801    4.2405801    4.2405801   -12725.379   -42374.662    20786.502   -16587.978   -2962.9672   -41917.345    -1351.656    76.256313 
   30100    918.77503   -163.15633   0.83132695   -162.32501   -1744.0717    4.2346797    4.2346797    4.2346797   -1744.0717    4583.3105    15591.703   -25407.228    477.31231   -45632.011    -8736.657    75.938446 
   30200     1101.418   -163.32515   0.99658619   -162.32856    -13929.31    4.2344386    4.2344386    4.2344386    -13929.31   -36865.458    28148.919    -33071.39   -4356.1287   -43642.694   -7793.5509    75.925474 
   30300    1214.2696   -163.43444    1.0986966   -162.33574     7157.639    4.2329467    4.2329467    4.2329467     7157.639    18450.285    25767.837   -22745.205    598.38114   -42622.252    7313.9411    75.845253 
   30400    1054.1068   -163.29197   0.95377802   -162.33819    18476.746    4.2340175    4.2340175    4.2340175    18476.746    15079.662    49176.844   -8826.2684     219.0754   -44611.632     2316.245    75.902829 
   30500    667.12482   -162.93667   0.60362855   -162.33304   -18663.614     4.248814     4.248814     4.248814   -18663.614   -50420.225    39211.255   -44781.872     8438.206   -55161.518      6662.88    76.701376 
   30600    530.39014   -162.80406   0.47990814   -162.32415   -6146.7417    4.2367443    4.2367443    4.2367443   -6146.7417   -4298.9361    45173.118   -59314.407    -652.2489   -57508.898    5211.9475     76.04957 
   30700    854.62736   -163.09309   0.77328479   -162.31981    7411.2828    4.2238531    4.2238531    4.2238531    7411.2828   -15771.389    38015.208   -9.9705331    -5093.868    -55924.61    12603.548    75.357491 
   30800    1028.1503   -163.26317   0.93029202   -162.33287    -18565.12    4.2410081    4.2410081    4.2410081    -18565.12    11967.082    -5096.873   -62565.569    385.64928   -69485.447    11359.337    76.279407 
   30900    1029.8538   -163.27194   0.93183339   -162.34011   -14599.361    4.2396005    4.2396005    4.2396005   -14599.361   -31595.488    21498.506   -33701.101    4236.4911   -71750.285    17096.119    76.203478 
   31000    735.48652   -163.00687   0.66548366   -162.34138    10610.025    4.2228854    4.2228854    4.2228854    10610.025   -21707.937    64122.242   -10584.229   -10284.035   -60418.086    18717.607    75.305707 
   31100    523.35744   -162.82145   0.47354481    -162.3479   -665.40935    4.2335335    4.2335335    4.2335335   -665.40935   -10787.681    58842.037   -50050.584    -5410.435   -61395.151    13580.767    75.876801 
   31200    663.17387   -162.93962   0.60005366   -162.33957   -17595.333    4.2428022    4.2428022    4.2428022   -17595.333   -71812.084    51869.739   -32843.654   -8225.8732   -61330.011   -825.85573    76.376255 
   31300     1077.495   -163.30758   0.97494009   -162.33264     4655.536    4.2317857    4.2317857    4.2317857     4655.536    15677.769        29189   -30900.161   -1927.8578   -64611.759    4462.3778    75.782864 
   31400    1327.7652    -163.5354    1.2013899   -162.33401     -7355.24    4.2302414    4.2302414    4.2302414     -7355.24   -24640.439    24744.698   -22169.979   -3701.6117   -70426.521   -3002.8116    75.699926 
   31500    1131.5766   -163.36249    1.0238742   -162.33861   -888.23776    4.2307493    4.2307493    4.2307493   -888.23776   -39574.267    55718.212   -18808.659   -4488.7941   -60539.753   -4877.7531    75.727197 
   31600    761.14788   -163.02812   0.68870259   -162.33942    14044.706    4.2345054    4.2345054    4.2345054    14044.706   -5077.0568    63394.014   -16182.838     5421.881   -59672.068   -8660.2067    75.929071 
   31700    657.11401   -162.92955   0.59457057   -162.33498   -25491.496    4.2425644    4.2425644    4.2425644   -25491.496   -72714.981    47215.711   -50975.218     -1352.09   -66657.028   -6568.9702    76.363412 
   31800    853.42214   -163.10454   0.77219429   -162.33235   -3142.5564    4.2270539    4.2270539    4.2270539   -3142.5564   -29023.522    43309.346   -23713.493    4028.0537    -71097.26    9593.6834    75.528933 
   31900    936.41932   -163.18552   0.84729188   -162.33823    11092.006    4.2246967    4.2246967    4.2246967    11092.006    7042.2903    44144.922   -17911.195    389.62375   -65887.048    3804.2235     75.40265 
   32000    916.58882   -163.17279   0.82934883   -162.34345   -16691.964    4.2425556    4.2425556    4.2425556   -16691.964    -43051.43     24232.97   -31257.431    2702.4141   -62236.194    13660.468    76.362939 
   32100    638.12908   -162.91867   0.57739261   -162.34128   -1108.6805    4.2341551    4.2341551    4.2341551   -1108.6805    -21157.98    45670.485   -27838.547   -9533.5165   -66958.316    8523.4418    75.910229 
   32200    396.19622   -162.69844   0.35848666   -162.33995    1001.0729    4.2250619    4.2250619    4.2250619    1001.0729   -30240.727    77650.121   -44406.175   -3743.2876   -69231.789    16920.391    75.422204 
   32300    417.95909   -162.72276   0.37817817   -162.34458   -11791.632     4.234875     4.234875     4.234875   -11791.632   -34181.267    28700.364   -29893.993    533.80203   -69514.255    6197.3094     75.94895 
   32400    626.51936   -162.90876   0.56688789   -162.34188   -12508.049    4.2378725    4.2378725    4.2378725   -12508.049    3742.5623    16503.266   -57769.975   -1098.7732   -68712.788    712.68192    76.110339 
   32500    1001.5515    -163.2486   0.90622482   -162.34238    -10365.31    4.2282778    4.2282778    4.2282778    -10365.31   -32796.831    29864.169   -28163.266    2260.8571   -72846.988   -1045.7885    75.594558 
   32600    1101.3673   -163.34199   0.99654028   -162.34545    15621.551    4.2276364    4.2276364    4.2276364    15621.551   -6279.6391    65743.152    -12598.86    3965.9144   -64808.153   -4975.8702    75.560161 
   32700    1030.3876   -163.27769   0.93231633   -162.34538   -4706.2207    4.2380733    4.2380733    4.2380733   -4706.2207    -25689.93    45859.717   -34288.449    15183.989   -63483.964     -9453.51    76.121156 
   32800     962.7705   -163.20984   0.87113498    -162.3387   -6331.7133    4.2351982    4.2351982    4.2351982   -6331.7133   -61096.166    46511.225    -4410.199    -1105.745   -63390.268   -3261.7586    75.966341 
   32900    895.67733   -163.14575   0.81042767   -162.33532    1333.3834    4.2252007    4.2252007    4.2252007    1333.3834   -29807.003    60936.611   -27129.457    590.51487   -60353.794   -4550.9043    75.429638 
   33000     951.1933   -163.20049   0.86065968   -162.33983   -1441.8061    4.2272882    4.2272882    4.2272882   -1441.8061   -24554.313     24796.77   -4567.8751    -878.6333   -52956.504     849.1141    75.541493 
   33100    1064.1102   -163.30602   0.96282932   -162.34319   -9116.6719    4.2365574    4.2365574    4.2365574   -9116.6719   -47462.181     10593.24    9518.9248   -4835.0595   -50108.376    9003.8444    76.039504 
   33200    1060.8049   -163.30259   0.95983853   -162.34275   -4975.1936    4.2323894    4.2323894    4.2323894   -4975.1936   -32253.214    38271.274   -20943.641   -593.79715   -49144.229    7905.0025      75.8153 
   33300    1071.5688   -163.30825   0.96957795   -162.33867    13120.079    4.2269869    4.2269869    4.2269869    13120.079   -21112.984    51110.458    9362.7623    3381.3142   -50268.766    13663.437    75.525342 
   33400    1078.3854   -163.31558   0.97574581   -162.33984   -14840.029    4.2343797    4.2343797    4.2343797   -14840.029   -35164.852    24461.896   -33817.129   -3098.0408   -47777.439    10689.639    75.922309 
   33500    837.05968   -163.09879   0.75738919    -162.3414   -967.49419    4.2300042    4.2300042    4.2300042   -967.49419   -7796.8448     29117.89   -24223.528    5626.3146   -44410.186     6751.363    75.687194 
   33600    804.09699   -163.07333   0.72756385   -162.34577    8838.9639    4.2283831    4.2283831    4.2283831    8838.9639   -6085.7724    51329.354   -18726.689      5819.31   -45376.298    13802.537    75.600205 
   33700    1087.2722   -163.33376   0.98378677   -162.34997   -16955.172    4.2338723    4.2338723    4.2338723   -16955.172   -147.08425   -1340.5837   -49377.849    582.28742   -40953.827    -2639.677     75.89502 
   33800    1230.6139   -163.46446    1.1134853   -162.35097    8666.5401    4.2252415    4.2252415    4.2252415    8666.5401     8537.311    23503.479   -6041.1697    13800.412   -37461.159    3230.2221    75.431825 
   33900    1259.4445   -163.49101    1.1395719   -162.35143   -4226.1383    4.2308069    4.2308069    4.2308069   -4226.1383    -24806.06    30001.598   -17873.953   -5310.7893   -40082.263   -726.18167     75.73029 
   34000     1123.695   -163.36155    1.0167428   -162.34481   -12200.184    4.2365102    4.2365102    4.2365102   -12200.184   -30271.457    31461.221   -37790.315    824.08638   -34662.303    2950.3092    76.036965 
   34100    1012.5501   -163.25474   0.91617665   -162.33856    21092.529    4.2281967    4.2281967    4.2281967    21092.529   -36705.321    86091.881    13891.026     8084.416   -30396.961   -2803.7328    75.590208 
   34200    1243.2106   -163.46442    1.1248831   -162.33954   -1312.3882    4.2362454    4.2362454    4.2362454   -1312.3882   -41568.154     62764.18   -25133.191   -3306.7258   -32654.885   -1639.8183    76.022706 
   34300    1514.1483   -163.70357    1.3700332   -162.33354   -12486.771    4.2372837    4.2372837    4.2372837   -12486.771   -36854.591    21387.598   -21993.321   -2551.3661   -35698.839    312.58894    76.078621 
   34400    1302.8083   -163.50893    1.1788083   -162.33012    6773.5968    4.2283981    4.2283981    4.2283981    6773.5968   -31960.525    24259.651    28021.664   -2684.3146   -32785.048    691.12263    75.601011 
   34500    833.85387   -163.08965   0.75448851   -162.33516   -13305.126    4.2330471    4.2330471    4.2330471   -13305.126   -49062.988    50862.182   -41714.571    4360.5713   -36741.086    6207.5684    75.850649 
   34600    592.70668    -162.8728   0.53629346   -162.33651    7232.1321    4.2304523    4.2304523    4.2304523    7232.1321   -46507.162    84832.638    -16629.08   -301.62588    -34291.27    8341.2603     75.71125 
   34700    801.71001   -163.06353   0.72540406   -162.33812   -13563.737    4.2364279    4.2364279    4.2364279   -13563.737    -37104.08    29033.199   -32620.331   -5136.2892   -39237.002    9309.5525    76.032532 
   34800    1072.2165   -163.30707   0.97016404   -162.33691   -15205.137    4.2392079    4.2392079    4.2392079   -15205.137   -15865.431    20874.927   -50624.908    2437.1812   -47715.265    14762.594    76.182313 
   34900    997.84878   -163.24171   0.90287454   -162.33884    5557.4107    4.2263645    4.2263645    4.2263645    5557.4107   -15543.078      38485.8   -6270.4901    8939.9632    -46375.78    14984.448    75.491987 
   35000    779.36759   -163.05134   0.70518817   -162.34615   -4205.9675     4.226701     4.226701     4.226701   -4205.9675   -9126.1404    39472.645   -42964.407   -148.47206   -44599.104    17387.501     75.51002 
   35100    730.64402   -163.00862   0.66110206   -162.34751   -5557.0122    4.2315734    4.2315734    4.2315734   -5557.0122   -35502.779    38822.443   -19990.701    868.60101   -42124.652    7847.2899    75.771457 
   35200    890.69015   -163.15122   0.80591516   -162.34531   -28086.636    4.2386528    4.2386528    4.2386528   -28086.636   -68234.788    24017.657   -40042.778    2546.6702   -41638.432    4840.1275    76.152389 
   35300     1099.675   -163.33907   0.99500903   -162.34407    1135.8899    4.2297447    4.2297447    4.2297447    1135.8899    -22823.21    54639.601   -28408.722   -6757.3765   -32965.021    2519.9421    75.673262 
   35400    1313.9059    -163.5321    1.1888497   -162.34325    22736.066    4.2266468    4.2266468    4.2266468    22736.066   -20481.733    53402.158    35287.774    6311.9289   -35282.341    2163.5795    75.507112 
   35500    1308.7239   -163.52579    1.1841609   -162.34163   -23366.213    4.2439243    4.2439243    4.2439243   -23366.213    -69474.96    39998.044   -40621.724    -4651.219   -37604.656   -8489.9052    76.436867 
   35600     1020.102   -163.25438    0.9230097   -162.33137    2321.0283    4.2309484    4.2309484    4.2309484    2321.0283     -48071.7    39824.272    15210.513    5504.2023   -39119.463   -4567.1607     75.73789 
   35700    1062.9026   -163.28984   0.96173659   -162.32811   -6362.7525    4.2272096    4.2272096    4.2272096   -6362.7525   -42083.937    36790.417   -13794.737   -6157.5882   -40930.105   -12882.936    75.537281 
   35800    1209.8476   -163.42849    1.0946956   -162.33379   -14858.582    4.2346988    4.2346988    4.2346988   -14858.582   -56939.496    34941.751       -22578    3431.1509   -42421.214   -3181.7155     75.93947 
   35900    1475.9742   -163.67144    1.3354925   -162.33595    11592.626    4.2278595    4.2278595    4.2278595    11592.626   -12955.789    35249.896     12483.77    6610.0995    -40122.48   -13095.479    75.572125 
   36000    1582.5751   -163.77184    1.4319472   -162.33989    -7368.815    4.2385189    4.2385189    4.2385189    -7368.815   -24101.769    22614.366   -20619.041    1485.2383   -38109.261   -4240.1195    76.145173 
   36100    1442.8742   -163.64248    1.3055429   -162.33693    2828.7535    4.2292685    4.2292685    4.2292685    2828.7535   -33736.003    23898.218    18324.045   -2832.4934   -34112.929    2550.6374    75.647708 
   36200    1256.1893   -163.47077    1.1366264   -162.33415    12012.398    4.2241242    4.2241242    4.2241242    12012.398    16172.615    16584.757    3279.8209    -4979.061   -27873.335   -1807.7775       75.372 
   36300    1110.7011   -163.33994    1.0049857   -162.33495   -20891.745    4.2403122    4.2403122    4.2403122   -20891.745   -35279.541    5327.9536   -32723.647    2566.8615   -29663.218    9672.5725    76.241865 
   36400    1250.8992   -163.46725    1.1318399   -162.33541    979.05579    4.2278473    4.2278473    4.2278473    979.05579   -19543.281     34219.11   -11738.661   -5378.8371   -23807.055    2892.0391     75.57147 
   36500    1457.8413   -163.65665    1.3190854   -162.33757    22200.902    4.2263153    4.2263153    4.2263153    22200.902    31687.118    57841.683   -22926.096   -277.62147   -19868.712    13510.711    75.489352 
   36600    1554.1885   -163.74373    1.4062624   -162.33747   -12440.739    4.2407422    4.2407422    4.2407422   -12440.739   -38871.149    32006.086   -30457.155   -5258.9103   -18801.833   -2659.1456     76.26506 
   36700    1374.4766   -163.57506    1.2436553   -162.33141   -3653.7984    4.2332395    4.2332395    4.2332395   -3653.7984    7677.4606    20322.959   -38961.815    7620.9888   -35224.083    5839.0204    75.860991 
   36800    1021.5087   -163.25304   0.92428254   -162.32876   -9637.7282    4.2321727    4.2321727    4.2321727   -9637.7282   -3410.2388    18943.663   -44446.609   -4474.1159   -42580.597   -4134.9242    75.803657 
   36900    856.46605   -163.10854   0.77494849    -162.3336   -8194.6604    4.2310604    4.2310604    4.2310604   -8194.6604    -32167.44    20012.639   -12429.181    6879.9883   -37670.782    4104.4764    75.743902 
   37000    970.84022   -163.21745   0.87843663   -162.33901    22256.168    4.2274138    4.2274138    4.2274138    22256.168    41154.666    38002.323   -12388.484    4853.7394    -36499.19   -4539.3775     75.54823 
   37100    1251.6744    -163.4744    1.1325413   -162.34186   -13064.201    4.2403327    4.2403327    4.2403327   -13064.201   -44930.184    28987.801   -23250.219    2824.3774   -43664.184    -471.6841    76.242968 
   37200    1383.1649   -163.58931    1.2515167   -162.33779    12513.579    4.2319161    4.2319161    4.2319161    12513.579   -1953.8121    42169.381   -2674.8306    2960.4852   -44048.887   -392.35472    75.789866 
   37300    1192.3838   -163.41152     1.078894   -162.33262   -5908.4094    4.2301796    4.2301796    4.2301796   -5908.4094   -20318.834    31435.318   -28841.713   -2560.4949   -42917.687    8807.7344     75.69661 
   37400    872.63336   -163.12028     0.789577   -162.33071   -21243.547    4.2387328    4.2387328    4.2387328   -21243.547   -54860.186     12345.27   -21215.724    2507.3964   -42586.456     7186.527    76.156701 
   37500    831.22635   -163.08502   0.75211107    -162.3329    11563.599    4.2267617    4.2267617    4.2267617    11563.599   -10055.595    53522.833   -8776.4412    -4098.072   -32994.964    1063.4769     75.51327 
   37600    999.14559   -163.24346   0.90404793   -162.33941    1055.8692    4.2285786    4.2285786    4.2285786    1055.8692   -25803.155    43047.543   -14076.781    4795.3164   -33472.606    5650.1957    75.610694 
   37700    1195.3229   -163.42283    1.0815533   -162.34128    2865.9158    4.2339756    4.2339756    4.2339756    2865.9158   -34415.906    22100.451    20913.202   -3248.1597   -21182.966    164.92674    75.900571 
   37800    1172.6017    -163.4018    1.0609947   -162.34081   -11344.591    4.2311038    4.2311038    4.2311038   -11344.591   -42252.584    31417.867   -23199.057    2318.1625   -18294.226   -1101.7511    75.746235 
   37900    935.20382   -163.18563   0.84619207   -162.33944   -10107.149    4.2332264    4.2332264    4.2332264   -10107.149   -31295.563    19893.284   -18919.168    2051.7426   -21984.739   -6723.9435    75.860288 
   38000    836.28008   -163.09512   0.75668379   -162.33844   -6655.8618    4.2301245    4.2301245    4.2301245   -6655.8618   -50458.041    30239.007    251.44869    7615.7727   -8426.0564   -5376.8215    75.693649 
   38100    947.13299   -163.19793   0.85698583   -162.34095   -6755.8316    4.2289784    4.2289784    4.2289784   -6755.8316   -44986.608    41275.121   -16556.008    1508.9657   -16257.956   -6986.8913    75.632141 
   38200    1227.6773   -163.45356    1.1108282   -162.34273    4170.2987    4.2338832    4.2338832    4.2338832    4170.2987   -8466.5553    11600.123    9377.3282      1470.74     -10913.9   -4427.1701    75.895603 
   38300    1454.0002   -163.65465      1.31561   -162.33904   -8915.6794     4.233591     4.233591     4.233591   -8915.6794   -24487.087   -11574.363    9314.4116    7951.4038   -6052.4668   -769.05958     75.87989 
   38400    1378.5333   -163.58318    1.2473259   -162.33586   -7618.8489    4.2281186    4.2281186    4.2281186   -7618.8489   -24457.563   -626.36227    2227.3783   -5701.5906   -8191.0728    5793.3057    75.586019 
   38500    1045.3574   -163.28243   0.94586137   -162.33656   -1189.2287    4.2341759    4.2341759    4.2341759   -1189.2287   -4583.9245    6523.4374    -5507.199   -268.69556    -5266.873    687.56436    75.911345 
   38600    928.83926    -163.1744   0.84043328   -162.33396   -10609.049     4.238576     4.238576     4.238576   -10609.049   -37866.434    21885.608   -15846.321   -1969.2037   -3972.7693     13027.34     76.14825 
   38700    1130.3296   -163.35578    1.0227459   -162.33303   -4456.3974    4.2284649    4.2284649    4.2284649   -4456.3974   -18351.138    3854.7408    1127.2052   -14660.607   -985.93729    17084.311    75.604596 
   38800    1358.3256   -163.56516    1.2290416   -162.33612    12863.829    4.2303339    4.2303339    4.2303339    12863.829    21226.993   -5849.5492    23214.042   -8809.9587   -9416.8607    14964.983     75.70489 
   38900    1387.3668   -163.59141    1.2553186   -162.33609   -14877.169    4.2401839    4.2401839    4.2401839   -14877.169   -12756.699   -41814.299    9939.4907   -15982.188    1842.7845    6654.8135    76.234943 
   39000    1100.8593   -163.33133   0.99608058   -162.33525    -12059.83    4.2294317    4.2294317    4.2294317    -12059.83   -7074.5841   -35688.672    6583.7668   -2864.6478    1256.7817    15295.584    75.656467 
   39100    968.96957   -163.21234   0.87674403   -162.33559    15558.527    4.2225176    4.2225176    4.2225176    15558.527    27132.785    4313.0283    15229.766   -3791.6334    7159.8254    2187.4754    75.286031 
   39200    1232.8019   -163.45664    1.1154651   -162.34118   -18938.051    4.2351286    4.2351286    4.2351286   -18938.051   -28343.858   -19426.898   -9043.3985   -743.74476    24066.218    5986.6202      75.9626 
   39300    1624.7765   -163.81041    1.4701319   -162.34028   -2617.0469    4.2314833    4.2314833    4.2314833   -2617.0469    8016.4418   -24470.851    8603.2681    2491.9809    22741.344   -2319.7083    75.766615 
   39400    1816.0334   -163.98474    1.6431852   -162.34155    3707.0828    4.2277384    4.2277384    4.2277384    3707.0828     20741.58   -3332.2182   -6288.1138   -3552.2798    36291.271   -4317.7671    75.565631 
   39500    1615.4793    -163.8061    1.4617196   -162.34438    411.05919    4.2264191    4.2264191    4.2264191    411.05919   -7667.4214      12071.5   -3170.9011    8783.9156    36378.128   -5445.8254    75.494913 
   39600    1240.4155   -163.46814     1.122354   -162.34579    15988.634    4.2263024    4.2263024    4.2263024    15988.634    36197.494    14982.357   -3213.9476   -775.70727    36320.743   -14588.841    75.488656 
   39700    1157.9824   -163.39181    1.0477668   -162.34404   -21766.854    4.2376973    4.2376973    4.2376973   -21766.854   -33060.756    3135.7988   -35375.605    2438.5195    36735.918   -9642.5266    76.100899 
   39800    1341.6287   -163.55477    1.2139338   -162.34084    6476.2683     4.227635     4.227635     4.227635    6476.2683    15831.559    17289.913   -13692.667    4089.2818    29331.695    -16812.34    75.560087 
   39900    1625.6263   -163.81188    1.4709008   -162.34098    8332.7185    4.2243857    4.2243857    4.2243857    8332.7185    14795.883    15852.867   -5650.5948   -4216.1819    30649.097   -7188.1039       75.386 
   40000    1722.7854   -163.89993    1.5588124   -162.34112   -6510.6311     4.236535     4.236535     4.236535   -6510.6311   -6581.2262    10795.071   -23745.739    4430.1667    24761.262   -12607.894    76.038299 
   40100    1475.4638   -163.67324    1.3350307   -162.33821    8101.7886    4.2286985    4.2286985    4.2286985    8101.7886    9319.4726    18480.374   -3494.4811   -12261.251    19863.514   -8455.4495    75.617124 
   40200    1290.5148   -163.50466    1.1676849   -162.33698     -11924.9    4.2290158    4.2290158    4.2290158     -11924.9    -33367.61    14373.948   -16781.038   -3513.7482    20229.041    -956.6147    75.634147 
   40300    1335.4776   -163.54478    1.2083682   -162.33641   -2420.5285    4.2303696    4.2303696    4.2303696   -2420.5285   -14144.268     17035.32   -10152.637   -7335.4264    15385.386    6409.5063     75.70681 
   40400    1637.4622    -163.8191    1.4816102   -162.33749    7524.1693    4.2257004    4.2257004    4.2257004    7524.1693   -7824.0156    12819.536    17576.987   -14137.382    8778.9772    15033.767    75.456405 
   40500    1877.8168   -164.03964    1.6990881   -162.34055   -4843.8596    4.2361229    4.2361229    4.2361229   -4843.8596   -13238.053   -3260.7651    1967.2394   -5027.9049    7626.7376    5600.5527     76.01611 
   40600    1855.8192   -164.01728    1.6791842   -162.33809    8399.5186    4.2292365    4.2292365    4.2292365    8399.5186    19363.337   -2504.8664    8340.0851    -12233.83    4885.1228    10993.534     75.64599 
   40700    1632.6228   -163.81254    1.4772314    -162.3353    674.60358     4.225383     4.225383     4.225383    674.60358   -4227.6607    6397.7273    -146.2558    988.01094    409.15526    1044.6316    75.439404 
   40800    1342.9166   -163.55085    1.2150991   -162.33575   -3903.4082    4.2342502    4.2342502    4.2342502   -3903.4082   -1812.1856   -2313.8268   -7584.2122   -2393.2536   -6475.9315    282.61205    75.915343 
   40900    1372.0749   -163.57603    1.2414822   -162.33455    -8944.065    4.2289547    4.2289547    4.2289547    -8944.065    7193.7767   -9703.5529   -24322.419    6615.4906   -8618.2058   -19894.337    75.630871 
   41000    1562.3293   -163.75192    1.4136284    -162.3383    4493.1416    4.2283417    4.2283417    4.2283417    4493.1416    4457.6463    16321.134   -7299.3557    3337.4615   -10752.007   -17584.707    75.597985 
   41100    1845.7589   -164.00967    1.6700815   -162.33959    11142.361    4.2296832    4.2296832    4.2296832    11142.361    46016.519   -16198.502    3609.0661    8961.8263   -11879.879   -27036.321    75.669965 
   41200    1809.9196    -163.9764    1.6376533   -162.33874   -13473.488    4.2342525    4.2342525    4.2342525   -13473.488    20328.622   -31584.268   -29164.818    4602.2247   -16861.818   -31552.794    75.915465 
   41300     1441.273   -163.63891    1.3040941   -162.33482   -2305.5954    4.2353689    4.2353689    4.2353689   -2305.5954    10671.322   -1712.1329   -15875.976   -4027.7984   -18068.304   -30672.558    75.975527 
   41400    1219.4185   -163.43594    1.1033554   -162.33259    846.90998    4.2224365    4.2224365    4.2224365    846.90998     20658.35   -1129.3201     -16988.3    879.23344   -21710.361   -39027.801    75.281696 
   41500    1254.0431    -163.4748    1.1346846   -162.34012   -5260.0163       4.2265       4.2265       4.2265   -5260.0163    14629.822   -12174.844   -18235.028   -6864.9194   -24942.696    -37235.94    75.499244 
   41600    1541.7632   -163.73939    1.3950197   -162.34437    1306.3273    4.2333474    4.2333474    4.2333474    1306.3273   -1787.2718   -4416.4539    10122.708    1995.3969    -19735.93   -34120.348    75.866796 
   41700     1834.489   -164.00365    1.6598842   -162.34377   -5972.1354    4.2308292    4.2308292    4.2308292   -5972.1354    15737.632    -19720.41   -13933.629   -7352.4086   -22461.358   -20071.498    75.731484 
   41800    1718.2838   -163.89586    1.5547393   -162.34112    3323.2978    4.2314567    4.2314567    4.2314567    3323.2978    23648.243   -31626.891    17948.542    5583.9926   -18897.316    -25498.57    75.765185 
   41900    1406.5917   -163.61095    1.2727137   -162.33823    7209.7066    4.2277403    4.2277403    4.2277403    7209.7066    1881.1035    9543.7387    10204.278    10598.467   -9001.1318   -6547.7576    75.565735 
   42000    1211.4562   -163.43468     1.096151   -162.33853   -4018.7112    4.2322298    4.2322298    4.2322298   -4018.7112   -5790.4338    3287.5814   -9553.2812    10235.299   -2370.5515   -8432.8142    75.806721 
   42100    1265.9592   -163.48406    1.1454665    -162.3386   -6658.9793    4.2317694    4.2317694    4.2317694   -6658.9793   -5955.7202   -12354.353   -1666.8641    18396.158    5302.2876   -1998.1517    75.781988 
   42200    1597.5771   -163.78513    1.4455213   -162.33961    17036.382    4.2223924    4.2223924    4.2223924    17036.382    4130.5833    16051.374    30927.189    12710.585    13266.646    9179.1798    75.279337 
   42300    1884.3037   -164.04915    1.7049576    -162.3442   -9584.8498    4.2326958    4.2326958    4.2326958   -9584.8498   -15964.951    -7417.214   -5372.3847    15624.185     25410.61    1956.7508    75.831766 
   42400    1765.7026   -163.93756    1.5976448   -162.33991   -9250.8393    4.2352228    4.2352228    4.2352228   -9250.8393   -15467.402   -4715.6557   -7569.4604    8822.8281    23548.539    13808.001    75.967665 
   42500     1460.211   -163.65873    1.3212296    -162.3375    10606.038    4.2243878    4.2243878    4.2243878    10606.038   -10601.253    21416.332    21003.036    3869.9414    19332.497    3234.4844    75.386113 
   42600    1390.0753   -163.59864    1.2577694   -162.34087   -6380.7205     4.226109     4.226109     4.226109   -6380.7205   -30816.342    23907.772   -12233.592    2119.6489    19385.699    7113.7706    75.478298 
   42700    1524.3429   -163.72339    1.3792575   -162.34413   -173.64867     4.231281     4.231281     4.231281   -173.64867   -22066.872    14503.637    7042.2882   -16166.749    8166.7267    1782.2062    75.755753 
   42800    1716.9809   -163.89904    1.5535604   -162.34548   -3220.0034     4.233375     4.233375     4.233375   -3220.0034   -16188.984    7818.8563   -1289.8825   -4549.1844   -10440.277   -2585.9517    75.868277 
   42900    1770.1706   -163.94682    1.6016876   -162.34513    6899.7179    4.2299669    4.2299669    4.2299669    6899.7179    15435.226    18239.735   -12975.807   -13209.043   -15480.749   -850.82083    75.685191 
   43000    1642.6742   -163.83049    1.4863262   -162.34416    5915.1679    4.2248792    4.2248792    4.2248792    5915.1679    3146.1457    11509.737    3089.6206   -7461.8694   -21648.691   -5781.2299    75.412419 
   43100     1362.375   -163.57846    1.2327055   -162.34576   -4588.1444    4.2331782    4.2331782    4.2331782   -4588.1444    1324.0318    27155.282   -42243.747     2064.613   -18838.649   -4133.5278    75.857698 
   43200    1195.9108   -163.42088    1.0820852   -162.33879   -8345.8797    4.2346256    4.2346256    4.2346256   -8345.8797    891.23126    21176.579    -47105.45   -70.434183   -24765.524   -7162.3398    75.935533 
   43300    1331.3633    -163.5408    1.2046455   -162.33615   -526.75938    4.2302316    4.2302316    4.2302316   -526.75938    1353.6371    8575.6878   -11509.603     8248.399   -27037.835    4048.4094    75.699398 
   43400    1651.2925   -163.83291    1.4941242   -162.33879    3357.3003    4.2296836    4.2296836    4.2296836    3357.3003    17728.995    10181.529   -17838.623    3254.8201   -13095.448    1735.5267    75.669982 
   43500     1848.144   -164.01361    1.6722395   -162.34137    2544.1485    4.2276719    4.2276719    4.2276719    2544.1485    21496.703   -10610.592   -3253.6657    12796.626   -16005.099    5487.5241    75.562065 
   43600    1817.0871   -163.98702    1.6441386   -162.34288   -7739.3583     4.235675     4.235675     4.235675   -7739.3583    29798.372   -38635.268   -14381.179    15245.166   -378.74524    14499.354    75.992002 
   43700    1575.9702   -163.76471    1.4259709   -162.33874   -6867.0785    4.2346147    4.2346147    4.2346147   -6867.0785    5571.4131   -12288.931   -13883.718     22631.18   -2195.5988    10190.887     75.93495 
   43800    1184.6699   -163.40898    1.0719142   -162.33706    6707.8864     4.226239     4.226239     4.226239    6707.8864    7136.9115   -481.44722    13468.195    22904.107    8383.2483    11180.827    75.485261 
   43900    1004.9951   -163.25086   0.90934066   -162.34152   -7845.3084    4.2314703    4.2314703    4.2314703   -7845.3084   -15006.785   -18234.224     9705.084    30288.821     8389.539    13648.314    75.765918 
   44000    1164.2987   -163.39415     1.053482   -162.34067   -2283.6839     4.235575     4.235575     4.235575   -2283.6839    13814.509   -1478.7194   -19186.842    22252.187    13282.063    13878.686    75.986623 
   44100    1433.5196   -163.63848    1.2970787    -162.3414   -4680.9237    4.2294366    4.2294366    4.2294366   -4680.9237    5878.1305   -18439.485    -1481.417    18497.712    11883.667    11626.888    75.656726 
   44200     1486.813   -163.68798    1.3452996   -162.34268    7100.3369    4.2255975    4.2255975    4.2255975    7100.3369    38459.331   -25401.995    8243.6747    15023.016    9612.4112    12388.282    75.450892 
   44300    1306.7031   -163.52802    1.1823324   -162.34568   -1912.1756    4.2318029    4.2318029    4.2318029   -1912.1756    11455.022   -14266.247   -2925.3021    -12671.43    17440.446    8617.2452    75.783785 
   44400     975.0436   -163.22892   0.88223994   -162.34668   -3773.0955     4.230029     4.230029     4.230029   -3773.0955   -2728.3873   -10424.322    1833.4233   -7508.4456    8980.7602     1448.274    75.688522 
   44500    745.10035     -163.023   0.67418245   -162.34882      6955.56    4.2272563    4.2272563    4.2272563      6955.56    36958.441   -15880.058   -211.70308   -21964.836    5971.6782   -579.11564    75.539785 
   44600    853.81456   -163.12464   0.77254936   -162.35209   -8467.8222    4.2291493    4.2291493    4.2291493   -8467.8222    7115.7152   -4935.8469   -27583.335   -31469.296    -2780.166   -7024.9586    75.641309 
   44700    1084.6329   -163.33386   0.98139866   -162.35247   -1664.0812    4.2315732    4.2315732    4.2315732   -1664.0812     16333.82    -14988.96   -6337.1032   -30212.914   -5468.4484   -12475.909    75.771446 
   44800    1057.3702    -163.3038   0.95673078   -162.34707    -2346.256    4.2397146    4.2397146    4.2397146    -2346.256    29794.356   -43788.607     6955.483   -23624.796   -16680.394   -13515.102    76.209631 
   44900    855.02367   -163.11073   0.77364339   -162.33708   -4093.0283    4.2340389    4.2340389    4.2340389   -4093.0283   -36679.481    9361.7285    15038.668   -31579.639   -16004.437   -13218.662    75.903976 
   45000    628.64136   -162.90024   0.56880792   -162.33143    8185.8021    4.2286888    4.2286888    4.2286888    8185.8021   -10561.995    5745.1738    29374.228   -28281.307   -11723.804   -27754.152    75.616603 
   45100    554.56875   -162.83452   0.50178546   -162.33273   -10351.356    4.2424906    4.2424906    4.2424906   -10351.356   -17009.113     7521.534   -21566.489   -24419.088   -14540.116   -29762.492    76.359426 
   45200    774.39412    -163.0354   0.70068808   -162.33471   -3993.2449    4.2337076    4.2337076    4.2337076   -3993.2449   -20980.411    11457.359   -2456.6828   -33452.998   -14882.665   -27647.728    75.886159 
   45300    899.81634   -163.15488   0.81417274   -162.34071    11278.437    4.2199189    4.2199189    4.2199189    11278.437    19921.986   -4432.8425    18346.167   -27430.208   -21138.117   -26122.379    75.147114 
   45400     695.9104   -162.98227   0.62967435    -162.3526   -12886.273    4.2307033    4.2307033    4.2307033   -12886.273   -13789.241   -20372.623   -4496.9563   -29473.622   -27000.705   -33179.389    75.724724 
   45500    418.28131   -162.73516   0.37846972   -162.35669   -6947.4883    4.2330257    4.2330257    4.2330257   -6947.4883   -37395.435    2054.0166    14498.954    -22854.95    -34010.62   -18183.873      75.8495 
   45600    503.93814   -162.80833   0.45597382   -162.35236   -13939.978    4.2306528    4.2306528    4.2306528   -13939.978    -41638.54    3349.9994   -3531.3943   -24620.847   -35797.703   -16950.647    75.722015 
   45700    895.82826   -163.15945   0.81056424   -162.34888    4475.7108    4.2303561    4.2303561    4.2303561    4475.7108   -3643.7367    12944.116     4126.753   -18172.893   -36108.576   -20427.305    75.706082 
   45800    1101.1739   -163.34219   0.99636527   -162.34583    10123.574    4.2363094    4.2363094    4.2363094    10123.574   -14412.269    45511.672   -728.68013   -20595.225   -35431.301   -13279.281    76.026154 
   45900    1149.5895   -163.37579    1.0401727   -162.33562   -4474.4998    4.2392414    4.2392414    4.2392414   -4474.4998   -12618.464    26259.448   -27064.483   -17567.695   -44189.948   -8442.9464     76.18412 
   46000    870.75597    -163.1163    0.7878783   -162.32842   -7106.4416     4.234637     4.234637     4.234637   -7106.4416   -15484.632    8444.5205   -14279.213   -9278.8659    -41641.79    -6931.086    75.936147 
   46100    684.86015   -162.94721   0.61967585   -162.32754   -8418.8716    4.2317231    4.2317231    4.2317231   -8418.8716   -50975.912    44696.911   -18977.613   -15705.541   -47919.221    1592.9233      75.7795 
   46200    980.85494   -163.22101   0.88749817   -162.33351   -11132.646    4.2312684    4.2312684    4.2312684   -11132.646   -27838.936    30791.473   -36350.475   -2949.7963    -44518.54    5238.4031    75.755071 
   46300    1443.3187   -163.64564    1.3059451   -162.33969     -7068.41    4.2310379    4.2310379    4.2310379     -7068.41    -12742.23    3744.3259   -12207.326   -3930.2481   -43610.779    2120.4267    75.742695 
   46400    1613.7959   -163.80462    1.4601964   -162.34443    10783.165    4.2244505    4.2244505    4.2244505    10783.165   -5272.7442    38075.256   -453.01559     4082.252   -33961.728    9136.3214    75.389468 
   46500    1523.9118   -163.72571    1.3788675   -162.34684    4633.0697    4.2276069    4.2276069    4.2276069    4633.0697   -17364.185    43276.598   -12013.203    15014.338   -21799.859    7860.7119    75.558583 
   46600    1281.6158   -163.50442    1.1596329   -162.34479    4637.3191    4.2344908    4.2344908    4.2344908    4637.3191   -33304.929    48736.852   -1519.9661    9289.8563   -10137.288    7271.0572    75.928282 
   46700    1239.2733   -163.46058    1.1213205   -162.33926   -1095.5891    4.2318565    4.2318565    4.2318565   -1095.5891   -36726.056     40596.67   -7157.3819    15684.519     -5530.18   -101.81519    75.786666 
   46800    1395.7238   -163.60035    1.2628802   -162.33747   -2878.2619    4.2287103    4.2287103    4.2287103   -2878.2619   -33579.011    29188.629   -4244.4039    11841.222     -1765.47    3107.6044    75.617759 
   46900    1626.3268   -163.81191    1.4715347   -162.34038    3124.7233    4.2273395    4.2273395    4.2273395    3124.7233   -26262.358    15152.168     20484.36    13317.441    6843.0889    1758.0748    75.544247 
   47000    1635.4598   -163.82325    1.4797984   -162.34345   -1882.7192     4.228322     4.228322     4.228322   -1882.7192   -18178.102    2557.5043    9972.4402    2837.5038     9335.542   -6017.7322    75.596932 
   47100    1607.9616   -163.79712    1.4549174   -162.34221    3359.1115    4.2309017    4.2309017    4.2309017    3359.1115   -18240.131    6545.4294    21772.036   -4625.4068    7049.5344   -3265.8301    75.735382 
   47200    1735.6336   -163.91064    1.5704378    -162.3402    81.762006    4.2324624    4.2324624    4.2324624    81.762006    -15039.67    2407.2658     12877.69   -3382.8592     10964.65    3470.0322    75.819224 
   47300     1925.603   -164.08181     1.742326   -162.33948    9206.4104    4.2250991    4.2250991    4.2250991    9206.4104   -3640.9797    2631.9979    28628.213   -7154.6574    9728.7248    3114.0171    75.424196 
   47400    2152.2255   -164.28849    1.9473788   -162.34111    12755.034    4.2261293    4.2261293    4.2261293    12755.034    683.77577    7591.4088    29989.918    -7187.783    8026.5513   -2238.8597    75.479385 
   47500    2104.7549   -164.24553    1.9044265    -162.3411   -4773.9376    4.2377875    4.2377875    4.2377875   -4773.9376   -363.43035   -27297.957    13339.575   -13647.211    6641.8272   -1474.4371    76.105761 
   47600    1852.4103   -164.01735    1.6760998   -162.34125    5387.9215    4.2264218    4.2264218    4.2264218    5387.9215    11412.481   -30785.803    35537.086   -13035.513    11735.046    6918.5703    75.495057 
   47700    1642.9326   -163.82889    1.4865599   -162.34233    14162.094    4.2205667    4.2205667    4.2205667    14162.094   -4628.0087    6697.4705    40416.821   -7381.2231    2988.6269   -162.01891    75.181727 
   47800    1441.0199   -163.64932    1.3038651   -162.34546   -10608.342     4.235041     4.235041     4.235041   -10608.342   -27968.882   -6094.5282    2238.3856   -1800.5752    8603.5835    1936.3642    75.957886 
   47900    1472.1487   -163.67399     1.332031   -162.34196   -4062.7482    4.2349693    4.2349693    4.2349693   -4062.7482   -30883.856   -1682.2985     20377.91   -1774.2196    2227.1585    6583.0219    75.954029 
   48000    1638.5302   -163.82208    1.4825765    -162.3395    8055.1787    4.2255212    4.2255212    4.2255212    8055.1787   -20309.103    30427.292    14047.347   -30.147588   -4564.3383    6738.2172    75.446806 
   48100    1540.5573   -163.73407    1.3939286   -162.34014    3936.4641    4.2289043    4.2289043    4.2289043    3936.4641   -19362.591    31867.885   -695.90108    9614.1911   -5583.1206    4573.3016    75.628167 
   48200    1221.3351   -163.44468    1.1050897   -162.33959   -4056.0483     4.234673     4.234673     4.234673   -4056.0483   -34694.207    10941.449    11584.613    11659.998   -14926.366   -3598.6552    75.938084 
   48300    1101.9715    -163.3364   0.99708699   -162.33931   -7684.4276    4.2293616    4.2293616    4.2293616   -7684.4276   -42174.881    16974.953    2146.6452    12682.864   -21820.964    3379.3648    75.652702 
   48400    1241.5756    -163.4641    1.1234037    -162.3407    4894.4985    4.2221111    4.2221111    4.2221111    4894.4985   -27890.702    32945.734    9628.4637     16116.56   -38361.995   -788.55578     75.26429 
   48500    1500.2035   -163.70437    1.3574156   -162.34696    49.706126    4.2289294    4.2289294    4.2289294    49.706126   -23144.001     32547.74     -9254.62    15829.091   -36800.505    2996.7421    75.629515 
   48600    1773.5936   -163.95061    1.6047848   -162.34583   -9189.3065    4.2354147    4.2354147    4.2354147   -9189.3065   -27433.903    30789.971   -30923.987    16259.602   -46071.169   -6003.1143    75.977991 
   48700    1700.5822   -163.88227    1.5387226   -162.34355    7145.0972    4.2260519    4.2260519    4.2260519    7145.0972    426.72523      32697.7   -11689.133    6968.9151    -41025.93    4833.6948    75.475236 
   48800    1369.6495   -163.58234    1.2392876   -162.34305    -1852.539    4.2251835    4.2251835    4.2251835    -1852.539    4108.1531    4267.5483   -13933.318     9504.593   -33613.231   -6228.4546    75.428718 
   48900    1202.7669   -163.43134    1.0882888   -162.34305   -8627.0138    4.2313898    4.2313898    4.2313898   -8627.0138   -22915.369    4053.4937   -7019.1661    6746.2872   -17015.606   -220.09625    75.761595 
   49000    1318.2383   -163.53539    1.1927697   -162.34262   -10194.999     4.234806     4.234806     4.234806   -10194.999   -22648.251    5584.4861   -13521.231    2163.2768   -7327.8476     -387.437    75.945242 
   49100    1507.0574   -163.70632    1.3636172   -162.34271   -4228.0639    4.2308398    4.2308398    4.2308398   -4228.0639   -9449.6752    15621.951   -18856.468    537.45735    -2364.171   -10703.403    75.732057 
   49200    1561.5698   -163.75562    1.4129412   -162.34268    19288.855    4.2246155    4.2246155    4.2246155    19288.855    6521.0781    47847.259    3498.2284   -6659.9786    8062.7504    3667.4489    75.398303 
   49300     1328.745   -163.54818    1.2022764    -162.3459   -10320.568    4.2316511    4.2316511    4.2316511   -10320.568   -25337.486   -7911.1061     2286.887   -10796.064    10371.294   -7573.3455    75.775628 
   49400    1010.5742   -163.25928   0.91438877    -162.3449   -5894.4553     4.230576     4.230576     4.230576   -5894.4553    -13984.84   -20234.331    16535.805   -20414.608    14050.084   -352.71712    75.717889 
   49500    990.35986   -163.24107   0.89609841   -162.34497    10951.842    4.2262375    4.2262375    4.2262375    10951.842   -7007.4491    6933.5482    32929.426   -33070.957    5897.7312    3692.4225    75.485178 
   49600    1252.2758   -163.48218    1.1330854   -162.34909   -12755.292     4.232229     4.232229     4.232229   -12755.292   -37714.714   -13317.927    12766.766   -45035.424    493.45199   -1582.1608    75.806679 
   49700    1463.3039   -163.67352    1.3240281   -162.34949    5035.7944    4.2253272    4.2253272    4.2253272    5035.7944   -7624.9479    9303.9904    13428.341   -53531.682   -853.92993    7398.1766    75.436417 
   49800    1247.9347   -163.48039    1.1291575   -162.35123    4027.8706    4.2277055    4.2277055    4.2277055    4027.8706    4854.8541   -5652.9092    12881.667   -62166.796   -6118.2074     3958.138    75.563867 
   49900    759.84259   -163.03538   0.68752154   -162.34786   -18981.908    4.2396264    4.2396264    4.2396264   -18981.908   -6832.9902   -43881.315    -6231.418   -65003.337   -5642.2915    1004.4685    76.204874 
   50000    483.98024    -162.7843    0.4379155   -162.34638    4882.5073    4.2259818    4.2259818    4.2259818    4882.5073    4855.3679   -14811.055    24603.209    -64927.88   -7216.1404    3999.3086     75.47148 
   50100    619.37751   -162.90881   0.56042579   -162.34839    2475.4281    4.2191204    4.2191204    4.2191204    2475.4281   -11261.761    -26094.21    44782.255   -64116.366   -9073.1407   -2351.5576    75.104463 
   50200    928.69371   -163.19444   0.84030159   -162.35413   -7770.8215    4.2335183    4.2335183    4.2335183   -7770.8215    4947.6261   -33005.745    4745.6539   -62653.379   -6776.5717    1322.8199    75.875979 
   50300    1082.4339   -163.33342   0.97940893   -162.35401   -1855.4856     4.233025     4.233025     4.233025   -1855.4856   -1607.5826   -6945.8293    2986.9552   -50518.575   -11320.881   -2639.4501    75.849461 
   50400    1051.1373   -163.30204   0.95109111   -162.35095   -3725.3566    4.2242878    4.2242878    4.2242878   -3725.3566    8596.3755   -47021.661    27249.216    -63769.04   -6276.8985    1672.1637     75.38076 
   50500    708.25838   -162.99308   0.64084707   -162.35224   -5427.2054    4.2248206    4.2248206    4.2248206   -5427.2054    17871.794    -53158.64     19005.23   -52385.411    1039.2529     6379.206    75.409283 
   50600    426.31765   -162.74235   0.38574117   -162.35661   -12473.832    4.2295311    4.2295311    4.2295311   -12473.832     2716.027   -45502.411    5364.8865   -45611.277    3196.0817   -3348.7052      75.6618 
   50700    513.93965   -162.81998    0.4650234   -162.35496    -15235.41    4.2319375    4.2319375    4.2319375    -15235.41   -8540.7379   -43191.373    6025.8819   -56034.246    10966.444    5671.0982    75.791018 
   50800    886.16334   -163.15607   0.80181922   -162.35425   -2655.6275    4.2287574    4.2287574    4.2287574   -2655.6275   -12339.577   -7715.6609    12088.355   -42160.089    6020.3508   -2482.1421    75.620286 
   50900    1192.3734   -163.43122    1.0788845   -162.35233    897.72277    4.2283703    4.2283703    4.2283703    897.72277    13283.898   -4689.6541   -5901.0758   -41995.308     10212.86   -331.51671    75.599521 
   51000    1317.5574   -163.54219    1.1921537   -162.35003   -1232.8157    4.2307064    4.2307064    4.2307064   -1232.8157    9296.1838   -12631.115   -363.51595   -45918.099    13123.387   -960.17529    75.724893 
   51100    1159.9443   -163.39642     1.049542   -162.34688   -4790.9179    4.2336409    4.2336409    4.2336409   -4790.9179   -830.42829   -42017.928    28475.603   -26981.764    2885.9492   -1105.6236    75.882574 
   51200    1047.8317   -163.28842   0.94810014   -162.34032   -7954.4166     4.231776     4.231776     4.231776   -7954.4166   -11635.998    -27271.49    15044.238   -32741.632   -3215.5219    1091.2496    75.782338 
   51300    955.05584   -163.20194    0.8641546   -162.33778    2488.6841    4.2267002    4.2267002    4.2267002    2488.6841   -6585.3951    -5296.583     19348.03   -30194.593   -14680.983   -2063.9258    75.509976 
   51400    1184.6118   -163.41119    1.0718617   -162.33933   -4724.3258    4.2340174    4.2340174    4.2340174   -4724.3258   -33173.035   -9022.9641    28023.022   -26657.547   -16284.599    4394.3547    75.902819 
   51500    1500.9935   -163.69584    1.3581304   -162.33771   -5335.5229    4.2330071    4.2330071    4.2330071   -5335.5229   -17466.812    17977.014    -16516.77   -19877.764   -25341.482    1100.0108      75.8485 
   51600    1510.1398   -163.70417    1.3664062   -162.33776   -5073.6602    4.2255931    4.2255931    4.2255931   -5073.6602   -1377.5999    3399.7929   -17243.174   -15758.801   -34175.312    3448.9053    75.450658 
   51700    1227.7876   -163.45331     1.110928   -162.34238    8972.0604    4.2285124    4.2285124    4.2285124    8972.0604    6818.7412   -553.31374    20650.754   -16197.576   -27078.877    2913.6376    75.607142 
   51800    1047.2596   -163.28806   0.94758247   -162.34048    355.46781    4.2342472    4.2342472    4.2342472    355.46781   -3105.5394    13613.634   -9441.6916   -6663.3725   -30861.302   -1481.5174    75.915182 
   51900    1128.7314   -163.35985    1.0212999   -162.33855   -16040.526    4.2316641    4.2316641    4.2316641   -16040.526   -37941.267    4216.1149   -14396.428   -3886.1343   -25347.099    206.11342    75.776327 
   52000    1484.8691   -163.68127    1.3435407   -162.33773    25612.944    4.2210106    4.2210106    4.2210106    25612.944     9796.206    31057.546     35985.08    534.79233   -16954.668   -4497.3486    75.205451 
   52100    1818.1908   -163.98816    1.6451373   -162.34302   -4882.5099    4.2308716    4.2308716    4.2308716   -4882.5099   -1770.1431    11662.537   -24539.923    1436.4109    -3304.887   -1855.2228    75.733762 
   52200    1836.2734   -164.00198    1.6614987   -162.34048   -13074.115    4.2373403    4.2373403    4.2373403   -13074.115    940.85807    4721.3043   -44884.509     10952.04   -5610.4697   -9444.9761    76.081671 
   52300    1766.0676   -163.93419    1.5979751   -162.33621    9163.9362    4.2227688    4.2227688    4.2227688    9163.9362    16922.642    6175.7193    4393.4468    8359.5498    7497.4553   -8914.3467    75.299467 
   52400    1727.6647       -163.9    1.5632273   -162.33678    1138.3533    4.2247354    4.2247354    4.2247354    1138.3533   -3411.3252     11598.74   -4772.3548    13948.856    10994.096    -781.2326     75.40472 
   52500    1848.7932   -164.01091    1.6728269   -162.33809    2197.3739    4.2340041    4.2340041    4.2340041    2197.3739   -6605.1709    23529.978   -10332.686     20988.04    5659.2103    -6112.894    75.902106 
   52600    2131.8484    -164.2665    1.9289412   -162.33756   -4978.0183    4.2317808    4.2317808    4.2317808   -4978.0183   -9096.9075    6075.0687   -11912.216     19978.37    13052.295     1722.154    75.782601 
   52700    2216.1706   -164.34259    2.0052378   -162.33736    7380.3053    4.2235341    4.2235341    4.2235341    7380.3053    13902.266    12845.829   -4607.1798    33184.805    1336.7204    1528.9508    75.340417 
   52800    2025.8112   -164.17312    1.8329965   -162.34012    16141.434    4.2258624    4.2258624    4.2258624    16141.434    39975.025    7896.6528    552.62474    22924.768    2460.2447    8558.8993    75.465085 
   52900    1812.6996   -163.97844    1.6401687   -162.33827   -22329.402    4.2383688    4.2383688    4.2383688   -22329.402   -9979.1422   -13062.621   -43946.442    24168.076   -5381.1055    6326.0663    76.137085 
   53000    1708.7824   -163.87627    1.5461422   -162.33013   -15308.724    4.2337354    4.2337354    4.2337354   -15308.724     -20005.9   -5152.7976   -20767.474    22725.614   -13008.403    1413.3379    75.887657 
   53100    1834.1075   -163.98659     1.659539   -162.32705    16420.045    4.2242398    4.2242398    4.2242398    16420.045    13695.723    11695.979    23868.434    16964.174   -16499.551    1723.8527    75.378188 
   53200    1950.7744   -164.09777    1.7651017   -162.33267   -4997.4445    4.2301332    4.2301332    4.2301332   -4997.4445   -9280.7128    2741.7373    -8453.358    21029.749    -29347.16   -1899.2939    75.694118 
   53300    1895.8557   -164.04704    1.7154101   -162.33163   -6268.8189    4.2357962    4.2357962    4.2357962   -6268.8189    6133.1303   -8026.2015   -16913.385    19686.484   -16757.542   -1078.3513    75.998526 
   53400    1633.4729    -163.8085    1.4780006    -162.3305    10374.284    4.2294733    4.2294733    4.2294733    10374.284    34384.721    6333.2491   -9595.1183    22668.177   -21132.442   -5099.7713    75.658698 
   53500    1361.5231   -163.56542    1.2319347   -162.33348   -2571.6699    4.2258141    4.2258141    4.2258141   -2571.6699    11522.957     15709.96   -34947.926    25077.003   -24844.223   -5143.8561    75.462494 
   53600    1427.0287   -163.62595    1.2912056   -162.33474   -8149.6297    4.2325768    4.2325768    4.2325768   -8149.6297   -846.75064   -87.528381    -23514.61    24387.581   -10506.912   -3509.2919     75.82537 
   53700    1688.0905   -163.86096    1.5274197   -162.33354    1016.3074     4.236536     4.236536     4.236536    1016.3074     7416.656   -2559.1263   -1808.6076    26170.782    -12493.42   -2749.6852    76.038352 
   53800    1929.3374   -164.07859     1.745705   -162.33288   -7406.1816     4.229143     4.229143     4.229143   -7406.1816   -9725.2257   -5323.4148   -7169.9044    27352.919   -17131.505    3148.2495    75.640973 
   53900    1941.3787   -164.09059    1.7566003   -162.33399    19434.308     4.219444     4.219444     4.219444    19434.308    29837.737    19327.624    9137.5633    16211.749    -12343.02   -3017.2596    75.121746 
   54000    1679.3018   -163.86143    1.5194676   -162.34197    3290.1878    4.2314036    4.2314036    4.2314036    3290.1878    693.46855    18142.971   -8965.8763    12010.255    170.48457    1515.4091    75.762337 
   54100    1505.3674    -163.6956     1.362088   -162.33351   -27395.938    4.2425357    4.2425357    4.2425357   -27395.938   -38082.882   -6042.5869   -38062.346     4169.202   -3763.2059   -1147.9633    76.361861 
   54200    1608.4104   -163.78289    1.4553235   -162.32757    5672.0927     4.225573     4.225573     4.225573    5672.0927    17448.501    8618.0481   -9050.2716    3882.7078    1233.1014     1549.122    75.449578 
   54300    1714.7175   -163.87965    1.5515124   -162.32814    11096.143    4.2211524    4.2211524    4.2211524    11096.143    8033.3658    7069.0604    18186.004   -10229.269    7090.4419   -810.58135    75.213033 
   54400    1842.4067   -164.00036    1.6670483   -162.33332   -7078.6279     4.238639     4.238639     4.238639   -7078.6279   -13958.937    -22774.36    15497.414    -9075.584    2222.5654   -4468.9782    76.151644 
   54500    1890.3104   -164.03896    1.7103926   -162.32856   -604.20091    4.2373031    4.2373031    4.2373031   -604.20091    7416.7016   -17633.464    8404.1599   -6679.3749    12156.142    4668.8668    76.079665 
   54600    1738.6345   -163.89976     1.573153   -162.32661   -1537.3509    4.2248408    4.2248408    4.2248408   -1537.3509   -10393.614    9275.1631    -3493.602   -18615.954    11668.036    7503.8262    75.410365 
   54700    1521.7555   -163.70862    1.3769164    -162.3317    10155.265    4.2214522    4.2214522    4.2214522    10155.265   -6417.5463    12088.498    24794.842   -16917.659     7680.879    9687.8255    75.229061 
   54800    1439.6161   -163.64188    1.3025949   -162.33928   -4714.5084    4.2326488    4.2326488    4.2326488   -4714.5084   -2622.3562   -10322.288   -1198.8808   -24941.885    2403.3202    4100.8834     75.82924 
   54900    1601.5963   -163.78378     1.449158   -162.33463   -22207.715    4.2402882    4.2402882    4.2402882   -22207.715    -23426.34   -28448.584   -14748.221   -15149.236   -1278.2211    4473.9716    76.240569 
   55000    1965.5847   -164.11114    1.7785024   -162.33263    15559.506    4.2198974    4.2198974    4.2198974    15559.506    25225.218   -16023.474    37476.774   -15539.516    191.34047    2148.9512    75.145968 
   55100    2092.6992   -164.22937    1.8935182   -162.33585     13247.02    4.2177169    4.2177169    4.2177169     13247.02    14652.596   -10115.535    35203.999   -9775.9273   -11056.165   -516.32097    75.029538 
   55200    1953.4254    -164.1051    1.7675003    -162.3376   -7547.1731    4.2380929    4.2380929    4.2380929   -7547.1731   -23900.718   -11081.766    12340.965    1848.6734   -2854.1419   -4616.8471    76.122217 
   55300    1859.6578   -164.01374    1.6826574   -162.33109   -12935.263    4.2350646    4.2350646    4.2350646   -12935.263   -28544.471   -6781.1758   -3480.1435    258.07586    -8153.888   -1074.5095    75.959154 
   55400    1890.1138   -164.03871    1.7102147   -162.32849     6263.732    4.2234897    4.2234897    4.2234897     6263.732    6271.5515   -5541.6754     18061.32    9116.4607   -5795.0268   -5678.6444    75.338042 
   55500     2005.108   -164.14781    1.8142638   -162.33355    12822.755     4.222391     4.222391     4.222391    12822.755    10803.051   -9783.4971    37448.712    4592.8117    1490.1137   -1442.5059    75.279259 
   55600    2137.7255   -164.27091     1.934259   -162.33665   -17455.231    4.2403312    4.2403312    4.2403312   -17455.231   -12033.926   -52152.989    11821.221    11035.485   -5004.9855   -5053.1165     76.24289 
   55700    2089.8965   -164.22339    1.8909823    -162.3324   -2690.0854    4.2335031    4.2335031    4.2335031   -2690.0854    15101.648   -31471.545     8299.641    9852.3881    6505.0489     597.5036    75.875166 
   55800     1901.062   -164.04702    1.7201209    -162.3269    25132.907    4.2146604    4.2146604    4.2146604    25132.907    23409.798    17559.949    34428.974    6295.9827   -4745.0231    3435.4094    74.866538 
   55900    1706.2154   -163.87976    1.5438195   -162.33594   -8972.7187    4.2315654    4.2315654    4.2315654   -8972.7187   -7100.8048   -9582.5266   -10234.825    5731.4537    14434.515    3867.5404    75.771028 
   56000     1655.824    -163.8337    1.4982244   -162.33547   -9024.8402    4.2338875    4.2338875    4.2338875   -9024.8402    10072.303   -19454.625   -17692.199   -5926.0503    8124.5841    4842.8821    75.895834 
   56100    1753.7104   -163.92467     1.586794   -162.33787    9410.3541    4.2262328    4.2262328    4.2262328    9410.3541    17649.774   -16094.955    26676.243     938.2541    16255.568    2160.4707    75.484928 
   56200    1934.0807   -164.09106    1.7499968   -162.34106   -1942.5466     4.225424     4.225424     4.225424   -1942.5466    25328.055   -33396.435    2240.7393   -1928.3175    18447.809    7552.2894    75.441598 
   56300    1918.7344   -164.07963    1.7361112   -162.34351     12032.03    4.2264055    4.2264055    4.2264055     12032.03     47679.22   -30582.573    18999.442   -797.63808    14490.968    5841.7714     75.49418 
   56400    1747.7082   -163.92313    1.5813631   -162.34177   -11312.201      4.23488      4.23488      4.23488   -11312.201    6148.2361   -34423.377   -5661.4632   -797.96515    20024.569    6894.9536    75.949222 
   56500    1553.1125   -163.74025    1.4052888   -162.33496   -8461.8916    4.2316181    4.2316181    4.2316181   -8461.8916    12578.169   -17835.726   -20128.117   -8879.2958    20330.295   -1539.1227    75.773858 
   56600    1393.9846    -163.5947    1.2613065   -162.33339    11623.993    4.2250644    4.2250644    4.2250644    11623.993    27254.388   -3958.1427    11575.735    111.81755     16106.59   -440.17794    75.422342 
   56700     1483.927   -163.68104    1.3426883   -162.33836   -4513.5898    4.2302489    4.2302489    4.2302489   -4513.5898    21926.474   -24651.279   -10815.965   -8912.7995    10070.236   -6340.9912    75.700327 
   56800    1700.1668   -163.87548    1.5383467   -162.33713   -319.14421    4.2332318    4.2332318    4.2332318   -319.14421    29434.302   -37075.782    6684.0471   -2907.3178    8120.3283   -5821.1621    75.860579 
   56900    1602.4128   -163.78703    1.4498968   -162.33713    839.28801    4.2277451    4.2277451    4.2277451    839.28801    26378.553    -27035.46    3174.7703   -2425.9789    -1396.431   -4063.7821    75.565991 
   57000    1328.7708   -163.54247    1.2022998   -162.34017    75.764603    4.2240265    4.2240265    4.2240265    75.764603    26297.597   -12115.932   -13954.371   -681.04871    2048.8668   -7673.2372    75.366771 
   57100    1210.4417   -163.43758    1.0952331   -162.34235   -8660.2159    4.2304517    4.2304517    4.2304517   -8660.2159   -5670.3574   -9261.0814   -11049.209    11346.997    -9017.037   -1954.2952    75.711216 
   57200    1251.5644    -163.4749    1.1324418   -162.34246   -9271.0601    4.2308809    4.2308809    4.2308809   -9271.0601   -7789.6058   -4906.4044    -15117.17    3821.5339   -13736.307     1000.393    75.734264 
   57300    1360.1768   -163.57101    1.2307165   -162.34029     922.4989    4.2272326    4.2272326    4.2272326     922.4989    16742.566   -9677.0755   -4297.9937    16111.178   -15770.196   -684.31874    75.538515 
   57400    1374.3737   -163.58579    1.2435622   -162.34223   -2133.4233    4.2286834    4.2286834    4.2286834   -2133.4233    28379.194   -22961.278   -11818.185    8127.2362   -28035.535    5765.6752    75.616317 
   57500    1324.6874   -163.54167     1.198605   -162.34307   -2473.5371    4.2250751    4.2250751    4.2250751   -2473.5371    17058.266    -4784.929   -19693.949    7994.2471   -27041.078    4746.2524    75.422914 
   57600    1162.3656    -163.3963    1.0517328   -162.34457   -6387.3529    4.2297845    4.2297845    4.2297845   -6387.3529     6649.378    4135.4484   -29946.885    6532.3091   -33433.216    8591.1695    75.675402 
   57700    1036.7487   -163.28255   0.93807199   -162.34448   -15145.937    4.2314932    4.2314932    4.2314932   -15145.937   -29330.488    17357.758    -33465.08   -2274.9154    -30447.58    9464.7938    75.767147 
   57800    1075.0424   -163.31483     0.972721   -162.34211    400.08527     4.221764     4.221764     4.221764    400.08527   -27186.666    43539.219   -15152.297    287.33817   -35259.113    4506.5806    75.245731 
   57900    1236.8228   -163.46494    1.1191033   -162.34583   -4143.6899    4.2296871    4.2296871    4.2296871   -4143.6899   -5175.1847    22159.436   -29415.321   -6569.3713   -25457.024    3564.0481    75.670173 
   58000    1394.7328   -163.60513    1.2619836   -162.34314   -13160.367    4.2317394    4.2317394    4.2317394   -13160.367   -12347.559    5050.0817   -32183.625   -12031.016   -19509.421   -5327.5159    75.780376 
   58100    1405.6302   -163.61268    1.2718437   -162.34084    14287.612    4.2224816    4.2224816    4.2224816    14287.612     21673.02    32089.382   -10899.566   -9944.0501   -24332.499   -2804.2494    75.284105 
   58200    1233.6752   -163.45797    1.1162553   -162.34172   -7526.0957    4.2305665    4.2305665    4.2305665   -7526.0957   -22475.978    13919.707   -14022.017   -4729.8677   -460.47343   -8507.3204    75.717381 
   58300    1146.2951   -163.37651    1.0371919   -162.33932   -6680.9514    4.2293337    4.2293337    4.2293337   -6680.9514   -32669.821    27059.571   -14432.604   -5589.6726    -5379.849    -2586.816    75.651204 
   58400    1205.9068   -163.43137    1.0911298   -162.34024    120.36367    4.2265954    4.2265954    4.2265954    120.36367   -32222.328    42622.674   -10039.255    4519.1257    8060.1398    -3197.446    75.504359 
   58500    1314.9431   -163.53129    1.1897881    -162.3415   -10819.342    4.2290202    4.2290202    4.2290202   -10819.342   -35560.004    6419.1278   -3317.1499    12260.269    13044.818    850.75018    75.634386 
   58600    1439.4513   -163.64464    1.3024457   -162.34219    13046.583    4.2244074    4.2244074    4.2244074    13046.583    9071.9732    13756.987    16310.789    11860.316    9075.2014    4017.4776    75.387162 
   58700    1534.7926   -163.73226    1.3887126   -162.34355   -7726.0088    4.2318576    4.2318576    4.2318576   -7726.0088   -17027.838   -9127.2631    2977.0746     20618.59    19230.451    7928.9444    75.786724 
   58800    1417.9337   -163.62345    1.2829762   -162.34047   -6714.2361    4.2308948    4.2308948    4.2308948   -6714.2361   -19329.312   -20950.417    20137.021    20555.946    4254.2384     8192.401    75.735011 
   58900    1280.7657   -163.49643    1.1588637   -162.33757    15064.653    4.2197892    4.2197892    4.2197892    15064.653    -224.7649    19915.465    25503.259    21767.256    9198.5652     2683.959    75.140187 
   59000    1286.4962   -163.50509    1.1640488   -162.34104   -8565.4492    4.2297628    4.2297628    4.2297628   -8565.4492   -37164.554   -268.84779    11737.054    16550.689    1387.1594    5486.5389    75.674236 
   59100    1450.3116   -163.65016    1.3122724   -162.33789   -7325.4991    4.2328969    4.2328969    4.2328969   -7325.4991   -15101.217     -20239.2    13363.919    15518.749   -626.27467    1029.6991    75.842576 
   59200    1662.2107   -163.83947    1.5040032   -162.33547    8940.8285    4.2240891    4.2240891    4.2240891    8940.8285    24165.395   -6306.3785    8963.4686    2749.5587   -6038.9436   -1636.6252    75.370122 
   59300    1754.9297   -163.92521    1.5878973   -162.33731    3180.2759    4.2286803    4.2286803    4.2286803    3180.2759    24738.869   -33581.782    18383.741    -5947.258   -11005.137   -4858.4033    75.616148 
   59400    1640.7007   -163.82426    1.4845405   -162.33972     954.8875    4.2271979    4.2271979    4.2271979     954.8875    15364.359   -35772.714    23273.017   -10951.144   -3702.0044    -7037.279    75.536655 
   59500    1396.0638   -163.60703    1.2631879   -162.34384    5281.8352    4.2259278    4.2259278    4.2259278    5281.8352    27957.851   -10276.295   -1836.0502   -22542.807   -9707.5945   -9990.0239    75.468585 
   59600     1308.851   -163.53065    1.1842759   -162.34638   -2913.9185    4.2272851    4.2272851    4.2272851   -2913.9185    2123.7547   -5305.7706   -5559.7395   -17363.142   -11031.744   -11735.478     75.54133 
   59700    1357.5156   -163.57739    1.2283086   -162.34909    9421.2949    4.2260789    4.2260789    4.2260789    9421.2949    39928.979   -3544.3317   -8120.7626   -20707.046   -2188.3911   -10377.904    75.476683 
   59800    1453.7837   -163.66522     1.315414   -162.34981    -3612.987    4.2281866    4.2281866    4.2281866    -3612.987    22631.131   -6477.7266   -26992.366   -8995.8527      -6807.4   -9938.3007     75.58967 
   59900    1413.9641   -163.62735    1.2793844   -162.34797    1115.1807    4.2283037    4.2283037    4.2283037    1115.1807    33882.676   -13628.234     -16908.9   -8070.6708   -1376.5507   -11344.575     75.59595 
   60000    1114.0804   -163.35648    1.0080434   -162.34843   -6925.3307    4.2301571    4.2301571    4.2301571   -6925.3307     19597.18   -16632.236   -23740.937    547.57214    9173.7079   -8846.2116      75.6954 
   60100    915.79607   -163.17724   0.82863153    -162.3486   -7733.2415     4.223432     4.223432     4.223432   -7733.2415   -12300.754    11462.059   -22361.029     1146.224    5500.2484   -6520.6622    75.334953 
   60200    828.82283   -163.10114   0.74993631    -162.3512   -2603.3798    4.2298173    4.2298173    4.2298173   -2603.3798    20665.065    10312.006    -38787.21    1118.4435    18325.714   -2988.4866    75.677159 
   60300    919.10729   -163.17988   0.83162759   -162.34825   -19157.336    4.2339526    4.2339526    4.2339526   -19157.336    -24170.79    242.42951   -33543.648    5484.0784    16876.888     7101.085    75.899336 
   60400    1150.2321   -163.38458    1.0407542   -162.34383    6343.9974    4.2226929    4.2226929    4.2226929    6343.9974    25418.163    10349.429     -16735.6    1905.9913    29361.765    3789.0621     75.29541 
   60500    1245.0288   -163.47235    1.1265282   -162.34582   -5123.5608    4.2309339    4.2309339    4.2309339   -5123.5608     28651.56   -15811.553   -28210.689    7148.3001    17813.971    10226.251    75.737109 
   60600     1092.492   -163.32909   0.98850969   -162.34058   -13337.197    4.2351926    4.2351926    4.2351926   -13337.197    1630.2095   -38420.227   -3221.5732    9270.4629    23569.501    5847.4886    75.966041 
   60700    947.98346   -163.19561   0.85775536   -162.33785    5511.4427    4.2227967    4.2227967    4.2227967    5511.4427    35246.812    -2700.057   -16012.427    9616.7486    25179.086    7975.0381    75.300964 
   60800    919.01549   -163.17299   0.83154453   -162.34145   -6509.7543    4.2282193    4.2282193    4.2282193   -6509.7543   -10920.123     300.5759   -8909.7163    8231.1216    15855.215    2415.4816    75.591422 
   60900    1042.4246   -163.28466   0.94320766   -162.34146   -13908.727    4.2307828    4.2307828    4.2307828   -13908.727   -11894.999    -7169.439   -22661.744    3551.1476    14192.449    1444.7546    75.728993 
   61000     1242.757   -163.46719    1.1244727   -162.34271     1862.626    4.2269103    4.2269103    4.2269103     1862.626    30546.375    2113.2131    -27071.71    2097.9421     6582.145    1602.7271    75.521237 
   61100    1349.7747   -163.56407    1.2213045   -162.34277   -4030.0275    4.2313326    4.2313326    4.2313326   -4030.0275    -359.3794   -11244.866   -485.83683     57.27873    1377.6845   -3455.8995    75.758521 
   61200    1291.9483   -163.51051     1.168982   -162.34153    2388.2567    4.2254265    4.2254265    4.2254265    2388.2567    9541.5374   -10994.889    8618.1217   -7485.1073    -3425.858    879.99895    75.441735 
   61300    971.64183   -163.22239   0.87916194   -162.34323    750.42325    4.2298533    4.2298533    4.2298533    750.42325   -3538.6857    2123.5066    3666.4489   -1667.5524   -13260.742   -11936.244    75.679094 
   61400    745.08857   -163.01346    0.6741718   -162.33929   -15378.486    4.2365734    4.2365734    4.2365734   -15378.486   -64962.549    5286.5836    13540.508   -1911.7354   -17918.003   -6702.0557    76.040365 
   61500    814.73313   -163.07719   0.73718766      -162.34     1760.973     4.222515     4.222515     4.222515     1760.973   -26274.431    19960.414    11596.937   -6638.9988   -15975.019   -11832.825    75.285891 
   61600    988.19894   -163.24033   0.89414317   -162.34619   -1596.2597    4.2223187    4.2223187    4.2223187   -1596.2597   -16216.413     9383.322    2044.3123   -9562.9458   -13069.686   -8511.2595    75.275392 
   61700      1172.25   -163.40915    1.0606764   -162.34848   -8616.5936    4.2313801    4.2313801    4.2313801   -8616.5936   -38313.108   -2175.7129     14639.04   -21875.332   -14113.218   -4974.0642    75.761072 
   61800    1215.8173   -163.44578    1.1000971   -162.34568    207.37215    4.2298666    4.2298666    4.2298666    207.37215   -15749.556   -4136.8939    20508.567   -26797.899   -11500.297   -5587.8241    75.679806 
   61900    1123.4336   -163.35963    1.0165063   -162.34313   -147.68158    4.2275531    4.2275531    4.2275531   -147.68158   -32030.211   -4953.6505    36540.816   -34982.278    653.26965    2515.2763    75.555694 
   62000     1080.711   -163.32063   0.97785004   -162.34278    6225.0919    4.2223805    4.2223805    4.2223805    6225.0919   -37530.067     8658.636    47546.706   -46740.964   -3516.4793   -1492.8899    75.278698 
   62100    1083.2684   -163.32651   0.98016405   -162.34635    1715.0004    4.2289838    4.2289838    4.2289838    1715.0004    -8886.319   -3747.9503     17779.27   -51649.068    8793.2577    5486.9509    75.632434 
   62200    1081.8612   -163.32443   0.97889073   -162.34554    -11488.56    4.2326244    4.2326244    4.2326244    -11488.56   -27001.058   -4476.3909   -2988.2304   -59738.933    9192.3244     794.9425    75.827928 
   62300    1145.2809   -163.38048    1.0362742    -162.3442    5928.3582    4.2211973    4.2211973    4.2211973    5928.3582    15553.589   -15797.473    18028.959   -63469.723    11767.321    4904.6454    75.215434 
   62400    1095.1519   -163.33796   0.99091645   -162.34704   -4380.8546    4.2282469    4.2282469    4.2282469   -4380.8546   -3039.2829   -38946.214    28842.933   -61325.749     7671.613   -1324.6386    75.592904 
   62500       1113.9    -163.3521    1.0078801   -162.34422    -6441.377    4.2331233    4.2331233    4.2331233    -6441.377    -20095.51   -37154.862    37926.242   -56466.907     6841.689   -4746.0241    75.854747 
   62600    1168.3276   -163.39809    1.0571274   -162.34096    5990.1852    4.2277809    4.2277809    4.2277809    5990.1852     179.3358   -29975.739    47766.959   -56307.792    4863.5549   -8662.7061    75.567912 
   62700    1130.8247   -163.36439    1.0231939   -162.34119   -5058.4328    4.2303075    4.2303075    4.2303075   -5058.4328   -14301.601   -30026.236    29152.539   -55860.255    838.23109   -13501.141    75.703474 
   62800    912.43393   -163.16738   0.82558939   -162.34179    3349.6648    4.2262484    4.2262484    4.2262484    3349.6648    7418.9846   -17258.866    19888.876   -52934.328   -604.64379   -5256.3469    75.485766 
   62900    712.54458   -162.99039   0.64472531   -162.34567   -3512.5409     4.225043     4.225043     4.225043   -3512.5409    3624.5954   -22450.389    8288.1705   -49150.563   -14752.601   -11292.595    75.421193 
   63000     652.9811   -162.93934   0.59083102   -162.34851     -9567.02    4.2315397    4.2315397    4.2315397     -9567.02     1070.882   -39486.599    9714.6571   -50005.548   -13397.378   -4893.1644    75.769648 
   63100    806.39598   -163.07986   0.72964403   -162.35022   -5961.4771    4.2232103    4.2232103    4.2232103   -5961.4771   -14580.749   -27711.656    24407.974    -45580.97   -22826.263    3813.7997    75.323089 
   63200    1027.2356   -163.28225   0.92946431   -162.35279    7066.1951    4.2225427    4.2225427    4.2225427    7066.1951   -3064.0795   -18185.833    42448.498   -41005.902   -17280.222    3659.4959    75.287374 
   63300    1171.6011   -163.41169    1.0600893    -162.3516   -11919.503    4.2344459    4.2344459    4.2344459   -11919.503   -24528.395   -13023.577    1793.4627   -38288.483   -11132.748    9893.9474    75.925867 
   63400    1103.7246   -163.34787    0.9986732   -162.34919   -1391.2834    4.2254913    4.2254913    4.2254913   -1391.2834   -7125.3346     5741.837   -2790.3526   -24947.649   -5624.7421    15271.723    75.445201 
   63500    969.15307   -163.22445   0.87691007   -162.34754    12558.112    4.2230449    4.2230449    4.2230449    12558.112    16246.513    5706.5201    15721.303   -24805.684    3308.9305    12177.852    75.314237 
   63600      825.949   -163.09271   0.74733601   -162.34538   -15400.049    4.2334685    4.2334685    4.2334685   -15400.049   -13413.804   -2055.3654   -30730.977   -12340.916    15443.526    14797.869    75.873304 
   63700     803.7405    -163.0693   0.72724129   -162.34206   -4385.8682    4.2279742    4.2279742    4.2279742   -4385.8682    14467.759   -13519.741   -14105.623   -8639.0447    12884.089    14686.559    75.578277 
   63800    939.13629   -163.19106   0.84975025   -162.34131    5445.5544     4.227328     4.227328     4.227328    5445.5544   -1633.4885     6340.544    11629.608   -2112.1171    17036.835    4356.3025     75.54363 
   63900    1155.0397   -163.38654    1.0451042   -162.34144   -14027.941    4.2294669    4.2294669    4.2294669   -14027.941   -32601.766    8033.4425   -17515.499    13578.519    24895.198    7328.7982    75.658356 
   64000    1299.3719   -163.51923     1.175699   -162.34353    8252.6913    4.2242454    4.2242454    4.2242454    8252.6913      11408.9    13738.709   -389.53446     19953.69    19120.596    1316.6329    75.378489 
   64100    1265.5412   -163.49207    1.1450883   -162.34698   -2709.1978    4.2298453    4.2298453    4.2298453   -2709.1978   -23597.214    12963.634    2505.9857    30285.673    22516.417   -341.23186    75.678666 
   64200    1046.2334    -163.2927   0.94665398   -162.34604    -7772.377     4.227863     4.227863     4.227863    -7772.377   -4869.6319    5610.4083   -24057.907    38312.641    15491.007   -8303.2923    75.572313 
   64300      847.864   -163.11333   0.76716516   -162.34616    5725.6214    4.2244647    4.2244647    4.2244647    5725.6214   -12172.871    13755.588    15594.148    35633.138    11703.272   -11058.846    75.390226 
   64400    792.55026   -163.06544   0.71711613   -162.34832   -11328.658    4.2293228    4.2293228    4.2293228   -11328.658   -53206.918    54.699699    19166.244    39182.026    6672.2327   -15374.331    75.650619 
   64500    958.34338   -163.21629   0.86712923   -162.34916   -1762.7333    4.2248074    4.2248074    4.2248074   -1762.7333   -43591.487     13716.12    24587.166    29709.186    962.87512   -22532.605    75.408578 
   64600    1191.6929   -163.42969    1.0782687   -162.35142    1049.0786    4.2278033    4.2278033    4.2278033    1049.0786   -41272.467    15643.527    28776.176    23141.709    707.95025   -15648.653    75.569115 
   64700    1350.6671   -163.57339     1.222112   -162.35128   -11221.463    4.2295125    4.2295125    4.2295125   -11221.463   -24852.485   -11212.237    2400.3342    24232.586   -5174.1954   -15675.573      75.6608 
   64800    1418.3654   -163.63149    1.2833669   -162.34812    13259.581    4.2214805    4.2214805    4.2214805    13259.581    24377.077    -2037.233    17438.898    7846.9966   -4245.0165   -6933.9376    75.230574 
   64900    1455.6325   -163.66312    1.3170868   -162.34604   -9527.4997    4.2305613    4.2305613    4.2305613   -9527.4997    2150.6613   -28671.907   -2061.2534   -1934.3522    -1699.021    -7480.784      75.7171 
   65000    1575.2087   -163.76653    1.4252819   -162.34125    1192.5337    4.2309356    4.2309356    4.2309356    1192.5337   -4406.7387   -14019.747    22004.087   -8115.6931   -9311.8217   -298.59602    75.737201 
   65100    1742.2957   -163.91438    1.5764658   -162.33791    5997.3527    4.2265839    4.2265839    4.2265839    5997.3527   -4267.1385   -9746.9968    32006.194   -21205.916    1604.8005    4832.1767    75.503742 
   65200    1637.0431   -163.81695     1.481231   -162.33572    -17015.79    4.2334951    4.2334951    4.2334951    -17015.79   -9011.5273   -43392.934    1357.0921   -28939.625   -8184.5907    5264.7958    75.874735 
   65300    1443.7919   -163.64005    1.3063732   -162.33368    6736.5529    4.2264809    4.2264809    4.2264809    6736.5529    25805.026    5818.8161   -11414.184    -26633.16   -1428.1255    9854.5064    75.498225 
   65400     1331.695     -163.541    1.2049456   -162.33605   -10672.013    4.2267726    4.2267726    4.2267726   -10672.013    22330.978   -20309.547    -34037.47   -26647.408   -3350.7531    18082.824    75.513857 
   65500     1382.984   -163.58983     1.251353   -162.33848    -5785.901    4.2274938    4.2274938    4.2274938    -5785.901    28710.523   -19303.531   -26764.695   -22947.606   -6264.8146    22884.257    75.552519 
   65600    1585.3839   -163.77586    1.4344887   -162.34137    8364.2107    4.2248382    4.2248382    4.2248382    8364.2107    20243.146     10160.03   -5310.5435   -16357.677    5086.5748    27135.149    75.410225 
   65700    1732.9199   -163.91146    1.5679824   -162.34348    -13859.57    4.2306111    4.2306111    4.2306111    -13859.57   -3146.9272    -30058.85   -8372.9334   -7370.3843    -5167.899    24723.497    75.719774 
   65800    1748.2127   -163.92399    1.5818196   -162.34217    10697.242    4.2229746    4.2229746    4.2229746    10697.242    15111.897     15348.34    1631.4879   -4690.1705    8796.6943    25762.256    75.310481 
   65900    1691.1517   -163.87301    1.5301896   -162.34282   -3304.3928    4.2269757    4.2269757    4.2269757   -3304.3928    28366.498   -5065.1153   -33214.561    9707.6795   -4332.3694    17898.222    75.524741 
   66000    1625.7862   -163.81138    1.4710455   -162.34034   -11055.233    4.2318673    4.2318673    4.2318673   -11055.233    23702.268   -568.98811   -56298.978    7790.4638     5885.153    19227.255    75.787245 
   66100     1762.781   -163.93151    1.5950013    -162.3365    6980.5926    4.2224046    4.2224046    4.2224046    6980.5926    32403.486    17181.737   -28643.446      14222.5    1998.6176    11626.045    75.279986 
   66200     1939.141   -164.09242    1.7545755   -162.33784   -9570.9399    4.2308654    4.2308654    4.2308654   -9570.9399     4544.911   -10262.553   -22995.178    8735.4556   -1260.1442    5120.1436    75.733428 
   66300    2020.6711   -164.16593    1.8283457   -162.33758    4572.2363    4.2267476    4.2267476    4.2267476    4572.2363   -1759.5036    11072.474    4403.7389    9048.7802    8635.9012    565.10529    75.512517 
   66400    1996.9699   -164.14476    1.8069003   -162.33786    5548.0888    4.2250893    4.2250893    4.2250893    5548.0888   -10452.353    12284.402    14812.218    5155.7865   -5337.4839   -9738.9328     75.42367 
   66500    1853.9907   -164.01536    1.6775298   -162.33783   -10728.975    4.2318226    4.2318226    4.2318226   -10728.975   -16908.259   -1131.6446   -14147.022   -8339.3725    5177.6198   -8593.6139    75.784842 
   66600    1691.1376   -163.86787    1.5301769   -162.33769     11794.51     4.220956     4.220956     4.220956     11794.51     27480.08    19921.883   -12018.432   -5646.0526   -9582.3823   -17124.362    75.202536 
   66700    1683.6197   -163.86496    1.5233744   -162.34158   -4641.5277    4.2294234    4.2294234    4.2294234   -4641.5277    6994.7534   -627.04456   -20292.292   -24010.798   -1447.6227   -14248.051    75.656019 
   66800    1770.5187   -163.94024    1.6020025   -162.33824   -10245.431    4.2311243    4.2311243    4.2311243   -10245.431   -10616.914   -15735.222   -4384.1579   -20485.042   -5789.7958   -17424.874    75.747334 
   66900    1758.6139   -163.92601    1.5912308   -162.33478    7886.5243    4.2240349    4.2240349    4.2240349    7886.5243   -7883.8925     12825.27    18718.196   -27573.331   -2025.8805   -19455.191    75.367221 
   67000    1676.5872   -163.85357    1.5170113   -162.33655    -11834.85    4.2308873    4.2308873    4.2308873    -11834.85   -44361.662   -6566.1257    15423.237   -28104.198    736.19808    -21233.93    75.734604 
   67100     1624.883   -163.80657    1.4702283   -162.33634    5568.7517    4.2244967    4.2244967    4.2244967    5568.7517   -9763.3758    7805.9428    18663.688   -19498.018   -6861.5113   -21141.142    75.391939 
   67200    1621.2131   -163.80625    1.4669077   -162.33934    5881.9394    4.2286926    4.2286926    4.2286926    5881.9394     4557.594    22910.603    -9822.379   -22317.693    5681.0615   -21190.581    75.616808 
   67300    1736.1821   -163.90906    1.5709341   -162.33812    -12601.54    4.2337153    4.2337153    4.2337153    -12601.54    -3466.006   -14073.527   -20265.087   -4477.9434   -4936.6321   -22963.067    75.886576 
   67400    1741.5484   -163.91473    1.5757896   -162.33894    14292.528      4.22073      4.22073      4.22073    14292.528    24014.605    8162.7064    10700.272   -10413.459    6819.1741   -18120.193    75.190456 
   67500    1578.9706   -163.77223    1.4286857   -162.34354    597.86713    4.2259811    4.2259811    4.2259811    597.86713   -9748.7044    7320.4371    4221.8687    5303.3913    4765.7532   -16767.046    75.471442 
   67600    1385.6765   -163.59615    1.2537892   -162.34236   -13151.087    4.2319397    4.2319397    4.2319397   -13151.087   -40748.115   -8847.0562     10141.91    6193.6278    9823.9729   -7049.2588    75.791134 
   67700    1198.0467    -163.4261    1.0840178   -162.34208    5991.3606    4.2253434    4.2253434    4.2253434    5991.3606   -25557.808    23488.301    20043.588    8116.6144     8781.825   -4325.1352    75.437284 
   67800    1250.9843   -163.47368    1.1319169   -162.34176    -10410.65     4.228374     4.228374     4.228374    -10410.65   -21061.768   -186.81079   -9983.3715    13754.346    4612.5864    898.77121    75.599718 
   67900    1415.8666   -163.62225    1.2811059   -162.34115   -4046.2643    4.2302045    4.2302045    4.2302045   -4046.2643    -2400.885    10379.599   -20117.506    781.64811    6708.6704    4945.5825    75.697947 
   68000     1568.997    -163.7592    1.4196615   -162.33953    3715.8375    4.2284552    4.2284552    4.2284552    3715.8375    13883.923    3971.0933   -6707.5033    10405.491    -5071.416    8392.5293    75.604072 
   68100      1595.26   -163.78165    1.4434248   -162.33823   -1272.8824    4.2291798    4.2291798    4.2291798   -1272.8824     4344.595   -5953.4198   -2209.8225   -1750.3932    1908.5462    10911.445    75.642949 
   68200    1432.3301   -163.63237    1.2960024   -162.33637    4599.7806    4.2286977    4.2286977    4.2286977    4599.7806   -13925.536    25883.986    1840.8921    1799.1224   -13236.874    11707.091    75.617083 
   68300    1210.9925   -163.43199    1.0957314   -162.33625   -3112.3913    4.2284796    4.2284796    4.2284796   -3112.3913    -24047.15    7463.4643     7246.512   -2492.2331   -11510.031    17566.118    75.605385 
   68400    1200.1189   -163.42429    1.0858928    -162.3384   -7141.8883    4.2268332    4.2268332    4.2268332   -7141.8883   -11058.867    400.41817   -10767.216   -1900.3099   -7602.4848    19101.337    75.517107 
   68500    1358.0426   -163.56956    1.2287855   -162.34078   -851.18679     4.227845     4.227845     4.227845   -851.18679   -204.01445    2729.0925   -5078.6384    3626.6022   -9687.6662    19640.939    75.571346 
   68600    1607.8348   -163.79758    1.4548027   -162.34278   -7613.4781     4.232456     4.232456     4.232456   -7613.4781      2393.41   -31309.447    6075.6028   -2517.0878    394.07986    20322.439    75.818879 
   68700    1825.3827   -163.99255    1.6516446    -162.3409    449.70887    4.2284623    4.2284623    4.2284623    449.70887    26792.903   -25792.022    348.24552    15006.385   -5240.4858    15118.337    75.604453 
   68800    1692.6527   -163.86976    1.5315478   -162.33821    5246.7166    4.2293119    4.2293119    4.2293119    5246.7166    20642.728   -12190.078    7287.5001    8133.1223    10592.592    10988.552    75.650038 
   68900    1332.5987   -163.54219    1.2057633   -162.33643   -8452.6094    4.2331645    4.2331645    4.2331645   -8452.6094    -2032.982    -13880.48   -9444.3662    14884.871    7038.0613    14516.406    75.856963 
   69000    1023.3154   -163.26127   0.92591731   -162.33536    3061.8353    4.2244826    4.2244826    4.2244826    3061.8353    3940.4744    17795.577   -12550.546    7938.6392    4889.2591    16499.251    75.391188 
   69100    1025.9845   -163.26791    0.9283323   -162.33958   -1284.8275     4.226684     4.226684     4.226684   -1284.8275   -12308.271     10468.09   -2014.3012     8317.611    4392.5328    19983.718    75.509107 
   69200    1355.8311    -163.5682    1.2267844   -162.34142    -16685.48    4.2326094    4.2326094    4.2326094    -16685.48   -17561.105   -8529.2434   -23966.091     8093.439    8312.5013    24245.377    75.827124 
   69300    1614.4385   -163.80329    1.4607779   -162.34251    8630.9442    4.2248284    4.2248284    4.2248284    8630.9442    15244.246    6291.5726    4357.0141   -4894.1367    1654.1323    26873.302    75.409704 
   69400    1633.3714   -163.82128    1.4779087   -162.34337    4193.4195    4.2247688    4.2247688    4.2247688    4193.4195    27271.095    991.99058   -15682.827   -6523.0419    318.31162    33509.475    75.406508 
   69500    1327.0872   -163.54326    1.2007764   -162.34248   -4976.0803     4.230138     4.230138     4.230138   -4976.0803    21166.354    8815.0398   -44909.634   -12609.156    978.59583     35301.71    75.694375 
   69600    1010.8246   -163.25625   0.91461535   -162.34163    418.37232    4.2274195    4.2274195    4.2274195    418.37232    14213.891    5905.2449   -18864.018   -5574.7144   -6606.7229    37015.953    75.548533 
   69700       1090.2     -163.329   0.98643586   -162.34256   -5777.4826    4.2259801    4.2259801    4.2259801   -5777.4826    13069.868    1971.6821   -32373.998   -9450.8745   -1847.6799    45349.792    75.471391 
   69800    1321.7833   -163.54145    1.1959773   -162.34547   -1269.4037    4.2273391    4.2273391    4.2273391   -1269.4037    10694.588   -1806.3032   -12696.496   -3219.4334   -4260.6887    52248.342    75.544222 
   69900    1396.5741   -163.61214    1.2636496   -162.34849    2532.5315    4.2263889    4.2263889    4.2263889    2532.5315    24445.934   -19958.196    3109.8572    2039.9851    7582.5352     51973.08    75.493295 
   70000    1214.8046   -163.44779    1.0991807   -162.34861   -2380.6081    4.2282486    4.2282486    4.2282486   -2380.6081    41755.906   -13392.857   -35504.873    4039.8992    2980.2651    59311.691    75.592993 
   70100    803.66079   -163.07485   0.72716917   -162.34768   -962.64309    4.2271232    4.2271232    4.2271232   -962.64309    36965.117   -17478.076    -22374.97    14409.469    1955.8668     56840.36     75.53265 
   70200    593.76581   -162.88457   0.53725178   -162.34732   -5116.2666    4.2254819    4.2254819    4.2254819   -5116.2666    26162.586   -11885.646   -29625.739    12820.238    10022.616    56731.354    75.444699 
   70300    765.91809   -163.04062   0.69301878    -162.3476    -9437.455    4.2315182    4.2315182    4.2315182    -9437.455    13319.777   -20221.991   -21410.151    18286.012    5142.9974    55800.534    75.768494 
   70400    1045.9523   -163.29298   0.94639962   -162.34658    2524.7513    4.2283079    4.2283079    4.2283079    2524.7513    9716.6524   -21690.335    19547.936    17894.245    7489.9795     49655.51    75.596172 
   70500    1166.6074    -163.3993    1.0555709   -162.34373    7519.1517     4.224286     4.224286     4.224286    7519.1517    29726.123   -12966.042    5797.3748    15911.417    1970.8196    45155.105    75.380664 
   70600    1015.6552   -163.26051   0.91898618   -162.34152    -7036.414    4.2332753    4.2332753    4.2332753    -7036.414    25953.472   -30325.658   -16737.056    11218.833     4650.068    41640.134    75.862918 
   70700    789.08377   -163.05062   0.71397957   -162.33664   -8001.3452    4.2298519    4.2298519    4.2298519   -8001.3452    13374.313   -2399.1518   -34979.197    9495.2626    2627.6991    34105.085    75.679016 
   70800    818.76277   -163.07633   0.74083376    -162.3355    2668.8013    4.2253534    4.2253534    4.2253534    2668.8013     7768.172    8656.5612   -8418.3292    5758.4767   -3622.0811    28928.213    75.437816 
   70900    983.05943   -163.22914   0.88949284   -162.33965   -8513.4382    4.2313673    4.2313673    4.2313673   -8513.4382   -11377.566   -18415.841    4253.0923    146.33824   -3075.9557    24536.989    75.760385 
   71000    1188.0162    -163.4175     1.074942   -162.34256    5408.8346    4.2253576    4.2253576    4.2253576    5408.8346   -14302.811    12268.546    18260.769   -3079.3382   -11264.687    10705.073     75.43804 
   71100    1134.4973   -163.37465     1.026517   -162.34813    4147.5369    4.2268048    4.2268048    4.2268048    4147.5369   -15901.685    5585.2587    22759.037    -7979.161   -11097.495    1528.4917     75.51558 
   71200    927.29516   -163.18919   0.83903615   -162.35016   -11478.617    4.2284455    4.2284455    4.2284455   -11478.617   -7495.1226   -5246.8078   -21693.921   -11215.366   -11674.087   -14257.834    75.603553 
   71300    663.68141   -162.95241   0.60051289    -162.3519    3611.2253    4.2255898    4.2255898    4.2255898    3611.2253   -5152.5111    23932.958   -7946.7713   -9113.1551   -16903.678   -22436.703    75.450481 
   71400    531.11185   -162.83378   0.48056116   -162.35322   -18100.123    4.2319408    4.2319408    4.2319408   -18100.123    -24416.71   -339.28794   -29544.371   -12415.527   -15860.985   -25727.272    75.791197 
   71500    522.36575   -162.82233   0.47264751   -162.34968   -145.72605    4.2246956    4.2246956    4.2246956   -145.72605   -3410.7079     1060.469    1913.0607   -14295.525   -19019.246   -35523.006    75.402593 
   71600    505.86322   -162.80832   0.45771567    -162.3506   -2834.3783    4.2274298    4.2274298    4.2274298   -2834.3783   -20231.601    1129.6433    10598.823   -10991.186   -17644.709   -31514.439    75.549086 
   71700    538.83278   -162.83308   0.48754722   -162.34553   -16326.623    4.2358536    4.2358536    4.2358536   -16326.623   -12277.405   -6380.1537   -30322.309   -17318.623   -19976.709    -28776.25    76.001615 
   71800    762.20025   -163.03141    0.6896548   -162.34176    12286.054    4.2253354    4.2253354    4.2253354    12286.054    34289.907    8482.1333   -5913.8786   -7408.4359    -16678.08   -30254.441    75.436851 
   71900    964.09477   -163.21612   0.87233321   -162.34378   -8813.6862     4.228112     4.228112     4.228112   -8813.6862    24549.831   -1561.3389    -49429.55   -3664.0402   -11172.019   -27695.385    75.585665 
   72000    973.35691   -163.22567   0.88071379   -162.34495   -4561.5605    4.2309254    4.2309254    4.2309254   -4561.5605    30747.821    11457.193   -55889.695   -2817.0072   -6175.4738   -25609.094    75.736654 
   72100    724.44765   -163.00129   0.65549545    -162.3458    673.98138    4.2271389    4.2271389    4.2271389    673.98138    31472.461   -950.39891   -28500.118    6404.2505    7148.4294   -23077.866    75.533493 
   72200    442.76275   -162.74801   0.40062104   -162.34739   -16545.312    4.2277383    4.2277383    4.2277383   -16545.312     5626.608   -12605.678   -42656.866    380.97112    8086.7984   -22425.058    75.565625 
   72300    358.22427   -162.67301   0.32412885   -162.34888   -970.28544    4.2246575    4.2246575    4.2246575   -970.28544    18150.148    10071.518   -31132.522    2475.2421    13333.069   -6573.4724    75.400551 
   72400    547.73236   -162.84652   0.49559975   -162.35092   -10833.967    4.2302939    4.2302939    4.2302939   -10833.967    8531.3138   -1576.2826   -39456.934    4834.0249    16999.744   -5512.2037    75.702746 
   72500     828.6456   -163.09891   0.74977595   -162.34914   -5577.1245    4.2324645    4.2324645    4.2324645   -5577.1245    25451.659    10150.242   -52333.274   -849.73248    14524.308   -3062.1144    75.819338 
   72600    929.03453   -163.18829   0.84060997   -162.34768      4757.03    4.2249076    4.2249076    4.2249076      4757.03     55207.85   -5537.3865   -35399.374    10903.481     19041.85    6487.5581    75.413942 
   72700    863.29075   -163.12788   0.78112361   -162.34676   -518.61505    4.2256194    4.2256194    4.2256194   -518.61505    18916.663   -9241.5747   -11230.934    2336.5959    9465.3617    5124.2161    75.452065 
   72800    774.53664   -163.04391   0.70081703   -162.34309   -11663.582    4.2322591    4.2322591    4.2322591   -11663.582   -14518.953   -12133.152   -8338.6407    13151.284    5928.9431     2454.371    75.808296 
   72900    754.49686   -163.02348   0.68268462    -162.3408   -8934.0743    4.2308849    4.2308849    4.2308849   -8934.0743   -15233.942   -15512.388     3944.107    11258.466   -193.23224    5740.4322    75.734478 
   73000    900.23625   -163.15562   0.81455268   -162.34107   -799.95726     4.224026     4.224026     4.224026   -799.95726   -27490.195   -513.49072    25603.814    13547.899   -9232.6049    3022.5336    75.366742 
   73100    1110.9732   -163.34873    1.0052319    -162.3435    1362.5576    4.2241506    4.2241506    4.2241506    1362.5576    5467.7755   -3404.8776    2024.7749     12966.85   -16651.546    4752.6163    75.373412 
   73200    1077.2247   -163.32051   0.97469556   -162.34581   -9813.1046    4.2315002    4.2315002    4.2315002   -9813.1046   -432.32222   -23710.098   -5296.8933    5158.2846   -22962.828    7505.6039    75.767523 
   73300    859.32542   -163.12219    0.7775357   -162.34466   -212.49734    4.2299703    4.2299703    4.2299703   -212.49734   -8558.4821    -24618.41      32539.4    6544.9746   -19636.732    3563.1186    75.685373 
   73400    786.53886   -163.05436   0.71167689   -162.34269   -7090.0179    4.2248672    4.2248672    4.2248672   -7090.0179    -26052.17   -10723.711    15505.827   -569.78114    -20187.22    647.54165    75.411778 
   73500     820.9679   -163.08683   0.74282901     -162.344   -3219.4368    4.2246621    4.2246621    4.2246621   -3219.4368   -46370.229    2813.7853    33898.133    921.24406   -19718.903   -2615.7075    75.400798 
   73600    840.78308   -163.10747    0.7607582   -162.34671    5206.4558    4.2308363    4.2308363    4.2308363    5206.4558     -30636.4    5238.3561    41017.411   -282.03105    -6452.814   -1968.4744    75.731869 
   73700    1003.8948   -163.25244   0.90834509    -162.3441    -19591.38    4.2345396    4.2345396    4.2345396    -19591.38   -48806.967   -13.131752   -9954.0425   -4444.5111   -3073.4272   -3958.6707    75.930906 
   73800    1095.4834    -163.3338   0.99121642   -162.34258    8813.5503    4.2199902    4.2199902    4.2199902    8813.5503   -14530.338    23684.032    17286.957    121.98806    3766.9746   -298.69753    75.150925 
   73900    981.16436   -163.23539   0.88777813   -162.34761    6751.7836    4.2236049    4.2236049    4.2236049    6751.7836   -11679.798    17665.769     14269.38   -4018.4619    16908.202   -160.03901    75.344203 
   74000    797.37883   -163.06824   0.72148512   -162.34675   -15406.978    4.2368473    4.2368473    4.2368473   -15406.978   -58508.527   -6455.5926    18743.187    1763.3427     16923.83   -2424.6717    76.055118 
   74100    758.49243    -163.0291   0.68629989    -162.3428   -1011.4739    4.2265993    4.2265993    4.2265993   -1011.4739    -56442.46    8215.9217    45192.116    438.19969    22664.205    3.6130933    75.504567 
   74200    932.47811   -163.18566   0.84372579   -162.34193   -1958.6351    4.2210544    4.2210544    4.2210544   -1958.6351   -44511.086    16037.061    22598.119    198.45805    27902.488   -6872.2727    75.207791 
   74300    1272.1847   -163.49735    1.1510994   -162.34625    5282.9028    4.2260062    4.2260062    4.2260062    5282.9028    -19946.36    3381.9101    32413.158   -1342.4389     30023.27    1243.2994    75.472789 
   74400    1596.9863   -163.79223    1.4449868   -162.34724   -6551.6221    4.2316353    4.2316353    4.2316353   -6551.6221   -11087.103   -15310.922    6743.1587    -2285.618    25225.031   -2342.3083     75.77478 
   74500    1579.2727   -163.77357    1.4289591   -162.34461   -3559.3971    4.2268507    4.2268507    4.2268507   -3559.3971   -4167.6063   -15104.306    8593.7205   -801.03534    22029.829    6764.0504    75.518042 
   74600    1392.3818   -163.60163    1.2598563   -162.34178    13990.694    4.2199266    4.2199266    4.2199266    13990.694    3059.4568   -6743.5694    45656.195   -1732.8123    17391.825    9636.5803    75.147528 
   74700    1309.2897   -163.52779    1.1846728   -162.34311    -9184.497    4.2298851    4.2298851    4.2298851    -9184.497   -24306.344   -27347.988    24100.841    271.13499    6321.8022     8060.844    75.680797 
   74800     1442.246   -163.64514    1.3049745   -162.34017   -3383.0145     4.230497     4.230497     4.230497   -3383.0145    2313.0179   -29578.084    17116.023   -2599.4758    5685.4775    6926.1002     75.71365 
   74900    1655.2784    -163.8352    1.4977307   -162.33747    8634.8003    4.2242495    4.2242495    4.2242495    8634.8003    36778.163   -14439.017    3565.2542    -2094.532   -5108.3891   -2317.7052    75.378705 
   75000    1856.3342   -164.01704    1.6796502   -162.33739   -1883.1559     4.228963     4.228963     4.228963   -1883.1559    36059.787   -20581.426   -21127.828    345.33474   -5701.5023   -1259.1012    75.631315 
   75100    1815.1598   -163.97856    1.6423947   -162.33617   -2516.2112    4.2277038    4.2277038    4.2277038   -2516.2112    28612.708   -13628.473   -22532.869   -4142.7302   -10298.862   -5287.2887    75.563778 
   75200     1597.618   -163.78057    1.4455584   -162.33501    -2414.252    4.2281078    4.2281078    4.2281078    -2414.252    16091.587   -7000.2512   -16334.092    821.36259   -14423.438    -5619.089    75.585444 
   75300    1507.8803   -163.69844    1.3643618   -162.33408    -6271.294    4.2301433    4.2301433    4.2301433    -6271.294    2296.8651   -11011.251   -10099.496   -2480.8575    -9121.108   -6528.7487    75.694657 
   75400    1556.8462   -163.74358    1.4086671   -162.33491    2414.9152    4.2237596    4.2237596    4.2237596    2414.9152    15460.334   -415.53485   -7800.0533    472.79609   -16662.808   -18201.272    75.352486 
   75500     1588.703   -163.77662    1.4374919   -162.33913    2219.0192    4.2259518    4.2259518    4.2259518    2219.0192    33464.746    5965.4761   -32773.165    6527.2284   -9274.2207   -15798.687    75.469873 
   75600    1665.2602   -163.84757    1.5067624   -162.34081    -710.2547    4.2300173    4.2300173    4.2300173    -710.2547    37955.088     4782.184   -44868.036   -2059.0327   -8937.7034   -19828.802    75.687898 
   75700    1740.3253   -163.91481    1.5746829   -162.34013   -3492.4965    4.2273654    4.2273654    4.2273654   -3492.4965     22677.42    13247.041   -46401.951    10581.948   -1279.5687   -14544.145    75.545634 
   75800    1757.7086   -163.92964    1.5904117   -162.33923     -4045.82    4.2264811    4.2264811    4.2264811     -4045.82   -358.47259    16860.127   -28639.114   -5840.1603    1501.4564    -14321.79    75.498233 
   75900    1697.1037   -163.87572    1.5355751   -162.34014    3149.8201    4.2251082    4.2251082    4.2251082    3149.8201    -4300.184    13802.142   -52.497207    3499.3813     5630.161   -8968.0432    75.424687 
   76000    1602.7867   -163.79064    1.4502351    -162.3404   -4795.2022    4.2284817    4.2284817    4.2284817   -4795.2022   -10740.722   -210.43328   -3434.4516   -4699.0737     16399.17   -8714.7546    75.605495 
   76100     1581.474   -163.76764    1.4309509   -162.33668   -8959.8801    4.2322483    4.2322483    4.2322483   -8959.8801   -10140.283   -3768.3481   -12971.009   -3860.3281    18315.632   -6177.6951    75.807717 
   76200    1714.6954   -163.88523    1.5514924   -162.33374   -1855.0771    4.2276009    4.2276009    4.2276009   -1855.0771   -6168.1705    15589.556   -14986.617    3452.2966    24440.899    948.67159     75.55826 
   76300    1862.6387   -164.01892    1.6853546   -162.33356   -3592.1123    4.2268588    4.2268588    4.2268588   -3592.1123   -3288.4079    22212.731    -29700.66   -8009.6551     22722.57   -3740.0368    75.518477 
   76400    1910.8173   -164.06552    1.7289476   -162.33657    9575.9179     4.226598     4.226598     4.226598    9575.9179    10678.066    29075.599   -11025.911    2611.6069    20841.134    10550.547    75.504501 
   76500    1824.0116   -163.98941    1.6504041   -162.33901   -4105.9516    4.2276643    4.2276643    4.2276643   -4105.9516   -26401.612    17882.757   -3798.9992    -4677.468    16472.228    7408.5418    75.561659 
   76600    1661.8271   -163.84218    1.5036561   -162.33853   -4562.1834    4.2279776    4.2279776    4.2279776   -4562.1834   -28388.608    6726.5544    7975.5033    3143.2961    9742.8181    12627.945    75.578462 
   76700    1552.6593    -163.7418    1.4048788   -162.33692    3308.9321    4.2251004    4.2251004    4.2251004    3308.9321   -6312.5609    8313.6408    7925.7163    1844.2111    1963.5345    10000.677    75.424266 
   76800    1623.6406   -163.80654    1.4691042   -162.33743   -10493.529    4.2301337    4.2301337    4.2301337   -10493.529   -10486.967   -652.95158   -20340.668    1771.4382   -1630.2528     8515.271    75.694144 
   76900     1846.029   -164.00741    1.6703258   -162.33708    5056.5715    4.2271731    4.2271731    4.2271731    5056.5715    20154.886     10944.08   -15929.251     6482.582   -3747.6907    9014.3506    75.535322 
   77000    2021.2068    -164.1664    1.8288304   -162.33757    6849.4269    4.2236945    4.2236945    4.2236945    6849.4269    11706.476    12280.815   -3439.0107      6659.84   -12337.126   -3750.2968    75.348999 
   77100    1883.6962    -164.0436    1.7044079   -162.33919   -7335.0261    4.2293288    4.2293288    4.2293288   -7335.0261   -7776.1123   -7163.2548   -7065.7113    3181.6688   -12009.387   -4368.5803    75.650943 
   77200    1580.3763    -163.7684    1.4299577   -162.33844    8567.6334    4.2254015    4.2254015    4.2254015    8567.6334    12214.203    5127.6752    8361.0217    1115.3445   -16864.324   -14661.517    75.440392 
   77300    1408.4103   -163.61431    1.2743593   -162.33996   -2793.4279    4.2264077    4.2264077    4.2264077   -2793.4279    10687.057   -17259.542   -1807.7995   -2807.3078   -16808.357   -20032.958      75.4943 
   77400    1490.8359   -163.68942    1.3489397   -162.34048   -8535.9021    4.2278736    4.2278736    4.2278736   -8535.9021    25224.378   -27947.386   -22884.698    -667.1215   -18800.307    -28486.07    75.572883 
   77500    1700.0879   -163.87897    1.5382752    -162.3407    9295.6451    4.2238078    4.2238078    4.2238078    9295.6451     41633.56   -1358.3219   -12388.302   -1352.3792   -21844.917   -30899.329    75.355063 
   77600    1857.2912   -164.02263    1.6805161   -162.34212    -3307.549    4.2317754    4.2317754    4.2317754    -3307.549    34643.582   -27328.208    -17238.02   -6222.6035   -16248.467   -29485.606    75.782309 
   77700    1796.9442   -163.96418    1.6259129   -162.33827     -788.251    4.2288338    4.2288338    4.2288338     -788.251    25486.028   -25500.816   -2349.9651    1104.5758   -17775.764   -33861.368    75.624384 
   77800    1608.6132   -163.78941     1.455507    -162.3339    10402.464    4.2241926    4.2241926    4.2241926    10402.464    21833.399   -11730.826     21104.82   -1219.4396    -15274.98   -28476.204    75.375659 
   77900    1373.2094   -163.57543    1.2425087   -162.33292     -13066.9    4.2323322    4.2323322    4.2323322     -13066.9    9285.6554   -34958.843   -13527.512    5161.1651   -16675.633   -27594.301    75.812225 
   78000     1376.125   -163.57603    1.2451468   -162.33088   -7354.1944    4.2284009    4.2284009    4.2284009   -7354.1944    14326.846   -20939.845   -15449.584    6169.1083   -17321.912   -21965.813    75.601163 
   78100    1667.1117    -163.8416    1.5084377   -162.33317     11454.18    4.2259556    4.2259556    4.2259556     11454.18    33566.639   -1354.7221    2150.6219    859.06495   -15829.679   -9211.9428    75.470074 
   78200    2063.2924   -164.20424    1.8669103   -162.33733    -977.3999    4.2279189    4.2279189    4.2279189    -977.3999    11018.882    -4171.876   -9779.2053    7458.7702   -14047.556   -8219.7396    75.575311 
   78300     2216.187   -164.34536    2.0052525   -162.34011    9097.8983    4.2242764    4.2242764    4.2242764    9097.8983    15701.362    4766.5852    6825.7481   -379.09367   -13374.923    2162.6578    75.380145 
   78400    1982.7182   -164.13602    1.7940051   -162.34202   -717.71899    4.2289234    4.2289234    4.2289234   -717.71899   -4883.2987   -3578.0551    6308.1969    2766.2885   -10408.748    2443.7528    75.629193 
   78500     1612.356   -163.79909    1.4588936   -162.34019   -5962.7732    4.2286054    4.2286054    4.2286054   -5962.7732   -4264.1126   -10314.021   -3310.1858    -7009.072   -6915.5328    6890.8335    75.612133 
   78600    1365.8207   -163.57632    1.2358233    -162.3405    1289.8088    4.2238759    4.2238759    4.2238759    1289.8088    2140.8768   -4836.7671    6565.3169   -8808.9853   -4884.0771    755.19198     75.35871 
   78700    1404.1228   -163.61377    1.2704798   -162.34329   -4588.8055    4.2298636    4.2298636    4.2298636   -4588.8055   -7228.6152   -20047.448    13509.647   -8440.9498   -3190.7827   -5979.9914    75.679643 
   78800    1606.0801   -163.79776    1.4532151   -162.34454   -522.20119    4.2280131    4.2280131    4.2280131   -522.20119    3381.0429   -17735.873    12788.226    -10655.05    53.034871   -7977.3403    75.580362 
   78900    1729.9211   -163.91044    1.5652689   -162.34517    7811.7685    4.2241273    4.2241273    4.2241273    7811.7685    3229.7171   -2298.2007    22503.789   -4113.1913   -1926.6344    -14465.56    75.372164 
   79000    1655.2842   -163.84317    1.4977359   -162.34543   -3135.0146    4.2271888    4.2271888    4.2271888   -3135.0146    3374.8565   -5115.7347   -7664.1657   -8134.2667    4848.9424    -13310.61    75.536164 
   79100    1394.7116   -163.60672    1.2619644   -162.34476   -1122.1442     4.225701     4.225701     4.225701   -1122.1442     8613.896    1691.1541   -13671.483   -286.75493    7000.1141   -18317.546    75.456437 
   79200    1111.6705   -163.35038    1.0058629   -162.34451     -5450.63    4.2270773    4.2270773    4.2270773     -5450.63    4674.4209    -193.4501   -20832.861   -553.75373    16708.134   -11772.789    75.530189 
   79300    1058.6609   -163.30333   0.95789865   -162.34544   -6693.3711    4.2252973    4.2252973    4.2252973   -6693.3711    -425.8933     -8119.41    -11534.81    5684.8175    22398.813   -11068.752    75.434813 
   79400    1166.0055   -163.40336    1.0550262   -162.34834   -70.481115    4.2255035    4.2255035    4.2255035   -70.481115   -638.47636   -8713.2487    9140.2817    6554.6876    23801.304   -6066.5592    75.445859 
   79500    1343.8745   -163.56609    1.2159659   -162.35012   -2816.9366    4.2279399    4.2279399    4.2279399   -2816.9366   -10518.887     1772.856    295.22149    5167.1044    36353.253    2044.4258    75.576436 
   79600    1401.0325   -163.61795    1.2676836   -162.35027    4120.3035     4.223056     4.223056     4.223056    4120.3035   -6723.8226    15181.754    3902.9792    3408.5642    36835.248    4164.8159    75.314836 
   79700    1265.2406   -163.49527    1.1448163   -162.35045   -1942.6064    4.2291925    4.2291925    4.2291925   -1942.6064   -8244.9068    14160.829   -11743.742    225.87314     41598.74    11008.161    75.643629 
   79800    969.56285   -163.22624   0.87728084   -162.34896   -9327.7039    4.2265601    4.2265601    4.2265601   -9327.7039   -25177.588    22695.054   -25500.578   -2251.0468    50824.435    6206.0272    75.502466 
   79900    716.07436   -162.99714   0.64791913   -162.34922    7143.1262    4.2204568    4.2204568    4.2204568    7143.1262    -9901.363    23877.271    7453.4708   -6094.2498    52076.365    8245.2089    75.175857 
   80000    666.12861   -162.95191   0.60272716   -162.34918   -14823.568    4.2317959    4.2317959    4.2317959   -14823.568   -30530.882   -2654.3673   -11285.454   -3045.6708    56706.187    289.69046    75.783412 
   80100    896.65569   -163.15739   0.81131291   -162.34608   -4764.4699    4.2272336    4.2272336    4.2272336   -4764.4699   -26187.171    5429.8328    6463.9291   -6183.4213    59803.266    -994.2192    75.538565 
   80200    1175.6249   -163.40908    1.0637301   -162.34535    7502.2127    4.2241557    4.2241557    4.2241557    7502.2127    3994.2602    26934.269    -8421.891    514.36822    60072.358    -6824.294    75.373683 
   80300    1302.0733   -163.52388    1.1781433   -162.34573   -4774.1626    4.2296997    4.2296997    4.2296997   -4774.1626   -26874.256    39721.864   -27170.096   -1965.6675     71465.61   -8152.0681    75.670849 
   80400    1148.9727   -163.38471    1.0396147    -162.3451    7763.4148    4.2255862    4.2255862    4.2255862    7763.4148   -3965.6855    50330.322   -23074.392    942.91442    65417.458   -5767.2601    75.450287 
   80500    789.53709   -163.06052   0.71438975   -162.34613   -7076.3448    4.2280172    4.2280172    4.2280172   -7076.3448   -25311.632    37770.972   -33688.374    4388.1028    68954.096   -5314.7023    75.580582 
   80600    531.93811   -162.82842   0.48130878   -162.34711   -8703.2281    4.2273166    4.2273166    4.2273166   -8703.2281   -31235.922    23433.718   -18307.481    467.89317     69087.23    1468.5021    75.543018 
   80700    533.37548   -162.83184   0.48260934   -162.34923    2390.1374    4.2262443    4.2262443    4.2262443    2390.1374    8975.7708    10776.305   -12581.664    8256.0846    70147.436    1235.9262    75.485547 
   80800    806.16383   -163.08002   0.72943397   -162.35059     -8895.43    4.2277293    4.2277293    4.2277293     -8895.43   -18644.007    7155.2102   -15197.493    -364.9966    73822.996     8782.822    75.565145 
   80900    1009.3966   -163.26399   0.91332325   -162.35067    7936.2559    4.2242382    4.2242382    4.2242382    7936.2559    7991.5489    35601.439    -19784.22    2535.4192     69536.47    10040.264    75.378102 
   81000    915.66242   -163.18028    0.8285106   -162.35177   -8037.0929     4.228204     4.228204     4.228204   -8037.0929     -38691.1    33985.272   -19405.451   -3996.5709    66692.083    15003.958      75.5906 
   81100     641.3184   -162.93124   0.58027837   -162.35096   -1819.2207    4.2260591    4.2260591    4.2260591   -1819.2207   -34585.036    42423.667   -13296.293   -3644.6404    60616.356    17109.945    75.475624 
   81200    509.16397   -162.81046   0.46070226   -162.34976   -2278.3641    4.2241481    4.2241481    4.2241481   -2278.3641   -42216.171    44459.596   -9078.5172   -3715.1435    57578.108    13806.748    75.373277 
   81300    630.49373   -162.92031   0.57048398   -162.34983   -9623.9919    4.2294655    4.2294655    4.2294655   -9623.9919   -43448.006    17761.351   -3185.3208   -6334.6695     47951.84     14000.29    75.658279 
   81400      928.171   -163.18874   0.83982863   -162.34891    3413.5306    4.2257168    4.2257168    4.2257168    3413.5306   -9707.1033    24591.739   -4644.0438   -933.15583     45595.26     1776.993    75.457284 
   81500    1114.1751   -163.35706     1.008129   -162.34893    1864.8496    4.2264722    4.2264722    4.2264722    1864.8496   -18701.432     26832.38   -2536.3993   -1088.5824    39617.363   -2278.6399    75.497759 
   81600    1052.5268   -163.30013   0.95234841   -162.34778   -6742.7676    4.2302349    4.2302349    4.2302349   -6742.7676   -31048.233    25312.162   -14492.231    2503.6058    38213.406   -13253.501    75.699579 
   81700    801.33601   -163.07039   0.72506566   -162.34532    777.19797    4.2241138    4.2241138    4.2241138    777.19797   -26709.967    41905.253   -12863.692    4644.9798    28985.205   -20149.695    75.371444 
   81800    677.53306    -162.9593   0.61304615   -162.34626   -11549.551     4.226315     4.226315     4.226315   -11549.551   -39888.854    20189.149   -14948.948    3677.7995    27683.986   -28220.346    75.489331 
   81900    820.64505   -163.08972   0.74253689   -162.34718   -6981.1115     4.228461     4.228461     4.228461   -6981.1115   -12978.617     12331.56   -20296.278    2958.0081    21663.005   -31465.677    75.604384 
   82000    1205.6618   -163.43832    1.0909081   -162.34742    3679.8141    4.2240312    4.2240312    4.2240312    3679.8141    16919.454   -1371.8885   -4508.1234   -1023.8929    13510.305   -33715.148    75.367021 
   82100    1504.8743   -163.71126    1.3616419   -162.34962   -5296.0127    4.2274422    4.2274422    4.2274422   -5296.0127    13811.024   -12053.237   -17645.826   -3307.8774    12115.269   -34939.591    75.549751 
   82200    1496.1737   -163.70416    1.3537694   -162.35039    7332.9473    4.2248248    4.2248248    4.2248248    7332.9473    16967.307    9071.7458   -4040.2107   -5840.1881    2704.9513   -26469.583    75.409509 
   82300     1273.583   -163.50145    1.1523647   -162.34908   -4189.3723     4.224467     4.224467     4.224467   -4189.3723   -9679.8686   -1466.0936   -1422.1548    -11294.72   -5122.4915   -23102.787    75.390351 
   82400    1180.6604   -163.41512    1.0682863   -162.34683   -11292.892    4.2289938    4.2289938    4.2289938   -11292.892   -25693.182    7473.8178   -15659.313   -7586.2551   -7440.6898   -13107.692    75.632968 
   82500    1477.3973    -163.6811    1.3367801   -162.34432    1457.0403    4.2237653    4.2237653    4.2237653    1457.0403    -8849.093     13661.61   -441.39642   -3253.0592   -13096.019   -4691.1877     75.35279 
   82600    2023.5023   -164.17605    1.8309074   -162.34514    841.73816    4.2246359    4.2246359    4.2246359    841.73816    4418.6839    903.97238   -2797.4418   -6978.8029   -19916.453    1050.7453    75.399394 
   82700    2429.6522   -164.54426    2.1984003   -162.34586     4813.339    4.2266285    4.2266285    4.2266285     4813.339    14388.629   -1555.9879     1607.376    3470.9737   -17950.433    10602.036    75.506131 
   82800    2436.4765    -164.5495    2.2045752   -162.34492    7037.4651    4.2257871    4.2257871    4.2257871    7037.4651     6186.928   -1037.3598    15962.827   -1483.6142   -25817.431    6392.9957     75.46105 
   82900    2069.2695    -164.2151    1.8723185   -162.34279    -2333.288    4.2275981    4.2275981    4.2275981    -2333.288   -21150.942    -1680.015    15831.093    4469.2425   -21177.549    8389.4807    75.558111 
   83000     1667.249    -163.8499    1.5085619   -162.34134   -624.91203    4.2239029    4.2239029    4.2239029   -624.91203   -24971.049    5425.6936    17670.619    -1832.624   -21526.626    2566.1557    75.360151 
   83100    1511.7983   -163.71147    1.3679069   -162.34356    1372.4572    4.2268388    4.2268388    4.2268388    1372.4572   -17366.262    13095.695    8387.9383   -4610.7201   -16588.998   -2642.1893    75.517407 
   83200    1681.6795   -163.86613     1.521619   -162.34452   -4737.4094    4.2288561    4.2288561    4.2288561   -4737.4094    779.93199   -11201.163   -3790.9967   -1814.6528   -10786.281   -10079.644     75.62558 
   83300    1845.9927   -164.01591     1.670293   -162.34562    5069.5566    4.2237192    4.2237192    4.2237192    5069.5566    19000.485   -13641.236    9849.4204   -10298.991    -7922.877   -16775.117     75.35032 
   83400    1788.3887   -163.96518    1.6181717   -162.34701    4839.6087    4.2258167    4.2258167    4.2258167    4839.6087    15005.229    -13674.75    13188.347    -2404.724   -2592.8865   -23914.313    75.462637 
   83500     1489.696   -163.69517    1.3479083   -162.34726     -5393.59    4.2266635    4.2266635    4.2266635     -5393.59   -3774.4388   -22903.671    10497.339   -6810.7098    4744.4641    -26518.85     75.50801 
   83600    1172.0866   -163.40721    1.0605286   -162.34668   -132.25516    4.2258586    4.2258586    4.2258586   -132.25516   -15720.166    8288.6159    7034.7844   -733.72238    7382.2137   -29607.064    75.464881 
   83700     1041.039   -163.28838   0.94195396   -162.34643   -2191.7696    4.2259905    4.2259905    4.2259905   -2191.7696   -15796.566     18463.08   -9241.8224    965.26543    11948.309   -25272.891    75.471947 
   83800    1162.2094   -163.40084    1.0515915   -162.34925   -1458.1209    4.2247682    4.2247682    4.2247682   -1458.1209   -19117.292    23572.247   -8829.3177    2430.6534    20880.297   -22942.148    75.406476 
   83900    1334.8208   -163.55854    1.2077739   -162.35077    1001.9888    4.2260452    4.2260452    4.2260452    1001.9888   -17382.577    31498.256   -11109.712    2940.5099    19022.908   -13642.899    75.474878 
   84000    1339.0316    -163.5629    1.2115839   -162.35132   -2924.2867    4.2276656    4.2276656    4.2276656   -2924.2867   -24391.149    4642.7633    10975.526    1111.5832    28250.776   -2925.5276     75.56173 
   84100    1032.6529   -163.28658   0.93436608   -162.35221   -5223.5863    4.2254189    4.2254189    4.2254189   -5223.5863   -27225.379    7509.2307    4045.3896    1503.0672    28568.616    3766.8786    75.441327 
   84200    724.19306   -163.00765    0.6552651   -162.35239   -6233.1121    4.2244531    4.2244531    4.2244531   -6233.1121   -28473.375    19059.981   -9285.9423   -4311.7966    35180.062    11997.268    75.389608 
   84300    605.10519   -162.90079    0.5475119   -162.35328   -8913.2014    4.2289413    4.2289413    4.2289413   -8913.2014    -37346.32    28641.712   -18034.996   -132.43071    41444.604    16358.516    75.630151 
   84400    734.48996   -163.01649   0.66458195   -162.35191   -5696.9234     4.226936     4.226936     4.226936   -5696.9234   -23179.672    44514.557   -38425.656    -8362.305    46519.045    21393.078    75.522614 
   84500    846.25082   -163.11722   0.76570553   -162.35151    2629.8643    4.2265252    4.2265252    4.2265252    2629.8643   -3718.9221    35731.396   -24122.881   -1496.2281    58766.822    22801.747    75.500597 
   84600    750.23551   -163.03113   0.67882886    -162.3523   -8201.0256     4.227611     4.227611     4.227611   -8201.0256    -8661.546    11580.469       -27522   -6219.7047    62461.159    21540.579      75.5588 
   84700    494.76453   -162.79926   0.44767334   -162.35158   -1016.9126      4.22666      4.22666      4.22666   -1016.9126    18737.671   -6968.6992    -14819.71   -3528.1009     62075.54    24759.524    75.507824 
   84800    332.44068   -162.65306   0.30079932   -162.35226   -19025.423    4.2292448    4.2292448    4.2292448   -19025.423   -12080.226   -12404.492    -32591.55   -1606.4808    64969.932    18777.915    75.646437 
   84900    462.87271   -162.77132   0.41881696    -162.3525    -3582.141    4.2235249    4.2235249    4.2235249    -3582.141    3711.8051    24688.473   -39146.701   -5572.2514    61517.205    18294.351    75.339925 
   85000     858.9882   -163.13068   0.77723058   -162.35345   -2242.5974    4.2258648    4.2258648    4.2258648   -2242.5974   -9574.7545     43578.31   -40731.348   -2644.0354    59992.103    9348.8144    75.465213 
   85100    1188.3799   -163.42746    1.0752711   -162.35219   -8707.1813    4.2299587    4.2299587    4.2299587   -8707.1813   -29880.191    41088.989   -37330.341   -3629.9195    55695.901    5690.5956    75.684751 
   85200    1244.4601     -163.475    1.1260137   -162.34899    9538.3615     4.223357     4.223357     4.223357    9538.3615   -13359.852    38494.649    3480.2883   -6616.8394    46567.867   -1887.1104    75.330939 
   85300    1071.3583   -163.31664    0.9693875   -162.34725   -7496.5537    4.2281713    4.2281713    4.2281713   -7496.5537   -31609.195   -550.98924    9670.5234   -942.10483    44504.275   -5733.3857    75.588845 
   85400    927.31673    -163.1832   0.83905566   -162.34414   -6396.6863    4.2285887    4.2285887    4.2285887   -6396.6863   -18531.645   -6912.2014     6253.788   -4583.5666    29795.285   -8232.2873    75.611235 
   85500    1056.3288   -163.29776   0.95578849   -162.34197   -1794.8781    4.2251428    4.2251428    4.2251428   -1794.8781   -27152.401    4911.0234    16856.743   -595.79693    24016.256   -10173.687    75.426536 
   85600     1391.797   -163.60174    1.2593271   -162.34242   -13905.508    4.2296084    4.2296084    4.2296084   -13905.508    -45634.51    23091.616   -19173.629   -428.45196     19622.39   -12008.907    75.665946 
   85700    1731.0375      -163.91    1.5662791   -162.34372    10029.982    4.2234876    4.2234876    4.2234876    10029.982   -31304.699    40103.796     21290.85    734.26194    11752.198    -8673.483     75.33793 
   85800    1826.4679   -163.99804    1.6526266   -162.34541   -145.42475    4.2260498    4.2260498    4.2260498   -145.42475   -31912.092    19031.865    12443.953    3104.7873    13600.966   -15146.271    75.475123 
   85900    1634.6687   -163.82325    1.4790826   -162.34416   -3514.9391    4.2286485    4.2286485    4.2286485   -3514.9391   -17170.843   -17950.153    24576.179    1498.0135    10091.341   -4462.8108    75.614446 
   86000    1484.0305   -163.68444     1.342782   -162.34166    5146.5507    4.2219959    4.2219959    4.2219959    5146.5507    9917.8351   -26998.952    32520.769    4877.6951    4371.9056   -10939.954    75.258129 
   86100    1517.1874   -163.71502     1.372783   -162.34224   -6329.4373    4.2270127    4.2270127    4.2270127   -6329.4373    1852.4079   -38311.888    17471.168    2452.6832   -457.66676   -3904.6056    75.526727 
   86200    1813.0335   -163.98286    1.6404708   -162.34239   -431.41803     4.226187     4.226187     4.226187   -431.41803   -421.27015   -18895.496    18022.512    5157.4737   -11360.452    27.840899    75.482476 
   86300    2109.9737    -164.2525    1.9091485   -162.34336    4811.7617    4.2242043    4.2242043    4.2242043    4811.7617   -12205.798    11150.791    15490.292    4307.7318   -17233.499   -4314.9659    75.376286 
   86400    2192.7285   -164.32813    1.9840268    -162.3441    3321.7995    4.2262868    4.2262868    4.2262868    3321.7995   -24098.271    18382.683    15680.987    657.04807   -25101.304    10403.201    75.487822 
   86500    2055.0787   -164.20303    1.8594784   -162.34355    2894.4382     4.224763     4.224763     4.224763    2894.4382   -16655.616    9588.9456    15749.985    1977.6771   -24287.397    210.21689      75.4062 
   86600     1893.137   -164.05567    1.7129501   -162.34272   -544.57305    4.2265095    4.2265095    4.2265095   -544.57305   -4046.3795   -3507.9928    5920.6531   -4259.7163   -23293.588    8786.0153    75.499755 
   86700    1852.3493   -164.01809    1.6760445   -162.34204   -1209.5501    4.2268882    4.2268882    4.2268882   -1209.5501    13759.512   -14424.739    -2963.424    136.27063   -14003.688    1922.3578    75.520055 
   86800    1867.2982   -164.03246    1.6895707   -162.34288    878.02149    4.2271062    4.2271062    4.2271062    878.02149    17734.064   -7266.4876   -7833.5117   -5577.7582   -9826.3975    297.69227    75.531737 
   86900    1781.5792    -163.9549    1.6120103   -162.34288   -2980.3734    4.2278574    4.2278574    4.2278574   -2980.3734   -309.55635    5262.2314   -13893.795   -1244.9109   -7071.7903    2152.2153    75.572015 
   87000    1616.7279   -163.80578    1.4628493   -162.34293    1304.5606    4.2278997    4.2278997    4.2278997    1304.5606    -14063.43    24023.752   -6046.6404   -2736.6571   -1527.2047   -6665.5121    75.574283 
   87100    1475.8077   -163.67872    1.3353418   -162.34338   -598.92302    4.2279464    4.2279464    4.2279464   -598.92302    -13386.75    18100.214   -6510.2324   -2633.6316    548.85155     189.9993    75.576787 
   87200    1610.4228   -163.80095    1.4571444   -162.34381    2496.4427    4.2257365    4.2257365    4.2257365    2496.4427      9259.36    6874.0473   -8644.0793    601.85744    10953.438    -9185.759    75.458338 
   87300    1701.5321    -163.8856     1.539582   -162.34601    2324.3789    4.2277046    4.2277046    4.2277046    2324.3789    15243.356     5817.132   -14087.352    -338.9485    16151.278   -9951.7136     75.56382 
   87400    1558.9935   -163.75713      1.41061   -162.34652   -1071.1668    4.2258656    4.2258656    4.2258656   -1071.1668    13623.516    1131.6316   -17968.648    1669.4621     26397.18   -10752.069    75.465255 
   87500    1141.7666   -163.38069    1.0330944   -162.34759   -785.78114    4.2235263    4.2235263    4.2235263   -785.78114   -11804.939    7077.5673     2370.028    5338.4585    34306.148   -17891.634        75.34 
   87600    791.72083   -163.06608   0.71636565   -162.34972   -6417.9663    4.2260763    4.2260763    4.2260763   -6417.9663   -55667.395     25730.75    10682.746    8124.2886     39056.88   -9429.9615    75.476542 
   87700    822.54449    -163.0941   0.74425554   -162.34984   -4467.3908    4.2249142    4.2249142    4.2249142   -4467.3908    -52415.62     28264.64    10748.807    8774.3957    41698.703   -8729.1336    75.414298 
   87800    1104.2522   -163.35118   0.99915058   -162.35203    244.51734    4.2262992    4.2262992    4.2262992    244.51734   -34485.676    16501.707    18717.521    13073.018    40382.452   -6132.4598    75.488487 
   87900     1382.256   -163.60317    1.2506943   -162.35248    292.64507    4.2252637    4.2252637    4.2252637    292.64507   -17921.465    24913.362   -6113.9621    8975.3274    39979.572    3553.4478    75.433015 
   88000    1315.7015   -163.54167    1.1904743   -162.35119    4636.8531    4.2232088    4.2232088    4.2232088    4636.8531   -20750.657    27400.916    7260.3001    12795.181    34373.496    15.855261    75.323011 
   88100    925.39405   -163.18726   0.83731599   -162.34994   -10600.449     4.229536     4.229536     4.229536   -10600.449   -56297.816    19602.619    4893.8507    5206.9444    31247.477    7132.9077     75.66206 
   88200    647.25754   -162.93383   0.58565222   -162.34818   -6029.0705    4.2251809    4.2251809    4.2251809   -6029.0705   -63598.066    29656.945     15853.91    2087.8621    24755.716    2996.7461    75.428576 
   88300    752.19655   -163.02764   0.68060324   -162.34703    15.640608    4.2230718    4.2230718    4.2230718    15.640608   -56444.186    21947.868    34543.239   -3216.2728    24356.863    2600.8894    75.315679 
   88400    1133.2944   -163.37302    1.0254286   -162.34759    -10013.51    4.2295987    4.2295987    4.2295987    -10013.51   -34057.668   -8653.4094    12670.546   -12718.338    19374.995    3051.4697    75.665429 
   88500    1381.0603   -163.59654    1.2496124   -162.34693     4831.656    4.2253379    4.2253379    4.2253379     4831.656    1143.5073   -13329.841    26681.302   -15180.916    15173.271   -2374.4777    75.436989 
   88600    1333.3077   -163.55243    1.2064048   -162.34602    568.20366    4.2233431    4.2233431    4.2233431    568.20366   -8473.3152   -12234.555    22412.481   -26807.892    16659.168    1991.4929    75.330197 
   88700    1077.3192   -163.32072   0.97478107   -162.34594   -5883.6327    4.2270745    4.2270745    4.2270745   -5883.6327   -29918.475   -17853.015    30120.592   -29867.829    5978.2534   -3309.7713    75.530041 
   88800    881.53836   -163.14234   0.79763443   -162.34471   -7990.9225    4.2259954    4.2259954    4.2259954   -7990.9225   -51969.834   -14955.807    42952.874   -39670.023    4833.6832    1118.7167     75.47221 
   88900    1004.0035   -163.25386   0.90844346   -162.34542   -5208.8354    4.2256782    4.2256782    4.2256782   -5208.8354   -42057.047   -16101.141    42531.682    -44156.91   -2555.3896   -2833.9058    75.455216 
   89000    1349.6413   -163.56722    1.2211838   -162.34604    -2557.581    4.2260243    4.2260243    4.2260243    -2557.581   -8224.0403   -35670.279    36221.576   -50013.064   -5793.9676    239.51119    75.473757 
   89100    1547.8296   -163.74728    1.4005087   -162.34677    400.30895    4.2246042    4.2246042    4.2246042    400.30895    7071.1967   -39958.941    34088.672   -58221.055   -13635.575    2241.3178    75.397699 
   89200    1399.3938   -163.61325    1.2662009   -162.34705    654.65213    4.2266689    4.2266689    4.2266689    654.65213   -7247.6165   -26450.601    35662.173   -52448.407   -12277.097   -2073.1354    75.508301 
   89300    1081.8632   -163.32442    0.9788926   -162.34553   -8570.0367    4.2275837    4.2275837    4.2275837   -8570.0367   -43383.413    -16728.49    34401.793   -58806.601   -14854.432     2295.019     75.55734 
   89400    870.81351   -163.13359   0.78793036   -162.34566   -1448.8898    4.2232555    4.2232555    4.2232555   -1448.8898   -54457.663    10509.808    39601.186   -51270.504   -12320.473   -4071.4705    75.325509 
   89500    963.08724   -163.21903   0.87142158   -162.34761   -2961.8143     4.225838     4.225838     4.225838   -2961.8143    -49536.68    9838.1687    30813.068   -50172.774   -3587.1493    664.94527    75.463777 
   89600     1188.169   -163.42241    1.0750803   -162.34733   -11232.369    4.2298183    4.2298183    4.2298183   -11232.369   -29865.186   -16865.082     13033.16   -44553.416    29.551111   -2326.2838    75.677215 
   89700    1273.3306   -163.49923    1.1521363   -162.34709    5805.5715    4.2236825    4.2236825    4.2236825    5805.5715    2412.6119   -3737.3857    18741.488   -42135.569    10602.735   -2002.8602    75.348356 
   89800    1119.0571    -163.3597    1.0125464   -162.34716    255.23586    4.2236045    4.2236045    4.2236045    255.23586   -8881.3325    -7961.138    17608.178   -40240.153    17304.297    114.75965    75.344185 
   89900    878.14029   -163.14135   0.79455979   -162.34679   -9429.3573    4.2291777    4.2291777    4.2291777   -9429.3573   -38560.115   -1306.2024    11578.245   -35284.086    22763.477   -40.081475    75.642836 
   90000    769.90008    -163.0423   0.69662177   -162.34568   -3084.5565    4.2262642    4.2262642    4.2262642   -3084.5565   -46094.167    24578.345    12262.152   -31852.384    25090.492    947.79796    75.486612 
   90100    1018.7585    -163.2677   0.92179408    -162.3459   -4912.8902    4.2236357    4.2236357    4.2236357   -4912.8902   -28842.825    14927.309   -823.15475   -27589.783    22549.908    3494.7217    75.345853 
   90200    1384.8065   -163.60195     1.253002   -162.34895    -1283.262     4.226176     4.226176     4.226176    -1283.262    890.07044    4198.9843   -8938.8409   -21267.116    18286.801   -638.15999    75.481883 
   90300    1552.9542   -163.75522    1.4051456   -162.35007    75.206295    4.2269523    4.2269523    4.2269523    75.206295    16114.803   -9519.3095    -6369.875   -19501.703     14422.73    679.28226    75.523488 
   90400    1363.1204   -163.58195      1.23338   -162.34857   -2452.2855    4.2271391    4.2271391    4.2271391   -2452.2855   -237.29892   -13079.838    5960.2802   -16633.793    6598.7183    125.67989    75.533499 
   90500    1139.7155   -163.37518    1.0312386   -162.34394    2980.5398    4.2270735    4.2270735    4.2270735    2980.5398   -27491.647    6342.1385    30091.128   -15038.314    2775.2957      2965.09    75.529986 
   90600    1224.0022   -163.44675    1.1075029   -162.33925   -2894.2083    4.2279943    4.2279943    4.2279943   -2894.2083   -37293.454   -3426.4488    32037.278   -11301.116   -3945.2941    -372.5441    75.579353 
   90700    1644.9418    -163.8248    1.4883779   -162.33642   -1594.2024    4.2301746    4.2301746    4.2301746   -1594.2024   -19301.439    1171.9114     13346.92   -5650.1074   -4514.5454   -3228.5321    75.696341 
   90800    1997.2229   -164.14025    1.8071293   -162.33312    859.21762    4.2297838    4.2297838    4.2297838    859.21762    951.10142    3095.8142   -1469.2628   -9607.3455   -9742.5081   -3060.5225    75.675363 
   90900    1911.0047   -164.06109    1.7291172   -162.33197   -5877.4408    4.2288706    4.2288706    4.2288706   -5877.4408   -8008.7324   -7554.6011   -2068.9889   -3540.6395     -7960.46   -359.67746    75.626356 
   91000    1505.7509   -163.69426     1.362435   -162.33183   -2511.4758    4.2271844    4.2271844    4.2271844   -2511.4758   -30707.715    12204.686    10968.602   -8119.1665   -1805.4199    604.05907    75.535927 
   91100    1237.3436   -163.45321    1.1195745   -162.33363   -161.01049    4.2250911    4.2250911    4.2250911   -161.01049   -45898.955    18509.428    26906.496   -2179.6193    4129.5871   -4110.1937    75.423771 
   91200    1363.5049   -163.57029    1.2337279   -162.33657   -5319.5049    4.2293411    4.2293411    4.2293411   -5319.5049   -49585.177    8694.3208    24932.341   -2090.8723    9749.2417    576.79957    75.651604 
   91300    1766.6571   -163.93532    1.5985085   -162.33681     504.5643    4.2294084    4.2294084    4.2294084     504.5643   -12409.604    9970.2239    3953.0733   -2584.4718    12755.577   -2555.1787    75.655215 
   91400    1971.7099   -164.11959    1.7840446   -162.33554    3556.8822    4.2261916    4.2261916    4.2261916    3556.8822    11969.402    11711.593   -13010.348     1120.082    19762.361    2562.3776    75.482722 
   91500     1753.683   -163.92105    1.5867692   -162.33428   -6788.5288    4.2294432    4.2294432    4.2294432   -6788.5288   -14236.495    9872.1423   -16001.234    419.43141    21044.261    -1903.521    75.657083 
   91600    1309.4997   -163.51768    1.1848628   -162.33282   -3464.0319    4.2282899    4.2282899    4.2282899   -3464.0319   -31145.549    15580.153    5173.2999    8052.6108        19810    1293.9599    75.595207 
   91700    1110.7989   -163.33898    1.0050742    -162.3339   -6489.8799    4.2259075    4.2259075    4.2259075   -6489.8799    -50205.61    12600.022    18135.949    13220.288    18756.661    410.86314      75.4675 
   91800    1401.7568   -163.60464     1.268339    -162.3363   -2060.1143    4.2263511    4.2263511    4.2263511   -2060.1143   -22622.234   -4088.7225    20530.614    19814.591    17010.504     33.92563    75.491268 
   91900    1901.5743   -164.05836    1.7205844   -162.33777    726.34677    4.2284736    4.2284736    4.2284736    726.34677    18132.621    -18443.34    2489.7588    20308.877    8492.4563   -932.12432    75.605063 
   92000    2125.8426   -164.26019     1.923507   -162.33668   -6700.7124    4.2303886    4.2303886    4.2303886   -6700.7124    18213.992   -25676.411   -12639.719    21488.647    2719.6632   -2199.1111    75.707829 
   92100    1936.3864   -164.08637    1.7520831   -162.33429    3115.7416    4.2251397    4.2251397    4.2251397    3115.7416    12544.442   -8229.1947    5031.9774    16632.438   -6874.8651   -804.58373    75.426371 
   92200    1610.2542   -163.79039    1.4569919   -162.33339     3775.628    4.2259186    4.2259186    4.2259186     3775.628   -6205.4691   -380.96124    17913.314    16866.091   -5725.8823   -3997.0416    75.468094 
   92300    1542.7026    -163.7303    1.3958697   -162.33443   -4858.4183    4.2289323    4.2289323    4.2289323   -4858.4183   -14458.159   -5335.2441    5218.1485    14624.049   -9590.2609   -1141.7216    75.629666 
   92400    1789.5818   -163.95516    1.6192512   -162.33591       5043.9     4.225158     4.225158     4.225158       5043.9    15639.958   -4356.6066    3848.3484    15404.304   -13989.117   -2056.1399    75.427351 
   92500    2035.4202   -164.17907     1.841691   -162.33738    2905.4056    4.2269811    4.2269811    4.2269811    2905.4056    40734.127   -14180.686   -17837.224     15357.84   -7778.2841    774.40501    75.525029 
   92600    2035.6974   -164.17889    1.8419418   -162.33695   -1913.0728    4.2277597    4.2277597    4.2277597   -1913.0728    17271.543    2657.2349   -25667.996    20139.912   -1965.1033    799.11096    75.566772 
   92700    1829.7375   -163.99094     1.655585   -162.33535     1655.568    4.2263978    4.2263978    4.2263978     1655.568     5715.249    13473.702   -14222.247    21827.902     5279.078    1552.4626    75.493772 
   92800     1686.821   -163.86153    1.5262711   -162.33525   -6128.8604    4.2280991    4.2280991    4.2280991   -6128.8604   -27067.543    13733.578   -5052.6164    25631.353    10978.536    3315.4774    75.584975 
   92900    1758.2766   -163.92762    1.5909256    -162.3367    5686.4177    4.2238575    4.2238575    4.2238575    5686.4177    -13154.99    21110.324    9103.9192    27410.923    15123.923   -937.91121    75.357726 
   93000     1929.699   -164.08487    1.7460322   -162.33883    5715.4921    4.2256742    4.2256742    4.2256742    5715.4921    14339.016   -2404.2101    5211.6706    26634.626    17244.373   -327.30389    75.455002 
   93100    2002.4479   -164.15135     1.811857    -162.3395   -7348.3202     4.231465     4.231465     4.231465   -7348.3202     15521.06   -18647.466   -18918.555     28297.94    12056.813   -2706.5044    75.765633 
   93200    1876.7758    -164.0366    1.6981462   -162.33846    9000.3358    4.2225666    4.2225666    4.2225666    9000.3358    19970.331    6351.7767    678.90009    23525.772     9539.965   -2734.9084    75.288652 
   93300     1626.347   -163.81261    1.4715529   -162.34106    5738.5926    4.2239075    4.2239075    4.2239075    5738.5926   -2802.4249    19327.028      691.175    24301.252    -1392.161   -4491.8394    75.360398 
   93400    1476.8639   -163.67812    1.3362975   -162.34182   -12002.363    4.2307076    4.2307076    4.2307076   -12002.363    -39866.82    19650.845   -15791.113    18079.288   -6452.0604   -3126.8604    75.724957 
   93500    1519.8833   -163.71765    1.3752223   -162.34243    7856.5254    4.2231287    4.2231287    4.2231287    7856.5254   -13786.376    31883.827    5472.1244    15890.343   -14056.669    760.11334    75.318723 
   93600     1600.079   -163.79194    1.4477851   -162.34416   -1990.6208    4.2262059    4.2262059    4.2262059   -1990.6208    2106.5851    845.68453   -8924.1319    11118.215   -20533.251    2958.2394    75.483486 
   93700    1617.5097   -163.80522    1.4635568   -162.34166   -10375.683    4.2297163    4.2297163    4.2297163   -10375.683    2806.5429   -13061.587   -20872.005    6701.8386   -20236.805    4219.0833    75.671739 
   93800    1478.0372   -163.67658    1.3373591   -162.33922    2173.2922    4.2260871    4.2260871    4.2260871    2173.2922     9216.955   -530.26112   -2166.8173    3354.2789    -20316.67    7218.7815    75.477124 
   93900    1418.4595   -163.62116     1.283452   -162.33771   -5564.7596    4.2287795    4.2287795    4.2287795   -5564.7596   -22744.328    15474.466   -9424.4165    2445.3385   -17537.832    8700.2041    75.621472 
   94000    1422.4973   -163.62527    1.2871055   -162.33816    640.30235    4.2249164    4.2249164    4.2249164    640.30235   -38390.432    42020.621   -1709.2821   -4994.7969   -15487.042   -183.52877    75.414411 
   94100    1503.3871   -163.70168    1.3602963   -162.34139    4269.6801    4.2243398    4.2243398    4.2243398    4269.6801    -25525.07    34379.735    3954.3751   -3115.0474   -7204.1602    3590.3197     75.38354 
   94200    1504.8895   -163.70571    1.3616556   -162.34406   -6688.8837    4.2281302    4.2281302    4.2281302   -6688.8837   -21899.928   -2702.3079    4535.5843   -8437.5743   -2375.9815   -6009.1956    75.586644 
   94300    1420.7759   -163.63125    1.2855479    -162.3457   -96.927187    4.2237365    4.2237365    4.2237365   -96.927187   -5095.1858   -16255.992    21060.397   -10335.758    1960.6498   -185.96938    75.351249 
   94400    1317.8475   -163.53979    1.1924161   -162.34738   -4097.8364     4.225538     4.225538     4.225538   -4097.8364   -7604.4439   -26672.022    21982.956    -14654.61    2456.2312   -3715.1454    75.447703 
   94500    1296.1504   -163.52032    1.1727841   -162.34754   -5728.1308    4.2258433    4.2258433    4.2258433   -5728.1308   -32839.311   -6010.9202    21665.839   -27950.108    4286.4804   -6066.2792    75.464063 
   94600    1293.6604   -163.51844    1.1705311   -162.34791    1468.9502    4.2250883    4.2250883    4.2250883    1468.9502    -30961.78    12441.029    22927.601    -33874.97    1943.7928    5851.7478     75.42362 
   94700    1260.5837   -163.48984    1.1406026   -162.34924   -4451.5822    4.2264823    4.2264823    4.2264823   -4451.5822   -26433.968   -1565.4127    14644.634   -47948.042   -3114.5757    160.94677      75.4983 
   94800    1107.2282   -163.35295    1.0018433    -162.3511    4268.8934    4.2224029    4.2224029    4.2224029    4268.8934    6414.0925   -17104.959    23497.547   -49485.627   -1210.8635    6398.1032    75.279898 
   94900    886.77511   -163.15614   0.80237275   -162.35377   -7662.1966     4.226528     4.226528     4.226528   -7662.1966    16706.754   -58609.243    18915.899   -54219.207   -7672.7731    2757.8809    75.500746 
   95000    739.82682   -163.02277   0.66941086   -162.35336   -8974.8843    4.2265149    4.2265149    4.2265149   -8974.8843    5336.7696   -57349.025    25087.602   -51851.469    -4658.791    1486.8149    75.500048 
   95100    781.34999   -163.05921   0.70698189   -162.35223    1770.4603    4.2226622    4.2226622    4.2226622    1770.4603    -1516.259   -32015.997    38843.637    -57332.47   -7046.4594    121.93418    75.293768 
   95200    985.94917   -163.24437   0.89210753   -162.35226   -9834.8729    4.2257729    4.2257729    4.2257729   -9834.8729   -34942.386   -23484.127    28921.895   -57102.606   -8251.1649   -5030.7562     75.46029 
   95300    1133.5804    -163.3769    1.0256874   -162.35121    1909.4538    4.2248426    4.2248426    4.2248426    1909.4538   -7992.7278   -15400.764    29121.853   -60682.615     -2332.64   -4004.9615    75.410464 
   95400    1078.4532   -163.32671   0.97580714   -162.35091   -1921.8101    4.2262322    4.2262322    4.2262322   -1921.8101   -7852.1789   -24052.031     26138.78   -59274.909   -600.19333   -6013.7728    75.484896 
   95500    845.42668   -163.11526   0.76495982    -162.3503   -6716.0791     4.225428     4.225428     4.225428   -6716.0791    9813.1299   -56863.281    26901.914   -62593.106    3679.1688   -2742.7672    75.441816 
   95600    712.17902   -162.99421   0.64439454   -162.34981    4438.4672    4.2238033    4.2238033    4.2238033    4438.4672    1228.3915   -24282.531     36369.54   -58305.717    9031.4578   -655.16347    75.354825 
   95700    805.16198    -163.0785   0.72852748   -162.34997   -8345.7107    4.2287683    4.2287683    4.2287683   -8345.7107   -21869.197   -22719.531    19551.596   -51826.932    12402.051    6604.4761    75.620871 
   95800    1032.5612   -163.28304   0.93428303   -162.34876    1253.4912    4.2257623    4.2257623    4.2257623    1253.4912   -34383.715    19239.724    18904.464   -48774.173    15484.305    8583.0323    75.459719 
   95900    1104.4513   -163.34676   0.99933071   -162.34742     6510.431    4.2257008    4.2257008    4.2257008     6510.431    -24567.97    19414.225    24685.038   -38389.164    16940.823    15929.929    75.456428 
   96000    1009.8196   -163.25892   0.91370597   -162.34522   -11563.667    4.2291482    4.2291482    4.2291482   -11563.667   -15873.085   -26125.936    7308.0206   -39006.418    13538.342    18656.465    75.641252 
   96100     921.2388   -163.17588   0.83355623   -162.34233   -35.430614      4.22563      4.22563      4.22563   -35.430614    542.91159   -28476.204        27827   -31732.132    13568.204    20504.348    75.452633 
   96200    1009.0923   -163.25574   0.91304791   -162.34269    -6782.961    4.2272171    4.2272171    4.2272171    -6782.961   -3735.6349   -40605.083    23991.835   -24766.749    9332.2935    19160.002    75.537685 
   96300    1242.9612   -163.46846    1.1246574    -162.3438   -3601.0592     4.224932     4.224932     4.224932   -3601.0592   -5266.9965   -9001.5514    3465.3702   -20385.631    7814.0412    13093.306    75.415249 
   96400    1437.5264   -163.64622    1.3007041   -162.34552    7735.7222    4.2232555    4.2232555    4.2232555    7735.7222   -8196.1106    18201.994    13201.283    -11159.32    2528.9383    9702.6136    75.325508 
   96500    1385.4897   -163.59999    1.2536202   -162.34637   -6068.2183    4.2286805    4.2286805    4.2286805   -6068.2183   -6956.7381   -3959.8529   -7288.0639   -3220.2199    329.67448   -4506.0476    75.616161 
   96600    1196.0979   -163.42728    1.0822545   -162.34502   -2274.0809    4.2242168    4.2242168    4.2242168   -2274.0809    21128.965   -24101.279   -3849.9288    1663.3366   -2395.6691   -11473.846    75.376958 
   96700    1094.1082   -163.33476    0.9899721   -162.34478   -234.38822    4.2239929    4.2239929    4.2239929   -234.38822    30774.928   -48453.833     16975.74    4956.1078   -4882.7069   -24073.171    75.364973 
   96800    1249.2968   -163.47538      1.13039   -162.34499   -9614.0214    4.2281937    4.2281937    4.2281937   -9614.0214    26515.524    -53884.91   -1472.6787    9009.0111   -4668.8208   -36813.155    75.590051 
   96900     1523.089   -163.72263     1.378123   -162.34451   -979.06954    4.2251602    4.2251602    4.2251602   -979.06954    23005.359   -15743.496   -10199.072    6235.5885   -5060.9701   -46308.458    75.427469 
   97000    1604.2958   -163.79616    1.4516006   -162.34456    1692.8406    4.2277711    4.2277711    4.2277711    1692.8406    13978.849    8222.0919    -17122.42    8884.7132   -2985.8911   -53626.875    75.567386 
   97100    1366.2988   -163.58111    1.2362559   -162.34485   -5439.3576    4.2250953    4.2250953    4.2250953   -5439.3576    17612.225   -1967.4933   -31962.804    3261.3407   -2191.6292   -58852.152    75.423992 
   97200    988.53645   -163.24096   0.89444855   -162.34652    2681.0021    4.2208722    4.2208722    4.2208722    2681.0021     39641.53   -8583.8311   -23014.692    3145.8259   -506.77666   -59300.633    75.198057 
   97300    732.21019   -163.01203   0.66251917   -162.34952    -12332.19    4.2286189    4.2286189    4.2286189    -12332.19    38059.818   -53201.003   -21855.385   -3000.9111    2549.1177   -50220.313    75.612855 
   97400    869.65415   -163.13662   0.78688135   -162.34974   -8585.9848    4.2269924    4.2269924    4.2269924   -8585.9848    35113.133   -37502.345   -23368.743   -7359.0264    1866.1948   -43847.385     75.52564 
   97500    1191.3402   -163.42884    1.0779496   -162.35089    1604.1027    4.2224392    4.2224392    4.2224392    1604.1027    43803.133   -10841.964   -28148.861    -14952.19    3499.2265   -35997.059    75.281839 
   97600    1375.1168   -163.59666    1.2442346   -162.35243   -949.91954     4.224819     4.224819     4.224819   -949.91954    35850.017   -2947.8229   -35751.952   -13965.377    3006.8224   -18610.525      75.4092 
   97700    1177.0493   -163.41642    1.0650189    -162.3514    -374.1498    4.2262917    4.2262917    4.2262917    -374.1498    24525.594    2812.2697   -28460.313   -20017.805    1402.1928   -11584.847    75.488085 
   97800     722.7322   -163.00434   0.65394329   -162.35039   -9523.8624    4.2274987    4.2274987    4.2274987   -9523.8624    41323.872   -51915.302   -17980.156   -15221.057    1197.6393   -1192.9874    75.552778 
   97900    412.13922   -162.72307   0.37291223   -162.35015   -5035.0901    4.2236065    4.2236065    4.2236065   -5035.0901    36968.181   -60496.419    8422.9677   -12050.022   -1233.3911    9150.0729     75.34429 
   98000    516.43363   -162.82009      0.46728   -162.35281   -5249.5727    4.2237354    4.2237354    4.2237354   -5249.5727    23389.726   -59863.769    20725.325   -8484.2785   -3910.4152    11702.575     75.35119 
   98100    901.76176   -163.17092   0.81593299   -162.35499   -7789.4157    4.2292911    4.2292911    4.2292911   -7789.4157    25200.112   -52657.936    4089.5769   -627.81584   -3305.2422    20512.693     75.64892 
   98200    1128.3041   -163.37559    1.0209133   -162.35468   -904.78486    4.2253708    4.2253708    4.2253708   -904.78486    10014.979   -20429.309    7699.9758     8410.175   -8919.0007    15116.125    75.438748 
   98300    965.23023   -163.22724    0.8733606   -162.35388     3539.926    4.2234051    4.2234051    4.2234051     3539.926    18323.692   -31971.677    24267.763     13447.68   -4554.3096    20292.396    75.333512 
   98400    605.84708   -162.89998   0.54818317    -162.3518   -10244.834    4.2278557    4.2278557    4.2278557   -10244.834    19292.314   -57161.802    7134.9847     20641.34    -2861.993    17447.185    75.571922 
   98500    427.16517   -162.73495   0.38650802   -162.34845    -4991.114    4.2262055    4.2262055    4.2262055    -4991.114    16451.614   -48458.351    17033.395    23835.441    2439.6094    12231.327    75.483466 
   98600     598.7084   -162.88968   0.54172394   -162.34795   -7117.4988    4.2268134    4.2268134    4.2268134   -7117.4988    14410.015   -44221.046    8458.5344    23658.697    7684.0424     7970.994    75.516046 
   98700     989.4701    -163.2435   0.89529334   -162.34821   -7191.9974    4.2270683    4.2270683    4.2270683   -7191.9974    4960.0828   -8020.5834   -18515.492     25550.74    6248.4646   -2243.2945    75.529708 
   98800    1267.4584    -163.4975     1.146823   -162.35068    4766.8757    4.2243287    4.2243287    4.2243287    4766.8757   -7728.0027    27068.118   -5039.4883    19416.713    12105.892   -10217.728    75.382945 
   98900      1254.48   -163.48835    1.1350799   -162.35327   -808.29675    4.2261353    4.2261353    4.2261353   -808.29675   -10116.204    14149.153   -6457.8392    12426.981    10497.445   -16392.545    75.479704 
   99000    1040.4934   -163.29403   0.94146027   -162.35257    800.05746    4.2258021    4.2258021    4.2258021    800.05746   -4564.2703    12028.387   -5063.9441    3848.3691    10174.426   -22573.624    75.461852 
   99100    781.14669   -163.05763   0.70679794   -162.35083   -6285.7335    4.2265656    4.2265656    4.2265656   -6285.7335   -8327.2915   -18229.065    7699.1557   -4450.6833    5787.3017   -20209.971    75.502762 
   99200    736.17947   -163.01489   0.66611065   -162.34878   -4632.4729    4.2264818    4.2264818    4.2264818   -4632.4729    1445.3746   -9848.3368   -5494.4564   -9697.3279     7123.789   -18597.847    75.498271 
   99300    924.70668   -163.18297   0.83669404   -162.34627   -6058.5547     4.226292     4.226292     4.226292   -6058.5547   -2744.7532    2755.3265   -18186.237   -17958.822   -1953.8231    -15373.63    75.488099 
   99400    1225.8717   -163.45402    1.1091945   -162.34483   -5801.4163    4.2299839    4.2299839    4.2299839   -5801.4163   -11599.163    14273.347   -20078.433    -21194.45   -3850.1093   -10976.773    75.686102 
   99500     1406.604    -163.6158    1.2727249   -162.34308    5425.1179    4.2280266    4.2280266    4.2280266    5425.1179   -3987.8419    22661.577   -2398.3809   -23211.918   -7164.2848   -13359.951    75.581085 
   99600    1341.0554    -163.5557    1.2134151   -162.34229   -4308.6463    4.2271251    4.2271251    4.2271251   -4308.6463   -13092.523   -8125.3947    8291.9785   -28868.492   -12309.822    99.700968     75.53275 
   99700    1079.7341   -163.31936   0.97696614    -162.3424   -3245.6481    4.2274535    4.2274535    4.2274535   -3245.6481   -6450.0599   -18406.579    15119.694   -24885.433   -6560.1527   -3223.1462    75.550354 
   99800    947.64223    -163.2008    0.8574466   -162.34336   -401.10427    4.2254697    4.2254697    4.2254697   -401.10427    15648.231   -25235.185    8383.6412   -22583.418   -13035.894     5241.886    75.444047 
   99900    1152.4146   -163.38699    1.0427289   -162.34426   -6282.1301    4.2263788    4.2263788    4.2263788   -6282.1301   -5821.9625   -18.594995   -13005.833   -19584.497   -8571.4573     15083.19     75.49275 
  100000    1605.8601   -163.79871     1.453016    -162.3457   0.29211982    4.2252861    4.2252861    4.2252861   0.29211982   -10242.732    22132.715   -11889.107   -12088.193   -8687.5734    9580.2765    75.434213 
Loop time of 34.3269 on 1 procs for 100000 steps with 8 atoms

Pair  time (%) = 11.8794 (34.6068)
Kspce time (%) = 8.12314 (23.6641)
Neigh time (%) = 0 (0)
Comm  time (%) = 1.72293 (5.01919)
Outpt time (%) = 0.0643988 (0.187605)
Other time (%) = 12.537 (36.5223)

Nlocal:    8 ave 8 max 8 min
Histogram: 1 0 0 0 0 0 0 0 0 0
Nghost:    2189 ave 2189 max 2189 min
Histogram: 1 0 0 0 0 0 0 0 0 0
Neighs:    2472 ave 2472 max 2472 min
Histogram: 1 0 0 0 0 0 0 0 0 0

Total # of neighbors = 2472
Ave neighs/atom = 309
Neighbor list builds = 0
Dangerous builds = 0
unfix 20
unfix 21
print "seeds:9252124"
seeds:9252124
