LAMMPS (10 Feb 2015)
# ---- initialize simulations
clear
units metal
dimension 3
boundary p p p
atom_style charge
atom_modify map array
# ---- create atoms
read_data /Users/eugeneragasa/pyflamestk_git/pypospack/tests/tests_integration/workflow/WorkflowLammpsThermalExpansion/param_3867/MgO_NaCl_unit.npt.T400/lammps.structure
  triclinic box = (0 0 0) to (4.2565 4.2565 4.2565) with tilt (0 0 0)
  1 by 1 by 1 MPI processor grid
  reading atoms ...
  8 atoms
# ---- define interatomic potential
include potential.mod
mass 1 24.305
mass 2 15.999

group Mg type 1
4 atoms in group Mg
group O type 2
4 atoms in group O

set group Mg charge 1.73479148785
  4 settings made for charge
set group O charge -1.73479148785
  4 settings made for charge

variable R_cut equal 10.0

pair_style buck/coul/long ${R_cut}
pair_style buck/coul/long 10
pair_coeff 1 1 0.0 0.5 0.0 ${R_cut}
pair_coeff 1 1 0.0 0.5 0.0 10
pair_coeff 1 2 1225.32983502 0.291530354982 0.0 ${R_cut}
pair_coeff 1 2 1225.32983502 0.291530354982 0.0 10
pair_coeff 2 2 16858.6500597 0.120403294253 7.45918898041 ${R_cut}
pair_coeff 2 2 16858.6500597 0.120403294253 7.45918898041 10

kspace_style pppm 1.0e-5

neighbor 1.0 bin
neigh_modify every 1 delay 0 check yes
# ---- define settings
compute eng all pe/atom
compute eatoms all reduce sum c_eng
# ---- run minimization
reset_timestep 0
fix 1 all box/relax iso 0.0 vmax 0.001
thermo 10
thermo_style custom step pe lx ly lz xy xz yz press pxx pyy pzz pxy pxz pyz c_eatoms
min_style cg
minimize 1e-25 1e-25 5000 10000
PPPM initialization ...
  G vector (1/distance) = 0.3534
  grid = 8 8 8
  stencil order = 5
  estimated absolute RMS force accuracy = 4.23269e-05
  estimated relative force accuracy = 2.93944e-06
  using double precision FFTs
  3d grid and FFT values/proc = 3375 512
Neighbor list info ...
  1 neighbor list requests
  update every 1 steps, delay 0 steps, check yes
  master list distance cutoff = 11
Memory usage per processor = 4.06549 Mbytes
Step PotEng Lx Ly Lz Xy Xz Yz Press Pxx Pyy Pzz Pxy Pxz Pyz eatoms 
       0   -122.62677       4.2565       4.2565       4.2565            0            0            0    18600.794    18600.794    18600.794    18600.794 4.9707872e-11 4.7042733e-11 1.8950886e-10   -122.62677 
       5   -122.63132    4.2712858    4.2712858    4.2712858            0            0            0   -6.7076035   -6.7076035   -6.7076035   -6.7076035 9.5134085e-11 4.9732958e-12 8.6603347e-11   -122.63132 
Loop time of 0.00747705 on 1 procs for 5 steps with 8 atoms

Minimization stats:
  Stopping criterion = linesearch alpha is zero
  Energy initial, next-to-last, final = 
        -122.626768711     -122.631316441     -122.631316441
  Force two-norm initial, final = 2.68597 0.0019334
  Force max component initial, final = 2.68596 0.000975322
  Final line search alpha, max atom move = 0.00390625 3.80985e-06
  Iterations, force evaluations = 5 22

Pair  time (%) = 0.00203133 (27.1675)
Kspce time (%) = 0.00120497 (16.1156)
Neigh time (%) = 0 (0)
Comm  time (%) = 0.000238657 (3.19186)
Outpt time (%) = 0 (0)
Other time (%) = 0.00400209 (53.5251)

Nlocal:    8 ave 8 max 8 min
Histogram: 1 0 0 0 0 0 0 0 0 0
Nghost:    2189 ave 2189 max 2189 min
Histogram: 1 0 0 0 0 0 0 0 0 0
Neighs:    2344 ave 2344 max 2344 min
Histogram: 1 0 0 0 0 0 0 0 0 0

Total # of neighbors = 2344
Ave neighs/atom = 293
Neighbor list builds = 0
Dangerous builds = 0
unfix 1
# ---- define output variables ----
variable natoms equal "count(all)"
variable tot_energy equal "c_eatoms"
variable length_x equal "lx"
variable length_y equal "ly"
variable length_z equal "lz"
variable tilt_xy equal "xy"
variable tilt_xz equal "xz"
variable tilt_yz equal "yz"
variable tot_press equal "press"
variable press_xx equal "pxx"
variable press_yy equal "pyy"
variable press_zz equal "pzz"
variable press_xy equal "pxy"
variable press_xz equal "pxz"
variable press_yz equal "pyz"

# ---- output ----
print "pypospack:output_section:begin"
pypospack:output_section:begin
print "tot_energy = ${tot_energy}"
tot_energy = -122.631316441343
print "num_atoms = ${natoms}"
num_atoms = 8
print "xx = ${length_x}"
xx = 4.27128583299446
print "yy = ${length_y}"
yy = 4.27128583299446
print "zz = ${length_z}"
zz = 4.27128583299446
print "xy = ${tilt_xy}"
xy = 0
print "xz = ${tilt_xz}"
xz = 0
print "yz = ${tilt_yz}"
yz = 0
print "tot_press = ${tot_press}"
tot_press = -6.70760353710228
print "pxx = ${press_xx}"
pxx = -6.70760353705429
print "pyy = ${press_yy}"
pyy = -6.70760353725253
print "pzz = ${press_zz}"
pzz = -6.70760353700002
print "pxy = ${press_xy}"
pxy = 9.51340852761742e-11
print "pxz = ${press_xz}"
pxz = 4.97329584958765e-12
print "pyz = ${press_yz}"
pyz = 8.66033470907354e-11
print "pypospack:output_section:done"
pypospack:output_section:done
print "pypospack:lammps_sim:done"
pypospack:lammps_sim:done
#------------------------------------------------------------------------------
# RUN THERMOSTAT
# running using an NPT Nose-Hoover style thermostat
#------------------------------------------------------------------------------
variable tempdamp equal 0.1
variable pressdamp equal 1.0
# set initial velocities
velocity all create 400 8034958 mom yes dist gaussian loop all
# fix for Nose-Hoover style thermostat
fix 20 all npt temp 400 400 0.1 aniso 0.0 0.0 1.0 drag 1.0 couple xyz
variable boxx equal lx
variable boxy equal ly
variable boxz equal lz
variable boxp equal press
variable boxt equal temp
# calculate averages every 10000 steps
reset_timestep 0
fix 21 all ave/time 10 10 100 v_boxx v_boxy v_boxz v_boxp v_boxt file lattice.out
thermo_style custom step temp pe ke etotal press lx ly lz press pxx pyy pzz pxy pxz pyz vol
thermo_modify flush yes
thermo 100
run 100000
PPPM initialization ...
  G vector (1/distance) = 0.353246
  grid = 8 8 8
  stencil order = 5
  estimated absolute RMS force accuracy = 4.26311e-05
  estimated relative force accuracy = 2.96057e-06
  using double precision FFTs
  3d grid and FFT values/proc = 3375 512
Memory usage per processor = 3.06549 Mbytes
Step Temp PotEng KinEng TotEng Press Lx Ly Lz Press Pxx Pyy Pzz Pxy Pxz Pyz Volume 
       0          400   -122.63132   0.36192841   -122.26939    4953.6609    4.2712858    4.2712858    4.2712858    4953.6609    6076.8333     4916.836    3867.3133   -2155.1223   -671.97403   -1884.2254    77.924838 
     100    112.07133   -122.31993   0.10140449   -122.21852   -2767.0274    4.2920066    4.2920066    4.2920066   -2767.0274    6572.9977   -7542.2093   -7331.8706    3958.4594    1199.9885    286.81539    79.064431 
     200    310.75404   -122.40302   0.28117678   -122.12184    3225.1439    4.2791405    4.2791405    4.2791405    3225.1439    4019.6299    5358.2766    297.52529   -2322.0472   -5506.7018    750.90043    78.355529 
     300     258.1083   -122.26943   0.23354181   -122.03589   -6392.5666    4.2963984    4.2963984    4.2963984   -6392.5666   -1765.6513   -1234.5316   -16177.517   -383.46817   -194.76501   -375.77628    79.307387 
     400    364.29293   -122.29654    0.3296199   -121.96692    14571.248    4.2837785    4.2837785    4.2837785    14571.248    20668.601    15043.758    8001.3836    2180.5692    -312.1634    1671.2936    78.610582 
     500    542.63333   -122.41611   0.49098604   -121.92513   -13858.092     4.299448     4.299448     4.299448   -13858.092   -3474.8653   -15050.842   -23048.568    49.127667   -1718.3404   -2147.9058    79.476382 
     600    164.74797   -122.05657   0.14906743    -121.9075    11618.351    4.2893398    4.2893398    4.2893398    11618.351    13125.716    19928.064    1801.2738    2030.6589   -3529.5725   -451.48541    78.917142 
     700    427.64086   -122.28807   0.38693844   -121.90113    -11108.92    4.2955349    4.2955349    4.2955349    -11108.92    3839.0847   -16388.813   -20777.032   -3656.4095   -7174.9016    824.89845    79.259578 
     800    510.84381   -122.36362   0.46222221    -121.9014     -2594.05    4.2923335    4.2923335    4.2923335     -2594.05   -3007.8697   -457.62432   -4316.6559    1878.2773    4425.3725    -2676.276    79.082497 
     900    409.77783   -122.27719   0.37077559   -121.90641    2012.5086    4.2931397    4.2931397    4.2931397    2012.5086     17518.37   -6047.3693   -5433.4752   -19.152379   -4740.0902    3536.3974    79.127065 
    1000     392.1455   -122.26446   0.35482149   -121.90964   -3883.5574    4.2931098    4.2931098    4.2931098   -3883.5574    3386.3082    3403.4348   -18440.415   -1827.2934   -1614.9979   -2746.1206    79.125414 
    1100    295.84705   -122.17715   0.26768863   -121.90946    2181.9724    4.2925498    4.2925498    4.2925498    2181.9724    4435.1258    1405.3773    705.41405   -1046.8402   -6412.1193   -325.77011    79.094456 
    1200    452.41437   -122.31447   0.40935403   -121.90512     393.1393    4.2936784    4.2936784    4.2936784     393.1393    5079.1312   -1200.7181   -2698.9952   -1678.5316     1200.184   -1858.7324    79.156854 
    1300    460.25568   -122.32064   0.41644901   -121.90419    2356.9891    4.2932463    4.2932463    4.2932463    2356.9891     7040.493    8974.8907   -8944.4164   -2499.4779    1398.1744   -712.80794    79.132963 
    1400    436.76738    -122.3016    0.3951963   -121.90641   -6542.2009    4.2937995    4.2937995    4.2937995   -6542.2009   -2232.9958   -12368.602   -5025.0052    371.56814   -3606.1035    8958.4769    79.163553 
    1500    252.06852   -122.13698   0.22807689    -121.9089    3397.4506     4.291104     4.291104     4.291104    3397.4506    7273.5984    12958.321   -10039.568   -5101.5086   -6519.4409   -2848.3259    79.014557 
    1600    500.85659   -122.36049   0.45318556    -121.9073   -13688.971    4.2956584    4.2956584    4.2956584   -13688.971   -16610.652   -13947.474   -10508.786    1227.2574   -4467.3923    3922.2075    79.266417 
    1700    366.85047   -122.23969   0.33193401   -121.90775    6897.4842    4.2884413    4.2884413    4.2884413    6897.4842    22360.106    7007.8864   -8675.5403   -1066.9779    6680.9573    -2333.083    78.867562 
    1800    431.09486   -122.29893   0.39006369   -121.90887   -3767.4274    4.2961993    4.2961993    4.2961993   -3767.4274   -11296.712    11409.726   -11415.296    2989.0978   -6326.9518    284.65177    79.296361 
    1900    363.01463   -122.23743   0.32846327   -121.90896    2316.8931    4.2900952    4.2900952    4.2900952    2316.8931    7157.2491    8787.3201   -8993.8898   -2814.8731     555.7038    4645.4192    78.958847 
    2000    346.64617   -122.22054   0.31365274   -121.90689    -1021.922    4.2960431    4.2960431    4.2960431    -1021.922    4184.9833    8196.4674   -15447.217   -4467.7096   -1399.0337   -2179.4888    79.287714 
    2100    489.33744   -122.34708    0.4427628   -121.90432     3370.287    4.2895817    4.2895817    4.2895817     3370.287   -2204.2221    8426.1806    3888.9024    2656.2425    1336.6967    8153.1435    78.930497 
    2200    427.22081   -122.29171   0.38655837   -121.90516   -3081.0797    4.2980741    4.2980741    4.2980741   -3081.0797    12461.726   -3248.5394   -18456.426    1077.5426    2491.4463   -3890.1278    79.400221 
    2300    363.15523    -122.2338   0.32859048   -121.90521      1690.03    4.2904932    4.2904932    4.2904932      1690.03   -3930.4472    24335.206   -15334.668     1241.964   -7927.7804    2450.3836     78.98082 
    2400    375.44051   -122.24611   0.33970647    -121.9064   -4048.0055    4.2922443    4.2922443    4.2922443   -4048.0055   -3753.2905   -8386.3931   -4.3329134   -2074.9282    1488.9641   -795.13632    79.077568 
    2500    361.94859   -122.23317   0.32749869   -121.90567   -593.19836    4.2938584    4.2938584    4.2938584   -593.19836   -3597.3572    11133.501   -9315.7393   -3266.2398    -677.6109   -1878.1034    79.166813 
    2600    478.87489   -122.33726   0.43329607   -121.90396    -6137.408    4.2942553    4.2942553    4.2942553    -6137.408   -3114.6959   -1409.8326   -13887.696    3713.8929    1022.8724    6738.6996    79.188768 
    2700    343.94494   -122.21507   0.31120861   -121.90386      2814.19    4.2910948    4.2910948    4.2910948      2814.19   -879.70548    17854.748   -8532.4731    -3574.423   -1776.8164   -2461.3875    79.014052 
    2800    395.08583     -122.262   0.35748196   -121.90452   -1518.8831    4.2940164    4.2940164    4.2940164   -1518.8831    -6456.343    17324.401   -15424.708   -1191.8656   -5056.2853    3555.3578    79.175552 
    2900     467.0898   -122.32655   0.42263266   -121.90392   -4912.3287    4.2955926    4.2955926    4.2955926   -4912.3287   -8676.5459    8908.9178   -14969.358   -3303.2487    5848.9621   -4091.0421    79.262772 
    3000    298.87779    -122.1758   0.27043091   -121.90537    10543.301     4.289895     4.289895     4.289895    10543.301    7545.2497    31018.275   -6933.6207    2968.1622   -2983.3234   -1057.7701    78.947794 
    3100    505.83107   -122.36436   0.45768659   -121.90667   -11885.366    4.2952987    4.2952987    4.2952987   -11885.366   -10756.146   -5359.2683   -19540.683    1871.6813   -1977.7645    1307.7068    79.246505 
    3200    381.32385   -122.25312   0.34502983   -121.90809    3517.2157    4.2888307    4.2888307    4.2888307    3517.2157    5908.5549    10327.888   -5684.7955   -1593.1248   -3682.6419   -1376.2006    78.889045 
    3300    357.33093   -122.23271   0.32332053   -121.90939    194.48588    4.2952859    4.2952859    4.2952859    194.48588    -6218.674    14751.699   -7949.5674    1684.0006   -1691.4104    3085.1119    79.245798 
    3400    463.27808   -122.32617   0.41918374   -121.90699    2612.7715    4.2920896    4.2920896    4.2920896    2612.7715   -9034.8963    10860.156    6013.0551   -3146.5634    4419.7244   -3563.9282    79.069015 
    3500    305.05558   -122.18364    0.2760207   -121.90762    5007.4085    4.2956329    4.2956329    4.2956329    5007.4085    4793.7237    18628.334    -8399.832    6733.9395   -6978.9874    6493.9852    79.265003 
    3600    430.79459   -122.29548   0.38979199   -121.90568     5007.499    4.2886611    4.2886611    4.2886611     5007.499   -6372.8791    23625.631   -2230.2545   -4657.4306   -1552.8311   -4535.1258    78.879691 
    3700    433.72615   -122.29708   0.39244453   -121.90463   -6083.3009    4.2992891    4.2992891    4.2992891   -6083.3009   -8414.5088   -6727.6425   -3107.7514      1401.79   -774.43809    3128.4488    79.467575 
    3800    377.82596    -122.2444   0.34186487   -121.90254    6136.1232    4.2880975    4.2880975    4.2880975    6136.1232    1809.9022    25922.215   -9323.7472   -1988.8718    912.79974   -2114.1443    78.848594 
    3900    469.45898   -122.32818   0.42477635   -121.90341   -11857.014    4.2960403    4.2960403    4.2960403   -11857.014   -13114.353   -15581.221   -6875.4674     2503.001    -444.0446   -1592.0265    79.287558 
    4000    292.58599   -122.16988   0.26473795   -121.90514    4985.1985    4.2912497    4.2912497    4.2912497    4985.1985    8091.6758    20908.939    -14045.02    1611.1362   -4642.2723    8513.7361    79.022606 
    4100    510.80174   -122.36705   0.46218415   -121.90486   -8191.1972    4.2945269    4.2945269    4.2945269   -8191.1972   -18140.324    1480.2977    -7913.565   -5268.1009    808.75271   -4615.6281    79.203794 
    4200     331.8132   -122.20514   0.30023156   -121.90491    3150.7058    4.2933228    4.2933228    4.2933228    3150.7058     9845.108    2720.2874   -3113.2779    4760.7807   -284.40435    7033.8721    79.137192 
    4300    375.47911   -122.24444   0.33974139    -121.9047   -2829.7185    4.2941382    4.2941382    4.2941382   -2829.7185   -13238.211    15115.233   -10366.177     1064.485   -2724.4535    339.79613    79.182291 
    4400     387.3928   -122.25675   0.35052114   -121.90623    1602.4211    4.2910884    4.2910884    4.2910884    1602.4211   -370.71537    8119.4593   -2941.4807    2219.4836   -9855.7156    846.76239    79.013699 
    4500    431.29082    -122.2977     0.390241   -121.90746   -1284.8924    4.2960739    4.2960739    4.2960739   -1284.8924    -4063.405     11494.83   -11286.102   -2318.1908   -1531.8766   -2463.1689    79.289418 
    4600    377.55111   -122.25036   0.34161618   -121.90874    1455.1375    4.2912179    4.2912179    4.2912179    1455.1375   -8210.7906    10651.182     1925.021    -2439.044   -200.09073   -755.17793    79.020851 
    4700    377.98241   -122.25114   0.34200643   -121.90913   -1592.9546    4.2901915    4.2901915    4.2901915   -1592.9546    3310.8334    1982.6431    -10072.34     608.3638   -6506.0886    3030.9597    78.964165 
    4800    376.36232    -122.2483   0.34054054   -121.90776   -7085.3736     4.299443     4.299443     4.299443   -7085.3736   -15052.236    15799.984   -22003.869    2117.8768   -1075.8667    641.88196    79.476105 
    4900    461.28055   -122.32276   0.41737633   -121.90538    6963.3226    4.2880375    4.2880375    4.2880375    6963.3226    12160.292    6412.9413    2316.7342    1844.2903   -2276.4942    5856.5304    78.845285 
    5000    523.19501   -122.37893   0.47339784   -121.90554   -7001.4962    4.2969608    4.2969608    4.2969608   -7001.4962   -18654.029    13399.923   -15750.383   -3286.0619    2546.1963   -2985.1169    79.338536 
    5100    258.74083   -122.14049   0.23411414   -121.90638    8116.2309    4.2918794    4.2918794    4.2918794    8116.2309    10822.413    19471.041   -5944.7603    1484.0596   -2939.3046    -1512.692    79.057401 
    5200    458.36348   -122.31932   0.41473691   -121.90458   -7367.6113    4.2959039    4.2959039    4.2959039   -7367.6113   -11509.745   -9938.5432   -654.54511    1044.6168   -4675.5127   -1838.3196    79.280006 
    5300    449.66977   -122.31007   0.40687066    -121.9032    4486.0091    4.2921753    4.2921753    4.2921753    4486.0091   -4898.5657    19763.601   -1407.0083    -760.0119    2607.7006     1102.468    79.073755 
    5400    341.01847   -122.21392   0.30856068   -121.90536    6481.4879     4.293594     4.293594     4.293594    6481.4879    5517.8819    4862.8448    9063.7371    3237.8995    -2427.632    1839.1776     79.15219 
    5500    442.15361   -122.30769   0.40006988   -121.90762   -5646.1554    4.2946456    4.2946456    4.2946456   -5646.1554   -22732.541    5442.0852    351.99003   -679.01741    -2655.797    3022.0645     79.21036 
    5600    152.72539   -122.04816   0.13818915   -121.90997    9259.7591    4.2954775    4.2954775    4.2954775    9259.7591    -1496.261     35452.48   -6176.9423    6440.9929   -11415.111    637.30132    79.256403 
    5700    585.23339   -122.43364   0.52953147   -121.90411   -5199.0446    4.2906588    4.2906588    4.2906588   -5199.0446   -7913.6998   -638.00128   -7045.4326   -2659.8532   -2827.3567    1491.1432     78.98997 
    5800    350.49154   -122.22174   0.31713211   -121.90461    4022.2788    4.2970572    4.2970572    4.2970572    4022.2788   -3896.1829     25561.83   -9598.8108    5138.8887    653.14198   -1083.3489    79.343872 
    5900    363.01251   -122.23347   0.32846134   -121.90501   -5910.5741    4.2951289    4.2951289    4.2951289   -5910.5741   -10471.559     1324.825    -8584.988   -827.28582   -8327.5465   -177.72572    79.237107 
    6000    434.22904   -122.29725   0.39289956   -121.90435   -6364.9348     4.290724     4.290724     4.290724   -6364.9348   -5857.4591   -2700.7941   -10536.551    2533.2919    1717.9217   -1133.3063    78.993571 
    6100    330.93822   -122.20316   0.29943986   -121.90372    2822.8541    4.2994676    4.2994676    4.2994676    2822.8541   -3134.3727    9976.1803    1626.7548     2563.342    -1657.088    1773.0243    79.477472 
    6200    618.35393   -122.46023   0.55949963   -121.90073   -10327.519      4.29412      4.29412      4.29412   -10327.519   -22292.301   -9482.9692    792.71328   -4214.9001    1020.7782   -1127.0697    79.181281 
    6300    227.52344   -122.11005   0.20586799   -121.90418    7092.9161    4.2906903    4.2906903    4.2906903    7092.9161    6225.1791    8720.0262    6333.5429     9997.981   -1860.1299    934.78546     78.99171 
    6400    447.07528   -122.30881   0.40452311   -121.90428   -6246.9621    4.2968995    4.2968995    4.2968995   -6246.9621   -9414.2681   -15100.436    5773.8179   -2872.1992    -6663.913    698.36564    79.335139 
    6500    383.02191   -122.24975   0.34656628   -121.90318    2388.7064    4.2983738    4.2983738    4.2983738    2388.7064     6232.177    8842.4739   -7908.5317    4241.0454    1003.8436    456.34344    79.416831 
    6600    417.02836   -122.27898   0.37733602   -121.90164    10756.507    4.2863916    4.2863916    4.2863916    10756.507      15622.4    5845.5297    10801.591     565.3502    498.84946    3426.5435    78.754529 
    6700    407.17705   -122.27216   0.36842235   -121.90374   -7136.4215     4.299037     4.299037     4.299037   -7136.4215   -11822.349    806.78851   -10393.705   -1162.3335    2242.2641   -1627.9673    79.453592 
    6800    220.03444   -122.10282   0.19909178   -121.90373    8492.8872     4.293981     4.293981     4.293981    8492.8872   -2665.2619    18719.715    9424.2087    4006.7889    -4515.555    1509.4945    79.173591 
    6900    596.04232   -122.44159   0.53931162   -121.90228   -9144.4544    4.2926799    4.2926799    4.2926799   -9144.4544   -11594.636    -12412.79   -3425.9371   -4486.6171    343.59021   -2268.7526    79.101643 
    7000    381.22968   -122.24997   0.34494463   -121.90503     11295.78    4.2897896    4.2897896    4.2897896     11295.78    499.59607    24794.316    8593.4292    5479.4738    1193.2342    3515.7548    78.941975 
    7100    461.11205   -122.32334   0.41722387   -121.90612   -9712.6048     4.299175     4.299175     4.299175   -9712.6048   -14634.043   -14758.594    254.82246   -573.42451   -1864.9309   -1694.5475    79.461244 
    7200    251.91227   -122.13543   0.22793551   -121.90749    5566.0794    4.2899999    4.2899999    4.2899999    5566.0794    18295.795   -61.936609   -1535.6205    2983.7475   -4299.9544    3735.4766    78.953584 
    7300    442.98199   -122.30802   0.40081941    -121.9072   -3914.6548    4.2935683    4.2935683    4.2935683   -3914.6548   -6671.3121   -9953.2834     4880.631   -1829.8645    114.91666      -3289.6    79.150769 
    7400    497.41521    -122.3547   0.45007173   -121.90463   -2761.6886    4.2947857    4.2947857    4.2947857   -2761.6886    6586.7722   -6646.1074   -8225.7306    666.16473    29.338625    556.66285    79.218112 
    7500    281.57267    -122.1606   0.25477287   -121.90583    394.26882    4.2935265    4.2935265    4.2935265    394.26882   -8117.1864   -963.74793    10263.741    4788.6236    3339.4905   -614.37321    79.148455 
    7600    464.20707   -122.32514   0.42002431   -121.90511   -12064.659    4.2905569    4.2905569    4.2905569   -12064.659   -15276.279   -9308.7045   -11608.993   -2774.3904   -5607.6892    383.04963    78.984339 
    7700    283.40394   -122.16229   0.25642984   -121.90586    1463.1167    4.2975259    4.2975259    4.2975259    1463.1167   -14787.705    14741.488    4435.5666   -1817.1088   -4858.9225     622.9248    79.369838 
    7800    524.08694   -122.37792   0.47420488   -121.90372    1363.1039    4.2907636    4.2907636    4.2907636    1363.1039    13269.995   -9713.3718    532.68886    528.63753    1767.1003   -3795.9126    78.995755 
    7900    394.27508   -122.26308   0.35674838   -121.90633    5700.6589    4.2917382    4.2917382    4.2917382    5700.6589   -3087.8616    12285.549    7904.2895     2619.345   -1801.9044    1915.0447    79.049598 
    8000    276.59493   -122.15681   0.25026891   -121.90654    5712.8059     4.296898     4.296898     4.296898    5712.8059    9829.5777    161.45304    7147.3868    288.41489    1969.2408   -3692.1998    79.335059 
    8100    462.20655   -122.32068    0.4182142   -121.90246   -685.47746    4.2930724    4.2930724    4.2930724   -685.47746   -997.92588   -6397.0257    5338.5192     159.3129   -5095.1937    751.00832    79.123342 
    8200    426.30419   -122.28749   0.38572899   -121.90176    7871.8655    4.2898299    4.2898299    4.2898299    7871.8655   -7498.6343    13414.167    17700.064   -4304.1245    5559.9981   -370.41611    78.944197 
    8300    494.94119   -122.35038   0.44783319   -121.90255   -10361.211    4.2993076    4.2993076    4.2993076   -10361.211   -7253.7199   -15338.703   -8491.2117    5768.6948   -2970.8808   -154.54189    79.468601 
    8400    273.86851   -122.15143   0.24780199   -121.90363    -1148.571    4.2921349    4.2921349    4.2921349    -1148.571   -17068.038   -4171.6307    17793.955   -719.17049    3778.1293    1910.5664    79.071522 
    8500    425.78641   -122.28822   0.38526049   -121.90296   -5223.0336    4.2908563    4.2908563    4.2908563   -5223.0336    4659.1111   -14908.511   -5419.7006   -6155.5744    1188.6663   -3384.0889    79.000875 
    8600    421.39601   -122.28319   0.38128796   -121.90191   -3624.7746    4.2995515    4.2995515    4.2995515   -3624.7746   -6897.9127   -5063.1176    1086.7065    1198.0617   -5538.3052    1252.9603    79.482123 
    8700    326.99238   -122.19805   0.29586958   -121.90218    3608.5089    4.2915765    4.2915765    4.2915765    3608.5089    22411.322   -14822.624    3236.8286   -271.20291     6704.347    1571.2068    79.040665 
    8800    387.61243   -122.25628   0.35071988   -121.90556   -3103.9603    4.2913609    4.2913609    4.2913609   -3103.9603   -4230.7996   -4380.1816   -700.89962    6853.9763   -1322.5529   -1058.3474     79.02875 
    8900     342.3356   -122.21628   0.30975245   -121.90652   -685.08606    4.3001825    4.3001825    4.3001825   -685.08606   -6329.7924   -6438.6534    10713.188   -4200.3637    4930.3602    60.793833    79.517126 
    9000    564.69595   -122.41375   0.51094876    -121.9028   -1466.7405     4.291749     4.291749     4.291749   -1466.7405    1513.0379    -1143.674   -4769.5853    641.10131   -4300.8216   -3454.7497    79.050193 
    9100    417.01731   -122.28126   0.37732603   -121.90394    7830.9596    4.2889333    4.2889333    4.2889333    7830.9596     5523.055    3038.3949    14931.429    1839.3727   -79.781189    2962.2008     78.89471 
    9200    332.99682   -122.20726   0.30130252   -121.90595   -4076.2786    4.3022326    4.3022326    4.3022326   -4076.2786   -1364.4908   -7596.2662   -3268.0787    1512.0663    1113.5182   -1538.2645    79.630906 
    9300     377.8542   -122.24875   0.34189042   -121.90686    1613.5244    4.2902394    4.2902394    4.2902394    1613.5244   -1955.4578   -6293.6724    13089.703   -147.29099    1812.8439    2554.6892     78.96681 
    9400    464.75819   -122.32685   0.42052298   -121.90633    2871.9327    4.2892526    4.2892526    4.2892526    2871.9327   -2567.1125   -3822.8489    15005.759   -6823.8074    5423.3423   -1764.2007    78.912329 
    9500    348.53866   -122.22178    0.3153651   -121.90642    261.89886     4.300114     4.300114     4.300114    261.89886   -3580.9135   -2584.6979     6951.308    4892.8988   -1713.2025    979.34084    79.513326 
    9600     370.8802   -122.24039    0.3355802   -121.90481   -6834.5423    4.2921173    4.2921173    4.2921173   -6834.5423    756.00053   -20942.485   -317.14273   -1347.8562    6750.6653    198.56681    79.070547 
    9700    394.78056   -122.26063   0.35720574   -121.90342    -2698.008    4.2885765    4.2885765    4.2885765    -2698.008   -12064.997    600.26793    3370.7045    687.24354    -4200.454   -2582.7985    78.875023 
    9800    444.72009   -122.30548   0.40239209   -121.90309   -4720.5776    4.3009058    4.3009058    4.3009058   -4720.5776    8236.5992   -24126.268     1727.936     2371.845   -1001.1468    585.47586    79.557257 
    9900    496.01871   -122.35119   0.44880815   -121.90238     -1153.62    4.2912898    4.2912898    4.2912898     -1153.62   -2218.9916    856.26425   -2098.1328   -1953.2351   -12.964318    1095.0335    79.024825 
   10000    236.38335   -122.11969   0.21388463   -121.90581    9157.6805    4.2901239    4.2901239    4.2901239    9157.6805    9351.0585   -13718.251    31840.234    7894.7534    3212.0557    1844.1756    78.960428 
   10100    420.84931   -122.28596    0.3807933   -121.90517   -7099.6239    4.2998614    4.2998614    4.2998614   -7099.6239   -10552.009    -4796.256   -5950.6064   -4548.0448    3100.0286    731.18444    79.499312 
   10200    366.57824   -122.23539   0.33168769    -121.9037    7484.3914    4.2901141    4.2901141    4.2901141    7484.3914   -3655.9742    5485.3022    20623.846    1903.5342    1633.0732    268.93654    78.959889 
   10300    472.26968   -122.33121   0.42731953   -121.90389   -4873.6216    4.2917674    4.2917674    4.2917674   -4873.6216    2445.8665   -14782.454   -2284.2769    6520.4309    -1134.169    1626.9494     79.05121 
   10400    391.85766   -122.26034   0.35456105   -121.90578    -4495.222    4.2945817    4.2945817    4.2945817    -4495.222   -12543.699    7743.0781   -8685.0448    2840.7684    3063.9418     49.87293    79.206823 
   10500    289.10546   -122.16769   0.26158869    -121.9061   -451.18008    4.2956719    4.2956719    4.2956719   -451.18008    12106.675   -7320.3258   -6139.8892    395.52902     3688.906    933.39346    79.267163 
   10600    552.31567    -122.4028   0.49974682   -121.90305    1206.4651    4.2879695    4.2879695    4.2879695    1206.4651     2219.459   -2624.7837      4024.72   -6146.4988    2066.7898    -1569.042    78.841535 
   10700    364.61746   -122.23563   0.32991354   -121.90571    5915.4165     4.296381     4.296381     4.296381    5915.4165    23750.796   -9720.0841    3715.5376    5270.8936    1370.1401    356.24856    79.306422 
   10800    392.51872    -122.2606   0.35515919   -121.90544    7173.4395    4.2902923    4.2902923    4.2902923    7173.4395    7772.2016    2751.8917    10996.225    4108.7963   -1507.1875    2061.8349    78.969726 
   10900    323.05052   -122.19777    0.2923029   -121.90547     1794.059    4.2963373    4.2963373    4.2963373     1794.059    19308.328   -21251.377    7325.2252    1271.4678    6629.3445   -292.31296    79.304005 
   11000    461.33246      -122.32    0.4174233   -121.90257    2592.7311    4.2899175    4.2899175    4.2899175    2592.7311     5509.777    2856.0965   -587.68031   -4719.1398   -2521.7976    1629.2596    78.949036 
   11100    372.76507    -122.2411   0.33728567   -121.90381    -1926.018    4.2941085    4.2941085    4.2941085    -1926.018    9296.1887   -16991.386    1917.1431    4363.5424    3971.2724    -613.1352    79.180644 
   11200    483.87447   -122.34229   0.43781979   -121.90447   -13016.658    4.2942555    4.2942555    4.2942555   -13016.658   -19593.356   -18169.684   -1286.9332    9815.6142   -3482.1981    686.52836    79.188777 
   11300    285.57826   -122.16675   0.25839721   -121.90836   -491.90966    4.2918532    4.2918532    4.2918532   -491.90966    21087.591   -15111.537   -7451.7825    1672.5956    1356.3691     1032.746    79.055951 
   11400    468.05369    -122.3303   0.42350482    -121.9068    1573.5158    4.2905464    4.2905464    4.2905464    1573.5158    6127.4135   -1676.6543     269.7882   -2569.0208    3642.3479   -3035.8232    78.983763 
   11500    404.54715   -122.27116   0.36604276   -121.90512   -5062.7456    4.3000116    4.3000116    4.3000116   -5062.7456    13071.675   -17482.688   -10777.224   -1447.5062   -1678.3544    2785.8816    79.507644 
   11600    330.46055   -122.20387   0.29900765   -121.90487    4446.6671    4.2860373    4.2860373    4.2860373    4446.6671    -248.3044   -13443.977    27032.282    12085.659    1155.6221     1113.129    78.735002 
   11700    325.83324    -122.2021   0.29482076   -121.90728    1521.3328    4.2956432    4.2956432    4.2956432    1521.3328    6097.9988    672.23832   -2206.2387   -21.291268   -3131.5604    1688.2322    79.265573 
   11800    500.20488    -122.3559   0.45259588   -121.90331   -5813.6078    4.3000045    4.3000045    4.3000045   -5813.6078    -8992.775   -15082.567    6634.5181   -107.48663    1785.6898     789.4751     79.50725 
   11900    386.02961   -122.25191    0.3492877   -121.90262    8970.7574    4.2843417    4.2843417    4.2843417    8970.7574    17358.791    -1151.292    10704.773    269.66818   -1884.3779   -1034.9956    78.641594 
   12000    460.97011   -122.32297   0.41709544   -121.90587    -6149.732    4.2953588    4.2953588    4.2953588    -6149.732   -19341.816   -9473.0955    10365.715    6054.3518    326.52597    1608.5082    79.249832 
   12100    286.09376   -122.16545   0.25886365   -121.90659    409.59194    4.3018757    4.3018757    4.3018757    409.59194     10550.16   -15561.244    6239.8604     5347.104    753.83296    15.752501    79.611089 
   12200    502.67253    -122.3571   0.45482867   -121.90227    5985.7488    4.2821309    4.2821309    4.2821309    5985.7488    12097.139   -6570.0468    12430.154   -7545.0478     3559.534   -912.37395    78.519916 
   12300    387.27711   -122.25549   0.35041647   -121.90507    5429.0544    4.2944526    4.2944526    4.2944526    5429.0544    8797.7438   -4350.4107     11839.83    3300.0379   -872.99804   -249.82591    79.199683 
   12400    378.36195   -122.24583   0.34234985   -121.90348   -9608.3371    4.3031077    4.3031077    4.3031077   -9608.3371    14622.816   -34484.467   -8963.3593    5348.3825    30.520626    435.85257    79.679511 
   12500    391.77844   -122.25643   0.35448936   -121.90195    5359.0505    4.2809396    4.2809396    4.2809396    5359.0505    6425.5551   -4972.8356    14624.432    5526.7987   -3352.4935    1378.8843      78.4544 
   12600    479.48514    -122.3394   0.43384823   -121.90555   -5588.1644    4.2975619    4.2975619    4.2975619   -5588.1644    7212.0537    -22825.29   -1151.2565    787.74163    4368.0745    1043.0682    79.371835 
   12700     381.6178   -122.25086   0.34529581   -121.90556    -1938.611     4.297822     4.297822     4.297822    -1938.611   -6201.0037   -7609.7374    7994.9079    733.40736   -2200.6286    1320.1031     79.38625 
   12800    370.46276   -122.23922   0.33520249   -121.90401   -1265.9025    4.2855327    4.2855327    4.2855327   -1265.9025    426.02224   -15632.476    11408.747    13100.208    2041.2391   -1281.3316    78.707194 
   12900    272.66894   -122.15263   0.24671659   -121.90591    1012.8163    4.2956585    4.2956585    4.2956585    1012.8163   -4357.9481   -15751.792    23148.189    5560.9404   -5756.6413   -367.45207    79.266417 
   13000    465.20306   -122.32697   0.42092551   -121.90604   -6873.4834    4.2972884    4.2972884    4.2972884   -6873.4834    13572.535   -16754.226   -17438.759   -3350.6724    3697.3943   -3338.7547    79.356682 
   13100    453.24419   -122.31747   0.41010487   -121.90737    3642.0297    4.2853017    4.2853017    4.2853017    3642.0297    1054.2376     3543.393    6328.4585    1204.6689   -2570.8802    3369.1226    78.694471 
   13200    379.23589   -122.25301    0.3431406   -121.90987   -7841.2521    4.2992359    4.2992359    4.2992359   -7841.2521    11188.991   -18994.054   -15718.694     9004.345    2516.4143   -405.57795    79.464624 
   13300    407.76064   -122.27634    0.3689504   -121.90739   -1607.7624    4.2921279    4.2921279    4.2921279   -1607.7624    -1805.381   -3582.4544    564.54803    5975.8679    256.86834    3861.7324    79.071131 
   13400    367.60505   -122.23715   0.33261677   -121.90453      7000.42    4.2894532    4.2894532    4.2894532      7000.42    26831.369    1372.5087   -7202.6172   -3175.8711   -8464.5709     1540.915    78.923402 
   13500    609.17067   -122.45426   0.55119042   -121.90307   -12520.133     4.296381     4.296381     4.296381   -12520.133   -12580.952   -16994.356   -7985.0925   -1701.2856    2575.8016   -3355.7059    79.306422 
   13600    138.00248   -122.03232   0.12486755   -121.90745     13900.63    4.2909068    4.2909068    4.2909068     13900.63    14635.454    8412.6204    18653.816    3695.2047   -5705.7611    982.44641    79.003667 
   13700    508.12794   -122.36556   0.45976484   -121.90579   -11825.664    4.2935663    4.2935663    4.2935663   -11825.664   -6974.2421   -23528.502   -4974.2491    7103.0591    4931.1613   -1798.5604    79.150657 
   13800    221.40033   -122.10793   0.20032767   -121.90761    14384.894    4.2914466    4.2914466    4.2914466    14384.894    31907.988   -4577.9738    15824.668   -5562.9237   -5026.6545   -410.68991    79.033485 
   13900    626.72023   -122.47309   0.56706964   -121.90602   -4491.9578    4.2918664    4.2918664    4.2918664   -4491.9578    2137.8366   -12133.302   -3480.4079    733.08041    485.68538    1412.0932    79.056683 
   14000    325.05865   -122.20322    0.2941199    -121.9091    1903.0559     4.295556     4.295556     4.295556    1903.0559     25960.05   -12221.173   -8029.7093   -731.18828   -1414.2263   -2946.3103    79.260747 
   14100    387.12511   -122.25952   0.35027894   -121.90925   -8889.2564    4.2901192    4.2901192    4.2901192   -8889.2564   -10081.663   -18463.855    1877.7491    12765.565    2030.3504    2459.8974    78.960173 
   14200    341.55113   -122.21772   0.30904264   -121.90867   -579.05621    4.2920084    4.2920084    4.2920084   -579.05621    11432.116   -11503.917   -1665.3671     1283.675    2051.0329   -150.66398    79.064527 
   14300    541.69456   -122.39467   0.49013662   -121.90454   -10554.807    4.3000219    4.3000219    4.3000219   -10554.807   -12821.318   -19847.427    1004.3254    -1307.003    1454.6897    841.01109    79.508215 
   14400    276.52117   -122.15563   0.25020217   -121.90542    13407.304    4.2862157    4.2862157    4.2862157    13407.304     29715.76   -10334.708     20840.86    7109.2998   -1133.1823    1892.4072    78.744834 
   14500    427.42073   -122.29399   0.38673926   -121.90725   -3280.5391    4.2929287    4.2929287    4.2929287   -3280.5391   -9767.8336   -16304.094     16230.31    4467.3082    2527.2837   -379.03697      79.1154 
   14600     372.9565   -122.24586   0.33745888    -121.9084   -3545.5654    4.3001728    4.3001728    4.3001728   -3545.5654    9448.2641   -14890.344   -5194.6168    3485.0385   -764.37787    468.58395    79.516583 
   14700    456.27718   -122.31964   0.41284918    -121.9068     6189.395    4.2852961    4.2852961    4.2852961     6189.395    17472.505   -1026.3132    2121.9932   -3087.6033    9482.9202   -1369.9132    78.694159 
   14800    445.71028   -122.31075   0.40328803   -121.90746   -3539.6041    4.2957789    4.2957789    4.2957789   -3539.6041    6033.1616   -13591.676   -3060.2978    2550.3729   -1394.8036    46.733909    79.273087 
   14900    434.40491   -122.29946   0.39305869    -121.9064   -8395.1794    4.2977621    4.2977621    4.2977621   -8395.1794    -4049.948   -16315.158   -4820.4325     8327.538    -700.8804   -53.230966    79.382931 
   15000    219.16235    -122.1051    0.1983027    -121.9068    14656.288    4.2879304    4.2879304    4.2879304    14656.288    24178.487   -2608.7981    22399.176    354.62351    -325.7129    2245.7766    78.839376 
   15100    494.33495   -122.35425   0.44728466   -121.90697   -4390.5446    4.2970441    4.2970441    4.2970441   -4390.5446    2441.5291   -16978.089    1364.9262   -472.79408    520.72024    2599.6944     79.34315 
   15200    408.19157   -122.27872   0.36934031   -121.90938    2639.9859    4.2928008    4.2928008    4.2928008    2639.9859    2964.0268   -6032.1082    10988.039    -109.5896    4394.2299   -74.505569    79.108328 
   15300    291.43468   -122.17313   0.26369622   -121.90943    6925.7576    4.2918857    4.2918857    4.2918857    6925.7576    20009.104   -10019.216    10787.384    4579.1128   -262.15752    2719.8777    79.057747 
   15400    410.53409   -122.27838   0.37145987   -121.90692   -3182.9549    4.2972588    4.2972588    4.2972588   -3182.9549     11502.73    -18981.36   -2070.2342   -1316.9273    7493.0936   -1456.5796    79.355043 
   15500    492.79497   -122.35013   0.44589124   -121.90424   -2322.6102    4.2906586    4.2906586    4.2906586   -2322.6102   -1846.5671    -2504.079   -2617.1846    -3242.557   -7194.1153    2379.9632    78.989959 
   15600    379.69368   -122.24847   0.34355482   -121.90492    1786.4868    4.2915849    4.2915849    4.2915849    1786.4868    14418.618   -10086.465    1027.3081    2383.9179    6019.4656   -1278.5363    79.041126 
   15700     435.3884    -122.2996   0.39394857   -121.90565   -12116.599    4.2989898    4.2989898    4.2989898   -12116.599   -16554.776   -25004.207    5209.1844    8613.7161   -7082.7318   -2257.4872    79.450978 
   15800    306.96957   -122.18301   0.27775252   -121.90526    5873.8829    4.2868937    4.2868937    4.2868937    5873.8829    20389.293   -7682.9878    4915.3432    2445.0775    7935.7462    67.856278    78.782205 
   15900    463.60689   -122.32381   0.41948126   -121.90433   -4994.4726    4.2940527    4.2940527    4.2940527   -4994.4726   -14770.376   -6959.6486     6746.607   -1922.8217    4955.5115   -2546.4545    79.177558 
   16000      386.227   -122.25411   0.34946631   -121.90464   -318.22535     4.295949     4.295949     4.295949   -318.22535    27751.823   -18496.351   -10210.149    1310.3935   -4050.5024    2235.6898    79.282502 
   16100    413.21981   -122.27836   0.37388997   -121.90447   -985.64698    4.2899791    4.2899791    4.2899791   -985.64698   -1297.2614   -10782.829    9123.1499    2579.8589    2619.4542    281.76274    78.952433 
   16200     373.5673    -122.2427   0.33801154   -121.90469    1795.0535    4.2928281    4.2928281    4.2928281    1795.0535    19883.964   -9114.9653   -5383.8381    5156.1296   -8754.3634    56.967137    79.109838 
   16300    468.89418   -122.32785   0.42426531   -121.90359   -5518.5299    4.2973599    4.2973599    4.2973599   -5518.5299    6033.3522   -9634.8136   -12954.128   -1711.2268    9156.2893    2687.6891    79.360641 
   16400    332.09557   -122.20559   0.30048705    -121.9051    6691.8188    4.2864004    4.2864004    4.2864004    6691.8188    12298.245   -2096.6764     9873.888    2172.5034   -9440.6397   -3452.0878    78.755013 
   16500     408.2286   -122.27618   0.36937382    -121.9068   -3776.9913      4.29352      4.29352      4.29352   -3776.9913   -8008.7728   -1752.3396   -1569.8614    4217.8173    224.99806   -241.38602    79.148095 
   16600    427.85191   -122.29329    0.3871294   -121.90616   -4390.6011    4.2966101    4.2966101    4.2966101   -4390.6011    4477.2875   -14606.514   -3042.5772    1302.1273   -4387.3034   -939.53722    79.319108 
   16700    299.12492   -122.17693   0.27065452   -121.90627    12815.859    4.2875091    4.2875091    4.2875091    12815.859    28222.046   -499.69192    10725.221   -1695.7309   -2860.8725   -425.08984    78.816138 
   16800    522.69214   -122.38048   0.47294283   -121.90753   -3402.1601    4.2947221    4.2947221    4.2947221   -3402.1601    13821.877   -7137.7816   -16890.575    122.05448    3797.5676    3171.8528    79.214595 
   16900    319.44239   -122.19781   0.28903818   -121.90877    3575.6876    4.2971607    4.2971607    4.2971607    3575.6876    15693.693   -5139.7655    173.13575     3335.798   -4699.1444    -1017.902    79.349608 
   17000    493.10716   -122.35134   0.44617372   -121.90516   -3208.0681    4.2870555    4.2870555    4.2870555   -3208.0681   -102.48104   -16101.053    6579.3299     10120.65    4029.4938     2089.168    78.791129 
   17100    401.66445   -122.26951   0.36343444   -121.90608   -2535.7014    4.2951681    4.2951681    4.2951681   -2535.7014    13448.458   -13643.258   -7412.3043    2783.2441   -4931.9681   -122.48627    79.239276 
   17200     305.4132   -122.18269   0.27634428   -121.90635    252.79333    4.2966179    4.2966179    4.2966179    252.79333    15703.386   -17434.256    2489.2504   -1814.1431    3470.1916   -248.51604    79.319543 
   17300     408.9313   -122.27656   0.37000963   -121.90655   -1401.4771    4.2888589    4.2888589    4.2888589   -1401.4771    3368.9917   -14283.032    6709.6087    7324.2453   -5473.8449   -382.56522    78.890602 
   17400    355.18519   -122.22815   0.32137903   -121.90677    -4490.825    4.2970244    4.2970244    4.2970244    -4490.825   -3894.9036   -23741.722     14164.15    407.54269    635.32465    365.34433    79.342058 
   17500    489.17866   -122.34622   0.44261913   -121.90361    581.46432    4.2907845    4.2907845    4.2907845    581.46432    12165.937   -9443.8799   -977.66381    1967.3803   -933.08865    624.77274    78.996911 
   17600    465.41166   -122.32557   0.42111425   -121.90445   -5137.5946    4.2967494    4.2967494    4.2967494   -5137.5946   -8680.9743   -10658.808    3926.9981   -3342.2847    8476.4901   -3286.6037    79.326826 
   17700    370.06921   -122.24323    0.3348464   -121.90839    2499.7273    4.2905716    4.2905716    4.2905716    2499.7273    13521.409   -11242.157    5219.9295    7641.6017    886.07446    45.683232    78.985154 
   17800    338.19037   -122.21586   0.30600176   -121.90985   -1371.9196    4.2929893    4.2929893    4.2929893   -1371.9196    3852.2999   -6808.3318   -1159.7268    8973.1334   -146.02742   -1428.8404    79.118752 
   17900    383.83233   -122.25434   0.34729956   -121.90704    3600.8531    4.2939313    4.2939313    4.2939313    3600.8531    2890.2437   -3741.8168    11654.132   -1699.9056    -1061.082    4108.1986    79.170845 
   18000    456.57675   -122.31748   0.41312024   -121.90436   -8317.9278     4.297949     4.297949     4.297949   -8317.9278   -586.44021   -15647.971   -8719.3721    534.35444   -1397.4986     4071.407    79.393283 
   18100    374.21839    -122.2432   0.33860066    -121.9046    5531.9065    4.2848204    4.2848204    4.2848204    5531.9065   -3545.9806    5413.2672    14728.433   -1128.6117    11288.533   -924.70796    78.667957 
   18200    337.77148    -122.2124   0.30562274   -121.90677   -6357.4932    4.3028604    4.3028604    4.3028604   -6357.4932    890.53916    -17266.33   -2696.6892    5916.6495    482.62774    1915.7798     79.66577 
   18300    429.90548   -122.29323   0.38898751   -121.90424    8855.3614    4.2873595    4.2873595    4.2873595    8855.3614    32860.009   -11271.287    4977.3624    55.698221     1140.084   -4033.4914    78.807889 
   18400    463.94204    -122.3241   0.41978451   -121.90432   -191.22432    4.2917785    4.2917785    4.2917785   -191.22432    608.07653   -5554.0258    4372.2763    365.41486    2473.2203   -284.64949    79.051822 
   18500    427.51287   -122.29014   0.38682263   -121.90332   -4867.1784    4.2971596    4.2971596    4.2971596   -4867.1784    8857.6232   -18968.057   -4491.1012    3283.7394   -837.17876    127.05573    79.349546 
   18600    394.83063   -122.26192   0.35725105   -121.90467   -6088.3709    4.2942331    4.2942331    4.2942331   -6088.3709   -15435.562   -16361.415    13531.864    10687.019     300.9639   -987.45866    79.187541 
   18700     453.1432   -122.31577   0.41001349   -121.90576    303.99816    4.2889313    4.2889313    4.2889313    303.99816    12022.249   -13159.889    2049.6339    5061.5135   -779.37218    3520.8267    78.894598 
   18800    372.87731   -122.24389   0.33738723    -121.9065   -3190.9907     4.303159     4.303159     4.303159   -3190.9907     6889.006   -15351.831   -1110.1469   -7127.8331    1962.5047   -666.28998    79.682357 
   18900    305.13128   -122.18136   0.27608919   -121.90527    6988.0721     4.290366     4.290366     4.290366    6988.0721    20891.849   -3853.8306    3926.1978    1098.1169    6123.2457    2080.2446    78.973797 
   19000    398.60597   -122.26584   0.36066706   -121.90517   -2943.3596    4.2928454    4.2928454    4.2928454   -2943.3596   -1246.7036   -3291.4851   -4291.8902    2136.4743   -1511.3914    1861.4491    79.110794 
   19100    357.38357   -122.22778   0.32336817   -121.90441    1654.0446    4.3003067    4.3003067    4.3003067    1654.0446     12646.59   -6951.6028   -732.85314    6475.0862   -457.98189   -558.31652    79.524013 
   19200    524.28331   -122.37643   0.47438256   -121.90204    992.42457    4.2910689    4.2910689    4.2910689    992.42457    17996.984   -462.48381   -14557.227     2241.575   -4773.4534    2892.1252     79.01262 
   19300    203.99908   -122.09022   0.18458265   -121.90563    11377.747    4.2934864    4.2934864    4.2934864    11377.747    40173.393   -7119.7615    1079.6105    3330.5583    2151.7169    -1846.416    79.146239 
   19400    464.56291   -122.32721   0.42034628   -121.90686   -10023.481    4.2970275    4.2970275    4.2970275   -10023.481   -4940.6655   -4647.0989   -20482.678    9147.7518    3913.8121   -210.69298    79.342232 
   19500    316.85297   -122.19276   0.28669523   -121.90606    1888.8306    4.2934853    4.2934853    4.2934853    1888.8306    1166.7129   -2433.3804    6933.1592   -210.79862   -2680.3044   -891.14165    79.146176 
   19600     517.9378   -122.37503   0.46864101   -121.90639   -1971.8926    4.2908891    4.2908891    4.2908891   -1971.8926     8006.693   -8129.7421   -5792.6286   -4130.3421    3470.3133   -2923.7784    79.002691 
   19700    509.63309   -122.36854   0.46112673   -121.90741   -3641.5162    4.2949764    4.2949764    4.2949764   -3641.5162    3368.5679   -4911.7674    -9381.349   -5660.1455   -3117.3765    1581.9952    79.228668 
   19800    305.87463     -122.184   0.27676179   -121.90724    9282.0386    4.2933136    4.2933136    4.2933136    9282.0386    34270.537   -11158.092    4733.6712    7293.9182    1346.3537   -1287.1609     79.13668 
   19900    405.35619   -122.27215    0.3667748   -121.90538   -5457.6685    4.2974822    4.2974822    4.2974822   -5457.6685    10609.208   -17029.229   -9952.9843    5808.6656   -1209.4017     2816.363    79.367421 
   20000    436.94038   -122.29974   0.39535283   -121.90439    1670.0911     4.289171     4.289171     4.289171    1670.0911    1745.6258     1183.522    2081.1254    5601.8199   -50.906888    2853.0892    78.907828 
   20100    460.31812   -122.32025   0.41650551   -121.90375   -10067.477    4.3006643    4.3006643    4.3006643   -10067.477   -7560.1796   -12703.466   -9938.7844    -5987.672    3621.0962   -911.74964    79.543855 
   20200    339.52198   -122.21162   0.30720662   -121.90441    3394.6329    4.2926432    4.2926432    4.2926432    3394.6329    13154.347    2477.7482   -5448.1962   -3200.5472    4338.7949    1921.7146    79.099614 
   20300    306.90417   -122.18288   0.27769334   -121.90519    3244.4636      4.29321      4.29321      4.29321    3244.4636    24551.898   -3822.1827   -10996.325    380.87121    3272.0666    -1231.934    79.130956 
   20400    250.57499   -122.13091   0.22672552   -121.90419    4427.6646    4.2982017    4.2982017    4.2982017    4427.6646    9465.2203    3628.9154    188.85805   -8947.6433    -2878.165    175.41949    79.407289 
   20500     509.1895   -122.36193   0.46072536    -121.9012   -7413.6964    4.2953428    4.2953428    4.2953428   -7413.6964   -1186.1277   -2827.7133   -18227.248   -5565.6281    -1782.839    618.00462    79.248947 
   20600     449.5344   -122.30846   0.40674817   -121.90171   -153.99854    4.2946271    4.2946271    4.2946271   -153.99854    953.49192     4085.435   -5500.9226    4187.1795   -3419.3121    -2154.755    79.209335 
   20700     487.5525    -122.3423   0.44114774   -121.90115    -9722.842    4.3012579    4.3012579    4.3012579    -9722.842   -1821.1489   -4709.3217   -22638.055    6198.5788    1489.9841   -668.71773    79.576796 
   20800    473.41302   -122.33019   0.42835405   -121.90183    -2172.002    4.2931896    4.2931896    4.2931896    -2172.002    11931.139   -16706.579   -1740.5665    6198.6843    566.15099   -788.91175    79.129828 
   20900    348.21465   -122.21916   0.31507193   -121.90409    206.95027    4.2989979    4.2989979    4.2989979    206.95027    19810.961   -1872.6203    -17317.49   -5600.0213    445.51979    59.966922    79.451427 
   21000    402.42398   -122.26703   0.36412167   -121.90291   -645.07032    4.2986901    4.2986901    4.2986901   -645.07032    6792.0184    4729.7273   -13456.957    -9429.604    6173.4439    2684.6345    79.434365 
   21100    297.79775   -122.17231   0.26945367   -121.90286    8172.8674    4.2936362    4.2936362    4.2936362    8172.8674    7926.4443    27155.432   -10563.274   -1685.0672   -4296.9912    2555.8606    79.154522 
   21200    382.51627   -122.24928   0.34610876   -121.90317     530.7651    4.2966692    4.2966692    4.2966692     530.7651   -19841.401    27237.427   -5803.7303    -504.3074    181.65884    2867.4856    79.322381 
   21300    382.90078   -122.25017   0.34645667   -121.90371    -4553.762    4.3001839    4.3001839    4.3001839    -4553.762    1031.7189    6722.0467   -21415.052    2089.8085   -2015.9749    1839.9399      79.5172 
   21400    431.29405   -122.29269   0.39024392   -121.90244    305.30621    4.2928563    4.2928563    4.2928563    305.30621    1242.3128   -2987.6464    2661.2522    3338.2968    -2541.057   -899.26217    79.111397 
   21500    473.00375   -122.33252   0.42798374   -121.90454   -2058.8504    4.2971231    4.2971231    4.2971231   -2058.8504    21715.666   -9931.7376    -17960.48    5596.2372    1937.1329    222.58633    79.347525 
   21600    325.66583   -122.20135   0.29466928   -121.90668    3059.2341    4.2968183    4.2968183    4.2968183    3059.2341    13220.032    2076.8633   -6119.1931   -3612.0666   -3461.6456   -1630.4544    79.330641 
   21700    502.60222   -122.35918   0.45476505   -121.90442   -2187.0708    4.2889786    4.2889786    4.2889786   -2187.0708   -6596.2602    1358.2881   -1323.2404   -9150.6172    3453.4108   -2787.4195    78.897211 
   21800    279.74154    -122.1592   0.25311602   -121.90609    2409.6361    4.3002803    4.3002803    4.3002803    2409.6361   -3522.5277    21550.741   -10799.305   -5035.0568    726.73553    2841.3731     79.52255 
   21900    450.37774   -122.31459   0.40751124   -121.90708    970.42481    4.2888501    4.2888501    4.2888501    970.42481    9639.7169   -803.77641    -5924.666    5769.1011    1930.0683    -0.594392    78.890117 
   22000    429.30772   -122.29722   0.38844665   -121.90878    2879.4544     4.289705     4.289705     4.289705    2879.4544    3081.8907    3068.4476    2488.0247    8803.4147   -1682.0621     2628.696    78.937301 
   22100    344.04551   -122.21873   0.31129961   -121.90743   -3109.2305    4.3021657    4.3021657    4.3021657   -3109.2305    26899.253   -23012.183   -13214.762   -2641.7533   -1519.0638    3377.9919    79.627195 
   22200    445.01448   -122.30793   0.40265845   -121.90527   -4653.6497    4.2894924    4.2894924    4.2894924   -4653.6497   -8874.8689   -6607.4587    1521.3786   -9390.7146     2637.679   -2724.3193    78.925569 
   22300    321.22217   -122.19605   0.29064857    -121.9054    6306.1223    4.2900555    4.2900555    4.2900555    6306.1223    15106.861   -2046.4947    5858.0008   -11204.353    405.64025   -1642.2915    78.956651 
   22400    517.36527   -122.37199   0.46812297   -121.90387   -12182.213      4.30186      4.30186      4.30186   -12182.213   -19357.439    4673.8488   -21863.049    6248.4273    1.3938184   -3832.6704    79.610218 
   22500    239.09567   -122.12328   0.21633878   -121.90695    11886.879    4.2898139    4.2898139    4.2898139    11886.879    8913.6972    22044.223    4702.7181    5636.1417    1234.2044   -326.20095    78.943315 
   22600    346.33663   -122.22049   0.31337267   -121.90711    2071.0888    4.2952704    4.2952704    4.2952704    2071.0888    19105.984    1802.4565   -14695.174    2939.1832    2280.3785    2037.4057    79.244935 
   22700    390.48559   -122.25778   0.35331957   -121.90447    30.093397    4.2992048    4.2992048    4.2992048    30.093397    3464.7488    1835.4464    -5209.915   -2408.7195   -1973.7946   -794.94421      79.4629 
   22800    558.59956    -122.4073   0.50543262   -121.90187   -6401.3706    4.2931229    4.2931229    4.2931229   -6401.3706    7520.1498   -14388.624   -12335.638   -809.82959    2644.1251    2381.2743    79.126139 
   22900    456.33011   -122.31739   0.41289707   -121.90449   -3449.7547     4.296501     4.296501     4.296501   -3449.7547   -1485.4275   -3828.2013   -5035.6354   -5097.8508   -3937.4887    3109.0827    79.313067 
   23000    458.08245   -122.31919   0.41448263   -121.90471   -9344.8247    4.2994749    4.2994749    4.2994749   -9344.8247   -9676.0513    341.13016   -18699.553   -1263.2581   -782.32345    2588.5132    79.477878 
   23100    257.75315   -122.13906   0.23322047   -121.90584    12145.252    4.2911479    4.2911479    4.2911479    12145.252    12757.781    26095.642   -2417.6676   -2534.2787    1694.8568    849.34882    79.016985 
   23200    449.55443   -122.31094   0.40676629   -121.90418   -367.63466    4.2977243    4.2977243    4.2977243   -367.63466     5181.864    10718.333   -17003.101    9027.7887   -4107.5839   -3598.3492    79.380833 
   23300    211.93943   -122.09569   0.19176725   -121.90392    11525.396    4.2973589    4.2973589    4.2973589    11525.396    22352.704    16884.474   -4660.9897    8863.7145    7129.8878   -2320.9488    79.360586 
   23400    413.06375   -122.27662   0.37374876   -121.90288   -3373.7952    4.2950674    4.2950674    4.2950674   -3373.7952    13185.837   -11020.402    -12286.82    1493.6535      1668.44    623.51334    79.233705 
   23500    414.85214   -122.27836   0.37536693   -121.90299   -3111.5691    4.2965393    4.2965393    4.2965393   -3111.5691    3197.1872   -10495.861   -2036.0334   -5785.1781     6513.647   -2067.7884    79.315188 
   23600     476.6847   -122.33336   0.43131433   -121.90204   -4185.3394    4.2956591    4.2956591    4.2956591   -4185.3394   -2641.4727   -4879.3137   -5035.2318   -4233.8913    4010.7357    1440.6307    79.266456 
   23700    577.93006   -122.42424   0.52292326   -121.90132   -13209.179    4.2967549    4.2967549    4.2967549   -13209.179   -11513.214   -16214.658   -11899.665    726.78706   -7623.5958    1383.4652    79.327133 
   23800    233.63917   -122.11558   0.21140163   -121.90418    7448.7573    4.2944174    4.2944174    4.2944174    7448.7573    14434.141    7420.9492     491.1813    3037.4454    2408.0991    3284.6251    79.197735 
   23900    428.41019    -122.2906   0.38763454   -121.90297   -5618.9675    4.2952309    4.2952309    4.2952309   -5618.9675   -6090.5548    2638.9699   -13405.317    1266.0154   -4190.3061    4437.9159    79.242753 
   24000    223.45637   -122.10582   0.20218802   -121.90363    13645.579    4.2930799    4.2930799    4.2930799    13645.579    24422.472    15106.148    1408.1167    1878.6428    1250.7253   -936.55663    79.123759 
   24100    470.15045   -122.32783   0.42540201   -121.90242    -5244.053     4.297659     4.297659     4.297659    -5244.053   -1821.8944    7506.0949    -21416.36    6760.3606    1765.8628    1351.3896    79.377215 
   24200    377.15582   -122.24441   0.34125851   -121.90315   -1806.9863    4.2939606    4.2939606    4.2939606   -1806.9863   -857.20475   -1658.6874   -2905.0669   -1506.5356   -299.66751    471.91924    79.172464 
   24300    442.56427   -122.30411   0.40044145   -121.90367   -7286.6085    4.2962825    4.2962825    4.2962825   -7286.6085    1300.0889    -12296.33   -10863.584   -8112.3813    4110.6616   -2732.9553    79.300971 
   24400    523.21048   -122.37679   0.47341184   -121.90338   -6492.7319    4.2965489    4.2965489    4.2965489   -6492.7319    643.89096   -15217.841   -4904.2456   -5105.1137   -705.74082   -696.55111    79.315719 
   24500    450.93828   -122.31255   0.40801843   -121.90453    2642.8336    4.2932623    4.2932623    4.2932623    2642.8336    18685.586   -1929.8921   -8827.1931    2231.4804   -4189.4525    -3276.947    79.133847 
   24600    319.13914   -122.19468    0.2887638   -121.90592    6366.0767    4.2948525    4.2948525    4.2948525    6366.0767    20678.131   -3226.3454    1646.4443    3788.3899   -4598.0725    2523.1794    79.221809 
   24700    420.68951   -122.28722   0.38064871   -121.90657    -3918.116    4.2922983    4.2922983    4.2922983    -3918.116   -11827.662    11074.481   -11001.167    2241.3406   -348.36233    5205.9644    79.080552 
   24800    243.49292   -122.12891   0.22031751   -121.90859    4011.9856    4.2937035    4.2937035    4.2937035    4011.9856    3234.0625    976.88919    7825.0052   -9630.8977   -2949.5201    2505.0915    79.158244 
   24900    435.95667   -122.30038   0.39446276   -121.90591   -4278.5342    4.2953494    4.2953494    4.2953494   -4278.5342   -4244.2616    3078.8557   -11670.197    4522.3561    2267.1531    1546.3954    79.249312 
   25000    391.83277   -122.25934   0.35453853    -121.9048    76.210181    4.2915523    4.2915523    4.2915523    76.210181    5816.9477   -2314.3149   -3274.0023    1029.6171   -2958.3126    1511.9393    79.039325 
   25100      404.633   -122.27019   0.36612044   -121.90407   -4821.8635    4.2925161    4.2925161    4.2925161   -4821.8635    4115.1378   -10811.045   -7769.6834   -3950.2646   -3186.7263    326.19444     79.09259 
   25200    413.35602   -122.27716   0.37401321   -121.90314   -7291.1728    4.2968511    4.2968511    4.2968511   -7291.1728    14526.156    -27088.67   -9311.0041    -3267.911    3153.0996    332.44091    79.332459 
   25300    408.24768   -122.27261   0.36939108   -121.90322    4350.8099    4.2907813    4.2907813    4.2907813    4350.8099    8662.7375    11228.207   -6838.5147   -4297.0714     -6038.71   -3489.7272    78.996735 
   25400    512.44165   -122.36703   0.46366798   -121.90336    3292.1293    4.2894147    4.2894147    4.2894147    3292.1293    12377.242    3599.1755   -6100.0293    11197.046    1404.4635   -212.16276    78.921276 
   25500    405.39083   -122.27204   0.36680614   -121.90523    2032.2021     4.296487     4.296487     4.296487    2032.2021    6421.3646    4711.4186    -5036.177   -3174.5503    -3087.688    3648.3676    79.312292 
   25600    315.80351   -122.19294   0.28574565    -121.9072    1694.1124    4.2919377    4.2919377    4.2919377    1694.1124   -838.07174    9734.8306   -3814.4218   -3850.2852    1850.7776    1931.7943    79.060621 
   25700    409.33819   -122.27927   0.37037779   -121.90889   -3690.7206    4.2901906    4.2901906    4.2901906   -3690.7206   -5227.8669   -12559.502    6715.2077   -12377.093    2710.8193    1689.5167     78.96411 
   25800    347.06943   -122.22219   0.31403571   -121.90816   -2465.4494    4.2965781    4.2965781    4.2965781   -2465.4494    1931.0956    -11519.97    2192.5258    8139.7716   -549.43846   -1650.6726    79.317337 
   25900    450.73281   -122.31248   0.40783252   -121.90465   -4428.0777     4.291116     4.291116     4.291116   -4428.0777   -5107.2147    -15883.54    7706.5212    6031.9704    1009.2338     674.5087    79.015222 
   26000    387.03329   -122.25419   0.35019585   -121.90399   -3229.2974    4.2932174    4.2932174    4.2932174   -3229.2974   -1361.0009   -5059.6268   -3267.2644   -6414.4611    160.32879   -2539.2997    79.131364 
   26100    332.43916   -122.20403   0.30079793   -121.90323     2139.763    4.2953174    4.2953174    4.2953174     2139.763     19744.65   -12521.677   -803.68345    371.20212    1178.6648   -4097.2043    79.247542 
   26200    411.97957   -122.27612   0.37276777   -121.90335    2597.5207     4.291012     4.291012     4.291012    2597.5207   -8745.4484     24245.58   -7707.5696    305.45472    2368.6838    780.19904     79.00948 
   26300    398.00795   -122.26573   0.36012596    -121.9056    6822.0728    4.2904172    4.2904172    4.2904172    6822.0728    20256.589    2628.2254   -2418.5962    4899.3593   -1344.9052    728.17584    78.976623 
   26400     423.9474   -122.28958   0.38359652   -121.90599   -3949.8219    4.2992209    4.2992209    4.2992209   -3949.8219   -2864.2547    76.780766   -9061.9917   -3112.2411   -664.58708    2111.8106     79.46379 
   26500    495.87685   -122.35278   0.44867979    -121.9041   -5390.8257    4.2907191    4.2907191    4.2907191   -5390.8257   -1381.6641   -7990.4933   -6800.3197   -7584.8613    1655.2628    3374.5965    78.993298 
   26600    279.23557   -122.15876   0.25265821    -121.9061    3335.3228    4.2929597    4.2929597    4.2929597    3335.3228    5823.0858   -5037.9827    9220.8653   -237.33395    372.50751   -2331.8834    79.117114 
   26700    518.37972   -122.37418   0.46904086   -121.90514   -12679.177    4.2966132    4.2966132    4.2966132   -12679.177   -19847.188   -4362.7777   -13827.566    10444.299    3521.9834   -401.83427    79.319281 
   26800    217.97109     -122.104   0.19722482   -121.90678    6890.1831    4.2918382    4.2918382    4.2918382    6890.1831   -3787.5086    8622.5363    15835.521    322.95946   -2899.2754   -2557.4764    79.055122 
   26900    435.75629   -122.30002   0.39428145   -121.90574    674.73292    4.2904558    4.2904558    4.2904558    674.73292   -6265.9533    10681.092   -2390.9396   -7639.0029    3318.8402   -5844.2935    78.978758 
   27000     391.1477   -122.25977   0.35391866   -121.90585   -2517.6044    4.2981123    4.2981123    4.2981123   -2517.6044   -4260.8454   -5267.2717    1975.3039   -4358.2519   -2531.4423    3473.2911    79.402336 
   27100    377.70875   -122.24562   0.34175881   -121.90386    7739.9706    4.2868025    4.2868025    4.2868025    7739.9706    4389.4142    7429.8151    11400.682    6926.0388   -4207.0585   -4976.9565     78.77718 
   27200    536.03412   -122.38879   0.48501494   -121.90378   -10764.423    4.2970241    4.2970241    4.2970241   -10764.423   -4425.4483   -21288.656   -6579.1641    5004.3965    3044.8035    4755.9448    79.342042 
   27300    292.41405   -122.16897   0.26458238   -121.90438    9211.1856    4.2944224    4.2944224    4.2944224    9211.1856    14908.801     4345.914    8378.8413   -3628.8966   -4109.6729    2492.2338     79.19801 
   27400     582.8432      -122.43   0.52736878   -121.90263   -9121.0997    4.2903501    4.2903501    4.2903501   -9121.0997   -14720.972   -554.06457   -12088.262   -6010.5141    7956.2699   -1433.4505     78.97292 
   27500    205.00315   -122.09113   0.18549116   -121.90564     14586.54    4.2917669    4.2917669    4.2917669     14586.54    9524.7715     19302.41    14932.438    3904.8691   -360.48416    1256.1842    79.051184 
   27600    447.75437   -122.30854   0.40513756   -121.90341    -10380.22    4.3004301    4.3004301    4.3004301    -10380.22   -15505.285    2139.5912   -17774.965    6966.5654   -2797.9348   -7577.6473     79.53086 
   27700    332.36163   -122.20366   0.30072779   -121.90293    4855.1197    4.2877768    4.2877768    4.2877768    4855.1197   -7712.2963    5810.6388    16467.017   -5538.9003    2931.1503    1982.1105    78.830904 
   27800    362.59708   -122.23192   0.32808545   -121.90383    1037.1675    4.2941454    4.2941454    4.2941454    1037.1675   -4100.8004   -8557.8553    15770.158   -7251.1006   -5076.5533   -3785.3094    79.182685 
   27900    522.00474   -122.37478   0.47232086   -121.90246   -8119.5292    4.2983773    4.2983773    4.2983773   -8119.5292   -14823.984   -15385.602    5850.9984    46.881541    3083.7198    2943.2906    79.417021 
   28000    329.12769   -122.20137   0.29780165   -121.90357    2880.6118    4.2923379    4.2923379    4.2923379    2880.6118    2343.4732   -8169.0237    14467.386     5145.629   -4044.1741    1144.8853     79.08274 
   28100    523.09166   -122.37625   0.47330432   -121.90294   -5575.0686    4.2914866    4.2914866    4.2914866   -5575.0686   -8266.1521     -16499.9    8040.8458    3057.6471    2152.6033   -581.17435    79.035699 
   28200    390.81011   -122.25727    0.3536132   -121.90366   -3725.5097    4.3012947    4.3012947    4.3012947   -3725.5097    1935.4421   -9166.9354   -3945.0358   -3439.3322    1457.7176    3523.8712    79.578837 
   28300    385.33933   -122.24989   0.34866313   -121.90123    4194.2005    4.2889209    4.2889209    4.2889209    4194.2005   -3113.0397   -3193.6809    18889.322    5827.4658   -1080.9947   -7885.5682    78.894022 
   28400    393.05642   -122.25751   0.35564571   -121.90186   -2136.8601    4.2937146    4.2937146    4.2937146   -2136.8601   -11199.154   -5525.3536    10313.928    5615.5583    1953.8216   -1220.0407     79.15886 
   28500    286.11105   -122.16181   0.25887929   -121.90293    3485.8276    4.2978598    4.2978598    4.2978598    3485.8276    8399.6638   -4627.5082    6685.3274   -3086.0046   -5148.8508   -2600.5564     79.38834 
   28600    448.06676   -122.30759   0.40542022   -121.90217   -2214.2052    4.2912749    4.2912749    4.2912749   -2214.2052   -8433.5087    210.84049    1580.0527   -7753.1874    1380.4822   -3065.4937    79.023999 
   28700    292.14246   -122.16773   0.26433664   -121.90339    11260.113     4.290297     4.290297     4.290297    11260.113    17695.412    600.92364    15484.004   -4903.3094   -4597.9647    1929.0587    78.969986 
   28800    443.48399   -122.30347   0.40127363    -121.9022   -7173.4355    4.3004056    4.3004056    4.3004056   -7173.4355   -10843.192   -6425.1438   -4251.9709    4743.9811   -473.05778   -4781.5336    79.529503 
   28900    322.37504   -122.19377   0.29169172   -121.90207     4776.885     4.290973     4.290973     4.290973     4776.885    5560.1052   -6669.1828    15439.733   -3480.4754    908.61418    5200.1805     79.00732 
   29000    464.69472   -122.32339   0.42046555   -121.90293   -3388.9575    4.2920269    4.2920269    4.2920269   -3388.9575   -3295.9834   -16545.445    9674.5553   -4849.0305    69.985496    2211.5344    79.065552 
   29100    515.83528   -122.37006    0.4667386   -121.90332   -7679.1222    4.2958222    4.2958222    4.2958222   -7679.1222   -5459.0451   -16252.361   -1325.9607    1937.4771    1802.5183    511.17472    79.275485 
   29200    327.73024   -122.20215   0.29653721   -121.90561    3956.2692    4.2913179    4.2913179    4.2913179    3956.2692    2227.7052   -4653.5661    14294.668    4706.2408   -101.87717   -1226.2802    79.026377 
   29300    554.29038   -122.40623   0.50153358    -121.9047   -10051.097    4.2916293    4.2916293    4.2916293   -10051.097   -10415.276   -11223.374   -8514.6411    3538.9411   -3788.9574   -5617.9088     79.04358 
   29400    259.71838   -122.14241   0.23499865   -121.90741    8584.8004    4.2936664    4.2936664    4.2936664    8584.8004    17386.894   -2933.1699    11300.678   -9721.5325    2457.5659    4747.9655    79.156194 
   29500    406.18078   -122.27495   0.36752091   -121.90743    548.11987     4.292793     4.292793     4.292793    548.11987   -5377.2446    9162.6179   -2141.0137   -3975.4348   -3526.5523    2027.2558    79.107895 
   29600    374.40999   -122.24502   0.33877402   -121.90625    5188.2594     4.290321     4.290321     4.290321    5188.2594    8774.5794   -2505.9228    9296.1218    2012.8592    1210.6898    3448.4952    78.971311 
   29700    354.26793   -122.22481   0.32054907   -121.90426    1608.3563    4.2950334    4.2950334    4.2950334    1608.3563   -6771.5373   -662.46266    12259.069     1819.457    1810.5054   -1773.1169    79.231821 
   29800    486.78272   -122.34252   0.44045123   -121.90207   -5283.9198    4.2917051    4.2917051    4.2917051   -5283.9198   -6149.3123    -12760.37    3057.9229    -4170.517   -3975.2197   -775.04072    79.047768 
   29900     317.0419   -122.19022   0.28686617   -121.90336    4362.6528    4.2905238    4.2905238    4.2905238    4362.6528   -4177.3651   -13346.003    30611.326   -8410.2326    2001.8283    2021.0903     78.98251 
   30000    482.56981   -122.34006   0.43663931   -121.90342   -7025.3895    4.2917025    4.2917025    4.2917025   -7025.3895   -7893.9263   -17619.622    4437.3796    5099.0171   -4600.5825    3252.4349    79.047626 
   30100    422.77577    -122.2875   0.38253641   -121.90497   -6824.7348    4.2951128    4.2951128    4.2951128   -6824.7348   -8009.7909   -9957.7923   -2506.6212    3707.4482   -69.141953     137.2344    79.236216 
   30200    328.33615    -122.2046   0.29708545   -121.90752    5398.9589    4.2871579    4.2871579    4.2871579    5398.9589   -14122.489    1174.5719    29144.793   -8461.9419    530.09691    943.91647    78.796777 
   30300    446.97302   -122.31299   0.40443058   -121.90856   -392.49707    4.2911633    4.2911633    4.2911633   -392.49707    8976.7401   -6658.3288   -3495.9025   -7191.7462      4194.92   -39.180694    79.017837 
   30400    308.31436   -122.18646   0.27896931   -121.90749    4081.8042    4.2966496    4.2966496    4.2966496    4081.8042   -12862.837    12925.268    12182.981   -736.32352   -1360.8568    3786.9182    79.321298 
   30500     387.0608    -122.2546   0.35022075   -121.90438    3043.2286    4.2887158    4.2887158    4.2887158    3043.2286    8475.7802   -9125.4229    9779.3286    4258.2841   -3373.5718   -1175.0666    78.882704 
   30600    433.59217   -122.29666    0.3923233   -121.90433   -2409.4455     4.293806     4.293806     4.293806   -2409.4455   -9425.7448   -4193.6217    6391.0301    548.60878    234.91086    1560.2304    79.163916 
   30700    393.15887   -122.26015   0.35573841   -121.90442    1530.6221    4.2954051    4.2954051    4.2954051    1530.6221   -3980.1662   -8286.5416    16858.574   -3667.3143   -4801.3758   -541.86892    79.252395 
   30800    545.46245   -122.39739   0.49354588   -121.90385   -8134.9323    4.2898373    4.2898373    4.2898373   -8134.9323   -3441.0439   -17077.858   -3885.8955    3136.5724     4119.397    3425.9295    78.944606 
   30900    321.49067   -122.19562   0.29089152   -121.90473    3276.8039    4.2913146    4.2913146    4.2913146    3276.8039   -4774.9533   -6538.5805    21143.946    4931.3111   -3753.9794    1468.4308    79.026194 
   31000    392.98343   -122.26107   0.35557966   -121.90549   -7016.8411     4.298809     4.298809     4.298809   -7016.8411    -3157.548   -20860.301    2967.3257   -1748.9373    4651.3315   -730.17589    79.440951 
   31100     432.7899     -122.299    0.3915974    -121.9074    2860.7607    4.2847533    4.2847533    4.2847533    2860.7607   -10891.282    2569.3228    16904.242   -11084.335   -5682.6249     4530.309    78.664261 
   31200    331.07983   -122.20908   0.29956799   -121.90951     4844.279    4.2944828    4.2944828    4.2944828     4844.279    8703.9939   -4032.8856    9861.7287   -4793.6279    3840.1228    1116.6284    79.201352 
   31300    403.13494   -122.27077   0.36476496   -121.90601   -4172.1579    4.2967603    4.2967603    4.2967603   -4172.1579   -14977.203    2943.4836   -482.75465    2476.2943    3437.2232    2375.6887    79.327427 
   31400    357.04298   -122.22765      0.32306   -121.90459   -4333.0589     4.288986     4.288986     4.288986   -4333.0589   -9844.9297   -9228.8832    6074.6364   -6812.0351   -5028.7524   -3421.7204    78.897618 
   31500    304.95244   -122.18129   0.27592738   -121.90536    2453.6155    4.2922141    4.2922141    4.2922141    2453.6155   -15162.032   -5942.0738    28464.952   -4066.1498    4986.1627   -998.42473    79.075898 
   31600    609.34982   -122.45471   0.55135252   -121.90335    -12542.67    4.2972391    4.2972391    4.2972391    -12542.67   -5260.6141   -15781.009   -16586.387    -383.3149   -6656.9405   -493.53451    79.353953 
   31700    404.36074   -122.27066    0.3658741   -121.90479    4046.2883    4.2882235    4.2882235    4.2882235    4046.2883    1293.2851   -11901.178    22746.758    4969.3579    3031.0453     3435.208    78.855542 
   31800    400.82947   -122.26874   0.36267892   -121.90606   -2907.2694    4.2931846    4.2931846    4.2931846   -2907.2694    -8835.753   -15914.648    16028.592   -331.34379   -894.14183   -937.86639    79.129546 
   31900    354.26376   -122.22635   0.32054529    -121.9058   -729.54978    4.2971121    4.2971121    4.2971121   -729.54978    11716.501   -16104.156     2199.005   -7072.3113    2141.9803    1128.0911    79.346916 
   32000    357.37044   -122.22858   0.32335628   -121.90522    12281.591    4.2875057    4.2875057    4.2875057    12281.591   -2930.5404    10887.858    28887.456   -4577.1859    1587.4236    1274.6267    78.815952 
   32100    453.80346   -122.31856   0.41061091   -121.90795    1618.7017    4.2935336    4.2935336    4.2935336    1618.7017    3252.8705    6673.6351   -5070.4004   -1626.6858   -2533.3345   -899.28826    79.148848 
   32200    295.40706   -122.17794   0.26729051   -121.91065    3155.1357    4.2944924    4.2944924    4.2944924    3155.1357   -6812.7885    10245.454    6032.7411   -2301.8337     927.8836   -2158.7468    79.201882 
   32300    304.53793    -122.1835   0.27555232   -121.90795   -2432.7894     4.295233     4.295233     4.295233   -2432.7894   -17772.791   -2351.3672     12825.79   -4861.1417   -3490.2808    501.61065    79.242868 
   32400    489.77786    -122.3464    0.4431613   -121.90324   -434.30054    4.2890039    4.2890039    4.2890039   -434.30054    -12857.34    1465.3542    10089.084   -711.42074    7204.1018    -1941.375    78.898604 
   32500    482.93646    -122.3396   0.43697106   -121.90263    -3529.526    4.2978006    4.2978006    4.2978006    -3529.526   -6603.9254   -14803.249    10818.596    3818.7936   -1743.0237     486.2227    79.385064 
   32600    501.34078   -122.35552   0.45362367   -121.90189   -14124.607    4.2960069    4.2960069    4.2960069   -14124.607   -23456.192   -27239.205    8321.5776   -406.47951    57.355796   -1647.4157    79.285708 
   32700     339.6395   -122.20968   0.30731296   -121.90237   -3314.5107    4.2888911    4.2888911    4.2888911   -3314.5107   -15020.969   -12872.714    17950.151   -4819.7357    2058.5903    4388.7495    78.892378 
   32800    394.07577    -122.2623   0.35656804   -121.90573   -2654.8277    4.2969075    4.2969075    4.2969075   -2654.8277   -7653.0987   -8687.4361    8376.0518   -3687.0204   -2001.9714    -489.6075    79.335583 
   32900    552.00867   -122.40373   0.49946905   -121.90426   -1928.5327    4.2932651    4.2932651    4.2932651   -1928.5327   -3239.1927    5760.6685   -8307.0739   -1060.6339    4602.2685    1535.0275    79.133999 
   33000     200.6874   -122.08953   0.18158617   -121.90795     15001.97    4.2895465    4.2895465    4.2895465     15001.97   -1041.5338    13530.515    32516.927   -5115.6997   -3421.1651   -6085.3962    78.928551 
   33100    303.53965   -122.18375   0.27464905    -121.9091   -270.28191    4.2960612    4.2960612    4.2960612   -270.28191   -3975.3242    1938.8587    1225.6197   -9024.8052     976.2823   -21.987889    79.288713 
   33200    366.54339   -122.23843   0.33165616   -121.90677    1275.6981    4.2957287    4.2957287    4.2957287    1275.6981   -3432.5968   -968.72419    8228.4154   -4036.9384   -908.62475   -656.74178    79.270307 
   33300    474.89815    -122.3336   0.42969783   -121.90391    9401.9303    4.2855585    4.2855585    4.2855585    9401.9303    681.91231    7330.0141    20193.864    2447.2351    1044.1202    2778.3029    78.708616 
   33400    533.78563   -122.38794   0.48298046   -121.90496   -9775.1101    4.2982101    4.2982101    4.2982101   -9775.1101   -3587.5634   -20419.979   -5317.7879    350.71605    1909.8825    1828.7714    79.407754 
   33500    321.69638   -122.19623   0.29107765   -121.90515   -4011.9296    4.2947838    4.2947838    4.2947838   -4011.9296   -14621.729   -20997.902    23583.842   -4925.6173    473.55568   -89.826644    79.218008 
   33600    443.67738   -122.30551   0.40144862   -121.90406   -6813.7841    4.2882056    4.2882056    4.2882056   -6813.7841   -8125.0193   -11064.221   -1252.1122   -4084.8735    1379.8089    4151.6318     78.85456 
   33700    495.26134   -122.35301   0.44812287   -121.90489   -2780.3729    4.2941272    4.2941272    4.2941272   -2780.3729   -13298.794   -6417.3963    11375.071    1825.8713   -4127.0042   -2277.4279     79.18168 
   33800    352.90025   -122.22624   0.31931156   -121.90693    6040.5916    4.2951557    4.2951557    4.2951557    6040.5916     3247.375    4636.6221    10237.778    -2630.987   -1135.9909   -1847.0676    79.238588 
   33900      361.024   -122.23222   0.32666211   -121.90556    -354.9461    4.2897169    4.2897169    4.2897169    -354.9461   -10983.944    2646.2743    7272.8319   -10119.668     989.3547   -1924.5307    78.937957 
   34000    241.37279   -122.12372   0.21839917   -121.90532    3396.7405     4.294761     4.294761     4.294761    3396.7405   -4716.3664    5525.5492    9381.0386   -6571.6815   -3087.1274   -666.61029    79.216747 
   34100    389.80658   -122.25604   0.35270519   -121.90334    1479.7161     4.295629     4.295629     4.295629    1479.7161      5079.55    975.52479   -1615.9266   -848.35222    5925.3184    4474.1224    79.264789 
   34200    508.39857   -122.36347   0.46000971   -121.90346   -1380.2379    4.2898934    4.2898934    4.2898934   -1380.2379   -8396.7704    2563.4282    1692.6285   -2028.2588    2438.6235    2320.8419    78.947701 
   34300    284.12674   -122.16322   0.25708384   -121.90614     2516.785    4.2954734    4.2954734    4.2954734     2516.785    3142.6275   -13167.373    17575.101   -4411.2844    -4402.138   -3220.8591    79.256175 
   34400    563.32614   -122.41332   0.50970933   -121.90361   -12846.962     4.294626     4.294626     4.294626   -12846.962   -15993.458   -19950.771   -2596.6566   -814.48451    1308.0547    343.93399    79.209279 
   34500    328.22627   -122.20236   0.29698603   -121.90537    8663.2551    4.2900921    4.2900921    4.2900921    8663.2551    1501.1865   -7381.3356    31869.914    4116.0991   -2706.8002   -3861.9729    78.958672 
   34600    573.65438   -122.42636   0.51905454    -121.9073   -7966.7088    4.2926772    4.2926772    4.2926772   -7966.7088   -6236.9597    -13785.52   -3877.6463    1345.5589     6006.946     1762.813    79.101494 
   34700    357.00155   -122.23251   0.32302251   -121.90949    815.84154    4.2937712    4.2937712    4.2937712    815.84154    -678.3562   -2364.0901     5489.971   -7208.1323   -3265.6545   -832.88432    79.161987 
   34800    251.10892   -122.13566   0.22720862   -121.90845    996.67333    4.2944015    4.2944015    4.2944015    996.67333   -7630.5867   -4752.9287    15373.535   -6999.1539    1855.9866    3833.1161    79.196855 
   34900    447.50892   -122.30955   0.40491547   -121.90463   -949.13062    4.2885875    4.2885875    4.2885875   -949.13062   -6483.9629    6756.6306   -3120.0595   -2661.1802   -1202.7154   -3588.4045    78.875627 
   35000    333.70666   -122.20684    0.3019448    -121.9049    2599.6792    4.2977307    4.2977307    4.2977307    2599.6792    5324.8517    1830.1572    644.02868   -1402.1045   -554.90464    3970.3006    79.381188 
   35100    346.31683   -122.21954   0.31335474   -121.90619    3719.7274    4.2910838    4.2910838    4.2910838    3719.7274    -9334.763   -8437.4963    28931.441   -4500.3483    3122.8243   -3839.9815    79.013441 
   35200    479.12232    -122.3428   0.43351994   -121.90928   -4147.8674    4.2883974    4.2883974    4.2883974   -4147.8674   -3198.9414   -7708.8966    -1535.764   -4069.7714   -247.87731    520.49408    78.865137 
   35300    384.87498   -122.25874   0.34824297    -121.9105   -974.26426    4.2972457    4.2972457    4.2972457   -974.26426    -12777.01    -18786.42    28640.637    3881.0407    -305.3974   -3080.2707    79.354317 
   35400    495.50265   -122.35505   0.44834121   -121.90671   -9460.2972    4.2946029    4.2946029    4.2946029   -9460.2972   -6502.0556   -15250.195   -6628.6405     2645.155   -1824.8879    2806.4033    79.207997 
   35500    483.49034   -122.34258   0.43747222    -121.9051   -1686.8966    4.2840524    4.2840524    4.2840524   -1686.8966   -2983.5244   -10379.852    8302.6865   -4304.7134    8703.2353    6924.4378    78.625664 
   35600    271.45102   -122.15499   0.24561459   -121.90937   -2618.3773    4.3015174    4.3015174    4.3015174   -2618.3773   -10549.214   -9549.4919    12243.574   -4589.2869   -3156.7473    14.890472    79.591201 
   35700     491.9232    -122.3527   0.44510244    -121.9076    3324.4216    4.2846388    4.2846388    4.2846388    3324.4216   -1577.3075    2796.7703    8753.8022   -1839.7055    3453.8501    201.29717    78.657956 
   35800    390.35507   -122.26025   0.35320148   -121.90705    2807.0763    4.2920716    4.2920716    4.2920716    2807.0763   -7406.4054    4128.4239    11699.211    1914.4754   -5224.9866   -2505.5333    79.068021 
   35900    287.23457   -122.16406   0.25989588   -121.90416    5317.1296    4.2949031    4.2949031    4.2949031    5317.1296   -2021.1985    3178.9648    14793.623    -5317.431    706.19213     4492.357    79.224609 
   36000     487.3688   -122.34422   0.44098153   -121.90324   -11451.017    4.2909463    4.2909463    4.2909463   -11451.017   -12651.646   -16767.567   -4933.8372   -9522.5299    1016.2135    1531.5654     79.00585 
   36100    278.14053   -122.15788    0.2516674   -121.90621    7913.0465    4.2867584    4.2867584    4.2867584    7913.0465   -3342.8089   -1790.2949    28872.243   -670.45961   -4798.4332    1250.3707    78.774748 
   36200    521.59338   -122.38027   0.47194865   -121.90832   -14190.927     4.297607     4.297607     4.297607   -14190.927   -15853.158   -22930.775   -3788.8488    2899.4169     3088.119   -4822.1775    79.374336 
   36300    459.12857   -122.32495   0.41542918   -121.90952   -2361.0912    4.2867021    4.2867021    4.2867021   -2361.0912    7462.2917   -11751.607   -2793.9579   -3363.0264   -2720.0362    5762.8407    78.771644 
   36400    267.73071    -122.1541   0.24224838   -121.91185    153.61301    4.2922024    4.2922024    4.2922024    153.61301   -14060.057   -22473.209    36994.105   -5995.0695    2222.1803   -2726.2765    79.075252 
   36500    426.92474    -122.2975   0.38629048   -121.91121     783.5623    4.2889359    4.2889359    4.2889359     783.5623     3937.295   -3592.0056    2005.3975    -990.2525   -4362.1531    -1761.486    78.894849 
   36600    467.84254   -122.33262   0.42331376   -121.90931   -185.61877    4.2931056    4.2931056    4.2931056   -185.61877   -2513.6269   -4448.9521    6405.7227    3847.0075    2346.4648    1801.3069     79.12518 
   36700    339.80836   -122.21543   0.30746575   -121.90797    4422.1414    4.2906791    4.2906791    4.2906791    4422.1414   -6461.6513    3201.4186    16526.657   -4747.7808    3080.7806    266.56727    78.991088 
   36800    354.03071   -122.22712   0.32033443   -121.90678    1929.4389    4.2877679    4.2877679    4.2877679    1929.4389    2561.6231    6068.8838   -2842.1902   -9134.4702    1655.5805    2637.7008    78.830416 
   36900    359.61046   -122.22979    0.3253831   -121.90441   -5067.4942    4.2966427    4.2966427    4.2966427   -5067.4942   -16360.368   -13349.924    14507.809   -3777.1456   -444.78663    817.25478    79.320914 
   37000    377.71238    -122.2449    0.3417621   -121.90314    5978.5354    4.2867084    4.2867084    4.2867084    5978.5354    273.84586    2463.2879    15198.473    466.77589   -3951.3096   -6604.8724    78.771993 
   37100     575.2158   -122.42447   0.52046734   -121.90401   -13968.932    4.2940212    4.2940212    4.2940212   -13968.932    -19085.62    -12200.52   -10620.656    2430.9487     1582.489    2383.0787    79.175817 
   37200    226.77297   -122.11276   0.20518895   -121.90757     7580.105     4.292418     4.292418     4.292418     7580.105   -1192.7771   -16864.986    40798.078   -7028.2659    6160.4268    1631.0634     79.08717 
   37300    495.14885   -122.35711   0.44802108   -121.90909   -13505.414    4.2904181    4.2904181    4.2904181   -13505.414   -13006.362   -18640.318   -8869.5628   -5336.9362   -5948.5209    3755.7794    78.976677 
   37400    494.71887   -122.35746   0.44763203   -121.90983   -552.38411    4.2862341    4.2862341    4.2862341   -552.38411   -5424.0076   -1405.9899    5172.8452    3464.7788   -5658.7249   -2016.4163    78.745847 
   37500    312.21734   -122.19385   0.28250081   -121.91135   -4017.1909    4.3008205    4.3008205    4.3008205   -4017.1909   -5951.1513   -13275.864    7175.4423   -3400.6049   -667.55409   -1224.3208     79.55252 
   37600    441.80573   -122.30612   0.39975511   -121.90637    5857.9669    4.2814392    4.2814392    4.2814392    5857.9669      5024.78    4926.2861    7622.8347   -5927.6761    1813.1829    960.53289    78.481868 
   37700    291.37699   -122.16984   0.26364403    -121.9062    1543.8997     4.297617     4.297617     4.297617    1543.8997   -8860.6816    572.90997    12919.471   -5096.6579     282.9207    2220.7693    79.374891 
   37800    384.31541   -122.25146   0.34773666   -121.90372    10643.169     4.289085     4.289085     4.289085    10643.169    6840.9137    7626.6582    17461.934   -217.71543    -4874.196    3822.1889    78.903082 
   37900    482.10215   -122.33966   0.43621616   -121.90344   -3957.7124     4.292904     4.292904     4.292904   -3957.7124   -7178.4804    2681.3199   -7375.9768    1329.6175   -2820.4521   -2649.9893    79.114036 
   38000    303.98859    -122.1797   0.27505526   -121.90465    9711.4717    4.2886259    4.2886259    4.2886259    9711.4717   -9620.5779    6371.4676    32383.525   -4874.1523   -2011.9637    359.49717    78.877744 
   38100    453.89809   -122.31589   0.41069653    -121.9052   -15985.836    4.2981244    4.2981244    4.2981244   -15985.836   -8182.2726   -25914.018   -13861.218   -2375.2912     1952.772   -357.90175    79.403007 
   38200    435.96039   -122.29858   0.39446612   -121.90412   -2583.7107    4.2858066    4.2858066    4.2858066   -2583.7107   -8534.2401   -5048.5837    5831.6917   -344.37995   -7427.0677    2385.4676     78.72229 
   38300    422.56619   -122.28826   0.38234677   -121.90591    -10921.52    4.2989819    4.2989819    4.2989819    -10921.52   -13526.989   -21102.096    1864.5262    1985.3461   -1780.9929     105.7276    79.450541 
   38400    509.98909   -122.36685   0.46144885    -121.9054   -5306.8297    4.2881101    4.2881101    4.2881101   -5306.8297     -4700.13   -10337.797   -882.56231   -4766.4986    648.01395    -1025.457    78.849287 
   38500    293.26795   -122.17158     0.265355   -121.90623    2416.5065    4.2924722    4.2924722    4.2924722    2416.5065   -4429.6582    -8595.704    20274.882   -6438.1876    2621.3478   -343.08678    79.090161 
   38600    408.11029    -122.2741   0.36926677   -121.90484    216.40741     4.293461     4.293461     4.293461    216.40741   -3548.2664    4032.7238    164.76487   -64.734395   -7525.6589   -5.4213452    79.144832 
   38700     401.4125   -122.26689   0.36320647   -121.90368    4872.8712    4.2914783    4.2914783    4.2914783    4872.8712    1446.8198    8904.7892    4267.0048   -2251.8033   -1840.7681    2250.0186    79.035238 
   38800    303.19011   -122.17755   0.27433278   -121.90322    13722.589    4.2897842    4.2897842    4.2897842    13722.589     10812.54    12656.782    17698.444   -2988.4683    5125.8745      3425.61    78.941675 
   38900    474.51935   -122.33248   0.42935508   -121.90312   -7342.0704    4.2949731    4.2949731    4.2949731   -7342.0704   -15319.086     4564.978   -11272.103   -4353.5329    2459.8894   -1155.7314    79.228482 
   39000    224.73374   -122.10929   0.20334381   -121.90595    9436.1117    4.2881796    4.2881796    4.2881796    9436.1117    11646.217    -129.3748    16791.493   -1337.6256    685.76474    3737.2601    78.853122 
   39100    521.82658   -122.37959   0.47215966   -121.90743   -11016.085    4.2946361    4.2946361    4.2946361   -11016.085   -14166.859   -8992.2524   -9889.1443    4024.9575   -9331.2012   -1432.9989    79.209836 
   39200     440.4185   -122.30611   0.39849991   -121.90761   -3857.8443    4.2923719    4.2923719    4.2923719   -3857.8443   -8894.9428   -12841.033    10162.443   -900.35529    4557.2345    334.74832    79.084618 
   39300    375.02352   -122.24715   0.33932916   -121.90782    4462.2359    4.2887775    4.2887775    4.2887775    4462.2359    585.16466   -8733.5829    21535.126   -5429.3905    3783.0391   -2082.2696    78.886111 
   39400    531.60756   -122.38643   0.48100969   -121.90542   -16188.963    4.2970472    4.2970472    4.2970472   -16188.963   -18086.301   -23326.071   -7154.5177   -1068.1557   -214.20171    2874.0658    79.343322 
   39500    289.12101   -122.16631   0.26160277   -121.90471    9132.5708    4.2861459    4.2861459    4.2861459    9132.5708    2525.9068    13160.702    11711.104     86.81134   -9713.2553     3156.199    78.740986 
   39600     463.0938   -122.32237   0.41901701   -121.90336    -10198.16    4.2968439    4.2968439    4.2968439    -10198.16   -13807.136   -4642.8957   -12144.447    103.85878   -3294.9539   -1143.3334    79.332058 
   39700    355.58627   -122.22425   0.32174193   -121.90251    9462.7384    4.2887425    4.2887425    4.2887425    9462.7384    8517.4708    9946.6452    9924.0992   -3151.0456    4914.5166   -817.27687    78.884182 
   39800    311.71581   -122.18649   0.28204701   -121.90444    3747.0942    4.2930219    4.2930219    4.2930219    3747.0942   -9313.9564    9037.1171    11518.122   -3386.8487    1051.9655   -7284.4061    79.120554 
   39900    421.56457   -122.28706   0.38144048   -121.90562    2244.4621    4.2916026    4.2916026    4.2916026    2244.4621    4325.1126    2831.1562   -422.88239    1140.3419   -5742.7039    3751.4814    79.042105 
   40000    294.96782   -122.17472   0.26689309   -121.90783    4561.8097     4.293364     4.293364     4.293364    4561.8097   -9855.8932    2627.4803    20913.842   -1020.7066     819.4059   -220.84964    79.139468 
   40100    472.59302    -122.3337   0.42761209   -121.90609    5857.0798    4.2852104    4.2852104    4.2852104    5857.0798    6197.4953    1565.2715    9808.4726    260.25586    1143.5492    175.50235    78.689438 
   40200    481.88056   -122.34181   0.43601565   -121.90579   -11870.938    4.3009138    4.3009138    4.3009138   -11870.938   -17235.068   -21294.888    2917.1433   -1797.5198   -307.63329   -1792.2487    79.557698 
   40300    374.93527   -122.24457   0.33924931   -121.90532    5804.3441    4.2823372    4.2823372    4.2823372    5804.3441    5206.9283   -3369.0924    15575.196   -884.95902   -4230.2681    8426.4861    78.531262 
   40400     409.7913   -122.27702   0.37078778   -121.90623    -11265.95    4.2958682    4.2958682    4.2958682    -11265.95   -9492.5123   -14814.384   -9490.9525    2388.7516   -4237.2945    3372.1763    79.278027 
   40500    430.57994   -122.29293   0.38959778   -121.90333   -6982.8411    4.2951214    4.2951214    4.2951214   -6982.8411    -15805.34   -5277.6079    134.42496   -5476.1028    3457.9905   -2083.0833    79.236692 
   40600    310.81915   -122.18399    0.2812357   -121.90276    7230.2012    4.2858577    4.2858577    4.2858577    7230.2012    3818.4621     556.2777    17315.864   -2406.5235    1335.1657   -1993.8323    78.725105 
   40700    553.15823   -122.40303   0.50050919   -121.90252   -7513.4736    4.2913392    4.2913392    4.2913392   -7513.4736    -13957.52    4960.0055   -13542.906    1271.2718   -6927.6849    959.08224    79.027554 
   40800    188.99166   -122.07783   0.17100363   -121.90682    7310.8229    4.2976145    4.2976145    4.2976145    7310.8229    2633.1285    2304.4084    16994.932   -691.97051   -2194.8054    6744.5956    79.374749 
   40900    483.88105   -122.34337   0.43782575   -121.90555    696.20826      4.28208      4.28208      4.28208    696.20826   -410.26216   -1283.3207    3782.2076   -172.11578    4209.5799     3631.952    78.517116 
   41000     346.8533   -122.22161   0.31384015   -121.90777    3190.3291    4.2944876    4.2944876    4.2944876    3190.3291    1953.3663   -2988.7339    10606.355   -3983.0923    1479.4287    863.55448    79.201617 
   41100    402.29686   -122.26778   0.36400665   -121.90377    755.17761    4.2958805    4.2958805    4.2958805    755.17761   -5230.6284   -12463.554    19959.716    554.95903   -206.47833   -1333.9569    79.278711 
   41200    564.03874   -122.41136   0.51035411     -121.901   -3583.1571    4.2829708    4.2829708    4.2829708   -3583.1571    1160.1547   -5537.7026   -6371.9233    1506.9823   -9921.4854    3475.9889    78.566124 
   41300    231.10157    -122.1142   0.20910556    -121.9051    4330.5252    4.2938985    4.2938985    4.2938985    4330.5252    1443.5162   -10878.736    22426.796   -2478.3259    966.87187    2235.9402     79.16903 
   41400    521.70347   -122.37653   0.47204826   -121.90448   -16876.049    4.2961692    4.2961692    4.2961692   -16876.049   -20308.645    -20108.46   -10211.042   -3865.4208     3933.003   -558.87835    79.294694 
   41500     321.6027   -122.19686   0.29099288   -121.90586    7174.0032    4.2842979    4.2842979    4.2842979    7174.0032    1381.7344    9341.6353     10798.64    -3495.192   -3804.6194    503.95068    78.639183 
   41600    458.14406   -122.31948   0.41453838   -121.90494   -3571.0298    4.2934802    4.2934802    4.2934802   -3571.0298   -13145.177    196.20738      2235.88    1940.6131   -1408.6181    2969.3577    79.145893 
   41700    355.49396   -122.22589   0.32165841   -121.90423   -4009.1089     4.296043     4.296043     4.296043   -4009.1089   -6949.1727    1523.9028   -6602.0567   -1639.9113   -3289.2557   -700.76417     79.28771 
   41800    277.46376   -122.15528   0.25105504   -121.90422    3583.4096    4.2856226    4.2856226    4.2856226    3583.4096   -12372.869    8226.7491    14896.348   -4715.5819    8151.8608    3275.4417    78.712149 
   41900     418.6532   -122.28354   0.37880621   -121.90473    817.54746    4.2917461    4.2917461    4.2917461    817.54746   -8029.0996   -3408.4159    13890.158   -1342.6708   -1620.4939   -1414.1355    79.050036 
   42000    489.90021   -122.34666   0.44327201   -121.90339    -1468.749    4.2967495    4.2967495    4.2967495    -1468.749   -7438.1711   -7465.5134    10497.438    877.48469   -2866.9466    2897.8232     79.32683 
   42100    464.67898   -122.32306    0.4204513   -121.90261      1554.97    4.2862724    4.2862724    4.2862724      1554.97    1353.8196   -5908.3663    9219.4567     608.6632    2537.4083    1397.7896    78.747958 
   42200    350.92896   -122.22219    0.3175279   -121.90466   -1492.9026    4.2922559    4.2922559    4.2922559   -1492.9026   -8040.8275   -8211.9051    11774.025   -3506.0324   -237.57999    1087.4103    79.078208 
   42300    395.56046   -122.26116   0.35791142   -121.90325   -3882.4708    4.2970401    4.2970401    4.2970401   -3882.4708   -6724.2754   -10316.627    5393.4895   -3826.8478    4113.9923    880.26028    79.342927 
   42400    449.68529   -122.31014    0.4068847   -121.90325    5056.8228     4.286063     4.286063     4.286063    5056.8228   -2513.3767    15430.061     2253.784    105.75641   -10545.259   -2400.3377    78.736418 
   42500    414.36778   -122.27914   0.37492868   -121.90421    388.57825    4.2925081    4.2925081    4.2925081    388.57825   -11962.282     11548.58    1579.4369     1342.879   -2051.7058    3874.9754    79.092147 
   42600    283.11959   -122.16082   0.25617256   -121.90465    -4477.229    4.2973368    4.2973368    4.2973368    -4477.229   -9155.0576    1757.7303   -6034.3598   -1512.7273    7091.2862    917.38606    79.359364 
   42700    366.02787   -122.23499   0.33118971    -121.9038   -2539.4558    4.2863369    4.2863369    4.2863369   -2539.4558   -14913.334    10804.104   -3509.1369   -2172.7551    116.06059   -290.23082    78.751516 
   42800     420.4014   -122.28389   0.38038802    -121.9035    1458.6479    4.2923779    4.2923779    4.2923779    1458.6479   -286.25043   -4361.8387    9024.0327   -342.01593   -501.72882    1019.7554     79.08495 
   42900    563.59268   -122.41206    0.5099505   -121.90211   -10973.709    4.2976823    4.2976823    4.2976823   -10973.709   -12589.786   -15601.277   -4730.0644    881.50868   -5561.3892   -2421.7955    79.378505 
   43000    355.13925   -122.22483   0.32133745    -121.9035   -432.81648    4.2875281    4.2875281    4.2875281   -432.81648    1482.7736   -9377.9007    6596.6776   -463.65448    6003.9092    1669.1919    78.817188 
   43100    348.69113   -122.22156   0.31550307   -121.90605    321.54076    4.2910992    4.2910992    4.2910992    321.54076   -15702.451    -1445.948    18113.021   -2889.3804     3415.829   -1746.1882    79.014296 
   43200    462.03205   -122.32301   0.41805631   -121.90495   -1532.7744    4.2967954    4.2967954    4.2967954   -1532.7744    -2659.949    -1707.436   -230.93824   -3315.5688   -3279.5347    2723.5585    79.329375 
   43300    392.62534    -122.2587   0.35525566   -121.90344    12162.763    4.2870958    4.2870958    4.2870958    12162.763    5163.1944    17592.599    13732.495    217.65747   -447.82591   -1505.9533    78.793348 
   43400    410.22051   -122.27542   0.37117614   -121.90424   -2186.8389      4.29219      4.29219      4.29219   -2186.8389   -15706.881    10709.404   -1563.0399    463.99058   -588.20539    -1176.728    79.074568 
   43500    213.50951   -122.09892   0.19318789   -121.90573    3228.3819    4.2950757    4.2950757    4.2950757    3228.3819    7039.7162   -276.06562    2921.4951   -2207.8784    7113.9294    221.31753     79.23416 
   43600    466.19739   -122.32565    0.4218252   -121.90382   -3728.4221    4.2890291    4.2890291    4.2890291   -3728.4221   -10100.291    6350.6743   -7435.6494    27.600998   -6937.9614    -2455.005    78.899998 
   43700     507.8258   -122.36345   0.45949145   -121.90396   -751.97951    4.2905789    4.2905789    4.2905789   -751.97951    6219.3564   -9514.4081    1039.1132     586.7458   -3600.9681    3239.0118    78.985558 
   43800    417.25024   -122.28326   0.37753679   -121.90572   -11309.352    4.2979035    4.2979035    4.2979035   -11309.352   -13051.428    -15344.68    -5531.947    1987.4917     3662.349   -843.95785    79.390766 
   43900    372.08791   -122.24162   0.33667296   -121.90495   -4614.2913    4.2854057    4.2854057    4.2854057   -4614.2913   -3351.5617   -7071.2581    -3420.054   -2231.9745     917.9853   -1649.9483    78.700196 
   44000    335.51604   -122.20893   0.30358196   -121.90535    530.77561    4.2943209    4.2943209    4.2943209    530.77561    -5575.359   -3104.9714    10272.657   -3242.9272    2694.9873   -453.26723    79.192398 
   44100    532.40956   -122.38408   0.48173536   -121.90234    685.97194     4.292539     4.292539     4.292539    685.97194    4664.2953    1236.3795    -3842.759    1302.2983    -7935.468   -403.49678    79.093854 
   44200    358.48567   -122.22828   0.32436537   -121.90392    5790.0846    4.2895122    4.2895122    4.2895122    5790.0846    5424.4738     2414.507    9531.2731     4566.428    4800.9386    2375.8287    78.926662 
   44300    287.28994   -122.16605   0.25994598   -121.90611    5339.3586    4.2900952    4.2900952    4.2900952    5339.3586   -1156.5826    10841.842    6332.8166   -172.84431    3711.3485    1665.5308    78.958848 
   44400    371.21904   -122.24289   0.33588679   -121.90701   -2783.1487    4.2966579    4.2966579    4.2966579   -2783.1487   -139.78961   -6408.6854   -1800.9712   -3260.0533    2398.3954    14.633365    79.321756 
   44500    470.78438    -122.3305    0.4259756   -121.90452    7223.3312    4.2852679    4.2852679    4.2852679    7223.3312    6087.1795    9629.7846    5953.0295    623.54674   -194.46879    1916.5268    78.692608 
   44600    502.93217   -122.36014   0.45506359   -121.90508   -8017.6835    4.2944183    4.2944183    4.2944183   -8017.6835   -4557.2556     -15116.1   -4379.6947    3679.8655   -6152.6003   -656.44882    79.197783 
   44700     298.5679   -122.17498   0.27015051   -121.90483   -4856.1821    4.2941953    4.2941953    4.2941953   -4856.1821   -7317.7531   -13940.055    6689.2615   -846.62047     8645.962   -333.75663     79.18545 
   44800    413.71187   -122.27762    0.3743352   -121.90328   -6464.2473    4.2877017    4.2877017    4.2877017   -6464.2473   -5082.8541   -6058.7123   -8251.1757   -4970.6981   -4194.2019   -408.64557     78.82676 
   44900    472.81636   -122.32992   0.42781418    -121.9021   -441.42999    4.2912608    4.2912608    4.2912608   -441.42999   -64.730493   -4883.5816    3624.0221   -2729.8349   -1924.3779   -1784.2094    79.023218 
   45000    399.33647   -122.26641   0.36132803   -121.90509   -331.16659    4.2945788    4.2945788    4.2945788   -331.16659    1524.1808   -2723.9431    206.26251    5465.3883   -1190.3486    4083.0915    79.206664 
   45100    416.25169   -122.28467   0.37663328   -121.90804   -2377.5706    4.2864895    4.2864895    4.2864895   -2377.5706   -4352.6404   -1205.6983   -1574.3731    7016.7132     1050.536   -1386.0727    78.759923 
   45200    180.20303   -122.07401   0.16305149   -121.91096    11099.942    4.2928271    4.2928271    4.2928271    11099.942    13489.922     3535.076    16274.828    -4807.562    4501.4134    3148.3209    79.109782 
   45300    535.72762   -122.38985   0.48473761   -121.90511   -2248.9859    4.2917711    4.2917711    4.2917711   -2248.9859   -7087.9354    51.529596    289.44801   -3943.0431   -6402.4573    1024.5307    79.051418 
   45400    424.96236    -122.2878   0.38451487   -121.90328    5298.6869    4.2880809    4.2880809    4.2880809    5298.6869    10744.989   -4556.6106    9707.6822    508.76227    2313.7943   -632.01118    78.847678 
   45500     350.4069     -122.221   0.31705552   -121.90395   -5342.4591    4.2927732    4.2927732    4.2927732   -5342.4591   -5360.6849   -11742.566    1075.8731    6156.3602    2251.0268    6646.9754    79.106805 
   45600    417.77981   -122.28189   0.37801595   -121.90388   -10285.359    4.2917744    4.2917744    4.2917744   -10285.359   -15591.736   -16317.132    1052.7921   -2115.7997    4588.6015   -2866.6841    79.051597 
   45700    365.00612   -122.23431   0.33026521   -121.90405   -368.50134    4.2910713    4.2910713    4.2910713   -368.50134    6051.1233   -11041.874    3885.2468   -8768.6002   -1143.6265    2353.9137    79.012752 
   45800    614.17949   -122.45767   0.55572251   -121.90195   -7581.8334    4.2888064    4.2888064    4.2888064   -7581.8334   -5917.0821   -9206.0116   -7622.4067     3707.623   -4848.1469   -886.15764    78.887704 
   45900    220.84488   -122.10708   0.19982509   -121.90725     4612.334    4.2938676    4.2938676    4.2938676     4612.334    4871.9614   -3036.3925    12001.433    5681.6986    1374.6408    1167.9189    79.167318 
   46000    434.05986   -122.29958   0.39274648   -121.90683    -726.8995    4.2872959    4.2872959    4.2872959    -726.8995    2548.0311   -739.00745   -3989.7222    1124.7315    2560.2969    4731.3062    78.804384 
   46100    332.76748   -122.20765   0.30109501   -121.90655     6719.321    4.2938273    4.2938273    4.2938273     6719.321    5578.9404    5055.8922    9523.1304    -7516.063    1357.0414   -1139.8385    79.165093 
   46200    418.77613   -122.28279   0.37891744   -121.90388    8829.5138    4.2886093    4.2886093    4.2886093    8829.5138    12392.721    4623.7808    9472.0393   -1626.2535    1149.0223     5626.387     78.87683 
   46300    528.41834   -122.38319   0.47812402   -121.90507   -13078.354     4.293505     4.293505     4.293505   -13078.354   -11888.008   -17066.704   -10280.349    7199.1347    157.23562   -1886.8122    79.147265 
   46400    198.74284   -122.08738   0.17982669   -121.90755    8253.0687    4.2868621    4.2868621    4.2868621    8253.0687    9410.1688   -197.33417    15546.371    4477.8338    7.1633746    1661.7264    78.780468 
   46500    562.09169   -122.41294   0.50859237   -121.90435   -20780.127    4.2967612    4.2967612    4.2967612   -20780.127   -25811.478   -20749.418   -15779.486   -7544.7199    3155.5418   -1277.4786    79.327478 
   46600    377.25478   -122.24442   0.34134805   -121.90307    4358.5812    4.2883875    4.2883875    4.2883875    4358.5812    10305.046   -5448.7677    8219.4649   -3877.8038   -5626.7077   -2474.5102    78.864593 
   46700    457.99722    -122.3165   0.41440551    -121.9021   -7993.6718    4.2917271    4.2917271    4.2917271   -7993.6718   -1469.9484   -8065.1502   -14445.917    5876.5435    3666.0648    7045.5325    79.048985 
   46800    321.68128   -122.19534   0.29106398   -121.90428    1972.4102     4.290571     4.290571     4.290571    1972.4102   -2813.1128     2398.175    6332.1683    1031.0318   -374.51975    797.82798    78.985121 
   46900    279.97956   -122.15866   0.25333139   -121.90533    3564.8332    4.2951481    4.2951481    4.2951481    3564.8332    16597.718   -3563.8553   -2339.3636   -4813.8023    2375.8012    2470.0695    79.238166 
   47000    509.96124   -122.36401   0.46142365   -121.90258    4761.4257    4.2852278    4.2852278    4.2852278    4761.4257   -3283.6368    6912.3882    10655.526   -7415.4185    713.65516    2959.3126    78.690397 
   47100     323.2056   -122.19768   0.29244322   -121.90523     6375.584    4.2942911    4.2942911    4.2942911     6375.584    15461.889   -144.15938    3809.0221    3643.2728   -5634.0685     286.4255    79.190749 
   47200    508.55395   -122.36397    0.4601503   -121.90382   -9345.3497    4.2940549    4.2940549    4.2940549   -9345.3497   -8955.5345   -14332.076   -4748.4384    5163.5539     4536.825    1192.4532    79.177682 
   47300    323.81357   -122.19819   0.29299332    -121.9052    5022.5877    4.2881884    4.2881884    4.2881884    5022.5877     5419.692    1058.7812    8589.2898    244.03175   -4191.2562   -2865.2204    78.853607 
   47400    462.25702    -122.3217   0.41825987   -121.90344   -7589.5291     4.296363     4.296363     4.296363   -7589.5291   -1317.6646   -7475.6087   -13975.314   -8097.5371     3777.872    304.32654    79.305425 
   47500    475.66063   -122.33264   0.43038774   -121.90225    -2154.256    4.2917623    4.2917623    4.2917623    -2154.256   -1491.7229   -1847.9292   -3123.1158    403.44489    540.05724    1126.0309    79.050931 
   47600    330.22711   -122.20179   0.29879643   -121.90299    3101.4065    4.2908541    4.2908541    4.2908541    3101.4065    18151.192   -366.73273   -8480.2401    6042.9807   -3551.7142       3358.2    79.000755 
   47700    457.95687   -122.31783     0.414369   -121.90346   -7714.0202     4.292726     4.292726     4.292726   -7714.0202   -12409.588   -9476.1078   -1256.3652   -3418.9743    6596.1006    3245.0784    79.104193 
   47800    267.99164   -122.14778   0.24248447    -121.9053    3034.7278    4.2918943    4.2918943    4.2918943    3034.7278    15118.368   -8166.6463    2152.4622   -9956.3122   -7885.1047    1132.6566    79.058225 
   47900    430.71366   -122.29286   0.38971877   -121.90314    1211.5925    4.2869792    4.2869792    4.2869792    1211.5925    4250.3617   -11608.996    10993.412     -3596.56    2214.7291    6811.2748    78.786919 
   48000    380.44642   -122.24656   0.34423592   -121.90233   -3530.0721    4.2965377    4.2965377    4.2965377   -3530.0721   -1135.7704   -8164.9108   -1289.5351    4497.9511   -1217.7937    3887.6808      79.3151 
   48100    364.81321   -122.23215   0.33009066   -121.90206    2701.2709    4.2896843    4.2896843    4.2896843    2701.2709    6489.9955   -6160.4864    7774.3036   -1539.9171   -2561.1569   -1326.2734    78.936162 
   48200    428.88232   -122.29023   0.38806174   -121.90216   -4466.2469    4.2914924    4.2914924    4.2914924   -4466.2469   -12363.427   -9767.3843    8732.0704   -9109.9646    4933.8596   -79.367591    79.036017 
   48300    408.38352   -122.27222   0.36951399   -121.90271    1732.8212    4.2915972    4.2915972    4.2915972    1732.8212    8752.7584    4701.1901    -8255.485   -4477.7583   -7060.7824    -2267.464    79.041805 
   48400    553.57741   -122.40257   0.50088847   -121.90169   -8200.9992    4.2958309    4.2958309    4.2958309   -8200.9992   -9767.0676   -8541.9466   -6293.9835    2674.8244    4748.9906    1130.3419    79.275967 
   48500    368.75773   -122.23702   0.33365974   -121.90336    4658.4316    4.2887424    4.2887424    4.2887424    4658.4316    8444.9255   -1671.9253    7202.2947    2421.2554   -2248.3645    1083.5966    78.884176 
   48600    404.19321   -122.27092   0.36572252    -121.9052   -5209.3215    4.2936596    4.2936596    4.2936596   -5209.3215   -12777.125   -4544.2524    1693.4126    -4348.724    2677.0572     522.0416    79.155819 
   48700    356.95442   -122.22745   0.32297986   -121.90447   -6.5955688    4.2932716    4.2932716    4.2932716   -6.5955688    -4423.211   -11829.777    16233.201   -6450.2864    30.358794    5239.6412     79.13436 
   48800    342.33033   -122.21269   0.30974767   -121.90295    7694.0252    4.2878479    4.2878479    4.2878479    7694.0252    20511.956   -4390.5859    6960.7059    5384.8761   -7875.3283    3761.0596    78.834825 
   48900    501.97716   -122.35655   0.45419948   -121.90235   -10559.249    4.2941338    4.2941338    4.2941338   -10559.249   -16517.589   -14994.808   -165.35029    2502.5824    4176.6607    3194.4102    79.182043 
   49000     248.9632   -122.13049   0.22526713   -121.90522    3897.1037    4.2905038    4.2905038    4.2905038    3897.1037    9649.2493   -9119.0914    11161.153   -10215.661   -8110.5109   -79.238881     78.98141 
   49100    470.01978   -122.32969   0.42528377    -121.9044   -8017.8992    4.2891787    4.2891787    4.2891787   -8017.8992   -3591.6845    -16567.99   -3894.0229   -10396.256    5708.8522   -1109.5765    78.908253 
   49200    438.08318   -122.30017   0.39638687   -121.90379     -1249.03     4.291866     4.291866     4.291866     -1249.03     -1699.95    -3778.932     1731.792    189.35968   -3253.3154    2708.6512    79.056662 
   49300    409.72972   -122.27362   0.37073207   -121.90289    435.64732    4.2932358    4.2932358    4.2932358    435.64732    8520.6907   -164.44897   -7049.2998    3175.4934   -5037.8722   -212.86049     79.13238 
   49400    444.64728   -122.30522    0.4023262    -121.9029    -66.71078    4.2883789    4.2883789    4.2883789    -66.71078   -3236.7579   -10922.359    13958.985   -6289.4031    3167.5753    653.67887    78.864121 
   49500    260.92084   -122.14059   0.23608666    -121.9045    4178.5376    4.2933925    4.2933925    4.2933925    4178.5376    6029.5522    4604.1293    1901.9312   -8709.8192   -8982.8088    806.22337    79.141046 
   49600    448.58495   -122.30802   0.40588909   -121.90213    3761.5899    4.2898176    4.2898176    4.2898176    3761.5899   -2403.1574    2821.3949    10866.532    733.21446    3116.5248    2720.2749    78.943516 
   49700    406.22992   -122.27011   0.36756537   -121.90254    720.90399    4.2929153    4.2929153    4.2929153    720.90399    16846.747   -12948.084   -1735.9507    4267.3352   -3729.5377    7251.0322     79.11466 
   49800    432.55017   -122.29616   0.39138048   -121.90478    180.36338    4.2871869    4.2871869    4.2871869    180.36338   -682.83651   -1245.0965    2469.0231    599.67824    -1282.675   -1722.8643    78.798373 
   49900    351.77576   -122.22552    0.3182941   -121.90723    -6981.104    4.2961273    4.2961273    4.2961273    -6981.104    -4950.972   -16393.396    401.05599   -11846.818    3674.6886     2371.746    79.292373 
   50000    423.99893   -122.28897   0.38364314   -121.90533    2849.4295    4.2840783    4.2840783    4.2840783    2849.4295    24255.438   -9064.7316   -6642.4176   -3076.0986   -5299.4777    1982.7333    78.627092 
   50100     477.7899   -122.33753   0.43231434   -121.90521   -4941.4136    4.2943262    4.2943262    4.2943262   -4941.4136   -1535.9316   -7976.7369   -5311.5724    2975.5436    3704.5725    1539.6081    79.192689 
   50200    357.03871   -122.22677   0.32305612   -121.90372    4098.7484    4.2921748    4.2921748    4.2921748    4098.7484      10714.5   -2943.9122    4525.6577    -1445.879    -6021.218    3959.4051    79.073723 
   50300    423.41045   -122.28754   0.38311067   -121.90443   -4833.8776    4.2880914    4.2880914    4.2880914   -4833.8776   -8707.5075   -14136.095    8341.9701   -11963.815    1317.9093   -3173.1717    78.848256 
   50400    270.53766   -122.15049   0.24478816    -121.9057    5380.7767    4.2908678    4.2908678    4.2908678    5380.7767   -3456.6415    5229.5239    14369.448   -4592.5335   -2817.3234     5608.192     79.00151 
   50500    427.17539   -122.28904   0.38651727   -121.90252   -3327.6233    4.2970345    4.2970345    4.2970345   -3327.6233   -6883.5832   -449.47332   -2649.8135    3168.5397   -5017.4136    2319.5601    79.342615 
   50600    452.33046   -122.31025   0.40927811   -121.90097    2322.0897    4.2868778    4.2868778    4.2868778    2322.0897    5804.6674   -7596.9286    8758.5304   -676.76615    1925.4427     1501.791    78.781328 
   50700     376.1796   -122.24397    0.3403752    -121.9036   -667.49567    4.2908292    4.2908292    4.2908292   -667.49567   -4625.4641   -1047.6968    3670.6739   -8215.8985   -5404.5084    2875.8001    78.999383 
   50800    366.66591   -122.23628   0.33176702   -121.90451   -568.55541    4.2943771    4.2943771    4.2943771   -568.55541    9506.2809   -11714.528    502.58076   -6624.9634    2356.8032   -1149.4646    79.195504 
   50900    483.71452   -122.34168   0.43767507     -121.904   -2502.1652    4.2873928    4.2873928    4.2873928   -2502.1652     9558.301   -7471.0882   -9593.7085    2381.2655    3059.5783    6016.8866    78.809728 
   51000    427.46735   -122.29114   0.38678145   -121.90436    1347.4598    4.2888818    4.2888818    4.2888818    1347.4598    9412.0627   -6029.3323      659.649    657.62368   -113.75773    551.51957    78.891864 
   51100    348.85752   -122.22122   0.31565361   -121.90556    -2590.483    4.2961501    4.2961501    4.2961501    -2590.483   -2333.7781    -19369.79    13932.119    -6886.078   -738.87947    276.59373    79.293637 
   51200    367.73421   -122.23781   0.33273364   -121.90508    1377.1724    4.2861291    4.2861291    4.2861291    1377.1724   -1414.4965    -4108.974    9654.9879   -7773.7872   -2324.4045    1354.1681     78.74006 
   51300    374.47526   -122.24405   0.33883308   -121.90522    148.17907    4.2909231    4.2909231    4.2909231    148.17907    64.232769   -7317.3814    7697.6858    1533.3099    2144.3934    3780.7969    79.004565 
   51400    494.70632   -122.35105   0.44762067   -121.90343   -9346.6504    4.2957591    4.2957591    4.2957591   -9346.6504    -17948.92   -1291.2096   -8799.8218    1479.8571    2489.3671     2222.438    79.271991 
   51500    327.66389   -122.20034   0.29647718   -121.90386    3591.4546    4.2859436    4.2859436    4.2859436    3591.4546    2222.0815   -3244.0348    11796.317   -7547.8267   -1731.3223   -3655.7973    78.729839 
   51600    436.49239   -122.29917   0.39494749   -121.90422   -2888.5744    4.2908663    4.2908663    4.2908663   -2888.5744   -6199.2488   -9724.9018    7258.4273   -7452.4332   -226.29889    414.10242    79.001431 
   51700    379.99998    -122.2477   0.34383197   -121.90387    3554.3014    4.2952551    4.2952551    4.2952551    3554.3014    9680.1333    2766.9132   -1784.1422    32.198766    352.14238   -2347.3535    79.244089 
   51800    420.29484   -122.28281   0.38029161   -121.90252    7520.5141    4.2858063    4.2858063    4.2858063    7520.5141    12378.793   -1462.4592    11645.209    1883.7869    805.72298    1142.1739     78.72227 
   51900    419.43759   -122.28411   0.37951594    -121.9046   -482.82985    4.2911424    4.2911424    4.2911424   -482.82985     4899.302   -7328.2256    980.43405   -3865.4919    2828.3933    1360.6966     79.01668 
   52000    300.68767   -122.17686   0.27206852   -121.90479    3156.3167    4.2947148    4.2947148    4.2947148    3156.3167    12143.985   -11427.859     8752.824   -7673.1108   -4873.5748    -337.7699    79.214191 
   52100    504.15798   -122.36064   0.45617274   -121.90446    -4150.793    4.2859148    4.2859148    4.2859148    -4150.793   -6178.5239   -4842.1901   -1431.6652   -1355.7355    8288.6069    3352.1585    78.728249 
   52200    402.69351   -122.26961   0.36436555   -121.90524   -3283.4065    4.2917147    4.2917147    4.2917147   -3283.4065    4391.2389   -3949.1789    -10292.28    1921.2488    2680.5125   -1691.4158    79.048297 
   52300    380.08491   -122.24843   0.34390882   -121.90452   -9440.1498    4.2960726    4.2960726    4.2960726   -9440.1498   -19399.438   -15308.089    6387.0772   -6998.6208   -1083.1136   -2102.9614    79.289344 
   52400    339.76771    -122.2118   0.30742897   -121.90437   -2383.6457    4.2877674    4.2877674    4.2877674   -2383.6457   -4663.1224   -9730.5847    7242.7701   -8737.5858     323.0696   -1241.8008    78.830384 
   52500    379.05668   -122.24635   0.34297845   -121.90337    4114.7225     4.289248     4.289248     4.289248    4114.7225   -2762.4182   -5798.8991    20905.485   -3245.6349   -4649.9424    1957.7593    78.912076 
   52600    462.87855   -122.32218   0.41882224   -121.90336   -4556.3416    4.2972591    4.2972591    4.2972591   -4556.3416    5636.7916   -15113.488   -4192.3281    1123.8523    6986.4665    1013.4681     79.35506 
   52700    344.87529   -122.21599   0.31205041   -121.90394    4286.1262    4.2864736    4.2864736    4.2864736    4286.1262    1007.7813    3038.0056    8812.5916   -3521.4752   -1388.0727    1750.0483    78.759048 
   52800    412.52561   -122.27831   0.37326184   -121.90504   -2408.8925    4.2908118    4.2908118    4.2908118   -2408.8925   -2687.6844   -7922.9171     3383.924   -8489.8746    4071.8693    1479.0438     78.99842 
   52900    484.77921   -122.34249   0.43863842   -121.90386    -2353.466    4.2953594    4.2953594    4.2953594    -2353.466    9690.1683   -11327.021    -5423.545    804.71906   -1567.2781   -480.25147    79.249863 
   53000    386.98766   -122.25427   0.35015457   -121.90411    10229.828    4.2873245    4.2873245    4.2873245    10229.828     3345.636    15001.275    12342.574    371.71058    702.41704   -442.66861    78.805961 
   53100     432.0093   -122.29685   0.39089109   -121.90596   -4824.2723    4.2937122    4.2937122    4.2937122   -4824.2723    3903.9576   -14731.384   -3645.3903   -2974.8004    3277.9708   -1784.5525    79.158723 
   53200    173.01531   -122.06354   0.15654788     -121.907    5497.8123    4.2938782    4.2938782    4.2938782    5497.8123   -822.01995   -2477.1345    19792.591   -8075.8799   -4657.1158   -2199.3021    79.167905 
   53300    419.79455   -122.28477   0.37983893   -121.90493   -905.36134    4.2871763    4.2871763    4.2871763   -905.36134   -2434.0202   -7796.8321    7514.7683   -5397.7442    1449.8269   -53.820723     78.79779 
   53400    547.06267   -122.39855    0.4949938   -121.90356   -7402.3972    4.2949152    4.2949152    4.2949152   -7402.3972   -9125.0267   -8869.6968   -4212.4681    4397.2596     263.7278    219.14532    79.225281 
   53500    367.70044   -122.23744   0.33270308   -121.90474   -2983.3598    4.2951767    4.2951767    4.2951767   -2983.3598   -3000.0438   -4811.4804   -1138.5551   -1194.6164    2897.5165   -182.05048     79.23975 
   53600    464.23776   -122.32428   0.42005208   -121.90423   -9311.6168     4.285788     4.285788     4.285788   -9311.6168   -15104.632   -16900.184    4069.9655   -9969.0645     2496.935    1417.1748    78.721263 
   53700    247.48884   -122.13016    0.2239331   -121.90623    5337.5071    4.2938715    4.2938715    4.2938715    5337.5071    1142.9355   -1301.2975    16170.883   -2055.2543   -593.94799   -1680.4155    79.167536 
   53800    501.36695   -122.35569   0.45364735   -121.90204    -3351.173     4.294874     4.294874     4.294874    -3351.173    15310.288   -22350.022   -3013.7852    444.16433   -386.74168    -1894.267    79.223002 
   53900    398.03291   -122.26254   0.36014854   -121.90239    7113.6296    4.2854224    4.2854224    4.2854224    7113.6296   -3819.6995    11167.177    13993.411    -108.0493    1056.0554   -2975.6514    78.701119 
   54000    320.44343   -122.19562   0.28994395   -121.90568    1716.9152    4.2929786    4.2929786    4.2929786    1716.9152    963.77979     5540.325    -1353.359   -10546.636     2298.868   -1400.0109    79.118158 
   54100    402.82673   -122.26906   0.36448609   -121.90457    -3741.953    4.2949137    4.2949137    4.2949137    -3741.953   -1231.0631   -8313.4022   -1681.3936   -4362.4913   -332.72938    937.27717    79.225197 
   54200    428.65827   -122.29039   0.38785901   -121.90253    6977.3057    4.2866923    4.2866923    4.2866923    6977.3057   -2025.3546    15916.007    7041.2652    6098.5456    26.691295   -748.98771    78.771104 
   54300    534.85051   -122.38616   0.48394398   -121.90222   -4361.9828    4.2928441    4.2928441    4.2928441   -4361.9828   -252.32178   -7947.5656   -4886.0609   -1137.8958    5040.5567    4049.2389    79.110724 
   54400    265.85246    -122.1447   0.24054889   -121.90415      1036.99    4.2960154    4.2960154    4.2960154      1036.99   -1551.9255   -7621.1061    12284.001   -5234.6632    268.84859   -257.62225    79.286178 
   54500    436.54972   -122.29793   0.39499936   -121.90293   -4865.5077    4.2861829    4.2861829    4.2861829   -4865.5077   -8726.6461   -10858.198    4988.3214   -12074.245   -1597.9835    2681.1698    78.743028 
   54600    341.63828   -122.21312   0.30912149     -121.904    4807.1578     4.291268     4.291268     4.291268    4807.1578   -5174.6231    6082.2461     13513.85    1130.7371   -985.79737   -3198.4587    79.023617 
   54700    506.52793   -122.36111   0.45831711   -121.90279    -10927.07    4.2960494    4.2960494    4.2960494    -10927.07   -13177.545   -9748.5228   -9855.1422    3675.2241   -3698.3876   -4834.0195    79.288063 
   54800    307.12014   -122.18232   0.27788875   -121.90443    -2212.086    4.2858538    4.2858538    4.2858538    -2212.086   -11967.412   -1796.8779    7128.0318   -19236.798    6293.7557    2537.9807    78.724888 
   54900    305.52668   -122.18217   0.27644696   -121.90572   -2450.0379    4.2904186    4.2904186    4.2904186   -2450.0379   -19914.745    1731.2301    10833.402    -8365.845    181.91642   -4655.4778    78.976702 
   55000    555.51837   -122.40499    0.5026447   -121.90234   -10683.591     4.296282     4.296282     4.296282   -10683.591   -9159.3327   -11886.332    -11005.11     3024.222    104.76252    6109.6766    79.300943 
   55100    369.62734    -122.2366   0.33444659   -121.90215     9506.883    4.2861099    4.2861099    4.2861099     9506.883    5485.1959    5105.3322    17930.121    996.23724    1206.9423   -1951.1366    78.739001 
   55200    488.19001    -122.3453   0.44172458   -121.90358   -3986.4457    4.2890079    4.2890079    4.2890079   -3986.4457   -17332.234    6075.1103   -702.21309   -4728.7246   -3478.1131    262.53323    78.898826 
   55300    239.21727   -122.12312   0.21644881   -121.90667     8378.249    4.2954184    4.2954184    4.2954184     8378.249    6978.5966    6228.1072    11928.043   -13610.242    3917.9171   -1617.6044    79.253129 
   55400    457.30299   -122.31758   0.41377735   -121.90381    8835.9751    4.2865342    4.2865342    4.2865342    8835.9751    7872.8873    16346.693    2288.3447    3941.9563   -2388.0017    -7086.949    78.762391 
   55500    477.44852   -122.33608   0.43200545   -121.90408    2304.7171    4.2893992    4.2893992    4.2893992    2304.7171   -6722.7621    8027.4101    5609.5035    1105.9502    830.72845    3781.8844    78.920425 
   55600    339.77878   -122.21405   0.30743898   -121.90662   -3288.1847    4.2926325    4.2926325    4.2926325   -3288.1847     5431.525   -17897.488    2601.4086    207.46717    898.72335   -3888.4493    79.099025 
   55700    400.33057   -122.26875   0.36222751   -121.90652   -10665.972    4.2906374    4.2906374    4.2906374   -10665.972   -17899.221   -7174.1604   -6924.5332   -12782.902    1464.9526    2758.5644    78.988786 
   55800    388.65516   -122.25706   0.35166335    -121.9054   -3470.9086    4.2901827    4.2901827    4.2901827   -3470.9086   -9992.2175    -8160.984    7740.4757   -3820.1941    4951.4275    1942.2885    78.963678 
   55900    505.17549   -122.36034    0.4570934   -121.90325   -4389.6722    4.2907577    4.2907577    4.2907577   -4389.6722   -12367.974     4874.502   -5675.5445     11078.42   -1210.5815   -3178.8093    78.995428 
   56000    342.35376   -122.21437   0.30976888    -121.9046    644.11278    4.2920786    4.2920786    4.2920786    644.11278   -5343.4319   -1114.2276    8389.9979   -8194.1056    122.45371   -71.855322    79.068411 
   56100    293.36896   -122.16993    0.2654464   -121.90448    3688.8614      4.28989      4.28989      4.28989    3688.8614   -10708.132     11389.83    10384.886   -8148.3861    1463.0949   -5710.5132    78.947516 
   56200    410.97231   -122.27494   0.37185638   -121.90309    3020.1434    4.2918572    4.2918572    4.2918572    3020.1434   -2352.3453     302.7692    11110.006   -6461.2241    403.21506    1462.0401    79.056176 
   56300    465.34231   -122.32265    0.4210515    -121.9016    5595.7306    4.2914876    4.2914876    4.2914876    5595.7306    16167.332   -1960.8626    2580.7222    5316.0046    2068.0646    3403.5424    79.035749 
   56400    511.97041   -122.36565   0.46324158   -121.90241   -1765.4291     4.289388     4.289388     4.289388   -1765.4291   -7070.6163    639.93973    1134.3893    3429.4664   -1142.6423   -1643.5746    78.919805 
   56500      347.498   -122.22057   0.31442349   -121.90615   -689.67001    4.2916334    4.2916334    4.2916334   -689.67001    11422.194   -11977.014   -1514.1902   -7563.6513     97.64743    1380.7889    79.043809 
   56600    364.89391   -122.23584   0.33016368   -121.90568   -3987.4338    4.2947727    4.2947727    4.2947727   -3987.4338    -3505.702    6913.7045   -15370.304   -3656.9802     5043.992   -2610.3574    79.217394 
   56700    456.10899   -122.31653     0.412697   -121.90383   -717.37546    4.2893741    4.2893741    4.2893741   -717.37546   -10015.519    7438.8545    424.53818    365.26052    462.33076   -310.14267    78.919034 
   56800    316.78668   -122.19057   0.28663525   -121.90394    3569.8343    4.2918478    4.2918478    4.2918478    3569.8343    2191.6473    242.45656    8275.3989    7749.1508     593.8405   -2951.3832    79.055653 
   56900    416.18695   -122.28053    0.3765747   -121.90395   -5089.7551     4.294135     4.294135     4.294135   -5089.7551   -12894.616   -6567.0549    4192.4055   -3552.5721    118.34321   -6872.9559    79.182114 
   57000    271.02089   -122.14953    0.2452254    -121.9043    1422.2719    4.2933736    4.2933736    4.2933736    1422.2719   -14640.054    -1474.075    20380.944   -7729.6371    4253.9568    1712.7885    79.140002 
   57100     477.3887   -122.33405   0.43195132   -121.90209    2641.1692    4.2864359    4.2864359    4.2864359    2641.1692    1870.7496     994.2276    5058.5303    1599.8523    4373.8521    102.04634    78.756971 
   57200    499.96372   -122.35461   0.45237768   -121.90223   -5707.8335    4.2982394    4.2982394    4.2982394   -5707.8335   -3378.2709   -12062.264   -1682.9654   -286.88864   -2012.4022     3209.821    79.409377 
   57300    425.59937   -122.28661   0.38509125   -121.90151    2483.1651     4.288395     4.288395     4.288395    2483.1651   -331.16379    5488.4725    2292.1865   -2944.5424   -233.38999    1157.0939    78.865007 
   57400    418.93045   -122.28243   0.37905708   -121.90338   -4890.4718     4.290268     4.290268     4.290268   -4890.4718   -2917.8625   -10151.271   -1602.2823   -6760.9652    -1500.519   -4629.1754    78.968386 
   57500    294.55345   -122.17051   0.26651815   -121.90399    6401.8735     4.294749     4.294749     4.294749    6401.8735    7106.8127    2128.8369     9969.971   -55.640972     6341.806    2704.8777    79.216084 
   57600    488.65096   -122.34415   0.44214165   -121.90201   -2749.4949    4.2911358    4.2911358    4.2911358   -2749.4949    -1961.714   -7110.8414    824.07055    5237.5719    1011.1772   -4619.6896    79.016315 
   57700    258.11704   -122.13765   0.23354972    -121.9041    11849.862     4.286534     4.286534     4.286534    11849.862    5912.7918    4590.5558    25046.239   -2116.7395    521.78147   -6759.9999    78.762378 
   57800    440.04533   -122.30218   0.39816226   -121.90401   -11955.377    4.2994564    4.2994564    4.2994564   -11955.377   -12440.093   -21879.891    -1546.147   -4395.3798   -122.59026   -1733.0906     79.47685 
   57900    325.38322   -122.19644   0.29441357   -121.90203     719.3192    4.2904454    4.2904454    4.2904454     719.3192   -7516.2284    5124.8877    4549.2983   -1935.8692    5368.8462    723.54189    78.978184 
   58000    489.17335   -122.34347   0.44261433   -121.90085   -4816.0079    4.2865117    4.2865117    4.2865117   -4816.0079   -4194.0912   -1756.5701   -8497.3623    5173.4489    6638.4746    6110.5679    78.761151 
   58100    467.50062   -122.32538   0.42300438   -121.90238   -7447.6361    4.2978662    4.2978662    4.2978662   -7447.6361   -8020.7858   -21717.828    7395.7061    2489.7786   -2866.8897   -835.51504    79.388697 
   58200    332.72913    -122.2049   0.30106031   -121.90384    4957.3744    4.2919141    4.2919141    4.2919141    4957.3744   -7708.8592    9560.5221     13020.46   -4942.6052    1032.4112   -3815.2359    79.059319 
   58300    461.68196   -122.32112   0.41773954   -121.90338   -1343.7838    4.2851163    4.2851163    4.2851163   -1343.7838   -9196.3544   -4341.0984    9506.1015   -3624.9985    4989.1176   -359.76004    78.684253 
   58400      267.809   -122.14794   0.24231921   -121.90562    9405.1137    4.2929457    4.2929457    4.2929457    9405.1137    6032.6558    12122.431    10060.255   -887.64426    938.55185   -2234.1475    79.116337 
   58500    458.35914   -122.31745   0.41473298   -121.90272   -7237.7517     4.297101     4.297101     4.297101   -7237.7517   -3547.4086   -1470.1839   -16695.663   -970.92352    1024.0592     2587.386      79.3463 
   58600    410.06994   -122.27274    0.3710399    -121.9017    4998.5333    4.2822668    4.2822668    4.2822668    4998.5333     1696.808    9960.6153    3338.1765   -4025.9636   -2278.8072   -9979.1288    78.527391 
   58700    359.32112   -122.23022    0.3251213    -121.9051   -4543.6874    4.2973321    4.2973321    4.2973321   -4543.6874    8540.4381   -3325.0979   -18846.402   -1858.6626    4753.7882    2276.6002    79.359101 
   58800    522.52897   -122.37525   0.47279519   -121.90246   -11478.156    4.2940703    4.2940703    4.2940703   -11478.156   -8709.1883   -5614.7704    -20110.51    2369.4799     5695.718    5134.0147    79.178532 
   58900     314.8943   -122.18739   0.28492298   -121.90246    6272.9135    4.2856183    4.2856183    4.2856183    6272.9135    9558.6774     15918.23   -6658.1667    2118.1209    -560.5311   -2993.9726    78.711911 
   59000    543.40837   -122.39367   0.49168731   -121.90199   -8929.6446    4.2945167    4.2945167    4.2945167   -8929.6446   -1453.1341   -11611.867   -13723.933   -6471.1135   -1377.0948    977.42717    79.203229 
   59100    318.57684   -122.19333   0.28825502   -121.90507   -2522.0002    4.2953212    4.2953212    4.2953212   -2522.0002   -20687.675    20346.148   -7224.4739   -3218.7652    2551.8984   -7283.4121     79.24775 
   59200     232.0774   -122.11735   0.20998851   -121.90736    7299.6942    4.2807852    4.2807852    4.2807852    7299.6942    1879.3671    22654.859   -2635.1435    -3911.664    11386.597    6038.2216    78.445911 
   59300    488.60369   -122.34904   0.44209889   -121.90694   -12335.367    4.2967615    4.2967615    4.2967615   -12335.367    -17595.87   -8756.3214   -10653.909    5189.9851    1243.9554   -941.19486    79.327493 
   59400    381.36819   -122.24895   0.34506995   -121.90388   -76.068819    4.2954146    4.2954146    4.2954146   -76.068819    2598.7403   -4394.6874    1567.7406   -1169.9621   -3138.6902   -2455.0132     79.25292 
   59500    466.99281   -122.32367   0.42254491   -121.90113   -1704.1777    4.2823411    4.2823411    4.2823411   -1704.1777   -5821.9941    3336.5196   -2627.0584   -6245.5563    9637.0529      2789.69    78.531477 
   59600    357.06556   -122.22659   0.32308043   -121.90351   -2506.3444    4.2940027    4.2940027    4.2940027   -2506.3444   -784.98422    3342.1338   -10076.183   -1257.4033    4163.7579    12.678511    79.174794 
   59700    336.47848   -122.20701    0.3044528   -121.90255    1374.7447    4.2976146    4.2976146    4.2976146    1374.7447    16191.012    1217.4008   -13284.178   -1595.4465      3345.46    7932.9298    79.374754 
   59800    560.79849   -122.40685   0.50742226   -121.89943    4086.7192    4.2818682    4.2818682    4.2818682    4086.7192    537.73673    8551.3503    3171.0705    4306.2835   -3795.4883   -3239.5107    78.505464 
   59900    314.38687   -122.18877   0.28446385   -121.90431     12247.02    4.2909019    4.2909019    4.2909019     12247.02    16895.131    25837.572   -5991.6428   -2473.0196   -898.25414   -3469.1791    79.003394 
   60000    410.48995   -122.27739   0.37141993   -121.90597   -7066.1764    4.2972856    4.2972856    4.2972856   -7066.1764   -5744.5984   -14736.966   -716.96455   -772.64933    9287.6434    -1585.766    79.356526 
   60100    357.40324   -122.22872   0.32338596   -121.90534    2326.7014    4.2846353    4.2846353    4.2846353    2326.7014   -5121.3974    8619.3005    3482.2011    402.82964    1011.8184    5774.0167    78.657762 
   60200    359.53778    -122.2297   0.32531734   -121.90438    1409.5305    4.2930246    4.2930246    4.2930246    1409.5305    8987.1915   -1156.1137   -3602.4862   -850.38989    4266.9537    6924.1514    79.120702 
   60300    532.78402   -122.38455   0.48207418   -121.90248   -10030.708    4.2953806    4.2953806    4.2953806   -10030.708   -17035.971   -6421.5427   -6634.6091   -680.33271    259.05868   -1449.1349    79.251039 
   60400    276.19667   -122.15387   0.24990855   -121.90396    732.82735     4.287103     4.287103     4.287103    732.82735   -4852.0412    12439.185   -5388.6615   -7365.8302    7199.6754    4180.4652    78.793747 
   60500    368.25093   -122.23787   0.33320118   -121.90467   -3348.6541    4.2895893    4.2895893    4.2895893   -3348.6541   -5224.3278    9534.1696   -14355.804    11.485778    8338.4077    1254.9774    78.930917 
   60600    492.66604   -122.34786   0.44577458   -121.90208   -13135.375    4.2996289    4.2996289    4.2996289   -13135.375   -16538.214   -9796.2328   -13071.678    4068.8775   -5157.4888    2135.2691    79.486417 
   60700    362.52236   -122.22912   0.32801785    -121.9011    10645.777    4.2822425    4.2822425    4.2822425    10645.777     9044.732    1787.0341    21105.566   -394.21576    4381.6643   -4330.8926    78.526055 
   60800    482.52145   -122.33922   0.43659555   -121.90262   -5851.2995    4.2918034    4.2918034    4.2918034   -5851.2995   -18577.655    9898.3819   -8874.6257   -1672.6311    2506.6063   -30.740321    79.053201 
   60900    272.28973   -122.14983   0.24637347   -121.90346    5401.2627    4.2963173    4.2963173    4.2963173    5401.2627     13166.73   -12685.597    15722.655   -1581.0787    5206.3334    5428.8997    79.302895 
   61000    414.43381   -122.27723   0.37498842   -121.90224    1561.7692    4.2871233    4.2871233    4.2871233    1561.7692    10877.269   -1686.9845   -4504.9767    3260.6094   -47.440727    6834.7797    78.794868 
   61100    433.71561   -122.29584     0.392435   -121.90341    7579.5966    4.2854886    4.2854886    4.2854886    7579.5966    9061.8845    11510.197    2166.7083   -276.63632   -2320.2522    2667.6099    78.704764 
   61200    336.24533   -122.20827   0.30424184   -121.90403   -1647.9588    4.3002326    4.3002326    4.3002326   -1647.9588     12314.84   -8201.9194   -9056.7968   -5383.5317    5248.4141   -4264.3327    79.519903 
   61300    473.26735   -122.32934   0.42822225   -121.90112   -4760.9054    4.2866222    4.2866222    4.2866222   -4760.9054   -4715.2008    4826.8897   -14394.405    828.71668    1781.1377    4035.1898    78.767242 
   61400    315.36947    -122.1896   0.28535292   -121.90425    3288.5023    4.2877587    4.2877587    4.2877587    3288.5023    19462.823   -2540.2614   -7057.0545     1420.583    3673.2842    2920.8638    78.829906 
   61500    534.80704   -122.38738   0.48390465   -121.90347   -10830.443    4.2956404    4.2956404    4.2956404   -10830.443   -2981.0106   -11383.937   -18126.381    3671.0091   -1406.6742    137.49341     79.26542 
   61600    382.85198   -122.25096   0.34641252   -121.90455   -2386.0295    4.2904853    4.2904853    4.2904853   -2386.0295   -5140.7551   -5017.4337    3000.1004   -4107.0407    5317.9973   -1417.8613    78.980388 
   61700    279.98273   -122.15811   0.25333425   -121.90477    5291.3509    4.2869147    4.2869147    4.2869147    5291.3509    4193.7229    18662.226   -6981.8958   -4322.5738    6861.1142    3314.5361    78.783366 
   61800    473.62158   -122.33097   0.42854276   -121.90242   -10554.575    4.2971758    4.2971758    4.2971758   -10554.575   -6759.7828   -12349.839   -12554.104    1784.6367    820.10546    8446.4371    79.350443 
   61900    327.11872    -122.1977   0.29598389   -121.90172    9719.6652    4.2885657    4.2885657    4.2885657    9719.6652    17988.671    244.17112    10926.154    78.794506   -1645.5242   -1871.9855    78.874425 
   62000    536.07212   -122.38642   0.48504932   -121.90137    -2016.092    4.2876893    4.2876893    4.2876893    -2016.092   -10276.935     14505.48   -10276.821     2182.118    126.15811   -1008.0804    78.826078 
   62100    341.98582    -122.2135   0.30943595   -121.90407    1418.3665    4.2949312    4.2949312    4.2949312    1418.3665    23269.418    -14893.99   -4120.3286   -2331.7308    3311.3906   -403.69011    79.226165 
   62200    337.96742   -122.20963   0.30580003   -121.90383    2013.9752    4.2905243    4.2905243    4.2905243    2013.9752     13342.79   -8538.9813     1238.117     -653.795    600.36486     2996.993     78.98254 
   62300    504.52766   -122.35944   0.45650723   -121.90294    1765.3901    4.2854371    4.2854371    4.2854371    1765.3901     11925.91    -8196.094    1566.3538    5100.2797    661.90991    2802.6589    78.701929 
   62400    321.40817   -122.19604   0.29081687   -121.90523    5177.8384    4.2957992    4.2957992    4.2957992    5177.8384    11268.779   -4477.6323    8742.3688    -3080.039     3224.262   -5285.8966    79.274207 
   62500    504.01538   -122.36084    0.4560437   -121.90479   -11430.338    4.2901531    4.2901531    4.2901531   -11430.338   -13309.981   -9665.0105   -11316.022    1137.1593    3950.3637    5287.2092    78.962042 
   62600    221.04098   -122.10671   0.20000252   -121.90671    5968.9714    4.2848837    4.2848837    4.2848837    5968.9714    13409.521    7968.4421   -3471.0484   -1488.3939    6404.2487    5143.7291    78.671441 
   62700    491.73291   -122.34916   0.44493027   -121.90423   -11925.259    4.2970998    4.2970998    4.2970998   -11925.259   -8137.4406   -8001.0019   -19637.335    3500.0399     -4113.88    3278.1374    79.346236 
   62800    492.63723   -122.34852   0.44574852   -121.90278    -2745.311    4.2898893    4.2898893    4.2898893    -2745.311    510.46556   -7298.7253   -1447.6734    4086.4144    3412.4006   -2695.6973    78.947478 
   62900    293.15594   -122.16932   0.26525366   -121.90406    9682.4386     4.285158     4.285158     4.285158    9682.4386    8372.8974    18185.358    2489.0604   -5065.2098    6188.8044   -3711.0857    78.686555 
   63000    452.20303   -122.31337   0.40916281   -121.90421   -10146.184    4.2958351    4.2958351    4.2958351   -10146.184   -3458.8948   -18425.493    -8554.165    925.29865    3701.3714    8124.5152    79.276198 
   63100    207.70092   -122.09395   0.18793216   -121.90602    12670.999    4.2890729    4.2890729    4.2890729    12670.999    18116.583   -2665.8907    22562.304   -605.41562    168.89241   -781.22574    78.902414 
   63200    649.67776   -122.49125   0.58784209   -121.90341   -5263.7993    4.2857402    4.2857402    4.2857402   -5263.7993   -7711.0591   -7076.6172   -1003.7215    3837.5689   -2460.7635    3083.1388     78.71863 
   63300    284.52681   -122.16301   0.25744584   -121.90557    7482.3007     4.294426     4.294426     4.294426    7482.3007    21489.534   -5438.6594     6396.027   -1666.2741    3871.3615   -3045.8651     79.19821 
   63400    444.75975   -122.30626   0.40242797   -121.90383   -8449.3781    4.2916983    4.2916983    4.2916983   -8449.3781    1506.2645   -13610.757   -13243.641   -4207.0677    1511.4608     3821.957    79.047393 
   63500    395.39205   -122.26177   0.35775904   -121.90401   -25.519897    4.2869089    4.2869089    4.2869089   -25.519897    5421.5802   -6416.8302    918.69026    2459.9608    2326.1762    5159.9585    78.783048 
   63600    352.63748   -122.22348    0.3190738   -121.90441     5106.126     4.294063     4.294063     4.294063     5106.126    9164.4552   -2812.3175    8966.2404    3578.0956   -732.04361   -5684.8716    79.178128 
   63700    531.56678   -122.38331   0.48097279   -121.90233   -10359.652    4.2940997    4.2940997    4.2940997   -10359.652   -19137.834   -13791.544    1850.4219    1698.8873     4108.219    1400.7647    79.180159 
   63800    141.17308   -122.03285   0.12773637   -121.90511    12479.361     4.284944     4.284944     4.284944    12479.361     2757.207     19718.44    14962.435   -750.69105    5198.9032    1707.2457    78.674766 
   63900    503.20905   -122.36008   0.45531413   -121.90477   -15774.028    4.2952726    4.2952726    4.2952726   -15774.028   -19724.784   -10150.541   -17446.758    1122.6142     41.88252    6395.7204    79.245062 
   64000    433.02392   -122.29555   0.39180915   -121.90374    241.50887    4.2920685    4.2920685    4.2920685    241.50887     422.4088   -2348.6225    2650.7403    783.86613   -1210.3326   -2683.5973    79.067849 
   64100    497.43678   -122.35249   0.45009125    -121.9024   -306.47726    4.2876795    4.2876795    4.2876795   -306.47726   -1704.7725    8928.8049   -8143.4642    293.42477   -109.53574   -1752.6879    78.825538 
   64200    365.13351   -122.23489   0.33038047   -121.90451    1052.8941    4.2908125    4.2908125    4.2908125    1052.8941   -5104.4376   -1304.8007    9567.9205   -2244.7505    6781.3174    3953.0979    78.998457 
   64300    227.59369   -122.11165   0.20593156   -121.90572    2531.6196    4.2954821    4.2954821    4.2954821    2531.6196    22562.289   -12742.073   -2225.3574     949.0374    4522.5583     2600.285    79.256654 
   64400    493.11381   -122.34816   0.44617974   -121.90198    4754.0096    4.2848799    4.2848799    4.2848799    4754.0096     7233.698   -3141.6302    10169.961    2761.2511   -825.53484    3214.5883    78.671232 
   64500    427.46608   -122.29086    0.3867803   -121.90408    6584.4996    4.2923138    4.2923138    4.2923138    6584.4996    11384.421    2401.6815    5967.3966   -1000.9148   -1743.4865   -5553.6236    79.081408 
   64600     443.3197   -122.30678   0.40112498   -121.90566   -1541.5821    4.2916187    4.2916187    4.2916187   -1541.5821    17823.208   -3232.4237   -19215.531   -2061.1378    1447.6246    4333.3561    79.042992 
   64700    325.52529   -122.20053   0.29454212   -121.90599   -4071.5309    4.2907904    4.2907904    4.2907904   -4071.5309   -4094.2154    4421.6619   -12542.039   -2097.1765    2703.0582     5928.997    78.997236 
   64800    392.04572   -122.25879    0.3547312   -121.90406   -997.02824    4.2879158    4.2879158    4.2879158   -997.02824    7167.9626    1996.7187   -12155.766    4640.5151    1036.8365    3135.0416    78.838572 
   64900    530.64201    -122.3828   0.48013605   -121.90266   -6378.8529    4.2940664    4.2940664    4.2940664   -6378.8529   -8489.8326   -12754.985    2108.2584    3407.8569    1032.7429   -2102.7075    79.178317 
   65000    381.73756   -122.24888   0.34540417   -121.90348   -1790.3951    4.2909033    4.2909033    4.2909033   -1790.3951   -3818.8626    5537.0478   -7089.3705   -197.98642    3568.2482   -113.89303    79.003472 
   65100    278.92037    -122.1577   0.25237301   -121.90533    -1920.744    4.2873546    4.2873546    4.2873546    -1920.744   -6509.1866    1624.3101   -877.35562    953.42654    11390.411    5156.8876    78.807622 
   65200    351.63639   -122.22301     0.318168   -121.90484    -7597.876    4.2939221    4.2939221    4.2939221    -7597.876   -2841.1786   -17318.903   -2633.5468   -319.65538   -1534.0437    270.68433    79.170333 
   65300    489.23566   -122.34495    0.4426707   -121.90228    109.57359     4.289894     4.289894     4.289894    109.57359    12891.105    -1308.025   -11254.359    799.26112    -381.7246   -1779.4499    78.947737 
   65400    483.95312   -122.33987   0.43789095   -121.90198   -888.86928    4.2906244    4.2906244    4.2906244   -888.86928   -9593.4666     6398.061    528.79775   -384.16508    4326.1424   -3104.9687    78.988067 
   65500    374.13046   -122.24289    0.3385211   -121.90437    2208.1932    4.2885171    4.2885171    4.2885171    2208.1932     26129.22   -4371.1996   -15133.441   -1458.9999    5019.7611    7442.8374    78.871743 
   65600    292.43285   -122.17094   0.26459939   -121.90634   -995.98305    4.2961143    4.2961143    4.2961143   -995.98305     3495.992   -5023.1847   -1460.7565    1072.5075      2301.15    5590.4408    79.291654 
   65700    497.98998   -122.35419    0.4505918    -121.9036    6530.0604     4.284687     4.284687     4.284687    6530.0604   -784.45769    4542.1302    15832.509   -196.89716   -4130.2533    1432.1091     78.66061 
   65800    374.82014    -122.2427   0.33914514   -121.90356    7569.2393    4.2936253    4.2936253    4.2936253    7569.2393    14189.809   -2614.2308     11132.14   -616.74899    4734.6499   -2855.2857    79.153917 
   65900     460.7258   -122.31958   0.41687439   -121.90271    -1984.993    4.2919084    4.2919084    4.2919084    -1984.993   -3386.4108     2340.606   -4909.1744   -1208.0223    5150.2434    1271.1656    79.059002 
   66000    308.37334   -122.18444   0.27902268   -121.90541   -4368.3821     4.291701     4.291701     4.291701   -4368.3821   -9548.7209   -1269.4947   -2286.9305    1044.8411    9254.1816    2971.5786    79.047542 
   66100    405.77552   -122.27172   0.36715422   -121.90456    -359.5716    4.2855221    4.2855221    4.2855221    -359.5716    7728.3056   -903.24598   -7903.7744    3969.6436   -1037.4035   -4338.2073    78.706614 
   66200      559.233   -122.40913   0.50600577   -121.90312   -15116.556    4.2986938    4.2986938    4.2986938   -15116.556   -17582.248   -17148.111    -10619.31   -691.78105   -1253.2999    1671.2132    79.434568 
   66300    264.20302   -122.14168   0.23905645   -121.90263    6904.7593     4.287892     4.287892     4.287892    6904.7593    8958.2084    12239.391   -483.32198    595.51677    11614.335    424.60699    78.837261 
   66400    470.78511   -122.32734   0.42597626   -121.90136   -11751.849    4.2872793    4.2872793    4.2872793   -11751.849   -10869.434   -15691.666   -8694.4475     1151.053    1794.8713    9092.9981    78.803466 
   66500    225.11648   -122.10842   0.20369012   -121.90473    3889.4442    4.2957656    4.2957656    4.2957656    3889.4442    21661.556   -10176.057    182.83417   -481.08539    1895.4045    1029.1019    79.272347 
   66600    499.89507   -122.35448   0.45231556   -121.90217   -2123.6735    4.2906003    4.2906003    4.2906003   -2123.6735    7386.4361   -7901.5664   -5855.8903    2767.3533     2880.415   -5497.1909    78.986737 
   66700     431.6907   -122.29272   0.39060282   -121.90212     6708.203    4.2845805    4.2845805    4.2845805     6708.203    15972.274    5273.2127   -1120.8777   -2309.4887    2358.6755    4916.8372    78.654742 
   66800    345.31701   -122.21714   0.31245009   -121.90469    1159.7446     4.295586     4.295586     4.295586    1159.7446    27903.335   -10633.056   -13791.046     702.7714    5646.3131    1521.5176    79.262407 
   66900    491.61158   -122.34685   0.44482048   -121.90203   -10555.221    4.2937132    4.2937132    4.2937132   -10555.221   -12622.789   -6123.9136    -12918.96    3669.2424   -3994.3922    140.17316    79.158783 
   67000    332.41657   -122.20336    0.3007775   -121.90258    10389.158    4.2824679    4.2824679    4.2824679    10389.158     30057.72    3602.2841   -2492.5299    -1324.412   -5078.3118   -4800.6306    78.538456 
   67100    509.33309    -122.3634   0.46085528   -121.90255     -10602.9    4.2986472    4.2986472    4.2986472     -10602.9   -11955.349   -15444.413    -4408.938    28.277832    2526.5205    211.57356    79.431985 
   67200    321.25866   -122.19565   0.29068159   -121.90496    5233.4468     4.288295     4.288295     4.288295    5233.4468     11348.33    3913.1799    438.83016   -3049.4183     9049.391    7382.7983    78.859487 
   67300    340.47225    -122.2144   0.30806645   -121.90633   -1955.5797    4.2867059    4.2867059    4.2867059   -1955.5797   -1190.4912   -7572.4306    2896.1827    274.72383    8051.1381    666.57292    78.771855 
   67400    385.46142   -122.25432   0.34877359   -121.90554   -2982.4116    4.2934937    4.2934937    4.2934937   -2982.4116   -2741.4601   -10979.458    4773.6836     2741.655   -5863.5642   -1362.3013    79.146639 
   67500    460.41482   -122.32073   0.41659301   -121.90413   -7138.5575    4.2938587    4.2938587    4.2938587   -7138.5575    5885.6415   -10268.927   -17032.387   -1895.9183    4793.5285   -1011.5752    79.166826 
   67600    438.17878   -122.30025   0.39647337   -121.90377    3808.6891    4.2812259    4.2812259    4.2812259    3808.6891    -305.0743    11195.187    535.95455    2043.9465    2369.4498    1514.7971    78.470143 
   67700    388.67178   -122.25735   0.35167839   -121.90567   -7128.3401     4.298014     4.298014     4.298014   -7128.3401    7738.0895   -20383.986   -8739.1233    1482.6839    5702.7119    5116.2922    79.396885 
   67800    279.03081   -122.15694   0.25247294   -121.90447    7320.9935    4.2917083    4.2917083    4.2917083    7320.9935    5973.7542   -156.68123    16145.907     1398.689    3339.9137   -3590.0352    79.047946 
   67900    549.20464   -122.39757    0.4969319   -121.90064    1512.5763    4.2834256    4.2834256    4.2834256    1512.5763   -808.01103   -1812.5948    7158.3346    1666.1489   -5850.9999   -805.84463    78.591159 
   68000    284.15155   -122.16021   0.25710629   -121.90311    10500.664    4.2952921    4.2952921    4.2952921    10500.664    6636.4662   -205.77084    25071.298    -3399.505    9819.5698    5182.4266    79.246137 
   68100    448.38168   -122.30782   0.40570517   -121.90212   -4266.8069    4.2934876    4.2934876    4.2934876   -4266.8069   -4108.3371   -8395.4648   -296.61872    785.22806    1555.7029    795.09346    79.146305 
   68200    395.12633   -122.26004    0.3575186   -121.90252    4621.0534    4.2816437    4.2816437    4.2816437    4621.0534   -2566.3414     5204.422    11225.079    4778.2927    3133.4293    1640.9225    78.493114 
   68300    333.16796   -122.20612   0.30145737   -121.90466     1643.526    4.2948478    4.2948478    4.2948478     1643.526    -7331.936   -3942.1734    16204.687    1044.3529    1303.9709   -3114.6955    79.221549 
   68400    604.40851   -122.44768   0.54688152    -121.9008   -20562.601    4.2959332    4.2959332    4.2959332   -20562.601   -21069.612   -17871.869   -22746.323     1057.237   -4622.0233    164.79849     79.28163 
   68500    181.89997   -122.06777   0.16458692   -121.90318    11810.333    4.2792887    4.2792887    4.2792887    11810.333    11931.665    18507.066    4992.2677     2234.866    17282.345    7794.9356    78.363666 
   68600    503.77451   -122.35887   0.45582577   -121.90304   -15267.953    4.2952085    4.2952085    4.2952085   -15267.953   -8662.3503   -20608.502   -16533.006    2060.0803    1262.3375   -93.232691    79.241511 
   68700    367.27686   -122.23484   0.33231983   -121.90252   -1721.1191    4.2964278    4.2964278    4.2964278   -1721.1191    6058.3023   -1006.3361   -10215.323    1811.0579    -521.9787   -24.583837    79.309013 
   68800    367.71617   -122.23354   0.33271732   -121.90082    7373.8892    4.2812334    4.2812334    4.2812334    7373.8892    14849.733    9615.5941   -2343.6596   -4402.6487    6957.4522     781.2739    78.470554 
   68900    466.51044   -122.32539   0.42210845   -121.90328   -5885.6186    4.2912451    4.2912451    4.2912451   -5885.6186   -7174.1017    1155.6477   -11638.402    1160.3877   -2456.1647    2726.6703    79.022356 
   69000    319.23699   -122.19315   0.28885233    -121.9043    882.97024    4.2974685    4.2974685    4.2974685    882.97024    319.39023   -9156.0217    11485.542    3318.1228     6501.329    7544.0219    79.366659 
   69100    491.60215   -122.34631   0.44481195    -121.9015    5801.1653    4.2825359    4.2825359    4.2825359    5801.1653     4100.397    2717.9109    10585.188    6607.8967   -4678.7504   -3084.5067    78.542195 
   69200    422.34141    -122.2861   0.38214339   -121.90395    4098.0908    4.2912137    4.2912137    4.2912137    4098.0908    8261.9266   -5900.9794    9933.3252     1041.363   -50.844241   -1127.0861    79.020617 
   69300     342.7864   -122.21513   0.31016034   -121.90497   -3076.6346    4.2981821    4.2981821    4.2981821   -3076.6346   -347.19692   -16904.208    8021.5011   -286.26951    2015.6218    4139.7549    79.406205 
   69400    386.42064   -122.25334   0.34964151    -121.9037   -245.24249    4.2845631    4.2845631    4.2845631   -245.24249     11138.92   -5412.6773   -6461.9701    3688.8471    3965.8763    3091.2751    78.653784 
   69500    359.98418   -122.23004   0.32572125   -121.90432    2677.8937    4.2913662    4.2913662    4.2913662    2677.8937   -2217.7737   -12835.623    23087.078    2886.5697    7566.3886    3525.9644    79.029045 
   69600    510.19517   -122.36393   0.46163531   -121.90229   -9553.8024    4.2985862    4.2985862    4.2985862   -9553.8024   -21325.943   -14770.346    7434.8812    107.76983   -218.90432   -1414.8082    79.428603 
   69700    331.48367   -122.20319   0.29993339   -121.90326     2822.996    4.2853545    4.2853545    4.2853545     2822.996   -9722.3419    6669.0473    11522.283   -3150.1198    6903.3777    7067.0363     78.69738 
   69800    374.67583   -122.24487   0.33901457   -121.90586   -4593.5094    4.2916469    4.2916469    4.2916469   -4593.5094   -10579.911   -3216.0492    15.431669    3439.4274   -1533.3223     8546.172    79.044553 
   69900    446.10572   -122.31037   0.40364583   -121.90672   -7269.6409    4.2972671    4.2972671    4.2972671   -7269.6409   -24721.379   -3322.5557    6235.0117    3855.4258   -1212.3079     -1529.71    79.355501 
   70000    442.68679   -122.30379   0.40055231   -121.90324    10014.379    4.2837452    4.2837452    4.2837452    10014.379    5075.5409    15705.324    9262.2725    867.00333    6937.3838   -3921.4766    78.608751 
   70100    448.03543   -122.30886   0.40539187   -121.90347   -666.62812    4.2932478    4.2932478    4.2932478   -666.62812   -14382.202   -9410.1104    21792.428    1940.2367   -567.73858   -1616.1774    79.133045 
   70200    260.34983   -122.14106      0.23557   -121.90549    2415.0243    4.2940258    4.2940258    4.2940258    2415.0243    6191.7041   -6862.1051    7915.4738    3417.8059    7713.9783    6002.0477     79.17607 
   70300    398.47602   -122.26516   0.36054948   -121.90461    556.03068    4.2870619    4.2870619    4.2870619    556.03068    15093.781   -11254.362   -2171.3269    4625.5661   -4242.4776    7601.7811    78.791481 
   70400    523.39777    -122.3769    0.4735813   -121.90332   -5189.9646    4.2940433    4.2940433    4.2940433   -5189.9646   -1930.2671   -16112.277    2472.6502     102.2219    4672.2993    142.67342    79.177038 
   70500    445.72565   -122.30578   0.40330193   -121.90248   -4248.9468    4.2950907    4.2950907    4.2950907   -4248.9468    16470.723   -8853.0347   -20364.529   -4508.1959   -5177.3744    2312.9294    79.234992 
   70600    508.46958    -122.3624   0.46007396   -121.90233   -15306.735    4.2906419    4.2906419    4.2906419   -15306.735    -14959.35   -10937.192   -20023.663    689.85092   -3081.1828     5366.534    78.989037 
   70700    178.25105   -122.06793    0.1612853   -121.90664    8303.0285    4.2907408    4.2907408    4.2907408    8303.0285    30941.747    110.03771   -6142.6994    8576.6808    3092.9939    2751.1898    78.994498 
   70800    544.00655   -122.39696   0.49222856   -121.90474   -8711.5576    4.2951627    4.2951627    4.2951627   -8711.5576    -4788.772   -13187.967   -8157.9337    7357.7754   -531.36358   -1531.9892    79.238978 
   70900    297.59806   -122.17366   0.26927298   -121.90439    13053.342    4.2884206    4.2884206    4.2884206    13053.342    30360.561    11233.676   -2434.2124    1878.3497    12555.412   -4900.3938    78.866418 
   71000    387.36455   -122.25582   0.35049559   -121.90532     -6696.01    4.2944606    4.2944606    4.2944606     -6696.01   -9916.1893   -7591.4362   -2580.4047     616.2768    1399.2087    1110.0231    79.200124 
   71100    214.47974   -122.10149   0.19406577   -121.90742    6099.6679    4.2886682    4.2886682    4.2886682    6099.6679    16718.376   -155.59365     1736.221    878.85484   -5207.8175    2203.0055    78.880079 
   71200    404.92886   -122.27206   0.36638814   -121.90567   -117.32933    4.2933508    4.2933508    4.2933508   -117.32933   -1781.0255   -4628.0539    6057.0914    3117.8728   -3949.7353   -4638.2383    79.138739 
   71300    463.38878   -122.32185    0.4192839   -121.90257    3036.4811    4.2930239    4.2930239    4.2930239    3036.4811    25528.748   -10502.095   -5917.2103   -1161.2973   -2805.3398   -595.99369    79.120664 
   71400    420.33368   -122.28421   0.38032674   -121.90388   -1430.0715    4.2892581    4.2892581    4.2892581   -1430.0715    14233.264    -6673.043   -11850.436   -2670.2874   -74.814961    7125.7155    78.912635 
   71500    390.04761   -122.25775   0.35292327   -121.90482   -6351.6613    4.2906137    4.2906137    4.2906137   -6351.6613    12981.823   -11733.886   -20302.921    4375.4105    2704.3647    7000.2841    78.987479 
   71600    481.96742   -122.34105   0.43609425   -121.90496   -10582.117    4.2960753    4.2960753    4.2960753   -10582.117   -2072.3891   -15446.411   -14227.551    5206.5923    4612.4285    3161.6586    79.289494 
   71700    508.04874   -122.36461   0.45969318   -121.90492   -402.88744     4.288555     4.288555     4.288555   -402.88744    11314.005   -10625.028   -1897.6392    5474.0923   -700.42785   -1057.5067    78.873834 
   71800    339.37861    -122.2144    0.3070769   -121.90732     4739.302     4.292642     4.292642     4.292642     4739.302    28093.672    345.87956   -14221.645   -6128.7063   -1322.6536    2716.2705     79.09955 
   71900    319.58572   -122.19711   0.28916788   -121.90795   -1823.9681    4.2956296    4.2956296    4.2956296   -1823.9681     3189.631   -8344.7895   -316.74571   -1927.3232   -3840.8233    3715.1228    79.264819 
   72000    309.70721   -122.18756   0.28022959   -121.90733    5031.5439    4.2885651    4.2885651    4.2885651    5031.5439    10891.675    6229.1096   -2026.1527   -196.11106   -6740.3687   -1725.9545     78.87439 
   72100    441.14944   -122.30578   0.39916128   -121.90661     3787.024    4.2918168    4.2918168    4.2918168     3787.024    5274.3974    2143.3245      3943.35    4138.3378    3880.7408   -3550.6998    79.053942 
   72200    406.95823   -122.27537   0.36822435   -121.90714    1560.5518    4.2940889    4.2940889    4.2940889    1560.5518    23371.754   -13831.903   -4858.1956    2443.2715    3671.6094   -2117.8345    79.179564 
   72300    373.79069   -122.24507   0.33821367   -121.90685   -2471.3763    4.2882133    4.2882133    4.2882133   -2471.3763    17201.101   -7325.1611   -17290.069    2504.8979    4176.4236    9755.0476    78.854981 
   72400    294.19572   -122.17399   0.26619447   -121.90779   -3133.3032    4.2911082    4.2911082    4.2911082   -3133.3032    22015.245   -11457.134    -19958.02    3292.5769    4911.7417    3840.3322    79.014794 
   72500    538.72117   -122.39229   0.48744624   -121.90484   -13490.738    4.2934795    4.2934795    4.2934795   -13490.738     -16772.6   -9788.9302   -13910.683    767.13414    -6434.964    -3611.909    79.145857 
   72600     422.8936     -122.287   0.38264301   -121.90436   -2241.4624    4.2892131    4.2892131    4.2892131   -2241.4624    17161.405   -11133.779   -12752.013   -1147.0544    4035.6669    7400.2793    78.910152 
   72700    413.70506   -122.27824   0.37432903   -121.90391   -4818.0579    4.2907208    4.2907208    4.2907208   -4818.0579    5011.9286   -75.759697   -19390.343   -1484.2651    891.70755    4885.6788    78.993394 
   72800    313.68815   -122.18827   0.28383163   -121.90444     2414.628    4.2932461    4.2932461    4.2932461     2414.628     15667.51    1568.0333   -9991.6597    5893.8354   -181.52098    4716.3004    79.132952 
   72900    423.59197   -122.28863   0.38327491   -121.90535    4619.8949    4.2871771    4.2871771    4.2871771    4619.8949    902.50436   -3316.4328    16273.613    9777.8356    -583.4834   -4357.7281    78.797833 
   73000    454.54698   -122.31729   0.41128366   -121.90601    5146.7251    4.2879517    4.2879517    4.2879517    5146.7251    8260.1544    7436.3958   -256.37509    1261.1776    268.14018   -2996.2568    78.840551 
   73100    380.83175   -122.24999   0.34458457   -121.90541   -661.44064    4.2957196    4.2957196    4.2957196   -661.44064   -1152.1752   -12083.514    11251.367   -3875.0295    5249.7608    5228.6547    79.269803 
   73200    464.50108   -122.32443   0.42029034   -121.90414   -7199.3898    4.2883306    4.2883306    4.2883306   -7199.3898   -2919.6694   -9125.9777   -9552.5222   -1156.8613   -2799.4625    5602.6005    78.861451 
   73300    302.24403   -122.18003   0.27347675   -121.90655    2399.7074    4.2864014    4.2864014    4.2864014    2399.7074    15987.378   -6420.2895   -2367.9662    3605.8536    4153.2164    4061.1404    78.755067 
   73400    478.20877   -122.33872   0.43269334   -121.90603   -11412.226    4.2974929    4.2974929    4.2974929   -11412.226   -6586.4441   -9408.7766   -18241.458    5404.1044   -6085.0437     -4278.55    79.368013 
   73500    359.29343   -122.23142   0.32509625   -121.90632    3155.7159     4.287482     4.287482     4.287482    3155.7159    15093.175   -5526.6471   -99.380243   -1920.9943    7852.9593    5422.5288    78.814648 
   73600    410.14651   -122.27624   0.37110918   -121.90513    2043.8692    4.2864615    4.2864615    4.2864615    2043.8692   -755.23942    14080.826   -7193.9789    3464.1043    4710.1889    3388.0028    78.758379 
   73700    296.21705   -122.17335   0.26802341   -121.90532    1213.2759    4.2981351    4.2981351    4.2981351    1213.2759   -4780.2424   -676.98982    9097.0598     6155.761    1966.7668   -169.88511    79.403599 
   73800     404.2873   -122.27004   0.36580764   -121.90423    7566.2959    4.2850983    4.2850983    4.2850983    7566.2959   -183.15046    3537.5969    19344.441    1994.1163    -253.5369   -6416.3133    78.683262 
   73900    510.66643   -122.36601   0.46206171   -121.90394   -239.67709    4.2889156    4.2889156    4.2889156   -239.67709   -8065.5238     7997.962   -651.46947    280.94793   -6140.6973    3088.4002    78.893733 
   74000    412.12589    -122.2755   0.37290017    -121.9026   -5364.6261    4.2987158    4.2987158    4.2987158   -5364.6261   -232.31655   -16728.734    867.17251   -5497.6873    2226.4041    3695.2675    79.435788 
   74100    504.91386   -122.36005   0.45685667   -121.90319   -9976.4364    4.2865264    4.2865264    4.2865264   -9976.4364   -11589.303   -12478.855   -5861.1514    8622.8553   -1489.7904     6212.292    78.761959 
   74200    352.43409   -122.22614   0.31888977   -121.90725   -2788.0274    4.2909647    4.2909647    4.2909647   -2788.0274    628.30141   -7896.2705    -1096.113    6125.2507    762.37976   -134.13608    79.006863 
   74300    416.95482   -122.28423   0.37726948   -121.90696   -5532.6656    4.2986559    4.2986559    4.2986559   -5532.6656   -12325.476   -3138.5555   -1133.9655    115.41666    74.039729   -4013.9243    79.432468 
   74400    287.07883   -122.16442   0.25975496   -121.90466    11597.536    4.2876438    4.2876438    4.2876438    11597.536    1012.4705    6923.5673    26856.569    4024.1341    4641.5239   -2587.9489    78.823569 
   74500    286.76301   -122.16423   0.25946919   -121.90476    6924.2521    4.2925113    4.2925113    4.2925113    6924.2521   -5997.7824    15716.994    11053.544    6396.1045    4240.1975   -6524.7348    79.092326 
   74600    311.38672   -122.18582   0.28174925   -121.90407    4754.3077    4.2967846    4.2967846    4.2967846    4754.3077   -3298.2247    2601.5909    14959.557    8215.8292   -1695.3703   -2948.5686    79.328777 
   74700     447.9324    -122.3074   0.40529865    -121.9021    4315.0237    4.2895441    4.2895441    4.2895441    4315.0237    6357.6346    13115.929   -6528.4927   -3925.3068    -2902.247   -2399.6614    78.928422 
   74800    575.47872   -122.42258   0.52070524   -121.90187   -6674.7566    4.2925541    4.2925541    4.2925541   -6674.7566   -9861.0195   -1329.5528   -8833.6977   -1544.1255   -345.53445    4311.2445    79.094688 
   74900    443.70886   -122.30346    0.4014771   -121.90198   -9114.5082    4.2973078    4.2973078    4.2973078   -9114.5082    12348.927   -25845.027   -13847.424    2004.1999   -385.98511    6391.4197    79.357759 
   75000     474.0635   -122.33045   0.42894261   -121.90151   -7756.9825    4.2913538    4.2913538    4.2913538   -7756.9825   -14342.735   -9360.6495    432.43681    4494.3917    -3280.502    4277.3641    79.028359 
   75100    421.14248   -122.28463   0.38105857   -121.90357    354.70164    4.2922255    4.2922255    4.2922255    354.70164    1391.8836   -328.33526   0.55654466   -1230.1219   -3446.1952   -177.51736    79.076528 
   75200    427.99515    -122.2898   0.38725901   -121.90254    5796.8786    4.2919195    4.2919195    4.2919195    5796.8786    1503.7615     5845.413    10041.461    1065.5577    1175.7822    -5424.974    79.059617 
   75300     288.4513   -122.16405    0.2609968   -121.90305    2492.9035    4.2967934    4.2967934    4.2967934    2492.9035   -23025.411    22143.915     8360.206    5578.1035    4558.0592   -7460.3095     79.32926 
   75400     172.9053   -122.06008   0.15644835   -121.90363    9323.8885    4.2890796    4.2890796    4.2890796    9323.8885   -3219.9774    9696.5416    21495.101    14895.625    2541.7227   -4050.9998    78.902783 
   75500    384.27425   -122.25096   0.34769942   -121.90326   -1886.5631    4.2912436    4.2912436    4.2912436   -1886.5631   -22288.212    7513.7754    9114.7469    853.52969   -4409.7677      -5839.5    79.022271 
   75600    488.06895   -122.34438   0.44161504   -121.90277   -8872.9669    4.2970943    4.2970943    4.2970943   -8872.9669   -13417.748   -12134.507   -1066.6459   -2173.6098   -1108.4671    3235.6109    79.345927 
   75700    406.36581   -122.27194   0.36768833   -121.90425   -3878.0354    4.2889555    4.2889555    4.2889555   -3878.0354   -20260.037   -1779.4384    10405.369    12425.654    413.89628    3237.0216    78.895936 
   75800    365.51379    -122.2355   0.33072456   -121.90477   -3617.0779    4.2919304    4.2919304    4.2919304   -3617.0779   -9820.5363    7310.7143   -8341.4117    5015.5426   -1676.0179    6288.5218    79.060218 
   75900    402.34778   -122.26834   0.36405273   -121.90428   -3404.7906    4.2977488    4.2977488    4.2977488   -3404.7906   -16181.437    22618.002   -16650.937    1723.3103     -2861.21     237.2157     79.38219 
   76000    550.95418   -122.40136   0.49851492   -121.90285    1205.5712    4.2881993    4.2881993    4.2881993    1205.5712   -6122.1902    16940.998   -7202.0937   -3645.6239   -4693.0724   -4323.0769    78.854212 
   76100    448.44287   -122.31098   0.40576053   -121.90522    783.37938    4.2951545    4.2951545    4.2951545    783.37938   -4161.1158    11913.104   -5401.8499    7059.3856    1540.7173   -5668.6717    79.238524 
   76200    535.66154   -122.38863   0.48467782   -121.90396   -11538.561    4.2966847    4.2966847    4.2966847   -11538.561   -14513.118   -13761.787   -6340.7778    7104.7327   -1768.6322   -2340.5845    79.323244 
   76300    314.75078   -122.18996   0.28479312   -121.90517    8057.9269    4.2885798    4.2885798    4.2885798    8057.9269   -6041.7902    27814.269    2401.3022    729.92592   -1947.5808    2687.2694    78.875205 
   76400    383.03074   -122.25133   0.34657427   -121.90475   -448.18716     4.297595     4.297595     4.297595   -448.18716   -17067.515    28374.968   -12652.015   -5246.8696    601.54634    3332.2875    79.373671 
   76500    308.95595   -122.18402   0.27954983   -121.90447    6958.4285    4.2913496    4.2913496    4.2913496    6958.4285   -6529.7185    29265.608   -1860.6039   -1408.1836    -686.5683    6817.7064    79.028129 
   76600    449.50354    -122.3116   0.40672025   -121.90488   -7182.9811    4.2927006    4.2927006    4.2927006   -7182.9811   -17289.704   -4812.6355    553.39621    6650.3061    5315.2038    1879.7134    79.102789 
   76700    344.92848   -122.21815   0.31209854   -121.90605   -66.392207    4.2946986    4.2946986    4.2946986   -66.392207   -12981.722    14944.359   -2161.8139    1029.3298   -1312.8683    1300.7855    79.213295 
   76800    467.16416   -122.32686   0.42269995   -121.90416   -2428.2057    4.2914416    4.2914416    4.2914416   -2428.2057   -14673.105    14590.469   -7201.9807   -728.79615   -2940.4897   -5501.7503     79.03321 
   76900    235.91067    -122.1194   0.21345693   -121.90594    9802.1712    4.2914581    4.2914581    4.2914581    9802.1712   -15568.828    44741.245    234.09716    1161.5663    4399.0001   -8388.2265    79.034123 
   77000    335.57349   -122.21207   0.30363395   -121.90844   -7327.0999    4.2939015    4.2939015    4.2939015   -7327.0999   -28807.714    6764.8911     61.52327    12848.782   -2118.1596   -3674.3259    79.169196 
   77100    361.43987   -122.23429   0.32703839   -121.90725   -1840.0614    4.2857071    4.2857071    4.2857071   -1840.0614   -13470.089    2269.9466    5679.9584    4309.6777   -2626.3839    1270.3694    78.716808 
   77200    494.56857   -122.35309   0.44749603   -121.90559    -10234.19    4.2976497    4.2976497    4.2976497    -10234.19   -24970.204    2174.8787    -7907.243   -5865.8811   -484.63923    4598.6035    79.376703 
   77300    378.15822   -122.24843   0.34216551   -121.90626    6511.0043    4.2897132    4.2897132    4.2897132    6511.0043   -13803.124     32614.15    721.98696   -1598.0125   -1650.0678    5834.2764    78.937757 
   77400    382.09214   -122.25218     0.345725   -121.90646    10164.123    4.2851157    4.2851157    4.2851157    10164.123    -7678.387     35454.72    2716.0372    4250.8424     2217.361    -3451.996    78.684224 
   77500    482.86885   -122.34369   0.43690988   -121.90678   -13864.739    4.3011051    4.3011051    4.3011051   -13864.739   -25822.016    674.98782   -16447.187    6983.0516   -4881.2586   -2797.6938    79.568317 
   77600     498.5324   -122.35666    0.4510826   -121.90557   -1824.0633    4.2847987    4.2847987    4.2847987   -1824.0633   -4202.5054    2149.7362   -3419.4205    -3114.337   -2337.2888   -2910.6405     78.66676 
   77700    394.35154   -122.26313   0.35681756   -121.90631    -6746.728     4.296402     4.296402     4.296402    -6746.728   -17877.594    9341.0901    -11703.68   -4725.8674    1342.3581    835.18955    79.307584 
   77800    315.83072   -122.19185   0.28577028   -121.90608    6282.0132    4.2923169    4.2923169    4.2923169    6282.0132   -16132.499     40638.73   -5660.1915    4003.6975   -2907.2002    3713.0174     79.08158 
   77900    368.01386   -122.23924   0.33298668   -121.90626    1528.0042    4.2930874    4.2930874    4.2930874    1528.0042   -14450.162    21156.681   -2122.5065    3401.7339     1841.808    7641.6511    79.124173 
   78000    391.01255   -122.25828   0.35379637   -121.90448    1716.8688    4.2921979    4.2921979    4.2921979    1716.8688   -15025.493    14700.327    5475.7729   -4795.3296   -2628.2128    3736.1689    79.075003 
   78100    445.90933   -122.30724   0.40346814   -121.90378    -5034.445    4.2950437    4.2950437    4.2950437    -5034.445   -12563.555   -8687.3686    6147.5889   -7080.2464   -350.92431    4041.9564    79.232393 
   78200    386.81996   -122.25344   0.35000283   -121.90344    4060.5327    4.2903589    4.2903589    4.2903589    4060.5327    -10120.43    12270.303    10031.725     1072.965     3928.753   -8205.5488    78.973409 
   78300    334.96467   -122.20694   0.30308307   -121.90386    2176.6827    4.2958791    4.2958791    4.2958791    2176.6827   -21093.037    27174.722    448.36339    7870.8201   -2149.8122    -6354.336    79.278632 
   78400    346.00777   -122.21704    0.3130751   -121.90397    2965.3956    4.2902669    4.2902669    4.2902669    2965.3956   -14999.374    24945.329   -1049.7685    479.95073    1537.2287   -4253.8207    78.968325 
   78500    404.05152   -122.27108   0.36559431   -121.90549   -1671.7357    4.2921092    4.2921092    4.2921092   -1671.7357   -11688.076    4271.6846    2401.1845   -6288.6605    2522.5802    2457.5884      79.0701 
   78600    504.98915   -122.36081   0.45692479   -121.90388   -12223.275     4.298155     4.298155     4.298155   -12223.275   -16346.436   -5276.5648   -15046.825    2246.3653    1275.8036    7134.5839    79.404702 
   78700    495.93042   -122.35176   0.44872827   -121.90304     777.0604    4.2865332    4.2865332    4.2865332     777.0604   -7946.9848    11546.489   -1268.3227    4157.1737   -103.80441    3134.8718    78.762333 
   78800    344.00712   -122.21682   0.31126488   -121.90555   -3152.6828    4.2982832    4.2982832    4.2982832   -3152.6828   -17637.477    25888.053   -17708.624   -6002.1797   -3279.4759    525.70597    79.411806 
   78900     314.8959   -122.19124   0.28492443   -121.90631    3548.1072      4.28963      4.28963      4.28963    3548.1072   -9933.4706    23109.869   -2532.0766   -13479.694   -895.31252   -3882.3312    78.933164 
   79000    391.37633   -122.26013   0.35412553     -121.906   -1476.0913    4.2927801    4.2927801    4.2927801   -1476.0913   -8328.7826   -623.47824    4523.9868   -5939.1456   -1939.6508   -4110.1058    79.107182 
   79100    527.76106   -122.38142    0.4775293   -121.90389    -8199.899    4.2967631    4.2967631    4.2967631    -8199.899   -15784.806   -2943.5248   -5871.3664    7327.0061   -6265.2402    -2693.626    79.327584 
   79200    341.19356   -122.21382    0.3087191    -121.9051    4227.1954    4.2889058    4.2889058    4.2889058    4227.1954   -6632.9018    11240.652     8073.836    2106.9457   -2278.2545    8778.2473    78.893192 
   79300    227.81757   -122.11297   0.20613413   -121.90684    5670.2425    4.2941186    4.2941186    4.2941186    5670.2425   -21540.186    32466.026    6084.8876   -6988.6329   -2082.4918    6941.0774    79.181206 
   79400    304.62816   -122.18267   0.27563397   -121.90703    3001.8165    4.2956488    4.2956488    4.2956488    3001.8165   -18690.037    20760.851    6934.6354   -3018.8139    -1646.773    9625.5437    79.265885 
   79500    470.49969   -122.33049     0.425718   -121.90477    3354.5033    4.2894479    4.2894479    4.2894479    3354.5033   -9958.5352    7764.1373    12257.908   -155.69784   -389.91148   -4340.1673     78.92311 
   79600    584.88685   -122.43277   0.52921791   -121.90355   -12953.605    4.2987278    4.2987278    4.2987278   -12953.605   -20697.528   -16668.251   -1495.0375   -2640.1217    358.49314   -2071.1966    79.436453 
   79700     431.7926   -122.29511   0.39069501   -121.90442   -4015.1218    4.2925343    4.2925343    4.2925343   -4015.1218   -18560.824    3119.5904    3395.8683   -8691.8929    3464.1247   -9898.8588    79.093595 
   79800    413.29221    -122.2788   0.37395548   -121.90485   -3705.2474    4.2937748    4.2937748    4.2937748   -3705.2474    -17835.76    15596.656   -8876.6388   -8732.0878    1636.8057   -844.85208    79.162188 
   79900    360.43556   -122.23085   0.32612967   -121.90473    5232.8138    4.2966559    4.2966559    4.2966559    5232.8138   -21377.218    33005.978    4069.6813    3155.5473   -133.51689     1329.009    79.321649 
   80000    428.12012   -122.29107   0.38737208    -121.9037    382.62068    4.2929921    4.2929921    4.2929921    382.62068   -17294.629    14462.442    3980.0497     2688.564    2266.0245    9803.4533    79.118904 
   80100    347.12208   -122.21833   0.31408335   -121.90425    935.39661    4.2903332    4.2903332    4.2903332    935.39661   -19768.191   -5291.3402    27865.721   -6410.3351   -2045.6711    3458.7749    78.971986 
   80200    455.11138   -122.31766   0.41179434   -121.90586   -13923.881    4.2997936    4.2997936    4.2997936   -13923.881   -25523.693   -15227.519   -1020.4318   -3452.5948   -915.65312    205.55154    79.495552 
   80300    449.27578   -122.31138   0.40651416   -121.90486    2844.4875    4.2870196    4.2870196    4.2870196    2844.4875   -10573.302    15936.148    3170.6166    3396.6901   -5365.3116    -13588.61    78.789151 
   80400    397.19373   -122.26309   0.35938923    -121.9037    847.88222    4.2928186    4.2928186    4.2928186    847.88222   -11292.313    21239.807   -7403.8476   -3513.6939   -3754.4264   -5384.5979    79.109311 
   80500     273.2735   -122.15228    0.2472636   -121.90501    2160.7658    4.2958821    4.2958821    4.2958821    2160.7658   -23069.309    28238.045    1313.5616   -13801.964     1654.368   -152.02248      79.2788 
   80600    388.18706   -122.25502   0.35123981   -121.90378    1616.2724    4.2885243    4.2885243    4.2885243    1616.2724    788.18387    936.15434    3124.4789   -10079.218   -1203.6262    4719.0566    78.872141 
   80700    530.30593   -122.38276   0.47983195   -121.90293   -841.01561     4.291588     4.291588     4.291588   -841.01561   -6650.0228   -1620.8633    5747.8393   -904.34699    280.23842    2413.0985    79.041298 
   80800    394.07915   -122.26303    0.3565711   -121.90646    3174.9005    4.2940588    4.2940588    4.2940588    3174.9005   -756.24644   -1834.6329    12115.581    5704.8429    3655.7035   -1586.9724    79.177896 
   80900    381.95864    -122.2529    0.3456042    -121.9073    5141.8102    4.2862438    4.2862438    4.2862438    5141.8102    -5865.979    11791.906    9499.5033   -5112.0322    818.30778   -7381.9882     78.74638 
   81000     149.3269   -122.04427   0.13511412   -121.90915    7961.1793    4.2965121    4.2965121    4.2965121    7961.1793    -24662.57    35642.569    12903.539   -4869.0507    1817.2118   -2538.0141    79.313682 
   81100     515.8744    -122.3728     0.466774   -121.90602   -1662.3215    4.2882967    4.2882967    4.2882967   -1662.3215   -14315.254    20148.569   -10820.279   -147.55528   -3530.7606   -147.63302    78.859585 
   81200    483.68756   -122.34465   0.43765066     -121.907   -3857.7798    4.2921346    4.2921346    4.2921346   -3857.7798   -15198.454    4598.7627   -973.64857    582.94941   -2688.4147    4194.1494    79.071501 
   81300    525.25757   -122.38144   0.47526408   -121.90617   -16011.609    4.2946905    4.2946905    4.2946905   -16011.609   -21525.666   -15555.226   -10953.935   -9471.5998    475.08674     1399.472    79.212845 
   81400    380.72062   -122.25043   0.34448402   -121.90595   -4862.4937    4.2897266    4.2897266    4.2897266   -4862.4937   -23223.527     1178.965     7457.081   -13957.166   -2526.6562   -2377.6524    78.938496 
   81500    320.89121   -122.19633   0.29034911   -121.90598    1048.4662    4.2949508    4.2949508    4.2949508    1048.4662    -20300.46     27412.35   -3966.4916    -1776.245    826.22048   -1907.8368    79.227251 
   81600    370.19494   -122.23907   0.33496016   -121.90411    11539.371    4.2890471    4.2890471    4.2890471    11539.371   -3174.8847    37864.329   -71.329726    8351.7303   -1255.9086   -5934.7656    78.900988 
   81700    358.66604   -122.22912   0.32452857   -121.90459    4603.8588    4.2943859    4.2943859    4.2943859    4603.8588   -14905.671        11590    17127.247    2765.7314    1601.7475    -4906.911    79.195991 
   81800    432.36863   -122.29524   0.39121622   -121.90402   -4920.4031    4.2919114    4.2919114    4.2919114   -4920.4031   -1388.4417   -8566.3845   -4806.3829   -6139.8007    3739.7894    2197.8251    79.059168 
   81900    393.49944   -122.26003   0.35604657   -121.90399   -672.33873    4.2900633    4.2900633    4.2900633   -672.33873    -1979.475   -12434.392     12396.85   -5291.8359    118.77539     4048.371    78.957086 
   82000    524.98349   -122.37941   0.47501609   -121.90439   -5614.0215    4.2943375    4.2943375    4.2943375   -5614.0215   -13568.231    12705.027    -15978.86   -1837.0679   -490.63242    3894.6777    79.193314 
   82100    308.46166   -122.18584   0.27910259   -121.90673    8497.7658    4.2895322    4.2895322    4.2895322    8497.7658     3209.696    24147.284   -1863.6823   -1599.0069   -3013.7293   -4655.2181    78.927763 
   82200     344.8657    -122.2183   0.31204173   -121.90625   -1061.8448    4.2902788    4.2902788    4.2902788   -1061.8448   -19033.311    25896.556    -10048.78   -8900.0308    1032.4497   -7940.3977    78.968982 
   82300    405.00946    -122.2731   0.36646107   -121.90664   -9096.5367    4.2949728    4.2949728    4.2949728   -9096.5367   -18607.291   -8115.2133   -567.10576   -5722.6848   -4460.6858   -35.382205    79.228464 
   82400    448.26487    -122.3113   0.40559947    -121.9057   -2088.2215    4.2870366    4.2870366    4.2870366   -2088.2215   -12092.608   -1559.5749    7387.5189    4854.3789   -1622.9944   -5532.0292    78.790084 
   82500    480.81595    -122.3395   0.43505237   -121.90445   -8931.0171     4.294959     4.294959     4.294959   -8931.0171   -8313.5651   -15565.242   -2914.2443    1896.1156    1222.2463    1524.6446    79.227705 
   82600    272.69685   -122.15121   0.24674184   -121.90447    4873.0636    4.2920592    4.2920592    4.2920592    4873.0636   -18738.751    15641.712    17716.229    -6186.792   -1750.2936   -1802.9801    79.067334 
   82700    436.44415   -122.29809   0.39490384   -121.90319    1707.5219     4.287093     4.287093     4.287093    1707.5219   -5226.7594    13675.397   -3326.0715   -8341.6335    2228.5655    5203.3632    78.793197 
   82800    410.55459   -122.27436   0.37147842   -121.90288    3674.9489    4.2934117    4.2934117    4.2934117    3674.9489   -9202.0927    20342.293   -115.35383   -2169.2926   -2252.8972   -1907.1881    79.142105 
   82900    510.91863   -122.36565   0.46228992   -121.90336   -6732.0302    4.2932952    4.2932952    4.2932952   -6732.0302   -10117.275   -5699.6039   -4379.2117    3685.9006   -460.53189   -6536.4354    79.135666 
   83000    362.63748   -122.23505   0.32812201   -121.90693    909.66201    4.2874362    4.2874362    4.2874362    909.66201   -2065.1287   -11283.788    16077.902   -6139.6225   -964.92821   -11494.778    78.812123 
   83100    361.18031   -122.23422   0.32680354   -121.90742   -4879.2724    4.2965839    4.2965839    4.2965839   -4879.2724   -13212.245   -10198.893    8773.3208   -4110.4015   -6535.8002    2209.7265    79.317659 
   83200    336.62645   -122.21094   0.30458669   -121.90635    5560.6872    4.2919458    4.2919458    4.2919458    5560.6872   -15666.854     19121.95    13226.965     3884.384   -2832.9878    7338.8956    79.061067 
   83300    338.71352   -122.21188   0.30647511    -121.9054    9690.9617    4.2905466    4.2905466    4.2905466    9690.9617   -7557.6746    29399.701    7230.8589    5830.2069   -5003.3798    9088.9034    78.983772 
   83400    298.02564   -122.17481   0.26965986   -121.90515    1531.6829     4.297984     4.297984     4.297984    1531.6829   -14484.375    25658.347   -6578.9237    323.13589    522.67824   -2455.7671    79.395225 
   83500     448.9433   -122.31038   0.40621333   -121.90417   -7233.1148    4.2911208    4.2911208    4.2911208   -7233.1148   -15333.225    1144.0992   -7510.2184   -5687.6984   -4287.5061   -3406.5379    79.015485 
   83600    520.69579   -122.37442   0.47113649   -121.90328   -8965.8237    4.2924777    4.2924777    4.2924777   -8965.8237   -9726.1656   -140.81048   -17030.495   -2056.3932   -5475.8427   -7608.1406    79.090465 
   83700    544.39436   -122.39544   0.49257946   -121.90286   -10522.855    4.2990956    4.2990956    4.2990956   -10522.855   -17976.056   -7780.1705   -5812.3378    238.70098    4388.9748   -1448.2385    79.456841 
   83800    396.16191   -122.26214   0.35845562   -121.90368    1456.9699    4.2913343    4.2913343    4.2913343    1456.9699   -12205.595    23010.532   -6434.0273   -4555.7077    1004.1146    1692.2262    79.027281 
   83900    296.73733   -122.17313   0.26849417   -121.90463    2717.1143    4.2934558    4.2934558    4.2934558    2717.1143   -22951.292    30225.858    876.77711   -7299.5278    845.23988    4314.6105    79.144543 
   84000    252.85329   -122.13357   0.22878697   -121.90478    4870.4188    4.2955025    4.2955025    4.2955025    4870.4188    -16736.39    23375.219    7972.4266    1777.6151   -1840.3153    9977.0794    79.257784 
   84100    497.90068   -122.35378     0.450511   -121.90327    -482.5179    4.2913943    4.2913943    4.2913943    -482.5179    -11092.32   -4087.4586    13732.225    7327.5074    -3339.036    3319.4567    79.030595 
   84200    361.47877   -122.23187   0.32707359    -121.9048    2215.1265    4.2957987    4.2957987    4.2957987    2215.1265   -6366.3001   -6698.9972    19710.677    3464.3567   -1784.5741    1620.9214    79.274184 
   84300    413.81306   -122.27882   0.37442675   -121.90439     1164.092    4.2892845    4.2892845    4.2892845     1164.092   -2659.4258   -806.61214     6958.314   -7841.2112   -7003.7484   -6826.3075    78.914089 
   84400    256.73942   -122.13872   0.23230322   -121.90642     5441.429    4.2943042    4.2943042    4.2943042     5441.429   -1210.3694    27728.133   -10193.476   -7224.0481   -3921.3733   -6516.0369    79.191471 
   84500    484.34655   -122.34327   0.43824694   -121.90503   -1592.2941    4.2918481    4.2918481    4.2918481   -1592.2941    -7754.833    12980.472   -10002.521    287.23277   -1133.1275   -1631.4388    79.055669 
   84600    392.11551   -122.25958   0.35479435   -121.90478    2579.2071    4.2914767    4.2914767    4.2914767    2579.2071   -1516.1536    17832.313   -8578.5386    3952.6409    5311.3799    3380.6858    79.035149 
   84700    566.01594   -122.41534   0.51214312    -121.9032   -14355.382    4.2942565    4.2942565    4.2942565   -14355.382   -17944.004   -8822.3773   -16299.763    297.38743   -1166.2687    4810.4105    79.188834 
   84800    385.66917   -122.25351   0.34896157   -121.90455   -5763.3402    4.2921927    4.2921927    4.2921927   -5763.3402   -17957.816    7115.1591   -6447.3636   -4666.4157   -4844.0034    2370.3355    79.074714 
   84900    458.31807   -122.31867   0.41469582   -121.90397   -1199.2089    4.2886927    4.2886927    4.2886927   -1199.2089   -13604.755    4640.3264    5366.8016    5747.8793     268.5491   -1255.9372    78.881431 
   85000    334.98746   -122.20831   0.30310369    -121.9052    3716.1061    4.2939266    4.2939266    4.2939266    3716.1061   -15295.543    31887.882     -5444.02    3016.7598    1055.6016    -6099.865    79.170585 
   85100      299.515   -122.17807   0.27100747   -121.90707     8180.389    4.2877743    4.2877743    4.2877743     8180.389   -2096.1908    16156.553    10480.805   -4151.8082   -3343.2629   -5393.2776    78.830769 
   85200    382.77148   -122.25278   0.34633968   -121.90644   -5319.0598    4.2949679    4.2949679    4.2949679   -5319.0598   -11296.099    5594.1936   -10255.274   -7034.0409   -9541.9299    -3158.215    79.228196 
   85300    435.84995   -122.29921    0.3943662   -121.90484    2252.7389     4.289343     4.289343     4.289343    2252.7389     12628.36   -2516.7373   -3353.4061    2468.0155   -3519.2776     1129.036     78.91732 
   85400    375.09428    -122.2457   0.33939319    -121.9063    4518.5608    4.2912264    4.2912264    4.2912264    4518.5608   -2407.3473    16331.549   -368.51873    9393.7457   -557.11859    3947.1765    79.021319 
   85500    376.79772    -122.2466   0.34093449   -121.90566   -796.68308    4.2936426    4.2936426    4.2936426   -796.68308     308.7372    11756.042   -14454.829    6188.6252    -3343.273    3509.2525    79.154877 
   85600    256.49033   -122.13704   0.23207784   -121.90496    3329.0343    4.2920255    4.2920255    4.2920255    3329.0343   -10752.471    35022.533    -14282.96   -4766.4686   -5453.6615    3855.7058    79.065475 
   85700    542.82424   -122.39421   0.49115878   -121.90305   -7054.6469    4.2888211    4.2888211    4.2888211   -7054.6469   -8113.7632     -2916.29   -10133.887   -5483.0983   -93.924952   -2561.7266    78.888518 
   85800    429.98354   -122.29237   0.38905814   -121.90331   -5660.9574    4.2963244    4.2963244    4.2963244   -5660.9574   -8350.9214    518.53976   -9150.4905    3183.4799    5289.9093   -525.10856     79.30329 
   85900    500.77097   -122.35631   0.45310809    -121.9032    -9236.357    4.2898652    4.2898652    4.2898652    -9236.357     -11881.8   -4045.3094   -11781.962    3055.1197   -3477.9293   -4303.0618    78.946146 
   86000    239.73393   -122.12414    0.2169163   -121.90722    6032.8432     4.290335     4.290335     4.290335    6032.8432    1386.3074    30155.651   -13443.428    1651.6214   -3947.7202   -2753.9272    78.972089 
   86100    420.21945    -122.2864   0.38022339   -121.90618   -960.87781    4.2946298    4.2946298    4.2946298   -960.87781   -9136.5511    18432.204   -12178.286    2931.9364   -941.43417   -116.36534    79.209486 
   86200    291.00128   -122.16936   0.26330407   -121.90605    8976.4283    4.2906404    4.2906404    4.2906404    8976.4283    12437.108    22813.163   -8320.9867    7939.6582   -729.09627    -2207.655     78.98895 
   86300    524.00306   -122.37934   0.47412898   -121.90521   -6557.7828    4.2895689    4.2895689    4.2895689   -6557.7828   -4807.1633   -690.60395   -14175.581    5475.3288   -2397.2498    3797.1116    78.929791 
   86400    405.68252   -122.27318   0.36707007   -121.90611   -2137.5971    4.2949175    4.2949175    4.2949175   -2137.5971   -8761.8284    6803.8343   -4454.7972   -6126.0259   -8370.5152    -984.7546    79.225407 
   86500    520.70972   -122.37577    0.4711491   -121.90463   -938.85812    4.2897413    4.2897413    4.2897413   -938.85812   -643.43614    6523.6333   -8696.7716   -6234.1811   -814.28658    935.57697    78.939305 
   86600     389.7985   -122.25822   0.35269787   -121.90552    5325.0595    4.2901436    4.2901436    4.2901436    5325.0595   -9175.2606    32849.693    -7699.254    3152.9662    1141.7548   -3647.8371    78.961515 
   86700    306.54249   -122.18371   0.27736608   -121.90634    2168.1235    4.2927079    4.2927079    4.2927079    2168.1235    -316.0301    5427.8066     1392.594    10982.969   -4575.7583   -3985.9106    79.103191 
   86800    374.93045   -122.24458   0.33924495   -121.90534   -2617.1218    4.2894388    4.2894388    4.2894388   -2617.1218   -8661.9543    9925.7673   -9115.1784     10155.16   -1701.7857   -891.01469    78.922609 
   86900    399.33008     -122.268   0.36132224   -121.90668    803.42038    4.2893968    4.2893968    4.2893968    803.42038    9760.1522    1974.3123   -9324.2034    -7423.949   -3282.8191   -1251.4089     78.92029 
   87000    468.21205   -122.33039    0.4236481   -121.90674   -4659.9228    4.2913361    4.2913361    4.2913361   -4659.9228   -4991.5608   -997.73739   -7990.4702   -3359.8638     5086.691    1434.0248    79.027382 
   87100    367.42195    -122.2384    0.3324511   -121.90595   -6733.1951    4.2927708    4.2927708    4.2927708   -6733.1951   -16048.303    10476.977   -14628.259    2429.6787   -3849.4814     1124.786    79.106672 
   87200    287.84763   -122.16787   0.26045059   -121.90742     2179.811    4.2860568    4.2860568    4.2860568     2179.811   -16773.788    37010.602   -13697.381    6142.9177   -13818.089    1260.3194    78.736075 
   87300    484.77049   -122.34667   0.43863053   -121.90804   -5771.7097    4.2908134    4.2908134    4.2908134   -5771.7097    -5572.636    2258.2917   -14000.785    4277.5242   -192.39045   -4507.4343    78.998505 
   87400    479.80175   -122.34019    0.4341347   -121.90606   -4492.5559    4.2943832    4.2943832    4.2943832   -4492.5559    5954.2504     -1565.66   -17866.258   -2217.8005   -1893.6915   -508.28668    79.195841 
   87500    403.27475   -122.27122   0.36489147   -121.90633    -2184.798    4.2865832    4.2865832    4.2865832    -2184.798   -7523.6835    7837.5628   -6868.2734    1914.3114   -2634.9695   -2357.4991    78.765088 
   87600    235.42601   -122.12179    0.2130184   -121.90877    5968.6369     4.288454     4.288454     4.288454    5968.6369    5970.7037    24232.686   -12297.479    1310.2743    -5492.716    2013.1847    78.868264 
   87700    382.54788   -122.25399   0.34613736   -121.90785    881.84186    4.2940515    4.2940515    4.2940515    881.84186   -17633.578    20491.127   -212.02332   -381.63165   -3597.5732   -467.43282    79.177495 
   87800    449.77853   -122.31284   0.40696906   -121.90587    6181.4486    4.2872877    4.2872877    4.2872877    6181.4486    5089.4779    17647.885   -4193.0172   -1783.4336    5487.1348   -4303.0273    78.803934 
   87900     529.5637   -122.38578   0.47916036   -121.90662   -9033.5625    4.2909684    4.2909684    4.2909684   -9033.5625   -9440.9363   -2788.4198   -14871.331    1642.5909   -5742.3243   -3250.7232     79.00707 
   88000    347.49083   -122.22129   0.31441701   -121.90687   -4752.2781    4.2937093    4.2937093    4.2937093   -4752.2781   -17844.293    2075.7176    1511.7414    5844.1331   -4648.4953   -2405.9759    79.158563 
   88100    355.59052    -122.2286   0.32174578   -121.90685    377.63798     4.289656     4.289656     4.289656    377.63798   -13718.983    26404.906   -11553.009    6773.8621    -1633.416    1822.7117    78.934595 
   88200    428.02594   -122.29398   0.38728687    -121.9067     5677.667    4.2888537    4.2888537    4.2888537     5677.667     3322.698    24897.908   -11187.606    -7151.749    722.25153   -3562.2734    78.890316 
   88300    296.54626   -122.17476   0.26832129   -121.90644    7065.0336     4.295678     4.295678     4.295678    7065.0336    4619.9041    23886.661   -7311.4642    -4719.973    2445.8216    99.331354    79.267502 
   88400    497.33199   -122.35424   0.44999643   -121.90424   -6269.0312    4.2884802    4.2884802    4.2884802   -6269.0312   -7413.1409   -764.90707   -10629.046    489.65284    -8626.643    279.16734    78.869707 
   88500    342.78524   -122.21569   0.31015929   -121.90553    835.42015    4.2909494    4.2909494    4.2909494    835.42015    8049.0241      6233.84   -11776.604    9377.5717    -2882.997    3349.2217    79.006019 
   88600    498.87546   -122.35602     0.451393   -121.90463     -5115.94    4.2936026    4.2936026    4.2936026     -5115.94   -14637.935     7679.402   -8389.2875    7437.9907    3532.6345    -4359.629    79.152663 
   88700    332.95598   -122.20664   0.30126557   -121.90538    6335.9109    4.2903429    4.2903429    4.2903429    6335.9109   -744.17196    32511.198   -12759.294   -1044.4712   -2893.5113   -3746.0638    78.972523 
   88800    362.91643   -122.23366   0.32837441   -121.90529     -3222.73    4.2929552    4.2929552    4.2929552     -3222.73   -17540.937    23945.212   -16072.465   -1062.7091   -4889.6733   -1284.8123    79.116864 
   88900    373.38865   -122.24254   0.33784989   -121.90469   -3715.0816    4.2902804    4.2902804    4.2902804   -3715.0816   -7018.9414    6740.5976   -10866.901    1710.2883   -5820.6136     856.3353    78.969072 
   89000     488.2098    -122.3451   0.44174248   -121.90336   -9116.7904    4.2912797    4.2912797    4.2912797   -9116.7904   -8745.8981   -15388.111    -3216.362    5422.7002    1346.5581     752.5776    79.024266 
   89100    369.24878    -122.2395   0.33410405    -121.9054   -136.67363    4.2918349    4.2918349    4.2918349   -136.67363   -6042.2638    22010.489   -16378.246   -272.77461   -1849.9045   -4327.8217    79.054944 
   89200     452.3191   -122.31546   0.40926782   -121.90619     1634.915    4.2850433    4.2850433    4.2850433     1634.915    2005.2066     16595.17   -13695.631    -284.2388   -9099.9576    354.79662    78.680233 
   89300    321.47657   -122.19784   0.29087876   -121.90696    5816.7387    4.2910856    4.2910856    4.2910856    5816.7387   -17870.781    33843.018    1477.9789    7619.9839    1641.4168   -1508.1006    79.013543 
   89400    395.91137    -122.2646   0.35822893   -121.90638   -4317.5248    4.2926123    4.2926123    4.2926123   -4317.5248    -1236.206   -5254.8155   -6461.5528    8904.2893    1132.2081   -802.62614    79.097907 
   89500    425.40027   -122.29038   0.38491111   -121.90547   -1496.6457    4.2824916    4.2824916    4.2824916   -1496.6457    141.30901    -694.5641   -3936.6821   -2095.7851    74.993983    -8458.871    78.539759 
   89600    413.09609   -122.27946   0.37377802   -121.90568   -3738.9488    4.2931824    4.2931824    4.2931824   -3738.9488    3023.7398   -8697.4028   -5543.1833   -768.59979   -3758.5762   -5954.4321    79.129426 
   89700    461.13682   -122.32297   0.41724629   -121.90572   -915.61272    4.2906826    4.2906826    4.2906826   -915.61272   -8823.8365    16075.506   -9998.5073   -1120.3286    -6279.073    5577.7509    78.991281 
   89800    340.10862   -122.21378   0.30773743   -121.90604    10158.915    4.2834571    4.2834571    4.2834571    10158.915    10271.785    17143.477     3061.484    12230.934    3205.8351    -716.1221    78.592893 
   89900    321.67389   -122.19737   0.29105729   -121.90631    65.888551    4.2935186    4.2935186    4.2935186    65.888551    -9679.442    18122.056   -8244.9485    5811.2442   -1722.7335   -4378.5862    79.148017 
   90000    484.95414   -122.34347    0.4387967   -121.90468   -9008.0622    4.2911989    4.2911989    4.2911989   -9008.0622    -4251.377    -3903.227   -18869.583   -1469.2482   -4046.1217   -5761.3714    79.019799 
   90100    403.83301   -122.27081    0.3653966   -121.90542   -896.80142    4.2866893    4.2866893    4.2866893   -896.80142   -2347.3857    9610.5426   -9953.5612   -1681.8935   -4440.3415     1203.149     78.77094 
   90200    540.41193   -122.39327   0.48897607   -121.90429   -11245.671    4.2933294    4.2933294    4.2933294   -11245.671   -19039.251   -1015.4514   -13682.312    4439.3804    -1260.729     904.7497    79.137554 
   90300    238.89261   -122.12245   0.21615505    -121.9063    3356.3095    4.2919943    4.2919943    4.2919943    3356.3095    2262.3677    18487.961     -10681.4    2809.1618   -99.275751   -1722.2053    79.063753 
   90400    348.33974   -122.21991   0.31518511   -121.90472   -1209.5748    4.2886561    4.2886561    4.2886561   -1209.5748   -12551.251    24287.571   -15365.044    559.82458    -6111.648   -2600.4252    78.879415 
   90500    348.58667    -122.2189   0.31540855   -121.90349    4538.7127    4.2928497    4.2928497    4.2928497    4538.7127    5838.0651    24911.915   -17133.842   -1226.0837    -3130.992     1780.426     79.11103 
   90600    609.71128   -122.45438   0.55167958    -121.9027   -6367.7802    4.2913663    4.2913663    4.2913663   -6367.7802   -10680.376   -5609.6537   -2813.3112    7641.7797    2884.9919    4041.0486    79.029051 
   90700    370.64478   -122.23978   0.33536718   -121.90442     741.0772    4.2915874    4.2915874    4.2915874     741.0772    4552.9261    3271.8738   -5601.5683    4018.6916   -1352.8545   -2352.8625    79.041265 
   90800     437.8494   -122.30068   0.39617534   -121.90451   -5993.3455    4.2900509    4.2900509    4.2900509   -5993.3455   -10735.429    7344.9091   -14589.517    97.852276   -2963.7231    -6051.624    78.956399 
   90900    261.59518   -122.14166   0.23669681   -121.90496    9516.3612    4.2924064    4.2924064    4.2924064    9516.3612    4932.2122    28529.071   -4912.1999   -1238.2797   -1579.4833    -6690.809    79.086528 
   91000    492.09987   -122.34736    0.4452623    -121.9021   -2950.3015    4.2920407    4.2920407    4.2920407   -2950.3015   -15257.015    19609.723   -13203.613   -3017.8321   -996.44051   -478.88495    79.066313 
   91100      282.518   -122.16009   0.25562823   -121.90446    2888.4622    4.2878151    4.2878151    4.2878151    2888.4622   -1731.3481    13457.063   -3060.3286    10979.703    1800.0955   -2208.2749    78.833016 
   91200     362.8076    -122.2333   0.32827594   -121.90502   -6481.0799    4.2914208    4.2914208    4.2914208   -6481.0799   -3264.6254   -10100.631   -6077.9834    1353.4899   -4072.2804   -8806.1688     79.03206 
   91300    462.70661   -122.32308   0.41866666   -121.90441   -3959.6525     4.293095     4.293095     4.293095   -3959.6525   -7225.9178    9652.7587   -14305.798    961.34692    -3579.851   -202.22805    79.124594 
   91400    502.12431   -122.35794   0.45433263   -121.90361    5506.7633    4.2857717    4.2857717    4.2857717    5506.7633    6849.7107    6153.8393      3516.74    2530.6019    3232.1148    2810.0782    78.720362 
   91500    398.90719   -122.26646   0.36093961   -121.90552    1157.2117     4.291939     4.291939     4.291939    1157.2117   -10719.899     22266.93   -8075.3956    3488.3867   -1247.7135    4178.7071    79.060695 
   91600    300.35822    -122.1785   0.27177043   -121.90673    265.11437    4.2915876    4.2915876    4.2915876    265.11437    372.35988    11105.066   -10682.083    2630.7648    -932.9745   -5961.0069    79.041274 
   91700    394.58059    -122.2625   0.35702481   -121.90548   -192.02979     4.284649     4.284649     4.284649   -192.02979   -7511.3635    6951.3835   -16.109385    687.21428   -4104.3012   -6210.4606    78.658518 
   91800    494.33191   -122.35126    0.4472819   -121.90398   -4766.4639    4.2928209    4.2928209    4.2928209   -4766.4639    5314.1673    -12369.98    -7243.579   -3580.8056    -3665.402   -789.18332     79.10944 
   91900    445.85918   -122.30947   0.40342276   -121.90604   -4271.2044     4.291751     4.291751     4.291751   -4271.2044   -19636.571   -1888.6356     8711.593    8027.6295    4574.8531      4632.64    79.050304 
   92000    284.49141    -122.1647   0.25741381   -121.90729    4892.9544     4.285197     4.285197     4.285197    4892.9544    1243.5397    10788.707    2646.6169    7564.0197   -3704.6984    154.73341      78.6887 
   92100    344.72246   -122.21823   0.31191212   -121.90632   -3730.3503    4.2935966    4.2935966    4.2935966   -3730.3503   -15840.089    16731.494   -12082.456   -1397.3797    -714.2231   -3673.3239    79.152334 
   92200    343.01006   -122.21551   0.31036271   -121.90515    5066.1475    4.2896665    4.2896665    4.2896665    5066.1475    4961.1504    13534.175   -3296.8831   -1078.9394    880.78646   -957.58521    78.935176 
   92300    531.21504   -122.38475   0.48065453   -121.90409   -4395.6542    4.2880457    4.2880457    4.2880457   -4395.6542   -8816.9233    301.27999   -4671.3193   -8503.7359    -761.1986    944.47692    78.845738 
   92400    416.36075   -122.28133   0.37673196    -121.9046   -8850.3633    4.2956531    4.2956531    4.2956531   -8850.3633   -6778.0757   -8676.4556   -11096.558    4585.1249    2154.8595   -760.13485    79.266122 
   92500    396.11692   -122.26363   0.35841492   -121.90521   -2050.0741    4.2877958    4.2877958    4.2877958   -2050.0741    6018.8932    4810.4074   -16979.523    4451.6857     -4810.88   -9091.4295    78.831954 
   92600    407.55457   -122.27432   0.36876394   -121.90555   -626.02323    4.2917258    4.2917258    4.2917258   -626.02323   -5151.1606    16879.242   -13606.151    979.66974   -515.96461   -5326.2353    79.048911 
   92700    299.36863   -122.17574   0.27087503   -121.90487    9982.7644    4.2938428    4.2938428    4.2938428    9982.7644     4944.777    26408.676   -1405.1599    671.07041     1334.512    3247.5838     79.16595 
   92800    450.47207   -122.31083    0.4075966   -121.90323   -1307.5837     4.290349     4.290349     4.290349   -1307.5837   -12221.485    22179.331   -13880.597   -2334.9444   -3673.9754    5332.7249    78.972858 
   92900    338.71049   -122.21037   0.30647237    -121.9039    3342.1269    4.2904253    4.2904253    4.2904253    3342.1269     5806.102    2502.7656    1717.5132   -1352.7676   -46.082417    581.07029    78.977075 
   93000     546.0354   -122.39625   0.49406431   -121.90219   -12339.908    4.2958409    4.2958409    4.2958409   -12339.908   -13500.574    -14258.46   -9260.6884   -2863.4201   -3712.5829   -6202.9812    79.276517 
   93100    458.59303   -122.31716   0.41494461   -121.90221   -678.05804    4.2892668    4.2892668    4.2892668   -678.05804    6140.2566   -3230.3868    -4944.044   -2626.4806    1374.1209   -3737.7682    78.913113 
   93200    345.56318   -122.21668   0.31267282     -121.904     1528.529    4.2904442    4.2904442    4.2904442     1528.529    -17192.74    21977.995   -199.66792    3560.4919    3361.1173   -127.06456    78.978114 
   93300    254.34072   -122.13554   0.23013283   -121.90541    3581.2062    4.2948218    4.2948218    4.2948218    3581.2062   -1617.0053    31742.242   -19381.618     7497.215   -4885.3968   -3458.1272    79.220112 
   93400    359.75156   -122.22933   0.32551077   -121.90382    1284.9519    4.2918585    4.2918585    4.2918585    1284.9519   -1277.2419    21906.753   -16774.656    1492.4054    2864.9761   -5275.3697    79.056243 
   93500    472.30568   -122.33104    0.4273521   -121.90368   -3331.5352    4.2891264    4.2891264    4.2891264   -3331.5352    3943.1466   -1413.4237   -12524.328    193.62011   -566.65188   -4899.4444    78.905365 
   93600    496.62464   -122.35368   0.44935641   -121.90433   -12045.061    4.2951809    4.2951809    4.2951809   -12045.061   -7705.8327   -11042.237   -17387.112   -3656.4902    -3641.103    5118.4059    79.239981 
   93700    443.70003   -122.30593   0.40146911   -121.90446   -5765.6299     4.292442     4.292442     4.292442   -5765.6299   -11987.073    5057.9714   -10367.788    1114.4059    -921.3132   -803.52738    79.088496 
   93800    354.21782   -122.22658   0.32050372   -121.90608    5966.4325    4.2904478    4.2904478    4.2904478    5966.4325     6264.052    25394.784   -13759.538    203.29555   -4076.5628   -1853.6888    78.978313 
   93900    465.96107   -122.32717   0.42161137   -121.90556   -461.12537    4.2914286    4.2914286    4.2914286   -461.12537   -8115.2399    20363.328   -13631.464    338.67888    2661.6116   -3677.7216    79.032489 
   94000    297.36568   -122.17639   0.26906272   -121.90733    5435.5967    4.2921685    4.2921685    4.2921685    5435.5967    12891.659    4921.7259   -1506.5946    4251.3564   -1871.9343    514.59454    79.073377 
   94100    413.48343   -122.28122    0.3741285   -121.90709   -7449.1092    4.2918167    4.2918167    4.2918167   -7449.1092    7679.9394   -12513.367     -17513.9    4934.2263   -3180.8371    1734.4231    79.053938 
   94200    440.70595   -122.30537   0.39876001   -121.90661   -882.05985    4.2873647    4.2873647    4.2873647   -882.05985    7755.2853   -2735.8803   -7665.5845   -171.42858   -402.29835   -1338.2121     78.80818 
   94300    440.91415   -122.30446   0.39894838   -121.90551   -4888.0214    4.2972338    4.2972338    4.2972338   -4888.0214   -3198.3842    419.21504   -11884.895   -8401.3198    213.61114   -580.45116    79.353657 
   94400     380.5707   -122.24981   0.34434837   -121.90546    1430.3692    4.2883722    4.2883722    4.2883722    1430.3692   -10973.382    26914.941   -11650.451    894.38234    1637.6381    519.40371    78.863751 
   94500    341.91855   -122.21715   0.30937509   -121.90777    492.91813    4.2892973    4.2892973    4.2892973    492.91813    6404.1296    8849.7606   -13775.136    3843.6424    -6205.087    4870.8149      78.9148 
   94600    326.84199   -122.20328    0.2957335   -121.90755    4819.6991    4.2949981    4.2949981    4.2949981    4819.6991     28627.92   -2309.5001   -11859.323    8164.7103    25.424582   -127.90074    79.229865 
   94700    508.29431   -122.36393   0.45991537   -121.90402   -396.22417    4.2916009    4.2916009    4.2916009   -396.22417     30184.05   -13125.576   -18247.146   -217.07717   -2279.7234   -1439.1729    79.042009 
   94800      409.519   -122.27584    0.3705414    -121.9053    2055.9894    4.2874717    4.2874717    4.2874717    2055.9894    16041.496   -2185.7314    -7687.796   -7262.5048    1448.3838   -546.22416    78.814078 
   94900    487.39762   -122.34799   0.44100761   -121.90699   -16162.707    4.2955741    4.2955741    4.2955741   -16162.707   -13319.384   -16545.049   -18623.688   -4656.7158   -1604.9046    3942.3122    79.261747 
   95000     425.2029   -122.29213   0.38473252   -121.90739   -8599.6766     4.292837     4.292837     4.292837   -8599.6766    4621.3969   -12688.386   -17732.041    2284.3175   -2967.9828    3867.7179    79.110331 
   95100    250.93455   -122.13463   0.22705086   -121.90758    10051.467    4.2886743    4.2886743    4.2886743    10051.467    40479.874    2127.2549   -12452.729    8192.3556     5187.321   -6811.5464    78.880415 
   95200     418.3389   -122.28514   0.37852183   -121.90662    3468.6264    4.2907645    4.2907645    4.2907645    3468.6264    34945.854   -4259.5132   -20280.461    6033.1248   -1920.2703   -3058.9964    78.995805 
   95300    365.59095   -122.23741   0.33079438   -121.90661   -3196.6272    4.2963051    4.2963051    4.2963051   -3196.6272    2972.4546     4.252985   -12566.589    6749.7555    3624.3893      2407.41    79.302223 
   95400    345.64584   -122.21893   0.31274762   -121.90618    2583.3225    4.2870332    4.2870332    4.2870332    2583.3225    6819.3133    3402.9679   -2472.3138    1335.2563   -3929.8217   -8.4668208      78.7899 
   95500    522.63261    -122.3783   0.47288897   -121.90541   -9718.4535    4.2921399    4.2921399    4.2921399   -9718.4535   -2450.2244   -10149.514   -16555.622   -6661.6382    1946.1267   -3660.4154    79.071796 
   95600    351.89135    -122.2237   0.31839869    -121.9053    8279.5813    4.2920577    4.2920577    4.2920577    8279.5813    25677.817   -2017.0831    1178.0104   -3167.9526   -9.8657922   -2599.4308    79.067253 
   95700    439.46931   -122.30152   0.39764107   -121.90387    2904.3726    4.2914446    4.2914446    4.2914446    2904.3726    28465.252   -12457.413    -7294.721   -2722.3804   -5234.3868    4689.6379    79.033374 
   95800    443.27231   -122.30568    0.4010821    -121.9046   -2806.4138    4.2903461    4.2903461    4.2903461   -2806.4138    13353.852   -8484.6555   -13288.438      7031.26   -1997.0554    348.27787    78.972702 
   95900    329.81859   -122.20445   0.29842679   -121.90603   -394.44937    4.2907197    4.2907197    4.2907197   -394.44937    6500.0126   -6453.4946   -1229.8661    1249.7712   -2019.9712   -3920.4439    78.993333 
   96000    506.14273   -122.36311   0.45796858   -121.90515   -7407.8431    4.2934389    4.2934389    4.2934389   -7407.8431   -11008.515    1668.0992   -12883.114    2452.5348      8047.06    461.94384     79.14361 
   96100     355.2992   -122.22722   0.32148219   -121.90574    6030.7704    4.2918548    4.2918548    4.2918548    6030.7704    27760.693      7474.14   -17142.522   -7228.8961   -1350.7778    3558.8034    79.056041 
   96200    309.91803   -122.18665   0.28042035   -121.90623    12038.257    4.2866242    4.2866242    4.2866242    12038.257    40701.938    4415.5608   -9002.7278   -6786.9195   -814.52531    1948.6372    78.767348 
   96300    358.49258   -122.23245   0.32437162   -121.90807   -2984.2715    4.2968152    4.2968152    4.2968152   -2984.2715    21596.325   -6454.9355   -24094.204   -5135.1193   -3495.2909   -6499.2879    79.330469 
   96400    402.61046    -122.2696    0.3642904   -121.90531   -3964.9212    4.2912255    4.2912255    4.2912255   -3964.9212     4656.588    2687.7104   -19239.062   -2246.5969     2742.014   -4471.7468     79.02127 
   96500    465.07329    -122.3261   0.42080808   -121.90529   -3290.8066    4.2897546    4.2897546    4.2897546   -3290.8066    1702.4951     2808.047   -14382.962    5222.0214    1653.8856    296.95474    78.940042 
   96600    499.43217   -122.35667   0.45189673   -121.90477   -8288.4588    4.2965026    4.2965026    4.2965026   -8288.4588     12285.55    -12392.55   -24758.377     4039.251   -3421.1386   -3743.0908    79.313154 
   96700    350.33254   -122.22255   0.31698824   -121.90557    1204.9135    4.2905183    4.2905183    4.2905183    1204.9135     37816.08   -19959.532   -14241.807    1380.7271    4738.2014   -4915.7422    78.982208 
   96800    290.44306   -122.16981   0.26279898   -121.90701   -96.923157    4.2922674    4.2922674    4.2922674   -96.923157    17667.526   -6488.0796   -11470.216   -6869.0449    5601.6989    -2359.657    79.078841 
   96900    526.37146   -122.38114   0.47627196   -121.90487   -8081.8217    4.2927024    4.2927024    4.2927024   -8081.8217   -6388.0925   -3857.6842   -13999.688   -5490.8863    6704.9836    2667.0059    79.102891 
   97000    372.44355   -122.24221   0.33699475   -121.90521    3300.1815    4.2948156    4.2948156    4.2948156    3300.1815    2317.9369    11256.113   -3673.5059   -2672.5028   -2309.2771     4359.211    79.219769 
   97100    429.23842   -122.29263   0.38838395   -121.90425    4365.7241    4.2887533    4.2887533    4.2887533    4365.7241    8906.2363    7769.4324   -3578.4963     5057.889   -2648.2424   -2145.7713    78.884774 
   97200    295.86058   -122.17472   0.26770087   -121.90702    2621.6579    4.2927216    4.2927216    4.2927216    2621.6579    22415.611   -3932.8393   -10617.798     7381.842   -3249.7156    -61.77715    79.103949 
   97300    196.06687   -122.08536   0.17740543   -121.90795    10214.812    4.2891057    4.2891057    4.2891057    10214.812    30550.214   -2112.6401    2206.8615    4092.3345   -1607.6382    4415.0109    78.904222 
   97400    533.45233   -122.38822   0.48267888   -121.90555   -7619.3147    4.2922778    4.2922778    4.2922778   -7619.3147    3022.5606   -17989.012   -7891.4929     -2704.89   -1458.2584    3517.9267    79.079417 
   97500    516.79419   -122.37273   0.46760624   -121.90513   -6963.5313    4.2915498    4.2915498    4.2915498   -6963.5313    5684.9705   -16845.322   -9730.2422   -1253.4771    740.42721   -6551.7239    79.039188 
   97600    409.67789   -122.27774   0.37068516   -121.90705    842.04564    4.2850776    4.2850776    4.2850776    842.04564    17615.603   -16361.616    1272.1491   -861.66074    5288.6637   -7032.0993    78.682125 
   97700    375.40952   -122.24722   0.33967843   -121.90754   -5246.7677    4.2968413    4.2968413    4.2968413   -5246.7677    22852.684   -17263.912   -21329.075   -752.77062    2611.0541    610.36781    79.331915 
   97800    343.06974   -122.21613   0.31041671   -121.90572    6309.0266    4.2895091    4.2895091    4.2895091    6309.0266    39697.108   -7228.3566   -13541.671     960.7054    768.69157   -199.91566     78.92649 
   97900     580.2485    -122.4289   0.52502104   -121.90388   -2313.8566    4.2863773    4.2863773    4.2863773   -2313.8566    10821.721   -5811.3261   -11951.964     3463.071   -5841.8533   -4817.3704     78.75374 
   98000     473.5696   -122.33225   0.42849573   -121.90375   -8069.4032    4.2974466    4.2974466    4.2974466   -8069.4032    698.26287   -3047.5723     -21858.9    2270.4889   -2844.9782   -4731.2587    79.365445 
   98100    305.37691    -122.1836   0.27631145   -121.90729    7479.6599     4.286925     4.286925     4.286925    7479.6599    30247.509    881.43068   -8689.9604   -2450.4025    3120.1559    2433.9073    78.783935 
   98200    358.20477   -122.23202    0.3241112   -121.90791    4044.3122    4.2911265    4.2911265    4.2911265    4044.3122     26979.94   -5210.6233     -9636.38   -8866.2181    3691.5406    5065.1734    79.015804 
   98300    334.75544   -122.20971   0.30289376   -121.90681    2669.3462    4.2965765    4.2965765    4.2965765    2669.3462    29571.478   -12482.897   -9080.5425   -3326.8066    7668.8197    -3979.229    79.317248 
   98400    387.98851   -122.25612   0.35106016   -121.90506    3282.0482    4.2869635    4.2869635    4.2869635    3282.0482    16689.386   -11224.633    4381.3916    1309.9203    1138.4437   -4574.3708    78.786057 
   98500    398.40517    -122.2671   0.36048537   -121.90662    4206.2198    4.2892155    4.2892155    4.2892155    4206.2198    21986.159   -13177.359    3809.8597    4344.1755    419.63148    3001.2091     78.91028 
   98600    469.91588   -122.33285   0.42518976   -121.90766   -12714.122    4.2976943    4.2976943    4.2976943   -12714.122   -4326.3197   -23344.543   -10471.502    922.51158   -2412.7283    3454.4771     79.37917 
   98700    228.79971   -122.11522   0.20702278    -121.9082    9771.6679    4.2810815    4.2810815    4.2810815    9771.6679    45587.729   -10175.889   -6096.8364   -4471.5033    288.86094   -9771.5891    78.462199 
   98800    503.30728   -122.36176     0.455403   -121.90636   -14291.324    4.2943982    4.2943982    4.2943982   -14291.324    7574.5577    -28109.32   -22339.208    -1407.662   -4770.3858    -12322.11     79.19667 
   98900    433.58391   -122.29611   0.39231583   -121.90379    -2660.365     4.293342     4.293342     4.293342    -2660.365    17940.968   -9962.2974   -15959.766    -1670.966    1791.1497   -140.47702    79.138253 
   99000    443.24564   -122.30632   0.40105797   -121.90526   -2177.0225    4.2882649    4.2882649    4.2882649   -2177.0225    3465.1083    671.34939   -10667.525   -500.28324    4863.6871   -1253.3955    78.857831 
   99100    374.78514   -122.24802   0.33911347   -121.90891   -2259.0167    4.2887012    4.2887012    4.2887012   -2259.0167    28117.992   -13271.808   -21623.234   -1948.9914    3272.9423   -7541.8966    78.881902 
   99200    338.50352    -122.2149    0.3062851   -121.90861    4563.1981    4.2906463    4.2906463    4.2906463    4563.1981    22691.296    3613.8452   -12615.547    3396.8151   -1699.7153   -7182.8567    78.989278 
   99300    407.70057   -122.27474   0.36889604   -121.90585    5032.8477    4.2902637    4.2902637    4.2902637    5032.8477     26359.03    -802.2024   -10458.284    1434.1752   -6933.4138     1922.836    78.968149 
   99400    532.76454   -122.38926   0.48205655   -121.90721   -4739.4509    4.2853427    4.2853427    4.2853427   -4739.4509    3771.6824   -7258.0222   -10732.013    1565.8362    2524.3238    6820.3187     78.69673 
   99500    342.15808   -122.22208   0.30959182   -121.91249    419.70719    4.2881601    4.2881601    4.2881601    419.70719    10172.152   -9612.5117    699.48113     -3879.28    3514.5203    -4465.383     78.85205 
   99600     326.0939   -122.20641   0.29505662   -121.91135   -1005.9782    4.2957833    4.2957833    4.2957833   -1005.9782    32968.932   -30399.323   -5587.5431   -1952.0006    2391.8757   -8068.9433     79.27333 
   99700       519.82   -122.37658   0.47034406   -121.90624    6553.7685    4.2822435    4.2822435    4.2822435    6553.7685    27492.884   -4128.8232   -3702.7549    739.32489   -3662.3654   -1517.3925    78.526109 
   99800    451.33125   -122.31538     0.408374   -121.90701    4767.0059     4.289459     4.289459     4.289459    4767.0059    19552.393   -10597.124    5345.7488    1022.0269   -1409.2979    2559.0964    78.923724 
   99900    439.21247    -122.3037   0.39740867   -121.90629   -14120.998     4.296783     4.296783     4.296783   -14120.998   -900.98868   -18211.841   -23250.165    3498.7033   -13.999057   -6652.1771    79.328684 
  100000    231.13573   -122.11804   0.20913647    -121.9089    1094.8764    4.2811877    4.2811877    4.2811877    1094.8764    26922.053   -12416.216   -11221.208   -7531.2892    2551.8218   -13002.608    78.468041 
Loop time of 22.3622 on 1 procs for 100000 steps with 8 atoms

Pair  time (%) = 7.20187 (32.2056)
Kspce time (%) = 5.35817 (23.9609)
Neigh time (%) = 0 (0)
Comm  time (%) = 1.07897 (4.82499)
Outpt time (%) = 0.0263159 (0.11768)
Other time (%) = 8.69686 (38.8909)

Nlocal:    8 ave 8 max 8 min
Histogram: 1 0 0 0 0 0 0 0 0 0
Nghost:    2189 ave 2189 max 2189 min
Histogram: 1 0 0 0 0 0 0 0 0 0
Neighs:    2344 ave 2344 max 2344 min
Histogram: 1 0 0 0 0 0 0 0 0 0

Total # of neighbors = 2344
Ave neighs/atom = 293
Neighbor list builds = 0
Dangerous builds = 0
unfix 20
unfix 21
print "seeds:8034958"
seeds:8034958
