LAMMPS (10 Feb 2015)
# ---- initialize simulations
clear
units metal
dimension 3
boundary p p p
atom_style charge
atom_modify map array
# ---- create atoms
read_data /Users/eugeneragasa/pyflamestk_git/pypospack/tests/tests_integration/workflow/WorkflowLammpsThermalExpansion/param_5091/MgO_NaCl_unit.npt.T1100/lammps.structure
  triclinic box = (0 0 0) to (4.2565 4.2565 4.2565) with tilt (0 0 0)
  1 by 1 by 1 MPI processor grid
  reading atoms ...
  8 atoms
# ---- define interatomic potential
include potential.mod
mass 1 24.305
mass 2 15.999

group Mg type 1
4 atoms in group Mg
group O type 2
4 atoms in group O

set group Mg charge 1.60395442224
  4 settings made for charge
set group O charge -1.60395442224
  4 settings made for charge

variable R_cut equal 10.0

pair_style buck/coul/long ${R_cut}
pair_style buck/coul/long 10
pair_coeff 1 1 0.0 0.5 0.0 ${R_cut}
pair_coeff 1 1 0.0 0.5 0.0 10
pair_coeff 1 2 1640.33364459 0.274285748818 0.0 ${R_cut}
pair_coeff 1 2 1640.33364459 0.274285748818 0.0 10
pair_coeff 2 2 138.503876614 0.167383398543 15.9463705464 ${R_cut}
pair_coeff 2 2 138.503876614 0.167383398543 15.9463705464 10

kspace_style pppm 1.0e-5

neighbor 1.0 bin
neigh_modify every 1 delay 0 check yes
# ---- define settings
compute eng all pe/atom
compute eatoms all reduce sum c_eng
# ---- run minimization
reset_timestep 0
fix 1 all box/relax iso 0.0 vmax 0.001
thermo 10
thermo_style custom step pe lx ly lz xy xz yz press pxx pyy pzz pxy pxz pyz c_eatoms
min_style cg
minimize 1e-25 1e-25 5000 10000
PPPM initialization ...
  G vector (1/distance) = 0.352384
  grid = 8 8 8
  stencil order = 5
  estimated absolute RMS force accuracy = 3.76636e-05
  estimated relative force accuracy = 2.6156e-06
  using double precision FFTs
  3d grid and FFT values/proc = 3375 512
Neighbor list info ...
  1 neighbor list requests
  update every 1 steps, delay 0 steps, check yes
  master list distance cutoff = 11
Memory usage per processor = 4.06549 Mbytes
Step PotEng Lx Ly Lz Xy Xz Yz Press Pxx Pyy Pzz Pxy Pxz Pyz eatoms 
       0   -105.40733       4.2565       4.2565       4.2565            0            0            0    42357.047    42357.047    42357.047    42357.047 -5.4591187e-11 1.2697943e-10 -3.1158894e-11   -105.40733 
      10   -105.43209    4.2922445    4.2922445    4.2922445            0            0            0   -4.9211524   -4.9211524   -4.9211524   -4.9211524 1.7090498e-11 -3.1779622e-11 -1.1443831e-10   -105.43209 
      12   -105.43209    4.2922402    4.2922402    4.2922402            0            0            0  -0.19512063  -0.19512063  -0.19512063  -0.19512063 3.2638439e-11 -8.1058727e-11 1.6032595e-10   -105.43209 
Loop time of 0.00960803 on 1 procs for 12 steps with 8 atoms

Minimization stats:
  Stopping criterion = linesearch alpha is zero
  Energy initial, next-to-last, final = 
        -105.407331285      -105.43208818      -105.43208818
  Force two-norm initial, final = 6.11638 6.94804e-05
  Force max component initial, final = 6.11638 2.86507e-05
  Final line search alpha, max atom move = 0.5 1.43253e-05
  Iterations, force evaluations = 12 25

Pair  time (%) = 0.00259042 (26.961)
Kspce time (%) = 0.00153637 (15.9905)
Neigh time (%) = 0 (0)
Comm  time (%) = 0.000306606 (3.19115)
Outpt time (%) = 1.5974e-05 (0.166257)
Other time (%) = 0.00515866 (53.6912)

Nlocal:    8 ave 8 max 8 min
Histogram: 1 0 0 0 0 0 0 0 0 0
Nghost:    2189 ave 2189 max 2189 min
Histogram: 1 0 0 0 0 0 0 0 0 0
Neighs:    2344 ave 2344 max 2344 min
Histogram: 1 0 0 0 0 0 0 0 0 0

Total # of neighbors = 2344
Ave neighs/atom = 293
Neighbor list builds = 0
Dangerous builds = 0
unfix 1
# ---- define output variables ----
variable natoms equal "count(all)"
variable tot_energy equal "c_eatoms"
variable length_x equal "lx"
variable length_y equal "ly"
variable length_z equal "lz"
variable tilt_xy equal "xy"
variable tilt_xz equal "xz"
variable tilt_yz equal "yz"
variable tot_press equal "press"
variable press_xx equal "pxx"
variable press_yy equal "pyy"
variable press_zz equal "pzz"
variable press_xy equal "pxy"
variable press_xz equal "pxz"
variable press_yz equal "pyz"

# ---- output ----
print "pypospack:output_section:begin"
pypospack:output_section:begin
print "tot_energy = ${tot_energy}"
tot_energy = -105.432088180201
print "num_atoms = ${natoms}"
num_atoms = 8
print "xx = ${length_x}"
xx = 4.29224022422512
print "yy = ${length_y}"
yy = 4.29224022422512
print "zz = ${length_z}"
zz = 4.29224022422512
print "xy = ${tilt_xy}"
xy = 0
print "xz = ${tilt_xz}"
xz = 0
print "yz = ${tilt_yz}"
yz = 0
print "tot_press = ${tot_press}"
tot_press = -0.195120630166908
print "pxx = ${press_xx}"
pxx = -0.195120630011552
print "pyy = ${press_yy}"
pyy = -0.195120630547228
print "pzz = ${press_zz}"
pzz = -0.195120629941943
print "pxy = ${press_xy}"
pxy = 3.26384388476247e-11
print "pxz = ${press_xz}"
pxz = -8.10587270505021e-11
print "pyz = ${press_yz}"
pyz = 1.60325951029016e-10
print "pypospack:output_section:done"
pypospack:output_section:done
print "pypospack:lammps_sim:done"
pypospack:lammps_sim:done
#------------------------------------------------------------------------------
# RUN THERMOSTAT
# running using an NPT Nose-Hoover style thermostat
#------------------------------------------------------------------------------
variable tempdamp equal 0.1
variable pressdamp equal 1.0
# set initial velocities
velocity all create 1100 5250867 mom yes dist gaussian loop all
# fix for Nose-Hoover style thermostat
fix 20 all npt temp 1100 1100 0.1 aniso 0.0 0.0 1.0 drag 1.0 couple xyz
variable boxx equal lx
variable boxy equal ly
variable boxz equal lz
variable boxp equal press
variable boxt equal temp
# calculate averages every 10000 steps
reset_timestep 0
fix 21 all ave/time 10 10 100 v_boxx v_boxy v_boxz v_boxp v_boxt file lattice.out
thermo_style custom step temp pe ke etotal press lx ly lz press pxx pyy pzz pxy pxz pyz vol
thermo_modify flush yes
thermo 100
run 100000
PPPM initialization ...
  G vector (1/distance) = 0.352034
  grid = 8 8 8
  stencil order = 5
  estimated absolute RMS force accuracy = 3.82705e-05
  estimated relative force accuracy = 2.65774e-06
  using double precision FFTs
  3d grid and FFT values/proc = 3375 512
Memory usage per processor = 3.06549 Mbytes
Step Temp PotEng KinEng TotEng Press Lx Ly Lz Press Pxx Pyy Pzz Pxy Pxz Pyz Volume 
       0         1100   -105.43209   0.99530312   -104.43679    13442.526    4.2922402    4.2922402    4.2922402    13442.526    16408.285      11380.9    12538.393     7929.846     4898.826   -2757.2989    79.077342 
     100    365.76078   -104.63619   0.33094804   -104.30525   -860.13509    4.3110161    4.3110161    4.3110161   -860.13509    13250.046    2298.7342   -18129.185   -2697.0796    3249.1433   -5621.5507    80.119631 
     200    487.25565   -104.46249   0.44087915   -104.02161   -1369.0927    4.3266611    4.3266611    4.3266611   -1369.0927    40681.792   -11849.858   -32939.212    300.15269    6885.6983   -500.39806    80.995079 
     300    1264.0087   -104.94317    1.1437017   -103.79947     9007.503    4.3126386    4.3126386    4.3126386     9007.503    8626.2553    3511.3802    14884.873   -8344.1558   -4440.9228   -315.18103    80.210124 
     400    1000.3144   -104.53068   0.90510546   -103.62557   -2685.1139    4.3109875    4.3109875    4.3109875   -2685.1139    11367.849   -10751.731   -8671.4598   -4167.8873    13707.009   -4091.3386    80.118037 
     500     1098.736   -104.49072   0.99415944   -103.49656   -2712.5094    4.3279528    4.3279528    4.3279528   -2712.5094    28783.767   -10579.078   -26342.217   -10492.406   -489.44423    8460.0203    81.067645 
     600    1076.9875   -104.41618   0.97448094    -103.4417   -4055.2688    4.3229364    4.3229364    4.3229364   -4055.2688    26506.267   -4225.0859   -34446.987    11980.979    6036.2677   -11354.197    80.786082 
     700    892.86967   -104.24398   0.80788724    -103.4361   -14461.087    4.3156331    4.3156331    4.3156331   -14461.087   -6212.7663   -29951.725   -7218.7691   -4124.9448    14359.732    4024.7794    80.377326 
     800    1348.8776   -104.65503    1.2204928   -103.43454    19086.864    4.3111016    4.3111016    4.3111016    19086.864    36471.684   -162.66992    20951.578   -3466.2494   -7490.6461    332.97281    80.124397 
     900    1220.9076   -104.54398    1.1047029   -103.43928   -15003.701    4.3214508    4.3214508    4.3214508   -15003.701     9074.077   -7640.1256   -46445.053   -2825.4095    19637.725   -13292.328    80.702824 
    1000    730.64263   -104.10154   0.66110081   -103.44044    508.24395    4.3161796    4.3161796    4.3161796    508.24395    22938.311   -16006.347    -5407.232   -1567.3146      -868.68    7668.5285    80.407861 
    1100    1406.0859   -104.70306    1.2722561    -103.4308    12398.847    4.3086939    4.3086939    4.3086939    12398.847    29264.885   -3755.7273    11687.382   -682.09751    1438.8213   -3431.6875    79.990228 
    1200    924.16306   -104.27764   0.83620216   -103.44144   -7479.7714    4.3142208    4.3142208    4.3142208   -7479.7714   -4025.6551   -25060.863    6647.2043    7513.8002    10870.629    -1821.214    80.298441 
    1300    996.88673   -104.34563   0.90200406   -103.44363   -20161.748    4.3226924    4.3226924    4.3226924   -20161.748    7363.9467   -11595.801   -56253.388   -8745.0808   -15022.485    11390.836    80.772404 
    1400    1477.1739   -104.76908     1.336578    -103.4325     2194.912    4.3140884    4.3140884    4.3140884     2194.912    12953.213   -1372.4648   -4996.0123     7813.139   -1088.1574   -814.25436    80.291047 
    1500    871.31607    -104.2295   0.78838509   -103.44112   -17879.371    4.3155108    4.3155108    4.3155108   -17879.371   -26788.746   -26067.612   -781.75422   -11704.286    8448.9867    5496.2998    80.370491 
    1600    894.98508   -104.24818    0.8098013   -103.43838    15364.571    4.3160545    4.3160545    4.3160545    15364.571    44752.742    465.36989    875.60048   -4177.3895   -9642.5472    6296.8394    80.400874 
    1700    1382.3358   -104.68547    1.2507665    -103.4347   -1158.0208    4.3221066    4.3221066    4.3221066   -1158.0208    10956.758    2358.9082   -16789.729    -4465.574    6521.7016   -6758.8108    80.739569 
    1800     965.8748   -104.31597   0.87394381   -103.44203   -9911.5159    4.3190922    4.3190922    4.3190922   -9911.5159    16290.104   -26441.753   -19582.899   -8345.1789     6805.018    12683.571    80.570753 
    1900    1120.6891     -104.451     1.014023   -103.43698   -172.54478    4.3142633    4.3142633    4.3142633   -172.54478    13986.874   -12023.887   -2480.6213    505.35153   -9561.3141   -9039.0921    80.300815 
    2000    1166.0749   -104.49226    1.0550891   -103.43717   -8951.4242      4.32075      4.32075      4.32075   -8951.4242   -2337.9041   -13744.556   -10771.812    67.704448    2591.8257    8105.1113    80.663566 
    2100    771.63774   -104.14427   0.69819404   -103.44607   -6316.7594    4.3210691    4.3210691    4.3210691   -6316.7594    25198.775   -1489.4501   -42659.603    2163.4589   -18765.091    36.557493    80.681436 
    2200     1488.704   -104.78569    1.3470106   -103.43868    17559.873    4.3168531    4.3168531    4.3168531    17559.873    49708.377    6656.6123   -3685.3706    1947.1938   -17207.242    33.841213     80.44551 
    2300      1304.45   -104.61873    1.1802937   -103.43844    445.45109    4.3199143    4.3199143    4.3199143    445.45109    1087.0595   -10529.331    10778.625    -13992.07    498.24142    3895.1369    80.616767 
    2400     558.1885   -103.94829   0.50506069   -103.44323   -18684.685    4.3197754    4.3197754    4.3197754   -18684.685   -31420.307    9000.6599   -33634.408   -161.77389   -13364.203   -10170.572    80.608993 
    2500     1180.224   -104.50191    1.0678915   -103.43402    10021.455    4.3180673    4.3180673    4.3180673    10021.455    44204.022    2469.0036   -16608.661   -6671.3324     6108.272    2607.3536     80.51341 
    2600    1584.8954   -104.86952    1.4340467   -103.43547    -5507.802    4.3145054    4.3145054    4.3145054    -5507.802    15447.332   -9829.0305   -22141.707   -697.68137    3762.1092   -10991.532    80.314329 
    2700    810.24972   -104.17515   0.73313097   -103.44202    7185.8264    4.3177298    4.3177298    4.3177298    7185.8264    31988.643   -4006.7653   -6424.3985    3388.7686   -9776.3927   -5267.8988    80.494531 
    2800    1159.1079   -104.48135    1.0487852   -103.43257   -12090.449     4.318067     4.318067     4.318067   -12090.449   -18483.765   -1069.8899   -16717.692    2219.7878    10979.808   -221.33752    80.513391 
    2900    823.75014   -104.18667   0.74534644   -103.44132    1451.9825    4.3145708    4.3145708    4.3145708    1451.9825    13344.361   -444.14329   -8544.2707   -4090.1292   -19349.706   -11932.669    80.317982 
    3000    1341.4245   -104.65578    1.2137491   -103.44203    12833.337    4.3192241    4.3192241    4.3192241    12833.337    58755.188    -545.0405   -19710.135    54.760723   -1273.1231    4928.7461    80.578133 
    3100    1331.0804   -104.64313    1.2043895   -103.43874      10151.5    4.3231455    4.3231455    4.3231455      10151.5    22216.835   -3834.3107    12071.976   -151.34201    7218.8454   -2300.4833    80.797805 
    3200    808.25299   -104.17011   0.73132429   -103.43879   -212.96543    4.3191721    4.3191721    4.3191721   -212.96543    40994.801    6204.6457   -47838.343    -2584.997   -16252.324   -6166.9582    80.575225 
    3300    789.69786   -104.15929   0.71453522   -103.44475   -9590.4331    4.3290017    4.3290017    4.3290017   -9590.4331    6285.9281   -15451.737    -19605.49    2501.9147    15962.999    7444.0006    81.126601 
    3400    1626.4169   -104.90711    1.4716162   -103.43549    10739.405    4.3210471    4.3210471    4.3210471    10739.405    39490.844   -11529.706     4257.076    9109.6398   -7000.7721   -4509.5201    80.680208 
    3500    1019.4615   -104.36963   0.92243023    -103.4472   -18428.306    4.3298277    4.3298277    4.3298277   -18428.306   -6516.6332   -11234.289   -37533.996   -1561.9122    13623.734    5067.3037    81.173046 
    3600    1129.5289   -104.46567    1.0220215   -103.44365   -545.85303    4.3248696    4.3248696    4.3248696   -545.85303    25822.567   -16273.468   -11186.658    745.90219    18185.789    2815.0069    80.894511 
    3700     1167.702   -104.50671    1.0565614   -103.45014    11602.449    4.3230577    4.3230577    4.3230577    11602.449    48173.763     -6966.54   -6399.8769   -2090.7197   -10672.365    296.03259    80.792882 
    3800    845.70836   -104.22125   0.76521469   -103.45604   -11317.964    4.3305079    4.3305079    4.3305079   -11317.964    12259.311   -10989.068   -35224.136   -1351.1082    11776.805    1897.5104    81.211306 
    3900    1336.3493   -104.65025    1.2091569   -103.44109     19002.59    4.3176987    4.3176987    4.3176987     19002.59    71611.479   -3779.9143   -10823.796    11782.658   -5107.2055   -182.24936    80.492794 
    4000    818.74807   -104.18614   0.74082046   -103.44532   -21990.012    4.3214519    4.3214519    4.3214519   -21990.012   -20163.983   -9345.2865   -36460.767   -3932.8157    7308.1644    5752.0476    80.702884 
    4100    1059.3071   -104.39903   0.95848336   -103.44055   -7337.6877    4.3191267    4.3191267    4.3191267   -7337.6877    3268.5146   -15466.427   -9815.1508    345.00874    10692.732   -944.50809    80.572686 
    4200    1464.4815   -104.75666    1.3250936   -103.43156    2697.2531    4.3227468    4.3227468    4.3227468    2697.2531    40612.195   -19870.701   -12649.734   -2015.6096   -7593.3537     425.6515    80.775449 
    4300    908.21812   -104.25905   0.82177484   -103.43728   -2152.9793    4.3146734    4.3146734    4.3146734   -2152.9793    3617.2238    23745.412   -33821.574   -3726.3663     26131.11     4789.363    80.323716 
    4400     1109.988   -104.43866    1.0043404   -103.43432    5686.3578     4.319633     4.319633     4.319633    5686.3578    31120.998   -23395.438    9333.5135    8507.5281    2470.4481    -5906.328     80.60102 
    4500     1074.362   -104.40602   0.97210532   -103.43391    7474.9488    4.3199484    4.3199484    4.3199484    7474.9488    45581.638   -18088.295   -5068.4969   -1172.4274    13803.347   -3788.8334    80.618677 
    4600    1182.2602   -104.50718    1.0697339   -103.43745   -8838.8319    4.3193369    4.3193369    4.3193369   -8838.8319   -10885.507    2479.7441   -18110.733    5957.1655    7268.2853   -504.65694    80.584448 
    4700     1214.746   -104.52944    1.0991277   -103.43031   -5391.2552     4.324762     4.324762     4.324762   -5391.2552    31910.812   -15203.661   -32880.917   -1285.9899    -9577.388   -16630.368    80.888472 
    4800    863.30172   -104.21539   0.78113354   -103.43426    7758.3092    4.3153192    4.3153192    4.3153192    7758.3092    39621.579   -5683.6081   -10663.043   -1522.7266    22794.823    6577.4596    80.359788 
    4900    1078.1393   -104.41249   0.97552306   -103.43696   -16247.431    4.3255211    4.3255211    4.3255211   -16247.431    1006.9086   -34094.026   -15655.175   -3735.8796    2.5474665   -12883.063    80.931077 
    5000    1416.3413   -104.71262    1.2815354   -103.43109   -2978.4512    4.3245846    4.3245846    4.3245846   -2978.4512    17680.383   -8450.5101   -18165.227    10059.442    8869.3109   -2029.5607    80.878517 
    5100    908.89107   -104.25751   0.82238374   -103.43513    8843.2845    4.3187263    4.3187263    4.3187263    8843.2845    20625.351    9791.1411    -3886.639    3244.1377    18153.685    1320.9916    80.550278 
    5200    1120.6739   -104.44841    1.0140093    -103.4344   -107.33841     4.319998     4.319998     4.319998   -107.33841    11950.632   -31578.438    19305.791    2849.7299    -8524.468   -16807.822    80.621458 
    5300    1229.3262   -104.54476    1.1123202   -103.43244    3155.3979    4.3247152    4.3247152    4.3247152    3155.3979    27949.262    -4910.568   -13572.501   -6104.4722     17462.36    5767.3397    80.885849 
    5400    691.08746   -104.06674   0.62531046   -103.44143   -1000.5766    4.3249993    4.3249993    4.3249993   -1000.5766    37172.643    3581.6358   -43756.008   -6707.1241   -616.34448   -15635.739    80.901787 
    5500    1377.2124   -104.68415    1.2461308   -103.43802    6626.7809    4.3197221    4.3197221    4.3197221    6626.7809    36718.497   -5147.4629   -11690.691    1805.7536   -1996.4587   -4812.5386     80.60601 
    5600    1248.1057   -104.57355    1.1293123   -103.44424   -12284.231    4.3320444    4.3320444    4.3320444   -12284.231    2340.3993   -35154.384   -4038.7093    5615.6344     3945.081   -7829.8995    81.297781 
    5700    1195.6898   -104.53184    1.0818853   -103.44995   -16104.038    4.3311157    4.3311157    4.3311157   -16104.038    5695.5591   -23310.977   -30696.695   -1052.1942   -5336.2903   -6985.6781    81.245509 
    5800    1163.2587   -104.49399    1.0525409   -103.44145    21932.626    4.3231429    4.3231429    4.3231429    21932.626    53274.967    3643.9762    8878.9336   -4379.6267    91.680388   -3128.8785    80.797658 
    5900    883.45218   -104.24213    0.7993661   -103.44276   -10558.768     4.324823     4.324823     4.324823   -10558.768     27160.64   -39628.532   -19208.412    -59.57412     8013.747   -11095.458    80.891898 
    6000     1310.197   -104.62105    1.1854938   -103.43555   -15720.398    4.3292484    4.3292484    4.3292484   -15720.398   -19967.031   -13423.168   -13770.996   -8026.5563   -23011.535     6840.543    81.140468 
    6100    1108.7882   -104.43902    1.0032549   -103.43577    10874.115    4.3201807    4.3201807    4.3201807    10874.115    44879.603    13756.751    -26014.01    -323.1583    9573.2304    -10091.72    80.631688 
    6200    880.03593   -104.23812     0.796275   -103.44185    8211.1181    4.3135905    4.3135905    4.3135905    8211.1181    47491.804     8970.913   -31829.363   -1023.2674   -17054.821    9178.5845    80.263251 
    6300    1385.8615   -104.68621    1.2539566   -103.43225    1568.3938    4.3272416    4.3272416    4.3272416    1568.3938   -1217.4474   -8201.6413     14124.27    7765.5572   -5143.6085   -26.765554    81.027686 
    6400    928.27298   -104.27037    0.8399209   -103.43045   -3636.5726    4.3247718    4.3247718    4.3247718   -3636.5726    13924.741   -9256.8311   -15577.627   -13.619881    3884.0966    535.55176    80.889024 
    6500    880.10925   -104.23095   0.79634134   -103.43461   -461.68677    4.3135874    4.3135874    4.3135874   -461.68677    6459.8631    7228.1312   -15073.055    7587.9328   -25352.169    6612.1465    80.263076 
    6600    1413.5405   -104.71287    1.2790012   -103.43387    7126.0719    4.3206349    4.3206349    4.3206349    7126.0719    29871.037   -14880.289    6387.4679   -4792.2384    10503.096   -4907.4013    80.657122 
    6700    1128.6788   -104.45725    1.0212523   -103.43599    -7573.285    4.3272898    4.3272898    4.3272898    -7573.285     32323.08   -29774.319   -25268.617   -389.88789   -9881.5887    10161.382     81.03039 
    6800    857.37394   -104.20286   0.77576996   -103.42709   -21622.429    4.3256462    4.3256462    4.3256462   -21622.429    -26151.07     3080.012   -41796.229   -12445.676    2216.7885    3255.0052    80.938094 
    6900     1098.287   -104.41028   0.99375319   -103.41653    10506.711    4.3120185    4.3120185    4.3120185    10506.711    6982.5321    9823.3861    14714.216   -928.49367    5944.3215    7370.5834    80.175531 
    7000     1275.978   -104.57965    1.1545317   -103.42511    -12338.14     4.323593     4.323593     4.323593    -12338.14    -16115.28   -8542.4584   -12356.682   -8210.4798   -10191.504    12852.369    80.822896 
    7100    1075.8668   -104.39219   0.97346688   -103.41872    6248.8311     4.326296     4.326296     4.326296    6248.8311   -6392.4404    12123.204     13015.73   -150.80304    12921.731   -207.29073     80.97458 
    7200    817.65621   -104.15923   0.73983252    -103.4194    5767.0862    4.3168845    4.3168845    4.3168845    5767.0862    8313.7005    13873.902   -4886.3444    3756.3561   -14521.795    10104.353    80.447263 
    7300    918.19918   -104.25503   0.83080591   -103.42422    9381.4798    4.3212762    4.3212762    4.3212762    9381.4798    29873.584    12276.925    -14006.07   -5028.2416    160.62123    731.57682    80.693039 
    7400    1721.1105   -104.97823     1.557297   -103.42094   -438.28375    4.3237723    4.3237723    4.3237723   -438.28375    25319.136   -13358.836   -13275.152     -702.081   -5232.5041   -1538.2205    80.832954 
    7500    670.84877   -104.03707   0.60699806   -103.43008   -7883.3854    4.3223803    4.3223803    4.3223803   -7883.3854    12315.906   -9176.4117   -26789.651    2583.2256   -13011.754    15651.041    80.754909 
    7600    942.70181    -104.2796   0.85297641   -103.42662   -6605.4844    4.3212797    4.3212797    4.3212797   -6605.4844    -30100.78    3517.7228    6766.6041   -3839.5136    6888.9287   -10126.031    80.693234 
    7700    1403.6967   -104.69712    1.2700943   -103.42702   -6477.6022    4.3239116    4.3239116    4.3239116   -6477.6022   -5978.2819   -6868.1533   -6586.3715    6090.2172   -410.45715     16103.75    80.840765 
    7800    1127.2202   -104.45405    1.0199326   -103.43412    5944.9149     4.323377     4.323377     4.323377    5944.9149   -9176.0404   -13138.634    40149.419   -3935.4649   -13883.001     1725.138    80.810783 
    7900    1064.3267   -104.39581   0.96302513   -103.43279    3333.1834    4.3239296    4.3239296    4.3239296    3333.1834    -13638.42    13430.875    10207.095   -3254.4656    12837.127    5091.5098    80.841777 
    8000     745.4664   -104.11598   0.67451366   -103.44147   -286.22635    4.3234888    4.3234888    4.3234888   -286.22635     15517.94    5833.8939   -22210.513    4052.8965   -26299.662    8063.6409    80.817054 
    8100    1429.9147   -104.72442    1.2938169    -103.4306    7451.8472    4.3306595    4.3306595    4.3306595    7451.8472   -3189.7082   -7338.8692    32884.119   -5622.5313    12238.378   -7702.8383    81.219837 
    8200    993.36864   -104.33606   0.89882082   -103.43724    12364.254    4.3260729    4.3260729    4.3260729    12364.254    5723.0173   -14618.902    45988.646    12731.674   -7278.3609    5868.4407    80.962051 
    8300    892.99629   -104.25067   0.80800181   -103.44266   -6245.4243    4.3257374    4.3257374    4.3257374   -6245.4243   -27555.193    1502.0381    7316.8821   -2293.2898   -6893.1624    5750.3146    80.943217 
    8400     1482.846   -104.77981    1.3417102    -103.4381    -13441.65    4.3361369    4.3361369    4.3361369    -13441.65   -14008.601   -20956.188   -5360.1615    9008.3338   -1881.6277    5754.2272    81.528409 
    8500    1134.6154   -104.47048    1.0266239   -103.44386   -10522.182    4.3337578    4.3337578    4.3337578   -10522.182   -26519.069   -1355.7681   -3691.7091    562.14434   -14535.363    10464.283    81.394286 
    8600    1414.8595   -104.71615    1.2801946   -103.43596    1014.2132    4.3224092    4.3224092    4.3224092    1014.2132   -26501.342   -4026.0813    33570.063    2005.4166    2370.0845     4901.551    80.756528 
    8700    705.60693   -104.09075   0.63844798    -103.4523   -5139.9845    4.3253268    4.3253268    4.3253268   -5139.9845   -31628.501    11325.935     4882.613     8662.268   -10061.612    -4469.591    80.920171 
    8800    867.62869   -104.23299   0.78504867   -103.44794    13312.978    4.3235206    4.3235206    4.3235206    13312.978    4213.1142   -10154.357    45880.178   -6082.8281   -15198.833    10063.915     80.81884 
    8900    1485.7991   -104.78224    1.3443822   -103.43786   -19092.567    4.3294082    4.3294082    4.3294082   -19092.567   -25711.922   -23476.397   -8089.3826    8651.6442    8624.0928   -1202.0884    81.149452 
    9000    1142.6899   -104.47214    1.0339299   -103.43821   -338.62838    4.3192395    4.3192395    4.3192395   -338.62838   -11555.253   -3648.9646    14188.332   -246.30148   -21499.824    17453.654    80.578997 
    9100     1077.466   -104.40941   0.97491392    -103.4345   -3395.5334    4.3256196    4.3256196    4.3256196   -3395.5334   -22099.167    11664.202    248.36528   -2653.7892   -3810.7659   -3772.4995    80.936604 
    9200    799.45546   -104.16202    0.7233641   -103.43866    15720.305     4.328312     4.328312     4.328312    15720.305   -7857.3619   -1228.0454    56246.321    140.13789   -4218.3095   -8701.4746    81.087828 
    9300    1046.6092   -104.38681   0.94699396   -103.43982   -8643.5767    4.3291899    4.3291899    4.3291899   -8643.5767   -32858.222    20040.765   -13113.273   -7945.5112   -14290.231    2974.5957    81.137182 
    9400    1470.8389   -104.76749    1.3308459   -103.43665   -11961.475    4.3241333    4.3241333    4.3241333   -11961.475   -45724.766    9226.8471    613.49383    1163.1492    21140.747   -4485.1476    80.853201 
    9500    1260.2741   -104.58587    1.1403225   -103.44555   -7997.3263    4.3314739    4.3314739    4.3314739   -7997.3263   -27156.313    18081.001   -14916.667   -8761.6815   -23820.866    8371.2591    81.265669 
    9600    616.51291   -104.00134   0.55783384    -103.4435   -5154.5886    4.3289632    4.3289632    4.3289632   -5154.5886   -33633.963   -19451.651    37621.848    6251.8257    4917.8975   -1374.0908    81.124436 
    9700    1026.3633   -104.36851   0.92867507   -103.43984   -2835.6637    4.3214135    4.3214135    4.3214135   -2835.6637   -41662.574   -7233.1262    40388.709   -2600.7021     3381.135   -1271.0479     80.70073 
    9800    1429.7903   -104.73021    1.2937043   -103.43651    4555.2351    4.3197666    4.3197666    4.3197666    4555.2351   -5407.2005    24521.438   -5448.5325    -2947.324   -7025.7414    2550.8462    80.608499 
    9900    1093.7705   -104.42856   0.98966653   -103.43889   -21984.695    4.3312044    4.3312044    4.3312044   -21984.695   -28448.759   -12107.835   -25397.491    10161.489    21162.949    1739.6394    81.250501 
   10000    818.45385    -104.1672   0.74055424   -103.42665    34112.359    4.3171353    4.3171353    4.3171353    34112.359    11392.096    34135.642    56809.341   -9534.2998   -14159.468    1572.2533    80.461287 
   10100    1106.6274   -104.43072    1.0012997   -103.42943   -11463.527    4.3158037    4.3158037    4.3158037   -11463.527   -29987.376   -659.12195   -3744.0821    12097.991     17516.97    7639.0071    80.386856 
   10200    1316.3657   -104.62166    1.1910753   -103.43058    6886.3752    4.3204657    4.3204657    4.3204657    6886.3752   -7609.0228    6739.5196    21528.629   -861.78931    6408.1218   -319.30337    80.647644 
   10300    1281.3537   -104.58452    1.1593957   -103.42513   -20407.523    4.3237916    4.3237916    4.3237916   -20407.523   -17841.144   -3101.3733   -40280.053    767.15408   -1846.2145    -304.2825    80.834034 
   10400     478.1376   -103.86265   0.43262895   -103.43002   -25695.585    4.3173026    4.3173026    4.3173026   -25695.585   -45277.481   -4670.5638   -27138.709    5183.4498     23162.32    2388.0725    80.470641 
   10500    1507.5651    -104.7844    1.3640766   -103.42033    17969.182    4.3099498    4.3099498    4.3099498    17969.182    1796.8052    7034.7415        45076    -2779.405   -9709.8618   -10478.432    80.060191 
   10600    1124.6912   -104.44524    1.0176442    -103.4276   -18000.609    4.3289398    4.3289398    4.3289398   -18000.609   -17686.369    6536.6622    -42852.12   -59.452828    26019.616    892.67902    81.123117 
   10700    925.92735   -104.26037   0.83779853   -103.42257    14822.737     4.317813     4.317813     4.317813    14822.737    7168.0857   -10342.915     47643.04    4232.0037   -2660.5714    -9108.511    80.499185 
   10800    1174.0998   -104.48185    1.0623501    -103.4195    9244.5189    4.3161729    4.3161729    4.3161729    9244.5189   -9545.8495    30169.365     7110.041   -26.405586    13716.537   -4083.3082    80.407491 
   10900     1067.015   -104.39579   0.96545759   -103.43033    -15072.09    4.3249355    4.3249355    4.3249355    -15072.09   -39897.423   -12303.388    6984.5403    4408.2036    16460.421    2258.5884    80.898207 
   11000    1305.4566   -104.60648    1.1812045   -103.42528   -2290.5737    4.3233109    4.3233109    4.3233109   -2290.5737    15259.384    2595.0097   -24726.114   -2749.7156    198.10204    4215.3433    80.807081 
   11100    943.32704   -104.27838   0.85354213   -103.42483   -5657.2277    4.3165673    4.3165673    4.3165673   -5657.2277   -29686.636     25238.84   -12523.887    4035.5234    17288.975    3115.2425    80.429536 
   11200    890.01529   -104.23106   0.80530454   -103.42575   -11801.267     4.321706     4.321706     4.321706   -11801.267   -33022.736   -25126.348    22745.283   -4408.6581   -3087.3943    8361.8544     80.71712 
   11300    1357.1978    -104.6505    1.2280211   -103.42248    13379.179    4.3206116    4.3206116    4.3206116    13379.179     7066.918    27341.642    5728.9762    3439.9224    1160.2063    55.330558    80.655815 
   11400    1202.9238   -104.51287    1.0884308   -103.42444   -2042.5058    4.3167098    4.3167098    4.3167098   -2042.5058   -226.85646   -4694.8935   -1205.7676   -7558.0529    9239.7156    5035.5401    80.437499 
   11500    711.75086   -104.07119   0.64400713   -103.42718    13640.451     4.315498     4.315498     4.315498    13640.451    7758.0101    38345.922   -5182.5786    498.35534   -10260.694    6707.6768    80.369775 
   11600    1383.6436   -104.67194    1.2519498   -103.41999   -7236.8721     4.325991     4.325991     4.325991   -7236.8721   -28110.416   -5841.2114    12241.011   -5733.7736    4183.6033   -8176.1411    80.957454 
   11700    1037.0355   -104.36199   0.93833155   -103.42366   -809.12356    4.3194279    4.3194279    4.3194279   -809.12356    10294.325    3910.9464   -16632.642   -1135.9368    2763.7297    16422.439    80.589544 
   11800    1206.1659   -104.51369    1.0913643   -103.42232    6873.2287    4.3152738    4.3152738    4.3152738    6873.2287    7207.7334    21386.647    -7974.694    2501.5354   -18975.388   -11782.549     80.35725 
   11900    965.57407   -104.29619   0.87367171   -103.42252    349.91255    4.3245945    4.3245945    4.3245945    349.91255   -43374.175    1505.0765    42918.836    7292.6814    3146.8785    13550.016    80.879075 
   12000    954.35532    -104.2915   0.86352075   -103.42798   -5515.4334    4.3246718    4.3246718    4.3246718   -5515.4334   -25531.443    9722.8802   -737.73725     2312.461   -19931.538    8518.1353    80.883413 
   12100    1545.5659   -104.81499    1.3984605   -103.41653      12099.1    4.3163766    4.3163766    4.3163766      12099.1    9756.9277    4258.7944    22281.578    4614.2177   -8939.6572   -136.29907    80.418875 
   12200    746.63127   -104.10115   0.67556767   -103.42558    2212.8013    4.3165476    4.3165476    4.3165476    2212.8013   -15365.149    36244.485   -14240.933     2687.701   -1940.9074    15731.104    80.428433 
   12300    1099.9429   -104.41884   0.99525143   -103.42359   -9395.5523    4.3244845    4.3244845    4.3244845   -9395.5523   -18704.829   -527.48401    -8954.344    5723.0155   -18016.123    1581.4578    80.872903 
   12400    1214.1215   -104.51991    1.0985626   -103.42135    12035.212    4.3203415    4.3203415    4.3203415    12035.212   -969.80988    20102.871    16972.576    -4926.716    5166.1725    7427.3416    80.640688 
   12500    1127.9694   -104.44427    1.0206104   -103.42366   -7468.0644    4.3195962    4.3195962    4.3195962   -7468.0644    29748.347   -7419.6095   -44732.931    2917.8063    -14355.65    10786.026    80.598962 
   12600    1042.8997   -104.36286   0.94363757   -103.41922    5373.7344    4.3214867    4.3214867    4.3214867    5373.7344    -23583.79    16463.919    23241.074   -13182.833    6967.9713   -6772.1466     80.70483 
   12700    995.03717   -104.32286   0.90033054   -103.42253   -15186.012    4.3206795    4.3206795    4.3206795   -15186.012   -43187.574   -3486.2804    1115.8173   -2389.0946   -4849.5667    11364.283    80.659617 
   12800    1274.3105    -104.5739    1.1530229   -103.42087    3724.2846    4.3180216    4.3180216    4.3180216    3724.2846    150.36397    11611.901   -589.41164   -7293.5074   -3525.3921    6390.9272    80.510855 
   12900    1122.0761   -104.43619     1.015278   -103.42091    1961.8807    4.3177164    4.3177164    4.3177164    1961.8807   -151.14169    7728.2688    -1691.485   -11384.791    9187.9971   -2593.0276    80.493785 
   13000    809.96891   -104.16013   0.73287689   -103.42725   -9748.9686    4.3247199    4.3247199    4.3247199   -9748.9686   -20677.769    8006.2778   -16575.415    3519.6749   -22178.954    16558.081    80.886112 
   13100    1343.9761   -104.63581    1.2160578   -103.41975    7916.1933    4.3204693    4.3204693    4.3204693    7916.1933    17011.919     8092.366   -1355.7055   -13235.473    9179.8202   -9271.2119    80.647845 
   13200    1060.6852   -104.38584   0.95973025   -103.42611   -3187.6138    4.3202228    4.3202228    4.3202228   -3187.6138    14418.742    4921.0967    -28902.68    2071.8342   -10595.585    13605.353    80.634041 
   13300    1123.8946   -104.44032    1.0169235    -103.4234   -7995.3045    4.3193415    4.3193415    4.3193415   -7995.3045   -187.53143   -12366.504   -11431.878    4999.8662   -14216.773    4699.4158    80.584708 
   13400    954.48149    -104.2866   0.86363491   -103.42297   -7169.6734    4.3225659    4.3225659    4.3225659   -7169.6734    -44791.45      6857.78     16424.65   -8524.6867    9718.6759    5863.7223    80.765308 
   13500    1116.9302    -104.4353    1.0106219   -103.42468   -8390.5282    4.3182024    4.3182024    4.3182024   -8390.5282   -4194.6148   -7489.9855   -13486.984    9914.5824   -27021.475    14636.612    80.520969 
   13600    1267.9419     -104.566    1.1472605   -103.41874    6656.6234    4.3181518    4.3181518    4.3181518    6656.6234    31367.436    -15168.36    3770.7942   -1555.8269    8871.5538   -626.88192    80.518134 
   13700    903.05221   -104.24421   0.81710061   -103.42711   -5628.8396    4.3217468    4.3217468    4.3217468   -5628.8396    11259.468     1324.435   -29470.422   -2698.8041   -3369.2944    12580.063    80.719406 
   13800    1213.4937   -104.52357    1.0979946   -103.42557   -669.67169    4.3199205    4.3199205    4.3199205   -669.67169   -594.79692    6039.2804   -7453.4986    835.83547   -8468.8865    5536.8009    80.617115 
   13900    1174.7093   -104.48531    1.0629017   -103.42241    11376.929     4.317355     4.317355     4.317355    11376.929    25990.105    11125.129   -2984.4475   -3069.4917    11451.144    2126.9587    80.473573 
   14000    800.59798   -104.15278   0.72439787   -103.42838   -16581.963     4.321865     4.321865     4.321865   -16581.963    7624.7985   -12193.383   -45177.305    8035.1767    -15976.76    14968.164    80.726031 
   14100    1243.1407    -104.5455    1.1248198   -103.42068    2897.1244    4.3212628    4.3212628    4.3212628    2897.1244   -5925.2118    3942.3998    10674.185    492.58154    3229.0294   -5718.5572     80.69229 
   14200    1362.3593   -104.65599    1.2326913    -103.4233   -10838.171    4.3185742    4.3185742    4.3185742   -10838.171   -20941.289    8936.9564    -20510.18    6968.9088   -1212.8557    6406.7004    80.541768 
   14300    648.07497   -104.01507   0.58639185   -103.42868   -4623.3247    4.3194184    4.3194184    4.3194184   -4623.3247    30743.139   -33861.471   -10751.643    2183.4014   -13519.554    -532.0574    80.589011 
   14400    1377.2294   -104.66694    1.2461461    -103.4208   -3710.2396    4.3182892    4.3182892    4.3182892   -3710.2396    15908.398   -18973.115    -8066.002    4231.2276    2707.4709   -11680.266    80.525823 
   14500    939.40324    -104.2805   0.84999179   -103.43051    7094.6832    4.3194427    4.3194427    4.3194427    7094.6832    8158.7164    20567.139   -7441.8058   -1103.3391   -20196.532     11488.28     80.59037 
   14600    1351.2572   -104.64703    1.2226459   -103.42438   -10483.966    4.3187531    4.3187531    4.3187531   -10483.966    -499.9068   -12577.163   -18374.828   -883.22293   -1513.7985   -18878.872    80.551778 
   14700    854.72056   -104.19766   0.77336913   -103.42429    3772.2534     4.320998     4.320998     4.320998    3772.2534    3880.7845    37073.611   -29637.635   -6605.5737   -2729.4431    10285.878    80.677458 
   14800     997.3304    -104.3345    0.9024055   -103.43209   -11280.036    4.3191811    4.3191811    4.3191811   -11280.036     3393.356   -7502.2181   -29731.246   -2990.4289   -17156.582   -6701.3925    80.575731 
   14900    1680.3382   -104.94335    1.5204053   -103.42294      10287.3    4.3211291    4.3211291    4.3211291      10287.3    1418.6942    28165.256    1277.9495    1126.8954    6410.8187   -6264.3015    80.684801 
   15000    780.13632   -104.13302   0.70588374   -103.42714     851.9881    4.3197427    4.3197427    4.3197427     851.9881   -3088.1142    11849.662   -6205.5838   -2144.5536   -15282.929    3090.3879    80.607166 
   15100    746.11321   -104.10885   0.67509891   -103.43375   -8012.4998    4.3206738    4.3206738    4.3206738   -8012.4998    26494.618   -27409.797    -23122.32    3095.1359   -1455.5678   -12137.217    80.659296 
   15200    1510.7163   -104.79534    1.3669279   -103.42841    12588.108    4.3233175    4.3233175    4.3233175    12588.108   -4665.1784    55108.182   -12678.678    -8456.859    1478.4795    7117.9383    80.807445 
   15300    1116.1429   -104.44752    1.0099096   -103.43761    -2301.383    4.3261272    4.3261272    4.3261272    -2301.383   -9330.2745    28282.849   -25856.723   -3222.3301   -4504.6951   -16074.538    80.965101 
   15400    897.21271   -104.24284   0.81181691   -103.43102   -12472.679    4.3234227    4.3234227    4.3234227   -12472.679    16060.414   -23212.421   -30266.031   -3792.7277     8347.973   -13787.063    80.813349 
   15500     1067.662   -104.39659   0.96604306   -103.43055   -15381.236    4.3225899    4.3225899    4.3225899   -15381.236   -16815.036   -9516.6224   -19812.048    7848.3605   -5246.8568   -2938.0141    80.766658 
   15600    1084.7192   -104.41577   0.98147677   -103.43429    12942.835    4.3239701    4.3239701    4.3239701    12942.835    6761.5069    26382.892    5684.1068    -1122.085   -1280.4959   -25271.748    80.844048 
   15700    1537.7786   -104.81771    1.3914144   -103.42629    1636.7612    4.3243474    4.3243474    4.3243474    1636.7612   -18591.212    27303.975   -3802.4789    13737.278    13642.904    15124.105    80.865209 
   15800    730.06241   -104.08785   0.66057581   -103.42728    12215.205    4.3212735    4.3212735    4.3212735    12215.205    11906.769    19892.881     4845.964   -5981.5055     -13081.3   -6169.4116    80.692888 
   15900    870.53544   -104.21529   0.78767876   -103.42762   -4284.3655    4.3178634    4.3178634    4.3178634   -4284.3655   -4074.9527    4677.4797   -13455.623    7366.8835    20565.433   -732.65949    80.502006 
   16000     1522.754   -104.80575    1.3778198   -103.42793   -10794.055    4.3259403    4.3259403    4.3259403   -10794.055   -31575.801    7763.5395   -8569.9044   -9535.5772   -224.58946    11769.206    80.954607 
   16100    955.67045   -104.29539   0.86471071   -103.43068   -4538.6432    4.3266676    4.3266676    4.3266676   -4538.6432   -17546.456    27647.502   -23716.975   -2908.7678   -4761.8772    -15297.31    80.995446 
   16200    1045.6758   -104.37842   0.94614941   -103.43227   -1835.2379    4.3257052    4.3257052    4.3257052   -1835.2379   -12197.069    45765.996   -39074.641   -871.39802     17536.45    -1177.126    80.941407 
   16300    1233.9776   -104.54801    1.1165289   -103.43148   -6395.6116    4.3260229    4.3260229    4.3260229   -6395.6116   -26970.302   -7098.7206    14882.188   -2902.7248   -10900.886    -16212.19    80.959243 
   16400    1062.1286   -104.40593   0.96103632   -103.44489   -6690.0611    4.3223239    4.3223239    4.3223239   -6690.0611    -14063.45      21008.6   -27015.334    1462.8627    18430.068   -9448.9817    80.751747 
   16500    1059.1234   -104.40148   0.95831709   -103.44317    21768.979    4.3336453    4.3336453    4.3336453    21768.979    1307.9525    68760.208   -4761.2234   -1381.3323    375.06613    9377.5243    81.387945 
   16600    1056.1345   -104.39837   0.95561271   -103.44276   -2363.8506    4.3331967    4.3331967    4.3331967   -2363.8506   -958.76534    30131.415   -36264.201   -4516.3887    9008.4963   -3434.4252    81.362674 
   16700    1162.2426   -104.49543    1.0516216   -103.44381   -10965.924    4.3267858    4.3267858    4.3267858   -10965.924   -18822.639    1991.5966   -16066.731   -4665.0442    5953.2168     212.1614    81.002084 
   16800    1528.7127   -104.82398    1.3832114   -103.44077   -4306.6403    4.3261481    4.3261481    4.3261481   -4306.6403   -16300.268    8165.3163   -4784.9696   -2978.0225   -3341.9992     3951.336    80.966274 
   16900    721.52557   -104.10725    0.6528515    -103.4544   -13368.527    4.3317045    4.3317045    4.3317045   -13368.527   -16669.503    35576.553   -59012.631    8832.6704    20905.892   -4421.7217    81.278648 
   17000    1143.7313   -104.47628    1.0348721   -103.44141    15534.168    4.3235723    4.3235723    4.3235723    15534.168   -12719.045    74991.559   -15670.009    3594.6355   -6462.9216    10774.125    80.821738 
   17100    1165.4689   -104.49612    1.0545408   -103.44158   -16595.533    4.3268509    4.3268509    4.3268509   -16595.533   -37338.775   -3477.7431   -8970.0812    1075.3057     13299.46   -8198.2584    81.005739 
   17200    1110.1314   -104.44924    1.0044702   -103.44477   -11731.005    4.3267193    4.3267193    4.3267193   -11731.005   -679.81787   -4263.3455   -30249.851   -7320.6641    5991.3647    13052.152    80.998346 
   17300    1189.4379   -104.51652    1.0762284   -103.44029    12356.434    4.3308339    4.3308339    4.3308339    12356.434   -9695.0436    46418.787    345.55948       8485.3   -1817.1054    7584.5592    81.229651 
   17400    887.78688   -104.24642   0.80328823   -103.44313    17514.486    4.3265795    4.3265795    4.3265795    17514.486    3027.4368    57558.983   -8042.9603    4487.9044    9034.2143   -13281.976    80.990495 
   17500    1135.9323   -104.46731    1.0278154    -103.4395   -2665.4697    4.3222396    4.3222396    4.3222396   -2665.4697   -15900.303    8550.3335   -646.43987      5205.67    416.93478      457.497    80.747022 
   17600    1336.4938   -104.64989    1.2092876   -103.44061   -22468.261    4.3337258    4.3337258    4.3337258   -22468.261   -11123.938     3832.147   -60112.991   -8330.4204    6722.5407   -5857.3528    81.392483 
   17700    1080.1934   -104.42129   0.97738169   -103.44391     1194.131    4.3277593    4.3277593    4.3277593     1194.131   -3819.8088    42886.649   -35484.447   -7341.5746     521.7245    10213.064    81.056772 
   17800    842.86487   -104.21014   0.76264185   -103.44749    13165.119    4.3227407    4.3227407    4.3227407    13165.119   -26161.206    78515.783    -12859.22     8035.437    4418.2941     6014.996    80.775108 
   17900    991.06223   -104.34489   0.89673393   -103.44815      452.704    4.3303169    4.3303169    4.3303169      452.704   -14705.509    45317.846   -29254.225   -6747.3553    7732.6101   -2715.5324    81.200565 
   18000    908.85705   -104.27559   0.82235296   -103.45324    1408.4182    4.3289618    4.3289618    4.3289618    1408.4182    4655.6965    14826.632   -15257.074   -1822.0934   -637.10547   -4048.7343    81.124357 
   18100    1569.7531   -104.86434    1.4203456   -103.44399   -6452.1348    4.3299747    4.3299747    4.3299747   -6452.1348   -21224.426    10657.107    -8789.086    580.49892    9691.6269    10185.769    81.181313 
   18200    1071.8105   -104.40972   0.96979667   -103.43993    29547.869    4.3193939    4.3193939    4.3193939    29547.869    15250.135    70708.661    2684.8112   -8228.5555     238.9868   -8208.8384    80.587641 
   18300    479.96373   -103.88199   0.43428127   -103.44771   -13473.555    4.3282712    4.3282712    4.3282712   -13473.555   -11335.072    22445.529   -51531.122    107.23151    -3445.198    11727.203    81.085537 
   18400    1510.0905   -104.80317    1.3663617   -103.43681    3982.3397    4.3271981    4.3271981    4.3271981    3982.3397    1824.5655    33267.983    -23145.53   -2682.0865    127.39645   -6406.9337    81.025244 
   18500    1395.6306   -104.70878    1.2627959   -103.44598   -15119.479    4.3223329    4.3223329    4.3223329   -15119.479   -23145.912    2044.2077   -24256.733    3381.5891    769.03647    4446.5139    80.752251 
   18600    857.77639   -104.22385   0.77613411   -103.44772    -4374.829    4.3252504    4.3252504    4.3252504    -4374.829   -17266.913    37574.669   -33432.242   -1018.5018    473.88606    4850.0273     80.91588 
   18700    976.03769   -104.32712   0.88313941   -103.44398    3902.4001    4.3303577    4.3303577    4.3303577    3902.4001    -9511.578    62886.288    -41667.51    5876.6539   -497.42297   -10084.704    81.202855 
   18800    932.41913   -104.29418   0.84367242   -103.45051    7278.6876    4.3259976    4.3259976    4.3259976    7278.6876   -7458.3563    44401.572   -15107.153    -7425.481    5437.5862    12257.195    80.957826 
   18900    1525.9193   -104.82269    1.3806839   -103.44201   -7283.6731    4.3245243    4.3245243    4.3245243   -7283.6731   -22950.295    14613.457   -13514.181    4844.9692   -6225.1104    9582.3099    80.875138 
   19000    820.81019   -104.18808   0.74268631    -103.4454    797.36029    4.3220688    4.3220688    4.3220688    797.36029    3629.4743    17814.664   -19052.057    3905.9889    2515.5535    9488.5619    80.737448 
   19100    1066.2625   -104.41182   0.96477676   -103.44704    -11730.61    4.3283645    4.3283645    4.3283645    -11730.61   -10709.488    3316.2179    -27798.56   -1791.1352    856.07358    1289.8814    81.090783 
   19200    1194.1466   -104.51917    1.0804889   -103.43868    31617.605    4.3227783    4.3227783    4.3227783    31617.605   -2755.3157    89291.478    8316.6516    3028.2004   -2664.0042    1551.6036    80.777216 
   19300    973.74433   -104.32422   0.88106433   -103.44316    -17354.67     4.323515     4.323515     4.323515    -17354.67   -12643.645    6120.3682   -45540.734   -96.777173     1882.821    12264.264    80.818525 
   19400    1248.8343   -104.56602    1.1299715   -103.43605   -19182.909    4.3260573    4.3260573    4.3260573   -19182.909   -17000.467    10461.243   -51009.505    4039.1813   -3006.6352    2924.6151    80.961177 
   19500    1267.9769   -104.59068    1.1472922   -103.44339   -14034.098    4.3294108    4.3294108    4.3294108   -14034.098   -15734.933    927.66169   -27295.024   -7662.2827    1299.2506    7039.5833      81.1496 
   19600    867.10112   -104.22853   0.78457131   -103.44396    15305.673     4.325097     4.325097     4.325097    15305.673   -8297.5328    78288.108   -24073.555    5883.1812    -7618.203    6752.0394    80.907272 
   19700    925.49881    -104.2791   0.83741077   -103.44169     5496.178    4.3256329    4.3256329    4.3256329     5496.178   -19932.245    61762.942   -25342.163   -975.25524   -201.71475   -9929.5129    80.937352 
   19800    1058.8697   -104.39854   0.95808757   -103.44045    2976.8269    4.3235126    4.3235126    4.3235126    2976.8269    11951.841    2531.9813   -5553.3416    994.89742    2612.4546    23154.415    80.818389 
   19900    1572.1376   -104.85861    1.4225032    -103.4361   -23779.632    4.3345352    4.3345352    4.3345352   -23779.632   -31238.414   -18973.634   -21126.848   -4163.4322   -6963.3238   -13063.163    81.438096 
   20000    827.01932    -104.1833   0.74830446   -103.43499    20302.748    4.3244074    4.3244074    4.3244074    20302.748    1276.2398    67540.783   -7908.7787   -4416.5213    4567.2271    20617.777     80.86858 
   20100    769.09639   -104.13176   0.69589458   -103.43586     4740.875    4.3238449    4.3238449    4.3238449     4740.875   0.52372821    64747.267   -50525.166    3394.9879   -915.59681    11598.488    80.837027 
   20200    1550.6719    -104.8353    1.4030805   -103.43222   -18229.919     4.334123     4.334123     4.334123   -18229.919   -38443.948    3761.3184   -20007.127   -308.25553   -5935.3857    1866.7594    81.414865 
   20300    1256.1019   -104.57805    1.1365474    -103.4415   -17720.794    4.3311637    4.3311637    4.3311637   -17720.794   -4993.9898   -13498.896   -34669.498   -1747.6106    3764.2271     20352.79    81.248206 
   20400    849.62031   -104.20976   0.76875431     -103.441   -13821.218    4.3254831    4.3254831    4.3254831   -13821.218   -18812.717    25265.865   -47916.803   -3047.8814   -11292.987   -12858.455    80.928939 
   20500    1025.0051    -104.3644   0.92744617   -103.43695    16533.357    4.3207719    4.3207719    4.3207719    16533.357   -16052.808    48964.541    16688.338    880.31423   -192.96935    14594.007    80.664792 
   20600    1411.4816   -104.70862    1.2771382   -103.43148   -22068.569    4.3359944    4.3359944    4.3359944   -22068.569   -3977.4059   -36545.199   -25683.101    5127.8449    -4999.991    15363.836    81.520367 
   20700    918.28939   -104.25837   0.83088754   -103.42748     5480.995    4.3260782    4.3260782    4.3260782     5480.995   -5867.3383    568.93632    21741.387   -759.82355     -5014.81   -9961.1561     80.96235 
   20800    923.24905   -104.25962   0.83537515   -103.42424        18782    4.3126195    4.3126195    4.3126195        18782    26287.704    40236.734   -10178.439    -500.1174    4227.2207    21679.377    80.209058 
   20900    1156.7886   -104.47756    1.0466867   -103.43088   -9876.4913    4.3302473    4.3302473    4.3302473   -9876.4913   -23266.919    -9010.927    2648.3723    5029.5765   -12023.514   -15141.456    81.196646 
   21000    1325.6962   -104.61994    1.1995178   -103.42043   -3727.9609    4.3286035    4.3286035    4.3286035   -3727.9609   -7787.6419    10481.261   -13877.501   -3179.8575    7525.0381    2282.4537    81.104214 
   21100    1006.1432    -104.3276   0.91037951   -103.41722   -8133.2334    4.3239025    4.3239025    4.3239025   -8133.2334    12706.454   -8180.8934    -28925.26    5648.9469   -3103.3194    8487.9029    80.840256 
   21200    852.01053   -104.19253   0.77091703   -103.42161   -6269.2951    4.3239768    4.3239768    4.3239768   -6269.2951   -22481.682   -633.74217    4307.5386   -403.76574    3357.0377   -18434.178    80.844424 
   21300     1321.692   -104.61802    1.1958947   -103.42212    4345.4851    4.3257126    4.3257126    4.3257126    4345.4851    7439.4168   -17959.858    23556.896   -5689.4524    1733.4999    16284.705    80.941822 
   21400     1093.974   -104.41313   0.98985067   -103.42328    -4797.849    4.3340101    4.3340101    4.3340101    -4797.849   -2597.5366   -24200.162    12404.152    10906.707   -76.546855   -11946.437      81.4085 
   21500    1133.0933   -104.44347    1.0252467   -103.41822    2666.7016    4.3158706    4.3158706    4.3158706    2666.7016    7841.5537   -13326.808    13485.359   -12566.455   -16378.076    4973.5844    80.390595 
   21600    756.38918   -104.10857   0.68439683   -103.42417    8173.9897    4.3212416    4.3212416    4.3212416    8173.9897   -4145.1808    14246.363    14420.787     8444.008     10316.26     7504.776      80.6911 
   21700    1331.3742   -104.62938    1.2046554   -103.42472   -25812.969    4.3322742    4.3322742    4.3322742   -25812.969   -32414.064   -30141.893   -14882.951   -2836.5978   -24574.704   -3845.2475    81.310721 
   21800    1241.9579   -104.54614    1.1237496   -103.42239    12838.205    4.3247579    4.3247579    4.3247579    12838.205    40363.478   -1563.9388    -284.9251   -7587.6548    10975.721      1436.95    80.888243 
   21900    797.44086   -104.14984   0.72154125    -103.4283   -5996.7632    4.3228697    4.3228697    4.3228697   -5996.7632   -29991.701   -19428.887    31430.298    15882.433   -3951.6477    1500.8172    80.782342 
   22000    1101.1057   -104.42776   0.99630355   -103.43146   -7028.1775    4.3250108    4.3250108    4.3250108   -7028.1775    -14222.14   -4231.6305   -2630.7618    -7822.152   -1700.3412   -7637.9731    80.902436 
   22100     1356.928   -104.65807     1.227777    -103.4303    -144.7854     4.332904     4.332904     4.332904    -144.7854    1111.3266   -31923.586    30377.903    13680.749    11672.679     11334.84    81.346188 
   22200     1001.102   -104.33586   0.90581809   -103.43004    1737.3583    4.3260372    4.3260372    4.3260372    1737.3583    3842.7409    4249.9505   -2880.6164   -773.80575   -16414.535   -8844.2387    80.960046 
   22300    1182.1656    -104.4984    1.0696483   -103.42875   -4567.0418    4.3272534    4.3272534    4.3272534   -4567.0418   -1931.4476   -19204.904    7435.2268    6029.2264    2419.0938    10084.079    81.028346 
   22400    988.42207   -104.32607   0.89434506   -103.43172   -1845.8428    4.3338006    4.3338006    4.3338006   -1845.8428   -32245.842   -9797.0067     36505.32    6127.8299    -10328.86   -2878.7526    81.396696 
   22500    1219.8014   -104.53147    1.1037019   -103.42777    9598.7232    4.3308889    4.3308889    4.3308889    9598.7232    12340.519   -19504.412    35960.063   -7018.4052   -10736.083   -2838.3414    81.232748 
   22600    1208.1155   -104.51741    1.0931283   -103.42428   -21928.246    4.3305951    4.3305951    4.3305951   -21928.246   -39690.183   -25662.116   -432.43736    19350.959   -2331.1204     349.9441    81.216216 
   22700    749.48249    -104.1071    0.6781475   -103.42896   -479.87037    4.3285428    4.3285428    4.3285428   -479.87037    7699.8281   -1795.8486   -7343.5906   -11284.919   -2711.8165   -5377.0106      81.1008 
   22800    1342.6623   -104.64294    1.2148691   -103.42807   -794.19663    4.3330216    4.3330216    4.3330216   -794.19663    7199.3712    -27652.76    18070.799    13281.914   -7009.2958   -10160.271    81.352812 
   22900    1246.0863   -104.55897    1.1274851   -103.43148    5807.0247    4.3292883    4.3292883    4.3292883    5807.0247    51932.657   -24265.933   -10245.649    9018.5581    11682.892    2797.8343    81.142715 
   23000    971.63953    -104.3172   0.87915987   -103.43804   -1705.5507    4.3275434    4.3275434    4.3275434   -1705.5507    -33790.52   -5935.9303    34609.798    864.74043   -15365.788   -3395.8923    81.044641 
   23100    935.89444   -104.29443   0.84681695   -103.44761    5983.5059     4.330042     4.330042     4.330042    5983.5059    17868.146   -17750.109     17832.48    11925.893     3614.468    3615.3041      81.1851 
   23200    1354.3863   -104.66491    1.2254772   -103.43943   -9509.8524    4.3331924    4.3331924    4.3331924   -9509.8524    5306.7677   -18933.215    -14903.11   -4434.0716   -26527.465    1487.0829    81.362433 
   23300    998.02031   -104.33797   0.90302975   -103.43494    6159.8314    4.3244055    4.3244055    4.3244055    6159.8314    1208.3723   -12139.859    29410.981    14880.493   -2757.2453   -3492.5072    80.868472 
   23400    1050.3159   -104.38043   0.95034789   -103.43008     33492.67    4.3251893    4.3251893    4.3251893     33492.67    47633.532   -2822.1817    55666.659   -1205.2003    5156.7056    -2203.415    80.912452 
   23500    1279.3318   -104.58481    1.1575663   -103.42725   -14342.208    4.3316322    4.3316322    4.3316322   -14342.208    10058.994   -24232.728   -28852.889     6236.297    1304.9658   -3467.1618    81.274576 
   23600    932.68736   -104.26911   0.84391512   -103.42519   -52.454181    4.3282217    4.3282217    4.3282217   -52.454181    24205.446   -23087.432   -1275.3764    15279.437    5218.8133   -3235.1684    81.082753 
   23700    1192.1463   -104.50044     1.078679   -103.42176    8475.5241    4.3239805    4.3239805    4.3239805    8475.5241    5920.7452   -7930.8109    27436.638   -4330.2667     4143.022     443.6624    80.844633 
   23800    1353.0797   -104.65898    1.2242949   -103.43468   -27216.482    4.3287399    4.3287399    4.3287399   -27216.482    -32107.14   -40872.727   -8669.5801    28730.946    -19216.97   -8201.0777    81.111883 
   23900    940.85098   -104.28479   0.85130174   -103.43349     17358.44    4.3269264    4.3269264    4.3269264     17358.44    35391.712   -21313.914    37997.523   -11320.422    5580.8781    2571.5836    81.009979 
   24000    1014.5809   -104.35452   0.91801408   -103.43651   -13162.364    4.3240549    4.3240549    4.3240549   -13162.364   -481.87197   -23604.672   -15400.547    22201.604   -12118.284   -4402.6259    80.848805 
   24100    1079.5635   -104.41221   0.97681171   -103.43539    1498.1966     4.323758     4.323758     4.323758    1498.1966    7179.8243   -16607.512    13922.278   -2713.5646    3658.1485    5890.2464    80.832154 
   24200    1288.3934    -104.5978    1.1657654   -103.43203   -13.255897    4.3290967    4.3290967    4.3290967   -13.255897     28243.37   -21748.986   -6534.1516    1697.3158    12204.411   -905.43151    81.131939 
   24300    1052.0509   -104.38008   0.95191775   -103.42816    -15158.16    4.3233331    4.3233331    4.3233331    -15158.16    -18624.28   -24710.299   -2139.8997    12761.698   -9370.8596     7450.658    80.808325 
   24400    719.18574   -104.07514   0.65073437    -103.4244    12539.567    4.3206586    4.3206586    4.3206586    12539.567    -19964.48      5442.93    52140.249   -9474.5005    15255.125   -5225.3521    80.658445 
   24500    1451.2571   -104.73616    1.3131279   -103.42303   -16304.621    4.3296637    4.3296637    4.3296637   -16304.621   -14992.075    -36717.22    2795.4317    13448.616    3478.9494    4335.0271    81.163823 
   24600    1103.9646   -104.41987   0.99889037   -103.42098    16565.331     4.325255     4.325255     4.325255    16565.331    24659.473   -17076.022    42112.543   -2954.8162   -2119.3972    -2103.451    80.916139 
   24700     888.7807   -104.22692   0.80418746   -103.42274   -9653.8375    4.3296234    4.3296234    4.3296234   -9653.8375    18931.037   -13393.319   -34499.231    2051.0551    23380.883   -4180.8979    81.161557 
   24800    1179.5671   -104.48845    1.0672971   -103.42115   -2683.9398    4.3260089    4.3260089    4.3260089   -2683.9398    19486.234   -27789.592    251.53905    21540.339    -6990.091   -318.69915     80.95846 
   24900    1044.6888   -104.37507   0.94525635   -103.42981    8845.5246    4.3248963    4.3248963    4.3248963    8845.5246    12421.289   -10265.834    24381.119   -14837.422    8872.6348   -322.83287    80.896012 
   25000    1411.8597    -104.7037    1.2774803   -103.42622   -25089.815    4.3311313    4.3311313    4.3311313   -25089.815   -14910.909   -31709.556   -28648.981    19672.573    1113.8249   -1533.1209    81.246388 
   25100    661.15938   -104.02563    0.5982309    -103.4274    3633.6557    4.3259061    4.3259061    4.3259061    3633.6557    -28553.76   -9342.6265    48797.354   -3540.3671   -4349.4418    497.32687    80.952684 
   25200    1191.8003   -104.50434     1.078366   -103.42598    284.74471    4.3153262    4.3153262    4.3153262    284.74471    6828.6778   -4775.0701   -1199.3736   -5009.5592    10721.691    1069.5628     80.36018 
   25300    1530.3727   -104.81039    1.3847133   -103.42568    4021.4048    4.3230932    4.3230932    4.3230932    4021.4048    15603.972   -24876.787     21337.03    12572.436    1539.0988    6351.3336    80.794871 
   25400    784.26722   -104.13765   0.70962146   -103.42803   -2496.9129    4.3256429    4.3256429    4.3256429   -2496.9129     4927.117    2659.9669   -15077.823   -11809.402    11916.298   -406.36475    80.937909 
   25500    978.63573   -104.31339   0.88549018    -103.4279   -2526.1978    4.3210947    4.3210947    4.3210947   -2526.1978    18849.127   -9341.4732   -17086.247    7728.4842    12780.766    6222.7829    80.682871 
   25600    1269.7777   -104.57697    1.1489215   -103.42805    14549.021    4.3293415    4.3293415    4.3293415    14549.021    7574.5068   -12271.953    48344.509   -549.11219    1928.7371    799.58619    81.145704 
   25700    1275.7912   -104.58632    1.1543627   -103.43195    1420.7229    4.3256537    4.3256537    4.3256537    1420.7229   -13477.738    -7730.469    25470.375    4400.5886    21017.193    -2411.087    80.938516 
   25800    830.47479   -104.18718   0.75143105   -103.43575   -12773.703    4.3331378    4.3331378    4.3331378   -12773.703   -12517.877   -15012.196   -10791.035    11931.841   -6858.8376   -3532.3419    81.359354 
   25900    1012.5935    -104.3471   0.91621583   -103.43088    3510.7142    4.3301311    4.3301311    4.3301311    3510.7142    16143.348   -5202.5148   -408.69011   -911.32871    8481.4378    169.91685    81.190111 
   26000    1435.9257   -104.73126    1.2992558     -103.432   -7611.5441     4.326752     4.326752     4.326752   -7611.5441    5936.6111   -13328.412   -15442.831    6757.1059    7762.7443   -8149.6829    81.000186 
   26100    1053.9951   -104.38682   0.95367696   -103.43315    15479.572    4.3315814    4.3315814    4.3315814    15479.572    63945.449   -14239.738   -3266.9963    -1893.838   -9016.1526    4930.2324     81.27172 
   26200    925.58645    -104.2697   0.83749007   -103.43221    4159.5583    4.3307236    4.3307236    4.3307236    4159.5583   -18782.886   -5308.6126    36570.174   -13094.233    4059.0975     -2268.92    81.223446 
   26300    1143.0541   -104.47736    1.0342594    -103.4431   -19942.413    4.3294196    4.3294196    4.3294196   -19942.413   -15335.259   -20728.403   -23763.577    8746.1162    4338.9795    3584.0684    81.150093 
   26400    1249.0233   -104.57446    1.1301425   -103.44432    18689.688    4.3243332    4.3243332    4.3243332    18689.688    43301.567   -16648.649    29416.147   -3891.5985   -10935.266    408.18211    80.864417 
   26500    1051.4722   -104.39612   0.95139418   -103.44473    -120.5785     4.322473     4.322473     4.322473    -120.5785    46686.552   -12013.455   -35034.832    1114.7574    7411.1532   -5111.3039    80.760105 
   26600    827.22924   -104.19075    0.7484944   -103.44225   -26326.262    4.3321256    4.3321256    4.3321256   -26326.262   -38132.916   -10512.915   -30332.953    8556.9108   -3085.6233    9556.4637    81.302355 
   26700    1289.3293   -104.60083    1.1666122   -103.43421    6507.2293    4.3211707    4.3211707    4.3211707    6507.2293     8661.527   -9606.4363    20466.597   -13933.458   -466.06235   -18900.008    80.687129 
   26800    1179.4925   -104.50534    1.0672296   -103.43812    12056.864    4.3146317    4.3146317    4.3146317    12056.864    31591.544   -81.696869    4660.7444    7591.8034   -1170.6227      8597.63    80.321383 
   26900      1152.21   -104.47818    1.0425438   -103.43564    4307.7994    4.3248825    4.3248825    4.3248825    4307.7994   -5623.6192   -7553.1967    26100.214   -3574.8727   -5941.0791    5542.9826    80.895233 
   27000    915.37295   -104.25744   0.82824868   -103.42919    -649.8217    4.3258584    4.3258584    4.3258584    -649.8217    17087.693     9922.707   -28959.866    391.63807    -211.0233   -5357.0705    80.950007 
   27100    1094.2991   -104.41855   0.99014481   -103.42841   -9171.1564    4.3150705    4.3150705    4.3150705   -9171.1564    4493.4478   -27716.039    -4290.878    10041.322    -1142.068    21286.351    80.345892 
   27200     1323.538   -104.62494     1.197565   -103.42738    16472.621    4.3192802    4.3192802    4.3192802    16472.621     25534.32   -4386.8542    28270.399   -1912.6973   -5627.4374   -5811.1643    80.581274 
   27300    1181.7452   -104.49782    1.0692679   -103.42855   -15691.649    4.3275195    4.3275195    4.3275195   -15691.649   -1192.6075   -9647.3352   -36235.003    9397.6712   -2993.4898    6822.4359    81.043299 
   27400    710.14834    -104.0704   0.64255714   -103.42784    5831.5592    4.3214525    4.3214525    4.3214525    5831.5592    -17611.06   -3664.8567    38770.594    1035.9007   -4835.8463    5501.8991    80.702915 
   27500     1175.391   -104.49158    1.0635185   -103.42807    12023.036     4.321804     4.321804     4.321804    12023.036    4703.4543    2735.7823    28629.873    1973.9987   -3623.2377   -11556.145    80.722613 
   27600    1281.5196   -104.59437    1.1595459   -103.43483   -9257.0316    4.3241269    4.3241269    4.3241269   -9257.0316    14148.149   -25287.158   -16632.085    4617.4642   -953.86221    7886.4424    80.852842 
   27700    1257.2755   -104.57816    1.1376093   -103.44056   -18687.597    4.3328217    4.3328217    4.3328217   -18687.597   -26405.014    5533.7899   -35191.568    3061.9136   -15879.295    8165.6675    81.341552 
   27800    807.63496   -104.16748   0.73076508   -103.43671    27268.807    4.3272248    4.3272248    4.3272248    27268.807    32227.867   -10152.942    59731.497   -3595.2206    8015.8909   -410.38062    81.026738 
   27900     885.5926   -104.24471   0.80130279   -103.44341    -9724.846    4.3317816    4.3317816    4.3317816    -9724.846   -4565.1725   -26751.924     2142.559    5907.9732   -8967.4468     10040.11    81.282989 
   28000    1647.0806   -104.92391    1.4903131    -103.4336   -5679.5207    4.3283605    4.3283605    4.3283605   -5679.5207    2867.9782   -8869.8136   -11036.727   -7737.0075    8874.9647   -11189.341    81.090553 
   28100    933.88751   -104.28391   0.84500105   -103.43891   -16082.528    4.3341608    4.3341608    4.3341608   -16082.528   -11419.823   -24190.258   -12637.504    6477.2334   -2612.5619    5452.1213    81.416992 
   28200    626.75314   -104.00689   0.56709941   -103.43979   -4471.0424     4.325361     4.325361     4.325361   -4471.0424   -33871.348   -17786.763    38244.983   -1436.8147   -14524.856    8833.9709    80.922085 
   28300    1339.2323   -104.64916    1.2117655   -103.43739    16078.777    4.3230085    4.3230085    4.3230085    16078.777    20878.915    14944.169    12413.247    745.56772    4719.0056    5259.6103    80.790125 
   28400    1409.7869   -104.71656    1.2756048   -103.44095   -27665.175    4.3328589    4.3328589    4.3328589   -27665.175   -27852.259   -22286.949   -32856.316    14100.929   -14788.151     5803.735    81.343646 
   28500    647.85652    -104.0232    0.5861942     -103.437    10323.013    4.3255969    4.3255969    4.3255969    10323.013    680.69301    30229.661     58.68445   -5068.3795    1893.9841   -6705.3557    80.935328 
   28600    1154.4299   -104.46978    1.0445524   -103.42522    1363.8015    4.3173556    4.3173556    4.3173556    1363.8015    4931.6134   -19201.366    18361.157    13092.279    2091.1107    6529.8009    80.473607 
   28700    1010.0976    -104.3452   0.91395751   -103.43124   -8664.9434    4.3273771    4.3273771    4.3273771   -8664.9434   -22515.711   -2673.7208   -805.39812   -1804.8776   -21460.908   -1860.2055    81.035298 
   28800     1547.837   -104.82264    1.4005154   -103.42212    3398.7426    4.3247582    4.3247582    4.3247582    3398.7426    -16301.38    -1418.732     27916.34   -2199.2505    7693.2224    2206.3501    80.888257 
   28900    909.12998   -104.24913   0.82259991   -103.42653   -10645.458    4.3254827    4.3254827    4.3254827   -10645.458   -10918.328    -10949.72   -10068.327   -2214.2197   -17149.375    1831.0193    80.928917 
   29000    689.59163    -104.0541     0.623957   -103.43014    3761.8425    4.3198757    4.3198757    4.3198757    3761.8425    19936.893   -2064.8838   -6586.4811    735.76293   -10940.354    899.16391    80.614608 
   29100    1551.1776    -104.8312    1.4035381   -103.42766    403.34491    4.3257759    4.3257759    4.3257759    403.34491   -4782.2936    15509.976   -9517.6477   -8811.4938     8920.332   -7245.4712     80.94538 
   29200    1108.9812   -104.43353    1.0034295    -103.4301     2552.675     4.329699     4.329699     4.329699     2552.675    3940.6945    18364.854   -14647.523    3578.1054   -27110.234    6157.9493    81.165808 
   29300      1069.91   -104.39209   0.96807707   -103.42401    9657.8414    4.3184065    4.3184065    4.3184065    9657.8414    7471.8836    22997.675   -1496.0347    -11538.94    12382.642   -8169.3429    80.532384 
   29400     721.8367   -104.08026   0.65313302   -103.42713   -3306.2713    4.3270588    4.3270588    4.3270588   -3306.2713    11395.934   -37823.871    16509.124   -3597.3244    -11190.58   -1196.8468    81.017418 
   29500    1447.4849   -104.73345    1.3097148   -103.42374   -5606.4409    4.3262803    4.3262803    4.3262803   -5606.4409   -1379.4944   -2480.4846   -12959.344    5380.4781   -12953.132   -1232.8687    80.973698 
   29600    1267.9433   -104.56928    1.1472617   -103.42202    3344.1751      4.32425      4.32425      4.32425    3344.1751     8334.369    3333.6954   -1635.5392   -15824.053    11026.878   -12180.279    80.859745 
   29700    876.68331   -104.21485   0.79324148   -103.42161    -13292.95    4.3224179    4.3224179    4.3224179    -13292.95    12807.791   -23972.074   -28714.567    12726.721   -21241.016    181.78228    80.757016 
   29800    974.66362   -104.30481   0.88189613   -103.42292    12899.364    4.3231206    4.3231206    4.3231206    12899.364    18703.976    30642.378   -10648.263    -8716.691    3393.2764   -11233.853    80.796409 
   29900    1208.9654   -104.51986    1.0938973   -103.42597   -2267.9323    4.3300825    4.3300825    4.3300825   -2267.9323    10291.202   -1715.8867   -15379.112    6457.7858   -1549.9518   -4967.4042    81.187376 
   30000    1392.9059   -104.68137    1.2603305   -103.42104    1157.7565    4.3230625    4.3230625    4.3230625    1157.7565   -11599.153    35876.273    -20803.85    3679.3106   -15665.823   -2140.8436     80.79315 
   30100    819.99011   -104.16775   0.74194428    -103.4258    4401.3617    4.3207017    4.3207017    4.3207017    4401.3617    41048.606   -26727.486   -1117.0354   -294.61808    13183.741   -5526.8354    80.660858 
   30200    698.48845   -104.07046   0.63200703   -103.43846     3538.786    4.3256235    4.3256235    4.3256235     3538.786     44824.27   -23467.455   -10740.458   -4212.1558   -19150.593   -3217.0524    80.936824 
   30300    1458.1498   -104.76186    1.3193646    -103.4425   -5436.2464    4.3328201    4.3328201    4.3328201   -5436.2464      16089.6   -12199.101   -20199.238    1362.4451   -1238.6894   -4275.8561    81.341463 
   30400     1242.091   -104.56155      1.12387   -103.43768    -24134.91    4.3353315    4.3353315    4.3353315    -24134.91   -18511.592   -26361.341   -27531.797    10082.861   -1380.8782   -1114.7348    81.482987 
   30500    830.59406   -104.18586   0.75153896   -103.43432   -4275.7665    4.3209557    4.3209557    4.3209557   -4275.7665     31171.24   -31639.881   -12358.658    472.35595   -14840.376     1822.547    80.675088 
   30600     955.3793   -104.30339   0.86444727   -103.43894    32084.859    4.3227913    4.3227913    4.3227913    32084.859    70505.289    41661.495   -15912.207    305.80416    7849.4059   -2610.0953    80.777943 
   30700    1550.2291   -104.83954    1.4026798   -103.43687   -20244.232    4.3344046    4.3344046    4.3344046   -20244.232   -32043.494   -3437.4007     -25251.8   -17480.128     -16333.7    9454.8473    81.430736 
   30800    729.98163   -104.09603   0.66050272   -103.43553    994.72217    4.3274045    4.3274045    4.3274045    994.72217    2258.8407    23046.269   -22320.943    9426.4328   -107.21896   -16212.964    81.036837 
   30900    1138.9194   -104.46455    1.0305182   -103.43403    2234.2914    4.3174364    4.3174364    4.3174364    2234.2914    33592.936   -9239.1071   -17650.954   -1002.4382    3763.9195    1971.6234    80.478124 
   31000    1247.7064   -104.56836    1.1289509   -103.43941    13940.497    4.3163794    4.3163794    4.3163794    13940.497    24292.691    19853.446    -2324.644    14540.677   -6980.8144     -11411.3    80.419031 
   31100    1024.5553   -104.36206   0.92703921   -103.43502   -23344.808    4.3300712    4.3300712    4.3300712   -23344.808    2858.9683     -42879.4   -30013.993    3127.7791    5366.4136   -18988.398    81.186739 
   31200    905.57269   -104.24203    0.8193812   -103.42265   -2322.7432    4.3163369    4.3163369    4.3163369   -2322.7432    21572.908   -28317.218    -223.9204    1523.3208   -2936.1952    3717.3554    80.416657 
   31300    1177.4076   -104.49027    1.0653431   -103.42492   -964.93881    4.3101997    4.3101997    4.3101997   -964.93881    5634.9564    4065.0021   -12594.775    3931.5528   -1023.0643   -28776.604     80.07412 
   31400    1322.7709   -104.62103    1.1968709   -103.42416   -5946.1172    4.3206225    4.3206225    4.3206225   -5946.1172   -20282.996    10610.047   -8165.4024   -1873.4444    2348.2445    5047.6228    80.656426 
   31500    815.49094   -104.16346   0.73787334   -103.42559    2136.4456    4.3238959    4.3238959    4.3238959    2136.4456    -2230.141    24955.603   -16316.126   -7357.4285   -9434.6154   -17295.731    80.839886 
   31600    1055.6212   -104.37903   0.95514824   -103.42388   -1827.1703    4.3228352    4.3228352    4.3228352   -1827.1703    37498.273   -23100.971   -19878.812    1769.6909    5758.9193   -448.87742     80.78041 
   31700    1363.0028   -104.65932    1.2332736   -103.42605    12101.432     4.314646     4.314646     4.314646    12101.432    8117.5041    27755.236    431.55458   -8140.1304   -7139.7395   -5305.6203    80.322183 
   31800    1115.5035   -104.43676     1.009331   -103.42743    1923.3668    4.3233886    4.3233886    4.3233886    1923.3668    17393.272    11171.472   -22794.644    165.35808    -4017.132   -17396.524    80.811432 
   31900    888.69711    -104.2308   0.80411182   -103.42669    -15041.59    4.3297872    4.3297872    4.3297872    -15041.59   -12579.574   -23045.166   -9500.0315   -3187.1674    2437.1613    3920.6146    81.170766 
   32000    1045.2063   -104.37429   0.94572463   -103.42857    12514.357    4.3145477    4.3145477    4.3145477    12514.357   -5659.0274    43514.542   -312.44299   -7447.7643    -7673.638   -20494.187    80.316692 
   32100    1465.3537   -104.75421    1.3258828   -103.42833    6438.0601    4.3171622    4.3171622    4.3171622    6438.0601    13863.086    13356.851   -7905.7558   -501.44764   -285.06066   -8332.4234     80.46279 
   32200    826.72553    -104.1827   0.74803863   -103.43466   -1189.8282    4.3179665    4.3179665    4.3179665   -1189.8282   -27220.022    9290.5604    14359.977    3646.9346   -647.99658    3876.3492     80.50777 
   32300    751.32599   -104.11342   0.67981555    -103.4336   -9740.7603    4.3263613    4.3263613    4.3263613   -9740.7603    24795.739   -38354.082   -15663.938    -7389.869   -10415.216    -17347.71    80.978242 
   32400    1783.6053   -105.03647    1.6138435   -103.42263    2365.2028    4.3165767    4.3165767    4.3165767    2365.2028    636.24708   -5876.1622    12335.524    12975.574     2781.976     6946.471    80.430059 
   32500    826.48889   -104.17778   0.74782451   -103.42996    13825.734    4.3064156    4.3064156    4.3064156    13825.734    18485.587    16083.402    6908.2123   -11884.379    -10416.62   -13846.734    79.863403 
   32600    936.66169   -104.27597   0.84751118   -103.42846    -26441.15    4.3290649    4.3290649    4.3290649    -26441.15   -27310.296   -23118.603   -28894.551    6735.6882    174.91287   -9016.8216     81.13015 
   32700    1139.9416   -104.45214    1.0314431   -103.42069    18455.131    4.3201954    4.3201954    4.3201954    18455.131   -14009.564    25764.454    43610.503   -4388.9186   -9302.6411   -4644.3354    80.632511 
   32800     1280.984   -104.58733    1.1590612   -103.42827   -10812.165    4.3177445    4.3177445    4.3177445   -10812.165    797.93834   -4562.0442   -28672.388   -4764.0956   -2022.7954   -22922.662    80.495357 
   32900    1186.8432   -104.49516    1.0738807   -103.42128    14884.695    4.3144564    4.3144564    4.3144564    14884.695     -10475.4    21227.513    33901.971   -29.888975    268.78014   -4271.5238    80.311593 
   33000     608.5942   -103.98164   0.55066883   -103.43097   -10569.557    4.3198151    4.3198151    4.3198151   -10569.557    8250.8108   -38064.244   -1895.2389   -5034.3336   -7980.3376   -15058.937    80.611214 
   33100    1315.4747   -104.61807    1.1902691    -103.4278   -13009.468     4.322758     4.322758     4.322758   -13009.468   -11218.368   -14810.263   -12999.773   -5598.8345   -1500.4801   -13585.748    80.776077 
   33200    1421.5671   -104.70908    1.2862638   -103.42282    15839.529    4.3126537    4.3126537    4.3126537    15839.529    20424.498    4938.1358    22155.953    114.14341   -766.12003    5288.1075    80.210968 
   33300    699.59124   -104.06463   0.63300485   -103.43162   -37568.404    4.3239965    4.3239965    4.3239965   -37568.404    -23853.06   -46109.177   -42742.975   -10091.789   -9888.9811    -23164.72    80.845527 
   33400    979.20649   -104.31002   0.88600661   -103.42402    17466.717     4.318554     4.318554     4.318554    17466.717    -24087.61    34230.897    42256.865    3166.2628    4678.1009    420.01585    80.540639 
   33500    1485.4899   -104.77323    1.3441024   -103.42913   -21482.203    4.3222134    4.3222134    4.3222134   -21482.203   -21646.277   -22403.541   -20396.792   -3297.8859   -9961.5738   -13777.001    80.745555 
   33600    923.35549   -104.26473   0.83547145   -103.42926    12341.705    4.3152027    4.3152027    4.3152027    12341.705    8479.3108    22799.822    5745.9839    -5446.003    3407.7803   -25209.419     80.35328 
   33700    1215.8837   -104.52159    1.1001571   -103.42143   -11751.472    4.3172529    4.3172529    4.3172529   -11751.472     -18670.5   -7688.1527   -8895.7635    11153.161    5460.7867    8318.0511    80.467865 
   33800    551.51712   -103.93295   0.49902428   -103.43393    -11533.51    4.3246333    4.3246333    4.3246333    -11533.51    17290.876   -21492.299   -30399.108   -7773.8721   -5118.9452   -38133.763     80.88125 
   33900    1837.3025   -105.08297    1.6624299   -103.42054    6192.3087    4.3175351    4.3175351    4.3175351    6192.3087   -4133.8039    14118.005     8592.725    13457.514     11579.18    10166.977    80.483643 
   34000    857.64585   -104.20654   0.77601599   -103.43052   -16448.072    4.3249222    4.3249222    4.3249222   -16448.072     18470.88    -41468.81   -26346.285   -9767.9313   -3815.1607   -21369.393     80.89746 
   34100    630.27025    -104.0011   0.57028177   -103.43081    4735.2854    4.3168996    4.3168996    4.3168996    4735.2854   -22851.075    28504.513    8552.4175   -3551.0651    2950.5645   -11347.764    80.448111 
   34200    1713.0527   -104.97074    1.5500061   -103.42073   -5095.8757    4.3239463    4.3239463    4.3239463   -5095.8757   -14790.458    15027.382   -15524.552   -3697.2207    3488.9391       5252.1    80.842712 
   34300    869.25287   -104.21701   0.78651826   -103.43049    7918.7179    4.3173223    4.3173223    4.3173223    7918.7179     191.0849    27556.647   -3991.5783   -13369.701   -6435.3556   -25916.411    80.471744 
   34400    1093.3015   -104.41147   0.98924219   -103.42223    -10553.34    4.3182622    4.3182622    4.3182622    -10553.34   -2500.8794   -20859.236   -8299.9054   -1355.7647   -2024.3775    6016.4509    80.524313 
   34500    1004.9134   -104.33491   0.90926672   -103.42564   -10153.823    4.3235401    4.3235401    4.3235401   -10153.823   -10825.133   -864.77478   -18771.562   -6660.9976   -4315.9045   -15277.001    80.819933 
   34600    1163.9813   -104.48065    1.0531947   -103.42746    3888.7165    4.3168943    4.3168943    4.3168943    3888.7165    20655.131    1114.3288   -10103.311   -11393.214   -7320.4347   -16469.036    80.447813 
   34700    1381.8946   -104.67262    1.2503673   -103.42225   -11589.505    4.3243951    4.3243951    4.3243951   -11589.505    1850.4455   -31277.846   -5341.1159    6060.2078   -5323.3214    10705.223     80.86789 
   34800    715.63513   -104.07484   0.64752171   -103.42732    18338.488    4.3153082    4.3153082    4.3153082    18338.488    30009.156     32707.52   -7701.2137   -4128.3356   -4181.2375   -21459.623    80.359171 
   34900    1136.4818   -104.45629    1.0283126   -103.42798   -13431.604    4.3232165    4.3232165    4.3232165   -13431.604   -23903.319   -3285.0828    -13106.41   -6208.8026    1093.2309    5247.0417    80.801785 
   35000    1298.9311   -104.60208    1.1753002   -103.42678    8467.7608     4.318652     4.318652     4.318652    8467.7608   -4592.0719      40719.5   -10724.145    7625.6462   -1496.2489   -4200.0922    80.546119 
   35100    1002.4681   -104.34064   0.90705419   -103.43358   -4035.4819    4.3195268    4.3195268    4.3195268   -4035.4819    37294.883    -35651.21   -13750.119   -16883.533    4128.0786   -9884.5444    80.595078 
   35200    1042.6702   -104.37452    0.9434299   -103.43109    3572.3449     4.322081     4.322081     4.322081    3572.3449     38439.46   -16015.756   -11706.669    8466.1266    2115.9066    3490.6676    80.738132 
   35300    1163.2413   -104.48673    1.0525251    -103.4342   -12360.105    4.3198843    4.3198843    4.3198843   -12360.105     -23302.4    3712.7759    -17490.69    5500.3509   -5608.7349   -19087.034     80.61509 
   35400    1187.7627   -104.50703    1.0747126   -103.43232   -5760.6593    4.3201823    4.3201823    4.3201823   -5760.6593    5189.1421   -20379.091    -2092.029   -18576.654   -1075.2855    1701.2804    80.631775 
   35500    939.79096   -104.28174   0.85034261    -103.4314    2245.2664    4.3231634    4.3231634    4.3231634    2245.2664     14126.67    146.82276   -7537.6933    23984.059    108.20921    -8468.681    80.798806 
   35600    1233.0781   -104.54642     1.115715   -103.43071   -18360.617    4.3230604    4.3230604    4.3230604   -18360.617   -30955.318   -15171.167   -8955.3674   -27902.231   -8440.0343   -8705.7888    80.793035 
   35700    1064.7236   -104.39168    0.9633843   -103.42829    29240.123    4.3194092    4.3194092    4.3194092    29240.123    48440.018    27813.398    11466.954    12495.001    4321.6442    9348.6244    80.588497 
   35800    1068.1426   -104.39457   0.96647789   -103.42809   -22078.484    4.3256169    4.3256169    4.3256169   -22078.484   -7132.2706   -53265.004   -5838.1784   -906.55158   -3271.0829   -5085.7679    80.936453 
   35900    982.78957   -104.31986   0.88924866   -103.43061   -12388.392    4.3276284    4.3276284    4.3276284   -12388.392    11388.566   -47282.238   -1271.5048   -8949.9133    5634.9768    762.97996    81.049414 
   36000     1296.208   -104.59983    1.1728363     -103.427    6941.0766    4.3224371    4.3224371    4.3224371    6941.0766    9837.9841    18437.142   -7451.8962    20624.882    1147.7899     4297.946    80.758092 
   36100    1192.0769   -104.51088    1.0786162   -103.43226   -19880.637     4.326086     4.326086     4.326086   -19880.637   -12830.786   -26701.098   -20110.026     -27013.8    757.09212   -14597.685    80.962784 
   36200    954.30035   -104.29441   0.86347101   -103.43094    6970.3484    4.3254087    4.3254087    4.3254087    6970.3484    7080.3871    9491.9818    4338.6763    7156.4986   -2043.9919     6103.374    80.924767 
   36300    1122.1063   -104.44918    1.0153054   -103.43388    1442.6187    4.3267254    4.3267254    4.3267254    1442.6187    35783.547   -11801.841   -19653.849   -2106.5291   -2066.1974   -11739.806    80.998693 
   36400    968.58514   -104.31639   0.87639619      -103.44    9527.0117    4.3272563    4.3272563    4.3272563    9527.0117    19461.655    14095.601   -4976.2204   -9483.1573   -3954.3493    2600.1403    81.028512 
   36500    1148.3803   -104.47645    1.0390786   -103.43737   -435.55676    4.3258693    4.3258693    4.3258693   -435.55676    17249.397   -16213.227   -2342.8404    15994.511    4830.2196   -11028.876    80.950623 
   36600    1225.9731   -104.55049    1.1092862    -103.4412   -29574.124    4.3346929    4.3346929    4.3346929   -29574.124   -16634.374   -49394.919   -22693.079   -21264.732   -2874.6809   -2917.1706    81.446981 
   36700    1064.2211    -104.3989   0.96292963   -103.43597    30404.289    4.3226204    4.3226204    4.3226204    30404.289    45227.874    53360.097   -7375.1028    5876.6862   -2730.8678    2545.9314    80.768368 
   36800    1174.5153    -104.5029    1.0627261   -103.44017   -14593.961    4.3273649    4.3273649    4.3273649   -14593.961    -12866.53   -15185.339   -15730.016    17350.223   -1261.8357   -15182.763    81.034613 
   36900    1123.2356   -104.45477    1.0163272   -103.43844    -11653.12    4.3236917    4.3236917    4.3236917    -11653.12    -20153.41   -7988.5929   -6817.3579    -21211.59   -10005.617    7145.0103    80.828435 
   37000    954.20969   -104.30994   0.86338898   -103.44655    -10560.16    4.3299137    4.3299137    4.3299137    -10560.16    13929.603   -21775.156   -23834.927    17440.713   -4862.9234    -9354.631    81.177885 
   37100    1226.9832   -104.55236    1.1102002   -103.44216    14044.542    4.3190175    4.3190175    4.3190175    14044.542     1127.954    47128.591   -6122.9195   -19320.978   -5175.0784   -10984.216    80.566573 
   37200    982.02339   -104.33884    0.8885554   -103.45029    14779.381    4.3288876    4.3288876    4.3288876    14779.381    12800.456    45970.387   -14432.699   -1044.2945   -5520.9739    1506.8166    81.120185 
   37300    1151.1463   -104.48801    1.0415814   -103.44643   -22483.308    4.3369199    4.3369199    4.3369199   -22483.308   -2135.4699   -32480.441   -32834.014    16784.097    371.36919   -14020.989    81.572581 
   37400    1405.5172     -104.707    1.2717415   -103.43526    9339.0904    4.3173842    4.3173842    4.3173842    9339.0904    7954.3007    32526.511   -12463.541   -1056.0516   -8717.4216    6114.1925    80.475203 
   37500    825.82977   -104.19182   0.74722813   -103.44459   -6655.3835    4.3264808    4.3264808    4.3264808   -6655.3835    3152.5834    9474.3752   -32593.109    4904.9577    3608.8977   -18591.083    80.984957 
   37600    1097.1466   -104.43586   0.99272128   -103.44314   -7467.4787    4.3268763    4.3268763    4.3268763   -7467.4787   -3498.2661    12456.745   -31360.915    2600.5949   -6392.2046   -7190.2376    81.007166 
   37700    998.57638   -104.34518   0.90353289   -103.44165   -9913.2278    4.3299537    4.3299537    4.3299537   -9913.2278    15122.317   -12864.932   -31997.068   -12914.347    -7579.483   -3415.5377    81.180132 
   37800    1046.0791   -104.38393   0.94651434   -103.43741      24285.8    4.3146332    4.3146332    4.3146332      24285.8    76716.334    24171.605   -28030.538    4039.1735     3052.174   -14866.067    80.321467 
   37900    1358.8446   -104.66587    1.2295111   -103.43636   -48.207288    4.3199311    4.3199311    4.3199311   -48.207288    18235.171    450.35305   -18830.146   -1139.0352   -13298.025    4134.5117    80.617712 
   38000    919.46162   -104.27687    0.8319482   -103.44492   -34758.675    4.3377932    4.3377932    4.3377932   -34758.675   -15239.509   -51568.924   -37467.592    454.21403    2559.5633   -12392.708    81.621866 
   38100    1322.0062   -104.63174     1.196179   -103.43556    16498.214    4.3259081    4.3259081    4.3259081    16498.214    70975.889    1402.8522     -22884.1    11470.575    1582.9803    -254.4543    80.952797 
   38200    919.49779   -104.27573   0.83198092   -103.44375    12605.308    4.3229053    4.3229053    4.3229053    12605.308    58071.828    6510.8382   -26766.741   -6471.0892    4486.6104   -8077.6002    80.784336 
   38300    624.07176   -104.01287   0.56467325    -103.4482   -4052.9531    4.3304632    4.3304632    4.3304632   -4052.9531    39896.766    -29980.27   -22075.355    4096.0532     12254.65   -2506.2123    81.208793 
   38400    1574.2298   -104.85441    1.4243962   -103.43001   -6746.6967    4.3288389    4.3288389    4.3288389   -6746.6967   -942.00904    3601.5469   -22899.628   -8967.6905   -10722.453    2004.2599    81.117447 
   38500    965.07295   -104.30513   0.87321829   -103.43192    14833.032    4.3164595    4.3164595    4.3164595    14833.032    55141.163    24534.635   -35176.701   -4736.9629    7018.2395   -7786.6438    80.423505 
   38600    1055.4367   -104.38856   0.95498134   -103.43358    9723.5462    4.3224353    4.3224353    4.3224353    9723.5462    48775.265    386.61889   -19991.245    -9329.809   -787.32756    11598.404     80.75799 
   38700    1222.1332   -104.53149    1.1058118   -103.42568   -10298.912    4.3324891    4.3324891    4.3324891   -10298.912    21739.025   -25400.025   -27235.737    8857.6076    396.59734   -9671.1622    81.322822 
   38800    888.62169   -104.23766   0.80404358   -103.43361   -160.28511    4.3210069    4.3210069    4.3210069   -160.28511    33667.257    4162.0887   -38310.201   -4635.8315    9084.8131    7082.4629    80.677954 
   38900    1526.5176   -104.80583    1.3812252    -103.4246    9169.9614    4.3136969    4.3136969    4.3136969    9169.9614    17200.636    9504.9814    804.26655    14291.853   -3663.0608    3465.7347    80.269191 
   39000    732.10502    -104.0963   0.66242401   -103.43387   -13604.993    4.3225258    4.3225258    4.3225258   -13604.993    10894.782   -34617.162   -17092.599   -5076.4824    5937.1313   -4302.3226    80.763063 
   39100    946.54792   -104.29291   0.85645645   -103.43645   -6385.9725    4.3215051    4.3215051    4.3215051   -6385.9725    42422.377   -31188.611   -30391.683    2869.6464    5328.3668    18630.984    80.705861 
   39200     1843.814   -105.09579    1.6683217   -103.42747    5842.2413    4.3150131    4.3150131    4.3150131    5842.2413    -494.2502    25566.372   -7545.3984   -13211.605   -539.25249   -3662.7647    80.342688 
   39300    518.76078   -103.91182   0.46938566   -103.44243   -512.81344    4.3164751    4.3164751    4.3164751   -512.81344    56174.695   -30189.664   -27523.471    1017.8041    11569.847     13490.37    80.424382 
   39400    984.15646   -104.32765   0.89048545   -103.43716   -14125.754    4.3255394    4.3255394    4.3255394   -14125.754   -10871.815   -17269.295   -14236.151   -16036.938   -3579.6255   -3047.3047      80.9321 
   39500    1656.9074   -104.92619    1.4992047   -103.42699    7525.4415    4.3172621    4.3172621    4.3172621    7525.4415     22237.23    22910.842   -22571.747    15122.167   -755.58265    6588.8614     80.46838 
   39600    695.83856   -104.06542   0.62960935   -103.43582    -27571.63    4.3206493    4.3206493    4.3206493    -27571.63   -19490.703    -30540.78   -32683.406   -6000.3161    7411.7889    4489.1158    80.657923 
   39700    922.63003   -104.26405   0.83481504   -103.42923    2027.4276    4.3148472    4.3148472    4.3148472    2027.4276     7719.677   -12754.085    11116.691   -4350.0759   -8673.6329    1768.9198    80.333419 
   39800    1375.4182   -104.67279    1.2445073   -103.42828    1172.8233    4.3212386    4.3212386    4.3212386    1172.8233    19919.202    12512.118    -28912.85    3174.1394    3615.1759    8042.1975    80.690935 
   39900    1095.5039   -104.42113   0.99123491    -103.4299   -6167.7561    4.3176824    4.3176824    4.3176824   -6167.7561   -11228.228    13867.981   -21143.021   -13060.392   -4319.4216   -2187.6433    80.491884 
   40000    1045.8879   -104.36705   0.94634134   -103.42071    16427.128    4.3151471    4.3151471    4.3151471    16427.128    23669.371    24061.517    1550.4966   -5426.1069   -4862.7282    1100.9845    80.350174 
   40100    987.28186   -104.31966   0.89331338   -103.42634     -13398.7    4.3232259    4.3232259    4.3232259     -13398.7   -13578.685   -999.17991   -25618.235    1751.6502    5730.6333    6108.6818    80.802309 
   40200    1436.5557   -104.72905    1.2998258   -103.42922   -1674.4153    4.3176246    4.3176246    4.3176246   -1674.4153       306.19    7340.5196   -12669.956   -23103.409   -7021.8806    -10733.46    80.488649 
   40300    1054.9499   -104.38322   0.95454081   -103.42868    3020.4266    4.3210491    4.3210491    4.3210491    3020.4266   -13856.965    40160.388   -17242.143    5948.1206    6602.2166    2893.6694    80.680321 
   40400     769.7847   -104.13109   0.69651738   -103.43457   -15280.509    4.3206679    4.3206679    4.3206679   -15280.509    -19420.08   -10213.707   -16207.739   -9151.9985   -2692.1731   -3051.5183    80.658967 
   40500    1246.4946   -104.55641    1.1278545   -103.42856    4044.4028    4.3255759    4.3255759    4.3255759    4044.4028     22282.46    7932.4417   -18081.694   -5015.1201    -4130.805   -14079.655     80.93415 
   40600    1281.3436   -104.58588    1.1593866   -103.42649    7345.6137    4.3126884    4.3126884    4.3126884    7345.6137    3671.1003    44837.559   -26471.819    10370.158    7959.8857    10905.881    80.212905 
   40700     734.8022   -104.09386   0.66486447     -103.429     -3445.74    4.3155664    4.3155664    4.3155664     -3445.74    15488.393   -15250.906   -10574.707   -17398.996   -10526.535   -10554.678    80.373599 
   40800    1190.3496   -104.49974    1.0770533   -103.42268   -17979.493    4.3244227    4.3244227    4.3244227   -17979.493    -10787.05     -26126.4   -17025.029    10808.583    7900.0167    2030.4214    80.869435 
   40900    1220.0297   -104.52872    1.1039085   -103.42481    3009.9253     4.316546     4.316546     4.316546    3009.9253    18377.457    14794.565   -24142.247   -12020.414   -3818.0777    4069.8043    80.428344 
   41000     1310.283   -104.60909    1.1855716   -103.42352   -7004.9928    4.3166295    4.3166295    4.3166295   -7004.9928   -13079.268     4600.104   -12535.815   -11155.494    320.70783   -10225.664    80.433009 
   41100    799.72809   -104.15151   0.72361078    -103.4279     10010.81    4.3153607    4.3153607    4.3153607     10010.81   -4938.9918    51952.514   -16981.092   -26.880308    2932.2902   -2090.9563    80.362103 
   41200    1079.7727   -104.40541   0.97700106   -103.42841   -9493.0298    4.3250215    4.3250215    4.3250215   -9493.0298    12297.327   -20462.395   -20314.021   -7124.8998   -6158.2168   -7962.0562    80.903032 
   41300    1482.5385   -104.76478     1.341432   -103.42334   -152.39836    4.3205881    4.3205881    4.3205881   -152.39836    17131.398    1310.6283   -18899.222    1490.9948    10436.425   -4664.7698      80.6545 
   41400    849.68224   -104.19729   0.76881035   -103.42848    15580.931    4.3137377    4.3137377    4.3137377    15580.931    16366.819    60256.232   -29880.259    2834.4145   -9929.5774   -1213.6665    80.271466 
   41500    1064.6019   -104.39323   0.96327417   -103.42996   -4616.9253    4.3246108    4.3246108    4.3246108   -4616.9253   -12186.088    15973.387   -17638.074     -6249.91    1506.5232   -9851.8587    80.879988 
   41600    1173.6528   -104.49081    1.0619457   -103.42886   -11878.994    4.3262802    4.3262802    4.3262802   -11878.994   -3013.8153    643.84767   -33267.014    7943.9846    3861.4027    3312.9849    80.973693 
   41700    1161.4814   -104.47798    1.0509327   -103.42704     6020.098    4.3159032    4.3159032    4.3159032     6020.098    5007.1506    29752.371   -16699.228   -8560.2816   -17515.382   -756.75536    80.392417 
   41800    1210.9811   -104.52002    1.0957211    -103.4243    4241.1181    4.3153886    4.3153886    4.3153886    4241.1181    10285.584    26113.965   -23676.195   -2496.0222    12940.198   -8257.5467    80.363666 
   41900    731.73648    -104.0901   0.66209054   -103.42801   -11269.511    4.3229848    4.3229848    4.3229848   -11269.511   -9346.2418    4398.8625   -28861.154    896.38119   -16499.543    5073.3207    80.788792 
   42000    1399.0129   -104.68412    1.2658563   -103.41826    13288.082    4.3207382    4.3207382    4.3207382    13288.082    28212.115    24134.367   -12482.236   -5415.7782    3765.0978   -4912.1868    80.662905 
   42100    1027.5791   -104.35555   0.92977521   -103.42578   -8087.5443    4.3207939    4.3207939    4.3207939   -8087.5443   -13069.447    33454.882   -44648.068    7249.7047   -8669.3786   -7211.3355    80.666027 
   42200    1142.3507    -104.4597    1.0336229   -103.42607    6603.3147    4.3167306    4.3167306    4.3167306    6603.3147   -19996.919    62408.407   -22601.543    -6700.891   -10386.001    4880.5195     80.43866 
   42300    1311.6543   -104.61529    1.1868123   -103.42847   -9009.2835    4.3224327    4.3224327    4.3224327   -9009.2835    965.55973   -936.53174   -27056.879    5296.4403    2180.4584   -6497.0836    80.757843 
   42400    793.04891   -104.15381   0.71756732   -103.43624    -6762.662     4.325697     4.325697     4.325697    -6762.662   -20063.162    30274.446    -30499.27   -5989.7691   -20489.682    8259.0201     80.94095 
   42500    1304.7379   -104.60487    1.1805542   -103.42432    1959.3988    4.3241647    4.3241647    4.3241647    1959.3988   -1878.6572     26150.11   -18393.257    12528.894    6576.1891    1767.8904    80.854964 
   42600    998.34913   -104.33129   0.90332727   -103.42796    13947.857     4.313943     4.313943     4.313943    13947.857    805.45132    78441.519   -37403.399   -2119.9744    -14765.82    6465.2198    80.282928 
   42700    1319.3301   -104.61686    1.1937576   -103.42311   -9253.3611    4.3217173    4.3217173    4.3217173   -9253.3611    -2823.836   -11834.492   -13101.755    20755.259   -7903.8085    5865.1873    80.717754 
   42800    830.29193   -104.17401   0.75126559   -103.42274   -4757.8874    4.3258535    4.3258535    4.3258535   -4757.8874    16550.909   -8754.0805   -22070.491    542.50824    513.54857   -1401.3377    80.949732 
   42900    1001.1701   -104.33374   0.90587973   -103.42786   -21925.494    4.3260026    4.3260026    4.3260026   -21925.494   -39625.338    28842.831   -54993.975    9379.9416   -13252.583    5850.6328    80.958105 
   43000    1575.8415      -104.85    1.4258545   -103.42414    2804.3528    4.3231265    4.3231265    4.3231265    2804.3528    9557.7642    12345.939   -13490.644    1287.8848     4282.796   -5413.1634    80.796738 
   43100    889.27895   -104.24127   0.80463829   -103.43663   -110.83391     4.320654     4.320654     4.320654   -110.83391   -26224.114    68030.864   -42139.252      -5843.4   -6660.0437   -7373.3605     80.65819 
   43200    812.59963   -104.17176   0.73525722    -103.4365   -9323.7928    4.3274734    4.3274734    4.3274734   -9323.7928   -10482.874    4275.9199   -21764.424    477.90864    2841.4658    4295.1086     81.04071 
   43300    1221.1068   -104.53811    1.1048831   -103.43323   -8763.7308    4.3230607    4.3230607    4.3230607   -8763.7308   -751.47967    9477.4587   -35017.171    1428.5392   -5784.0015   -1240.9822    80.793047 
   43400    1214.1336   -104.53553    1.0985736   -103.43695     5587.842    4.3170554    4.3170554    4.3170554     5587.842   -8844.8921    57418.674   -31810.256    9402.2561    1723.0664   -5294.4328    80.456822 
   43500    1216.9909   -104.53595     1.101159   -103.43479    21144.697     4.322539     4.322539     4.322539    21144.697    43669.188    22083.812   -2318.9105    8078.5629    4526.0885    -4703.747    80.763802 
   43600    646.18015   -104.02228   0.58467738    -103.4376   -24420.554    4.3266116    4.3266116    4.3266116   -24420.554   -35463.891    16593.887   -54391.659   -3716.8622   -594.14108   -3907.2044    80.992302 
   43700    1210.9576   -104.52306    1.0956999   -103.42736    3304.9866    4.3175994    4.3175994    4.3175994    3304.9866    17045.926    5250.8384   -12381.805    1576.1776    7553.3378   -7912.5245    80.487242 
   43800    1432.6978   -104.72497    1.2963351   -103.42864    874.72223    4.3214533    4.3214533    4.3214533    874.72223   -4438.8601    23572.715   -16509.688   -13851.265    2848.0054    5703.1621    80.702963 
   43900    1083.9801   -104.41123   0.98080794   -103.43042    -16436.07    4.3246965    4.3246965    4.3246965    -16436.07    5865.7641   -7372.5616   -47801.413    960.63629    922.97574     952.4295    80.884797 
   44000    844.55441   -104.18707   0.76417058    -103.4229    22247.318    4.3192836    4.3192836    4.3192836    22247.318    35711.724    37936.288   -6906.0581    660.45864   -1215.5707    10476.712    80.581468 
   44100    948.46252   -104.28765   0.85818882   -103.42947   -6139.6777    4.3168102    4.3168102    4.3168102   -6139.6777   -3772.5878    18598.808   -33245.253    1129.7459    2662.4928    4802.3639    80.443111 
   44200    1499.0552   -104.78789    1.3563766   -103.43151    4065.1203    4.3258549    4.3258549    4.3258549    4065.1203    22887.651     16283.07    -26975.36    7704.9678   -1145.1854    7618.9466    80.949813 
   44300    1269.6551   -104.57683    1.1488107   -103.42802   -10387.691    4.3234584    4.3234584    4.3234584   -10387.691    3700.3174   -1334.1414   -33529.249    10829.913    1516.0667    9602.8003    80.815351 
   44400     684.3502   -104.05168   0.61921445   -103.43246   -14551.903    4.3220716    4.3220716    4.3220716   -14551.903   -18938.328    9950.4561   -34667.836   -2636.6562    8173.2021   -5285.1605    80.737606 
   44500    1139.0944   -104.45885    1.0306766   -103.42817    21190.172    4.3218678    4.3218678    4.3218678    21190.172    15805.666    63562.779    -15797.93    8059.5768   -3325.9672    12073.581    80.726187 
   44600    1350.2704   -104.65342     1.221753   -103.43167    -4193.342     4.325126     4.325126     4.325126    -4193.342    11829.802    10908.872   -35318.701   -7582.2283    9429.4023    2063.9623    80.908899 
   44700    1132.7562   -104.45232    1.0249416   -103.42738    4164.4728    4.3232586    4.3232586    4.3232586    4164.4728   -9592.1907     47838.12   -25752.511   -13056.892    2731.0838   -152.71654    80.804148 
   44800    697.86322   -104.05993    0.6314413   -103.42849    706.74558    4.3239676    4.3239676    4.3239676    706.74558    34135.967   -8514.0825   -23501.648   -1359.7505   -944.35265    16917.701    80.843904 
   44900    1399.3938   -104.69404    1.2662009   -103.42784    -16524.78    4.3222613    4.3222613    4.3222613    -16524.78   -20326.538   -6699.1462   -22548.656   -17743.007    9642.0181    1041.3775    80.748239 
   45000    1174.7484   -104.49337     1.062937   -103.43043    5157.8903    4.3249836    4.3249836    4.3249836    5157.8903    6691.6206     35924.41    -27142.36    11113.214   -2712.5776    12143.966    80.900908 
   45100    780.80008   -104.14022   0.70648432   -103.43374    11498.718    4.3232843    4.3232843    4.3232843    11498.718   -10559.491    74280.386    -29224.74    1053.3847    4952.3032   -2927.2549    80.805588 
   45200    1055.6593   -104.39053   0.95518268   -103.43534    -22924.72    4.3266449    4.3266449    4.3266449    -22924.72   -27765.724   -22785.438   -18222.998     4591.619   -618.28707   -827.31571    80.994173 
   45300    1316.8805   -104.62338    1.1915412   -103.43184    5216.1481    4.3191045    4.3191045    4.3191045    5216.1481    12761.709    13850.713   -10963.978   -3447.6588    8081.0999    4073.2854    80.571443 
   45400     1002.771   -104.33989   0.90732823   -103.43256   -7903.8575    4.3300998    4.3300998    4.3300998   -7903.8575   -37469.487    39498.101   -25740.187   -7412.0039   -1953.0243    3272.4534    81.188352 
   45500    948.09861   -104.28862   0.85785955   -103.43076    6182.6123    4.3228689    4.3228689    4.3228689    6182.6123    1579.2585     23984.67   -7016.0915   -9081.2443   -440.76121    9908.2902    80.782296 
   45600     1369.963   -104.66267    1.2395713    -103.4231    6625.6499    4.3215271    4.3215271    4.3215271    6625.6499    16442.983    12409.344   -8975.3774    8283.0774    5402.3406    11191.837    80.707098 
   45700    752.24802   -104.11377   0.68064982   -103.43312    925.37513    4.3281123    4.3281123    4.3281123    925.37513   -10082.669    19050.197   -6191.4031   -17305.034    -8599.425    3235.0124    81.076606 
   45800    1332.3802   -104.63439    1.2055656   -103.42882   -12582.058    4.3258062    4.3258062    4.3258062   -12582.058   -1915.1263   -1315.6379    -34515.41    22846.835    4043.3159    17376.635     80.94708 
   45900    1208.6475   -104.52295    1.0936096   -103.42934   -9255.5357    4.3312016    4.3312016    4.3312016   -9255.5357    4271.8231   -17765.645   -14272.786   -19207.169   -5957.1135   -8025.7082    81.250342 
   46000    791.88765   -104.14896   0.71651659   -103.43244    16752.335    4.3234685    4.3234685    4.3234685    16752.335   -6421.1038     64659.43   -7981.3213   -902.80709   -4840.4981    8586.7084    80.815914 
   46100    1237.9785   -104.55421    1.1201489   -103.43407   -5605.3862     4.333996     4.333996     4.333996   -5605.3862   -2818.1021    20068.344     -34066.4   -145.34069    1566.8404    1383.1881    81.407707 
   46200     1283.301   -104.59609    1.1611577   -103.43493   -11097.466    4.3283454    4.3283454    4.3283454   -11097.466   -19818.421    956.08786   -14430.064   -27508.352   -605.47324    230.81956    81.089704 
   46300    933.63014   -104.28281   0.84476817   -103.43804    11026.261    4.3228913    4.3228913    4.3228913    11026.261    20943.533    20553.411   -8418.1613    21721.241     946.0719    2704.3198    80.783551 
   46400    1064.9782   -104.39795   0.96361469   -103.43433    7969.6239    4.3300292    4.3300292    4.3300292    7969.6239    6681.5178    38964.934    -21737.58   -12240.245   -3630.6329   -1620.6969    81.184382 
   46500    1048.1256   -104.39163   0.94836605   -103.44327   -10575.732    4.3272408    4.3272408    4.3272408   -10575.732   -12635.718   -9253.3204   -9838.1569    11220.443    400.87219    3944.9329    81.027639 
   46600     1390.442   -104.69978    1.2581011   -103.44167    5484.6346    4.3261783    4.3261783    4.3261783    5484.6346     22511.75    5628.6708   -11686.517     4881.232   -2099.3656    5214.5628    80.967971 
   46700    1093.1294   -104.43182   0.98908648   -103.44273   -5496.8809    4.3306733    4.3306733    4.3306733   -5496.8809   -4112.6579   -6942.4493   -5435.5354    -9158.107   -4032.4116   -2740.8636    81.220612 
   46800    618.17705   -104.00005   0.55933958   -103.44071    12179.111     4.325498     4.325498     4.325498    12179.111    9061.4539    24245.543    3230.3363    20789.455    2185.6776    8407.0412    80.929776 
   46900    1802.3762   -105.05871    1.6308279   -103.42788   -11228.894    4.3303931    4.3303931    4.3303931   -11228.894   -2255.8862   -1512.2186   -29918.576    4777.3986   -3444.7064   -7270.9497    81.204848 
   47000    908.35687    -104.2529   0.82190038     -103.431    35639.077    4.3176426    4.3176426    4.3176426    35639.077    21697.578    69084.462    16135.192    6950.7216     4123.161    7345.0492    80.489657 
   47100      734.467   -104.09717   0.66456118    -103.4326   -18832.238    4.3321797    4.3321797    4.3321797   -18832.238    6131.3525   -54285.288   -8342.7783    21490.271    1435.4583    2623.0903    81.305401 
   47200    1550.4478   -104.82268    1.4028777    -103.4198   -8478.1955    4.3272585    4.3272585    4.3272585   -8478.1955    9952.3934   -9834.6365   -25552.343   -13768.284     1266.513   -4550.9455    81.028636 
   47300    834.76056   -104.18773    0.7553089   -103.43242    18850.198    4.3195542    4.3195542    4.3195542    18850.198    13856.196    25320.589     17373.81    24577.401    887.62106    9061.7203    80.596613 
   47400    1364.8173   -104.66345    1.2349153   -103.42854   -7199.2442     4.328464     4.328464     4.328464   -7199.2442   -11671.378    8726.0448   -18652.399   -5098.8366    2633.2445   -871.84933    81.096374 
   47500    804.60165   -104.15671   0.72802048   -103.42869    7783.3208    4.3262045    4.3262045    4.3262045    7783.3208    13247.132    17504.039   -7401.2089    13702.242   -2155.8755   -3516.1259     80.96944 
   47600    1047.8423   -104.38096   0.94810972   -103.43285   -1020.2905    4.3289854    4.3289854    4.3289854   -1020.2905   -19056.343    15267.038    728.43326    11736.954   -18.803329    4382.5932    81.125681 
   47700    1577.3214   -104.84811    1.4271936   -103.42092    1761.5183    4.3228422    4.3228422    4.3228422    1761.5183      23571.2   -4266.6233   -14020.022    801.85559    -133.4765   -18228.144      80.7808 
   47800    709.35392   -104.07768   0.64183833   -103.43584   -15853.046    4.3269942    4.3269942    4.3269942   -15853.046    1265.5769    -40800.59   -8024.1249    19660.409   -393.60784    14631.885    81.013786 
   47900    1000.4638   -104.33636    0.9052407   -103.43112    22933.299    4.3267084    4.3267084    4.3267084    22933.299    26679.496    50915.987   -8795.5855   -1597.4688   -1766.9013    -12818.33    80.997734 
   48000     1285.154   -104.59854    1.1628344   -103.43571   -4131.6096    4.3326662    4.3326662    4.3326662   -4131.6096     20841.99   -6642.9116   -26593.908    14886.277     3218.322    8123.9549    81.332793 
   48100    1327.2544   -104.63395    1.2009277   -103.43302   -14619.269    4.3213414    4.3213414    4.3213414   -14619.269   -26096.681   -2228.3708   -15532.753    6893.2538    4287.6382    5537.5595    80.696694 
   48200    896.85342   -104.24993   0.81149182   -103.43844   -8827.6145    4.3284211    4.3284211    4.3284211   -8827.6145    11177.736    -14383.53    -23277.05    19.009499    2779.8329   -11164.458    81.093961 
   48300     878.2331   -104.23177   0.79464376   -103.43712    1499.3942    4.3317144    4.3317144    4.3317144    1499.3942   -9075.9657    29016.351   -15442.203    13153.329    5540.7915    10584.276    81.279207 
   48400    1498.4698   -104.78885     1.355847     -103.433   -16839.242    4.3262517    4.3262517    4.3262517   -16839.242   -10716.587   -7751.4622   -32049.676    5529.4612     4325.575   -14211.176    80.972089 
   48500    1223.3141   -104.53837    1.1068803   -103.43149    17620.212    4.3170696    4.3170696    4.3170696    17620.212    20013.642     37825.86   -4978.8656    4380.9889     95.51435   -2514.9578    80.457615 
   48600    630.40452   -104.00763   0.57040326   -103.43723   -28987.186    4.3397377    4.3397377    4.3397377   -28987.186   -20218.394   -44204.072   -22539.093    14793.718    914.77519    8543.4906     81.73168 
   48700    1332.5257   -104.63019    1.2056972   -103.42449    5825.2981    4.3251967    4.3251967    4.3251967    5825.2981    16956.784    22901.418   -22382.308    -8373.923    4947.9685   -12637.507    80.912867 
   48800    1340.3652   -104.64179    1.2127906     -103.429   -15351.814    4.3245921    4.3245921    4.3245921   -15351.814   -22558.872   -6675.6712     -16820.9    23551.933   -6806.6071    11226.962    80.878938 
   48900    1113.7317   -104.44982    1.0077278    -103.4421   -9425.4411    4.3270677    4.3270677    4.3270677   -9425.4411   -9251.5558     15890.32   -34915.087    3303.1254    1014.4529   -15067.753    81.017915 
   49000    1219.2782   -104.55093    1.1032285    -103.4477     3522.197    4.3321402    4.3321402    4.3321402     3522.197      2201.51    25612.369   -17247.288   -2666.1891   -4052.5154    973.50001    81.303176 
   49100    613.30077   -104.00478   0.55492743   -103.44985   -3531.2443    4.3322899    4.3322899    4.3322899   -3531.2443    -29379.71    34266.642   -15480.665    16508.952    344.62867    11385.442    81.311607 
   49200    1255.3515   -104.57758    1.1358684   -103.44171    5546.4184    4.3258857    4.3258857    4.3258857    5546.4184   -775.70155    47032.708   -29617.751   -9734.1309   -4873.2537   -10681.648    80.951542 
   49300    1311.4704   -104.62812     1.186646   -103.44147   -3762.5505    4.3208055    4.3208055    4.3208055   -3762.5505   -3823.9774   -10001.376    2537.7021    24202.178    2307.4955    7262.2034    80.666671 
   49400     1011.247   -104.36076   0.91499754   -103.44576   -15216.703    4.3311447    4.3311447    4.3311447   -15216.703     942.0799   -25451.401   -21140.788    11315.859    1774.2093     9970.138    81.247142 
   49500    986.64781   -104.32457   0.89273967   -103.43183    22673.999    4.3270484    4.3270484    4.3270484    22673.999    10199.666    75658.676   -17836.343   -7066.8059     1178.504    -6498.349    81.016835 
   49600    1058.5056   -104.39508   0.95775808   -103.43732   -6440.2985    4.3178843    4.3178843    4.3178843   -6440.2985    -24905.74    2702.2501    2882.5941    23788.826    4018.7493    13440.796    80.503176 
   49700    1665.0776   -104.94071    1.5065972   -103.43411    10157.638      4.32083      4.32083      4.32083    10157.638    17712.071    19921.274   -7160.4307   -9168.3613    4795.0788   -1477.0872    80.668048 
   49800    805.08192   -104.17436   0.72845504    -103.4459   -26987.098    4.3309891    4.3309891    4.3309891   -26987.098   -34195.839   -30095.264    -16670.19     8088.169    2086.2101    1441.1198    81.238382 
   49900    537.22035   -103.92958   0.48608826   -103.44349      29859.1    4.3139287    4.3139287    4.3139287      29859.1   -6017.2353    90421.115    5173.4212    12962.184    2427.9493    23374.663    80.282132 
   50000    1751.5044   -105.01944     1.584798   -103.43464    1319.0396    4.3292974    4.3292974    4.3292974    1319.0396   -3888.2673      25908.5   -18063.114   -14968.373    3548.7044   -9454.2872    81.143224 
   50100    1225.6208   -104.55296    1.1089675   -103.44399   -14892.347    4.3210985    4.3210985    4.3210985   -14892.347   -11190.707   -21372.335   -12113.998    35480.941    342.68562    17868.534    80.683084 
   50200    1072.1363   -104.42329   0.97009142    -103.4532   -3287.0122    4.3258273    4.3258273    4.3258273   -3287.0122    6689.3431   -538.66874   -16011.711     -7005.29    2233.6645    3726.6706    80.948264 
   50300    1038.0257   -104.38667   0.93922744   -103.44744    1466.4505    4.3343205    4.3343205    4.3343205    1466.4505   -25747.998    46443.784   -16296.435    16713.829   -3185.2648   -1395.3678    81.425991 
   50400    905.43722    -104.2631   0.81925862   -103.44384    18950.202     4.322424     4.322424     4.322424    18950.202    8934.9842    56934.637   -9019.0157    16842.755    6303.5071    30183.977    80.757357 
   50500    1372.9929    -104.6739    1.2423128   -103.43158   -5570.0285    4.3202745    4.3202745    4.3202745   -5570.0285    342.05085    4871.8677   -21924.004    3226.5998   -5078.3926   -22167.808    80.636939 
   50600    889.55016   -104.24693   0.80488367   -103.44205   -28702.508    4.3250782    4.3250782    4.3250782   -28702.508   -26786.963   -34883.326   -24437.236    20825.537    166.86841    20418.186    80.906215 
   50700    1116.7329   -104.45052    1.0104434   -103.44008   -2098.0221    4.3234011    4.3234011    4.3234011   -2098.0221   -7788.1056    18354.466   -16860.427    305.45616    1861.9214     5021.181    80.812137 
   50800    1261.7072   -104.57723    1.1416192   -103.43562    8489.8042    4.3211307    4.3211307    4.3211307    8489.8042    128.32758    47349.904   -22008.819    4829.4512    -2696.456   -9736.4453     80.68489 
   50900    958.76264   -104.30403   0.86750858   -103.43652   -13346.903    4.3153379    4.3153379    4.3153379   -13346.903   -4105.6018   -5074.8346   -30860.271    7653.7075    -3247.401    26580.522    80.360834 
   51000    1155.5448   -104.48609    1.0455613   -103.44053   -5998.0936    4.3204851    4.3204851    4.3204851   -5998.0936    3023.6661   -11821.717   -9196.2301   -1368.4007    1836.9451   -24850.524     80.64873 
   51100    1072.0848   -104.40892   0.97004487   -103.43887    7428.4166    4.3224126    4.3224126    4.3224126    7428.4166    2984.3969    38148.939   -18848.086   -539.73994   -2424.5003    4068.1544     80.75672 
   51200    1063.9811   -104.40157    0.9627125   -103.43886   -6193.5784    4.3205246    4.3205246    4.3205246   -6193.5784    13899.407     12455.16   -44935.302    3783.8037   -2713.0294    15036.342    80.650944 
   51300    1277.5642   -104.58522    1.1559669   -103.42926   -7668.8104    4.3196885    4.3196885    4.3196885   -7668.8104   -12720.812    7929.6291   -18215.248   -13606.125    4493.3784   -16612.848    80.604131 
   51400    907.31847   -104.25717   0.82096082   -103.43621   -21582.297    4.3253507    4.3253507    4.3253507   -21582.297   -5241.8363   -38027.229   -21477.826    10252.704   -1772.8985    34441.657    80.921508 
   51500    1162.2027   -104.48204    1.0515855   -103.43046    14631.931    4.3207726    4.3207726    4.3207726    14631.931    -1109.723    63840.075   -18834.561   -2834.7427    4537.9424   -12789.347    80.664834 
   51600     904.3584    -104.2619   0.81828249   -103.44362    1571.5078    4.3291313    4.3291313    4.3291313    1571.5078   -19113.181    59666.665   -35838.961   -9976.3059   -2255.1569   -1359.4014    81.133883 
   51700    1073.8958   -104.41892   0.97168348   -103.44723   -11988.566    4.3221232    4.3221232    4.3221232   -11988.566   -2210.5432    -10969.88   -22785.274    12315.636    6502.5986    22148.886    80.740501 
   51800    1424.6148   -104.72919    1.2890214   -103.44017    7194.0964    4.3155741    4.3155741    4.3155741    7194.0964    4612.3191    14588.591    2381.3788   -4228.8185   -3323.0365   -9980.5854    80.374029 
   51900    684.31665   -104.06772   0.61918409   -103.44853   -22864.737      4.33087      4.33087      4.33087   -22864.737    -5089.364   -2909.9909   -60594.856    324.02041   -747.03911     29767.51    81.231679 
   52000    1276.1388     -104.592    1.1546772   -103.43732    14756.562    4.3179162    4.3179162    4.3179162    14756.562    10680.087     47055.15   -13465.551    8677.9753    4908.4003   -3625.0908    80.504957 
   52100    1425.7205   -104.72392    1.2900219    -103.4339   -5209.8275    4.3156396    4.3156396    4.3156396   -5209.8275   -8328.5248   -8853.5547    1552.5971    443.46196   -11687.366   -2341.2213    80.377687 
   52200     649.7494   -104.02798   0.58790691   -103.44008   -23550.552    4.3225589    4.3225589    4.3225589   -23550.552    9134.5167   -39708.751   -40077.422    2280.2692    3884.8555    22241.831    80.764919 
   52300    1202.1622   -104.51498    1.0877416   -103.42724    21829.111    4.3193141    4.3193141    4.3193141    21829.111    -1360.624    67592.814   -744.85804    4712.7551   -4697.8644   -2918.6975    80.583175 
   52400    1096.5028   -104.42994   0.99213881    -103.4378    3067.6082    4.3196994    4.3196994    4.3196994    3067.6082   -6446.3608     37970.04   -22320.854   -4196.4107   -6220.2345    17525.412    80.604742 
   52500    1387.6567   -104.68873    1.2555809   -103.43314   -621.12877    4.3173469    4.3173469    4.3173469   -621.12877    2384.5029   -6118.7293    1870.8401    7497.4604    4985.6483    6075.6834    80.473119 
   52600     861.9613   -104.21215    0.7799207   -103.43223   -5381.4434    4.3221753    4.3221753    4.3221753   -5381.4434    -4478.148    10455.707   -22121.889   -4312.2809   -9109.5055    2226.2098    80.743416 
   52700    654.58864   -104.03165   0.59228555   -103.43936   -2853.2292    4.3196562    4.3196562    4.3196562   -2853.2292    6198.9276    27335.896   -42094.511    9864.6056    1469.1514    18604.417    80.602319 
   52800    1827.6949   -105.08648    1.6537367   -103.43275     3270.937    4.3192015    4.3192015    4.3192015     3270.937   -12184.261    25163.357   -3166.2848   -7058.6757   -1296.7877   -5444.9987    80.576868 
   52900    975.39876   -104.31953   0.88256129   -103.43697   -12350.386    4.3216186    4.3216186    4.3216186   -12350.386   -5402.2312    3387.1296   -35036.056   -6147.5389   -4632.5625    14760.226    80.712223 
   53000     669.9532   -104.03958   0.60618773   -103.43339   -9635.7515    4.3211993    4.3211993    4.3211993   -9635.7515    18717.787    -19850.85   -27774.191    2297.0394     7486.692    2853.2064    80.688734 
   53100    1392.3265   -104.68674    1.2598062   -103.42694    2927.1487     4.321295     4.321295     4.321295    2927.1487   -5042.4036    22480.854   -8657.0037   -6086.1684   -11340.502    739.15899    80.694093 
   53200    1231.9888   -104.54371    1.1147293   -103.42898    -351.9131    4.3220609    4.3220609    4.3220609    -351.9131    854.00476    16250.105   -18159.849   -1730.4206    2959.0873     19568.75    80.737006 
   53300    984.76243   -104.31414   0.89103374    -103.4231    21680.196    4.3159109    4.3159109    4.3159109    21680.196    925.61131    53411.565    10703.411    4254.0616   -911.54692   -7020.9632    80.392846 
   53400      918.448   -104.25418   0.83103105   -103.42315   -12210.677    4.3230527    4.3230527    4.3230527   -12210.677    8812.1027   -7009.8434   -38434.291    2394.7445   -16053.124    17497.885    80.792602 
   53500    1110.4523   -104.42891    1.0047605   -103.42415    2101.4158     4.321885     4.321885     4.321885    2101.4158    9373.5134   -2381.6069   -687.65903    -7139.856    9681.3565    5025.6256    80.727152 
   53600    1462.7207   -104.74743    1.3235004   -103.42393   -5620.0782    4.3184014    4.3184014    4.3184014   -5620.0782   -18047.528    28895.835   -27708.541    13444.733   -15167.979    3952.9531    80.532101 
   53700    971.72802   -104.30918   0.87923993   -103.42994   -13485.281    4.3230868    4.3230868    4.3230868   -13485.281    26499.246   -26826.415   -40128.674   -7463.6029    778.44912    16960.149    80.794514 
   53800    924.97042   -104.26485   0.83693268   -103.42792    12019.483    4.3163928    4.3163928    4.3163928    12019.483    7346.4805    36517.407   -7805.4381    4908.2312   -4283.6782   -13917.682    80.419781 
   53900    1059.8975   -104.39501   0.95901755     -103.436    -15161.48    4.3253315    4.3253315    4.3253315    -15161.48    17977.906   -27988.143   -35474.204    5544.4259    -7338.442    20351.708    80.920431 
   54000    1503.9612    -104.7863    1.3608157   -103.42548    3462.6857    4.3149711    4.3149711    4.3149711    3462.6857    5857.5975    17249.187   -12718.728    2485.8179    1277.4592    2668.7702    80.340342 
   54100    695.95829   -104.06325   0.62971769   -103.43353    -24432.94    4.3251385    4.3251385    4.3251385    -24432.94    919.42992    -37556.81   -36661.439   -8812.5526   -5520.4446    3873.4386      80.9096 
   54200    997.39318   -104.32919   0.90246231   -103.42673    1434.5052    4.3170518    4.3170518    4.3170518    1434.5052    17507.136    5583.5465   -18787.167    4325.7895    2055.6987    24124.202    80.456619 
   54300    1430.4476   -104.71828    1.2942991   -103.42399    1883.6097    4.3170655    4.3170655    4.3170655    1883.6097   -16744.915    28696.171    -6300.427   -16633.948    3071.1801   -7741.1669    80.457384 
   54400    1064.5834   -104.39006   0.96325743    -103.4268   -7987.8574    4.3167288    4.3167288    4.3167288   -7987.8574    20968.075    5341.5588   -50273.206    2791.6846   -4353.5177    23387.675    80.438562 
   54500    892.62236   -104.23275   0.80766347   -103.42509    4882.0966    4.3155541    4.3155541    4.3155541    4882.0966    4353.0249    20211.456   -9918.1911    -4120.657    7476.8317   -4213.1646    80.372911 
   54600    1026.5218   -104.35726   0.92881848   -103.42844   -12070.812    4.3196218    4.3196218    4.3196218   -12070.812    16677.752   -35027.318    -17862.87   -30.477791   -2135.2335    10097.312    80.600394 
   54700    1448.7201   -104.73518    1.3108324   -103.42434    10393.239    4.3153438    4.3153438    4.3153438    10393.239   -1078.2285    67687.503   -35429.558    3553.3233    6170.7167     9460.681    80.361163 
   54800     1042.068   -104.36938   0.94288505   -103.42649    3110.8483    4.3147254    4.3147254    4.3147254    3110.8483    2424.4897    18419.284   -11511.229    9980.4073    2236.9564    310.78722    80.326617 
   54900    852.43148   -104.19917   0.77129792   -103.42787   -2432.2038    4.3182321    4.3182321    4.3182321   -2432.2038    16669.913   -7204.6459   -16761.878   -818.27601    669.93512    26513.381    80.522631 
   55000    1161.1573   -104.47661    1.0506395   -103.42597    5431.6549    4.3210993    4.3210993    4.3210993    5431.6549    -8264.343    29923.974   -5364.6668    8722.3512    5723.1833   -3023.4978     80.68313 
   55100    1308.4196   -104.61334    1.1838855   -103.42946   -5886.1442    4.3169168    4.3169168    4.3169168   -5886.1442    745.03291    320.36758   -18723.833    7481.0609   -1270.3742    12836.186    80.449072 
   55200    1222.8508   -104.53703    1.1064611   -103.43057    -4571.524    4.3242121    4.3242121    4.3242121    -4571.524    361.92385    11195.584    -25272.08   -5681.4361    1742.7282    9165.9117    80.857621 
   55300    730.92388   -104.09524   0.66135529   -103.43389    9354.9988    4.3195928    4.3195928    4.3195928    9354.9988   -1956.3702    29738.976    282.39072    13813.111    1017.9861   -6270.4381    80.598773 
   55400    1131.5753   -104.45967    1.0238731   -103.43579   -10100.485    4.3236092    4.3236092    4.3236092   -10100.485   -1663.5304   -8855.0591   -19782.867    -941.0373   -4240.9452    18532.936    80.823805 
   55500    1550.6891   -104.83112    1.4030961   -103.42803    1052.7142    4.3175524    4.3175524    4.3175524    1052.7142   -10543.192    33394.238   -19692.903    1153.9753    3324.0392   -4509.7949     80.48461 
   55600    810.19867   -104.16764   0.73308478   -103.43455   -25656.236    4.3262309    4.3262309    4.3262309   -25656.236    698.55385   -61803.133   -15864.129    9443.6345   -1304.7556    20479.084    80.970922 
   55700    982.63442   -104.31266   0.88910828   -103.42355    14669.201    4.3170619    4.3170619    4.3170619    14669.201    3421.2059    42158.654   -1572.2578   -420.96708   -1515.6837    9224.4597    80.457186 
   55800    1190.8691   -104.50586    1.0775234   -103.42834   -934.26525    4.3156072    4.3156072    4.3156072   -934.26525    11117.365   -9986.1968   -3933.9644     8121.328    7218.2615   -3593.6797    80.375876 
   55900    1283.9927   -104.58902    1.1617836   -103.42724   -1465.9084     4.322634     4.322634     4.322634   -1465.9084   -12957.566     26380.74   -17820.899     18225.22   -4175.4647     16659.63    80.769131 
   56000     953.6374   -104.28723   0.86287116   -103.42436    -5949.089    4.3186878    4.3186878    4.3186878    -5949.089     27939.07   -46461.348    675.01144   -1614.5232    10300.854    -14943.57    80.548121 
   56100    826.49624    -104.1783   0.74783117   -103.43047   -19850.836    4.3188585    4.3188585    4.3188585   -19850.836   -16816.451   -46550.712    3814.6546    20771.608    976.17482    13316.528    80.557675 
   56200    1498.4529   -104.78031    1.3558316   -103.42448    13078.544     4.316356     4.316356     4.316356    13078.544    7898.5464    50828.087   -19491.001   -10199.663   -1038.1088   -2640.4236     80.41772 
   56300    1029.8805    -104.3625   0.93185756   -103.43064    71.471741      4.31755      4.31755      4.31755    71.471741    4287.4036    8164.9711   -12237.959    6487.5563    7998.1183   -12213.105    80.484475 
   56400    904.60576    -104.2428   0.81850631    -103.4243   -10573.658    4.3227701    4.3227701    4.3227701   -10573.658   -5633.2759   -20732.323   -5355.3739    -953.1932   -6168.3402    14463.537    80.776758 
   56500    1029.1347   -104.35512   0.93118271   -103.42394    3782.7119    4.3142221    4.3142221    4.3142221    3782.7119    25926.325   -4386.0131   -10192.176   -4907.3003    1759.4705   -20148.491    80.298515 
   56600    1485.7625   -104.76867    1.3443491   -103.42432   -4575.2905    4.3154694    4.3154694    4.3154694   -4575.2905   -20818.948    14370.865   -7277.7878    6819.9401   -1829.5292    9136.9809    80.368178 
   56700    983.48091   -104.31231    0.8898742   -103.42244   -9494.0929    4.3239564    4.3239564    4.3239564   -9494.0929    12585.252   -29572.999   -11494.531    -827.8205   -9683.3869   -8076.9459    80.843278 
   56800    751.28166   -104.10338   0.67977543    -103.4236   -1259.0081    4.3186118    4.3186118    4.3186118   -1259.0081   -4443.4685   -2612.6303    3279.0746    8455.3302   -732.90596   -13864.833     80.54387 
   56900    1347.9699   -104.64397    1.2196715    -103.4243    3288.7829    4.3202065    4.3202065    4.3202065    3288.7829   -7335.7549    23071.404   -5869.3004    9585.0126   -6102.9984    6075.6305    80.633129 
   57000    1355.5429   -104.65531    1.2265237   -103.42878    9300.4244    4.3143924    4.3143924    4.3143924    9300.4244    2143.5861    42581.773   -16824.086    4113.3157   -10252.994   -13121.329     80.30802 
   57100    920.59155   -104.26143   0.83297058   -103.42846   -17613.877    4.3245315    4.3245315    4.3245315   -17613.877    -8027.112   -44197.885   -616.63546    8994.1603    9830.0184   -1200.0016     80.87554 
   57200    827.22081   -104.17251   0.74848677   -103.42402   -2438.9608    4.3158148    4.3158148    4.3158148   -2438.9608    11638.829   -15390.183   -3565.5285    2497.8341   -17077.712   -1919.9849    80.387476 
   57300    1353.8385   -104.65119    1.2249815   -103.42621   -797.91796    4.3121523    4.3121523    4.3121523   -797.91796    2840.5372    3662.4202   -8896.7113    2412.4028    110.54093   -14965.356    80.182994 
   57400    1385.9294   -104.67726     1.254018   -103.42325    3206.9996    4.3169365    4.3169365    4.3169365    3206.9996   -2993.0333     24277.14   -11663.108    7143.8956   -3037.7362    7761.5476    80.450171 
   57500    618.23923   -103.98858   0.55939585   -103.42918    1949.1838    4.3224553    4.3224553    4.3224553    1949.1838    13811.577   -9488.6275    1524.6015   -781.33492   -17886.551   -16611.012    80.759111 
   57600    1086.4581    -104.4097   0.98305011   -103.42665   -9644.6234    4.3230686    4.3230686    4.3230686   -9644.6234   -12636.142   -12688.389   -3609.3385    18774.825    10659.868   -454.31125    80.793492 
   57700    1430.4914   -104.72131    1.2943387   -103.42697    16115.095    4.3117367    4.3117367    4.3117367    16115.095   -326.47907    36699.688    11972.075   -4279.1809   -19843.224   -4598.5816    80.159815 
   57800    975.23566   -104.31474   0.88241372   -103.43233    -11868.11    4.3228605    4.3228605    4.3228605    -11868.11    543.53773   -17118.041   -19029.828    7954.9785    3151.2462   -14625.093    80.781826 
   57900    930.93293   -104.26822   0.84232768   -103.42589    553.73039     4.319704     4.319704     4.319704    553.73039   -8865.0274   -5195.8763    15722.095    1791.7578   -4056.8953    3798.7614    80.604994 
   58000    1020.8914   -104.35481   0.92372398   -103.43108    -7265.183    4.3181358    4.3181358    4.3181358    -7265.183    14758.501   -2184.1652   -34369.885   -5392.8125   -13301.608   -21252.701    80.517241 
   58100    1394.2599   -104.69151    1.2615557   -103.42995    7721.1649    4.3163663    4.3163663    4.3163663    7721.1649   -17371.128    42876.725   -2342.1025      17338.3    4464.7057   -1274.2067    80.418299 
   58200    1146.4232   -104.46551    1.0373078   -103.42821   -15220.362    4.3208027    4.3208027    4.3208027   -15220.362    53.337241   -21689.571   -24024.851    345.79808   -12402.837   -12332.204     80.66652 
   58300    653.38152   -104.02041   0.59119333   -103.42922   -17289.018    4.3200203    4.3200203    4.3200203   -17289.018    6131.0349    -49519.75   -8478.3386    12486.443   -3951.9461    -19353.76    80.622703 
   58400    1400.5912   -104.68819    1.2672844   -103.42091    21633.969     4.308225     4.308225     4.308225    21633.969   -3321.3743    58848.003    9375.2792    10678.878    2885.8079    2071.3678    79.964112 
   58500    1214.3943   -104.52956    1.0988095   -103.43075   -6826.2975    4.3238474    4.3238474    4.3238474   -6826.2975   -12181.974    15499.961   -23796.879     840.2926   -13222.041   -22291.818    80.837164 
   58600    1038.8637   -104.36193   0.93998569   -103.42195    6846.4627    4.3243356    4.3243356    4.3243356    6846.4627    960.96612    26501.233   -6922.8112    4848.9792    5378.8338   -5440.2459    80.864552 
   58700    910.00575   -104.24867   0.82339232   -103.42528   -353.97523    4.3162532    4.3162532    4.3162532   -353.97523    10870.192   -9133.6143   -2798.5033    1283.8853   -7452.2822   -705.01617    80.411979 
   58800    1302.5854   -104.61034    1.1786066   -103.43174   -6808.4111    4.3187628    4.3187628    4.3187628   -6808.4111    3269.7925   -3588.0808   -20106.945   -3067.2823   -8365.4476   -17612.015    80.552321 
   58900    1128.8861   -104.45001    1.0214399   -103.42857   -2246.0007    4.3300963    4.3300963    4.3300963   -2246.0007   -16062.153    14847.269   -5523.1178    18409.828    7381.9417    10897.752    81.188153 
   59000    803.61707   -104.15676   0.72712961   -103.42963    12661.203     4.326379     4.326379     4.326379    12661.203    11263.645    61569.052   -34849.089     5285.632   -15708.884   -14061.661    80.979236 
   59100    1137.6967   -104.46277    1.0294119   -103.43335   -9916.6815    4.3251285    4.3251285    4.3251285   -9916.6815   -12592.423   -22685.125    5527.5036     16471.22    8630.8909   -266.58982    80.909039 
   59200    1405.8088   -104.71236    1.2720053   -103.44035   -13415.061    4.3255943    4.3255943    4.3255943   -13415.061   -27116.539    11529.412   -24658.057     5762.911   -11956.083    481.46209    80.935184 
   59300    1356.7387    -104.6702    1.2276057   -103.44259   -13014.798     4.336475     4.336475     4.336475   -13014.798   -25898.443    823.13255   -13969.083    4694.5344    585.67867    -16612.19    81.547479 
   59400    715.73201   -104.08661   0.64760936     -103.439     18323.49    4.3262472    4.3262472    4.3262472     18323.49    8101.6316    60488.937     -13620.1     10623.34   -3509.9568    8877.2338    80.971835 
   59500    893.31464   -104.25025   0.80828986   -103.44196   -2124.5678    4.3274207    4.3274207    4.3274207   -2124.5678   -20478.518    20011.679   -5906.8644   -6096.5764   -7561.8508   -8829.5973    81.037748 
   59600     1318.585   -104.63227    1.1930834   -103.43919    9954.4779    4.3162636    4.3162636    4.3162636    9954.4779    12504.054    18057.493   -698.11342    21843.381    4029.9041   -5145.2444     80.41256 
   59700    1266.3239   -104.58771    1.1457965   -103.44191   -10036.801     4.328172     4.328172     4.328172   -10036.801   -18136.154   -990.15073     -10984.1   -1245.4783   -10383.764    8832.5318    81.079964 
   59800    933.86059   -104.27544   0.84497669   -103.43046    18887.421    4.3227505    4.3227505    4.3227505    18887.421    9873.8848    54656.985    -7868.606   -967.84428    6695.1552   -13362.865    80.775659 
   59900    605.24941   -103.98799   0.54764239   -103.44035   -12381.516     4.319625     4.319625     4.319625   -12381.516   -26033.185   -23575.929    12464.565    23297.992   -6163.2701    5435.9732    80.600576 
   60000    1755.4575   -105.01932    1.5883748   -103.43095   -3963.7131    4.3164132    4.3164132    4.3164132   -3963.7131   -16777.588    25117.766   -20231.318    -24829.64   -575.84125    2881.6838     80.42092 
   60100    1023.9035    -104.3629   0.92644941   -103.43645   -11565.682    4.3323846    4.3323846    4.3323846   -11565.682   -14045.657   -28133.733    7482.3427    27865.981    6735.8649    -1439.773    81.316938 
   60200    640.41189   -104.00766   0.57945814    -103.4282    18046.187    4.3246341    4.3246341    4.3246341    18046.187   -19346.756    84080.291   -10594.973   -1222.6792   -6036.6151    8778.7867    80.881299 
   60300    1109.2468   -104.43813    1.0036698   -103.43446    11103.173    4.3165165    4.3165165    4.3165165    11103.173    6612.8908    4882.6215    21814.007    2546.2106    10535.301    5609.6166    80.426694 
   60400    1511.6316   -104.80711     1.367756   -103.43936   -6123.4323    4.3227639    4.3227639    4.3227639   -6123.4323   -10974.986    11010.508   -18405.818    14488.524    -752.7966   -8434.1856     80.77641 
   60500    972.00971    -104.3165   0.87949482   -103.43701   -8527.7718    4.3335156    4.3335156    4.3335156   -8527.7718   -9435.1837   -1574.8893   -14573.242   -3440.1773   -348.92512    4673.1532    81.380636 
   60600    822.72866   -104.17234   0.74442218   -103.42791     16052.94    4.3176703    4.3176703    4.3176703     16052.94   -2087.8436     41781.52    8465.1435    10332.858     10207.22    2133.5692    80.491204 
   60700    1105.5834   -104.43028    1.0003551   -103.42993   -11373.182    4.3239108    4.3239108    4.3239108   -11373.182   -12870.831   -1734.5829   -19514.131    5920.0556   -14675.866    61.242992    80.840721 
   60800    1439.5149   -104.73233    1.3025033   -103.42982    4436.2217     4.321559     4.321559     4.321559    4436.2217    4782.3593    34362.478   -25836.173    5569.8218    11658.358    14237.129    80.708881 
   60900    963.59855   -104.30338   0.87188422    -103.4315   -6104.5806    4.3255871    4.3255871    4.3255871   -6104.5806   -25469.695    1462.9045    5693.0487    9600.2352   -4882.9454    2634.7908    80.934776 
   61000    1128.3756   -104.44682     1.020978   -103.42584   -274.46022    4.3173414    4.3173414    4.3173414   -274.46022    6226.0307    4188.5319   -11237.943    5414.2547   -11588.918    2978.2116    80.472811 
   61100    936.28779   -104.27799   0.84717286   -103.43082    16948.788    4.3195439    4.3195439    4.3195439    16948.788    -3199.008    41639.628    12405.742   -3482.2665    8759.4041   -488.36721    80.596032 
   61200    1044.3679   -104.37962   0.94496603   -103.43465   -4340.9644    4.3279381    4.3279381    4.3279381   -4340.9644   -18707.321    37325.734   -31641.307    14124.732   -23597.042   -2847.2685    81.066816 
   61300    1521.9503   -104.80167    1.3770927   -103.42458     6457.927     4.318554     4.318554     4.318554     6457.927    4285.8862     7642.075    7445.8197   -9814.0216     5217.614    613.53582    80.540638 
   61400    649.69443   -104.01959   0.58785718   -103.43173   -19765.183    4.3246519    4.3246519    4.3246519   -19765.183   -29716.114   -9836.7117   -19742.724    8765.4109   -16222.876      -64.364    80.882293 
   61500    997.26023   -104.33105   0.90234201    -103.4287   -7903.2011    4.3224878    4.3224878    4.3224878   -7903.2011   -2455.7738    21633.415   -42887.244     6517.581   -8467.5424     1146.276    80.760931 
   61600    1539.2525   -104.81496     1.392748   -103.42221   -6612.4921    4.3247199    4.3247199    4.3247199   -6612.4921   -9533.3215    18969.214   -29273.368    2490.5129   -1473.4652    7284.9694    80.886108 
   61700    771.70422   -104.12916   0.69825419    -103.4309   -6057.3614     4.324266     4.324266     4.324266   -6057.3614   -38278.334    25624.991   -5518.7408    15832.583   -20351.977   -1401.7239    80.860647 
   61800    1306.0827   -104.60101    1.1817711   -103.41923    2106.9623    4.3182155    4.3182155    4.3182155    2106.9623    21240.226    7603.8601     -22523.2    5717.4861    13369.028    4902.7776    80.521702 
   61900    938.92306   -104.28018   0.84955731   -103.43062    -8108.043     4.326307     4.326307     4.326307    -8108.043   -12159.068    4832.2549   -16997.316    6144.5452   -17435.078   -392.68986    80.975196 
   62000    1025.9927   -104.36434   0.92833978     -103.436    1013.7453    4.3267284    4.3267284    4.3267284    1013.7453   -23970.177    25932.627    1078.7856    895.43938   -195.93321   -4458.9164    80.998862 
   62100    1548.9371   -104.83406    1.4015108   -103.43255    7913.2235    4.3238405    4.3238405    4.3238405    7913.2235    1116.6672    16406.757    6216.2467   -7551.3921    4498.6154      8367.55     80.83678 
   62200    756.35855   -104.12718   0.68436911   -103.44281    -8632.989    4.3251918    4.3251918    4.3251918    -8632.989   -11493.729    4692.9767   -19098.214    9131.8587   -19567.716   -9752.6865    80.912593 
   62300    941.03952   -104.29043   0.85147233   -103.43896   -6941.7135    4.3266265    4.3266265    4.3266265   -6941.7135   -12391.088    10107.659   -18541.711    6018.9302    12523.418    8056.2909    80.993136 
   62400    1535.7284   -104.81938    1.3895593   -103.42982   -4965.4701    4.3293017    4.3293017    4.3293017   -4965.4701   -16932.553    20949.838   -18913.696    4635.0522   -12810.899   -5201.9811    81.143463 
   62500    1006.5215   -104.34504   0.91072182   -103.43432   -21460.251    4.3306794    4.3306794    4.3306794   -21460.251   -28247.419   -14251.447   -21881.886    21071.651   -4562.6936   -158.86717    81.220957 
   62600    1025.4323   -104.35566    0.9278327   -103.42783    14108.987    4.3212653    4.3212653    4.3212653    14108.987    10098.886    67760.741   -35532.665   -6593.2526    4045.9713    4497.5062    80.692427 
   62700     773.2351   -104.13902   0.69963936   -103.43938   -2526.5584    4.3300733    4.3300733    4.3300733   -2526.5584   -19949.387    24299.453   -11929.741    21067.026   -10944.487   -4109.5588     81.18686 
   62800    1231.2933   -104.55563    1.1141001   -103.44153    4498.5111    4.3230654    4.3230654    4.3230654    4498.5111   -17768.739    28878.254    2386.0181    9036.2718     2800.794    15705.196    80.793316 
   62900    1479.5191   -104.77618       1.3387   -103.43748   -4442.3535    4.3268531    4.3268531    4.3268531   -4442.3535    6517.2015   -258.72603   -19585.536   -8444.9891   -5908.3716   -2329.6355    81.005861 
   63000    464.71566   -103.86129    0.4204845   -103.44081    15766.813    4.3227627    4.3227627    4.3227627    15766.813   -15314.273    54333.785    8280.9271    18752.331    2012.1915   -6368.7189    80.776341 
   63100     1257.302   -104.57106    1.1376332   -103.43343   -13200.655     4.324019     4.324019     4.324019   -13200.655   -28344.935   -4618.3362   -6638.6942   -3539.3649   -582.83027    5733.9088    80.846791 
   63200     1288.775    -104.5964    1.1661107   -103.43029    15983.259    4.3216956    4.3216956    4.3216956    15983.259    624.80175    46764.937    560.03783    5933.2687    34.741114   -842.38023     80.71654 
   63300    928.35811   -104.27475   0.83999792   -103.43475   -20711.812    4.3252959    4.3252959    4.3252959   -20711.812   -29424.129   -2849.9915   -29861.316    33707.823    2846.5667    250.68804    80.918435 
   63400    1233.6869   -104.54271    1.1162659   -103.42645   -15598.562    4.3209994    4.3209994    4.3209994   -15598.562   -9627.3175   -9456.0173   -27712.351   -15194.059    1710.6196    15948.326    80.677534 
   63500    912.61097   -104.26127   0.82574958   -103.43552   -7738.0698     4.327779     4.327779     4.327779   -7738.0698    -25641.54    6907.1046   -4479.7742    29614.519   -826.28172   -9797.1743    81.057877 
   63600    1282.6609   -104.59415    1.1605786   -103.43357   -3073.8905    4.3241618    4.3241618    4.3241618   -3073.8905   -7646.1205    29835.783   -31411.334   -9097.7194     6327.888    3839.0903    80.854803 
   63700    1151.6957    -104.4747    1.0420785   -103.43262    2066.3181    4.3277259    4.3277259    4.3277259    2066.3181    2538.5737    24995.569   -21335.188    14423.716    3677.4651    1256.9275    81.054892 
   63800    927.98169   -104.26855   0.83965734   -103.42889     5325.707    4.3263953    4.3263953    4.3263953     5325.707   -21457.302    24828.066    12606.358    13734.534   -1627.4158   -9100.1667    80.980155 
   63900    1168.5899    -104.4869    1.0573647   -103.42954   -21426.356    4.3306122    4.3306122    4.3306122   -21426.356   -10137.874   -30981.971   -23159.223   -941.85222    13417.585    22654.777    81.217174 
   64000    1026.6376   -104.35754   0.92892324   -103.42862    26916.581     4.322359     4.322359     4.322359    26916.581   -205.57006    74771.917    6183.3964    17494.593   -2478.8216    -13035.62    80.753715 
   64100     930.5842   -104.28128   0.84201214   -103.43927   -13568.777    4.3326232    4.3326232    4.3326232   -13568.777   -5182.4919    4029.0987   -39552.936   -5285.8968    11078.219    18977.839     81.33037 
   64200    1362.0635   -104.66433    1.2324237   -103.43191   -14236.646    4.3298119    4.3298119    4.3298119   -14236.646   -7722.4525   -18392.662   -16594.823    2910.7253   -1611.4391    6139.9046    81.172159 
   64300    1061.8822   -104.39735   0.96081334   -103.43654   -6065.7857    4.3263672    4.3263672    4.3263672   -6065.7857    4433.8572   -12240.743   -10390.471    14881.801    2700.0705    125.15331    80.978577 
   64400    777.74272   -104.14265   0.70371796   -103.43894    6727.8684    4.3289384    4.3289384    4.3289384    6727.8684    11414.267    66013.508    -57244.17    -752.7317    3669.2547    22714.107    81.123038 
   64500    1538.1966   -104.82155    1.3917926   -103.42976   -4725.4281    4.3378139    4.3378139    4.3378139   -4725.4281    5711.5486     6471.536   -26359.369      12555.9   -2981.5914    -3647.263    81.623039 
   64600    1150.3805   -104.47003    1.0408884   -103.42914    -14469.78    4.3332235    4.3332235    4.3332235    -14469.78   -22419.842    4720.6895   -25710.189   -9120.1521    6735.0682     11590.33    81.364184 
   64700    869.39209    -104.2223   0.78664424   -103.43565   -5451.8127    4.3318503    4.3318503    4.3318503   -5451.8127    14899.929    6535.8379   -37791.205   -1777.4107   -1730.8349    2773.7085    81.286856 
   64800    1114.9281   -104.44663    1.0088104   -103.43781    11552.009    4.3328569    4.3328569    4.3328569    11552.009    4691.2684    40236.678    -10271.92   -9198.0131    6134.5184    7316.8586    81.343533 
   64900    1117.8259   -104.45101    1.0114324   -103.43958   -17832.795    4.3425675    4.3425675    4.3425675   -17832.795   -15382.351   -4131.9256   -33984.108   -2267.4072    1263.3604    27888.946    81.891673 
   65000    1388.4311   -104.67797    1.2562816   -103.42168    11239.993    4.3283871    4.3283871    4.3283871    11239.993     15831.01    26940.495   -9051.5263    1669.4037    1598.9452   -7727.6527    81.092053 
   65100    462.87299    -103.8522   0.41881721   -103.43338    7083.2459      4.32966      4.32966      4.32966    7083.2459    26259.156    7198.4468   -12207.866    1555.6125   -946.52579    23394.689    81.163612 
   65200    1638.0623   -104.90579    1.4821532   -103.42363   -12629.056    4.3367868    4.3367868    4.3367868   -12629.056     344.3773   -8196.2369   -30035.309    634.69945   -3360.6672   -4617.2014    81.565073 
   65300    1095.6929   -104.41743   0.99140592   -103.42602    6625.2359    4.3326434    4.3326434    4.3326434    6625.2359    19384.806    7650.6306   -7159.7293   -2305.8479   -2368.1526    10342.339    81.331508 
   65400    631.09952    -104.0021   0.57103211   -103.43106   -4927.1422    4.3263877    4.3263877    4.3263877   -4927.1422   -6312.6899     35716.12   -44184.857   -4405.3809    -3636.316    16278.942    80.979728 
   65500    1546.5923   -104.82096    1.3993893   -103.42157    3537.2061     4.327699     4.327699     4.327699    3537.2061    9531.8577     14156.69   -13076.929   -14011.731   -5787.4895   -1586.7137    81.053385 
   65600    941.76157   -104.28392   0.85212566   -103.43179   -22870.695    4.3396643    4.3396643    4.3396643   -22870.695   -26748.826    5492.8997   -47356.158    1219.8377   -403.14997    22823.576    81.727535 
   65700      1023.29   -104.35241   0.92589432   -103.42652   -3580.9537    4.3270727    4.3270727    4.3270727   -3580.9537    -23082.83    36033.164   -23693.195   -5968.3742   -11258.904   -9643.1931    81.018196 
   65800    1280.1842   -104.58932    1.1583375   -103.43099   -3417.1137    4.3246838    4.3246838    4.3246838   -3417.1137    20022.574   -3467.1564   -26806.759    11639.518      7466.53    12912.817    80.884087 
   65900    888.15635   -104.24681   0.80362253   -103.44319   -18291.706    4.3379828    4.3379828    4.3379828   -18291.706   -53054.222    16746.979   -18567.876   -3375.9168   -12572.748    11588.319     81.63257 
   66000    1345.8674   -104.64657    1.2177691    -103.4288    12156.646    4.3283718    4.3283718    4.3283718    12156.646    4534.3553     44269.24   -12333.658    2296.3429    4657.7265    1903.8388    81.091189 
   66100    985.16783   -104.32025   0.89140055   -103.42885   -6735.5469    4.3248411    4.3248411    4.3248411   -6735.5469    7595.0726   -11795.991   -16005.722   -9245.8806    174.56486    18263.346    80.892912 
   66200    1001.2431   -104.33323   0.90594579   -103.42729   -20612.717    4.3283665    4.3283665    4.3283665   -20612.717    -27209.05   -30997.375   -3631.7255   -3374.4078    -4739.692   -679.55221    81.090894 
   66300    1115.8292   -104.43262    1.0096257   -103.42299    12045.163    4.3308201    4.3308201    4.3308201    12045.163   -10855.162     46051.67     938.9806    1159.9495    6643.9149    8357.1631    81.228873 
   66400    1317.9326   -104.61567    1.1924931   -103.42318   -15980.516    4.3303052    4.3303052    4.3303052   -15980.516   -27940.596     6909.298    -26910.25   -6119.0193   -10663.541    9551.0359    81.199906 
   66500    859.19706   -104.20064   0.77741955   -103.42322    12148.262    4.3186387    4.3186387    4.3186387    12148.262    307.77643    30354.841    5782.1685    7199.8956    4078.0326   -865.41211    80.545374 
   66600    1014.3611   -104.34926   0.91781523   -103.43144   -6395.7511    4.3296459    4.3296459    4.3296459   -6395.7511    69.738625     4145.965   -23402.957   -1171.7695   -10221.281    11128.807    81.162822 
   66700    1342.5881    -104.6414    1.2148019    -103.4266   -10494.745    4.3319253    4.3319253    4.3319253   -10494.745    -10253.49   -4486.2626   -16744.482   -6072.1573    -3132.576    3512.4263    81.291076 
   66800    991.79433   -104.32335   0.89739636   -103.42595   -1972.8586    4.3201045    4.3201045    4.3201045   -1972.8586    10744.456     17278.48   -33941.512    5101.2345   -3222.1798    6227.4851    80.627421 
   66900    973.05103   -104.30918   0.88043702   -103.42874    20088.553    4.3189985    4.3189985    4.3189985    20088.553     23759.02    38949.517   -2442.8786   -328.98511   -9462.0158    8017.0945    80.565511 
   67000    1000.0091    -104.3406   0.90482925   -103.43577   -14155.344    4.3315838    4.3315838    4.3315838   -14155.344   -28521.835   -18775.501    4831.3038    6024.2654   -275.87963   -1013.0628    81.271851 
   67100     1200.715    -104.5178    1.0864322   -103.43137   -10940.347    4.3276153    4.3276153    4.3276153   -10940.347    570.95417    -4069.794   -29322.201    7458.5706   -9286.6451    20701.408    81.048679 
   67200    1262.4719   -104.56703    1.1423111   -103.42472    10560.016    4.3176581    4.3176581    4.3176581    10560.016    3697.3949    12345.222     15637.43    1097.0059   -1435.5872   -7101.1316    80.490523 
   67300     597.0869    -103.9776   0.54025677   -103.43735   -7796.4374    4.3265944    4.3265944    4.3265944   -7796.4374   -21728.107    11974.243   -13635.449    1049.5151   -594.15973    25031.379    80.991334 
   67400    1461.3548   -104.75221    1.3222646   -103.42994   -18872.447    4.3298421    4.3298421    4.3298421   -18872.447    -16341.75   -25986.157   -14289.433   -930.71881    -6583.424   -3459.4801    81.173854 
   67500    1123.0406   -104.44674    1.0161507   -103.43059   -9797.7899    4.3235014    4.3235014    4.3235014   -9797.7899   -9794.0313    8736.2152   -28335.554    406.32817    3190.2106   -1645.6702    80.817759 
   67600    1012.0527   -104.34533   0.91572652   -103.42961   -17799.748    4.3205228    4.3205228    4.3205228   -17799.748   -10126.315   -24633.326   -18639.603     9970.571    2234.8673    17944.342    80.650841 
   67700    980.48416   -104.31846   0.88716267    -103.4313    10987.819    4.3265997    4.3265997    4.3265997    10987.819    6704.2088    33347.399   -7088.1498    -837.4317   -985.62565   -21043.681    80.991631 
   67800    1115.5091   -104.44277    1.0093361   -103.43343   -25276.066    4.3339747    4.3339747    4.3339747   -25276.066   -27467.574     -27029.6   -21331.024    6484.7707    4887.5873    20806.252    81.406507 
   67900    1309.5333    -104.6126    1.1848933   -103.42771    1426.1858    4.3255613    4.3255613    4.3255613    1426.1858     5053.381    17848.291   -18623.115   -3803.7358    2626.1154   -12855.061    80.933328 
   68000     1028.543   -104.36059    0.9306473   -103.42995    4591.1032    4.3268422    4.3268422    4.3268422    4591.1032   -13186.533    7319.8774    19639.965   -6870.2003    -634.1172   -1993.3841     81.00525 
   68100     848.4099   -104.20306   0.76765911    -103.4354    5819.6827       4.3302       4.3302       4.3302    5819.6827   -23343.643    32595.187    8207.5038    11190.236    7475.7435    11893.386    81.193988 
   68200    1322.5193   -104.62668    1.1966433   -103.43004   -7505.1274    4.3326232    4.3326232    4.3326232   -7505.1274   -14335.874    767.77302   -8947.2814   -5195.4127   -6242.8534   -25760.306     81.33037 
   68300    1098.0622   -104.42407   0.99354971   -103.43052   -714.55811    4.3354101    4.3354101    4.3354101   -714.55811    -26812.85    26431.883   -1762.7065    9217.7087     2831.892    12064.651    81.487419 
   68400    955.20952   -104.29591   0.86429365   -103.43162   -4077.5793    4.3272537    4.3272537    4.3272537   -4077.5793   -5543.8246    7470.5597   -14159.473    248.68753   -1615.2304   -7199.3712    81.028365 
   68500    1053.3551   -104.38798    0.9530978   -103.43488   -7114.4739     4.328719     4.328719     4.328719   -7114.4739   -12941.027    9878.1655    -18280.56    180.59328     2211.262   -5155.6281    81.110708 
   68600    1325.5739   -104.63552    1.1994071   -103.43611   -23946.945    4.3378122    4.3378122    4.3378122   -23946.945   -19574.647    -11259.23   -41006.959   -791.90995   -2166.7806    12445.841     81.62294 
   68700    1155.1417   -104.48358    1.0451965   -103.43839    8270.3729    4.3282152    4.3282152    4.3282152    8270.3729   -15986.705    30530.251    10267.572    5278.9506    1607.5598   -31557.078     81.08239 
   68800    1042.1335   -104.38645   0.94294432   -103.44351    5585.3852    4.3341655    4.3341655    4.3341655    5585.3852   -23453.137     35128.16    5081.1323    2939.4903     2400.525    6741.9999    81.417256 
   68900    718.51448   -104.09678     0.650127   -103.44665     22892.07     4.327407     4.327407     4.327407     22892.07    3082.4428    50481.461    15112.305   -3451.0941    2334.1798   -17413.703    81.036977 
   69000    1146.9988   -104.48772    1.0378286   -103.44989   -9153.6295     4.336645     4.336645     4.336645   -9153.6295   -24087.943    10448.331   -13821.276    2141.5563   -1208.5126   -5638.8974    81.557071 
   69100    1533.2044   -104.82278    1.3872755    -103.4355    5364.6931    4.3297755    4.3297755    4.3297755    5364.6931   -24921.622    26635.212    14380.489    1151.9981   -2058.4694    3180.5813    81.170108 
   69200    991.72952   -104.33883   0.89733771   -103.44149   -18153.302     4.327362     4.327362     4.327362   -18153.302   -3087.9249   -21981.348   -29390.633   -2450.8804     1686.101   -22771.345    81.034448 
   69300    939.50997   -104.29517   0.85008836   -103.44509    6472.0413    4.3367252    4.3367252    4.3367252    6472.0413   -30631.218    73602.458   -23555.116    8676.0027   -9988.0465    6484.2435    81.561598 
   69400     1229.905   -104.55629    1.1128439   -103.44345    5843.1922    4.3348723    4.3348723    4.3348723    5843.1922   -16812.242    38291.818   -3949.9989   -3353.9464     2127.688   -22404.135    81.457097 
   69500    881.44577   -104.24099   0.79755066   -103.44344   -5919.5112    4.3356202    4.3356202    4.3356202   -5919.5112   -14685.539    18554.732   -21627.726    2191.4591   -12102.295    644.44202    81.499263 
   69600    1305.1726   -104.61331    1.1809476   -103.43236    206.43447     4.336944     4.336944     4.336944    206.43447   -19193.775    2377.6215    17435.457   -5390.2383   -2658.6028    -11464.18    81.573942 
   69700    1201.6336   -104.52177    1.0872633   -103.43451   -854.07089    4.3371342    4.3371342    4.3371342   -854.07089   -11654.602    13787.613   -4695.2235    1984.4224   -9116.5133   -1368.8231    81.584675 
   69800    1164.5309     -104.498    1.0536921   -103.44431    4585.1466    4.3395669    4.3395669    4.3395669    4585.1466    -36473.84    34390.106    15839.175   -3244.8815   -2474.5708    3474.6016    81.722032 
   69900    1039.5902   -104.38929   0.94064304   -103.44865    13380.956    4.3366998    4.3366998    4.3366998    13380.956   -10209.234     63419.25   -13067.147    6460.4311   -5637.3828   -15979.056    81.560161 
   70000    761.08899   -104.13851   0.68864931   -103.44986    16854.927    4.3337116    4.3337116    4.3337116    16854.927   -18696.212    53695.166    15565.826   -4007.9048   -2996.9071   -5038.5595    81.391682 
   70100    1617.9719   -104.90056     1.463975   -103.43659   -18926.917    4.3354089    4.3354089    4.3354089   -18926.917   -34048.795   -10947.859   -11784.098   -4214.3927    4294.2472   -7024.9064    81.487352 
   70200    793.82557   -104.15271   0.71827006   -103.43444    2505.6258     4.331579     4.331579     4.331579    2505.6258    338.24681    29102.394   -21923.764   -1263.3009   -6415.5397    1488.9628    81.271583 
   70300    884.69719   -104.23424   0.80049261   -103.43374    4384.9862    4.3301176    4.3301176    4.3301176    4384.9862   -24808.603    31427.313    6536.2487   -6718.1696    4687.2059    4997.8172    81.189352 
   70400    1550.3474   -104.83367    1.4027869   -103.43089    72.121944    4.3340651    4.3340651    4.3340651    72.121944   -15950.307    2021.1509    14145.522   -55.713718    6106.3463    18653.352    81.411601 
   70500    1048.0935   -104.38044   0.94833701    -103.4321    6318.3513    4.3281366    4.3281366    4.3281366    6318.3513   -19322.862    15637.377    22640.539   -1486.8333     -4845.39     -14084.1    81.077973 
   70600    626.91148   -104.00793   0.56724268   -103.44069   -727.65894      4.32888      4.32888      4.32888   -727.65894   -9299.1524    48155.106    -41038.93    3957.9572    11603.741    5985.2838     81.11976 
   70700    1678.6862   -104.95313    1.5189106   -103.43422   -7955.4576    4.3246211    4.3246211    4.3246211   -7955.4576   -15780.585   -16925.671    8839.8829   -1573.4824   -4150.6064   -2347.2019    80.880569 
   70800    928.91682   -104.28349   0.84050346   -103.44299   -13863.492    4.3299004    4.3299004    4.3299004   -13863.492       -24072     8130.894   -25649.369    4905.9081    7893.7778   -6388.9281    81.177135 
   70900     864.2028   -104.21419   0.78194885   -103.43224    840.19123    4.3189758    4.3189758    4.3189758    840.19123    7557.5761    14452.189   -19489.192   -5763.3455    3314.7821    29358.291    80.564241 
   71000    1272.6347    -104.5762    1.1515066   -103.42469   -2263.2685    4.3292917    4.3292917    4.3292917   -2263.2685   -21738.766    12286.934     2662.026   -1960.5207   -944.36882   -5673.1295    81.142904 
   71100    1055.3548   -104.38096    0.9549072   -103.42605   -12989.351     4.327069     4.327069     4.327069   -12989.351   -24609.559    2727.4684   -17085.963    946.91474     6261.712    22933.292    81.017988 
   71200    978.32981   -104.30607   0.88521337   -103.42086    9289.0984    4.3208904    4.3208904    4.3208904    9289.0984    13745.923    1299.7134    12821.659   -7019.9424   -5489.2273    8748.5462     80.67143 
   71300    1353.7288   -104.64748    1.2248822    -103.4226   -11601.955     4.325279     4.325279     4.325279   -11601.955   -4483.3344   -2572.7824    -27749.75    10265.157     6574.676    5118.1424    80.917487 
   71400    738.68301   -104.10345   0.66837591   -103.43507    4093.7853    4.3300442    4.3300442    4.3300442    4093.7853   -712.48703   -13823.613    26817.456   -100.69467   -2712.1707    12964.041    81.185224 
   71500    1591.3484   -104.86158    1.4398854    -103.4217   -7636.5953    4.3285554    4.3285554    4.3285554   -7636.5953   -19234.415    5973.9085   -9649.2796    5825.3971   -7304.1187   -10080.276     81.10151 
   71600    675.24919   -104.03938   0.61097966    -103.4284    17880.214    4.3178395    4.3178395    4.3178395    17880.214    25131.032   -584.16354    29093.773   -2337.8901    4455.2842    19462.928    80.500667 
   71700    1224.4931   -104.54091    1.1079471   -103.43297   -11683.812    4.3255621    4.3255621    4.3255621   -11683.812   -18509.675    2358.5451   -18900.305    2982.7323   -10793.228    6094.3024    80.933378 
   71800    1131.9829   -104.45022     1.024242   -103.42598    1847.9852    4.3303236    4.3303236    4.3303236    1847.9852   -17602.789   -12939.713    36086.458   -5471.9261    5189.0845     3166.585    81.200938 
   71900    832.18158   -104.18552   0.75297538   -103.43254   -16986.065    4.3263221    4.3263221    4.3263221   -16986.065    13928.491   -22995.201   -41891.484   -559.54495    1321.0353    32153.833    80.976042 
   72000    1348.5305    -104.6436    1.2201787   -103.42342    8284.5003    4.3222568    4.3222568    4.3222568    8284.5003    21486.734   -4960.8089    8327.5759   -15996.982    -223.8164   -18830.899    80.747984 
   72100    1173.3426   -104.48818    1.0616651   -103.42651   -11814.174    4.3261313    4.3261313    4.3261313   -11814.174    1028.7387   -22487.481    -13983.78    6150.9769    13590.425    29740.682    80.965329 
   72200    608.51199   -103.97951   0.55059444   -103.42892    6738.7313    4.3251475    4.3251475    4.3251475    6738.7313    18217.208    10812.775   -8813.7892   -7465.2547    899.03715   -4906.0221    80.910106 
   72300    1580.4076   -104.85269     1.429986    -103.4227   -10788.071    4.3236124    4.3236124    4.3236124   -10788.071      5663.05   -15978.667   -22048.596    2903.2931    10704.893    -3333.641    80.823983 
   72400    945.16436   -104.28617   0.85520457   -103.43097    10374.279    4.3259356    4.3259356    4.3259356    10374.279    25872.111     13470.87    -8220.145   -4295.5435   -5185.7404    18335.162    80.954343 
   72500    1042.8949   -104.37009   0.94363326   -103.42646   -24558.447    4.3263419    4.3263419    4.3263419   -24558.447   -50591.674    -21903.76   -1179.9075   -5559.4685    7145.7601   -22056.024    80.977157 
   72600    1075.9991   -104.39556   0.97358663   -103.42197    3238.2596    4.3249299    4.3249299    4.3249299    3238.2596   -12320.912    15271.696    6763.9953      1367.07    -9451.618    15955.784    80.897895 
   72700    1347.4685     -104.642    1.2192178   -103.42278   -1298.2769    4.3232423    4.3232423    4.3232423   -1298.2769    11378.989   -11430.497   -3843.3222   -13014.396   -6617.3195    2266.9999    80.803232 
   72800    1010.6136   -104.33769   0.91442444   -103.42327   -4719.0873     4.327989     4.327989     4.327989   -4719.0873   -43622.699    689.84364    28775.593    1476.2225    -3471.708   -12823.865    81.069677 
   72900    992.20645   -104.31649   0.89776925   -103.41872    18188.567    4.3238553    4.3238553    4.3238553    18188.567    23324.107    22753.768    8487.8249   -7636.8398    -4937.788    18945.704    80.837609 
   73000    1135.4811   -104.45389    1.0274071   -103.42648   -2734.8321    4.3252651    4.3252651    4.3252651   -2734.8321   -5857.3879    -17278.54    14931.431   -2816.3128   -1969.0583   -18748.912    80.916704 
   73100    1354.8965   -104.64759    1.2259388   -103.42165    19855.774    4.3267427    4.3267427    4.3267427    19855.774    42817.194    21438.944   -4688.8162   -1383.2476    6651.9719    2206.9659    80.999662 
   73200    981.35004   -104.31322   0.88794614   -103.42527   -16556.409    4.3238075    4.3238075    4.3238075   -16556.409   -49952.106   -12638.106    12920.986   -5593.7019    4908.0462   -1301.7899    80.834927 
   73300    881.55623   -104.22904    0.7976506   -103.43139    -4400.023    4.3230943    4.3230943    4.3230943    -4400.023   -19132.132   -4755.7217    10687.785    3925.6085   -464.39254   -15875.884    80.794934 
   73400    1629.0918   -104.90059    1.4740365   -103.42656    11843.314    4.3240897    4.3240897    4.3240897    11843.314    22684.636    17821.615   -4976.3092   -7406.2539    5982.3776    4007.9865    80.850755 
   73500    855.00916    -104.2104   0.77363026   -103.43677   -2610.5967    4.3237817    4.3237817    4.3237817   -2610.5967   -15097.404   -17208.299    24473.913   -8091.2632   -2346.9125    -12975.62    80.833482 
   73600    828.09749   -104.17669   0.74928001   -103.42741    7285.5417    4.3287153    4.3287153    4.3287153    7285.5417    9965.1186    18797.579   -6906.0721    5435.4963   -6149.6972   -2441.3192    81.110499 
   73700    1301.5012   -104.60099    1.1776256   -103.42337   -2727.5326    4.3230788    4.3230788    4.3230788   -2727.5326    -20385.69   -19991.284    32194.377   -28627.299   -1784.3215     1360.603    80.794066 
   73800     1271.489    -104.5776      1.15047   -103.42713   -2412.4056    4.3182427    4.3182427    4.3182427   -2412.4056     18796.94   -9666.2577   -16367.899     8051.445   -7634.2913   -20620.064    80.523223 
   73900    821.71003   -104.16848    0.7435005   -103.42498   -11975.017    4.3305136    4.3305136    4.3305136   -11975.017   -54463.632   -1192.2175    19730.799   -13276.153     -428.015    5578.9812    81.211627 
   74000    1028.2094   -104.35221   0.93034549   -103.42186   -22413.575    4.3269052    4.3269052    4.3269052   -22413.575   -38287.976   -23797.836   -5154.9116   -7948.4816   -898.22307    -21582.65    81.008788 
   74100    1244.7537   -104.54838    1.1262793    -103.4221    5993.0502    4.3187744    4.3187744    4.3187744    5993.0502    28969.275    2385.7153    -13375.84     2959.562   -4449.5233   -5768.6773    80.552972 
   74200     1284.203   -104.58372    1.1619738   -103.42174   -10533.047    4.3196538    4.3196538    4.3196538   -10533.047   -24077.564   -17839.014    10317.437    -12768.08    10660.614     4965.041    80.602189 
   74300    688.47002   -104.04664   0.62294214    -103.4237   -9470.6674    4.3300939    4.3300939    4.3300939   -9470.6674   -11459.181    1718.6351   -18671.457    6517.1117   -6112.5502   -23739.314    81.188017 
   74400    1151.7405   -104.46682     1.042119   -103.42471   -20637.551      4.32231      4.32231      4.32231   -20637.551   -25153.888   -31493.856   -5264.9078   -10407.239    9604.5349    13770.275    80.750968 
   74500    1403.9439   -104.69449     1.270318   -103.42417     16919.55    4.3164983    4.3164983    4.3164983     16919.55    28871.768   -3396.2938    25283.177   -1845.9531    4211.2319   -13055.541    80.425675 
   74600    962.26163   -104.29568   0.87067455   -103.42501   -18473.838    4.3243641    4.3243641    4.3243641   -18473.838   -39862.624   -13712.189   -1846.7009   -7282.7872   -11470.755   -5500.2485    80.866148 
   74700    678.53821    -104.0427   0.61395563   -103.42874   -15674.314    4.3261741    4.3261741    4.3261741   -15674.314   -67517.378   -14250.282    34744.718   -16769.348    7175.0305    12539.307    80.967732 
   74800    1634.4085   -104.89795    1.4788472    -103.4191    1327.3399    4.3256232    4.3256232    4.3256232    1327.3399    22398.965   -8792.7988   -9624.1468    4744.9155   -14989.183   -11702.852    80.936807 
   74900    1008.2028     -104.339   0.91224304   -103.42676    10035.467    4.3139779    4.3139779    4.3139779    10035.467    -24840.57   -8099.3217    63046.291    -32002.82    -1978.815    1655.7552    80.284878 
   75000    887.35245   -104.23346   0.80289514   -103.43057   -3627.0559    4.3263786    4.3263786    4.3263786   -3627.0559   -8670.1644   -1364.2237   -846.77956    4006.2313    298.57819    7855.5656    80.979217 
   75100    1151.7726   -104.46553    1.0421481   -103.42339    11198.425    4.3265722    4.3265722    4.3265722    11198.425   -15419.033   -9749.1929    58763.502    -21115.42    9421.7596   -4970.4295    80.990084 
   75200    1232.6417   -104.54334    1.1153201   -103.42802    -19903.58    4.3314948    4.3314948    4.3314948    -19903.58    -4967.628   -26438.092   -28305.021   -13249.398    7017.3706    15138.063    81.266842 
   75300    1052.3709   -104.37301   0.95220727    -103.4208    7798.8254    4.3199427    4.3199427    4.3199427    7798.8254    -11325.59   -2297.8516    37019.918     961.0367    9238.7987     17514.38    80.618358 
   75400     943.4892   -104.28072   0.85368885   -103.42703   -15004.605    4.3210187    4.3210187    4.3210187   -15004.605   -52178.524    -23983.08     31147.79   -22102.301    1160.0044   -2838.5147    80.678613 
   75500    1075.2874   -104.40148    0.9729426   -103.42853   -17969.931    4.3313343    4.3313343    4.3313343   -17969.931   -11483.317    -14114.97   -28311.504    3830.6346    1427.5184    40300.159     81.25781 
   75600    1354.3595   -104.64598    1.2254529   -103.42052    5563.3302     4.320887     4.320887     4.320887    5563.3302   -11123.943   -16706.522    44520.456    -9265.086   -10379.494   -11131.326    80.671237 
   75700    899.82921   -104.23863   0.81418438   -103.42445   -19630.511    4.3264003    4.3264003    4.3264003   -19630.511   -45520.086   -6272.5879   -7098.8597   -468.66123     3896.409    24837.016    80.980435 
   75800    942.23733   -104.27722   0.85255614   -103.42467    15239.104     4.319299     4.319299     4.319299    15239.104    5717.9031   -7659.5737    47658.983   -2288.1802   -2784.7721    11081.366     80.58233 
   75900    1539.5182   -104.81549    1.3929884    -103.4225   -11440.412    4.3296075    4.3296075    4.3296075   -11440.412   -7385.0548   -13373.967   -13562.214   -5580.1322    983.77245   -9890.0377    81.160663 
   76000    829.50055   -104.17418   0.75054953   -103.42363    16030.462    4.3199687    4.3199687    4.3199687    16030.462    10020.568   -13681.233    51752.052    -867.1318    3069.5597    16153.259    80.619813 
   76100    929.53328   -104.27126   0.84106124    -103.4302   -20108.492    4.3257695    4.3257695    4.3257695   -20108.492   -41856.697   -17375.594   -1093.1845   -10803.663    2308.6548   -2155.0774    80.945016 
   76200    1252.6451   -104.55717    1.1334196   -103.42375    14285.719    4.3246392    4.3246392    4.3246392    14285.719     7071.806   -8139.6513    43925.003   -1192.3661   -2474.2605   -15734.408    80.881585 
   76300    1260.9401   -104.56979    1.1409251   -103.42887   -21731.335    4.3253803    4.3253803    4.3253803   -21731.335   -20801.564    -23740.85    -20651.59   -13493.292   -5785.4181    25907.284    80.923171 
   76400    680.41848   -104.04572   0.61565694   -103.43006   -14286.277    4.3262596    4.3262596    4.3262596   -14286.277   -52848.183    -10905.53    20894.883   -11287.475    1419.9433   -20252.704    80.972531 
   76500    1199.4502   -104.51559    1.0852877    -103.4303   -1878.7457    4.3230085    4.3230085    4.3230085   -1878.7457   -22434.966   -514.24614    17312.975   -608.99818   -1380.2345    10013.677    80.790124 
   76600    1328.8048   -104.63559    1.2023305   -103.43326   -23850.885     4.330859     4.330859     4.330859   -23850.885   -9117.5007    -42498.58   -19936.576   -19084.791    7162.4315    3137.6375    81.231062 
   76700    973.65825   -104.30846   0.88098644   -103.42747    14364.344    4.3219182    4.3219182    4.3219182    14364.344   -22077.477   -2393.2532    67563.763     5763.742    -4650.445   -21125.433    80.729008 
   76800    834.07635   -104.18645   0.75468981   -103.43176    3602.0349    4.3274212    4.3274212    4.3274212    3602.0349   -16451.235   -10497.523    37754.863   -16303.919    5822.6466    7394.3258    81.037774 
   76900    1449.3748   -104.74029    1.3114248   -103.42887   -10431.825    4.3310386    4.3310386    4.3310386   -10431.825   -11119.401   -25754.853    5578.7802   -4901.2116   -14215.973   -17284.256    81.241167 
   77000    1197.0081   -104.50925    1.0830781   -103.42617    6679.8604    4.3265946    4.3265946    4.3265946    6679.8604    10102.284   -16814.593     26751.89   -6729.4971    10200.752    -3071.662    80.991345 
   77100    710.02539   -104.07104    0.6424459   -103.42859    2409.6629    4.3224092    4.3224092    4.3224092    2409.6629   -19624.053   -17573.593    44426.635   -18067.147    422.35539    9440.9428    80.756529 
   77200    1173.7844   -104.49104    1.0620648   -103.42897   -9525.9112    4.3248421    4.3248421    4.3248421   -9525.9112   -27858.548   -4829.7259    4110.5403    2321.8664    5420.0021   -12842.228    80.892966 
   77300    1434.7265   -104.72924    1.2981707   -103.43107   -5775.6025    4.3232682    4.3232682    4.3232682   -5775.6025   -6866.1172   -21040.883    10580.193   -26859.643   -7139.0712    1530.6715    80.804681 
   77400    927.95237   -104.26586    0.8396308   -103.42623    1320.9554    4.3194926    4.3194926    4.3194926    1320.9554   -25173.133   -8957.1804    38093.179    4722.3125   -7013.8351   -5056.6782    80.593162 
   77500    775.17648   -104.12977   0.70139597   -103.42837   -24155.018    4.3241882    4.3241882    4.3241882   -24155.018   -53611.152   -26780.379    7926.4781   -23679.749   -3255.3043   -17279.681    80.856283 
   77600    1528.6066   -104.80391    1.3831153   -103.42079    8663.4865    4.3196627    4.3196627    4.3196627    8663.4865     13358.75   -16317.604    28949.313   -7371.3417   -7809.4252    1539.7266    80.602683 
   77700    1114.0066   -104.43385    1.0079765   -103.42587   -9675.2466    4.3247178    4.3247178    4.3247178   -9675.2466   -8890.7156   -26720.797     6585.773   -633.75365    4227.5158   -13840.705     80.88599 
   77800    709.34486   -104.06852   0.64183014   -103.42669    2787.0646    4.3211744    4.3211744    4.3211744    2787.0646   -9892.1034   -19914.505    38167.802   -25707.058   -9646.2694   -3419.2608    80.687338 
   77900    1340.8062   -104.63471    1.2131897   -103.42152    6835.0323    4.3199885    4.3199885    4.3199885    6835.0323   -15516.912    5683.4836    30338.525    15790.527       3834.1    8699.8537    80.620925 
   78000    1048.1699   -104.37952   0.94840612   -103.43111   -3878.3093    4.3206274    4.3206274    4.3206274   -3878.3093    9341.3066   -41346.956    20370.721    -30947.54   -7182.8892   -6871.6403    80.656699 
   78100    1385.5604   -104.67354    1.2536841   -103.41986   -391.10359    4.3217364    4.3217364    4.3217364   -391.10359   -30233.014   -8274.4612    37334.165    6315.4635    15430.846    2874.5346    80.718821 
   78200    746.32882   -104.10366     0.675294   -103.42837   -14328.692    4.3227659    4.3227659    4.3227659   -14328.692   -45297.606   -38878.413    41189.944   -20009.503   -7969.5301   -4969.6426    80.776523 
   78300     1252.751   -104.56362    1.1335154   -103.43011    10830.126    4.3204892    4.3204892    4.3204892    10830.126    22098.771   -21905.426    32297.032   -12287.315     14479.07   -5437.1399    80.648961 
   78400    1472.4756   -104.75348    1.3323268   -103.42116   -2366.8581    4.3255154    4.3255154    4.3255154   -2366.8581   -6766.2376   -23140.638    22806.301   -2347.7387   -5893.2091   -5567.8614    80.930752 
   78500    425.12471   -103.81292   0.38466177   -103.42826    9246.5606    4.3190947    4.3190947    4.3190947    9246.5606    11460.071   -37862.033    54141.644    -29078.97   -5105.5226   -6268.7571    80.570895 
   78600     1540.911   -104.81118    1.3942487   -103.41693   -3936.8289      4.32364      4.32364      4.32364   -3936.8289   -2570.0511   -15023.728    5783.2927    3344.5052   -4178.4281   -4749.8282    80.825534 
   78700    1124.2681    -104.4423    1.0172614   -103.42504    -12647.66    4.3285021    4.3285021    4.3285021    -12647.66    848.40616   -32657.372   -6134.0146   -22824.561   -4024.7708   -1610.2375    81.098514 
   78800     931.7858   -104.26767   0.84309937   -103.42457    5532.9206    4.3191206    4.3191206    4.3191206    5532.9206    -550.0342    -27350.26    44499.056    1289.8849    -3903.152   -10585.488    80.572341 
   78900    1019.6589   -104.35031   0.92260882    -103.4277   -3185.1716    4.3230293    4.3230293    4.3230293   -3185.1716   -27646.239    -22316.24    40406.964   -13746.642    13421.584    11710.433     80.79129 
   79000    1312.5303   -104.61131     1.187605   -103.42371   -4810.6243    4.3305365    4.3305365    4.3305365   -4810.6243   -16211.846   -33752.863    35532.836   -7935.6246   -1645.6261   -8255.3873    81.212916 
   79100    1214.6966   -104.51859     1.099083   -103.41951    376.19209    4.3204899    4.3204899    4.3204899    376.19209    17453.993   -4265.1502   -12060.266    4482.6275    14605.015    3881.3058    80.649002 
   79200    848.57636   -104.19098   0.76780973   -103.42317   -7472.2493    4.3227671    4.3227671    4.3227671   -7472.2493   -8487.9901   -34119.477    20190.719   -22700.461    3951.2893    3828.1888    80.776588 
   79300    1195.1433    -104.4968    1.0813908   -103.41541     20283.88    4.3280228    4.3280228    4.3280228     20283.88    10080.655    -12023.96    62794.946    9914.7304   -3985.3461   -10385.559    81.071578 
   79400    1056.6762   -104.38686   0.95610283   -103.43076   -13489.698    4.3213126    4.3213126    4.3213126   -13489.698    -13857.05   -36519.056    9907.0115   -27383.567    6107.3244    8676.6391    80.695081 
   79500    1279.7061   -104.58438     1.157905   -103.42648    15391.466    4.3087997    4.3087997    4.3087997    15391.466    28752.383    -12551.35    29973.366    7506.9085    393.39315   -6232.1971    79.996119 
   79600    805.19905   -104.16155   0.72856102   -103.43299   -22783.639    4.3276117    4.3276117    4.3276117   -22783.639   -48289.899   -19475.228   -585.79019   -15781.704   -2429.0779    5106.4433    81.048479 
   79700    1037.5819   -104.36976    0.9388259   -103.43094   -25056.679    4.3271277    4.3271277    4.3271277   -25056.679   -36830.489   -28212.498   -10127.051   -15732.715    10417.479    4178.4996    81.021285 
   79800    1445.0105   -104.72557    1.3074759   -103.41809    25296.727     4.309465     4.309465     4.309465    25296.727     37948.47   -12201.473    50143.184    2032.0331   -1918.6713   -4363.2927     80.03318 
   79900    806.86992   -104.16281   0.73007286   -103.43274     -2644.83    4.3164972    4.3164972    4.3164972     -2644.83   -14250.694   -26017.064    32333.268   -26184.571    7237.2662    1634.9535    80.425615 
   80000    1162.9631    -104.4772    1.0522735   -103.42493    281.97311    4.3294941    4.3294941    4.3294941    281.97311   -4431.9582   -9600.8307    14878.708    10141.225    8430.3575    9592.5755    81.154285 
   80100    1080.7785   -104.40252   0.97791107   -103.42461    5615.6795    4.3270468    4.3270468    4.3270468    5615.6795   -8918.4063   -25417.682    51183.127   -22332.862    5764.6337      643.293    81.016745 
   80200    1303.0874    -104.6005    1.1790608   -103.42144   -114.00677    4.3125942    4.3125942    4.3125942   -114.00677    12879.206   -19236.718    6015.4914    264.97926     13843.86    21969.754    80.207651 
   80300    914.81647   -104.25361   0.82774517   -103.42586   -6178.6654    4.3197628    4.3197628    4.3197628   -6178.6654   -18910.032   -16808.498    17182.533   -6234.3185   -1511.6169   -5056.9442    80.608287 
   80400    1142.0175   -104.45899    1.0333214   -103.42567   -5091.4346    4.3295752    4.3295752    4.3295752   -5091.4346   -36676.647   -20170.035    41572.379   -13773.095    9.0374487    3477.9874    81.158845 
   80500    1108.5952   -104.43218    1.0030802    -103.4291   -4551.4703    4.3227742    4.3227742    4.3227742   -4551.4703    24530.588   -42656.766    4471.7678    4483.5321    4022.6272     4683.371     80.77699 
   80600    1051.8215   -104.37975    0.9517102   -103.42804    9530.5308    4.3107817    4.3107817    4.3107817    9530.5308    9870.8362   -31337.417    50058.173   -18087.724   -13570.956   -10390.408     80.10656 
   80700    1265.1397    -104.5677     1.144725   -103.42298   -860.27053    4.3230232    4.3230232    4.3230232   -860.27053    12804.313    -8620.868   -6764.2567    5975.6777     197.1032     7381.589    80.790946 
   80800    715.81417   -104.07574    0.6476837   -103.42805   -24992.523    4.3303551    4.3303551    4.3303551   -24992.523   -22763.515   -44489.421   -7724.6316   -10853.852     87.07811   -6620.3949    81.202711 
   80900    1451.7444   -104.73009    1.3135688   -103.41652    8221.6953    4.3162515    4.3162515    4.3162515    8221.6953    18125.003   -21419.082    27959.164   -2326.5904   -11838.714   -9172.2524     80.41188 
   81000    1097.9091   -104.41473   0.99341124   -103.42132   -3359.5776    4.3153584    4.3153584    4.3153584   -3359.5776    4626.8923   -15364.054    658.42848   -4625.7057      13669.5    11818.938    80.361978 
   81100    810.51013   -104.16372    0.7333666   -103.43035   -8477.6069    4.3271313    4.3271313    4.3271313   -8477.6069   -46665.123    -16307.97    37540.273   -12350.377    1347.5066   -14689.314    81.021492 
   81200    1325.1015   -104.62111    1.1989797   -103.42213    3361.3026    4.3274865    4.3274865    4.3274865    3361.3026    36877.141   -33204.298    6411.0654    9372.1353    6997.7315    15115.697     81.04144 
   81300    1044.6555   -104.37258   0.94522627   -103.42735    11364.323    4.3136956    4.3136956    4.3136956    11364.323    11564.615   -27129.502    49657.856   -24115.258    4791.2827   -8672.1929    80.269118 
   81400    1230.1744   -104.54119    1.1130877   -103.42811   -9650.3907    4.3235489    4.3235489    4.3235489   -9650.3907    5388.4954   -11623.947   -22715.721   -654.94257    272.02323    -4267.593    80.820424 
   81500    868.54192   -104.21415   0.78587499   -103.42828   -15228.982    4.3280725    4.3280725    4.3280725   -15228.982   -27304.162   -21523.896     3141.111   -15839.843   -9288.8434    6766.0635    81.074372 
   81600     1137.152   -104.45753     1.028919   -103.42861   -7439.6716     4.318312     4.318312     4.318312   -7439.6716   -769.25048   -25533.336    3983.5716   -9893.2722    9198.9294   -8671.4879    80.527101 
   81700    1327.9934   -104.62742    1.2015963   -103.42582   -7862.4782    4.3236153    4.3236153    4.3236153   -7862.4782   -3407.3608     -15176.3   -5003.7743   -3731.6664   -14161.105    1290.8436    80.824151 
   81800    813.13171   -104.16381   0.73573866   -103.42807     11955.06    4.3175929    4.3175929    4.3175929     11955.06    4367.6564   -4106.0221    35603.546   -12957.692    10455.484     1706.126    80.486877 
   81900    1118.1077   -104.43378    1.0116874   -103.42209   -5976.1495    4.3235701    4.3235701    4.3235701   -5976.1495    1124.1762   -4180.1984   -14872.426     7629.092   -8956.6942   -16272.448    80.821612 
   82000     1045.696   -104.36768   0.94616775   -103.42151    1177.0632    4.3219465    4.3219465    4.3219465    1177.0632    13474.356   -41123.964    31180.797   -20789.025   -481.47231    9303.9291    80.730598 
   82100    1372.5893    -104.6614    1.2419476   -103.41945   -4609.7405    4.3161896    4.3161896    4.3161896   -4609.7405    -2603.162   -3922.8933   -7303.1662    5354.4328   -9109.0545   -15746.776    80.408421 
   82200    931.77564   -104.27058   0.84309018   -103.42749   -19636.511    4.3243791    4.3243791    4.3243791   -19636.511   -35002.594   -9504.3222   -14402.616   -14761.104   -8021.8249   -607.21416     80.86699 
   82300    867.13611   -104.21614   0.78460298   -103.43154    8566.6363    4.3212824    4.3212824    4.3212824    8566.6363    19618.021   -36999.924    43081.812   -25538.181   -4405.9736   -5741.4631    80.693387 
   82400    1509.1325   -104.79601    1.3654948   -103.43052   -12039.471    4.3250142    4.3250142    4.3250142   -12039.471    4184.9618   -19801.105   -20502.269    5862.8732   -528.03879    804.09438    80.902627 
   82500    896.81927   -104.24569   0.81146093   -103.43423    10707.443    4.3184127    4.3184127    4.3184127    10707.443    4339.0115   -17017.638    44800.957   -35079.923   -4205.6862    -3534.842    80.532734 
   82600    1045.7114   -104.37217   0.94618168   -103.42598   -9525.1899    4.3242415    4.3242415    4.3242415   -9525.1899   -19090.799   -2759.7294   -6725.0413    9629.1423    4342.1356   -1963.4331    80.859274 
   82700    957.80251   -104.29255   0.86663984   -103.42591   -15103.436    4.3210589    4.3210589    4.3210589   -15103.436   -15620.814   -28423.413   -1266.0824   -19697.019   -1919.9891     649.7712    80.680869 
   82800    1299.6018   -104.59958     1.175907   -103.42367    9061.1688    4.3189065    4.3189065    4.3189065    9061.1688    13612.391   -13044.257    26615.373   -5697.6892   -1627.4292   -7439.4881    80.560363 
   82900    1325.4523   -104.62122    1.1992971   -103.42192    3349.3709    4.3213064    4.3213064    4.3213064    3349.3709    8272.1484    8898.9572   -7122.9929   -896.22698    3239.3425   -95.477134    80.694729 
   83000    704.86007   -104.06395   0.63777221   -103.42617    4628.0975    4.3173113    4.3173113    4.3173113    4628.0975   -5537.4559   -17607.962    37029.711   -33182.701   -13712.245    625.26274     80.47113 
   83100    1173.6646   -104.48114    1.0619564   -103.41918    9809.1728    4.3193232    4.3193232    4.3193232    9809.1728    39615.307   -16426.449      6238.66    10670.223    2063.0864   -11142.097    80.583684 
   83200    1315.9191   -104.61435    1.1906712   -103.42368   -7493.2925    4.3178498    4.3178498    4.3178498   -7493.2925   -20238.456    -10007.32    7765.8988   -41995.563   -15710.303    6262.0035    80.501247 
   83300     1076.787   -104.39845   0.97429953   -103.42415   -2965.4011    4.3235684    4.3235684    4.3235684   -2965.4011   -21536.907    8027.2291    4613.4749    880.28028   -4999.6889   -11896.143    80.821517 
   83400    957.51403   -104.29078   0.86637882    -103.4244   -2755.1492    4.3244506    4.3244506    4.3244506   -2755.1492    14265.826   -20391.457   -2139.8164   -10017.178   -1610.9227    812.99962    80.871002 
   83500    1105.2647   -104.43019    1.0000667   -103.43012   -3988.9116    4.3212506    4.3212506    4.3212506   -3988.9116   -7177.4695    1238.5212   -6027.7866   -17078.381    -11277.33   -3941.8299    80.691607 
   83600    1464.3327   -104.75539     1.324959   -103.43043    15567.961    4.3250583    4.3250583    4.3250583    15567.961    37447.828    9091.2226    164.83293    12139.524    179.59621   -5569.1208      80.9051 
   83700    770.06805   -104.12954   0.69677376   -103.43277   -5569.9885    4.3308957    4.3308957    4.3308957   -5569.9885    1769.6548   -17638.846   -840.77458   -31364.385   -3076.2451    1215.4132    81.233128 
   83800    988.27716   -104.32727   0.89421394   -103.43306    7249.8564    4.3247142    4.3247142    4.3247142    7249.8564    23295.537   -10729.873    9183.9048   -138.17525   -10005.299   -13299.683    80.885789 
   83900     1710.024   -104.98541    1.5472656   -103.43814   -22325.545    4.3327902    4.3327902    4.3327902   -22325.545   -16326.875   -28865.147   -21784.615   -7573.9941     8613.874    3672.4159    81.339777 
   84000    827.32711   -104.19287   0.74858295   -103.44429    9260.6216    4.3212147    4.3212147    4.3212147    9260.6216     9537.518    11032.632    7211.7143   -20157.054   -13511.601   -9237.8766    80.689596 
   84100    990.64576   -104.33271    0.8963571   -103.43635    2836.6893    4.3197407    4.3197407    4.3197407    2836.6893    12477.483   -12721.486     8754.071    6979.1741    1115.9007   -493.39012    80.607054 
   84200     1139.626    -104.4642    1.0311576   -103.43304   -2126.7631    4.3230985    4.3230985    4.3230985   -2126.7631    7269.0867   -3105.0529   -10544.323   -21390.959    6231.3074   -377.79245    80.795168 
   84300    1307.6036   -104.61506    1.1831472   -103.43191   -2778.5899    4.3239182    4.3239182    4.3239182   -2778.5899   -9261.9021    6848.1191   -5921.9867    3459.4119   -11959.735   -7242.1646    80.841135 
   84400    1056.4405   -104.37853    0.9558896   -103.42264     20705.12    4.3177964    4.3177964    4.3177964     20705.12    39402.545    3740.9319    18971.882   -12830.657    4310.5293    5857.2041    80.498259 
   84500    819.15297   -104.16798   0.74118682    -103.4268   -1282.5271    4.3153645    4.3153645    4.3153645   -1282.5271   -25755.666   -171.30294    22079.388    -8602.127   -15303.743   -6539.8131     80.36232 
   84600    1490.5545   -104.77262    1.3486851   -103.42393    1542.5442    4.3198055    4.3198055    4.3198055    1542.5442    16376.772   -7672.4475   -4076.6918   -5683.4651   -15900.247   -1676.8362    80.610681 
   84700    1085.2034   -104.40815   0.98191482   -103.42623   -3805.3634    4.3200755    4.3200755    4.3200755   -3805.3634   -41538.821     4022.281     26100.45   -19308.197   -5221.3844    3139.5659    80.625797 
   84800    854.67568   -104.19801   0.77332852   -103.42468   -12042.192    4.3146605    4.3146605    4.3146605   -12042.192    -37575.48    9821.7586   -8372.8549    5469.0754   -22775.211   -16385.632    80.322994 
   84900     1222.962    -104.5295    1.1065617   -103.42294    12993.664    4.3176676    4.3176676    4.3176676    12993.664    24964.252   -16265.504    30282.244   -12601.855    7927.9882    4412.6379    80.491054 
   85000    1237.7489   -104.54579    1.1199412   -103.42584   -6571.1807    4.3213953    4.3213953    4.3213953   -6571.1807    -21833.21    21011.053   -18891.385    -4358.795   -15265.049   -11912.412    80.699711 
   85100    909.86351   -104.24437   0.82326363    -103.4211    12388.389    4.3177655    4.3177655    4.3177655    12388.389    19465.091    8611.2213    9088.8561    10541.611   -2812.8051   -1800.4146     80.49653 
   85200    1048.7299   -104.36756   0.94891283   -103.41865   -3340.6902     4.317667     4.317667     4.317667   -3340.6902   -36118.518    3309.6729    22786.774   -14384.918    2328.2795    427.21551     80.49102 
   85300    1203.3118   -104.51426    1.0887818   -103.42547   -5788.2372    4.3197256    4.3197256    4.3197256   -5788.2372    9034.6785    3419.7732   -29819.163    5096.9862   -20824.457   -2606.6139    80.606207 
   85400    1286.6308   -104.58405    1.1641706   -103.41988   -3576.0883     4.319559     4.319559     4.319559   -3576.0883   -22687.239   -5168.1802    17127.155    3297.4561    4226.9864   -1450.5839     80.59688 
   85500    711.08216   -104.06864   0.64340208   -103.42524   -17176.058    4.3195401    4.3195401    4.3195401   -17176.058   -52572.984    15556.502   -14511.691   -6188.0578   -19762.487    10718.301     80.59582 
   85600    1197.6638    -104.5071    1.0836714   -103.42343   -1651.8081    4.3185683    4.3185683    4.3185683   -1651.8081    14312.073   -24563.103    5295.6059    9965.0212   -12396.776    -12228.42    80.541436 
   85700    1320.9352   -104.61859      1.19521   -103.42338    8298.9475    4.3172998    4.3172998    4.3172998    8298.9475     6504.634   -2858.5463    21250.755    1684.5786   -4516.3388    7869.8089    80.470485 
   85800    999.19738   -104.32803   0.90409478   -103.42394    466.95085    4.3156686    4.3156686    4.3156686    466.95085    4960.1559     17586.77   -21146.073   -1042.8366   -12817.571    -8486.242    80.379307 
   85900      829.994   -104.17411   0.75099601   -103.42312   -3391.4135    4.3200129    4.3200129    4.3200129   -3391.4135   -25139.558   -13303.719    28269.037    14114.767    2849.8178    -1291.566    80.622289 
   86000    1364.8181   -104.65555    1.2349161   -103.42064   -10462.876    4.3215693    4.3215693    4.3215693   -10462.876   -5565.2306    1155.3042   -26978.701   -5412.7341   -3514.6455    2521.7826    80.709459 
   86100     1214.417   -104.52131      1.09883   -103.42248   -281.92659    4.3152036    4.3152036    4.3152036   -281.92659   -3957.6288   -11539.278    14651.127    14499.108     1337.796   -2524.3311    80.353328 
   86200    941.58458   -104.27379   0.85196552   -103.42183   -5632.8023     4.316747     4.316747     4.316747   -5632.8023   -41922.509    3797.4819    21226.621    3190.1293    3486.4815    2051.2088     80.43958 
   86300    897.65525   -104.23505   0.81221733   -103.42284   -10997.014    4.3215321    4.3215321    4.3215321   -10997.014   -12749.253   -17433.957   -2807.8319   -248.20878   -5166.0607     6245.479    80.707379 
   86400    1298.3963   -104.59612    1.1748163    -103.4213    1650.8983    4.3178169    4.3178169    4.3178169    1650.8983    9467.3733   -31363.387    26848.709    20545.392    5783.0377     3410.884    80.499402 
   86500    1265.2373   -104.56403    1.1448133   -103.41921    5197.9027    4.3153591    4.3153591    4.3153591    5197.9027    -3038.348    32920.414   -14288.358   -7465.6723   -8748.3631    9639.6939    80.362015 
   86600    719.70743   -104.07768   0.65120641   -103.42648   -2983.4871    4.3162042    4.3162042    4.3162042   -2983.4871    -43774.04    1106.6379    33716.941    30622.129    3080.2362    1998.1662    80.409239 
   86700    1327.2875   -104.62157    1.2009577   -103.42061   -10729.364     4.322321     4.322321     4.322321   -10729.364   -9490.9098   -2067.4322    -20629.75    1846.9476    -3256.303   -1493.1914    80.751583 
   86800    954.29073   -104.28939   0.86346231   -103.42593   -7109.5192    4.3187334    4.3187334    4.3187334   -7109.5192   -17197.544   -21327.936    17196.923    17500.926    -5395.185    8893.2697    80.550677 
   86900    1228.2969   -104.53434    1.1113889   -103.42295   -5886.0281    4.3112315    4.3112315    4.3112315   -5886.0281   -36647.776     8718.474    10271.218    19527.134    388.87566   -1820.4353    80.131638 
   87000    1164.2017   -104.47736    1.0533941   -103.42396    1479.6755    4.3165479    4.3165479    4.3165479    1479.6755   -10928.067    10335.835    5031.2586   -321.79019    4224.2118   -3131.5445    80.428452 
   87100    819.56236   -104.16966   0.74155725    -103.4281   -13876.686    4.3220028    4.3220028    4.3220028   -13876.686   -10536.581   -24908.066   -6185.4097    25838.444    -5558.677    7455.2734     80.73375 
   87200    1349.6587   -104.63817    1.2211996   -103.41697    2218.7582    4.3169419    4.3169419    4.3169419    2218.7582    9933.8324    17465.576   -20743.134   -7742.1685     8668.178   -5476.6558    80.450475 
   87300    920.60743   -104.25996   0.83298495   -103.42698    1287.8859    4.3141324    4.3141324    4.3141324    1287.8859   -40111.161    29180.848    14793.971    13625.135    1903.5198    221.60105    80.293504 
   87400     1367.916   -104.66352    1.2377192    -103.4258    -7317.532    4.3174394    4.3174394    4.3174394    -7317.532   -9332.0897   -11044.012   -1576.4944    7579.6566   -664.04251    2544.9736    80.478295 
   87500    927.90199   -104.26332   0.83958522   -103.42373     -7134.86     4.322944     4.322944     4.322944     -7134.86   -7093.4894   -5368.7843   -8942.3063   -3242.1463    8477.8128   -1824.6023    80.786508 
   87600    760.60421   -104.11372   0.68821068   -103.42551   -8920.6601    4.3118481    4.3118481    4.3118481   -8920.6601   -32228.735   -17932.132    23398.887    30845.332    -10155.37    2565.5031    80.166025 
   87700    1584.6842   -104.85374    1.4338556   -103.41988    11760.168    4.3116255    4.3116255    4.3116255    11760.168     2764.936    25386.041    7129.5285   -14759.542    13880.508    5489.1019    80.153613 
   87800    1034.7363   -104.36365   0.93625114    -103.4274   -9097.6597    4.3208861    4.3208861    4.3208861   -9097.6597   -20482.866   -19665.285    12855.172    27293.946   -8615.9501    1085.3936    80.671186 
   87900    863.98564   -104.20438   0.78175237   -103.42262   -10581.373     4.320474     4.320474     4.320474   -10581.373    11678.777   -21287.586    -22135.31    4136.9022   -906.75552    8824.2446    80.648109 
   88000    1064.6721   -104.38374    0.9633377   -103.42041    4976.0936    4.3156858    4.3156858    4.3156858    4976.0936   -14775.142    9558.3183    20145.104    1178.2209    5367.2987    304.83697    80.380267 
   88100    1375.2278   -104.66906    1.2443351   -103.42472    -321.4622     4.311938     4.311938     4.311938    -321.4622   -15018.029   -9204.4464    23258.089    29238.737   -13170.912    7310.3331     80.17104 
   88200    1191.3847    -104.4977    1.0779899   -103.41971    1941.7299    4.3197562    4.3197562    4.3197562    1941.7299    1700.2525   -13437.034    17561.971   -16591.131    10848.705    -3093.901    80.607921 
   88300    712.41386   -104.06815   0.64460703   -103.42354   -14422.437     4.314568     4.314568     4.314568   -14422.437   -24334.173   -28669.605    9736.4673    23309.034   -5889.7049    1863.9815     80.31783 
   88400    1121.2878     -104.442    1.0145648   -103.42743    6933.8754    4.3145068    4.3145068    4.3145068    6933.8754    2637.8345    5059.8607    13103.931   -2690.7349   -718.97711    34.012106    80.314407 
   88500    1534.7505    -104.8114    1.3886745   -103.42272   -6177.0368    4.3213384    4.3213384    4.3213384   -6177.0368   -19349.424   -11189.841    12008.154   -5125.8898    5665.6342    93.115975    80.696527 
   88600    834.61658   -104.18189   0.75517862   -103.42671   -15591.737    4.3181467    4.3181467    4.3181467   -15591.737   -16105.578    -24361.52   -6308.1128    14251.169   -12120.596   -2195.0245    80.517854 
   88700    824.26484   -104.16858   0.74581215   -103.42277    16933.588    4.3148418    4.3148418    4.3148418    16933.588    5975.8815    5863.1277    38961.754   -17108.912    10844.247     4615.329    80.333122 
   88800    1412.0674   -104.70184    1.2776683   -103.42418   -11495.999    4.3196374    4.3196374    4.3196374   -11495.999   -27853.014   -8737.4867    2102.5034    12782.992   -14109.296    863.32423     80.60127 
   88900    1212.2265   -104.52225    1.0968481    -103.4254   -3737.1201    4.3193107    4.3193107    4.3193107   -3737.1201   -10497.759   -10294.549    9580.9479   -8568.5995   -3453.0031    11359.778    80.582981 
   89000    927.83297    -104.2632   0.83952277   -103.42367   -7674.5606    4.3135462    4.3135462    4.3135462   -7674.5606   -410.39975   -28102.471    5489.1889    2166.6473    448.40993   -3751.0143    80.260778 
   89100    815.55538   -104.16937   0.73793165   -103.43144   -14557.009    4.3163817    4.3163817    4.3163817   -14557.009   -14114.415   -16897.385   -12659.227     9488.472   -6471.6848    5287.0147    80.419158 
   89200    1501.2565   -104.78141    1.3583685   -103.42304    900.67618    4.3213431    4.3213431    4.3213431    900.67618   -4968.2345   -3269.7039    10939.967   -18013.109    -1199.455    2814.9683    80.696787 
   89300    1043.0028   -104.36677   0.94373085   -103.42304     154.5022    4.3133377    4.3133377    4.3133377     154.5022   -23297.213    -8738.508    32499.228    23621.485   -8435.9098   -6570.0847    80.249139 
   89400    831.79475   -104.17649   0.75262537   -103.42386   -742.34302    4.3112189    4.3112189    4.3112189   -742.34302   -3152.5767    1821.4377   -895.89006   -13285.884   -3869.3806    6573.1981    80.130938 
   89500    1204.4307   -104.51137    1.0897942   -103.42157   -4752.4109    4.3211492    4.3211492    4.3211492   -4752.4109    923.43489    1288.8641   -16469.532    10805.779   -6494.2784   -9615.4765    80.685927 
   89600    1081.0424    -104.4053    0.9781499   -103.42715   -5763.9248    4.3191033    4.3191033    4.3191033   -5763.9248    -17261.19   -16925.677    16895.093    9950.1498   -13475.782    11712.226    80.571374 
   89700    1391.6868   -104.68039    1.2592275   -103.42116    5277.5007    4.3115472    4.3115472    4.3115472    5277.5007    5479.8858   -17172.712    27525.328   -8449.6718   -5518.9003   -4373.1328    80.149245 
   89800    775.41478   -104.13267   0.70161159   -103.43106    6985.7257    4.3186482    4.3186482    4.3186482    6985.7257   -3791.6645   -21144.124    45892.966    21062.449   -2331.1027     5921.744    80.545908 
   89900    1077.7465   -104.40219   0.97516767   -103.42702   -17754.667    4.3252376    4.3252376    4.3252376   -17754.667   -5710.8699   -2611.2854   -44941.847   -9396.7561   -10590.639    8459.0745    80.915162 
   90000    1372.9666   -104.66218     1.242289    -103.4199    8956.0529    4.3116748    4.3116748    4.3116748    8956.0529   -7138.8965   -3329.3388    37336.394    15045.933    14145.973   -6331.2344     80.15636 
   90100    959.46166   -104.29712   0.86814107   -103.42898   -12220.441     4.321892     4.321892     4.321892   -12220.441   -19480.884   -25280.944    8100.5054     2828.509   -12247.838   -1090.7911    80.727542 
   90200    1183.8223   -104.49424    1.0711473   -103.42309    11953.889    4.3200425    4.3200425    4.3200425    11953.889   -5773.8849    1356.9722     40278.58    967.71565    454.85378    3159.7904    80.623949 
   90300     868.4571   -104.21671   0.78579824   -103.43091   -11353.858    4.3212748    4.3212748    4.3212748   -11353.858   -667.32643   -6034.5434   -27359.705    12458.304    -1375.135   -11409.771     80.69296 
   90400    1255.0286   -104.56256    1.1355762   -103.42699    2030.3253    4.3121468    4.3121468    4.3121468    2030.3253   -2485.7929   -10687.535    19264.304   -6921.7919   -18342.429    8800.0039    80.182687 
   90500    1206.8654   -104.52051    1.0919972   -103.42851    6677.3896    4.3166023    4.3166023    4.3166023    6677.3896    7371.5957   -12771.679    25432.252    10667.978    5922.7695   -3844.7222    80.431487 
   90600    965.29781   -104.29959   0.87342175   -103.42617   -14820.014    4.3230239    4.3230239    4.3230239   -14820.014   -6363.5606   -7543.6135   -30552.867   -3326.8388   -8795.0885   -10528.586    80.790985 
   90700    1003.7026   -104.32912   0.90817118   -103.42095    7205.8502    4.3121004    4.3121004    4.3121004    7205.8502    5926.1629    3511.4559    12179.932    608.18147    434.62692    11757.971    80.180101 
   90800     1164.691   -104.47736    1.0538369   -103.42352   -1032.9049    4.3115729    4.3115729    4.3115729   -1032.9049   -8509.3709   -10983.005    16393.661    10078.793    4770.7117    -11220.65    80.150677 
   90900    1345.5364   -104.63981    1.2174696   -103.42234    3040.2782    4.3193381    4.3193381    4.3193381    3040.2782   -11776.609   -7452.6434    28350.087   -9946.5062   -9353.0461    1728.6775    80.584516 
   91000    888.67634   -104.22813   0.80409303   -103.42404   -11599.357    4.3194401    4.3194401    4.3194401   -11599.357    3123.3832    8767.8899   -46689.344    14875.061    11372.317   -1021.2334    80.590227 
   91100    931.18352   -104.26607   0.84255442   -103.42352    2948.5909     4.317907     4.317907     4.317907    2948.5909   -14837.594   -599.44503    24282.812   -4236.4108   -7694.7694   -6517.9399    80.504446 
   91200    1509.0731   -104.78728     1.365441   -103.42184    6928.3033    4.3154025    4.3154025    4.3154025    6928.3033   -331.01576   -14491.177    35607.102    6615.7701   -1134.0949   -3979.3723     80.36444 
   91300    988.08686   -104.32099   0.89404175   -103.42695    14409.382    4.3144333    4.3144333    4.3144333    14409.382   -7672.1304    3547.4017    47352.875    9862.9315    6821.2456   -5316.1722    80.310305 
   91400    1080.2622   -104.39885   0.97744392   -103.42141   -13316.242    4.3206133    4.3206133    4.3206133   -13316.242    3348.3622    -4182.031   -39115.057   -3254.1361   -20329.358   -2457.8244    80.655912 
   91500     884.8687   -104.22797   0.80064779   -103.42732    7696.8288    4.3111045    4.3111045    4.3111045    7696.8288    -5650.558   -585.58842    29326.633    20607.736    20538.806   -2331.0269    80.124561 
   91600    1474.8669   -104.76105    1.3344906   -103.42656   -4801.3923    4.3199243    4.3199243    4.3199243   -4801.3923   -13398.862   -17320.874    16315.559    -9432.372   -10338.735   -5446.2964    80.617329 
   91700    1255.0323   -104.55927    1.1355796   -103.42369    6411.3742    4.3098786    4.3098786    4.3098786    6411.3742   -1354.3516   -1296.5828    21885.057    20927.676    4820.9164    9260.2519    80.056226 
   91800    444.12308   -103.83358    0.4018519   -103.43173   -5921.1201    4.3192789    4.3192789    4.3192789   -5921.1201   -10240.175    1330.5048   -8853.6902   -341.77065    8756.7034   -10624.934    80.581203 
   91900    1453.3353   -104.73563    1.3150083   -103.42062   -9536.6118    4.3177722    4.3177722    4.3177722   -9536.6118    -10348.42   -21106.251    2844.8362     1200.725   -8605.9564     3069.637    80.496903 
   92000    1167.7968   -104.48546    1.0566471   -103.42881    13059.863    4.3098981    4.3098981    4.3098981    13059.863   -7044.6908   -8285.1597    54509.439    23700.203    14938.475    4018.2491    80.057315 
   92100    1265.5097   -104.56794    1.1450598   -103.42288   -18436.116    4.3205827    4.3205827    4.3205827   -18436.116   -14987.242   -6423.2131   -33897.892   -20760.513    7047.1356   -10606.056    80.654197 
   92200    633.31892   -103.99864   0.57304027    -103.4256    5889.6582    4.3120839    4.3120839    4.3120839    5889.6582    10036.762   -8585.6044    16217.818    31139.743   -4250.8013    3081.7275    80.179177 
   92300    1173.5871    -104.4883    1.0618863   -103.42641   -3103.5092    4.3168085    4.3168085    4.3168085   -3103.5092   -20055.933    2605.4798    8139.9259   -10797.409    15981.647   -3292.8467    80.443015 
   92400    1544.1852   -104.82067    1.3972113   -103.42345    7478.6734    4.3151413    4.3151413    4.3151413    7478.6734   -2101.9648   -23574.681    48112.666    4719.9798   -5666.7065    -8236.979     80.34985 
   92500     936.5447   -104.27404   0.84740532   -103.42664    1206.6398     4.315016     4.315016     4.315016    1206.6398   -26176.213    23941.073    5855.0589    21581.798    2671.3972   -1015.1247    80.342852 
   92600    848.28859   -104.19003   0.76754934   -103.42248   -13422.826     4.317774     4.317774     4.317774   -13422.826   -9677.0746   -4279.7231   -26311.679   -22377.435    6943.4357    1740.0567    80.497007 
   92700    1099.0442    -104.4209   0.99443832   -103.42646    11479.169    4.3099249    4.3099249    4.3099249    11479.169   -14954.206      16386.6    33005.112    34486.194   -7111.4553   -5863.5245    80.058804 
   92800    1588.5008   -104.86199    1.4373089   -103.42468   -3436.0091    4.3208617    4.3208617    4.3208617   -3436.0091   -25335.761   -402.66774    15430.402   -13858.685    7366.2778    6723.6245    80.669823 
   92900    867.89585   -104.21147   0.78529041   -103.42618    15653.596    4.3130745    4.3130745    4.3130745    15653.596   -8404.8948    27741.783      27623.9    11330.821    4078.5457   -6252.9163    80.234448 
   93000    828.55115   -104.17485   0.74969049   -103.42516     -7197.82    4.3163971    4.3163971    4.3163971     -7197.82   -11732.232    4730.0501   -14591.278    19873.132    2081.2925    1526.6105    80.420022 
   93100    1237.2001   -104.54372    1.1194446   -103.42427    7080.3095     4.315687     4.315687     4.315687    7080.3095   -10171.788    27499.914    3912.8031   -13043.937    5176.8516   -1596.5815    80.380337 
   93200    1355.1845   -104.65344    1.2261995   -103.42724    1687.8266    4.3152581    4.3152581    4.3152581    1687.8266   -27895.132   -1628.8835    34587.495    30578.799   -731.46796   -6136.6288    80.356373 
   93300    1138.1758   -104.45278    1.0298454   -103.42293   -6964.7494     4.316369     4.316369     4.316369   -6964.7494   -12758.615    30454.279   -38589.913   -5009.5676    6002.3209    5017.3646    80.418452 
   93400    649.37259   -104.01448   0.58756597   -103.42691   -489.77381    4.3111703    4.3111703    4.3111703   -489.77381    -14032.13   -5728.1847    18290.993    8288.7284    1115.5263   -302.09868    80.128225 
   93500    1338.4013   -104.63933    1.2110136   -103.42832   -14859.247    4.3194222    4.3194222    4.3194222   -14859.247   -23660.739   -8997.9352   -11919.068    20499.138    7737.1654    5924.3818    80.589224 
   93600    1389.7818   -104.68407    1.2575038   -103.42657    7956.8665    4.3160283    4.3160283    4.3160283    7956.8665   -17193.658       6547.4    34516.857   -11443.952   -148.05479   -2187.3556    80.399407 
   93700    799.13358   -104.14953   0.72307285   -103.42646   -22791.552    4.3201669    4.3201669    4.3201669   -22791.552    -25428.62   -20246.021   -22700.016    26486.145    622.24064     3728.335    80.630913 
   93800    949.61026   -104.27943   0.85922732   -103.42021    7841.9226    4.3095159    4.3095159    4.3095159    7841.9226    11751.723     36284.37   -24510.325    -5560.677    4318.5044   -6081.2097    80.036016 
   93900    1136.8714   -104.45687    1.0286651   -103.42821    71.655596    4.3167496    4.3167496    4.3167496    71.655596   -15516.826   -14094.052    29825.845    13958.646   -4208.9077    2585.1082    80.439723 
   94000    1503.8691   -104.78396    1.3607324   -103.42323   -3535.8977    4.3195653    4.3195653    4.3195653   -3535.8977   -30614.845    8213.6108    11793.541    10334.957    154.99286   -11576.421    80.597235 
   94100    781.86053   -104.13104   0.70744383    -103.4236    4575.1284    4.3137367    4.3137367    4.3137367    4575.1284    4686.6401    20360.282   -11321.537   -2028.8802   -2556.4027    3542.2675    80.271413 
   94200     755.2706   -104.11092   0.68338471   -103.42753   -18402.374    4.3164189    4.3164189    4.3164189   -18402.374   -22649.135    -19649.52   -12908.466    24666.952    1293.2386   -7012.5116     80.42124 
   94300    1579.6748   -104.85171    1.4293229   -103.42238    12228.154    4.3123488    4.3123488    4.3123488    12228.154   -2886.2671    31202.575    8368.1539   -8581.2251    -8570.801    2132.9483    80.193957 
   94400    1141.1204    -104.4613    1.0325097   -103.42879    -12585.17    4.3228492    4.3228492    4.3228492    -12585.17   -33753.784    -12642.77    8641.0432    19968.502    6741.6794    7618.9913     80.78119 
   94500    845.38026   -104.18958   0.76491782   -103.42466   -1974.3553    4.3147881    4.3147881    4.3147881   -1974.3553    2196.5369    13700.338    -21819.94    7876.0702   -7018.5781     190.2347    80.330118 
   94600    1001.4507   -104.32944   0.90613364    -103.4233    16848.678    4.3114432    4.3114432    4.3114432    16848.678    6418.3804    27567.821    16559.832    218.73545   -3432.3423    1714.3262    80.143446 
   94700    1278.9757   -104.58668    1.1572441   -103.42944    -10637.34      4.32089      4.32089      4.32089    -10637.34   -27732.368   -22593.168    18413.515    24569.991    4363.0569    2636.9659    80.671408 
   94800    1381.5736   -104.67407    1.2500768   -103.42399    7372.5841    4.3152175    4.3152175    4.3152175    7372.5841    -3301.853     15801.81    9617.7956   -9000.5347   -18102.292   -2259.9762    80.354107 
   94900    724.71141   -104.08095   0.65573411   -103.42522   -15489.092    4.3181463    4.3181463    4.3181463   -15489.092   -4598.4976   -6609.6055   -35259.172    27139.202    463.79105   -1817.1893    80.517829 
   95000    943.66876   -104.27969   0.85385132   -103.42584   -3353.5305    4.3135816    4.3135816    4.3135816   -3353.5305    1827.5166    6121.2288   -18009.337    8017.8603   -2026.5544   -5751.6554    80.262754 
   95100    1366.0397   -104.66315    1.2360214   -103.42713    218.99169     4.318748     4.318748     4.318748    218.99169   -29112.128    9675.2822    20093.821    1622.5136   -21992.241   -495.02646    80.551492 
   95200    1325.2346   -104.62561    1.1991001   -103.42651   -2532.8098    4.3187889    4.3187889    4.3187889   -2532.8098   -11360.154   -12450.441    16212.166    24226.514    9807.2258    5401.4011    80.553779 
   95300    742.42467   -104.10048   0.67176144   -103.42872   -2738.0496    4.3112712    4.3112712    4.3112712   -2738.0496   -2120.6998     18401.23   -24494.679    -10161.84   -22408.411    6267.3782    80.133854 
   95400    914.34343    -104.2568   0.82731715   -103.42948   -7085.8048    4.3131445    4.3131445    4.3131445   -7085.8048   -9173.9124   -608.56602   -11474.936    21324.643    -1899.601    2435.3182    80.238358 
   95500    1514.1412   -104.79614    1.3700268   -103.42611   -4653.1113    4.3182019    4.3182019    4.3182019   -4653.1113   -28536.839   -1527.8535    16105.359    953.92356   -882.02399     2892.616    80.520937 
   95600    1051.8908   -104.37965   0.95177288   -103.42788   -19163.418    4.3179201    4.3179201    4.3179201   -19163.418   -20559.858   -4041.1487   -32889.247   -5104.1794   -21903.942   -645.92303    80.505176 
   95700      935.699   -104.27005   0.84664012   -103.42341   -3521.0895    4.3140375    4.3140375    4.3140375   -3521.0895   -1478.0244   -6811.5809   -2273.6632    13291.275    7450.6548   -1515.7911    80.288207 
   95800    929.93744   -104.26979   0.84142694   -103.42836   -6963.5159    4.3179685    4.3179685    4.3179685   -6963.5159   -16840.161   -1183.8261   -2866.5602   -5315.0475   -12747.655   -2709.6333    80.507881 
   95900    1476.0512   -104.76289    1.3355622   -103.42733    2450.5267    4.3169557    4.3169557    4.3169557    2450.5267   -16271.052   -18015.486    41638.117    2337.8173   -3770.0596   -2096.6448    80.451245 
   96000    1281.3441   -104.58485     1.159387   -103.42546    7623.1383    4.3092493    4.3092493    4.3092493    7623.1383   -7353.5953    26516.655    3706.3552    12248.832    3221.2371    392.90264    80.021165 
   96100    539.89189   -103.91877   0.48850553   -103.43026   -13591.394    4.3164438    4.3164438    4.3164438   -13591.394    1570.1919   -9610.3463   -32734.026    -13189.48   -17882.991   -1708.6283    80.422633 
   96200    1308.1197   -104.60724    1.1836142   -103.42362   -13506.391     4.319317     4.319317     4.319317   -13506.391   -15002.702   -25687.714    171.24321    4622.8988    9547.7441    10525.476    80.583333 
   96300    1179.2771   -104.49439    1.0670347   -103.42736    4652.0934    4.3156628    4.3156628    4.3156628    4652.0934   -7156.0754     6237.777    14874.579    3758.4881   -6990.4098   -8874.7748    80.378983 
   96400    1327.3749   -104.62745    1.2010367   -103.42641   -5249.4594    4.3133149    4.3133149    4.3133149   -5249.4594   -18212.006   -5977.6323    8441.2599   -17944.178   -5051.4497    3855.2385    80.247868 
   96500    792.61632   -104.14479   0.71717591   -103.42761    6057.4886    4.3161751    4.3161751    4.3161751    6057.4886   -1974.2897    14489.177     5657.578    5159.5473    3916.4155   -9239.8313     80.40761 
   96600     863.3439   -104.21029    0.7811717   -103.42912    -17221.71    4.3206674    4.3206674    4.3206674    -17221.71   -18274.951   -27127.122   -6263.0567   -18912.444   -10084.806    1421.0519     80.65894 
   96700     1575.931   -104.84869    1.4259355   -103.42275    6585.6674    4.3092796    4.3092796    4.3092796    6585.6674   -2458.4246   -3989.0931     26204.52   -20229.185    6763.2081   -4367.7472     80.02285 
   96800    1143.2059   -104.46347    1.0343967   -103.42907   -9345.7322    4.3187525    4.3187525    4.3187525   -9345.7322    659.69119    1670.2432   -30367.131     949.8028    5816.7646   -2132.6157    80.551744 
   96900    733.76583   -104.09403   0.66392675    -103.4301   -28315.593    4.3212257    4.3212257    4.3212257   -28315.593   -29432.045   -52772.344   -2742.3908   -33141.144   -8183.7361   -1292.2975    80.690211 
   97000    1171.1534   -104.48294    1.0596843   -103.42326    14948.855    4.3135992    4.3135992    4.3135992    14948.855    11729.227   -1598.7047    34716.043    5939.6045    13425.757   -4118.6843    80.263734 
   97100    1238.5169    -104.5519    1.1206362   -103.43126   -10376.137    4.3153857    4.3153857    4.3153857   -10376.137    -36466.68   -3503.5273    8841.7959   -28612.744   -7027.6388     3061.432    80.363502 
   97200    1263.8738   -104.57304    1.1435796   -103.42947    3010.2654    4.3180967    4.3180967    4.3180967    3010.2654    -12059.84    1304.7377    19785.898   -6803.5333   -2138.0881    1585.6406    80.515053 
   97300      862.694   -104.20613   0.78058366   -103.42555   -19537.945    4.3226746    4.3226746    4.3226746   -19537.945   -4104.8156   -33265.648   -21243.372   -9141.9572    3386.4471    1083.5478    80.771406 
   97400    688.29625   -104.05514   0.62278491   -103.43235   -12458.563    4.3123555    4.3123555    4.3123555   -12458.563   -19521.798    -26979.79    9125.8983   -25968.799   -6581.1241   -1799.2657    80.194331 
   97500    1676.3474   -104.93997    1.5167944   -103.42318     16864.62    4.3159556    4.3159556    4.3159556     16864.62   -1666.2547    21739.042    30521.071    13675.192   -351.08298   -7217.5604    80.395347 
   97600      1167.18   -104.48615     1.056089   -103.43006   -12250.644    4.3204485    4.3204485    4.3204485   -12250.644   -25192.792   -19360.786    7801.6452   -40608.383    3260.7869   -1101.4482    80.646682 
   97700    624.53245   -103.99324   0.56509008   -103.42815    9785.1597    4.3151582    4.3151582    4.3151582    9785.1597    -566.0884   -10783.169    40704.737     7770.346   -8278.5923   -3761.4689    80.350793 
   97800     1211.813   -104.52068    1.0964739   -103.42421   -19591.605    4.3173951    4.3173951    4.3173951   -19591.605   -14893.173   -20380.841     -23500.8   -13450.281    1632.3356   -5226.1053    80.475816 
   97900    1344.5971   -104.64539    1.2166197   -103.42877   -1561.1382    4.3171843    4.3171843    4.3171843   -1561.1382   -9669.2992   -3824.3138    8810.1982   -13719.903   -10190.056   -959.76263    80.464026 
   98000    1219.0635   -104.53177    1.1030343   -103.42874   -18173.571    4.3220452    4.3220452    4.3220452   -18173.571   -33031.569    -16000.12   -5489.0233    18937.731   -8390.9598    -4450.808    80.736125 
   98100    845.20343   -104.18926   0.76475783    -103.4245    11850.811    4.3097658    4.3097658    4.3097658    11850.811    28523.527    1568.5902    5460.3166   -24824.712    476.45611    4707.1385    80.049939 
   98200    880.85975   -104.22437   0.79702041   -103.42735    1681.6169    4.3171579    4.3171579    4.3171579    1681.6169   -9536.4519    12425.057    2156.2461    11745.739   -14168.326   -4862.5736    80.462549 
   98300    1363.3168   -104.65984    1.2335577   -103.42628   -6874.8097     4.321519     4.321519     4.321519   -6874.8097   -16251.881   -1645.4994   -2727.0489    6270.1846     9161.165    6260.4185    80.706644 
   98400    1463.9975   -104.74506    1.3246557   -103.42041    8470.3938    4.3150816    4.3150816    4.3150816    8470.3938   -4689.7969   -9202.9219      39303.9   -12407.238   -5867.3749   -8738.9258    80.346517 
   98500     520.5041   -103.90255   0.47096305   -103.43159   -22887.391     4.315379     4.315379     4.315379   -22887.391   -18960.594   -7250.2295   -42451.349     17639.02       5482.1    3808.9142    80.363127 
   98600    1171.7428   -104.48639    1.0602175   -103.42617    7892.9076    4.3113327    4.3113327    4.3113327    7892.9076    14497.357    10451.042   -1269.6758   -5378.8137    6267.3017   -9861.8615    80.137281 
   98700    1351.0613   -104.65132    1.2224686   -103.42885   -8967.9369    4.3225867    4.3225867    4.3225867   -8967.9369   -38772.271    20147.515   -8279.0541   -693.17344   -9909.5906   -67.491291    80.766477 
   98800    1035.0843    -104.3644   0.93656604   -103.42783    1238.1429     4.316929     4.316929     4.316929    1238.1429   -14821.452    19676.091   -1140.2104    17546.097     17456.26   -2091.5059    80.449753 
   98900    1240.5019   -104.53963    1.1224322    -103.4172    9308.5018    4.3134731    4.3134731    4.3134731    9308.5018    10679.501    12061.185    5184.8197   -1767.5502   -14187.937     2855.678    80.256699 
   99000    523.67999   -103.90706   0.47383666   -103.43322   -13535.233    4.3191782    4.3191782    4.3191782   -13535.233   -12175.093    6279.0091   -34709.617    12131.481   -3413.5237    2793.4653    80.575568 
   99100    1662.7745   -104.92909    1.5045133   -103.42458      3692.92      4.31515      4.31515      4.31515      3692.92   -20722.778    9484.9942    22316.544    8558.5658    5522.6034    1321.1526    80.350334 
   99200     1169.684   -104.48585    1.0583547    -103.4275    -4260.813    4.3179116    4.3179116    4.3179116    -4260.813   -18810.231    31225.488   -25197.696   -1914.4701   -8025.6589    5605.8041    80.504702 
   99300    762.01008   -104.11799   0.68948273   -103.42851   -2367.0818    4.3117452    4.3117452    4.3117452   -2367.0818   -16400.418    28262.347   -18963.175    14807.999    11751.187   -506.54539    80.160288 
   99400    1171.4815   -104.48239    1.0599811    -103.4224    4113.2724    4.3192786    4.3192786    4.3192786    4113.2724    5924.4816   -871.97888    7287.3144   -11117.589   -5164.4253   -863.26805    80.581188 
   99500    1159.5251   -104.47516    1.0491627     -103.426   -12230.572    4.3208342    4.3208342    4.3208342   -12230.572   -28968.779    -1735.158   -5987.7798    8160.8927     4558.578    748.68485    80.668283 
   99600    1221.2966   -104.52799    1.1050548   -103.42294    12502.251    4.3107053    4.3107053    4.3107053    12502.251   -4002.6818    37374.162    4135.2732    3565.8303    8168.5696   -3274.7887    80.102303 
   99700    959.27733   -104.29523   0.86797429   -103.42725   -10410.015    4.3164979    4.3164979    4.3164979   -10410.015   -5733.6519   -2622.7477   -22873.647   -12705.325   -2287.3896    961.36991    80.425655 
   99800    967.49516   -104.30192   0.87540996   -103.42651   -3844.8603    4.3179374    4.3179374    4.3179374   -3844.8603    -17016.75    3976.5839    1505.5848    23584.391    6603.3853   -1210.9566    80.506142 
   99900    1239.0766   -104.54452    1.1211425   -103.42338    3117.4874    4.3133764    4.3133764    4.3133764    3117.4874    -13199.21   -3072.7571     25624.43   -22118.876   -2560.1452    9118.4338    80.251298 
  100000    1215.1286    -104.5222    1.0994739   -103.42273    -3678.869    4.3151441    4.3151441    4.3151441    -3678.869   -20661.632    38219.063   -28594.039    14290.668   -1381.0387    -8446.256    80.350006 
Loop time of 23.6946 on 1 procs for 100000 steps with 8 atoms

Pair  time (%) = 7.76531 (32.7725)
Kspce time (%) = 5.65141 (23.851)
Neigh time (%) = 0 (0)
Comm  time (%) = 1.16901 (4.93365)
Outpt time (%) = 0.0296988 (0.12534)
Other time (%) = 9.07917 (38.3175)

Nlocal:    8 ave 8 max 8 min
Histogram: 1 0 0 0 0 0 0 0 0 0
Nghost:    2189 ave 2189 max 2189 min
Histogram: 1 0 0 0 0 0 0 0 0 0
Neighs:    2344 ave 2344 max 2344 min
Histogram: 1 0 0 0 0 0 0 0 0 0

Total # of neighbors = 2344
Ave neighs/atom = 293
Neighbor list builds = 0
Dangerous builds = 0
unfix 20
unfix 21
print "seeds:5250867"
seeds:5250867
