LAMMPS (10 Feb 2015)
# ---- initialize simulations
clear
units metal
dimension 3
boundary p p p
atom_style charge
atom_modify map array
# ---- create atoms
read_data /Users/eugeneragasa/pyflamestk_git/pypospack/tests/tests_integration/workflow/WorkflowLammpsThermalExpansion/param_9837/MgO_NaCl_unit.npt.T1800/lammps.structure
  triclinic box = (0 0 0) to (4.2565 4.2565 4.2565) with tilt (0 0 0)
  1 by 1 by 1 MPI processor grid
  reading atoms ...
  8 atoms
# ---- define interatomic potential
include potential.mod
mass 1 24.305
mass 2 15.999

group Mg type 1
4 atoms in group Mg
group O type 2
4 atoms in group O

set group Mg charge 1.66768155913
  4 settings made for charge
set group O charge -1.66768155913
  4 settings made for charge

variable R_cut equal 10.0

pair_style buck/coul/long ${R_cut}
pair_style buck/coul/long 10
pair_coeff 1 1 0.0 0.5 0.0 ${R_cut}
pair_coeff 1 1 0.0 0.5 0.0 10
pair_coeff 1 2 1248.0823356 0.293822485762 0.0 ${R_cut}
pair_coeff 1 2 1248.0823356 0.293822485762 0.0 10
pair_coeff 2 2 31778.9957117 0.212502502632 34.6036277069 ${R_cut}
pair_coeff 2 2 31778.9957117 0.212502502632 34.6036277069 10

kspace_style pppm 1.0e-5

neighbor 1.0 bin
neigh_modify every 1 delay 0 check yes
# ---- define settings
compute eng all pe/atom
compute eatoms all reduce sum c_eng
# ---- run minimization
reset_timestep 0
fix 1 all box/relax iso 0.0 vmax 0.001
thermo 10
thermo_style custom step pe lx ly lz xy xz yz press pxx pyy pzz pxy pxz pyz c_eatoms
min_style cg
minimize 1e-25 1e-25 5000 10000
PPPM initialization ...
  G vector (1/distance) = 0.352908
  grid = 8 8 8
  stencil order = 5
  estimated absolute RMS force accuracy = 3.98663e-05
  estimated relative force accuracy = 2.76856e-06
  using double precision FFTs
  3d grid and FFT values/proc = 3375 512
Neighbor list info ...
  1 neighbor list requests
  update every 1 steps, delay 0 steps, check yes
  master list distance cutoff = 11
Memory usage per processor = 4.06549 Mbytes
Step PotEng Lx Ly Lz Xy Xz Yz Press Pxx Pyy Pzz Pxy Pxz Pyz eatoms 
       0   -110.76064       4.2565       4.2565       4.2565            0            0            0    174504.14    174504.14    174504.14    174504.14 9.3704156e-11 -1.8744789e-10 -4.5445427e-11   -110.76064 
      10   -110.96575     4.299065     4.299065     4.299065            0            0            0    110293.78    110293.78    110293.78    110293.78 1.4024136e-10 -8.8674493e-11 1.1163093e-10   -110.96575 
      20   -111.08678      4.34163      4.34163      4.34163            0            0            0    53874.038    53874.038    53874.038    53874.038 -1.7149362e-10 -3.6153785e-12 -2.8025662e-10   -111.08678 
      30   -111.12967     4.384195     4.384195     4.384195            0            0            0    4480.0037    4480.0037    4480.0037    4480.0037 2.9824961e-11 1.1991676e-10 2.4884808e-10   -111.12967 
      35   -111.13002    4.3883439    4.3883439    4.3883439            0            0            0  -0.29149971   -0.2914997  -0.29149971  -0.29149971 -2.2034763e-11 5.2889443e-11 3.1711826e-11   -111.13002 
Loop time of 0.0178208 on 1 procs for 35 steps with 8 atoms

Minimization stats:
  Stopping criterion = linesearch alpha is zero
  Energy initial, next-to-last, final = 
        -110.760644492     -111.130018171     -111.130018171
  Force two-norm initial, final = 25.1985 4.50194e-05
  Force max component initial, final = 25.1985 4.47407e-05
  Final line search alpha, max atom move = 0.5 2.23704e-05
  Iterations, force evaluations = 35 47

Pair  time (%) = 0.00471115 (26.4362)
Kspce time (%) = 0.00277591 (15.5768)
Neigh time (%) = 0 (0)
Comm  time (%) = 0.00053525 (3.00351)
Outpt time (%) = 6.00815e-05 (0.337142)
Other time (%) = 0.00973845 (54.6464)

Nlocal:    8 ave 8 max 8 min
Histogram: 1 0 0 0 0 0 0 0 0 0
Nghost:    2189 ave 2189 max 2189 min
Histogram: 1 0 0 0 0 0 0 0 0 0
Neighs:    2344 ave 2344 max 2344 min
Histogram: 1 0 0 0 0 0 0 0 0 0

Total # of neighbors = 2344
Ave neighs/atom = 293
Neighbor list builds = 0
Dangerous builds = 0
unfix 1
# ---- define output variables ----
variable natoms equal "count(all)"
variable tot_energy equal "c_eatoms"
variable length_x equal "lx"
variable length_y equal "ly"
variable length_z equal "lz"
variable tilt_xy equal "xy"
variable tilt_xz equal "xz"
variable tilt_yz equal "yz"
variable tot_press equal "press"
variable press_xx equal "pxx"
variable press_yy equal "pyy"
variable press_zz equal "pzz"
variable press_xy equal "pxy"
variable press_xz equal "pxz"
variable press_yz equal "pyz"

# ---- output ----
print "pypospack:output_section:begin"
pypospack:output_section:begin
print "tot_energy = ${tot_energy}"
tot_energy = -111.130018170686
print "num_atoms = ${natoms}"
num_atoms = 8
print "xx = ${length_x}"
xx = 4.38834393192064
print "yy = ${length_y}"
yy = 4.38834393192064
print "zz = ${length_z}"
zz = 4.38834393192064
print "xy = ${tilt_xy}"
xy = 0
print "xz = ${tilt_xz}"
xz = 0
print "yz = ${tilt_yz}"
yz = 0
print "tot_press = ${tot_press}"
tot_press = -0.291499705167032
print "pxx = ${press_xx}"
pxx = -0.291499704907524
print "pyy = ${press_yy}"
pyy = -0.291499705134451
print "pzz = ${press_zz}"
pzz = -0.291499705459123
print "pxy = ${press_xy}"
pxy = -2.20347627600699e-11
print "pxz = ${press_xz}"
pxz = 5.28894429779567e-11
print "pyz = ${press_yz}"
pyz = 3.17118260401048e-11
print "pypospack:output_section:done"
pypospack:output_section:done
print "pypospack:lammps_sim:done"
pypospack:lammps_sim:done
#------------------------------------------------------------------------------
# RUN THERMOSTAT
# running using an NPT Nose-Hoover style thermostat
#------------------------------------------------------------------------------
variable tempdamp equal 0.1
variable pressdamp equal 1.0
# set initial velocities
velocity all create 1800 6945127 mom yes dist gaussian loop all
# fix for Nose-Hoover style thermostat
fix 20 all npt temp 1800 1800 0.1 aniso 0.0 0.0 1.0 drag 1.0 couple xyz
variable boxx equal lx
variable boxy equal ly
variable boxz equal lz
variable boxp equal press
variable boxt equal temp
# calculate averages every 10000 steps
reset_timestep 0
fix 21 all ave/time 10 10 100 v_boxx v_boxy v_boxz v_boxp v_boxt file lattice.out
thermo_style custom step temp pe ke etotal press lx ly lz press pxx pyy pzz pxy pxz pyz vol
thermo_modify flush yes
thermo 100
run 100000
PPPM initialization ...
  G vector (1/distance) = 0.351569
  grid = 8 8 8
  stencil order = 5
  estimated absolute RMS force accuracy = 4.24255e-05
  estimated relative force accuracy = 2.94629e-06
  using double precision FFTs
  3d grid and FFT values/proc = 3375 512
Memory usage per processor = 3.06549 Mbytes
Step Temp PotEng KinEng TotEng Press Lx Ly Lz Press Pxx Pyy Pzz Pxy Pxz Pyz Volume 
       0         1800   -111.12999    1.6286778   -109.50131    20588.892    4.3883439    4.3883439    4.3883439    20588.892    4521.6595    37955.306    19289.711   -11526.352   -3862.9015    3504.5848    84.508807 
     100    782.74604   -110.02753   0.70824506   -109.31928    18958.007    4.4235571    4.4235571    4.4235571    18958.007    -15974.59    56443.632     16404.98     11585.28     5027.536   -18788.267    86.559534 
     200    858.19655   -109.63294   0.77651427   -108.85643    271.74239    4.4775357    4.4775357    4.4775357    271.74239    -55508.39    105842.15   -49518.531   -7364.1665    167.74557   -1840.6401    89.767096 
     300    2136.1687   -110.40205    1.9328503    -108.4692   -44981.888    4.4879541    4.4879541    4.4879541   -44981.888   -74621.897   -29574.077   -30749.689   -2486.6463   -1527.8811   -2047.4609    90.395169 
     400    845.02472   -108.91775   0.76459612   -108.15315    54614.812    4.4595417    4.4595417    4.4595417    54614.812   -46345.243    160445.14    49744.541    5877.5008      -8201.1   -7720.1307     88.68919 
     500    1802.6631   -109.61272    1.6310875   -107.98163    23501.481    4.4638588    4.4638588    4.4638588    23501.481   -49648.079    125541.68    -5389.161    2772.3102     156.5934   -17899.698    88.947006 
     600    1291.7349   -109.09675    1.1687889   -107.92796    19586.215    4.4806449    4.4806449    4.4806449    19586.215   -67700.718    86893.826    39565.536   -5566.5099    -3801.073    8313.4202    89.954231 
     700    2056.6489   -109.75501    1.8608991   -107.89411   -36719.491    4.4977206    4.4977206    4.4977206   -36719.491   -51464.232    7864.1721   -66558.412   -1492.0827   -8024.3772   -42001.484      90.9866 
     800    1607.6478   -109.30145    1.4546335   -107.84681    16186.866    4.4927076    4.4927076    4.4927076    16186.866   -23224.861    71037.865    747.59322   -7867.8444   -3600.4316    13528.661    90.682703 
     900    2260.3079   -109.85425    2.0451741   -107.80907   -14510.168    4.4754821    4.4754821    4.4754821   -14510.168   -55883.605   -5683.8743    18036.976    7369.5553    815.69543   -29324.803    89.643641 
    1000      2375.87    -109.9673    2.1497371   -107.81756   -27470.563    4.4833093    4.4833093    4.4833093   -27470.563   -56289.633   -11682.451   -14439.606    2496.7644   -5125.5483   -8086.6478    90.114799 
    1100     1549.636   -109.24468    1.4021432   -107.84253   -938.57683    4.4971015    4.4971015    4.4971015   -938.57683   -69091.806    53991.485     12284.59    15644.051    3600.5191   -16588.875    90.949028 
    1200    2165.7866   -109.78992    1.9596493   -107.83027   -43935.973    4.5045716    4.5045716    4.5045716   -43935.973   -55510.347   -46465.909   -29831.664    15011.945    17370.332   -10996.271    91.403005 
    1300    1436.8236   -109.10445    1.3000682   -107.80439    9478.6718    4.4914191    4.4914191    4.4914191    9478.6718   -42970.578    96911.711   -25505.118   -1041.2858    12861.126    5081.3111    90.604701 
    1400    1391.6869   -109.09305    1.2592276   -107.83382    19525.806    4.4700169    4.4700169    4.4700169    19525.806   -34375.564    102312.44    -9359.464   -4188.0403    7781.1711   -4144.5792    89.315635 
    1500    1349.7815   -109.10104    1.2213106   -107.87973    15345.984    4.4691224    4.4691224    4.4691224    15345.984   -48513.093    99887.682   -5336.6381   -5424.1446    -18226.08   -21971.213    89.262029 
    1600    1786.8426   -109.51436    1.6167727   -107.89759   -9937.0933    4.4773576    4.4773576    4.4773576   -9937.0933    -63743.94    81761.694   -47829.034    19686.986    3876.7703    3708.0462    89.756381 
    1700    2262.6525   -109.93644    2.0472956   -107.88915   -37507.073    4.4853918    4.4853918    4.4853918   -37507.073   -52173.804   -38005.896   -22341.518   -14032.142    970.69581   -2127.1207    90.240427 
    1800    968.61447    -108.7359   0.87642273   -107.85947   -17990.124    4.4906188    4.4906188    4.4906188   -17990.124   -66380.715    52580.768   -40170.424   -11207.894   -12912.585   -17997.298    90.556277 
    1900     2199.557   -109.79829    1.9902054   -107.80808    -19757.43    4.4727087    4.4727087    4.4727087    -19757.43   -70250.482    10102.017    876.17409    17881.213    2595.8123     26493.32    89.477086 
    2000    2066.3629   -109.67498    1.8696885    -107.8053    23402.354    4.4579366    4.4579366    4.4579366    23402.354   -16068.864    100200.93   -13925.005   -11929.985    837.79997   -30124.576    88.593458 
    2100    823.08287   -108.60618   0.74474268   -107.86144    11570.713    4.4738719    4.4738719    4.4738719    11570.713    21768.566    86486.965   -73543.392    15582.402   -9136.5281    33089.669    89.546918 
    2200    2030.8247   -109.69275    1.8375328   -107.85522   -20925.131    4.4919222    4.4919222    4.4919222   -20925.131   -32558.117     8202.776   -38420.051   -5934.3143    5442.9278   -6108.0922    90.635155 
    2300    2023.6326   -109.68342    1.8310253    -107.8524   -30827.458    4.4942654    4.4942654    4.4942654   -30827.458   -79723.229   -7057.9821   -5701.1637   -3560.5726    13759.805    2643.1148    90.777066 
    2400    1740.5875    -109.3902    1.5749202   -107.81528    23827.462    4.4831713    4.4831713    4.4831713    23827.462   -26159.613    107644.35   -10002.349    6104.2449   -19554.926    9952.6645    90.106476 
    2500    2287.8314   -109.87265     2.070078   -107.80257   -30941.062     4.491284     4.491284     4.491284   -30941.062   -23456.921   -17131.992   -52234.272   -13693.561   -1856.7652    4231.1951    90.596528 
    2600    880.58805   -108.61267   0.79677457   -107.81589    13038.012    4.5064129    4.5064129    4.5064129    13038.012   -50602.505    47449.529    42267.013   -7701.5373   -12368.903    7918.3673    91.515136 
    2700    2330.0179   -109.89897    2.1082492   -107.79072    -27030.78    4.5017075    4.5017075    4.5017075    -27030.78   -56421.594   -13367.377   -11303.368    7052.3526     850.3603   -15441.647    91.228772 
    2800    1980.3019   -109.59638    1.7918188   -107.80456    10280.695    4.4765213    4.4765213    4.4765213    10280.695    6977.1888    7342.2406    16522.656   -11170.533   -215.14039    18221.979    89.706098 
    2900    1729.4513   -109.41139    1.5648439   -107.84655    35180.994    4.4742535    4.4742535    4.4742535    35180.994   -9974.9379    59081.921        56436    8727.2579   -8868.0372   -12467.092    89.569835 
    3000    2142.6116   -109.79039      1.93868   -107.85171   -7463.1401     4.499805     4.499805     4.499805   -7463.1401   -53565.488   -36404.514    67580.582   -1132.9642    19378.274   -16117.826    91.113156 
    3100    1592.4231   -109.25382    1.4408578   -107.81297   -3958.9289    4.5061291    4.5061291    4.5061291   -3958.9289   -40393.321    25847.475    2669.0595    3454.3687    -408.6551    7894.2649    91.497852 
    3200    1842.0969   -109.45434     1.666768   -107.78757   -24209.379    4.4979932    4.4979932    4.4979932   -24209.379   -48692.337   -24898.379    962.57711   -6345.7636    10380.096    23808.502     91.00314 
    3300    2654.6707   -110.19014    2.4020018   -107.78814   -22641.195    4.4832295    4.4832295    4.4832295   -22641.195   -65618.331    5061.8362   -7367.0916   -3044.8318   -2726.7744    11739.286    90.109984 
    3400     1958.163   -109.61235     1.771787   -107.84056   -10184.313     4.487794     4.487794     4.487794   -10184.313   -52468.786    4509.3755    17406.472   -6922.2707   -6265.9635    16163.293    90.385497 
    3500    1925.4516   -109.57811    1.7421891   -107.83592   -26436.083     4.507464     4.507464     4.507464   -26436.083   -89914.857    5300.5896    5306.0176   -11513.428    3832.0236    20671.254     91.57919 
    3600    2038.7491   -109.65339     1.844703   -107.80869   -19459.654    4.5092066    4.5092066    4.5092066   -19459.654   -78091.176   -36682.531    56394.744    1902.8084    -21421.24   -1318.7622    91.685446 
    3700    1692.3621    -109.3328    1.5312848   -107.80152   -3251.4268    4.5038415    4.5038415    4.5038415   -3251.4268   -492.54261   -46740.543    37478.805   -1483.2389    12177.489    14105.034    91.358568 
    3800     999.3986   -108.69018   0.90427685    -107.7859    59471.744    4.4831541    4.4831541    4.4831541    59471.744     16142.14    25559.405    136713.69   -5912.8924    14446.417   -1313.1098     90.10544 
    3900    1902.0172   -109.53676    1.7209851   -107.81578   -3462.7006    4.4843735    4.4843735    4.4843735   -3462.7006     7302.351    871.48899   -18561.942   -5623.0354   -7806.6652    6817.6246     90.17898 
    4000    2243.8841   -109.84857    2.0303135   -107.81826   -32699.874    4.5172475    4.5172475    4.5172475   -32699.874   -36870.629   -29286.421   -31942.574   -14039.689   -4295.1801   -1605.4862     92.17681 
    4100    1493.3132   -109.10421    1.3511811   -107.75303    19512.507     4.528035     4.528035     4.528035    19512.507    5345.5152    72606.045   -19414.038    8821.5237      5174.74    27004.301    92.838757 
    4200    1388.2742   -108.97742    1.2561397   -107.72128    22327.662    4.5093191    4.5093191    4.5093191    22327.662     44805.45    60904.032   -38726.495   -25738.143    4746.9985    16355.896     91.69231 
    4300    1364.4091   -108.97383     1.234546   -107.73929    15474.605     4.494017     4.494017     4.494017    15474.605   -41122.956    88888.656   -1341.8849   -30371.349   -13361.637   -16727.026    90.762014 
    4400    1354.5664   -108.99948    1.2256401   -107.77384    23191.084    4.4903633    4.4903633    4.4903633    23191.084   -32384.958    117946.99   -15988.784   -17455.266    15099.722   -3674.9997    90.540823 
    4500    1201.5367   -108.88417    1.0871757   -107.79699    12482.777    4.5069301    4.5069301    4.5069301    12482.777    8971.5025    70536.255   -42059.426   -3432.0089     36790.05   -14064.741    91.546654 
    4600    1599.2262   -109.22535    1.4470134   -107.77834   -3219.4647    4.5095934    4.5095934    4.5095934   -3219.4647    9194.2044    15406.475   -34259.073   -12978.167    1672.5585   -4235.0688     91.70904 
    4700    1471.3574   -109.09634    1.3313151   -107.76502     5559.883    4.5150375    4.5150375    4.5150375     5559.883   -13108.305    9951.3347    19836.619   -10904.726    10865.841    21253.692    92.041586 
    4800      1916.56   -109.47307    1.7341438   -107.73892   -6591.6975     4.511767     4.511767     4.511767   -6591.6975    8480.1995   -64439.454    36184.162    550.26461   -932.32329    16375.648    91.841719 
    4900    1148.6589   -108.78633    1.0393307     -107.747     46220.83    4.4833338    4.4833338    4.4833338     46220.83   -33789.722    68061.052    104391.16    18433.892    25914.412   -11994.562    90.116273 
    5000     1796.821   -109.43262    1.6258014   -107.80682    26878.154    4.4817746    4.4817746    4.4817746    26878.154   -48973.588    36355.737    93252.314    8320.8672    14747.704    4157.7928    90.022287 
    5100    933.02673   -108.69696   0.84422219   -107.85273    33318.956    4.5202259    4.5202259    4.5202259    33318.956   -46199.233    75868.084    70288.017     3433.683   -13787.241    23277.443    92.359253 
    5200    1132.5666   -108.82028    1.0247701   -107.79551   -17321.474    4.5284279    4.5284279    4.5284279   -17321.474    -32030.84   -52443.635    32510.054   -12252.114     14183.12    17334.024    92.862927 
    5300    1654.7941   -109.23535    1.4972925   -107.73806    22092.378    4.4835958    4.4835958    4.4835958    22092.378    25630.887   -19281.508    59927.754   -7703.4046   -4054.9502    5101.2577    90.132076 
    5400     1581.847    -109.1908    1.4312884   -107.75951    30880.649    4.4743869    4.4743869    4.4743869    30880.649    22969.029    28411.188    41261.729    18510.811    13056.011   -13125.892    89.577843 
    5500    1791.1628   -109.42898    1.6206817    -107.8083   -20793.618    4.5078103    4.5078103    4.5078103   -20793.618   -42504.509     14377.36   -34253.705    4536.3774    25420.505   -1573.7609      91.6003 
    5600    2060.7247   -109.63241     1.864587   -107.76782   -41569.181    4.5117147    4.5117147    4.5117147   -41569.181   -30427.277   -36390.938   -57889.328    499.62959    10792.553   -7247.3364     91.83852 
    5700    1569.9641   -109.16651    1.4205365   -107.74597    17451.277    4.5019736    4.5019736    4.5019736    17451.277    5574.3651    52911.316    -6131.851   -10367.376    8167.0043    14159.053    91.244949 
    5800     930.0694   -108.60154   0.84154634      -107.76      34048.9    4.5017705    4.5017705    4.5017705      34048.9     6492.158    100441.94   -4787.3942   -18797.828   -14962.787   -3628.2836    91.232598 
    5900    1713.4277   -109.31776    1.5503454   -107.76741    11627.547    4.4962613    4.4962613    4.4962613    11627.547   -53475.664    141162.79   -52804.487   -9173.5377   -7780.4613    7088.0367    90.898062 
    6000      1874.81   -109.47638    1.6963675   -107.78001    21490.056    4.4921233    4.4921233    4.4921233    21490.056   -49710.933    91253.128    22927.973   -9532.0403   -3646.1376    22764.094     90.64733 
    6100    1648.4763   -109.32806     1.491576   -107.83648   -40136.077    4.5082055    4.5082055    4.5082055   -40136.077   -80825.706    23667.925   -63250.449   -11334.974   -2738.3407   -6106.3061    91.624396 
    6200    1768.1431   -109.43037     1.599853   -107.83052   -16666.708    4.4941725    4.4941725    4.4941725   -16666.708   -70296.412    56596.411   -36300.124   -928.95008    1066.8955   -12603.003    90.771437 
    6300     2458.065   -110.04474    2.2241089   -107.82063    6307.1034     4.456291     4.456291     4.456291    6307.1034    -38496.98    22142.589    35275.701    12629.612   -1573.3466    11820.787    88.495388 
    6400    1884.1512   -109.58886    1.7048196   -107.88404   -14295.279     4.470732     4.470732     4.470732   -14295.279   -63233.915    49600.009    -29251.93   -6737.1393   -2730.2354   -22812.392     89.35851 
    6500    1406.0137    -109.1353    1.2721907   -107.86311   -17764.233    4.5012935    4.5012935    4.5012935   -17764.233   -72035.387    44993.201   -26250.513    12363.971   -4707.8852   -8685.9451    91.203603 
    6600    1831.1499     -109.483    1.6568629   -107.82613    -12185.55    4.4924535    4.4924535    4.4924535    -12185.55   -49693.248   -1238.1901    14374.789    11721.221   -8193.5843    17946.228     90.66732 
    6700    945.96667   -108.67015   0.85593052   -107.81422    45413.478    4.4643682    4.4643682    4.4643682    45413.478   -9429.0369    122583.77    23085.704    22643.307    903.41846   -39611.151    88.977465 
    6800    2326.2673   -109.93575    2.1048555    -107.8309    13983.491    4.4696026    4.4696026    4.4696026    13983.491    -22145.88    13430.928    50665.424    3655.6498   -10008.945   -20963.309    89.290803 
    6900    2007.7608   -109.65802    1.8166641   -107.84136   -61014.152    4.5103827    4.5103827    4.5103827   -61014.152   -88660.357   -31870.738    -62511.36   -10573.483    865.00565   -18708.591    91.757208 
    7000    1849.3668   -109.45049     1.673346   -107.77714   -10349.409    4.5005255    4.5005255    4.5005255   -10349.409   -65903.243    17438.574    17416.442    9452.4277    5549.9482   -10866.294    91.156929 
    7100    1915.3069   -109.49677    1.7330099   -107.76376   -16117.983    4.4565354    4.4565354    4.4565354   -16117.983   -46904.197   -9620.7408    8170.9893    7808.0262    7934.9977    7533.4117    88.509945 
    7200    1375.5608   -109.03555    1.2446363   -107.79091    20199.024    4.4305467    4.4305467    4.4305467    20199.024    25974.659    -17567.81    52190.224   -11527.854    733.58363   -37931.319    86.970498 
    7300    2130.3106   -109.81746    1.9275498   -107.88991    21790.798    4.4662558    4.4662558    4.4662558    21790.798    -26131.37    92193.129   -689.36528   -7378.5716    3849.1031   -604.61153    89.090376 
    7400     1775.017   -109.45865    1.6060727   -107.85257   -46631.338    4.5080475    4.5080475    4.5080475   -46631.338   -83789.738    11619.946   -67724.222   -4192.6435    1480.2097    10838.865    91.614761 
    7500    2319.5672    -109.8784    2.0987932   -107.77961   -15607.088    4.4789223    4.4789223    4.4789223   -15607.088   -58571.803    4837.0782    6913.4617   -3175.1284    5252.2893   -17727.965     89.85052 
    7600     1510.859   -109.13321     1.367057   -107.76615    54266.297    4.4541286    4.4541286    4.4541286    54266.297   -18571.831    130662.82    50707.898     4324.082   -11678.226    10974.404    88.366622 
    7700    1302.3809   -109.00089    1.1784216   -107.82247   -44533.942    4.4787101    4.4787101    4.4787101   -44533.942   -35788.959   -64836.666   -32976.201    1693.2771   -1829.5566   -36601.267    89.837747 
    7800    1917.2089   -109.54263    1.7347309    -107.8079   -10407.913    4.4814491    4.4814491    4.4814491   -10407.913   -47871.423    18767.596    -2119.913   -468.27803   -576.12112   -2834.4489    90.002674 
    7900    1878.8192   -109.50784    1.6999951   -107.80785   -9678.0955    4.4717501    4.4717501    4.4717501   -9678.0955   -53317.137    50111.295   -25828.445   -1249.7764    3872.1384   -5864.0304    89.419569 
    8000     2414.093   -109.99126    2.1843221   -107.80694    -15823.84    4.4723088    4.4723088    4.4723088    -15823.84   -2941.3655   -4928.5151   -39601.639    4512.9124    4697.1103    2233.8892    89.453091 
    8100    1151.6054   -108.86263    1.0419968   -107.82063    13252.023    4.4908527    4.4908527    4.4908527    13252.023   -29846.981    112947.92   -43344.865    15009.087   -7376.8174     8129.887    90.570429 
    8200    1936.4499   -109.53651    1.7521406   -107.78437    -30420.86    4.5056721    4.5056721    4.5056721    -30420.86   -62116.041    11716.041   -40862.582    15698.278    12232.598   -26829.856    91.470014 
    8300    1391.1074   -109.03588    1.2587032   -107.77718    7365.4781    4.4888767    4.4888767    4.4888767    7365.4781   -12419.707    55997.103   -21480.962    -19785.48   -13080.502   -24663.995    90.450926 
    8400    1530.6305   -109.17031    1.3849467   -107.78537    37544.396     4.466503     4.466503     4.466503    37544.396    6635.0819    137640.79   -31642.683    9813.9883    2446.5911       -13504    89.105169 
    8500    2107.5639   -109.72729    1.9069681   -107.82032   -2923.9114    4.4809854    4.4809854    4.4809854   -2923.9114   -54135.737    65197.026   -19833.023   -14564.232      4609.15   -18975.362    89.974739 
    8600    1387.9201    -109.0763    1.2558193   -107.82048   -440.80876     4.494329     4.494329     4.494329   -440.80876   -58576.703    58445.331   -1191.0534   -19082.517   -2752.6464    -2480.431    90.780918 
    8700    2470.1752   -110.01813    2.2350664   -107.78306    -29912.44    4.4991496    4.4991496    4.4991496    -29912.44   -36592.735   -40559.339   -12585.247   -9016.6103    8300.9816   -19570.258    91.073347 
    8800    1392.2445   -109.05135    1.2597321   -107.79162   -4660.7344    4.5057056    4.5057056    4.5057056   -4660.7344    -48346.68    41449.001   -7084.5241   -5734.7931   -24825.777   -203.78873    91.472056 
    8900    1937.8517   -109.50498    1.7534089   -107.75157   -15177.666    4.4973198    4.4973198    4.4973198   -15177.666   -71489.547   -2115.7531    28072.303   -11688.027   -8976.7278   -3807.3515    90.962272 
    9000    1250.0217   -108.87832    1.1310459   -107.74728    25121.211    4.4841998    4.4841998    4.4841998    25121.211   -19639.248    90410.805     4592.075     21687.72   -8444.2732     40540.37    90.168502 
    9100    1704.2402    -109.3359    1.5420323   -107.79387    2877.8217    4.4932186    4.4932186    4.4932186    2877.8217   -21332.273    62383.023   -32417.286   -2508.2568   -10193.728   -6547.7209    90.713652 
    9200    2272.1663   -109.85758    2.0559038   -107.80168    -22638.53    4.5152994    4.5152994    4.5152994    -22638.53   -77605.295    42143.356   -32453.652    650.93962     16632.89    10534.504    92.057604 
    9300       1879.4   -109.48688    1.7005206   -107.78636   -26584.029    4.5027215    4.5027215    4.5027215   -26584.029   -67866.799    792.25575   -12677.544    13033.448   -15357.074   -2076.5546    91.290431 
    9400    1875.4749   -109.45569    1.6969691   -107.75872    30254.309    4.4564153    4.4564153    4.4564153    30254.309   -50221.338    79371.074    61613.191    12344.881    30276.672   -5508.8565    88.502792 
    9500    1345.0479    -109.0404    1.2170276   -107.82338    30181.838    4.4623345    4.4623345    4.4623345    30181.838   -7651.2185    74170.009    24026.723    6168.5582   -19089.102   -27635.575     88.85592 
    9600    1408.8001   -109.13046     1.274712   -107.85574   -12855.132    4.4904273    4.4904273    4.4904273   -12855.132   -70709.392    74301.223   -42157.226     7921.816    5433.5527    2130.9214    90.544697 
    9700    2371.1246    -109.9785    2.1454433   -107.83306   -27170.697    4.4898556    4.4898556    4.4898556   -27170.697   -21106.208   -22072.817   -38333.065    6052.2073    7310.9628   -13246.432    90.510118 
    9800    1516.2599     -109.191    1.3719438   -107.81906    12212.918    4.4804786    4.4804786    4.4804786    12212.918   -33561.366    94533.942   -24333.821    344.31325   -11662.432    14802.387    89.944212 
    9900    2661.5016   -110.20142    2.4081826   -107.79324   -34647.363    4.4904732    4.4904732    4.4904732   -34647.363   -27173.423   -21992.161   -54776.504   -10151.688    23661.676   -14736.333    90.547474 
   10000    912.69098   -108.61935   0.82582198   -107.79353    2294.4761    4.5015603    4.5015603    4.5015603    2294.4761   -24137.634    15762.723    15258.339    969.70581   -18438.175   -26743.576    91.219822 
   10100    2045.8856    -109.6055    1.8511602   -107.75434   -16850.971    4.4980099    4.4980099    4.4980099   -16850.971   -20826.904   -49176.703    19450.693      -3982.9   -8978.7753   -13304.732    91.004155 
   10200    1630.4182   -109.22468    1.4752366   -107.74944    21037.066    4.4805359    4.4805359    4.4805359    21037.066   -44830.952     99518.05    8424.1004    10717.264   -17771.887    323.75874    89.947665 
   10300    1595.7049   -109.23552    1.4438273   -107.79169    21868.604    4.4722742    4.4722742    4.4722742    21868.604    56252.497    14066.973    -4713.657   -6810.3573   -136.79526   -12073.796    89.451012 
   10400    2210.7925   -109.81273    2.0003715   -107.81235    6451.7051    4.4823161    4.4823161    4.4823161    6451.7051    16130.469   -6645.3368    9869.9835    6817.4053    20668.641    13599.127     90.05492 
   10500    1165.0558   -108.87257     1.054167   -107.81841    -34422.64    4.4862061    4.4862061    4.4862061    -34422.64   -88680.187    35425.229   -50012.964   -5392.2285   -68238.111    1043.8875    90.289584 
   10600    2347.6037   -109.90803    2.1241611   -107.78387   -4467.1735    4.4688892    4.4688892    4.4688892   -4467.1735    17650.211   -14013.238   -17038.494   -1014.3041    18178.968   -6126.0338    89.248058 
   10700    1722.1446   -109.37766    1.5582326   -107.81942   -21123.086    4.4775965    4.4775965    4.4775965   -21123.086    7943.4214    1734.5348   -73047.213   -11973.448   -18430.229    951.57157    89.770751 
   10800      2006.14   -109.64213    1.8151976   -107.82694   -27300.906    4.4954633    4.4954633    4.4954633   -27300.906    1649.4145   -40151.484   -43400.647    4548.6101   -7806.0869    9102.1434    90.849675 
   10900    1933.2505   -109.55425    1.7492457     -107.805   -12146.775    4.4972131    4.4972131    4.4972131   -12146.775   -44648.756    13674.785   -5466.3546    9795.3358    19824.255    -22567.22    90.955803 
   11000     1622.508   -109.25842    1.4680793   -107.79034   -39594.156    4.4826191    4.4826191    4.4826191   -39594.156   -75135.057   -26054.312   -17593.099    18743.697   -27509.899    8752.1508     90.07318 
   11100    2294.5801   -109.86918    2.0761843     -107.793    34349.812     4.461466     4.461466     4.461466    34349.812    18697.553    63628.637    20723.245    -3351.029    17239.837   -3061.0515    88.804047 
   11200    1671.1977   -109.34638    1.5121348   -107.83425   -7126.3475    4.4796466    4.4796466    4.4796466   -7126.3475   -36280.695    22772.067   -7870.4151   -26088.696   -2819.7275   -16589.639    89.894114 
   11300    1657.7722    -109.3041    1.4999871   -107.80411   -10758.136    4.5002264    4.5002264    4.5002264   -10758.136    -21665.61    12075.182    -22683.98   -16762.491   -1349.7248   -7092.2476    91.138752 
   11400    1519.8508   -109.14101    1.3751929   -107.76581    26158.527    4.5013793    4.5013793    4.5013793    26158.527    40036.623    93752.308    -55313.35   -7148.4823   -8217.5819    5653.6656    91.208818 
   11500    1716.5181   -109.32075    1.5531417   -107.76761   -13404.087     4.494725     4.494725     4.494725   -13404.087   -10879.955    -23823.63   -5508.6772    10139.518    14293.845    1007.3274    90.804918 
   11600    1742.3131   -109.34979    1.5764815   -107.77331    8726.9627    4.4882682    4.4882682    4.4882682    8726.9627    13826.808    36481.123   -24127.043   -17315.505     16805.86   -3002.7214    90.414152 
   11700    2141.4909     -109.724     1.937666   -107.78634   -10421.548      4.48992      4.48992      4.48992   -10421.548   -39813.566    62137.111   -53588.188    14521.959   -2380.7078    11546.773    90.514013 
   11800    1754.3773   -109.37056    1.5873974   -107.78316    12707.511    4.4907492    4.4907492    4.4907492    12707.511   -4359.8348    28819.154    13663.214     11807.46    6874.4148   -3998.3043    90.564168 
   11900    1626.2304   -109.25807    1.4714475   -107.78662     8802.449    4.4879034    4.4879034    4.4879034     8802.449   -69137.061    43370.009    52174.399   -15086.019    7025.4995   -5051.4946    90.392104 
   12000    2348.5536   -109.91418    2.1250207   -107.78916    -23210.16    4.4885022    4.4885022    4.4885022    -23210.16    -47683.37    -30305.85    8358.7392    1289.0613    789.40932    -6268.776    90.428293 
   12100    1747.3152   -109.36945    1.5810075   -107.78844    25263.378    4.4793731    4.4793731    4.4793731    25263.378    27178.338    44780.261    3831.5367    4921.2227   -878.41188   -14791.647    89.877652 
   12200    1826.5461   -109.46158    1.6526973   -107.80889     8772.258    4.4916759    4.4916759    4.4916759     8772.258   -32279.385    7616.9468    50979.213   -8655.5892   -4134.3741   -23043.663    90.620244 
   12300    2146.2121   -109.72836    1.9419378   -107.78642    -25878.44    4.5006701    4.5006701    4.5006701    -25878.44   -47938.346   -16392.391   -13304.584      6634.22   -17575.014   -3867.6474    91.165714 
   12400    1650.8012   -109.27918    1.4936796   -107.78551     7935.445    4.4664179    4.4664179    4.4664179     7935.445    10159.109    30245.243   -16598.017    3079.2064   -12605.255     4678.015    89.100073 
   12500    2066.8855   -109.67746    1.8701614    -107.8073     18710.16    4.4622421    4.4622421    4.4622421     18710.16   -8675.6891    15905.344    48900.826    2561.3875    16181.769    20746.895    88.850399 
   12600    1705.0165   -109.39028    1.5427348   -107.84755   -15360.487    4.4883208    4.4883208    4.4883208   -15360.487   -57434.024   -3650.8576    15003.422   -8059.4093   -14198.369    4674.1207    90.417328 
   12700    1776.3333   -109.41324    1.6072637   -107.80598    2698.9621    4.5037066    4.5037066    4.5037066    2698.9621   -61610.228    21057.047    48650.067   -13478.016   -7487.3964    18288.281    91.350359 
   12800    1804.0866   -109.41595    1.6323755   -107.78357   -15860.806    4.5066353    4.5066353    4.5066353   -15860.806    -75938.19    12942.101    15413.672     14739.79   -8560.6625    35082.645     91.52869 
   12900    2128.7536   -109.68938     1.926141   -107.76323   -5229.0887    4.4846311    4.4846311    4.4846311   -5229.0887   -75279.613    29528.256    30064.091   -15000.503    18173.849   -3518.0199    90.194523 
   13000    1090.1167   -108.77379   0.98636047   -107.78743    42848.504     4.469953     4.469953     4.469953    42848.504   -25263.858    71555.725    82253.646    29310.043   -7836.2248    19703.094    89.311806 
   13100    1365.1498   -109.04774    1.2352162   -107.81252   -3696.0173    4.4753789    4.4753789    4.4753789   -3696.0173    11321.502   -1050.9962   -21358.557    14989.017    -40940.56    10055.826    89.637438 
   13200    1852.1604   -109.48682    1.6758737   -107.81094   -3468.6028    4.4876987    4.4876987    4.4876987   -3468.6028    31242.829   -2702.2228   -38946.415   -4725.2885   -2580.3239   -2949.7581    90.379739 
   13300    2338.8243   -109.91056    2.1162174   -107.79434   -39490.965     4.489047     4.489047     4.489047   -39490.965   -70714.175   -17248.643   -30510.079    17848.892    2317.9619    12246.925    90.461226 
   13400    1872.4701   -109.47276    1.6942503   -107.77851    21473.306     4.465666     4.465666     4.465666    21473.306    6222.1426       114299   -56101.226   -16335.338   -8314.4559    1039.3604     89.05508 
   13500    1859.1145   -109.49244    1.6821659   -107.81028    28510.198    4.4675005    4.4675005    4.4675005    28510.198    29775.077   -10113.839    65869.358    23567.417    5812.8677    11216.901     89.16488 
   13600    1539.5379   -109.21498    1.3930063   -107.82197   -4091.1633    4.4998589    4.4998589    4.4998589   -4091.1633   -47157.331    51330.969   -16447.128   -4579.6067   -2447.6891    8699.5922     91.11643 
   13700    2342.6474   -109.90825    2.1196766   -107.78857   -21897.233    4.4830658    4.4830658    4.4830658   -21897.233   -16450.797    10777.981   -60018.882   -15779.912    15450.324   -14014.835    90.100115 
   13800    1889.2327   -109.47053    1.7094175   -107.76111    55646.601    4.4460947    4.4460947    4.4460947    55646.601    1983.9746    134478.01    30477.816    14915.205     -7409.23    11120.858    87.889324 
   13900    1914.8583    -109.5585     1.732604    -107.8259    5858.4514     4.467471     4.467471     4.467471    5858.4514    56237.206    6590.4944   -45252.346   -5447.4418   -13557.221   -23001.959    89.163111 
   14000    1644.0746   -109.31549    1.4875933   -107.82789   -8328.1928     4.488155     4.488155     4.488155   -8328.1928   -20002.001    53151.133   -58133.711    20231.195   -253.07596   -2602.5135    90.407309 
   14100    1507.6246    -109.1884    1.3641304   -107.82427    24393.027    4.4784828    4.4784828    4.4784828    24393.027    118814.83   -22538.109   -23097.643    16093.198    1961.4376    15330.657    89.824069 
   14200    1788.3879   -109.43171    1.6181709   -107.81353     14347.77    4.4764076    4.4764076    4.4764076     14347.77    36402.058    41943.551   -35302.299   -6154.5696   -1309.9835   -6946.6284    89.699266 
   14300    2520.7067   -110.07131    2.2807884   -107.79052   -5798.4073    4.4616877    4.4616877    4.4616877   -5798.4073    4319.9376   -7290.3738   -14424.786   -4898.6292   -4893.5995    10402.228    88.817287 
   14400     1056.589   -108.77742   0.95602391   -107.82139    58196.755    4.4659703    4.4659703    4.4659703    58196.755    97687.298    68746.595     8156.371   -2133.3553   -9801.7863   -24105.337    89.073289 
   14500    1994.4385   -109.61444    1.8046098   -107.80983   -27780.313    4.4932415    4.4932415    4.4932415   -27780.313   -41656.595    25130.362   -66814.708    2899.1945   -564.50746    2441.1918     90.71504 
   14600    1875.0954   -109.47788    1.6966257   -107.78125    455.44197    4.4829082    4.4829082    4.4829082    455.44197    74464.163   -36656.114   -36441.724   -2917.8704    2899.4863   -8135.9372    90.090609 
   14700    1335.8575   -108.99133    1.2087119   -107.78261     41628.08    4.4738117    4.4738117    4.4738117     41628.08      44845.5    37376.751    42661.988    1031.7335   -16074.007   -75.007996    89.543303 
   14800    2197.7506   -109.78441    1.9885709   -107.79584   -21715.093    4.4889634    4.4889634    4.4889634   -21715.093    -32607.02   -10832.522   -21705.737   -29656.016    13365.108    7667.2033    90.456167 
   14900    1551.9216    -109.2079    1.4042113   -107.80369    6399.7158    4.4627378    4.4627378    4.4627378    6399.7158    19629.893   -22454.579    22023.832   -16528.629   -9067.4834   -30706.398    88.880015 
   15000    2283.6717   -109.86268    2.0663142   -107.79636    10239.633    4.4470371    4.4470371    4.4470371    10239.633    15991.931   -22400.102     37127.07    10484.309   -7385.4018    9311.6193    87.945226 
   15100     1148.637   -108.88269    1.0393109   -107.84338   -6490.4049    4.4884642    4.4884642    4.4884642   -6490.4049   -43140.479   -14501.306    38170.571   -16197.582     7427.203   -18358.921    90.425997 
   15200    1752.4635   -109.39846    1.5856658    -107.8128   -41721.148    4.4934629    4.4934629    4.4934629   -41721.148   -32608.727   -24581.106   -67973.612   -8921.4086    283.58855   -9567.0754    90.728451 
   15300    2193.1456   -109.75852    1.9844042   -107.77412    29937.327    4.4714947    4.4714947    4.4714947    29937.327   -2793.9865    6897.4633    85708.504   -6370.4737    7856.2308    8733.4284    89.404248 
   15400    523.72671   -108.29888   0.47387893     -107.825    1560.0569    4.4827457    4.4827457    4.4827457    1560.0569   -2075.7891   -60970.022    67725.982    3714.8488   -18341.901    -51571.75    90.080816 
   15500    1932.6569    -109.5684    1.7487086   -107.81969    10853.772    4.4682798    4.4682798    4.4682798    10853.772   -4932.3938    15998.362    21495.347    9204.2855   -419.28664   -12219.404    89.211551 
   15600    2276.3732   -109.90496    2.0597103   -107.84525   -26703.343    4.4675558    4.4675558    4.4675558   -26703.343   -55667.417    5017.3835   -29459.995   -18966.227   -22666.254    11283.557    89.168192 
   15700    1090.0897   -108.84245   0.98633603   -107.85611    3143.1192    4.4766106    4.4766106    4.4766106    3143.1192    -45185.52    15772.057    38842.821    13672.701   -6895.1376   -26847.748    89.711466 
   15800    2154.4453   -109.78686    1.9493874   -107.83747   -2712.8872    4.4661882    4.4661882    4.4661882   -2712.8872   -12030.185    -19226.67    23118.193   -12941.921   -14909.944    21078.885    89.086326 
   15900     2101.058   -109.75637    1.9010815   -107.85529   -13170.757    4.4717227    4.4717227    4.4717227   -13170.757   -35832.061   -10903.248    7223.0388      7622.01    1854.5669   -14513.795    89.417924 
   16000    1792.3476   -109.46015    1.6217538    -107.8384   -26542.308    4.4779141    4.4779141    4.4779141   -26542.308   -57013.319    21232.305   -43845.909   -9945.9826   -2721.6864   -19192.805    89.789854 
   16100    2135.8149   -109.73942    1.9325302   -107.80689    34790.918    4.4520869    4.4520869    4.4520869    34790.918   -12990.049    83252.479    34110.324   -13242.922    2261.8988    11033.279    88.245162 
   16200    1880.1297   -109.54345    1.7011808   -107.84227   -18378.178    4.4644238    4.4644238    4.4644238   -18378.178   -33159.645    13280.593   -35255.482    2813.1654   -18493.045   -3420.0055    88.980786 
   16300      1284.35   -108.99676    1.1621068   -107.83465   -8449.6226     4.478145     4.478145     4.478145   -8449.6226   -19777.601    29942.852   -35514.118     -7152.32    27982.098   -27445.393    89.803744 
   16400    2172.4028   -109.77856    1.9656357   -107.81292   -29418.967    4.4727229    4.4727229    4.4727229   -29418.967   -71646.394     23604.68   -40215.188    8213.3197   -25764.805    14870.355    89.477938 
   16500     1251.274   -108.95684     1.132179   -107.82466   -4459.9087    4.4648237    4.4648237    4.4648237   -4459.9087    -68811.29    86490.529   -31058.966     10383.86   -20312.601   -6015.5539      89.0047 
   16600    2062.6672   -109.68859    1.8663446   -107.82225   -22567.529    4.4526263    4.4526263    4.4526263   -22567.529    22748.179   -33917.143   -56533.623   -8871.1801     2616.296   -27520.447    88.277241 
   16700    1779.3899   -109.45123    1.6100294    -107.8412   -2075.5627     4.466893     4.466893     4.466893   -2075.5627   -33084.456    72099.922   -45242.155   -17159.513   -25001.933    21250.682     89.12851 
   16800    1388.9959   -109.08234    1.2567927   -107.82555   -5665.6539    4.4862347    4.4862347    4.4862347   -5665.6539   -15338.703    46331.447   -47989.705    20008.392    21280.288   -23148.088    90.291314 
   16900    1779.3251   -109.40198    1.6099707     -107.792   -1587.7081    4.4873017    4.4873017    4.4873017   -1587.7081   -6313.4268   -13358.626    14908.929    4654.8412   -987.19405    10604.848    90.355752 
   17000    2100.0636    -109.6883    1.9001817   -107.78812   -3939.8271    4.4784069    4.4784069    4.4784069   -3939.8271   -5120.3267    14325.062   -21024.217    9883.6913   -1821.5568   -7262.8885    89.819502 
   17100    1560.2334   -109.21118     1.411732   -107.79944    15067.289    4.4638849    4.4638849    4.4638849    15067.289    -13941.91    36680.354    22463.424   -2892.3147    11839.776   -33731.314    88.948567 
   17200    1479.8517    -109.1378    1.3390009    -107.7988    47783.271    4.4668245    4.4668245    4.4668245    47783.271    7062.2423    115097.95     21189.62   -7939.8319    -9163.911    17595.204    89.124408 
   17300    1707.9477   -109.35587     1.545387   -107.81048   -23273.934    4.4820005    4.4820005    4.4820005   -23273.934   -33926.862    2503.7413   -38398.682   -5282.4076     20437.88   -40615.686    90.035898 
   17400    1742.6331   -109.39316     1.576771   -107.81638   -16542.596    4.4803753    4.4803753    4.4803753   -16542.596   -43404.903     2755.807   -8978.6909   -2934.2328    11220.619    274.40035    89.937991 
   17500    1964.4522   -109.60895    1.7774776   -107.83148    12511.596    4.4570897    4.4570897    4.4570897    12511.596    13748.311    32410.254    -8623.777    -10159.64   -11408.458    16533.291    88.542978 
   17600    1979.7894   -109.62635     1.791355     -107.835   -13397.686    4.4468781    4.4468781    4.4468781   -13397.686   -20895.574   -16242.713   -3054.7714    -4155.684    23332.155   -29126.876    87.935792 
   17700    1477.9735   -109.19594    1.3373015   -107.85864    11272.428    4.4697447    4.4697447    4.4697447    11272.428   -36370.973    74179.371   -3991.1141   -5034.4644    10573.611     5219.945    89.299322 
   17800      2452.33   -110.03608    2.2189197   -107.81716   -23648.198    4.4870561    4.4870561    4.4870561   -23648.198   -33018.473   -31438.857   -6487.2649   -2524.3468   -15923.562    6828.5326    90.340919 
   17900    1182.8865   -108.87577    1.0703006   -107.80547    11620.636    4.4849657    4.4849657    4.4849657    11620.636   -36375.542    57322.745    13914.705    4662.3495    21304.147    -31468.41    90.214714 
   18000    2811.9614   -110.31758    2.5443217   -107.77326    -19594.71    4.4719852    4.4719852    4.4719852    -19594.71    -30037.46    -163.9709   -28582.699   -2727.7778   -681.79459    30109.988    89.433674 
   18100     1371.607   -109.02737    1.2410589   -107.78631     33883.48    4.4431308    4.4431308    4.4431308     33883.48    25760.812    36792.233    39097.396     15753.41    18087.822   -23518.921    87.713673 
   18200    1534.1433     -109.237    1.3881251   -107.84887    52302.548    4.4641936    4.4641936    4.4641936    52302.548   -28901.506     134784.2    51024.955    13419.773    7002.0168   -7687.8492    88.967021 
   18300     2232.871   -109.83785    2.0203486    -107.8175    -44382.06    4.4919956    4.4919956    4.4919956    -44382.06   -70158.139   -10659.431   -52328.608    5699.2667    10133.587    18704.092    90.639596 
   18400    876.41343    -108.5907   0.79299729   -107.79771    56850.747    4.4547145    4.4547145    4.4547145    56850.747   -23819.465    159487.13    34884.576   -8351.6043    25289.893   -8241.6145    88.401498 
   18500    2242.1023   -109.82859    2.0287013   -107.79989    23470.995    4.4500845    4.4500845    4.4500845    23470.995    3154.6979    55598.145    11660.143   -20539.555   -11075.282    1638.3531    88.126147 
   18600    1587.5453   -109.25416    1.4364444   -107.81771   -17579.574    4.4732964    4.4732964    4.4732964   -17579.574   -42621.727    12160.388   -22277.382   -12581.258    29032.292    -2925.859    89.512364 
   18700     2369.465   -109.92713    2.1439417   -107.78319   -8536.2601    4.4792842    4.4792842    4.4792842   -8536.2601   -19621.649    -9621.921    3634.7892   -3259.8809    1214.7968   -14494.741    89.872302 
   18800    1462.2591    -109.1148    1.3230828   -107.79171   -10252.908    4.4764513    4.4764513    4.4764513   -10252.908   -12503.593   -5594.8016   -12660.329   -24233.615    13000.292    13532.902    89.701887 
   18900    1691.0146   -109.31146    1.5300655   -107.78139   -5020.6187    4.4689499    4.4689499    4.4689499   -5020.6187   -16691.419    25646.344   -24016.781    -3014.249    3881.7311   -8068.8412    89.251694 
   19000    1845.4363   -109.45031    1.6697895   -107.78052    5018.7495    4.4648456    4.4648456    4.4648456    5018.7495   -13144.444    40908.075   -12707.383    5230.2145   -248.58901    3626.0649    89.006011 
   19100    1078.8492   -108.78953   0.97616541   -107.81337   -14759.042    4.4733578    4.4733578    4.4733578   -14759.042   -460.35139   -16742.424    -27074.35   -21593.663    22610.026    6709.9622    89.516051 
   19200    2315.7143   -109.88244     2.095307   -107.78714    1752.1729    4.4752791    4.4752791    4.4752791    1752.1729   -16139.513   -23742.735    45138.767    10606.535   -1105.3668   -19027.755    89.631443 
   19300    2011.7497    -109.6144    1.8202734   -107.79412   -1047.9673    4.4601541    4.4601541    4.4601541   -1047.9673    30113.699   -36839.582    3581.9806   -12548.158    9198.0972    1135.6231    88.725734 
   19400    1493.1145    -109.1939    1.3510014    -107.8429   -1363.0737    4.4676824    4.4676824    4.4676824   -1363.0737    12292.543   -24653.798    8272.0335   -11332.132    26992.205    8254.2893    89.175774 
   19500    2100.5286   -109.72224    1.9006024   -107.82164   -17624.753    4.4858417    4.4858417    4.4858417   -17624.753   -56175.367   -17452.003    20753.112     1290.024   -9813.7502    369.17636    90.267588 
   19600    1976.5471   -109.59994    1.7884213   -107.81152   -30146.214    4.4830253    4.4830253    4.4830253   -30146.214   -47925.253   -25710.221   -16803.168   -20863.823    28564.762    5733.3057     90.09767 
   19700    2147.5805   -109.73327     1.943176    -107.7901    11458.167    4.4727663    4.4727663    4.4727663    11458.167    29592.936    4219.7181    561.84607    4291.6645   -5132.7183    18088.631    89.480548 
   19800    1875.9305   -109.49062    1.6973813   -107.79324   -33838.602    4.4687981    4.4687981    4.4687981   -33838.602    -52023.27   -10327.079   -39165.459    3110.5188    45889.999   -7456.9455    89.242599 
   19900    1391.5549   -109.06002    1.2591082   -107.80092   -10908.725    4.4617492    4.4617492    4.4617492   -10908.725   -33173.013    20537.504   -20090.667   -9178.8044    31697.614    13753.348    88.820959 
   20000    2047.5562   -109.66601    1.8526718   -107.81334   -15974.059    4.4764245    4.4764245    4.4764245   -15974.059   -4117.6057    7078.0955   -50882.668    7710.4672    2166.4956    19876.001    89.700278 
   20100     1643.478   -109.29375    1.4870534   -107.80669   -21885.976    4.4938406    4.4938406    4.4938406   -21885.976   -26816.348    461.13095    -39302.71    2364.3972    29154.062   -3783.2165     90.75133 
   20200    2114.2431   -109.68341    1.9130116   -107.77039   -10859.661    4.4870212    4.4870212    4.4870212   -10859.661   -225.04081    -28644.04   -3709.9028    6969.9018   -1917.6761    6298.8994    90.338811 
   20300    1506.7131   -109.12357    1.3633057   -107.76026    39413.796    4.4661086    4.4661086    4.4661086    39413.796    52447.281    3698.4209    62095.687    2241.0297    33470.035   -10876.913    89.081565 
   20400    1927.3946   -109.53093    1.7439472   -107.78699    5257.3095    4.4667642    4.4667642    4.4667642    5257.3095   -7390.2178    27016.616   -3854.4695   -18877.546   -15343.165   -2584.9543    89.120798 
   20500    1859.9407   -109.48625    1.6829135   -107.80334    15561.891     4.486582     4.486582     4.486582    15561.891    15390.583    25.317642    31269.773   -3085.2351    8108.6351    10744.762    90.312283 
   20600    1576.4188   -109.20797    1.4263769   -107.78159    8677.9115    4.4932044    4.4932044    4.4932044    8677.9115   -12103.483   -55822.791    93960.008   -22029.536    27557.593   -302.76195     90.71279 
   20700    2087.9222   -109.64663    1.8891959   -107.75744   -4662.1727    4.4825738    4.4825738    4.4825738   -4662.1727    607.62227   -45506.483    30912.343    3538.6232   -24389.422    18924.852    90.070452 
   20800    1735.2962   -109.33915    1.5701325   -107.76901    3900.2513    4.4713194    4.4713194    4.4713194    3900.2513    9914.4641   -30329.415    32115.705    -9472.504    29176.325    2462.8958    89.393736 
   20900    1692.7977   -109.31884     1.531679   -107.78716     -8725.27    4.4578945    4.4578945    4.4578945     -8725.27   -25632.228   -24772.223     24228.64   -13349.662    12898.946    1196.8821    88.590949 
   21000    1727.9691   -109.37859    1.5635027   -107.81508    4484.2761    4.4587553    4.4587553    4.4587553    4484.2761    42067.157   -39135.932    10521.603    3830.7627   -15816.582    29979.484     88.64228 
   21100    1431.0121   -109.12869    1.2948098   -107.83388    21396.857    4.4724513    4.4724513    4.4724513    21396.857    50740.074   -34312.891    47763.388   -16293.626    23198.211    5073.1373     89.46164 
   21200    2189.6388   -109.78552    1.9812312   -107.80429   -14127.579    4.4984299    4.4984299    4.4984299   -14127.579    3724.9386   -25272.001   -20835.675     3240.096   -772.78207    13904.178    91.029647 
   21300    1716.8849   -109.31074    1.5534735   -107.75727   -31848.249    4.5070751    4.5070751    4.5070751   -31848.249    33452.178   -52413.806   -76583.119   -2295.4936    10099.173    639.71902    91.555491 
   21400    1529.2432   -109.13146    1.3836914   -107.74777   -4401.6853    4.4646391    4.4646391    4.4646391   -4401.6853    27360.159   -55056.238    14491.023    5517.1364   -3748.0873    14693.774    88.993662 
   21500    2283.5002   -109.83179     2.066159   -107.76563     39667.54    4.4441857    4.4441857    4.4441857     39667.54    68371.978    9975.5021    40655.139   -8161.3729    -13274.36    14833.653    87.776164 
   21600    1102.2446   -108.85131   0.99733412   -107.85397    4110.4676    4.4723563    4.4723563    4.4723563    4110.4676     79139.84   -34553.087   -32255.351   -6324.9411    16604.455    17335.822    89.455943 
   21700    1549.5082   -109.24834    1.4020276   -107.84631   -14768.933     4.495329     4.495329     4.495329   -14768.933    -2470.426    -31804.97   -10031.403    2653.4951    6494.7508   -6227.9787    90.841534 
   21800    2217.5915   -109.78657    2.0065234   -107.78005    2253.2523    4.4911181    4.4911181    4.4911181    2253.2523     2712.365   -4881.6182    8929.0102    10112.575   -2111.3472   -5677.8512    90.586486 
   21900    1080.4588    -108.7503   0.97762186   -107.77268    17856.835    4.4812457    4.4812457    4.4812457    17856.835    40955.137    6739.8564     5875.513    13922.956    15030.665    24373.735    89.990417 
   22000    2176.6907   -109.72998    1.9695155   -107.76047    11968.664    4.4808841    4.4808841    4.4808841    11968.664    71148.966   -22367.903   -12875.071    854.66714   -27133.513       -24370    89.968635 
   22100     1583.958   -109.22023    1.4331985   -107.78704   -6360.8285    4.4821861    4.4821861    4.4821861   -6360.8285   -30284.316   -36875.658    48077.488   -12739.167    18307.301    11342.354    90.047087 
   22200    1883.6893   -109.49474    1.7044017   -107.79034    868.80926     4.471583     4.471583     4.471583    868.80926    68716.222   -22579.779   -43530.016   -8003.3582    11209.381    12554.462    89.409544 
   22300    2334.6448   -109.92126    2.1124357   -107.80883    5978.5268    4.4669859    4.4669859    4.4669859    5978.5268   -2793.8822   -26227.025    46956.488   -9554.4923    3220.4699   -5065.0856    89.134069 
   22400      1123.28   -108.85929    1.0163673   -107.84292    7060.5264     4.487057     4.487057     4.487057    7060.5264    38005.842   -17411.793    587.52949    15349.484    13436.285    24417.773    90.340974 
   22500    2387.9085   -109.94149    2.1606298   -107.78086   -8826.5215    4.4896044    4.4896044    4.4896044   -8826.5215   -5169.4459   -19120.522   -2189.5962    3526.6432    12188.129   -7118.6508    90.494928 
   22600    1137.2719   -108.80029    1.0290276   -107.77127    49116.242    4.4662835    4.4662835    4.4662835    49116.242     44897.21   -12014.748    114466.26    8260.1628    25973.521    9927.5436    89.092032 
   22700    2336.1476   -109.92104    2.1137954   -107.80725   -31103.117    4.4809737    4.4809737    4.4809737   -31103.117   -8129.9194   -67169.071    -18010.36    -10817.48   -1455.7058    24741.357     89.97403 
   22800    2307.4552   -109.88718     2.087834   -107.79934    5764.3494    4.4766053    4.4766053    4.4766053    5764.3494    3214.1337   -55129.818    69208.733    -24515.75   -2837.0204    6439.7327     89.71115 
   22900    1252.0043   -108.95478    1.1328398   -107.82194    5867.3835    4.4594941    4.4594941    4.4594941    5867.3835    34516.192     17323.15   -34237.192    17478.231    2799.4085    13377.981     88.68635 
   23000    1607.6627   -109.29528     1.454647   -107.84064    -22569.77    4.4696105    4.4696105    4.4696105    -22569.77    -34329.09    5914.8248   -39295.044   -17628.031    4664.7599    1879.8143    89.291277 
   23100    2542.2195   -110.12751    2.3002536   -107.82726   -5720.8668    4.4814688    4.4814688    4.4814688   -5720.8668    4565.5594   -20354.885   -1373.2746   -15583.696   -9326.4485    9140.8921    90.003859 
   23200    1451.4242   -109.14375    1.3132791   -107.83047   -2238.3996    4.4990768    4.4990768    4.4990768   -2238.3996    -36013.01    -20562.84    49860.651    10247.657    16637.002    8862.5134    91.068925 
   23300    1893.4977   -109.49575    1.7132765   -107.78248   -22216.631    4.4926438    4.4926438    4.4926438   -22216.631   -46068.061   -76815.784    56233.952   -17189.996   -945.53274   -2262.7127    90.678839 
   23400    1825.1722   -109.40994    1.6514541   -107.75849    24690.957    4.4705893    4.4705893    4.4705893    24690.957    44309.747   -16705.387    46468.512   -13083.947    9622.0718    13135.272    89.349952 
   23500    1138.9783   -108.81209    1.0305715   -107.78152    45237.774    4.4620012    4.4620012    4.4620012    45237.774    66875.014    62712.277      6126.03    28805.283    10747.054    4679.4457    88.836013 
   23600     2301.118   -109.89335    2.0820999   -107.81125    -8296.445    4.4799637    4.4799637    4.4799637    -8296.445   -4483.3422   -40269.956    19863.963   -5792.2601    8433.5064   -11622.457    89.913209 
   23700    1698.4695   -109.35001    1.5368109    -107.8132     16375.91    4.4745652    4.4745652    4.4745652     16375.91   -8293.8955    29036.086    28385.541    35560.185    1413.8036    9370.6504    89.588554 
   23800    1713.3989   -109.34721    1.5503193   -107.79689    47486.188    4.4609099    4.4609099    4.4609099    47486.188    20622.001    275.40225    121561.16   -5068.7558   -6224.8804    17861.007    88.770845 
   23900    2102.8311   -109.70425    1.9026858   -107.80157   -16886.511    4.4760227    4.4760227    4.4760227   -16886.511   -18714.174   -42449.558    10504.199    6087.7248    7124.7787   -19192.706    89.676125 
   24000    1685.8242   -109.32572    1.5253691   -107.80035    15828.028    4.4716313    4.4716313    4.4716313    15828.028    7937.3234    3901.7575    35645.004    29989.784   -1119.6262    9197.9487    89.412442 
   24100    1906.1907   -109.52293    1.7247614   -107.79817    18397.079    4.4636661    4.4636661    4.4636661    18397.079   -8964.0457   -13223.734    77379.018   -3660.0864    13691.889   -3822.5474     88.93549 
   24200    1568.6175   -109.23581    1.4193181   -107.81649   -35584.927    4.4779743    4.4779743    4.4779743   -35584.927   -24370.112   -65686.975   -16697.694     24713.76    12353.111   -20442.158    89.793478 
   24300    1458.5354   -109.11628    1.3197135   -107.79657     39847.64    4.4715147    4.4715147    4.4715147     39847.64    13785.968    20949.174    84807.777   -23499.565   -9462.9778    -10562.76     89.40545 
   24400    2079.7614   -109.68751    1.8818118    -107.8057   -25202.769    4.4853319    4.4853319    4.4853319   -25202.769   -32327.133   -42139.818   -1141.3557    1240.5361    9448.7214   -25289.708    90.236815 
   24500    2296.0619   -109.84376     2.077525   -107.76624   -46731.686    4.5073998    4.5073998    4.5073998   -46731.686   -55106.204    -31974.39   -53114.465    16403.909    2785.6697    21071.162     91.57528 
   24600    1102.7068   -108.72821   0.99775232   -107.73045    7866.1113    4.4968203    4.4968203    4.4968203    7866.1113    2129.2933    11403.296    10065.745   -28696.328   -1443.4644   -35248.026     90.93197 
   24700    1726.6187   -109.27103    1.5622809   -107.70875    54121.945    4.4764506    4.4764506    4.4764506    54121.945     75921.16    44502.968    41941.708   -13711.049   -21511.597   -4135.8942    89.701848 
   24800    1292.8931   -108.92892    1.1698368   -107.75908    15216.928    4.4871895    4.4871895    4.4871895    15216.928    92223.766   -6908.0625    -39664.92    -23486.81   -10185.906   -27510.302    90.348973 
   24900    2453.3065   -109.97537    2.2198033   -107.75557   -18723.819     4.475944     4.475944     4.475944   -18723.819    28570.132    -25538.13    -59203.46   -16945.705    6783.0956    1938.7795    89.671396 
   25000    1368.6305   -109.01872    1.2383657   -107.78036    45128.628    4.4561395    4.4561395    4.4561395    45128.628    62520.548    48349.885     24515.45   -1770.4112   -25237.566    4987.3323    88.486362 
   25100    1907.4462   -109.53358    1.7258974   -107.80768    10897.258    4.4608435    4.4608435    4.4608435    10897.258    18934.944    8552.7488    5204.0817   -25788.272    17731.986   -9169.6831    88.766881 
   25200    1642.9558   -109.30803     1.486581   -107.82145   -5410.0713    4.4693906    4.4693906    4.4693906   -5410.0713    15685.252   -39123.209    7207.7427     35.52998    -23743.42    7023.3409    89.278098 
   25300    1734.8701   -109.38809     1.569747   -107.81834   -250.47586    4.4804371    4.4804371    4.4804371   -250.47586    37425.159   -47181.203    9004.6157   -3693.4561    4753.9198   -5458.9328    89.941715 
   25400    1555.8526   -109.21011    1.4077681   -107.80235   -3060.1366     4.471526     4.471526     4.471526   -3060.1366    43144.582   -17233.637   -35091.355   -2107.4086   -517.88205   -16075.871    89.406124 
   25500    1911.6014     -109.516    1.7296571   -107.78634    22567.786    4.4619449    4.4619449    4.4619449    22567.786    18204.375    7254.6674    42244.315    9997.4207   -5875.2752    -1087.287    88.832646 
   25600    1578.1982   -109.22552    1.4279869   -107.79753    15961.427    4.4808386    4.4808386    4.4808386    15961.427    43253.438   -5517.0699    10147.912    25740.386    14754.079    -4275.891    89.965896 
   25700    1146.1534   -108.83223    1.0370637   -107.79517   -33750.551    4.4979094    4.4979094    4.4979094   -33750.551   -7774.9329   -18768.034   -74708.687    9829.4787   -37207.563   -4975.2967    90.998056 
   25800     2401.854   -109.91666     2.173248   -107.74341     6721.864    4.4802702    4.4802702    4.4802702     6721.864    58083.679   -28437.666    -9480.421    403.87575    17826.402    7836.6726    89.931662 
   25900    1285.5369   -108.92355    1.1631808   -107.76037     10634.11    4.4629932    4.4629932    4.4629932     10634.11   -193.58661    62015.759   -29919.844   -8282.6761   -23885.956    6023.6473    88.895272 
   26000    2345.9713   -109.89779    2.1226842   -107.77511   -7451.1831    4.4695322    4.4695322    4.4695322   -7451.1831   -6059.0683    11840.116   -28134.597   -15037.737   -9224.3335    20668.487    89.286585 
   26100    1861.1479   -109.48082    1.6840058   -107.79681    6811.7116    4.4795512    4.4795512    4.4795512    6811.7116    -17910.59    54016.864   -15671.139    10513.785    8208.0111    18276.244    89.888369 
   26200    1701.6657   -109.34717    1.5397029   -107.80747   -8540.4932    4.4805411    4.4805411    4.4805411   -8540.4932    2250.6192    13502.235   -41374.333     -4499.24   -6323.3535    6601.5216    89.947978 
   26300     2239.834   -109.81894    2.0266488   -107.79229   -6749.0969    4.4824237    4.4824237    4.4824237   -6749.0969    43208.075   -57295.148   -6160.2175   -19007.957    8800.8731   -7992.8886    90.061408 
   26400    1820.6525   -109.42453    1.6473647   -107.77717    15737.678      4.47117      4.47117      4.47117    15737.678    50842.748    11774.736   -15404.449    14019.611   -18102.883   -3606.4878    89.384776 
   26500    1831.5904   -109.43399    1.6572615   -107.77673    21996.998    4.4608617    4.4608617    4.4608617    21996.998    72154.807    6771.9462   -12935.759    12671.479   -15387.557   -1587.6991    88.767968 
   26600    1233.6115   -108.92408    1.1161976   -107.80788   -8889.4437    4.4826005    4.4826005    4.4826005   -8889.4437    5631.8517   -33065.108    764.92532   -1466.9282   -3515.0332    -12838.38    90.072061 
   26700    1929.2524   -109.51845    1.7456281   -107.77282   -24643.539    4.4886913    4.4886913    4.4886913   -24643.539   -45116.842   -15712.989   -13100.787    10990.518   -24824.877   -2625.4904    90.439722 
   26800    2076.2986   -109.63586    1.8786786   -107.75718   -17842.275    4.4815737    4.4815737    4.4815737   -17842.275   -7747.4181   -25169.448   -20609.958    27207.667    14562.964   -20059.448    90.010178 
   26900    1507.6352   -109.13344      1.36414    -107.7693   -18269.625    4.4695631    4.4695631    4.4695631   -18269.625   -19767.853   -33716.522   -1324.4988    18433.632   -1726.8201    -3290.092    89.288435 
   27000    1515.3261   -109.15725    1.3710989   -107.78615    16251.015    4.4501758    4.4501758    4.4501758    16251.015    43004.029    3339.3438    2409.6706   -13748.886   -24425.348   -579.81719    88.131568 
   27100    2024.8546   -109.64254     1.832131   -107.81041    22929.706    4.4493636    4.4493636    4.4493636    22929.706    43662.999   -7692.0206     32818.14    8731.8925   -8899.7249    -8386.185    88.083325 
   27200    1725.6043   -109.40054    1.5613631   -107.83918   -25774.788    4.4717362    4.4717362    4.4717362   -25774.788   -21904.482   -38420.847   -16999.034    7454.3374   -12167.645    1837.9993    89.418734 
   27300    2143.2184   -109.75251     1.939229   -107.81328   -16137.715    4.4721705    4.4721705    4.4721705   -16137.715   -5734.6177   -22912.464   -19766.062    1923.7853    10191.336   -23413.196    89.444794 
   27400    1685.4747   -109.32667    1.5250529   -107.80162    25274.379    4.4641344    4.4641344    4.4641344    25274.379    22487.829    -5794.209    59129.517     1448.773   -20749.534    7507.4335    88.963485 
   27500    1692.2494   -109.32972    1.5311828   -107.79853   -16403.395     4.468706     4.468706     4.468706   -16403.395   -42495.683   -29625.756    22911.253   -15011.538   -18266.283    10714.043    89.237079 
   27600    1374.8746   -109.04358    1.2440155   -107.79957    33510.037    4.4593548    4.4593548    4.4593548    33510.037    33618.905    -791.4805    67702.686   -3788.9639     21704.99   -15281.474    88.678042 
   27700    1859.6836    -109.4961    1.6826808   -107.81342    10591.927    4.4599144    4.4599144    4.4599144    10591.927   -7189.0994   -6040.7153    45005.597    4060.9761   -35285.924    20330.055    88.711429 
   27800    2022.6331   -109.64435    1.8301209   -107.81423   -1969.1793    4.4687131    4.4687131    4.4687131   -1969.1793   -14218.808   -2594.5195     10905.79   -10080.423    7971.1595    14987.606    89.237502 
   27900    2009.1715   -109.62335    1.8179406    -107.8054    19292.388    4.4618653    4.4618653    4.4618653    19292.388    11577.736   -2562.2705    48861.698   -3001.5675    8463.0152   -25602.255    88.827892 
   28000    1744.9354    -109.3992    1.5788542   -107.82034   -23387.543    4.4618223    4.4618223    4.4618223   -23387.543   -20059.098   -36225.179   -13878.352   -1889.1497   -35325.189     24005.15    88.825328 
   28100    1610.3179   -109.27875    1.4570495    -107.8217    20127.478    4.4532735    4.4532735    4.4532735    20127.478    47252.722    -1583.554    14713.265    4827.4651    21707.369    14907.411    88.315737 
   28200    1982.8542   -109.62557    1.7941281   -107.83144    12106.784    4.4528586    4.4528586    4.4528586    12106.784   -8875.2884      18730.8     26464.84    6802.0688   -7869.4305   -8407.0765    88.291055 
   28300     1485.913   -109.19251    1.3444853   -107.84802    -12773.96    4.4665599    4.4665599    4.4665599    -12773.96    39601.313   -62505.838   -15417.356   -19625.922   -13076.221    31205.152    89.108572 
   28400    2423.2394   -110.01846    2.1925979   -107.82586   -6919.8749    4.4544377    4.4544377    4.4544377   -6919.8749    13523.436   -33843.731   -439.33021     5390.299    9353.7736   -4297.9992    88.385023 
   28500     1698.063   -109.37323    1.5364431   -107.83678    10997.215    4.4480626    4.4480626    4.4480626    10997.215    30148.675    12669.671   -9826.7007    6930.4754   -7087.8637   -510.81149    88.006078 
   28600    1899.2809    -109.5498    1.7185093   -107.83129   -12613.425    4.4587865    4.4587865    4.4587865   -12613.425    32659.974   -49460.982   -21039.266   -16279.672    530.35273    18748.957    88.644139 
   28700    1661.3365   -109.33899    1.5032122   -107.83577   -26984.189    4.4599875    4.4599875    4.4599875   -26984.189   -33761.569   -42574.341   -4616.6574    12739.885    4770.0358   -246.89521    88.715789 
   28800    1683.4897   -109.35558    1.5232568   -107.83232    15379.404    4.4526127    4.4526127    4.4526127    15379.404    64294.556    9317.9377   -27474.282    13140.478    5296.7792   -4981.7367    88.276429 
   28900    2056.1442   -109.70262    1.8604425   -107.84218   -19305.929    4.4577724    4.4577724    4.4577724   -19305.929   -4512.3951   -55597.285    2191.8931   -28441.976   -6378.9489     496.6461    88.583672 
   29000     1350.631   -109.07117    1.2220793   -107.84909   -13492.896     4.454848     4.454848     4.454848   -13492.896   -40308.906   -51951.931    51782.148    33471.518    13586.844     4165.058    88.409444 
   29100    2294.1025   -109.91867    2.0757521   -107.84291    10707.431    4.4625483    4.4625483    4.4625483    10707.431    33891.737   -44056.708    42287.263   -4699.6115   -13327.869   -3234.4836    88.868694 
   29200    1563.5775   -109.25172    1.4147578   -107.83696    -44362.61    4.4868336    4.4868336    4.4868336    -44362.61   -52259.023    -98493.44    17664.632    26605.737    9415.5621   -5266.2992     90.32748 
   29300    1410.6963   -109.09036    1.2764277   -107.81394     22041.97    4.4552959    4.4552959    4.4552959     22041.97   -10718.505   -43788.806    120633.22    20102.285    22277.004   -8100.9527    88.436117 
   29400    1818.6497   -109.44799    1.6455524   -107.80244    41985.131    4.4461944    4.4461944    4.4461944    41985.131    64363.274   -9742.7428    71334.864    4992.2688   -1838.5231     6226.942    87.895238 
   29500    1914.8336    -109.5455    1.7325817   -107.81291    2655.8411    4.4615832    4.4615832    4.4615832    2655.8411   -3997.8542   -58816.527    70781.905    32013.734    2169.9898   -13108.187    88.811049 
   29600    1438.8126   -109.12844    1.3018679   -107.82658     16902.39    4.4668885    4.4668885    4.4668885     16902.39     58785.88   -55890.759     47812.05   -28787.127    11891.561    13282.516    89.128244 
   29700    1853.2494   -109.49985     1.676859   -107.82299   -15052.316    4.4820727    4.4820727    4.4820727   -15052.316    51287.276   -57558.465   -38885.759    15840.973    2652.3858    15738.218    90.040252 
   29800    1917.0635    -109.5278    1.7345993    -107.7932   -6304.0334     4.465194     4.465194     4.465194   -6304.0334   -42622.459   -51356.154    75066.512   -29366.069    960.56425    5537.3657     89.02685 
   29900    2094.7126   -109.68687      1.89534   -107.79153   -10722.379    4.4442529    4.4442529    4.4442529   -10722.379    32970.262   -58989.887   -6147.5109   -1605.3512    8354.4905    7933.9347    87.780144 
   30000    1541.0364    -109.2201    1.3943621   -107.82574    9749.2292     4.440023     4.440023     4.440023    9749.2292    25807.761   -41550.306    44990.233   -22890.219    -10916.05   -1190.2092    87.529745 
   30100    1321.6665   -109.07245    1.1958716   -107.87658    34121.058    4.4586139    4.4586139    4.4586139    34121.058   -37918.023    -21389.02    161670.22    -14256.75   -18688.308    11559.674    88.633846 
   30200    1863.0552   -109.54701    1.6857315   -107.86128   -20205.345    4.4888251    4.4888251    4.4888251   -20205.345   -48117.724   -58046.308    45547.997   -5295.1457    6240.4609   -877.10124    90.447807 
   30300    1533.4961   -109.21156    1.3875395   -107.82402   -3518.4385    4.4675493    4.4675493    4.4675493   -3518.4385   -38609.478   -50838.131    78892.293   -22790.133   -12816.426    -10590.58      89.1678 
   30400    1721.6438   -109.35848    1.5577795    -107.8007    5956.0377    4.4441374    4.4441374    4.4441374    5956.0377    28168.674   -11517.286    1216.7245    15001.336   -19245.519    3963.1521    87.773304 
   30500    1890.8289   -109.53426    1.7108617    -107.8234   -29825.664    4.4507041    4.4507041    4.4507041   -29825.664    7542.3639   -62263.155     -34756.2    -35736.89    12811.485   -7207.5396    88.162962 
   30600    1798.4296   -109.46128    1.6272569   -107.83403   -4494.4438    4.4707742    4.4707742    4.4707742   -4494.4438   -18563.371    -28286.84     33366.88     8773.863   -18147.424    3974.9892    89.361041 
   30700    1831.1801    -109.4694    1.6568902   -107.81251   -41372.599     4.483297     4.483297     4.483297   -41372.599   -34206.759   -57480.731   -32430.308    1697.8057    -9468.914    22222.367    90.114054 
   30800    1709.0476   -109.33684    1.5463822   -107.79046    6714.4242    4.4553794    4.4553794    4.4553794    6714.4242    55985.483   -27482.712   -8359.4981   -8721.6395    15137.374    824.04171    88.441091 
   30900    1743.5233   -109.39737    1.5775765    -107.8198    5566.7293    4.4550764    4.4550764    4.4550764    5566.7293   -19740.409   -15655.727    52096.324    29691.994   -4142.9588   -9704.3823    88.423043 
   31000    2378.9185   -109.97409    2.1524955   -107.82159    750.16777    4.4595147    4.4595147    4.4595147    750.16777    49217.772   -52052.485    5085.2161   -1957.2292   -9571.3305    11306.709    88.687581 
   31100    1333.9353   -109.05714    1.2069727   -107.85017    42327.157     4.452269     4.452269     4.452269    42327.157    68424.894   -544.58705    59101.164    4095.9061   -1280.6733   -7036.7086    88.255989 
   31200    1875.5394   -109.54421    1.6970275   -107.84718    11318.741    4.4774999    4.4774999    4.4774999    11318.741   -2102.6139     22153.96    13904.877    3760.7691    -18950.64    3922.1934    89.764942 
   31300    1671.0883   -109.29602    1.5120358   -107.78399    -8366.689    4.5009093    4.5009093    4.5009093    -8366.689   -5318.6497   -1783.3615   -17998.056   -13262.377   -7198.8694   -1678.1058    91.180248 
   31400    1529.0714    -109.1339     1.383536   -107.75037    -19339.86    4.4951824    4.4951824    4.4951824    -19339.86     21975.79   -58258.985   -21736.384    14265.244    11385.878     5037.582    90.832647 
   31500    2837.9057   -110.28433    2.5677967   -107.71654   -38084.603     4.490909     4.490909     4.490909   -38084.603   -22818.241     -50698.6   -40736.969    5192.1123    23566.869    4083.3341    90.573836 
   31600     1715.671   -109.27459    1.5523751   -107.72221   -30183.118    4.4881483    4.4881483    4.4881483   -30183.118   -16723.881   -71317.893   -2507.5806    20284.008      21278.2     174.1554    90.406903 
   31700    1183.9056   -108.79823    1.0712227   -107.72701    45697.861     4.471813     4.471813     4.471813    45697.861    11538.716    57262.904    68291.962    -25507.72   -2559.5652    -24460.72    89.423344 
   31800    1555.3411   -109.17029    1.4073053   -107.76299    42266.865    4.4792104    4.4792104    4.4792104    42266.865    78956.291    14669.179    33175.123   -14985.343   -22986.407   -10185.584     89.86786 
   31900    1574.5074   -109.18665    1.4246474     -107.762   -6269.8685    4.4979501    4.4979501    4.4979501   -6269.8685    47883.707   -48941.964   -17751.349     2461.741    10032.871    10571.754    91.000522 
   32000    2498.1288   -110.00119    2.2603594   -107.74083    -19337.92    4.4712288    4.4712288    4.4712288    -19337.92    9385.6431   -49546.021   -17853.382   -11200.424    4619.6751    2882.0271    89.388301 
   32100    1631.0072   -109.22385    1.4757696   -107.74808    22704.763    4.4336768    4.4336768    4.4336768    22704.763    38185.187    3945.1513    25983.951    19375.828    5264.8224   -4287.9338    87.154959 
   32200    1592.7228   -109.25205     1.441129   -107.81092    8903.0224    4.4466854    4.4466854    4.4466854    8903.0224   -32014.023    12874.149    45848.941   -10146.608    20359.453   -1458.4217    87.924361 
   32300    2259.9236   -109.86747    2.0448264   -107.82264   -20907.649    4.4780148    4.4780148    4.4780148   -20907.649   -26698.923   -41792.165    5768.1399   -7108.1969   -5206.8871   -2410.3278    89.795913 
   32400    1573.7962   -109.24098    1.4240039   -107.81697   -22492.818    4.4790452    4.4790452    4.4790452   -22492.818   -40991.508   -46177.742    19690.797   -3838.7054     23945.45    12091.303    89.857913 
   32500    1325.5346   -109.01317    1.1993716    -107.8138     1558.893    4.4556067    4.4556067    4.4556067     1558.893   -39977.556   -17409.946    62064.181   -25393.913    35455.178   -9538.6989    88.454626 
   32600     2073.822   -109.66597    1.8764377   -107.78953    63507.776    4.4326358    4.4326358    4.4326358    63507.776    64142.637    18611.336    107769.36    7963.7688    -3369.351    421.55193    87.093582 
   32700    689.92927   -108.50255    0.6242625   -107.87829    26042.137    4.4610963    4.4610963    4.4610963    26042.137    22384.094    -315.3591    56057.677   -20485.016    32637.506    2720.5673    88.781973 
   32800    2300.4363   -109.86479    2.0814831   -107.78331   -35681.563    4.5078676    4.5078676    4.5078676   -35681.563   -27416.474   -78303.301   -1324.9128   -3516.8466   -6101.6457   -10063.472    91.603794 
   32900    1715.6239   -109.30279    1.5523325   -107.75045   -40199.709    4.4824437    4.4824437    4.4824437   -40199.709   -32483.214   -33781.331   -54334.581   -16862.799     12652.42    32321.233    90.062612 
   33000     1659.513   -109.23039    1.5015623   -107.72883    19053.963    4.4322768    4.4322768    4.4322768    19053.963    14461.954    40498.896    2201.0376   -24025.615     3012.319   -1413.7867     87.07242 
   33100    2343.3346   -109.90317    2.1202984   -107.78287    15697.892    4.4404038    4.4404038    4.4404038    15697.892    13524.689    36674.197   -3105.2111    14439.184    -4335.012    -491.4445    87.552268 
   33200    1404.8851   -109.09943    1.2711696   -107.82826   -23340.202    4.4580311    4.4580311    4.4580311   -23340.202   -7796.9717   -46022.162   -16201.471   -7884.2882    12519.924    14568.382    88.599097 
   33300    2047.2138   -109.66621    1.8523621   -107.81385    6831.4582    4.4683411    4.4683411    4.4683411    6831.4582   -1917.4994   -19813.205    42225.079   -12707.646   -9813.5603   -7503.0585    89.215222 
   33400    1651.4319   -109.27915    1.4942503    -107.7849   -45692.035    4.4839483    4.4839483    4.4839483   -45692.035   -75945.453   -54110.016   -7020.6349    11531.313    2756.1208    8323.7682    90.153336 
   33500    1815.9518   -109.41497    1.6431113   -107.77186   -19788.053    4.4612994    4.4612994    4.4612994   -19788.053   -35743.435   -13628.861   -9991.8641   -24846.884    20521.479    8796.4026    88.794098 
   33600    2079.4317   -109.64337    1.8815135   -107.76185    27069.722    4.4363203    4.4363203    4.4363203    27069.722    46743.504    21249.103     13216.56    27677.386    12645.096    9887.7213    87.310943 
   33700    2146.0622   -109.74124    1.9418022   -107.79944    8257.2534    4.4414711    4.4414711    4.4414711    8257.2534    21768.117    18923.859   -15920.216   -15166.394    27763.263    14738.288    87.615415 
   33800    1468.8446   -109.14111    1.3290415   -107.81206    26474.235     4.464642     4.464642     4.464642    26474.235     70430.35   -11241.088    20233.442    11805.706    22331.655   -4679.7487    88.993837 
   33900     1408.421    -109.0688    1.2743689   -107.79443   -7100.6423    4.4840035    4.4840035    4.4840035   -7100.6423    44840.229   -56225.002   -9917.1538    18122.987   -1359.7436    31805.944    90.156662 
   34000     2038.469   -109.59652    1.8444495   -107.75207   -35966.217    4.4794528    4.4794528    4.4794528   -35966.217   -11212.549   -39191.337   -57494.763    8357.1447    17551.414    5376.2041    89.882451 
   34100    1950.1543   -109.50911    1.7645406   -107.74457    546.59012    4.4565232    4.4565232    4.4565232    546.59012   -440.41719   -43332.173    45412.361    44876.526   -12774.187   -12717.728     88.50922 
   34200    2080.7937   -109.63552    1.8827459   -107.75277    17981.348    4.4416266    4.4416266    4.4416266    17981.348    2954.4372    58718.247   -7728.6401   -32732.302     5967.901    27596.273     87.62462 
   34300    1102.1427   -108.79219   0.99724186   -107.79494      5947.48    4.4528604    4.4528604    4.4528604      5947.48   -19301.667    1304.8302    35839.276    40537.836    32885.707   -5291.5171    88.291164 
   34400    2047.3117   -109.64348    1.8524506   -107.79103    7487.6059    4.4844828    4.4844828    4.4844828    7487.6059    23365.899   -11086.661    10183.579   -14615.401    5028.4637    7592.8605    90.185577 
   34500    1086.1993   -108.74327   0.98281594   -107.76046     -238.075    4.5035891    4.5035891    4.5035891     -238.075   -30239.546   -16373.226    45898.547    23205.429    32277.816   -831.90186    91.343212 
   34600    2665.9901    -110.0996    2.4122439   -107.68735   -13727.078    4.4845673    4.4845673    4.4845673   -13727.078    -32800.61    -52112.52    43731.895   -24538.425   -12211.742    13115.796    90.190676 
   34700     1463.065   -109.02243    1.3238119   -107.69861   -10415.812    4.4563992    4.4563992    4.4563992   -10415.812   -35954.318    838.79765    3868.0838    28760.962    35563.643   -6607.8621    88.501834 
   34800    1658.5474   -109.24659    1.5006885    -107.7459    20643.221    4.4551994    4.4551994    4.4551994    20643.221   -30770.255    6583.1452    86116.772    17083.128   -17672.952    11222.788    88.430367 
   34900    1770.5741   -109.38743    1.6020527   -107.78538   -12545.182    4.4613628    4.4613628    4.4613628   -12545.182   -38215.709    50986.221   -50406.057   -5400.7907    42608.729     3620.331    88.797885 
   35000    1857.8232   -109.47951    1.6809974   -107.79851    1420.4953    4.4510173    4.4510173    4.4510173    1420.4953    16503.826    5706.4243   -17948.765    25844.011    13758.694    1292.0218    88.181575 
   35100    2037.5471    -109.6507    1.8436154   -107.80708   -11414.025    4.4604831    4.4604831    4.4604831   -11414.025    -18848.11    17407.852   -32801.818   -4226.6618    2357.6265   -18333.626     88.74537 
   35200    1331.1983   -109.00994    1.2044962   -107.80544    1144.5833    4.4627952    4.4627952    4.4627952    1144.5833   -45375.956    75285.668   -26475.962    23180.895    34230.947   -4942.5975    88.883446 
   35300    2141.7841   -109.72672    1.9379313   -107.78878     20859.69    4.4578329    4.4578329    4.4578329     20859.69    53669.616    23528.441   -14618.987    16342.587    -11176.69   -6447.5139     88.58728 
   35400    1537.0696   -109.19129    1.3907729   -107.80051    -25932.74    4.4729823    4.4729823    4.4729823    -25932.74   -49896.034    48078.632   -75980.818   -19942.357      32956.1   -10088.298     89.49351 
   35500    2096.3813   -109.67171    1.8968498   -107.77486     -17203.3    4.4627221    4.4627221    4.4627221     -17203.3    6967.8264   -15100.051   -43477.676   -4298.5086   -5110.9984    26427.042    88.879074 
   35600    2204.5975   -109.77122    1.9947661   -107.77645    2323.7449    4.4532216    4.4532216    4.4532216    2323.7449    3852.9113    34647.002   -31528.679    13166.997   -3800.7646    5226.6094    88.312649 
   35700    1586.9937   -109.24227    1.4359453   -107.80632    -3899.921    4.4675669    4.4675669    4.4675669    -3899.921   -7000.7425    6720.5802   -11419.601   -24368.244   -6120.4839    9311.8983    89.168857 
   35800    2119.1542   -109.70177    1.9174553   -107.78432   -28944.506    4.4921995    4.4921995    4.4921995   -28944.506   -12322.768   -58348.133   -16162.616   -8497.2662   -4791.3975    12452.854    90.651939 
   35900    1353.9939   -108.99375    1.2251222   -107.76863   -19068.496    4.4829543    4.4829543    4.4829543   -19068.496     9275.547   -11326.039   -55154.995   -15897.535    17843.576   -16179.431     90.09339 
   36000    2447.0556   -109.98064    2.2141473   -107.76649   -6054.0649    4.4536028    4.4536028    4.4536028   -6054.0649    40166.838   -35696.446   -22632.586   -8840.3196   -7366.6571    6360.9102    88.335333 
   36100    1762.8512   -109.37353    1.5950649   -107.77847    38023.736    4.4252954    4.4252954    4.4252954    38023.736    79220.416    30455.504    4395.2886    41345.614    27432.108    352.11905    86.661618 
   36200    1524.8342    -109.2076    1.3797021    -107.8279    16423.033    4.4421301    4.4421301    4.4421301    16423.033    61315.859    12266.224   -24312.984   -20207.853   -925.75759   -6358.4527    87.654421 
   36300    1817.9196   -109.45326    1.6448919   -107.80837   -29935.478    4.4786877    4.4786877    4.4786877   -29935.478   -19102.179   -63031.326   -7672.9294    51338.659   -1710.7528    4727.6747    89.836401 
   36400    1886.4079   -109.47799    1.7068616   -107.77113    10017.288    4.4741872    4.4741872    4.4741872    10017.288    82119.166   -31071.688   -20995.614    10897.595    40281.008   -2814.7699    89.565851 
   36500    1891.8361   -109.48344    1.7117731   -107.77166   -32498.535    4.4650376    4.4650376    4.4650376   -32498.535   -45677.061    -34586.34   -17232.204    14415.867   -24633.791     5456.222    89.017492 
   36600    1460.7842   -109.11871    1.3217482   -107.79697   -4507.3521    4.4333438    4.4333438    4.4333438   -4507.3521   -18834.839   -40076.935    45389.718    63802.651   -12724.719    1064.7216    87.135319 
   36700    2111.7394   -109.71817    1.9107462   -107.80742     51760.31    4.4220778    4.4220778    4.4220778     51760.31    94443.829    14618.746    46218.354   -21167.663    19286.451   -5637.2908    86.472725 
   36800    1195.6364    -108.9269    1.0818369   -107.84506   -30054.827    4.4687365    4.4687365    4.4687365   -30054.827   -92806.822   -23414.966    26057.307    51653.041   -40360.668   -5182.7967    89.238906 
   36900    2261.0176   -109.82483    2.0458162   -107.77901   -13306.177    4.4742632    4.4742632    4.4742632   -13306.177    9732.9961   -47206.904   -2444.6225   -26428.524    7711.6639   -12795.063    89.570416 
   37000    1464.1511   -109.10246    1.3247947   -107.77766    13035.241    4.4682552    4.4682552    4.4682552    13035.241     67117.69   -43748.783    15736.816     25494.32    3188.4655    7251.2425    89.210077 
   37100    2174.8554   -109.73623    1.9678549   -107.76837     -6220.97    4.4550396    4.4550396    4.4550396     -6220.97   -14439.253   -50761.873    46538.216   -23826.217   -391.49786    -1016.666    88.420853 
   37200    1288.2495    -108.9566    1.1656352   -107.79097    16719.431    4.4327817    4.4327817    4.4327817    16719.431    75766.996   -47203.731    21595.028   -28424.615   -9361.9387   -4809.6363    87.102183 
   37300    2489.7365   -110.06597    2.2527659   -107.81321    3863.4491    4.4497874    4.4497874    4.4497874    3863.4491   -7428.0423   -18902.326    37920.716    13641.768   -11850.628   -4827.2454    88.108497 
   37400    1078.8892   -108.79313   0.97620165   -107.81693    7175.8683    4.4769404    4.4769404    4.4769404    7175.8683     30359.05   -51566.719    42735.274   -40015.463    18166.207    712.07441    89.731297 
   37500     1899.872   -109.48242    1.7190441   -107.76337    12996.238    4.4801133    4.4801133    4.4801133    12996.238      65680.6   -19890.907   -6800.9775    20965.985    12160.933   -10348.597    89.922211 
   37600    2012.0551   -109.58247    1.8205497   -107.76192    166.69453    4.4535435    4.4535435    4.4535435    166.69453   -33611.022    9711.4231    24399.682   -42030.311    5997.6635    5274.5545    88.331802 
   37700    2100.1785    -109.6692    1.9002856   -107.76891    8146.3001    4.4335469    4.4335469    4.4335469    8146.3001    16960.257   -11975.027     19453.67   -15009.412     2219.631   -27719.832    87.147296 
   37800     1925.377   -109.54896    1.7421216   -107.80684    31488.751    4.4533376    4.4533376    4.4533376    31488.751    40705.376    10645.739    43115.137    6194.3094   -1146.3191   -271.47467    88.319551 
   37900    1442.8396   -109.12629    1.3055116   -107.82078   -27949.674    4.4721304    4.4721304    4.4721304   -27949.674   -48178.168   -31989.345   -3681.5101   -21393.731   -8505.9909    3834.9389    89.442384 
   38000    2365.5528   -109.93317    2.1404019   -107.79277   -7468.3668    4.4598317    4.4598317    4.4598317   -7468.3668    14399.131    18459.884   -55264.115    545.56951    9291.7081    -8657.127    88.706492 
   38100    1357.2515   -109.03539    1.2280697   -107.80732    3976.4497    4.4501569    4.4501569    4.4501569    3976.4497    1110.7364   -6515.5896    17334.202    3353.3657    3870.5035    12790.196    88.130449 
   38200    1915.0437   -109.54961    1.7327718   -107.81684   -9171.3583     4.451008     4.451008     4.451008   -9171.3583   -60972.947    16428.817    17030.055   -16926.366   -5601.9539    4896.3811    88.181022 
   38300    2656.9993     -110.218    2.4041088   -107.81389    3808.1581    4.4575851    4.4575851    4.4575851    3808.1581    19899.476    14530.468   -23005.469    1936.4752   -3446.5192   -10361.759    88.572507 
   38400    1391.8884   -109.08776    1.2594098   -107.82835    18049.738    4.4559309    4.4559309    4.4559309    18049.738    -21732.13    36736.726    39144.618    6980.7636    7044.2964    13055.673    88.473937 
   38500    2076.3655   -109.69255    1.8787391   -107.81381   -11921.869    4.4521188    4.4521188    4.4521188   -11921.869   -25182.182    37515.368   -48098.794   -10093.813   -13266.849   -24563.251    88.247056 
   38600    2078.2496   -109.69529    1.8804439   -107.81484    58.316163    4.4477733    4.4477733    4.4477733    58.316163    32795.807    2531.1824   -35152.041    10879.382    1421.2497   -41510.654    87.988909 
   38700    1882.4706   -109.52812     1.703299   -107.82482   -15436.094    4.4605126    4.4605126    4.4605126   -15436.094   -49381.966     15755.29   -12681.606   -12587.202   -13436.738    13137.895    88.747127 
   38800    1815.2829   -109.45826    1.6425061   -107.81576   -35243.146     4.471618     4.471618     4.471618   -35243.146   -39330.474    -8863.713   -57535.251   -21215.753   -11345.669   -35363.833    89.411646 
   38900    2145.8368   -109.74442    1.9415982   -107.80282   -4214.9087    4.4494184    4.4494184    4.4494184   -4214.9087   -37266.383    39429.457     -14807.8    29547.221    -92.66047    11177.171    88.086576 
   39000    1360.4665   -109.05324    1.2309786   -107.82226    22685.258    4.4335655    4.4335655    4.4335655    22685.258   -19791.991     48252.07    39595.696   -14588.165    3960.2396    10023.379    87.148392 
   39100    2264.3855   -109.87517    2.0488636    -107.8263    21000.384    4.4484559    4.4484559    4.4484559    21000.384    4732.6971    64199.677   -5931.2237   -17730.123    493.07413   -6838.4708    88.029428 
   39200    1524.6942   -109.20634    1.3795753   -107.82676   -20689.744    4.4758109    4.4758109    4.4758109   -20689.744   -24694.987    14580.374   -51954.618    14177.138   -1854.7417    26996.901      89.6634 
   39300    1573.4914   -109.21956    1.4237281   -107.79583   -33399.952    4.4809058    4.4809058    4.4809058   -33399.952   -87897.684   -4668.4566   -7633.7152   -27329.288    -9444.597   -3020.1225    89.969943 
   39400    2143.3825   -109.71926    1.9393775   -107.77989    43925.501    4.4317169    4.4317169    4.4317169    43925.501    7088.8763    95827.905    28859.722   -1884.9565    8128.2753    13431.434    87.039426 
   39500     1574.177   -109.22521    1.4243484   -107.80086    49931.043    4.4158339    4.4158339    4.4158339    49931.043    10427.536    70706.809    68658.784   -4306.6042   -6882.5925    4382.0296    86.106945 
   39600    1927.2374   -109.57566    1.7438049   -107.83186    11986.569    4.4556495    4.4556495    4.4556495    11986.569   -51065.153    51410.007    35614.852    -10842.96    6622.0189    15358.441    88.457175 
   39700    1862.5152   -109.48562    1.6852429   -107.80038   -27945.421    4.4817316    4.4817316    4.4817316   -27945.421   -70593.159   -54186.188    40943.083   -14496.706    10208.278    4100.6402    90.019695 
   39800    1496.8768   -109.14463    1.3544056   -107.79023   -37181.072     4.467069     4.467069     4.467069   -37181.072   -91431.742   -52973.399    32861.926   -25512.033   -5961.3186    398.30372    89.139049 
   39900    2389.3206   -109.92844    2.1619075   -107.76653    21805.506    4.4316608    4.4316608    4.4316608    21805.506    1277.9519    47204.775     16933.79    32117.376    6138.8471    15754.055    87.036121 
   40000    1401.9597   -109.08623    1.2685226   -107.81771     19712.82    4.4329536    4.4329536    4.4329536     19712.82   -24956.083   -9362.6045    93457.147   -64279.378   -4347.6852    5070.5767    87.112316 
   40100    1863.7023   -109.52546     1.686317   -107.83915   -11030.481    4.4567433    4.4567433    4.4567433   -11030.481   -54909.328    8164.9386    13652.948     4266.776   -8620.9419   -5483.7607    88.522335 
   40200    1861.1254   -109.51543    1.6839853   -107.83145   -3669.2099     4.468265     4.468265     4.468265   -3669.2099   -18242.577    43355.583   -36120.636    20510.896    6619.8959   -9959.2547    89.210661 
   40300    1565.0103   -109.25187    1.4160542   -107.83581      10475.5    4.4557164    4.4557164    4.4557164      10475.5   -19800.647    13303.732    37923.415   -38979.967    5258.0656   -744.54135    88.461159 
   40400    1748.6782   -109.40722    1.5822408   -107.82498    31388.549    4.4439064    4.4439064    4.4439064    31388.549   -38587.353     30092.96    102660.04    27348.755    -273.7512    13342.314    87.759615 
   40500     2160.709   -109.79322    1.9550549   -107.83816   -10244.966    4.4474292    4.4474292    4.4474292   -10244.966   -25984.923   -16756.701    12006.725   -6368.1161   -2728.1143   -31926.521    87.968488 
   40600    1559.1077   -109.26191    1.4107134    -107.8512    14428.138    4.4503082    4.4503082    4.4503082    14428.138   -27998.626    14509.133    56773.908   -20818.683    587.93712    12245.475    88.139435 
   40700    1705.5077   -109.40725    1.5431792   -107.86407     6341.511    4.4567029    4.4567029    4.4567029     6341.511   -65064.908    46397.535    37691.907    19830.554    13782.143   -7952.5364    88.519927 
   40800    2280.0723   -109.91069    2.0630573   -107.84763    -209.8991    4.4603846    4.4603846    4.4603846    -209.8991   -27019.784   -8508.7588    34898.845    -4446.878   -8734.7818    9008.3693     88.73949 
   40900    1340.2539    -109.0584    1.2126899   -107.84571    26583.543    4.4582648    4.4582648    4.4582648    26583.543   -22281.889    49537.727     52494.79   -7501.6597    11462.502    7897.3865    88.613029 
   41000    1949.8323    -109.5845    1.7642493   -107.82025   -13641.431    4.4619803    4.4619803    4.4619803   -13641.431   -79262.306    26936.759    11401.253    14537.137     -4074.58   -5808.6646     88.83476 
   41100     2691.125   -110.23251    2.4349865   -107.79753    12280.393    4.4537518    4.4537518    4.4537518    12280.393   -10641.482    14417.176    33065.486    3130.5426    1708.5645    23795.589    88.344195 
   41200    679.28481   -108.46227   0.61463117   -107.84764    19497.183    4.4533893    4.4533893    4.4533893    19497.183    -33448.85      79931.1    12009.298    13152.893   -14108.602   -7845.4569    88.322629 
   41300    1362.3696   -109.07967    1.2327007   -107.84697   -4062.7183    4.4581312    4.4581312    4.4581312   -4062.7183   -66547.635    35569.377    18790.104    16183.549    -22535.83     15989.14    88.605062 
   41400    2747.9022   -110.30787    2.4863597   -107.82151    4044.6964    4.4584118    4.4584118    4.4584118    4044.6964   -34509.653    3037.0738    43606.668    2972.3013    6248.3837   -2183.8206    88.621793 
   41500    1025.0426   -108.76314   0.92748007   -107.83566    3151.4619    4.4702717    4.4702717    4.4702717    3151.4619   -55934.818    85732.145   -20342.941    951.50751   -10253.561   -9565.7625     89.33091 
   41600    1716.6961   -109.36772    1.5533027   -107.81442    4003.9599    4.4676649    4.4676649    4.4676649    4003.9599   -18070.832   -14891.851    44974.563   -14098.554     13493.04     8585.659    89.174724 
   41700    2444.0287   -110.01211    2.2114085    -107.8007    18927.095    4.4459513    4.4459513    4.4459513    18927.095   -25825.955   -11979.643    94586.885    -1813.722    9101.8159    22508.576     87.88082 
   41800    1869.5797   -109.52856     1.691635   -107.83692   -3609.8994    4.4333593    4.4333593    4.4333593   -3609.8994   -48445.318   -5893.2346    43508.854    6080.6594    10519.229   -13376.924    87.136234 
   41900    1155.4138   -108.93537    1.0454427   -107.88993   -9174.6766    4.4424015    4.4424015    4.4424015   -9174.6766   -16934.181   -20027.417    9437.5685   -7471.1884    28807.527    10738.068    87.670489 
   42000    2227.4385   -109.90593    2.0154332    -107.8905    -11259.08    4.4642907    4.4642907    4.4642907    -11259.08    -29752.38   -64913.629    60888.769    10910.968   -503.94992   -14721.427    88.972831 
   42100    2294.5254   -109.94192    2.0761348   -107.86579   -2398.6212    4.4604315    4.4604315    4.4604315   -2398.6212   -34989.049   -54240.073    82033.258    2850.1373   -10363.712    7840.7254    88.742288 
   42200    1323.7867   -109.06467      1.19779   -107.86688    8042.0463     4.432415     4.432415     4.432415    8042.0463    8804.4476   -10506.207    25827.898   -3921.9656    7199.7879    13945.755    87.080566 
   42300    843.12172   -108.65738   0.76287425   -107.89451   -19870.593    4.4304901    4.4304901    4.4304901   -19870.593    11412.391    -35029.23    -35994.94    22608.173   -3165.5456   -20766.783    86.967166 
   42400    2678.7471   -110.31183    2.4237867   -107.88805    5924.2979    4.4453827    4.4453827    4.4453827    5924.2979    17445.378   -24406.461    24733.976    9637.4422   -553.69681    4008.3411    87.847108 
   42500    1901.2781   -109.59144    1.7203164   -107.87113   -9464.3086     4.468386     4.468386     4.468386   -9464.3086    414.15708   -32606.134    3799.0505   -4994.0979   -6331.4271   -140.76605    89.217913 
   42600    659.95686   -108.45569   0.59714284   -107.85855    8052.8813    4.4530924    4.4530924    4.4530924    8052.8813    20520.474   -6266.6579    9904.8274   -516.51096   -2076.0249   -800.46673    88.304963 
   42700    2301.1662   -109.91018    2.0821435   -107.82804    14295.819    4.4383511    4.4383511    4.4383511    14295.819    3996.8977   -6825.0539    45715.614   -12420.822    5732.4432    26837.381    87.430906 
   42800    2179.3465   -109.80739    1.9719185   -107.83547    15484.663    4.4540056    4.4540056    4.4540056    15484.663   -31013.392   -1040.7338    78508.114     11958.31   -4910.8898   -249.86215    88.359299 
   42900    839.81392   -108.59357   0.75988129   -107.83369   -26820.137    4.4860679    4.4860679    4.4860679   -26820.137   -38594.251   -14829.165   -27036.995   -6710.2253    1657.6927    8745.1058    90.281241 
   43000    1473.1058   -109.14305     1.332897   -107.81015   -45705.081    4.4734859    4.4734859    4.4734859   -45705.081    -61676.56   -40884.757   -34553.926    19352.495    1967.1764   -2629.5486    89.523742 
   43100    2853.4475   -110.36996    2.5818593    -107.7881    14346.283    4.4273072    4.4273072    4.4273072    14346.283   -24414.606   -14643.462    82096.918    20731.788   -16569.592   -7676.7018    86.779868 
   43200    2274.2367   -109.88438    2.0577772    -107.8266    19373.895    4.4292363    4.4292363    4.4292363    19373.895    16164.514   -6815.6505    48772.821   -13105.911    8218.0941   -11946.262    86.893349 
   43300    957.23075   -108.74266    0.8661225   -107.87654     -3407.44    4.4630169    4.4630169    4.4630169     -3407.44   -60716.246   -28995.496    79489.422    30198.003    3481.6936   -5595.8641     88.89669 
   43400    1959.9171   -109.61898    1.7733742    -107.8456   -19993.612    4.4763782    4.4763782    4.4763782   -19993.612   -82340.786    23.172847    22336.778   -1521.0348   -12792.429   -1949.3771    89.697495 
   43500    2236.1157   -109.84621    2.0232845   -107.82293    17514.568    4.4497897    4.4497897    4.4497897    17514.568   -9561.2398     11956.44    50148.503     4491.966   -3740.0903    -20999.52    88.108631 
   43600    1159.5201   -108.87635    1.0491581   -107.82719     35868.32    4.4290453    4.4290453    4.4290453     35868.32   -23890.201    111173.39    20321.774    41588.721    2806.3568    976.26532    86.882109 
   43700    1892.8711   -109.56036    1.7127095   -107.84765    14894.462    4.4525951    4.4525951    4.4525951    14894.462   -13848.769    54141.666    4390.4878    -2562.289   -6092.0476   -11175.159    88.275385 
   43800    1734.5814   -109.38045    1.5694857   -107.81096   -26418.215     4.488155     4.488155     4.488155   -26418.215   -56886.285   -46177.091    23808.733    1052.0385    -7227.073   -11422.831    90.407312 
   43900    1572.3107   -109.19618    1.4226598   -107.77352    -25146.51    4.4803992    4.4803992    4.4803992    -25146.51   -42141.031    10355.165   -43653.662   -4604.6945    3047.5843    12204.293    89.939429 
   44000    2121.1125   -109.68028    1.9192272   -107.76106   -6556.8766    4.4369952    4.4369952    4.4369952   -6556.8766    880.75826   -40987.643    20436.254   -35449.454    4522.5902    12165.675    87.350795 
   44100    2186.1796    -109.7635    1.9781012    -107.7854    4969.5522    4.4156242    4.4156242    4.4156242    4969.5522   -18843.087   -12790.079    46541.822    3568.1191   -19162.327   -4098.0409     86.09468 
   44200    1959.9602    -109.6264    1.7734132   -107.85299   -3048.5441    4.4454266    4.4454266    4.4454266   -3048.5441    3010.1311    5699.2931   -17855.057   -12028.913   -1195.9135    4784.7361    87.849708 
   44300    1427.9475   -109.13111    1.2920369   -107.83907   -51053.419    4.4751963    4.4751963    4.4751963   -51053.419   -46417.083   -97887.936   -8855.2383   -47011.047     1955.178     8666.272    89.626464 
   44400    1789.1398   -109.42764    1.6188512   -107.80879   -7026.8981    4.4562002    4.4562002    4.4562002   -7026.8981    2554.8508   -39125.973    15490.428    21230.913   -17681.696   -1120.2576    88.489975 
   44500    2543.4681   -110.08639    2.3013834   -107.78501   -2826.2762    4.4507196    4.4507196    4.4507196   -2826.2762    9051.1261   -11970.229   -5559.7256    -19225.33    9624.2473   -8820.1799     88.16388 
   44600    1162.4925   -108.85749    1.0518476   -107.80565   -28685.938     4.455642     4.455642     4.455642   -28685.938   -53500.543   -70785.782    38228.513   -23001.441   -26761.169    17405.687    88.456725 
   44700    2460.9795   -110.01014     2.226746   -107.78339   -20764.558    4.4527129    4.4527129    4.4527129   -20764.558   -2016.5007   -43434.007   -16843.166    16181.872    18308.066     1522.814    88.282391 
   44800     1389.904   -109.05764    1.2576143   -107.80003   -23334.677    4.4600619    4.4600619    4.4600619   -23334.677   -46770.193   -33953.041    10719.202   -25188.206    4393.0604    8132.2684    88.720231 
   44900    1883.2558   -109.48033    1.7040094   -107.77632     5121.306    4.4579239    4.4579239    4.4579239     5121.306   -39485.071   -38770.085    93619.074   -6830.0177    1475.8303   -12939.376    88.592701 
   45000     1374.211   -109.02623     1.243415   -107.78281    3305.8146    4.4558818    4.4558818    4.4558818    3305.8146   -19624.025    14791.087    14750.381   -3894.7243    11199.075   -21680.992    88.471012 
   45100    1894.0934   -109.48969    1.7138155   -107.77588     9264.641    4.4563621    4.4563621    4.4563621     9264.641   -9165.9629   -21269.341    58229.227   -14521.211   -18133.261    2572.9449    88.499621 
   45200    1932.3995   -109.52813    1.7484757   -107.77966    -1181.347    4.4665095    4.4665095    4.4665095    -1181.347     -9042.42    3818.5223    1679.8567    4620.7061    36069.252   -30254.341    89.105556 
   45300    1481.7379   -109.11667    1.3407076   -107.77597   -26415.072    4.4727225    4.4727225    4.4727225   -26415.072   -50567.017     15119.15   -43797.349   -37438.091   -4108.6027    21847.175    89.477917 
   45400    2186.9594   -109.73308    1.9788068   -107.75428   -2199.0988    4.4487628    4.4487628    4.4487628   -2199.0988    1305.2602    8912.3089   -16814.866    12.925671   -3664.3723    8858.9171    88.047648 
   45500    1567.7749    -109.2071    1.4185557   -107.78854   -5845.6649    4.4364271    4.4364271    4.4364271   -5845.6649   -25652.904    46904.081   -38788.172   -13050.191    7339.7356   -24441.773    87.317248 
   45600    2732.7146   -110.27406    2.4726176   -107.80144   -1376.7818    4.4439955    4.4439955    4.4439955   -1376.7818   -17264.395    19273.937   -6139.8879    584.80869     -18524.9    26062.449    87.764896 
   45700    1247.5358   -108.96057    1.1287966   -107.83177   -16722.003    4.4615238    4.4615238    4.4615238   -16722.003   -9856.2606   -12412.678   -27897.071    16993.729    22001.047    2631.1102    88.807502 
   45800    2228.1683   -109.80427    2.0160935   -107.78817    -31327.13    4.4652428    4.4652428    4.4652428    -31327.13   -43514.051    2010.3549   -52477.693   -16218.283    23416.531   -20125.193    89.029765 
   45900    1614.7808   -109.23563    1.4610876   -107.77454    914.66017    4.4456522    4.4456522    4.4456522    914.66017   -4316.6695    10229.395   -3168.7447    18569.219    -21752.27    20942.314    87.863087 
   46000    1562.7308   -109.21346    1.4139917   -107.79947    8595.8231     4.448517     4.448517     4.448517    8595.8231    53689.071    4613.3232   -32514.925   -7721.3752    10487.177   -20405.772    88.033055 
   46100    2181.2075   -109.77158    1.9736024   -107.79797   -4070.6951    4.4467285    4.4467285    4.4467285   -4070.6951   -45515.357    38452.626   -5149.3537    797.81349   -10174.968   -8404.8225    87.926915 
   46200    1473.5684   -109.15558    1.3333156   -107.82227     13530.96    4.4436657    4.4436657    4.4436657     13530.96    56943.163   -34865.712     18515.43    21551.296    308.39385    29499.682    87.745355 
   46300    2421.2415   -109.99105    2.1907902   -107.80026    -9297.872    4.4580919    4.4580919    4.4580919    -9297.872   -21433.553   -21118.591    14658.528   -20045.265    267.41229   -15113.512    88.602719 
   46400    986.61606   -108.70161   0.89271094    -107.8089    28731.343    4.4433256    4.4433256    4.4433256    28731.343    -7987.884    67696.523    26485.389    1499.0614   -25830.075      8383.37    87.725212 
   46500    2199.2846   -109.78295    1.9899589   -107.79299    13257.126    4.4506095    4.4506095    4.4506095    13257.126    17845.278   -12840.131    34766.231   -1086.1411    11053.284    4944.4887    88.157338 
   46600    1651.4402   -109.28186    1.4942578    -107.7876   -21643.236    4.4664623    4.4664623    4.4664623   -21643.236   -46235.988   -30515.382    11821.663    16549.612    38.443203   -18449.128    89.102734 
   46700    2320.0641   -109.85369    2.0992428   -107.75444    2326.0817    4.4602486    4.4602486    4.4602486    2326.0817    11601.403    10839.207   -15462.366    2295.6422    -3850.062   -849.25574    88.731373 
   46800    937.07763   -108.61883   0.84788753   -107.77094    19047.032    4.4516113    4.4516113    4.4516113    19047.032   -23236.937    30201.215    50176.819    31064.315    36554.844    2340.6464    88.216883 
   46900    2119.2093   -109.67705    1.9175051   -107.75955    3280.9622    4.4528193    4.4528193    4.4528193    3280.9622   -12147.636     8472.709    13517.813    4344.8186   -13613.693   -7833.9662    88.288721 
   47000    2044.2228   -109.61955    1.8496558   -107.76989   -9202.4974    4.4550767    4.4550767    4.4550767   -9202.4974   -26547.723    25072.155   -26131.923    6173.1034    49462.059   -12748.268    88.423064 
   47100    1956.1939   -109.55207    1.7700054   -107.78207   -9280.3953    4.4646335    4.4646335    4.4646335   -9280.3953   -34773.041   -8863.3749     15795.23     16910.64   -15188.073    13677.465    88.993329 
   47200    2037.1146   -109.61415    1.8432241   -107.77093   -1382.7877    4.4627671    4.4627671    4.4627671   -1382.7877   -4382.9076   -9230.3803    9464.9249   -13870.683    18309.429   -4462.2332    88.881767 
   47300    1598.9254   -109.22335    1.4467413   -107.77661    15215.494    4.4372698    4.4372698    4.4372698    15215.494    -6687.316    27803.826    24529.972     27917.69    30737.698    3551.8687    87.367016 
   47400    1850.9465   -109.47032    1.6747753   -107.79554    20171.354    4.4360204    4.4360204    4.4360204    20171.354    44195.371    15763.394    555.29565    23421.451   -20873.418    -25664.99     87.29324 
   47500    2065.5047   -109.67723    1.8689121   -107.80831    15500.356    4.4459636    4.4459636    4.4459636    15500.356    7474.2104    61631.697   -22604.838   -7375.3505    28997.576   -10915.693     87.88155 
   47600    1291.0851   -108.98368    1.1682009   -107.81547   -218.74756    4.4618206    4.4618206    4.4618206   -218.74756    -12471.09    21850.469   -10035.622     64375.57   -7504.6099    14130.956    88.825227 
   47700    2436.0838   -109.98916    2.2042199   -107.78494   -27434.797    4.4691603    4.4691603    4.4691603   -27434.797   -11518.527   -3473.1251   -67312.738   -19835.522    21213.196   -9086.9765    89.264298 
   47800    1356.7575   -109.01373    1.2276227   -107.78611   -14890.901    4.4500173    4.4500173    4.4500173   -14890.901   -36936.406   -24280.091    16543.794    41695.113    10031.916    20034.585    88.122152 
   47900    1975.8563   -109.56427    1.7877963   -107.77648     15475.06    4.4280737    4.4280737    4.4280737     15475.06   -6807.5184    50347.291    2885.4065    14110.629   -36265.479    17547.919    86.824947 
   48000    2202.6279   -109.79183     1.992984   -107.79885   -3438.7056    4.4389612    4.4389612    4.4389612   -3438.7056   -6363.6484    2215.4935   -6167.9619     881.7428    185.16813   -11768.888    87.466962 
   48100    880.48915    -108.6346   0.79668508   -107.83792   -1742.5838    4.4553225    4.4553225    4.4553225   -1742.5838   -1114.0766   -22902.203    18788.528    49593.381    2269.9914    11844.323    88.437698 
   48200     2438.933   -110.00319    2.2067978   -107.79639    3145.0429    4.4700756    4.4700756    4.4700756    3145.0429     7744.924    31519.362   -29829.157   -33576.859   -8100.2236    -11420.23    89.319154 
   48300    1504.2935   -109.14992    1.3611164   -107.78881   -52089.277    4.4727506    4.4727506    4.4727506   -52089.277   -54043.213   -67891.312   -34333.305    53956.811    7512.0835    27795.493    89.479604 
   48400    1749.6458   -109.37081    1.5831163    -107.7877   -4583.1692     4.439759     4.439759     4.439759   -4583.1692   -38613.733    12042.651    12821.575    2576.1899   -5734.0087   -1729.7966    87.514132 
   48500    2029.3004   -109.63014    1.8361537   -107.79399    36991.283    4.4198235    4.4198235    4.4198235    36991.283    12319.966    24296.447    74357.436   -11850.074   -3012.0285   -4426.0567    86.340541 
   48600    1617.6521   -109.30464    1.4636856   -107.84095    614.80821    4.4351021    4.4351021    4.4351021    614.80821     3281.242    -46472.37    45035.553    39627.642    12523.375    26714.299    87.239039 
   48700    1877.0027   -109.54446    1.6983515   -107.84611    356.29677    4.4557445    4.4557445    4.4557445    356.29677    -51628.17   -2191.2027    54888.263   -15247.295   -10404.478    -6930.627    88.462833 
   48800    1860.1002   -109.50694    1.6830578   -107.82388   -24263.286    4.4687399    4.4687399    4.4687399   -24263.286   -58456.485   -72209.733    57876.361    12584.831   -13511.081    9210.6602    89.239111 
   48900     1598.257   -109.24284    1.4461365    -107.7967    20268.068     4.446412     4.446412     4.446412    20268.068   -3606.2606     33049.59    31360.873    8780.7915    15002.076      40346.2    87.908141 
   49000     1409.992   -109.06954    1.2757904   -107.79375    13258.488    4.4384653    4.4384653    4.4384653    13258.488   -41106.971    12962.809    67919.627   -12560.261   -12813.994   -5656.4508    87.437651 
   49100    2296.0595   -109.87843    2.0775228   -107.80091     13173.08    4.4471425    4.4471425    4.4471425     13173.08   -19321.427    19306.322    39534.346    13567.181   -2295.7607    6711.2293    87.951478 
   49200    1573.1833    -109.2488    1.4234493   -107.82535    17137.683    4.4406647    4.4406647    4.4406647    17137.683    -17931.53    6898.0309    62446.549   -22721.178   -602.72063    12392.258    87.567701 
   49300    1085.1638   -108.82468   0.98187905    -107.8428   -10092.924    4.4465221    4.4465221    4.4465221   -10092.924   -17485.635   -24392.445     11599.31   -13101.245   -8681.5369   -8356.0334    87.914674 
   49400    2306.1357   -109.89718    2.0866401   -107.81054    14526.003    4.4414559    4.4414559    4.4414559    14526.003     -23050.5   -18962.879    85591.387   -2378.6969   -931.35652    9854.5518    87.614514 
   49500    1377.7858   -109.07845    1.2466495    -107.8318    4609.1382    4.4458285    4.4458285    4.4458285    4609.1382   -44605.841    22368.009    36065.246   -40883.187   -10737.517    15742.655    87.873537 
   49600    2580.7779   -110.14238    2.3351421   -107.80723   -18511.757    4.4587063    4.4587063    4.4587063   -18511.757   -35443.731   -5530.1734   -14561.368    13587.991    12631.064   -7968.3777     88.63936 
   49700    1108.9388   -108.81156    1.0033911   -107.80817   -284.39791    4.4603131    4.4603131    4.4603131   -284.39791   -34033.205   -30821.747    64001.759   -5113.2816   -1480.1263    1988.8051    88.735219 
   49800    2320.8768   -109.87843    2.0999781   -107.77845    -5652.604    4.4599193    4.4599193    4.4599193    -5652.604   -21694.026   -6060.9407    10797.155   -5813.7236   -3136.3499   -2795.2353    88.711718 
   49900    1826.1593   -109.43788    1.6523473   -107.78553   -22098.004    4.4551375    4.4551375    4.4551375   -22098.004   -19201.665   -72201.859    25109.511    8710.9399    1581.1642   -583.94069    88.426681 
   50000    1625.5262    -109.2618    1.4708102   -107.79099   -7827.6466    4.4507794    4.4507794    4.4507794   -7827.6466   -7688.6637   -55857.184    40062.907    2054.2654    -13868.46    8737.6152    88.167435 
   50100     2170.408   -109.73967    1.9638308   -107.77584   -28782.271    4.4596566    4.4596566    4.4596566   -28782.271   -6683.3461   -25494.861   -54168.604    -3099.026    40818.006   -4749.3931    88.696046 
   50200    1356.5922   -109.01465    1.2274732   -107.78718   -28295.468    4.4573963    4.4573963    4.4573963   -28295.468   -64736.267   -43277.775     23127.64    1928.6174   -12922.015    6143.5952     88.56125 
   50300    2464.8007   -110.00075    2.2302034   -107.77055   -129.95946    4.4450721    4.4450721    4.4450721   -129.95946   -3567.2164    9824.8789    -6647.541    2051.8153     16949.33    3201.8963    87.828693 
   50400    926.43676   -108.64458   0.83825945   -107.80632    14394.149    4.4476958    4.4476958    4.4476958    14394.149   -7746.5635     60836.44   -9907.4296   -12008.075    32041.986   -4343.6588    87.984308 
   50500    2026.9634   -109.63407    1.8340391   -107.80004   -9767.9125    4.4572052    4.4572052    4.4572052   -9767.9125   -16784.387   -11495.136   -1024.2143   -5925.2354   -26960.223   -9449.5157    88.549858 
   50600    1846.5919   -109.47484    1.6708351   -107.80401   -3810.6692    4.4549299    4.4549299    4.4549299   -3810.6692   -33636.791    59437.342   -37232.559    5240.1099    65821.996   -6049.6808    88.414322 
   50700    2249.1432   -109.82665     2.035072   -107.79158    24739.085    4.4360925    4.4360925    4.4360925    24739.085    46708.749    3429.2634    24079.243    2343.6351   -21790.891   -42565.829    87.297496 
   50800    1141.0296    -108.8535    1.0324275   -107.82107    2862.0478     4.440745     4.440745     4.440745    2862.0478   -18368.173    10761.755    16192.562   -14559.278    50422.015    8899.0787    87.572453 
   50900    2353.6437    -109.9402    2.1296263   -107.81057    -15579.28    4.4575566    4.4575566    4.4575566    -15579.28   -11218.753    -38010.44    2491.3523     13797.33   -1482.1044   -10280.174    88.570805 
   51000    1671.6461   -109.32284    1.5125405    -107.8103   -19662.112    4.4613413    4.4613413    4.4613413   -19662.112   -28653.537   -25196.114   -5136.6848   -21593.829    24539.338   -21349.438    88.796604 
   51100    1669.6722   -109.31996    1.5107545    -107.8092   -14077.941     4.442937     4.442937     4.442937   -14077.941   -19275.505    -19578.03   -3380.2882   -15768.541     30189.97    30835.947    87.702193 
   51200    2335.6243   -109.90823     2.113322    -107.7949    35370.854     4.424235     4.424235     4.424235    35370.854    42530.557   -8979.6452    72561.651    20861.678   -14322.312   -12833.808    86.599338 
   51300    1403.6903   -109.10613    1.2700885   -107.83604   -7623.6233    4.4417593    4.4417593    4.4417593   -7623.6233   -41288.025    48945.135   -30527.979   -28346.426    30640.828   -570.99306     87.63247 
   51400    1784.7936   -109.43283    1.6149187   -107.81791   -19641.706    4.4598759    4.4598759    4.4598759   -19641.706   -13143.395    -36214.92   -9566.8014    22578.415   -11688.651    24899.247    88.709132 
   51500    2239.5121   -109.82001    2.0263576   -107.79366   -19124.182    4.4569941    4.4569941    4.4569941   -19124.182   -30708.222   -26948.722    284.39838    135.31406    22303.952   -6770.9026     88.53728 
   51600    1328.7175   -109.00996    1.2022515   -107.80771   -8451.0479    4.4382406    4.4382406    4.4382406   -8451.0479     8044.781   -21925.159   -11472.766   -22194.825     18870.04    2304.5957    87.424374 
   51700    1928.8077   -109.54979    1.7452258   -107.80456    40830.674    4.4197828    4.4197828    4.4197828    40830.674    43590.041    25589.865    53312.114    32552.253   -16186.554    12060.802     86.33816 
   51800     1623.008   -109.30536    1.4685318   -107.83683   -7304.9531    4.4432442    4.4432442    4.4432442   -7304.9531   -38027.594    34289.979   -18177.244   -1688.6462    39216.837    7435.1185    87.720387 
   51900    1843.4035    -109.4827    1.6679503   -107.81475   -28986.081    4.4645058    4.4645058    4.4645058   -28986.081   -32742.031   -30083.843   -24132.369   -34132.222   -24942.163    6792.9547    88.985693 
   52000    2207.9223   -109.78414    1.9977745   -107.78637   -7510.7042    4.4476533    4.4476533    4.4476533   -7510.7042   -30095.719    12375.644    -4812.038    4487.9253    44829.409   -5349.2966    87.981786 
   52100    1707.6133   -109.34242    1.5450844   -107.79733   -12180.267    4.4284708    4.4284708    4.4284708   -12180.267   -56665.383    13127.665     6996.917   -24639.047    19816.035   -1454.3614    86.848309 
   52200    1607.3434   -109.27746    1.4543581    -107.8231   -17105.008    4.4268777    4.4268777    4.4268777   -17105.008   -49789.089    4101.0205   -5626.9559   -35550.763   -21628.417    13981.632    86.754612 
   52300    2532.4675   -110.11991    2.2914298   -107.82848    -6520.854    4.4355742    4.4355742    4.4355742    -6520.854   -31912.862    47974.156   -35623.856     25883.59     26927.88   -952.04176    87.266899 
   52400    1263.9556   -108.99121    1.1436536   -107.84756   -19932.611    4.4478694    4.4478694    4.4478694   -19932.611   -65086.311    19631.101   -14342.622   -47630.544   -32628.439    9344.9429    87.994614 
   52500     1678.735   -109.35058    1.5189547   -107.83162    14314.088    4.4437974    4.4437974    4.4437974    14314.088    -16486.74    29319.631    30109.374   -150.84402   -2308.7317     3139.077    87.753159 
   52600    1994.1318   -109.60473    1.8043323    -107.8004    10258.025    4.4454183    4.4454183    4.4454183    10258.025    37516.692   -1368.4426   -5374.1752   -12415.371   -7672.2857   -14470.891     87.84922 
   52700    1449.1765   -109.11916    1.3112454   -107.80792   -33983.403    4.4487021    4.4487021    4.4487021   -33983.403   -34870.204   -33561.106   -33518.897   -23592.713   -21423.936    39178.872    88.044045 
   52800     2531.076   -110.08621    2.2901708   -107.79604    22743.996    4.4312406    4.4312406    4.4312406    22743.996    18579.478     28803.14    20849.371    14435.443    13326.415   -20491.062    87.011365 
   52900    1665.2673   -109.33334    1.5067688   -107.82657    10309.819    4.4293591    4.4293591    4.4293591    10309.819     24500.53    16595.971   -10167.046   -26708.489   -26747.686   -33402.689     86.90058 
   53000    1812.0639   -109.47107    1.6395935   -107.83148    7352.3949    4.4433581    4.4433581    4.4433581    7352.3949   -3999.6909    63701.852   -37644.976   -8626.1398   -10856.857    37436.724    87.727135 
   53100    1974.3501   -109.60652    1.7864335   -107.82009     8589.795    4.4490972    4.4490972    4.4490972     8589.795     7239.963    45018.753   -26489.331   -5740.7664    13586.594   -35612.015      88.0675 
   53200    934.75311   -108.67931   0.84578426   -107.83352   -12420.982    4.4522265    4.4522265    4.4522265   -12420.982    7630.3693   -13383.555   -31509.762   -29440.582   -35890.866   -3507.7827    88.253459 
   53300     2074.845   -109.69194    1.8773634   -107.81458     6193.152    4.4389473    4.4389473    4.4389473     6193.152     26285.15    14246.032   -21951.727    4587.9655    17732.329    17935.594     87.46614 
   53400     2015.211   -109.65563    1.8234053   -107.83223    11275.237    4.4274417    4.4274417    4.4274417    11275.237        11760    60371.004   -38305.293   -8105.7051   -27471.944   -23337.125    86.787776 
   53500    1522.5481   -109.23083    1.3776335    -107.8532    16006.578    4.4420492    4.4420492    4.4420492    16006.578     2221.693    55149.748   -9351.7069   -16329.332   -4916.1098    3447.2931    87.649632 
   53600    1843.8368   -109.50586    1.6683423   -107.83751   -7155.6937    4.4548412    4.4548412    4.4548412   -7155.6937   -10436.624    9656.3005   -20686.757     1217.364     7641.338    18854.304    88.409044 
   53700    2181.4042   -109.79188    1.9737804    -107.8181   -3463.8583    4.4436263    4.4436263    4.4436263   -3463.8583   -8595.4997    9992.9079   -11788.983   -3257.5079   -34909.247   -3212.4492     87.74302 
   53800    1046.7412   -108.77099   0.94711344   -107.82387     36142.21    4.4287138    4.4287138    4.4287138     36142.21    33194.502    30469.876    44762.251   -14801.675    21419.976    18061.507    86.862605 
   53900     2252.576   -109.86005    2.0381781   -107.82187   -22857.419    4.4569547    4.4569547    4.4569547   -22857.419   -7761.3719   -32442.983   -28367.903    16237.906   -1179.4392    13502.479    88.534931 
   54000    1625.8591   -109.27509    1.4711115   -107.80398   -28709.753    4.4609905    4.4609905    4.4609905   -28709.753   -42525.832   -57453.057     13849.63   -67064.872   -3489.5114   -10397.259    88.775657 
   54100    1638.7681   -109.25724    1.4827918   -107.77445     25351.72    4.4283886    4.4283886    4.4283886     25351.72     11179.63    31936.659    32938.871    12651.908    39717.434    517.24932    86.843471 
   54200    1852.9096   -109.47248    1.6765515   -107.79593   -8309.2128    4.4371616    4.4371616    4.4371616   -8309.2128   -20668.638    -32282.78     28023.78   -19541.235   -13904.552    3601.5247    87.360623 
   54300     1533.905   -109.20058    1.3879095   -107.81267   -29729.291     4.446951     4.446951     4.446951   -29729.291   -40716.418   -47251.226   -1220.2285   -41507.863    27586.267   -8619.1583    87.940118 
   54400     2325.551   -109.90462    2.1042074   -107.80041    5204.2136    4.4459881    4.4459881    4.4459881    5204.2136    4933.3893    24608.218   -13928.967    20356.498    5163.9669    2961.6863    87.883002 
   54500    1588.9705   -109.24935    1.4377339   -107.81162   -9133.4829    4.4573354    4.4573354    4.4573354   -9133.4829   -15269.956    -18464.98    6334.4869   -32044.917   -11180.447    6250.1437     88.55762 
   54600    1740.0477    -109.3776    1.5744317   -107.80317   -4431.4716    4.4512976    4.4512976    4.4512976   -4431.4716    5206.7367    22218.165   -40719.317    4121.7084    36569.115   -25125.547    88.198233 
   54700    2268.9577   -109.84897    2.0530006   -107.79597    -4892.404    4.4397289    4.4397289    4.4397289    -4892.404   -16365.745    8502.2777    -6813.745   -31717.793   -23755.246    13716.138    87.512353 
   54800    1458.3475   -109.13852    1.3195435   -107.81898    17666.055    4.4250843    4.4250843    4.4250843    17666.055   -18086.162    61117.896    9966.4327   -36206.709    23277.808   -6085.8787    86.649217 
   54900    1421.7477   -109.12716    1.2864272   -107.84073    29345.488     4.429622     4.429622     4.429622    29345.488     32164.96    76713.761   -20842.256    25016.279     20536.35    -31497.82    86.916055 
   55000    2085.8642   -109.72402    1.8873337   -107.83669    -12400.74    4.4456874    4.4456874    4.4456874    -12400.74    -43806.62   -16389.946    22994.346    -37235.08   -23303.528    17061.131     87.86517 
   55100      1505.43   -109.20067    1.3621447   -107.83852    6753.7862    4.4398792    4.4398792    4.4398792    6753.7862   -14962.288    38777.722   -3554.0763   -10153.331    14895.102   -8553.2922    87.521238 
   55200    1852.2899   -109.51218    1.6759908   -107.83619   -23712.992    4.4362656    4.4362656    4.4362656   -23712.992   -16760.883   -29960.857   -24417.235    16976.524    10017.688   -29439.156    87.307717 
   55300    1936.1769   -109.58142    1.7518935   -107.82953    124.93596     4.431928     4.431928     4.431928    124.93596   -49762.036    27875.717    22261.127   -43480.151   -20696.311    17092.442    87.051868 
   55400     1656.192   -109.33936    1.4985573    -107.8408   -6584.9793    4.4461278    4.4461278    4.4461278   -6584.9793    15069.361   -4174.2729   -30650.026    22995.548    10570.386   -37951.319    87.891287 
   55500    2007.1897   -109.62202    1.8161475   -107.80588   -11199.429    4.4681078    4.4681078    4.4681078   -11199.429   -10275.056   -23782.811    459.58036    3609.3813   -2570.4699    -10507.03    89.201246 
   55600    1854.2711   -109.45546    1.6777834   -107.77767     -2989.27    4.4625729    4.4625729    4.4625729     -2989.27   -4258.7111    14514.279   -19223.378   -24386.757   -10131.187    -13769.15    88.870162 
   55700    1278.2956    -108.9412    1.1566287   -107.78457   -12719.384    4.4487215    4.4487215    4.4487215   -12719.384    7481.7855   -40229.975   -5409.9635    43217.292    14701.528   -23559.899    88.045192 
   55800    2955.3415   -110.43862    2.6740551   -107.76456     -2650.52    4.4315565    4.4315565    4.4315565     -2650.52   -20416.069    16278.613    -3814.104   -8483.3884   -4995.4065   -615.27765    87.029975 
   55900    1201.2518    -108.9172    1.0869178   -107.83029   -11268.737    4.4437559    4.4437559    4.4437559   -11268.737    705.29951   -27810.233   -6701.2771    2652.1106    10098.664   -51162.851    87.750699 
   56000     1934.844   -109.57837    1.7506875   -107.82768    -14065.14    4.4583261    4.4583261    4.4583261    -14065.14   -67490.087    13377.899    11916.768    52542.013    1993.0664    12272.847    88.616683 
   56100    2130.9696   -109.75516     1.928146   -107.82701    15538.372    4.4481191    4.4481191    4.4481191    15538.372   -9523.4335    72181.475   -16042.925   -24106.916   -1672.4831   -16438.404     88.00943 
   56200    1305.0059   -109.01013    1.1807967   -107.82933    47483.052     4.424753     4.424753     4.424753    47483.052    8939.5405     96741.93    36767.684    43375.254    3351.3454   -19688.481    86.629759 
   56300    2254.7564   -109.87104     2.040151   -107.83089   -21259.746    4.4435769    4.4435769    4.4435769   -21259.746   -31877.823    -23149.28   -8752.1364    17461.999   -3109.6351    8992.4096    87.740094 
   56400    1024.1678   -108.75874   0.92668859   -107.83205   -35635.784    4.4568859    4.4568859    4.4568859   -35635.784   -8782.2159   -61400.609   -36724.527   -33684.765    1360.5057   -59747.949    88.530834 
   56500    2456.7698   -110.01809    2.2229369   -107.79516    10215.143    4.4403223    4.4403223    4.4403223    10215.143   -3814.8651    19271.855     15188.44    29750.855      1590.89    5352.8281    87.547449 
   56600    1387.5525   -109.06301    1.2554866   -107.80752   -36697.286    4.4530609    4.4530609    4.4530609   -36697.286   -11734.096   -72790.503   -25567.258   -34662.251   -1775.7351   -33780.175    88.303092 
   56700    1232.0068    -108.9244    1.1147456   -107.80966    -24682.98     4.447618     4.447618     4.447618    -24682.98   -22128.739   -16717.186   -35203.015   -36871.623    12844.668   -11047.829    87.979694 
   56800    2905.9614   -110.41846     2.629375   -107.78908    22043.102     4.423082     4.423082     4.423082    22043.102    33329.675    42798.341   -9998.7089    16771.968    988.07792    -864.6828     86.53165 
   56900    1084.3038   -108.82718   0.98110084   -107.84608    1636.9784    4.4285804    4.4285804    4.4285804    1636.9784    24495.192    2395.3352   -21979.592   -32035.627    8805.3667   -55515.045    86.854753 
   57000    2113.9967   -109.75214    1.9127886   -107.83936    -3945.293    4.4495685    4.4495685    4.4495685    -3945.293   -35693.698    56447.466   -32589.647   -5334.1473    24018.072    27586.422    88.095493 
   57100    1490.0995   -109.16071    1.3482734   -107.81243    -16156.64     4.469702     4.469702     4.469702    -16156.64    10919.328   -29155.446   -30233.803    16234.024   -15848.997   -46039.098     89.29676 
   57200    1842.1426    -109.4422    1.6668093   -107.77539   -18592.734    4.4564967    4.4564967    4.4564967   -18592.734   -24765.711   -9464.7361   -21547.754    -42114.38    16638.797   -16358.114    88.507643 
   57300    1969.7631    -109.5542    1.7822831   -107.77191    3044.6369    4.4286955    4.4286955    4.4286955    3044.6369   -19625.068    21642.858    7116.1205    38437.226   -15376.628    14609.382    86.861525 
   57400    1500.8933   -109.15855    1.3580398   -107.80051    7930.6946    4.4205609    4.4205609    4.4205609    7930.6946    33346.525    6240.3033   -15794.745   -11665.053   -14113.319   -54928.875    86.383768 
   57500    2165.2094   -109.78857     1.959127   -107.82944   -5540.6526    4.4354553    4.4354553    4.4354553   -5540.6526   -17532.304   -4388.5065    5298.8528   -21207.723    22177.021    10454.794     87.25988 
   57600     1730.188   -109.39441    1.5655105    -107.8289    -7483.066    4.4555957    4.4555957    4.4555957    -7483.066   -13717.219   -24105.801    15373.822    30150.848   -5961.8114   -4079.5457    88.453967 
   57700    1312.3941   -109.00859    1.1874818   -107.82111   -30907.868    4.4507844    4.4507844    4.4507844   -30907.868   -23887.098   -60251.387   -8585.1194   -43277.327   -150.21807   -58033.261     88.16773 
   57800     2150.736   -109.74078    1.9460312   -107.79475   -4409.5049    4.4363709    4.4363709    4.4363709   -4409.5049   -21098.743   -1270.7282    9140.9564    12403.713    15395.779    49241.856    87.313931 
   57900    1472.4701   -109.14084    1.3323219   -107.80852   -4605.6668    4.4365957    4.4365957    4.4365957   -4605.6668    38783.226   -29845.539   -22754.688    6597.9481    -10540.71   -72632.303    87.327208 
   58000    2295.0216   -109.88451    2.0765838   -107.80793   -5621.0308    4.4442737    4.4442737    4.4442737   -5621.0308    17487.417   -31469.567    -2880.942   -25681.318    10193.771    2180.9787    87.781377 
   58100    1420.8881   -109.09805    1.2856494    -107.8124   -5917.9791    4.4514655    4.4514655    4.4514655   -5917.9791    43843.924   -10234.725   -51363.136   -8329.8005   -3634.9781   -16846.801    88.208213 
   58200    1957.1195   -109.57183    1.7708428   -107.80099    2298.7073    4.4442807    4.4442807    4.4442807    2298.7073    57348.753   -10863.364   -39589.267    19915.094   -3397.9643   -52664.176    87.781793 
   58300    2268.1995   -109.84395    2.0523146   -107.79163   -7662.5178    4.4455304    4.4455304    4.4455304   -7662.5178    14523.615     16521.36   -54032.528   -23438.206   -1672.1131   -21720.348    87.855862 
   58400    981.30043   -108.68785   0.88790125   -107.79995    2794.7452    4.4529399    4.4529399    4.4529399    2794.7452    55279.206    9136.3953   -56031.366    13289.689    12382.152   -35827.162    88.295895 
   58500    2144.4855   -109.70562    1.9403756   -107.76525    -1608.474    4.4578849    4.4578849    4.4578849    -1608.474    44668.934   -18215.178   -31279.177   -446.88714   -3481.1681    2412.8091    88.590377 
   58600    1386.5589   -109.02413    1.2545877   -107.76955   -2767.9469    4.4566275    4.4566275    4.4566275   -2767.9469    76869.553   -32304.565   -52868.829   -723.63557   -3141.5033   -59297.328    88.515432 
   58700    2378.4131   -109.89481    2.1520381   -107.74278   -5043.0611    4.4501092    4.4501092    4.4501092   -5043.0611   -10404.073   -15546.539    10821.428   -2044.8103    -13808.59    40702.144     88.12761 
   58800    1626.0751    -109.2332    1.4713069    -107.7619    12406.674    4.4510596    4.4510596    4.4510596    12406.674    52858.835   -1797.2855   -13841.528   -8756.0693    2093.1075   -71447.967    88.184089 
   58900      1881.23   -109.45678    1.7021764   -107.75461    6351.6993    4.4586006    4.4586006    4.4586006    6351.6993    29913.073   -3840.3962   -7017.5789    8104.9938    -8688.918    49996.078    88.633055 
   59000    1623.3927   -109.23357    1.4688798   -107.76469   -8235.8299    4.4509477    4.4509477    4.4509477   -8235.8299    19095.189   -34639.697    -9162.982    -8828.788    1261.2486   -55954.663     88.17744 
   59100    2117.7896   -109.67513    1.9162206   -107.75891    20632.492    4.4403587    4.4403587    4.4403587    20632.492     25131.03    46070.001   -9303.5551    4711.6339     11823.22    20038.416    87.549599 
   59200    1199.1685   -108.88291    1.0850329   -107.79788   -1480.9437    4.4497744    4.4497744    4.4497744   -1480.9437     56316.68   -52727.721   -8031.7899    17315.917    -641.5943    467.44797     88.10772 
   59300    2494.4319    -110.0304    2.2570144   -107.77338    8855.4249    4.4508997    4.4508997    4.4508997    8855.4249    36543.014    17910.988   -27887.727    2131.2963    4171.2248   -11410.922    88.174583 
   59400    877.54572   -108.59391   0.79402181   -107.79988    11946.496    4.4577105    4.4577105    4.4577105    11946.496    20234.401    3667.6577    11937.428     12840.82   -1170.8603    24636.422    88.579981 
   59500    2397.5305   -109.91961     2.169336   -107.75028    -4854.155    4.4727635    4.4727635    4.4727635    -4854.155    26974.999   -17032.844    -24504.62   -477.08229    4390.6729   -25530.986    89.480377 
   59600     1567.333   -109.17943    1.4181558   -107.76127   -17967.027      4.45923      4.45923      4.45923   -17967.027   -9489.3587   -21693.944   -22717.778   -918.46081   -19937.402    57215.828    88.670593 
   59700    2366.0481   -109.89462    2.1408501   -107.75377    8548.6336    4.4483319    4.4483319    4.4483319    8548.6336    -6356.308    20909.617    11092.592    13553.262   -13797.082   -18540.985    88.022063 
   59800    1685.2306   -109.30112    1.5248321   -107.77629   -2646.1472     4.449842     4.449842     4.449842   -2646.1472    39549.205   -16082.672   -31404.975   -8960.9442   -1726.1708    55815.709    88.111738 
   59900    1523.8339   -109.15908     1.378797   -107.78028    13368.679    4.4416665    4.4416665    4.4416665    13368.679   -21205.911    -2878.866    64190.813    6657.0588    3905.9933    4696.9303    87.626978 
   60000    1976.1016   -109.57283    1.7880183   -107.78481    2394.3022    4.4508325    4.4508325    4.4508325    2394.3022   -5324.3775    7616.9146    4890.3697   -3471.9741   -9436.1268    27382.096    88.170591 
   60100    1338.0966   -108.99553     1.210738    -107.7848   -20452.397    4.4654361    4.4654361    4.4654361   -20452.397   -4211.5783   -63927.735    6782.1229     8574.406   -2084.3266    20147.802    89.041328 
   60200    2512.6955   -110.01621    2.2735397   -107.74267    -11474.55    4.4583953    4.4583953    4.4583953    -11474.55    -6321.558   -37988.433    9886.3412     7378.625   -562.36908   -897.20036    88.620808 
   60300    823.65346   -108.51373   0.74525896   -107.76847   -27735.016    4.4544572    4.4544572    4.4544572   -27735.016    40273.055   -87553.662   -35924.442   -33333.963   -12724.247    58713.706    88.386179 
   60400    2312.0781   -109.83801    2.0920169     -107.746   -4956.3606    4.4463611    4.4463611    4.4463611   -4956.3606     10956.11   -32106.847    6281.6548    5604.3974   -3773.7794   -45940.498    87.905121 
   60500    1649.7746   -109.27191    1.4927507   -107.77916   -28764.854    4.4443625    4.4443625    4.4443625   -28764.854    17477.648   -81011.257   -22760.954    548.32967   -3229.6502    92092.041    87.786636 
   60600      2134.04   -109.70694    1.9309242   -107.77602   -19140.565    4.4505818    4.4505818    4.4505818   -19140.565   -21205.402   -18239.318   -17976.976   -11862.495   -10476.427   -35352.415    88.155696 
   60700    1186.1751   -108.86009    1.0732762   -107.78682   -2260.3884    4.4475707    4.4475707    4.4475707   -2260.3884    44739.878   -21879.815   -29641.228    4867.3363   -6413.6247    49879.588    87.976883 
   60800    2018.9865   -109.61289    1.8268215   -107.78607    4889.3696    4.4432423    4.4432423    4.4432423    4889.3696   -15362.521    29904.452    126.17791   -25592.065    15567.581     14132.26    87.720274 
   60900    1523.1747   -109.17708    1.3782005   -107.79888   -12257.668    4.4423653    4.4423653    4.4423653   -12257.668   -8900.7715     9540.721   -37412.953   -2688.7221    18638.809    3663.3582    87.668345 
   61000     1945.175   -109.55873    1.7600352   -107.79869     3149.672    4.4354612    4.4354612    4.4354612     3149.672     30010.36    2401.6641   -22963.008    10576.233    -17718.69    44793.741    87.260232 
   61100    1991.0426    -109.6071    1.8015372   -107.80556   -15426.388    4.4550836    4.4550836    4.4550836   -15426.388   -31131.597    31716.024    -46863.59   -20266.743    35040.662   -17505.095    88.423472 
   61200    1072.6438   -108.77698   0.97055066   -107.80643   -19839.287    4.4544363    4.4544363    4.4544363   -19839.287    13392.568    -7216.627   -65693.801    7332.3168    25367.079    37860.978    88.384938 
   61300    2408.7884   -109.94334    2.1795224   -107.76381    29747.117    4.4297072    4.4297072    4.4297072    29747.117   -1257.6964    25378.811    65120.235    7364.8432    3039.0948   -13619.974    86.921067 
   61400     1489.817   -109.15103    1.3480178   -107.80301   -29584.203    4.4401085    4.4401085    4.4401085   -29584.203   -7794.1131   -25475.747   -55482.747   -6149.9439    5096.7324    42268.403    87.534803 
   61500    2139.7314   -109.73438    1.9360739    -107.7983    4744.5196    4.4440669    4.4440669    4.4440669    4744.5196    27694.249    4596.7799    -18057.47    14806.486    1407.4561     4895.073    87.769124 
   61600    1787.7062   -109.41812    1.6175542   -107.80056   -13425.997     4.450518     4.450518     4.450518   -13425.997   -23352.606    2917.3769    -19842.76    6800.2118    6040.1171    8063.1782    88.151899 
   61700    1480.2856     -109.141    1.3393935   -107.80161   -38339.183    4.4681378    4.4681378    4.4681378   -38339.183   -12624.457   -45992.475   -56400.619   -9907.0622   -1583.9849    40401.109    89.203046 
   61800      2035.69   -109.61227     1.841935   -107.77034    1344.2045    4.4434249    4.4434249    4.4434249    1344.2045   -43882.549     28216.17    19698.992   -22155.399    455.14198   -13429.943    87.731092 
   61900    1504.4297   -109.13664    1.3612396    -107.7754    10174.801    4.4235779    4.4235779    4.4235779    10174.801    4144.0549    61039.657   -34659.308    24024.071    3849.2843    26026.901    86.560758 
   62000    2133.4302   -109.71227    1.9303725   -107.78189   -13360.174    4.4479535    4.4479535    4.4479535   -13360.174   -8888.0526   -48877.825    17685.357   -39488.338   -7006.7009    -13178.68    87.999601 
   62100    1640.3535   -109.26774    1.4842263   -107.78352    573.78772    4.4583353    4.4583353    4.4583353    573.78772    4858.1364    62519.206   -65655.979   -4685.3998   -4433.1483    4849.7801    88.617232 
   62200    1878.1399   -109.46652    1.6993805   -107.76714    5967.3404     4.469498     4.469498     4.469498    5967.3404     24978.84    5174.2291   -12251.048   -36010.315     13687.41    15295.669    89.284538 
   62300    1719.5124   -109.32127    1.5558509   -107.76541   -40798.342    4.4652834    4.4652834    4.4652834   -40798.342   -25042.834    -42178.86   -55173.334   -15194.909   -12803.292   -12639.619    89.032194 
   62400    1995.8142   -109.56841    1.8058547   -107.76256    43071.499    4.4133287    4.4133287    4.4133287    43071.499    43250.524     70734.33    15229.644   -3430.0301    1451.8172    19438.313    85.960476 
   62500    1320.8122   -108.98177    1.1950986   -107.78668    58331.916    4.4050809    4.4050809    4.4050809    58331.916    68609.209    30966.225    75420.314   -66332.524   -2877.3636   -6149.1334     85.47944 
   62600     2082.597   -109.69229    1.8843775   -107.80791   -15128.059    4.4538909    4.4538909    4.4538909   -15128.059   -15566.655    38219.505   -68037.026     15678.74   -26582.851    4575.6319    88.352478 
   62700    1345.8288   -108.99835    1.2177341   -107.78062   -9191.2198     4.475929     4.475929     4.475929   -9191.2198   -28103.943   -17702.122    18232.406   -53370.651    8881.0185    18449.675    89.670493 
   62800    2140.3535    -109.6781    1.9366368   -107.74147   -3085.8807    4.4620706    4.4620706    4.4620706   -3085.8807    18554.003   -12031.284   -15780.362    14294.038   -30989.722   -29417.974    88.840156 
   62900    1894.4697   -109.45668     1.714156   -107.74252   -14870.779    4.4400385    4.4400385    4.4400385   -14870.779   -43672.045   -47969.105    47028.813   -50143.784    9056.9965   -4092.8177    87.530659 
   63000    1868.4218   -109.44706    1.6905873   -107.75647    9651.5044    4.4205372    4.4205372    4.4205372    9651.5044    18362.679   -13065.723    23657.557   -17516.672   -7951.8176   -6083.6004    86.382376 
   63100    1543.6684   -109.20464    1.3967436    -107.8079    11090.771    4.4318959    4.4318959    4.4318959    11090.771    14407.262    10081.165    8783.8842   -6521.4451   -14674.211   -30487.381    87.049975 
   63200    1582.1918   -109.24688    1.4316004   -107.81527   -8590.7598    4.4646967    4.4646967    4.4646967   -8590.7598   -22198.215   -39694.523    36120.459   -55684.178    19810.709    14535.821    88.997106 
   63300    2199.0172   -109.75543     1.989717   -107.76571   -23087.002    4.4698796    4.4698796    4.4698796   -23087.002   -15236.408   -13008.061   -41016.537    8764.5754   -10450.996   -5892.2115    89.307403 
   63400    977.91588   -108.66465   0.88483884   -107.77981     258.7166    4.4420739    4.4420739    4.4420739     258.7166   -31572.362   -1045.7981     33394.31   -77087.528   -6965.4218   -15510.608    87.651091 
   63500    2772.9687   -110.25974    2.5090403   -107.75069    25453.603    4.4224769    4.4224769    4.4224769    25453.603      37664.8    28030.627    10665.382    20221.189    3981.8581    3366.7154    86.496136 
   63600    918.78362   -108.64411   0.83133473   -107.81277    11177.161    4.4381582    4.4381582    4.4381582    11177.161   -11295.281    6175.1591    38651.604   -76199.518   -19618.177   -16354.969    87.419504 
   63700    2757.0529   -110.25867    2.4946394   -107.76403   -9319.1053      4.46531      4.46531      4.46531   -9319.1053    10923.575    155.33631   -39036.227     28418.76    6658.7256    4188.7794    89.033789 
   63800    1207.4261   -108.85411    1.0925045   -107.76161    23298.035    4.4676034    4.4676034    4.4676034    23298.035    39179.698    42316.032   -11601.623   -32238.107   -8757.2723   -19282.809    89.171044 
   63900    2192.8388    -109.7262    1.9841267   -107.74208   -20216.776    4.4572176    4.4572176    4.4572176   -20216.776   -11300.289   -54471.781    5121.7416   -6619.9969   -1555.8398   -1158.9062    88.550602 
   64000     1594.814   -109.20852    1.4430213    -107.7655    11844.961    4.4108478    4.4108478    4.4108478    11844.961    44722.808   -24920.515    15732.591    16408.086    1058.8008   -10614.713    85.815592 
   64100     1556.505   -109.20833    1.4083584   -107.79997    40664.114    4.4080513    4.4080513    4.4080513    40664.114    61087.329    19562.398    41342.614   -37785.221   -7997.8263   -18636.565    85.652474 
   64200    2078.0641    -109.6793    1.8802761   -107.79902   -28140.984    4.4553029    4.4553029    4.4553029   -28140.984    -9757.702   -30628.771   -44036.478     29990.29    17490.882    30095.158    88.436531 
   64300     1824.455   -109.41855    1.6508052   -107.76774   -24301.276    4.4674301    4.4674301    4.4674301   -24301.276    16408.837   -63793.397   -25519.268   -26324.524   -8806.0246   -15719.742    89.160665 
   64400    1453.1773   -109.05957    1.3148653   -107.74471   -25858.697    4.4687266    4.4687266    4.4687266   -25858.697   -2853.7252   -54919.399   -19802.968    2421.4163    23240.853    16113.079    89.238317 
   64500    1262.4711   -108.90232    1.1423104   -107.76001   -13110.755    4.4427829    4.4427829    4.4427829   -13110.755    11324.848   -52357.612    1700.4978    25432.853   -3193.5838   -10531.475    87.693068 
   64600    2661.3681   -110.15291    2.4080618   -107.74485    24169.768    4.4197846    4.4197846    4.4197846    24169.768    29185.518    46354.296   -3030.5103   -15857.514    1969.9917   -8912.1822    86.338266 
   64700     1060.342   -108.77769   0.95941971   -107.81827   -18340.481    4.4361115    4.4361115    4.4361115   -18340.481    12181.258   -19178.462   -48024.239    10466.681    18714.386    26605.312    87.298616 
   64800    2580.7693   -110.14095    2.3351343   -107.80581    925.81715    4.4478055    4.4478055    4.4478055    925.81715   -4058.2002   -11820.995    18656.647    25705.218   -2147.6487   -8177.5497     87.99082 
   64900    1182.1493   -108.88363    1.0696335   -107.81399   -12538.415    4.4563127    4.4563127    4.4563127   -12538.415    -49074.94    22096.833   -10637.136   -11313.757     19035.04    11156.067    88.496677 
   65000    2186.7954   -109.76205    1.9786584    -107.7834   -11276.767    4.4511506    4.4511506    4.4511506   -11276.767   -25776.444   -32284.573    24230.717    21055.065     16130.26    18942.963    88.189498 
   65100    1524.3631   -109.16479    1.3792758   -107.78551    27963.452    4.4348181    4.4348181    4.4348181    27963.452    1711.7665    26076.467    56102.123   -21966.602    6540.3928   -19874.796    87.222281 
   65200    1765.4373   -109.39683    1.5974048   -107.79943    17759.569    4.4443837    4.4443837    4.4443837    17759.569   -24771.221    43693.178     34356.75   -7342.9758     17988.03    26467.639    87.787896 
   65300    2396.3444   -109.94282    2.1682628   -107.77455   -30384.669    4.4644581    4.4644581    4.4644581   -30384.669   -24109.385   -47740.226   -19304.395    1796.6981     1949.237   -17045.549    88.982839 
   65400    1038.7085   -108.72015   0.93984532    -107.7803   -19490.304    4.4543609    4.4543609    4.4543609   -19490.304   -21842.018   -42766.322    6137.4258   -20950.474    13782.558   -7353.2498    88.380451 
   65500    2007.1284   -109.58588     1.816092   -107.76979    18754.818    4.4364124    4.4364124    4.4364124    18754.818    -15613.07    9035.8139     62841.71    56524.668    -1725.228    9621.9171    87.316384 
   65600    1635.9407   -109.27716    1.4802335   -107.79693    25545.477     4.429159     4.429159     4.429159    25545.477     49673.96    20920.234     6042.237    10155.779    -6251.722   -8094.3973    86.888802 
   65700    1551.2541   -109.23265    1.4036073   -107.82904     26959.11    4.4414163    4.4414163    4.4414163     26959.11   -7763.1097    57623.116    31017.324    19791.513    6576.2103     17038.29    87.612172 
   65800    2115.3448   -109.72264    1.9140084   -107.80863   -9342.8267    4.4640453    4.4640453    4.4640453   -9342.8267   -28943.225    8720.8996    -7806.155    28918.399    -3998.688    -14642.28    88.958159 
   65900    1634.1338   -109.26871    1.4785986   -107.79011   -21447.554    4.4610846    4.4610846    4.4610846   -21447.554    18601.774   -14821.905   -68122.531   -25636.107    10387.571   -19472.255    88.781272 
   66000    1867.0128   -109.45335    1.6893124   -107.76404     15326.37    4.4484907    4.4484907    4.4484907     15326.37   -4871.2512    24248.268    26602.094    26476.311   -447.87535   -4854.2562    88.031494 
   66100    1757.6522   -109.35972    1.5903606   -107.76936   -25507.982     4.465953     4.465953     4.465953   -25507.982    11696.796   -10383.696   -77837.047   -33622.859   -24137.089    -25395.42    89.072252 
   66200    2168.1095   -109.69852    1.9617511   -107.73677   -25241.001    4.4718003    4.4718003    4.4718003   -25241.001   -2724.5805   -34879.185   -38119.236    20073.211    8686.6623     25341.71    89.422579 
   66300    1399.7706   -109.00698    1.2665419   -107.74044   -5918.2258    4.4578774    4.4578774    4.4578774   -5918.2258    34998.105   -19010.959   -33741.824   -4249.5255   -7607.0304   -47658.575    88.589928 
   66400    1676.0292   -109.26959    1.5165064   -107.75308   -6298.1996    4.4481151    4.4481151    4.4481151   -6298.1996    19989.513   -34035.217   -4848.8946    12838.768   -7379.1586    22152.329    88.009196 
   66500    2039.3509   -109.61388    1.8452476   -107.76864    486.54765    4.4368704    4.4368704    4.4368704    486.54765    1272.4966    2673.4709   -2486.3246    27395.838    12221.968   -36402.219    87.343429 
   66600    1484.6455   -109.16387    1.3433384   -107.82053   -22081.568    4.4435533    4.4435533    4.4435533   -22081.568   -6053.2321   -29119.844   -31071.628   -9566.0102   -21214.984   -21892.677    87.738698 
   66700    2640.4298   -110.19288    2.3891164   -107.80376   -21021.744     4.459406     4.459406     4.459406   -21021.744   -46183.708    7302.3132   -24183.837   -7223.1616   -3343.6436    13373.981    88.681092 
   66800    1049.4138   -108.76569   0.94953169   -107.81616   -30416.226    4.4537819    4.4537819    4.4537819   -30416.226   -6929.1084    -27123.93   -57195.641    8392.3727     20711.32   -67814.838    88.345992 
   66900    2323.6025   -109.88272    2.1024444   -107.78028   -1999.2318    4.4356998    4.4356998    4.4356998   -1999.2318   -29504.951    16485.317    7021.9382   -14024.019   -25580.407    28581.807    87.274311 
   67000    1422.9626   -109.09301    1.2875264   -107.80548   -24963.694    4.4366346    4.4366346    4.4366346   -24963.694    23893.125   -49402.526   -49381.681    1710.9496    17038.442    -80133.22    87.329504 
   67100    1677.8937   -109.33816    1.5181935   -107.81997    10353.409    4.4371061    4.4371061    4.4371061    10353.409   -7509.2722    56038.813   -17469.314   -1103.4542    20159.048   -6537.7757     87.35735 
   67200    2616.5142   -110.17309    2.3674771   -107.80561   -19831.491    4.4548989    4.4548989    4.4548989   -19831.491   -24039.431    -7297.323    -28157.72   -519.85478   -3557.5223    -29965.47    88.412476 
   67300    966.81873   -108.68862   0.87479791   -107.81382   -24871.399     4.459505     4.459505     4.459505   -24871.399   -13499.852   -941.38488   -60172.961    6925.2404    30181.694   -52690.524    88.687003 
   67400    1857.1131   -109.46123     1.680355   -107.78087    41431.665    4.4356895    4.4356895    4.4356895    41431.665   -13353.135    81758.217    55889.913   -6927.3169    6327.7605    16981.449    87.273707 
   67500    1802.3149   -109.43488    1.6307724   -107.80411    69.682691     4.429162     4.429162     4.429162    69.682691     49239.92   -11742.743   -37288.128    -3563.777   -10741.183   -75388.096    86.888979 
   67600    2093.5909   -109.70459    1.8943251   -107.81026    11250.836    4.4351648    4.4351648    4.4351648    11250.836   -12267.119    27605.466    18414.162   -748.14918    26725.912    38855.736    87.242736 
   67700    1588.6971   -109.25294    1.4374865   -107.81545    3689.0421    4.4516027    4.4516027    4.4516027    3689.0421    1235.1741   -27512.273    37344.225    12866.451   -6611.7226    -44578.47     88.21637 
   67800    2175.3357   -109.75553    1.9682894   -107.78724   -11443.221    4.4605662    4.4605662    4.4605662   -11443.221     7552.905   -6966.2892   -34916.278   -9169.4995   -6839.4946    -11101.09    88.750326 
   67900    1602.5251   -109.25249    1.4499984   -107.80249     5125.794    4.4340771    4.4340771    4.4340771     5125.794    10893.085   -22921.127    27405.424    16536.671    25074.874    26380.276    87.178569 
   68000    2138.9839   -109.72995    1.9353976   -107.79455    40426.647    4.4177306    4.4177306    4.4177306    40426.647    24582.626    57785.789    38911.528    4600.8547   -12924.253   -22084.347    86.217949 
   68100    1783.3412   -109.44527    1.6136046   -107.83167   -16938.946    4.4399889    4.4399889    4.4399889   -16938.946   -26830.566    18870.974   -42857.244   -893.49362   -47970.121    10518.266    87.527727 
   68200    1751.2515   -109.39988    1.5845691   -107.81531    5772.0678     4.454687     4.454687     4.454687    5772.0678   -30275.467    4768.8715    42822.799    18302.655    24320.121    11472.619    88.399864 
   68300    1394.0617   -109.07373    1.2613763   -107.81236   -14127.135    4.4556047    4.4556047    4.4556047   -14127.135   -46244.338    40079.781   -36216.849   -14878.935     -66859.6    3644.6602    88.454508 
   68400    2621.8571   -110.16384    2.3723114   -107.79152    3250.2054    4.4387935    4.4387935    4.4387935    3250.2054   -26673.387   -7100.9583    43524.962    13811.531    32124.583   -18.018857    87.457051 
   68500     1444.673   -109.12505    1.3071705   -107.81788   -5.5546682    4.4233417    4.4233417    4.4233417   -5.5546682    -48478.14    31047.783    17413.693    13400.358   -73248.187    17089.225     86.54689 
   68600    1870.1307   -109.52527    1.6921336   -107.83313    10282.538    4.4363331    4.4363331    4.4363331    10282.538   -8575.1859    44279.313   -4856.5122   -8296.0412   -7220.0722    7759.7333      87.3117 
   68700     1344.279   -109.05061    1.2163319   -107.83428     3638.451     4.456395     4.456395     4.456395     3638.451   -27287.275    32241.457    5961.1709    887.01251   -1256.7156   -29022.027    88.501581 
   68800    1711.2625   -109.35132    1.5483863   -107.80293   -24763.531    4.4631509    4.4631509    4.4631509   -24763.531   -58120.199    28270.966   -44441.361    6528.6013   -53509.977    20095.525    88.904697 
   68900    2669.1398   -110.18795    2.4150938   -107.77285    240.27108    4.4413456    4.4413456    4.4413456    240.27108    27129.968   -23752.787   -2656.3679   -3625.6172    14038.642   -21311.534    87.607989 
   69000     1013.853   -108.71333   0.91735554   -107.79597    22194.733    4.4281866    4.4281866    4.4281866    22194.733   -14203.353    26859.057    53928.494    29775.117   -47230.477    521.54392    86.831585 
   69100     2368.906   -109.94604    2.1434359    -107.8026    2893.7011    4.4424329    4.4424329    4.4424329    2893.7011    18721.119    18139.829   -28179.845   -18249.541    8238.7511    29518.714    87.672347 
   69200    1513.9525   -109.18818     1.369856   -107.81833   -10238.561    4.4555807    4.4555807    4.4555807   -10238.561   -22775.565    20658.794   -28598.913    12105.258   -24507.434    -34343.04    88.453076 
   69300    1686.7941   -109.33124    1.5262467   -107.80499    4046.8853    4.4479749    4.4479749    4.4479749    4046.8853    26444.147    -13118.08   -1185.4109   -330.29906   -20548.253    12680.766    88.000873 
   69400    2223.3223   -109.80261    2.0117088    -107.7909    3905.9381    4.4461814    4.4461814    4.4461814    3905.9381    1636.3748    35380.164   -25298.725   -2381.0959   -1390.9792    21009.765    87.894464 
   69500    1107.8601   -108.81739    1.0024151   -107.81498    -9087.566    4.4429064    4.4429064    4.4429064    -9087.566   -67462.393    81062.434   -40862.739    24417.064   -76161.835   -24643.815    87.700384 
   69600    2385.0692   -109.95678    2.1580608   -107.79872    18160.545    4.4266592    4.4266592    4.4266592    18160.545    15300.796    5231.8885    33948.952   -9557.2603    5593.3619   -3790.5079    86.741768 
   69700    1646.0574   -109.32236    1.4893873   -107.83297   -16717.653    4.4380123    4.4380123    4.4380123   -16717.653   -53544.683   -7155.5363     10547.26    23985.736    -2406.132    14640.737    87.410881 
   69800    1315.1286   -109.02331     1.189956   -107.83335   -40074.202    4.4540062    4.4540062    4.4540062   -40074.202   -52134.608   -13107.031   -54980.968    5252.0371   -25912.688   -35224.399    88.359339 
   69900    2207.4454    -109.8104     1.997343   -107.81305    9148.2148    4.4426658    4.4426658    4.4426658    9148.2148   -16518.006   -7822.1541    51784.804    -24695.25    895.52909   -8984.5527    87.686137 
   70000    1736.0696   -109.38748    1.5708322   -107.81665    28328.597    4.4321802    4.4321802    4.4321802    28328.597   -8065.7497    50343.479    42708.062     22538.16   -18225.201   -1647.6483    87.066731 
   70100    1569.3775   -109.25056    1.4200058   -107.83056   -5194.4469    4.4398292    4.4398292    4.4398292   -5194.4469    1608.5697   -17795.735    603.82429   -8073.9722    10893.557   -47528.666    87.518281 
   70200     2709.298   -110.26062    2.4514297   -107.80919   -18747.277    4.4436342    4.4436342    4.4436342   -18747.277    -39311.48   -22327.389    5397.0376   -11642.312    5377.6211    19878.843    87.743488 
   70300    1268.0418   -108.96456    1.1473508   -107.81721   -7876.7988    4.4439546    4.4439546    4.4439546   -7876.7988    21865.239   -46301.157    805.52148    21264.786   -26932.036   -53061.688    87.762472 
   70400    1559.7052   -109.22243     1.411254   -107.81117   -15947.286    4.4521311    4.4521311    4.4521311   -15947.286   -20663.716   -36110.059    8931.9169   -1413.0505    22250.265     909.4854    88.247786 
   70500    1780.3447   -109.41065    1.6108933   -107.79975   -6201.4211    4.4392787    4.4392787    4.4392787   -6201.4211   -28131.435    12654.231    -3127.059    -12106.25    -6232.945    -16997.25    87.485735 
   70600    1507.3408   -109.17201    1.3638736   -107.80813    26794.837    4.4180835    4.4180835    4.4180835    26794.837    11455.939    30871.896    38056.677    21637.515   -21891.477   -47799.246     86.23861 
   70700    2517.8055   -110.09626    2.2781633    -107.8181   -15961.261    4.4408295    4.4408295    4.4408295   -15961.261   -49476.723    14578.917   -12985.977    11459.085    34750.103     18168.75    87.577453 
   70800    1692.8547   -109.35219    1.5317305   -107.82046   -22462.439     4.446328     4.446328     4.446328   -22462.439   -15858.185   -12751.555   -38777.577   -11135.795    3911.3905   -54610.471    87.903161 
   70900    2048.6865   -109.65339    1.8536946   -107.79969     17852.34    4.4333452    4.4333452    4.4333452     17852.34   -30000.556    55142.216     28415.36    29492.481   -18585.265    8184.6206    87.135404 
   71000    1142.2711   -108.85961    1.0335509   -107.82605   -20273.972    4.4413181    4.4413181    4.4413181   -20273.972    983.58935   -10871.184   -50934.323   -5886.6809    21675.015   -47705.583    87.606363 
   71100     1734.413   -109.39914    1.5693333   -107.82981   -31230.691    4.4337097    4.4337097    4.4337097   -31230.691    866.96872   -53877.999   -40681.043   -14782.135   -2159.7916   -43834.883    87.156896 
   71200    2512.0581   -110.09229     2.272963   -107.81933    1861.4138    4.4280118    4.4280118    4.4280118    1861.4138   -20378.437     42352.38   -16389.702     33560.82    -5241.355    18757.203    86.821307 
   71300     860.5229    -108.6317   0.77861921   -107.85308   -27635.829     4.451762     4.451762     4.451762   -27635.829    9350.6664   -18645.002   -73613.151   -13910.188    18290.708   -56143.627     88.22584 
   71400    2422.4116   -109.99525    2.1918489    -107.8034   -22328.201    4.4576998    4.4576998    4.4576998   -22328.201    -49130.52   -7329.4275   -10524.654   -35895.411   -1943.4314    25543.943    88.579341 
   71500    1939.4398   -109.55222    1.7548459   -107.79737   -30232.275    4.4531105    4.4531105    4.4531105   -30232.275    4698.6788   -40355.667   -55039.835    31745.389    12817.292   -36276.724     88.30604 
   71600    1035.6256   -108.75729   0.93705582   -107.82023    -15380.19    4.4264222    4.4264222    4.4264222    -15380.19    -3879.359   -24906.506   -17354.704   -54840.996    18999.223   -20164.843    86.727838 
   71700    2274.7723    -109.8718    2.0582617   -107.81354    57430.747     4.411792     4.411792     4.411792    57430.747    6934.6888    122534.01     42823.54    -6252.111   -6500.1048    6283.1249    85.870716 
   71800     1733.881   -109.41935    1.5688519    -107.8505   -18024.669    4.4458077    4.4458077    4.4458077   -18024.669   -1886.2833   -41842.378   -10345.348   -12749.936     3089.974    -38270.56    87.872308 
   71900    1557.6932   -109.23231    1.4094335   -107.82287    96.354235    4.4561003    4.4561003    4.4561003    96.354235   -43373.059    16129.309    27532.813   -54583.909    6540.9115    13654.623    88.484028 
   72000    2521.8742   -110.06896    2.2818448   -107.78712   -533.51484    4.4519267    4.4519267    4.4519267   -533.51484   -2959.9399    3107.2312   -1747.8358    28231.087    6424.8262   -22335.637    88.235634 
   72100    1122.1523   -108.82871     1.015347   -107.81336   -25720.782    4.4382327    4.4382327    4.4382327   -25720.782   -69941.973   -69614.753     62394.38   -85638.709    5463.5719   -18131.732    87.423906 
   72200    2294.9767   -109.88085    2.0765431   -107.80431    23294.016    4.4246604    4.4246604    4.4246604    23294.016    15412.989    14467.963    40001.095   -2467.1482    2005.5219    3606.1797    86.624321 
   72300    1733.7728   -109.39824     1.568754   -107.82948    7491.6327    4.4355039    4.4355039    4.4355039    7491.6327    35810.056   -20517.976    7182.8186   -16689.987   -3270.7605   -15715.001    87.262748 
   72400     1308.484   -109.01284    1.1839438    -107.8289    4125.3764    4.4524537    4.4524537    4.4524537    4125.3764   -6556.7774   -10699.221    29632.128   -38932.563   -1540.7944    5797.3913    88.266975 
   72500    1906.4113   -109.51436    1.7249611    -107.7894   -11052.176    4.4643605    4.4643605    4.4643605   -11052.176    3034.0817    2634.7399   -38825.351    12276.833    5372.8025    14518.394    88.977002 
   72600    1428.5375   -109.06984    1.2925708   -107.77726    5076.8047    4.4554981    4.4554981    4.4554981    5076.8047    206.10289    7263.4384    7760.8728   -57413.374   -5083.7932   -39345.195    88.448157 
   72700     2631.721   -110.12577    2.3812364   -107.74453   -3890.1949    4.4436941    4.4436941    4.4436941   -3890.1949    17256.074    17969.164   -46895.823      18720.4    2234.8036    24248.519    87.747037 
   72800    969.38294   -108.66377   0.87711805   -107.78665   -20301.136    4.4389481    4.4389481    4.4389481   -20301.136   -30868.453   -11916.046   -18118.908   -49645.827    3796.9885    14528.683    87.466186 
   72900    2440.1895   -110.00343    2.2079348    -107.7955   -11801.556    4.4428942    4.4428942    4.4428942   -11801.556    3615.7513   -4422.7884   -34597.631   -2472.2681   -9684.5623   -23020.236    87.699658 
   73000    1521.3208   -109.18954    1.3765231   -107.81302   -17218.906    4.4481721    4.4481721    4.4481721   -17218.906   -14856.592   -21817.173   -14982.952   -28513.507    2855.1497    26923.576     88.01258 
   73100    1464.2994   -109.14614    1.3249289   -107.82121   -4724.5739    4.4336675    4.4336675    4.4336675   -4724.5739   -2528.9948   -29479.784    17835.057   -50231.993    5745.0129    21492.523    87.154411 
   73200    2595.1749   -110.15171    2.3481688   -107.80354    -7564.402     4.437608     4.437608     4.437608    -7564.402   -7489.6914   -505.80255   -14697.712    11342.332   -32634.602   -20027.689    87.386997 
   73300    923.65463    -108.6653   0.83574212   -107.82956   -19718.019    4.4490988    4.4490988    4.4490988   -19718.019    29972.917   -97629.481    8502.5086   -79648.805    12179.945    28255.074    88.067601 
   73400    2388.9257   -109.95271    2.1615501   -107.79116    22898.523    4.4421038    4.4421038    4.4421038    22898.523    73838.868    143.11925   -5286.4191    13655.236    8435.0811    11852.181    87.652864 
   73500    759.27891   -108.50185   0.68701152   -107.81484    32414.544    4.4467172    4.4467172    4.4467172    32414.544     41827.44    10499.139    44917.054   -77208.163   -17041.522    3645.6992    87.926248 
   73600    2296.2877    -109.8457    2.0777294   -107.76797   -28078.103    4.4680461    4.4680461    4.4680461   -28078.103     13115.94   -39696.631   -57653.619    14571.985     1412.135    20001.904    89.197551 
   73700    1557.8185   -109.15849     1.409547   -107.74894    12647.205    4.4566489    4.4566489    4.4566489    12647.205   -24052.438    11178.889    50815.164   -49766.741   -11713.236   -6642.4517    88.516709 
   73800    1999.6016   -109.54337    1.8092816   -107.73409    24498.131    4.4521665    4.4521665    4.4521665    24498.131    24939.925   -7737.7315    56292.199    1974.8805    -6078.628    23890.912    88.249892 
   73900    1987.1432   -109.54088    1.7980089   -107.74287   -8456.8802    4.4562867    4.4562867    4.4562867   -8456.8802   -49623.744   -7509.7172    31762.821   -48954.365    16712.568    5102.5438    88.495133 
   74000    1737.1936   -109.32828    1.5718493   -107.75644    18.577885    4.4412461    4.4412461    4.4412461    18.577885    2309.6979   -6799.8505    4545.8863   -23452.101    151.17524    13256.589      87.6021 
   74100    1553.9813   -109.18601    1.4060749   -107.77993    483.58769    4.4387587    4.4387587    4.4387587    483.58769    28453.659   -22416.276   -4586.6202   -23751.881   -14298.828    30672.541    87.454995 
   74200     1953.986   -109.56208    1.7680076   -107.79407   -18550.319    4.4495808    4.4495808    4.4495808   -18550.319   -68416.288   -18231.758    30997.088    -53186.91   -3310.8483   -18653.464    88.096221 
   74300    2297.8549   -109.86406    2.0791474   -107.78491   -15617.008    4.4507465    4.4507465    4.4507465   -15617.008   -11692.032   -14685.466   -20473.527    20258.089      28967.8    43860.094    88.165479 
   74400    1441.1927    -109.1022    1.3040215   -107.79818    -27367.79    4.4555974    4.4555974    4.4555974    -27367.79   -46582.218   -77737.048    42215.896   -65185.047   -17925.942    -719.0565    88.454073 
   74500    2335.8423   -109.88613    2.1135192   -107.77261    -8808.309    4.4487779    4.4487779    4.4487779    -8808.309   -3856.8089    -409.0425   -22159.075    17722.308     10206.08   -11456.821    88.048541 
   74600    769.94237    -108.5006   0.69666004   -107.80394   -11186.494    4.4406439    4.4406439    4.4406439   -11186.494    22620.085   -45434.713   -10744.854   -44435.679    29307.101      50265.7    87.566471 
   74700    2194.2133   -109.78395    1.9853703   -107.79858    2051.7683    4.4335964    4.4335964    4.4335964    2051.7683    -16017.37   -14027.728    36200.402   -23817.277   -8669.0872   -14172.905    87.150217 
   74800    1806.3177   -109.45208    1.6343942   -107.81768    18943.361    4.4432198    4.4432198    4.4432198    18943.361    26823.984   -6200.2598     36206.36    6073.9771    11675.504    6969.4984    87.718943 
   74900    1469.2687    -109.1504    1.3294252   -107.82097   -26296.039    4.4598626    4.4598626    4.4598626   -26296.039   -39366.318   -63189.962    23668.161   -45465.125    8843.7713    35880.835    88.708335 
   75000    2400.6007   -109.94993    2.1721139   -107.77781    4000.6599    4.4583345    4.4583345    4.4583345    4000.6599   -37691.157    2177.0054    47516.131    4905.1658   -6506.7382   -11038.855    88.617182 
   75100    1190.3013   -108.86054    1.0770096   -107.78353   -15522.967    4.4596182    4.4596182    4.4596182   -15522.967    -55524.89   -56490.915    65446.904   -69561.623     14433.22    22445.988    88.693753 
   75200    2683.4686   -110.18166    2.4280587   -107.75361   -2130.6608    4.4446994    4.4446994    4.4446994   -2130.6608   -9339.1247   -2464.9339    5412.0763     31705.97   -13874.196   -3112.6518    87.806602 
   75300    1616.7962   -109.25008    1.4629111   -107.78717    9897.0131     4.422313     4.422313     4.422313    9897.0131   -29054.715    8890.0468    49855.708   -65584.321    18639.012    7278.3586     86.48652 
   75400    1839.3429   -109.48805    1.6642761   -107.82377   -1188.8772    4.4359715    4.4359715    4.4359715   -1188.8772   -44120.688   -23683.855    64237.911    11547.015   -2176.2665    7620.7133    87.290353 
   75500    1826.2668   -109.47454    1.6524446    -107.8221   -20391.899    4.4586715    4.4586715    4.4586715   -20391.899   -22970.696   -19572.768   -18632.234    35180.928     17821.99    4145.7149    88.637284 
   75600    1909.1646   -109.53395    1.7274522    -107.8065   -15723.361    4.4543645    4.4543645    4.4543645   -15723.361    -53574.05     46177.03   -39773.063   -38428.107    39422.399   -6285.0349    88.380662 
   75700    1482.0262   -109.14277    1.3409685    -107.8018    2367.2353     4.441227     4.441227     4.441227    2367.2353   -52290.208    39144.111    20247.802    67143.132   -16155.775    10053.628    87.600972 
   75800    1896.0685   -109.52126    1.7156026   -107.80566   -6008.5798    4.4376761    4.4376761    4.4376761   -6008.5798   -29094.049     51745.16    -40676.85    -9254.746    23101.135   -6208.4262    87.391017 
   75900    1734.4252   -109.38582    1.5693444   -107.81648    26946.579    4.4319806    4.4319806    4.4319806    26946.579   -38503.858    107164.16    12179.436    7847.0026    15956.371   -9459.4043    87.054969 
   76000    1867.0707   -109.52361    1.6893648   -107.83425   -3242.8594    4.4489291    4.4489291    4.4489291   -3242.8594   -50115.258   -8979.4399    49366.119    37092.998     15815.22   -1693.7134    88.057519 
   76100    2243.3407    -109.8308    2.0298219   -107.80098     3197.772    4.4545219    4.4545219    4.4545219     3197.772    9143.3205    37871.083   -37421.087   -1028.0949    33991.113   -15073.192    88.390034 
   76200    1562.0575   -109.21693    1.4133824   -107.80355    13709.027    4.4437418    4.4437418    4.4437418    13709.027    32484.816   -7219.2067    15861.473    56775.813   -12223.575    2200.1478    87.749862 
   76300    1828.6556   -109.45206     1.654606   -107.79745    10591.063    4.4388028    4.4388028    4.4388028    10591.063    3938.3491    36321.183   -8486.3437   -17563.163    39880.423    4208.6117    87.457602 
   76400    1648.8482   -109.29548    1.4919125   -107.80357    20503.652    4.4427592    4.4427592    4.4427592    20503.652    69988.386   -9146.8472    669.41844    49536.567   -9408.7359    -1722.727    87.691666 
   76500    1758.4417   -109.40798     1.591075    -107.8169     2989.471    4.4598044    4.4598044    4.4598044     2989.471   -28570.125    40985.896   -3447.3575    40954.504    18329.967    6243.9726    88.704866 
   76600    1850.5781   -109.46965    1.6744419   -107.79521    15942.851    4.4658587    4.4658587    4.4658587    15942.851   -4456.9968    46692.525    5593.0248   -6528.7279   -443.62615   -7124.5394    89.066611 
   76700    1330.7078    -108.9854    1.2040524   -107.78135   -11474.404    4.4594237    4.4594237    4.4594237   -11474.404   -56151.542    23628.291   -1899.9608    37258.126    9074.4394   -7083.8268    88.682147 
   76800    2007.1348   -109.58625    1.8160977   -107.77015   -3572.1666    4.4399204    4.4399204    4.4399204   -3572.1666   -17711.675    63711.713   -56716.538    2901.2425    58687.469    4948.2538    87.523678 
   76900     2157.688   -109.73554    1.9523215   -107.78322    11782.798    4.4302863    4.4302863    4.4302863    11782.798    22802.102   -47478.729     60025.02    12142.245   -27902.715   -2457.3112    86.955162 
   77000    1182.3597   -108.89837    1.0698239   -107.82855   -10285.214    4.4442916    4.4442916    4.4442916   -10285.214   -42219.331   -13903.203    25266.892    17562.296     50107.13    -2468.902    87.782438 
   77100     2569.551   -110.12611    2.3249837   -107.80113   -33271.103    4.4717646    4.4717646    4.4717646   -33271.103   -24114.712    -45677.21   -30021.388   -7929.6807   -14656.262   -6136.1886    89.420442 
   77200    1295.5174   -108.97657    1.1722113   -107.80436    -34068.96    4.4611297    4.4611297    4.4611297    -34068.96   -59225.562   -52370.823    9389.5054    20647.053    30984.691   -8753.2873     88.78397 
   77300    1830.6652   -109.43066    1.6564243   -107.77424    41406.829    4.4220657    4.4220657    4.4220657    41406.829    82780.774     18903.53    22536.183   -10445.559    44295.623     12350.22    86.472011 
   77400    2230.2599   -109.82187    2.0179861   -107.80389   -11734.028    4.4265818    4.4265818    4.4265818   -11734.028    3631.0656   -27729.172   -11103.978    12560.503   -37461.356   -1697.2662    86.737215 
   77500    1545.8006   -109.22846    1.3986729   -107.82979    37.278647    4.4390286    4.4390286    4.4390286    37.278647    3264.4065   -5987.0041    2834.4335    18558.012    34667.882    900.55766    87.470949 
   77600    1790.0098   -109.44409    1.6196385   -107.82445    23828.448    4.4546767    4.4546767    4.4546767    23828.448    23056.292    61494.082    -13065.03   -7813.4032   -21184.743    35263.094    88.399246 
   77700    1774.5538   -109.39779    1.6056536   -107.79214   -32355.972    4.4802519    4.4802519    4.4802519   -32355.972   -48234.937    -29414.55    -19418.43     16537.37    187.58998   -25955.564    89.930559 
   77800    2269.5192   -109.81122    2.0535087   -107.75772    7435.3813     4.456847     4.456847     4.456847    7435.3813    8413.3014    30537.695   -16644.852   -14205.336   -1481.8887    38241.081    88.528513 
   77900    1202.3069   -108.85799    1.0878726   -107.77012    16138.502     4.430698     4.430698     4.430698    16138.502    24404.743    26345.543    -2334.779    25334.962   -29810.976    12202.337    86.979408 
   78000    2311.0098   -109.88216    2.0910502   -107.79111    9848.4907    4.4333666    4.4333666    4.4333666    9848.4907    1396.8096    20055.803    8092.8591    14590.036    12525.665   -31954.442    87.136665 
   78100     1871.777   -109.51054    1.6936231   -107.81691    18731.465    4.4369902    4.4369902    4.4369902    18731.465    21826.921    47418.707   -13051.235   -17867.803   -15008.661    30988.066    87.350505 
   78200    2024.8293   -109.66012    1.8321081   -107.82801   -10200.682     4.459447     4.459447     4.459447   -10200.682    15180.848   -2172.1777   -43610.718    26742.745   -24218.894   -25585.971    88.683542 
   78300    1778.5019   -109.40632    1.6092259    -107.7971   -12852.054    4.4631276    4.4631276    4.4631276   -12852.054    -43545.04    25527.014   -20538.136    -12446.81    38272.986    96.175272    88.903304 
   78400    1089.6293   -108.77473   0.98591948   -107.78881    18700.322    4.4382712    4.4382712    4.4382712    18700.322    11766.544    783.41063    43551.011     4067.602   -31043.514    24329.809    87.426181 
   78500    2692.1551   -110.20395    2.4359185   -107.76803    17772.673    4.4411223    4.4411223    4.4411223    17772.673   -6291.6621   -12473.026    72082.708   -6316.9664     21989.71    -8073.823    87.594774 
   78600    1389.8647    -109.0597    1.2575787   -107.80212   -20301.725     4.460153     4.460153     4.460153   -20301.725   -30565.163    -5234.964   -25105.049    5660.0152    221.83128    30313.264    88.725668 
   78700    2284.2915   -109.83225    2.0668749   -107.76538   -15233.745    4.4618919    4.4618919    4.4618919   -15233.745   -6466.8715   -28550.759   -10683.604    3727.6685   -16182.451   -18110.498    88.829483 
   78800    1287.9886   -108.93682    1.1653992   -107.77142    2965.1273    4.4362917    4.4362917    4.4362917    2965.1273    6278.6745   -25582.154    28198.861   -27136.208    35872.971    8854.2186    87.309256 
   78900    2201.5198   -109.76222    1.9919814   -107.77023    23031.269    4.4300455    4.4300455    4.4300455    23031.269    36855.742    33275.429   -1037.3652    11882.184   -931.94496    12151.515    86.940988 
   79000    1368.8522   -109.04676    1.2385662    -107.8082    13530.624    4.4440471    4.4440471    4.4440471    13530.624    54717.909   -34142.154    20016.118   -13711.683    1384.0606   -62953.873    87.767952 
   79100    1516.6921   -109.18612    1.3723349   -107.81378   -8206.2363    4.4627755    4.4627755    4.4627755   -8206.2363   -19552.405    10868.196     -15934.5   -9096.4218    36610.276    21623.964    88.882267 
   79200    2371.9928   -109.93006     2.146229   -107.78383   -7002.1342    4.4581117    4.4581117    4.4581117   -7002.1342    27401.473   -1792.2673   -46615.609    -6110.002   -18050.557   -21772.896    88.603899 
   79300    1517.0625   -109.16161      1.37267   -107.78894    29408.778    4.4357963    4.4357963    4.4357963    29408.778    68646.239    18853.417    726.67891   -35613.868    36548.688   -4793.0894    87.280012 
   79400    2231.2835   -109.80846    2.0189122   -107.78955    9422.7457    4.4432846    4.4432846    4.4432846    9422.7457    7227.0647    57367.461   -36326.289   -10267.383   -7785.3436    16631.964    87.722783 
   79500    1604.3999   -109.24438    1.4516948   -107.79269     11118.55    4.4555319    4.4555319    4.4555319     11118.55    -19718.96    82202.165   -29127.554    -11286.43    2406.2646   -34588.622     88.45017 
   79600     1591.057   -109.22753    1.4396218    -107.7879   -10689.742    4.4645039    4.4645039    4.4645039   -10689.742   -3631.3783    6310.3925   -34748.241   -16950.614    19878.944    7259.5714     88.98558 
   79700    2043.9446   -109.61973     1.849404   -107.77032   -30005.792    4.4588865    4.4588865    4.4588865   -30005.792     -34799.8    4496.0437   -59713.619     13182.21   -47933.924    3439.9007    88.650106 
   79800    1698.1593   -109.30999    1.5365303   -107.77346    21395.562    4.4240019    4.4240019    4.4240019    21395.562   -7941.2405     57125.95    15001.978   -20788.841    65606.461   -1006.0933    86.585646 
   79900    1976.9331   -109.58411    1.7887706   -107.79534    10831.218    4.4221801    4.4221801    4.4221801    10831.218    5539.9692    11027.395    15926.289   -11271.535   -35483.584    5748.8042    86.478728 
   80000    1612.1995   -109.27812     1.458752   -107.81937   -14634.136    4.4465445    4.4465445    4.4465445   -14634.136   -31438.443    47233.418   -59697.382    2215.8941    21693.346     23468.75    87.916004 
   80100    2184.1109   -109.78412    1.9762294   -107.80789   -23495.206    4.4520757    4.4520757    4.4520757   -23495.206    -33639.61   -3652.4085     -33193.6   -15036.639    8619.0308   -7280.3383    88.244497 
   80200    1231.1175   -108.93063    1.1139409   -107.81668   -25584.266    4.4420775    4.4420775    4.4420775   -25584.266   -17702.091   -28712.301   -30338.406   -1314.4102   -25317.037    6322.7767    87.651307 
   80300    2093.1394    -109.7107    1.8939165   -107.81678    4158.9367    4.4230348    4.4230348    4.4230348    4158.9367   -5053.2755    19963.327    -2433.241    3919.6004    25257.575    40469.204    86.528876 
   80400    2225.0288   -109.84279    2.0132528   -107.82953   -7937.3864    4.4366122    4.4366122    4.4366122   -7937.3864    2598.8058    11878.509   -38289.474   -10453.783   -18076.108   -28858.773    87.328181 
   80500     1086.798   -108.81412   0.98335766   -107.83076   -23792.947     4.460037     4.460037     4.460037   -23792.947    17994.838   -39225.315   -50148.366    13057.528   -4118.6476    37844.217    88.718743 
   80600    2147.2595   -109.73651    1.9428855   -107.79362   -11241.507    4.4600659    4.4600659    4.4600659   -11241.507   -48978.816     41146.16   -25891.865    18259.352   -9733.0374   -5755.3033    88.720468 
   80700    1849.1072    -109.4902     1.673111   -107.81709   -3587.9624    4.4309546    4.4309546    4.4309546   -3587.9624   -3796.6367     29075.57    -36042.82   -11980.991   -30943.457    25643.202     86.99452 
   80800    1910.3592    -109.5377    1.7285331   -107.80917    53759.044      4.39831      4.39831      4.39831    53759.044      28478.8    101030.78    31767.551    27151.874     15235.93    17384.148    85.085882 
   80900    1635.6657   -109.34613    1.4799847   -107.86615    12036.819    4.4265712    4.4265712    4.4265712    12036.819   -35218.112    36221.417    35107.152    5617.7151   -29028.018   -5163.3854    86.736595 
   81000    2150.6845   -109.77086    1.9459846   -107.82488    -22105.37    4.4599896    4.4599896    4.4599896    -22105.37    -46613.88    28692.915   -48395.143   -5766.0916    5003.0231    6909.7667    88.715913 
   81100    1648.5976   -109.29404    1.4916858   -107.80235   -3434.7802    4.4547576    4.4547576    4.4547576   -3434.7802   -35390.661    43775.276   -18688.956    19608.933    16689.277    877.11872    88.404062 
   81200    1685.0614    -109.3168    1.5246789   -107.79212   -3851.0171     4.440161     4.440161     4.440161   -3851.0171   -14458.601    5627.6307   -2722.0805   -17399.484   -20185.325   -11.501886    87.537903 
   81300    1698.7517    -109.3474    1.5370662   -107.81034    17965.312      4.41581      4.41581      4.41581    17965.312    12326.211    52450.067   -10880.342   -794.53622    61836.924   -695.21419    86.105551 
   81400    2100.0513     -109.729    1.9001705   -107.82883    34738.459    4.4240757    4.4240757    4.4240757    34738.459    3459.5044    22297.391    78458.482   -4418.2864   -18729.622    5058.0369     86.58998 
   81500    1371.9632   -109.08289    1.2413811    -107.8415   -34029.035    4.4558925    4.4558925    4.4558925   -34029.035   -68638.846   -14408.781   -19039.477    -16549.42    46158.334    1966.5716    88.471649 
   81600    1659.9201   -109.33114    1.5019306   -107.82921   -7416.6639    4.4438881    4.4438881    4.4438881   -7416.6639   -45790.642    10587.748    12952.902    4851.7073    24436.369    12425.868    87.758532 
   81700    2065.8631   -109.68775    1.8692364   -107.81852     18183.56      4.41957      4.41957      4.41957     18183.56   -5173.5274    7920.6367    51803.571   -13005.993   -26041.863    5793.6531    86.325686 
   81800    2160.4183   -109.77993    1.9547919   -107.82514    6976.7165    4.4239724    4.4239724    4.4239724    6976.7165   -14526.069   -949.69453    36405.914    6294.1075    42869.519   -9269.8883    86.583916 
   81900    1484.9522   -109.18921    1.3436159   -107.84559   -7117.1474    4.4406539    4.4406539    4.4406539   -7117.1474   -16208.079    1530.5382   -6673.9017   -2978.7009   -26954.741     39045.97    87.567063 
   82000    1700.5051    -109.3685    1.5386527   -107.82985    -10303.89    4.4506227    4.4506227    4.4506227    -10303.89   -22807.968   -2248.7693   -5854.9319   -12450.454    -20414.16   -26670.497    88.158125 
   82100    2342.6229     -109.915    2.1196544   -107.79534   -7914.2317    4.4493051    4.4493051    4.4493051   -7914.2317    27231.093   -42456.924   -8516.8646     6088.957    10153.054    35996.024    88.079852 
   82200    959.79122   -108.67337   0.86843927   -107.80493   -35145.601    4.4455667    4.4455667    4.4455667   -35145.601    3881.2777   -21185.139   -88132.941   -8511.5901     -47223.7    8971.7638    87.858017 
   82300    2266.5418   -109.84195    2.0508147   -107.79113    23991.978    4.4189227    4.4189227    4.4189227    23991.978    29916.702    52821.954   -10762.723   -7843.1654    38276.739    -28236.85    86.287764 
   82400     1562.101   -109.24619    1.4134218   -107.83276   -5906.2316    4.4261618    4.4261618    4.4261618   -5906.2316    30844.303    13468.546   -62031.544    4357.0366   -11384.051    37336.337    86.712527 
   82500     1974.573   -109.62671    1.7866351   -107.84008   -22520.755    4.4381847    4.4381847    4.4381847   -22520.755   -11728.606   -16125.949   -39707.711   -17413.839   -57854.694    12459.955    87.421069 
   82600    2238.5714   -109.85162    2.0255064   -107.82611    22624.922     4.431152     4.431152     4.431152    22624.922    54260.934    29932.942   -16319.112   -14.403705    49687.934   -5088.3035    87.006148 
   82700    727.13551   -108.50778   0.65792749   -107.84985   -36651.904     4.442756     4.442756     4.442756   -36651.904   -60928.189    81096.821   -130124.34     12161.21   -84191.905    16209.011    87.691477 
   82800    2699.3651    -110.2374    2.4424423   -107.79496    1629.1951    4.4347307    4.4347307    4.4347307    1629.1951    47919.328   -8890.7449   -34140.998   -8146.4941    6472.7694   -10706.714    87.217123 
   82900    999.42863   -108.72898   0.90430402   -107.82468    4184.1018    4.4459309    4.4459309    4.4459309    4184.1018   -24818.982    66917.067    -29545.78     -7350.59    -46103.61    3925.8098    87.879609 
   83000    2535.8049   -110.06218    2.2944495   -107.76773   -16776.275    4.4634936    4.4634936    4.4634936   -16776.275   -12850.889   -2920.0859   -34557.851    7216.2781    15083.838    6658.9487     88.92518 
   83100    1446.8042   -109.07417    1.3090988   -107.76507    34516.307     4.438818     4.438818     4.438818    34516.307    63079.159   -1939.8528    42409.615    1519.0865   -50557.937   -27409.497    87.458498 
   83200    1816.3481   -109.41726      1.64347   -107.77379    24379.387    4.4297706    4.4297706    4.4297706    24379.387    34800.587     10254.44    28083.133    397.20131   -19019.156    14096.915    86.924803 
   83300    2185.8434   -109.76639     1.977797    -107.7886    7818.2126    4.4359378    4.4359378    4.4359378    7818.2126    11734.117   -10028.908    21749.429    5574.7414    841.43156   -19367.173    87.288365 
   83400    1258.1675   -108.96671    1.1384164    -107.8283   -8967.3083     4.446156     4.446156     4.446156   -8967.3083    3813.5969    20049.609    -50765.13    9191.2697   -64267.662   -734.40264     87.89296 
   83500    2637.3647   -110.17765     2.386343    -107.7913   -21753.065    4.4614415    4.4614415    4.4614415   -21753.065    10316.615   -60435.164   -15140.646   -6272.0521    27644.042    22392.504    88.802587 
   83600    1154.4404   -108.84558    1.0445619   -107.80102   -19014.961    4.4491661    4.4491661    4.4491661   -19014.961   -18136.476    -9486.951   -29421.457    13687.967   -73077.294   -25353.613    88.071595 
   83700    2222.7988   -109.79797    2.0112351   -107.78674    17972.454    4.4258497    4.4258497    4.4258497    17972.454    73192.655   -19971.422    696.13033    51.416596    12668.202    19575.895    86.694186 
   83800     1710.609   -109.34945     1.547795   -107.80166    13503.486    4.4317247    4.4317247    4.4317247    13503.486    50649.452   -5932.4431   -4206.5511   -891.31459   -46697.911   -5521.3276    87.039886 
   83900    832.86741   -108.58942   0.75359593   -107.83583   -14825.776     4.444034     4.444034     4.444034   -14825.776    21026.487   -13991.212   -51512.602     10729.74   -44462.981   -19133.743    87.767175 
   84000    2987.9276   -110.49939    2.7035397   -107.79585    3517.3689    4.4491168    4.4491168    4.4491168    3517.3689    54602.905   -30682.438    -13368.36   -6850.8688    22282.241   -1159.5403    88.068668 
   84100    603.14631   -108.37288   0.54573946   -107.82714    -21761.86    4.4551421    4.4551421    4.4551421    -21761.86   -31561.487   -810.24275    -32913.85    12056.607   -65871.008   -19881.972    88.426959 
   84200    2575.3477   -110.11477    2.3302287   -107.78454   -454.87539     4.437633     4.437633     4.437633   -454.87539    24488.267   -24222.899   -1629.9943    5735.6526    16083.962    -10754.31    87.388472 
   84300    929.74976   -108.65215   0.84125712   -107.81089    16074.628    4.4294093    4.4294093    4.4294093    16074.628    4042.9731    43015.575    1165.3369   -17287.743   -36120.929     2615.563    86.903536 
   84400    2046.3334   -109.65475    1.8515654   -107.80319   -21298.172    4.4433482    4.4433482    4.4433482   -21298.172    -4723.463   -23661.384   -35509.667    15557.956   -28376.794    -26831.23    87.726551 
   84500    1840.2335   -109.45966     1.665082   -107.79457    27109.539    4.4467229    4.4467229    4.4467229    27109.539    4129.2576    22399.747    54799.613    -6354.903    2825.3877    6545.7184    87.926584 
   84600    1341.6922   -109.01857    1.2139913   -107.80458   -18396.958    4.4610471    4.4610471    4.4610471   -18396.958   -7270.2118    9524.4473   -57445.111   -11434.761   -29582.814   -9740.3022    88.779039 
   84700    2314.5735    -109.8583    2.0942748   -107.76402   -8961.3266    4.4535842    4.4535842    4.4535842   -8961.3266   -5144.5179   -24317.547    2578.0848    17784.154    20510.949   -5390.0355    88.334222 
   84800    1619.3253   -109.23228    1.4651996   -107.76708    20686.963    4.4352495    4.4352495    4.4352495    20686.963   -17051.063    66624.255    12487.696    -17518.77   -14495.021   -3978.8669    87.247736 
   84900    1931.2132   -109.52268    1.7474023   -107.77528   -15431.048     4.448606     4.448606     4.448606   -15431.048    -13841.22   -30391.483   -2060.4423    41874.297     7309.661    -240.9182    88.038338 
   85000    1504.9408     -109.144    1.3617021    -107.7823    1615.7844    4.4532171    4.4532171    4.4532171    1615.7844   -21667.779    23663.268    2851.8646    8213.4033    5576.9489    5819.1801     88.31238 
   85100    2059.1284   -109.64302    1.8631427   -107.77988    10558.754    4.4497415    4.4497415    4.4497415    10558.754    4142.9699    52834.252   -25300.959     7354.702   -243.30231    25630.853    88.105769 
   85200    1658.1409   -109.29336    1.5003207   -107.79304   -15987.014     4.452415     4.452415     4.452415   -15987.014   -20794.933    1584.0441   -28750.152    38419.723    9684.5961    1642.1316    88.264673 
   85300    1690.4534   -109.32012    1.5295577   -107.79056    23784.006    4.4400854    4.4400854    4.4400854    23784.006    30160.516    93993.067   -52801.564   -5535.7846   -7627.9732   -5077.1112    87.533437 
   85400    2003.8643   -109.60859    1.8131385   -107.79545   -10504.489    4.4397055    4.4397055    4.4397055   -10504.489   -12544.016    -13891.42   -5078.0309    2089.4021    6088.4539    15422.067    87.510965 
   85500    1547.3944   -109.21226     1.400115   -107.81215    19991.473    4.4347324    4.4347324    4.4347324    19991.473    28461.228    57465.407   -25952.216    23147.742    35299.812   -1297.8996    87.217225 
   85600     2273.984   -109.85475    2.0575485   -107.79721    16632.888    4.4428889    4.4428889    4.4428889    16632.888    37726.347    10352.254    1820.0634   -15551.569   -20587.097   -3908.6101    87.699348 
   85700    1278.7321   -108.96049    1.1570237   -107.80347   -43218.143    4.4533341    4.4533341    4.4533341   -43218.143   -98343.555    9508.3703   -40819.243    2909.9207    65342.979    12760.812    88.319345 
   85800    2417.8349   -109.96259    2.1877078   -107.77489   -594.89769    4.4477876    4.4477876    4.4477876   -594.89769    17684.297   -17134.743   -2334.2474    10588.571   -1559.2613   -9445.5913    87.989756 
   85900    1312.2106   -108.97484    1.1873157   -107.78752   -18016.026    4.4520792    4.4520792    4.4520792   -18016.026   -72044.257    1127.9416    16868.236   -19358.022    9735.7375    1808.6131    88.244702 
   86000    1965.8424    -109.5543    1.7787355   -107.77556   -7477.4454    4.4311714    4.4311714    4.4311714   -7477.4454   -20517.505   -12522.487    10607.656    662.80541    29708.417   -14662.648    87.007293 
   86100    1911.1537   -109.51052     1.729252   -107.78127      11001.2    4.4238801    4.4238801    4.4238801      11001.2    29630.034    2473.9691    899.59626     892.5298   -13434.848   -49450.419    86.578498 
   86200    1511.7324    -109.1616    1.3678472   -107.79375   -2774.4201    4.4496631    4.4496631    4.4496631   -2774.4201   -71503.843    28439.513     34741.07   -21483.361    23677.816    7110.5348    88.101114 
   86300    1444.8484   -109.09155    1.3073292   -107.78422   -2731.2513    4.4550895    4.4550895    4.4550895   -2731.2513    33544.255   -3574.8075   -38163.201     542.2087   -8987.4557   -72590.347    88.423828 
   86400    2138.1843   -109.69213    1.9346741   -107.75746      12437.3    4.4529724    4.4529724    4.4529724      12437.3   -10427.243    73464.164   -25725.021    6003.1213    8319.5008    22063.523    88.297828 
   86500     1603.097   -109.22319    1.4505158   -107.77267   -17845.591    4.4575922    4.4575922    4.4575922   -17845.591    23795.317   -40852.388   -36479.702   -9460.4827    21658.338    -54064.14    88.572928 
   86600    2346.1329   -109.88552    2.1228304   -107.76269     10111.08    4.4380662    4.4380662    4.4380662     10111.08    20342.202    12087.283   -2096.2428    10077.676   -21596.314     8342.169    87.414065 
   86700    1583.0872   -109.21238    1.4324106   -107.77997    14598.664    4.4330431    4.4330431    4.4330431    14598.664    48208.098    38147.495     -42559.6   -8569.7158     27727.82   -24772.852    87.117592 
   86800    2061.4539   -109.64688    1.8652468   -107.78163   -29198.024    4.4607871    4.4607871    4.4607871   -29198.024   -8992.3378   -30750.669   -47851.064      5158.02   -7501.7348   -24583.514    88.763514 
   86900    1845.0075   -109.44984    1.6694016   -107.78044   -33149.932    4.4555031    4.4555031    4.4555031   -33149.932    -54367.04   -8079.6045    -37003.15    17673.687   -7153.5194     8630.042    88.448454 
   87000    2441.5196   -109.97759    2.2091382   -107.76845    10599.364     4.433391     4.433391     4.433391    10599.364    44071.207    20999.708   -33272.822   -13847.891    24624.754   -25150.364    87.138106 
   87100    1228.3987   -108.91799     1.111481   -107.80651    -28001.75    4.4441186    4.4441186    4.4441186    -28001.75   -42134.412   -37649.273    -4221.566    26527.015   -32240.245    1015.7386    87.772188 
   87200    2437.4323   -109.99578      2.20544   -107.79034   -25694.784    4.4495498    4.4495498    4.4495498   -25694.784   -55734.602   -2675.7579   -18673.991   -15971.533    26587.347   -9209.3274    88.094382 
   87300    1338.0467   -109.01258    1.2106928   -107.80188   -19287.434    4.4724735    4.4724735    4.4724735   -19287.434   -71024.818   -32922.936    46085.452    44889.295   -34087.223   -4240.8486    89.462976 
   87400    1957.6066    -109.5047    1.7712836   -107.73342   -33902.516    4.4925173    4.4925173    4.4925173   -33902.516   -74197.341    -37674.98    10164.774   -28081.859   -6034.2103   -6956.4963    90.671181 
   87500    1938.4713   -109.48552    1.7539696   -107.73156   -6336.9822    4.4553499    4.4553499    4.4553499   -6336.9822    -63426.95    30734.344    13681.659    35209.513   -20352.381   -3228.7691    88.439334 
   87600    1303.1428   -108.91878     1.179111   -107.73967    31384.668    4.4101498    4.4101498    4.4101498    31384.668    -5711.103    57008.653    42856.453   -4693.3216   -34096.203    9284.1324    85.774862 
   87700    2539.2515   -110.06362    2.2975681   -107.76605    13735.445    4.4159131    4.4159131    4.4159131    13735.445    29735.951   -2627.3605    14097.744   -10545.524    31822.129   -15578.163     86.11158 
   87800    885.42362   -108.64084   0.80114989   -107.83969   -17615.808    4.4478027    4.4478027    4.4478027   -17615.808   -51773.552    30991.284   -32065.156    22633.928   -51622.246    -4254.146    87.990654 
   87900    2715.8854   -110.24796    2.4573902   -107.79057   -20469.847    4.4698163    4.4698163    4.4698163   -20469.847   -996.67962   -30266.043   -30146.817    -10523.83    2392.0555    81.555567    89.303613 
   88000    1169.1256   -108.85909    1.0578494   -107.80124   -18283.352     4.456608     4.456608     4.456608   -18283.352   -19578.209   -3270.5258    -32001.32    19318.411   -16079.138   -8167.5071    88.514273 
   88100    1883.8078   -109.48416    1.7045089   -107.77965    14981.643    4.4192323    4.4192323    4.4192323    14981.643    48668.552     25149.26   -28872.883    5185.8774   -31393.546    4878.3626    86.305903 
   88200    2113.2184   -109.69994    1.9120844   -107.78786    24217.627    4.4081639    4.4081639    4.4081639    24217.627    18842.687   -10626.467    64436.662   -44833.821    12326.838    11858.698    85.659042 
   88300    1922.7638    -109.5623    1.7397571   -107.82254    23795.235    4.4309908    4.4309908    4.4309908    23795.235    74040.612    14817.871   -17472.778    38034.464    -44971.14   -13747.929    86.996652 
   88400    1369.0758   -109.06262    1.2387686   -107.82385   -23792.065    4.4629249    4.4629249    4.4629249   -23792.065   -8376.5773   -55703.252   -7296.3648   -47942.618    4200.1249    26135.408    88.891192 
   88500     2112.305   -109.69555    1.9112579   -107.78429   -11412.177    4.4515595    4.4515595    4.4515595   -11412.177   -13831.304   -16454.742   -3950.4835    833.02161   -14617.781   -1436.1825    88.213806 
   88600    1460.6263   -109.10372    1.3216053   -107.78212    23760.656    4.4176902    4.4176902    4.4176902    23760.656    32218.259   -1160.7365    40224.444   -15154.934    -37634.28   -6247.8617    86.215585 
   88700    2378.0445   -109.94041    2.1517047    -107.7887    10041.061    4.4178765    4.4178765    4.4178765    10041.061   -7890.3372   -19999.324    58012.846   -35036.825     27094.79    19273.087    86.226492 
   88800    1368.2823   -109.05512    1.2380506   -107.81707    16567.146    4.4310289    4.4310289    4.4310289    16567.146   -2823.1009    29753.042    22771.496    20222.197   -16690.853   -16494.046    86.998895 
   88900    1965.6888   -109.59574    1.7785966   -107.81714   -27678.693    4.4561158    4.4561158    4.4561158   -27678.693   -61498.612   -44745.139    23207.673    -23083.61    -25409.17    3094.0693    88.484947 
   89000     1721.405   -109.35581    1.5575634   -107.79825   -13523.786    4.4470203    4.4470203    4.4470203   -13523.786   -15519.716   -9175.4826   -15876.158   -3031.2341    34434.544    16197.724    87.944226 
   89100    1787.7471   -109.40774    1.6175912   -107.79015     5799.041    4.4166342    4.4166342    4.4166342     5799.041   -22573.489    31649.389    8321.2222    3217.1674   -19598.388   -27797.388    86.153771 
   89200    1684.3009   -109.33413    1.5239908   -107.81014    221.38333    4.4140699    4.4140699    4.4140699    221.38333     30208.84   -26426.801   -3117.8885   -7663.5658   -10400.956    68055.746    86.003798 
   89300    1869.6038   -109.51743    1.6916568   -107.82577    7355.3586    4.4336489    4.4336489    4.4336489    7355.3586   -51165.834    41157.955    32073.954   -3836.1343    34075.349     -9525.04    87.153312 
   89400    1364.4626   -109.04529    1.2345944    -107.8107     -18073.5    4.4689911    4.4689911    4.4689911     -18073.5   -22562.821    9328.9572   -40986.636    22071.785   -13906.088    30661.485    89.254159 
   89500    2364.5796   -109.90146    2.1395213   -107.76194   -12343.499    4.4570621    4.4570621    4.4570621   -12343.499   -8981.1827   -38635.462    10586.149   -7403.5151    15825.498    25969.535     88.54133 
   89600    1635.9165   -109.24689    1.4802116   -107.76668    6758.8591    4.4168474    4.4168474    4.4168474    6758.8591    -48393.67    35425.878    33244.369    22977.687   -18264.891   -2294.9822    86.166251 
   89700    1541.6235   -109.19293    1.3948933   -107.79804    19946.803     4.405205     4.405205     4.405205    19946.803    35398.537    15189.131    9252.7412   -11375.869   -8955.2648    39399.427    85.486667 
   89800    1999.9574   -109.63642    1.8096035   -107.82682   -4813.5306    4.4313037    4.4313037    4.4313037   -4813.5306   -10583.942   -50576.991    46720.341   -16853.517    1417.0896   -37228.192    87.015085 
   89900    1672.6294   -109.33924    1.5134302   -107.82581   -31364.116     4.453375     4.453375     4.453375   -31364.116   -31359.119   -39436.093   -23297.137    55742.597   -16605.447    19609.682    88.321774 
   90000    1929.6454   -109.56065    1.7459837   -107.81466   -12715.824    4.4346749    4.4346749    4.4346749   -12715.824   -12647.724   -35073.269    9573.5212   -76514.548     2868.124   -2370.4401    87.213831 
   90100    1529.9568   -109.19395     1.384337   -107.80961    2284.6024    4.4150036    4.4150036    4.4150036    2284.6024    15196.306   -38647.492    30304.994    36730.291   -6710.9984    -21046.88    86.058385 
   90200    1938.9051   -109.57765    1.7543621   -107.82329   -5185.3402    4.4155697    4.4155697    4.4155697   -5185.3402   -18794.044   -6051.8807    9289.9037    40014.033   -22614.183    4401.7891     86.09149 
   90300    2490.5221   -110.08237    2.2534767    -107.8289    9425.7207    4.4263943    4.4263943    4.4263943    9425.7207    39008.546   -8771.0626   -1960.3211   -49247.774    9514.3965   -251.26582    86.726198 
   90400    829.87589   -108.60938   0.75088915   -107.85849   -21176.129    4.4407206    4.4407206    4.4407206   -21176.129    1572.5801   -73598.915    8497.9483    80920.705   -12376.695   -4286.5761    87.571008 
   90500    2343.8103   -109.95456    2.1207288   -107.83383   -4640.6945    4.4314891    4.4314891    4.4314891   -4640.6945    18565.971   -7754.3215   -24733.733   -18290.293   -19037.003   -20958.741     87.02601 
   90600     1685.156   -109.35277    1.5247646   -107.82801    14619.419    4.4250481    4.4250481    4.4250481    14619.419    2888.1637   -24669.193    65639.288    67206.889    10917.444    22502.395    86.647092 
   90700    1413.0444   -109.10173    1.2785523   -107.82318   -13503.764    4.4340569    4.4340569    4.4340569   -13503.764   -16746.593   -41987.989     18223.29     29903.67   -16905.927   -14637.295    87.177373 
   90800    1992.0591   -109.60451     1.802457   -107.80206    5675.3079    4.4362387    4.4362387    4.4362387    5675.3079   -14222.949    14339.378    16909.495    -4432.112    3592.3612   -32239.279    87.306124 
   90900    1467.1967   -109.13414    1.3275504   -107.80659   -19030.741     4.445527     4.445527     4.445527   -19030.741   -40438.521   -10637.026   -6016.6767    46020.314    -4780.107    39479.552     87.85566 
   91000    2439.8327   -109.99505    2.2076119   -107.78744   -7862.5021    4.4381234    4.4381234    4.4381234   -7862.5021   -34648.079    30777.897   -19717.324    -19371.63   -16105.188   -3812.7373    87.417449 
   91100    1673.1331    -109.3137    1.5138859   -107.79982     17970.04    4.4197156    4.4197156    4.4197156     17970.04   -19725.519   -10.242917    73645.883    50164.345    8741.7453    6312.5975     86.33422 
   91200    1332.4322   -109.02914    1.2056127   -107.82353    851.01635    4.4265272    4.4265272    4.4265272    851.01635    8268.1683   -7338.7516    1623.6323   -16348.047    -23461.74    53904.674    86.734005 
   91300    1817.0259   -109.46831    1.6440832   -107.82423    4340.1627    4.4355133    4.4355133    4.4355133    4340.1627    -35449.99      13554.4    34916.078    12340.442   -23482.972   -19754.044    87.263305 
   91400    1983.8187   -109.61221    1.7950009   -107.81721   -15802.107    4.4438126    4.4438126    4.4438126   -15802.107   -12055.366   -50630.377    15279.421    20427.995    16513.503    30686.034    87.754055 
   91500    1663.5821   -109.31248    1.5052441   -107.80724   -13080.997    4.4386373    4.4386373    4.4386373   -13080.997   -13394.677    6111.3788   -31959.695   -14432.317   -45924.804    24633.452     87.44782 
   91600    1806.0208   -109.43088    1.6341255   -107.79675    18274.327    4.4226542    4.4226542    4.4226542    18274.327    21801.881   -19753.036    52774.138    26546.706    4943.7559   -22149.277    86.506542 
   91700    1647.1941   -109.30475    1.4904158   -107.81433   -408.77906    4.4309456    4.4309456    4.4309456   -408.77906    44731.545   -30998.513   -14959.369    13647.549    -3629.766    50913.811     86.99399 
   91800    2007.8357   -109.62185    1.8167319   -107.80512   -7991.5736    4.4365886    4.4365886    4.4365886   -7991.5736   -20208.141    23086.059   -26852.639   -9360.1393   -39670.357   -14284.507    87.326784 
   91900     1774.183   -109.40967    1.6053181   -107.80436   -9401.3588    4.4364435    4.4364435    4.4364435   -9401.3588   -21575.763   -15286.412    8658.0985    40816.643    24468.582    12865.112    87.318215 
   92000    1460.2212   -109.13898    1.3212388   -107.81775   -26881.229    4.4357111    4.4357111    4.4357111   -26881.229   -38125.867   -24851.264   -17666.556   -36488.948   -36175.134    11228.427    87.274979 
   92100    1858.5192    -109.5084    1.6816273   -107.82677    1288.6852    4.4197736    4.4197736    4.4197736    1288.6852   -44801.354    6437.9856    42229.424    7045.1806   -27533.836    1160.5662    86.337621 
   92200    2370.4597   -109.96653    2.1448418   -107.82169    7764.2467    4.4198326    4.4198326    4.4198326    7764.2467    971.10594    8238.0891    14083.545      22317.7    4141.3223    18465.392    86.341074 
   92300    959.01583   -108.71549   0.86773768   -107.84775   -19291.167    4.4386072    4.4386072    4.4386072   -19291.167   -52700.724   -8788.6035    3615.8256    -47738.63   -46842.889     5460.309    87.446036 
   92400    2515.5042   -110.08437    2.2760811   -107.80828   -16104.912    4.4457805    4.4457805    4.4457805   -16104.912   -27323.823   -50477.081    29486.167   -6948.6307    14918.345    262.51966    87.870691 
   92500    1350.5757   -109.04293    1.2220293    -107.8209   -5027.8191    4.4365751    4.4365751    4.4365751   -5027.8191    -6640.812    1464.6567   -9907.3019    9586.1197   -41054.697    17504.418    87.325988 
   92600    1551.9918   -109.22083    1.4042748   -107.81656    11845.706    4.4290223    4.4290223    4.4290223    11845.706    19597.055   -19235.133    35175.197   -39119.784    -19207.32    12664.675    86.880756 
   92700    2742.8442   -110.26898    2.4817831    -107.7872   -9089.1486    4.4427329    4.4427329    4.4427329   -9089.1486    8249.0381   -34107.966   -1408.5177    19750.024    5884.8071   -7831.4882    87.690112 
   92800    867.91033   -108.59245   0.78530351   -107.80715   -21457.943    4.4434113    4.4434113    4.4434113   -21457.943   -22995.537   -21512.389   -19865.902   -42576.377   -44379.024    16895.583    87.730287 
   92900    2286.4859   -109.86179    2.0688605   -107.79293    9758.6302    4.4316727    4.4316727    4.4316727    9758.6302    15471.431   -34075.769    47880.229    29794.475    7976.2329    80.992829    87.036824 
   93000    2127.3585   -109.72603    1.9248787   -107.80115   -12701.599    4.4318895    4.4318895    4.4318895   -12701.599   -15663.033   -11092.463     -11349.3   -15481.111   -34858.553   -4884.3807      87.0496 
   93100    1007.9141   -108.75047   0.91198182   -107.83849   -11196.808    4.4204592    4.4204592    4.4204592   -11196.808   -50826.201   -20407.978    37643.757   -40483.446   -23919.883    20602.891    86.377805 
   93200    2648.0299    -110.2168    2.3959931    -107.8208    3486.4783    4.4229174    4.4229174    4.4229174    3486.4783    651.05483    -13147.83     22956.21    17678.863    14191.642   -11892.382    86.521989 
   93300    1115.7987   -108.85589    1.0095981   -107.84629   -36793.195    4.4358727    4.4358727    4.4358727   -36793.195   -83102.233     6795.223   -34072.574   -30766.669   -42577.885   -6367.5777     87.28452 
   93400    2138.0176   -109.75976    1.9345233   -107.82523    6271.9147    4.4265249    4.4265249    4.4265249    6271.9147   -46443.754    8849.7819    56409.716   -25960.129      8422.45    5823.7247     86.73387 
   93500    1898.5862   -109.53924    1.7178807   -107.82136   -4781.5021      4.43367      4.43367      4.43367   -4781.5021    7510.5909    -4242.016   -17613.081     14264.64   -20190.494   -35488.748    87.154557 
   93600    1651.4349   -109.30309     1.494253   -107.80884   -3774.4021     4.436605     4.436605     4.436605   -3774.4021   -54405.917    32326.682    10756.029    -40002.88   -27413.753    9760.9682    87.327752 
   93700    2124.4447   -109.71983    1.9222422   -107.79758   -1035.8243    4.4272603    4.4272603    4.4272603   -1035.8243    12636.903   -9719.4573   -6024.9189    24256.317     16493.87   -35041.434     86.77711 
   93800    1200.9826   -108.90728    1.0866743    -107.8206   -10437.012    4.4320575    4.4320575    4.4320575   -10437.012    1199.6598    3454.5071   -35965.203    6960.0065   -36702.175   -22521.946      87.0595 
   93900    3033.0915   -110.53073    2.7444049   -107.78632   -2309.1809    4.4313163    4.4313163    4.4313163   -2309.1809   -21561.976    40431.909   -25797.476   -933.66904    452.03233    63.225638    87.015828 
   94000    794.36253   -108.55163   0.71875591   -107.83287   -13867.126    4.4311421    4.4311421    4.4311421   -13867.126    23000.603   -42987.316   -21614.666    23718.873    3185.2101   -37726.883    87.005565 
   94100    2297.9222   -109.88535    2.0792083   -107.80615   -6381.5445    4.4294752    4.4294752    4.4294752   -6381.5445   -6114.4762    -4465.376   -8564.7814    4301.5532   -19434.519    18463.467    86.907413 
   94200    1291.0355   -108.99225     1.168156    -107.8241     26016.46    4.4264866    4.4264866    4.4264866     26016.46    42745.737    4149.6451    31153.997   -22479.638    25515.011   -40527.039     86.73162 
   94300    2241.8836   -109.83473    2.0285034   -107.80623    5310.4303    4.4408682    4.4408682    4.4408682    5310.4303    21658.855   -5433.6659   -293.89851    27209.415   -173.56916   -6345.6017     87.57974 
   94400    1699.9349   -109.32511    1.5381368   -107.78697   -23449.156      4.45743      4.45743      4.45743   -23449.156   -14846.399   -56511.937    1010.8674   -41942.434    9425.2464   -3456.3264     88.56326 
   94500     1445.319   -109.07033     1.307755   -107.76257   -14607.367    4.4580597    4.4580597    4.4580597   -14607.367    6585.5697   -22587.024   -27820.648    5818.5514    20223.653   -28232.003    88.600798 
   94600    2345.7853   -109.85224    2.1225158   -107.72972   -5471.5053    4.4437784    4.4437784    4.4437784   -5471.5053    22743.814   -27808.402   -11349.928   -6607.9578   -13843.353    8767.6058    87.752033 
   94700    1222.9489   -108.87234    1.1065499   -107.76579   -10223.754    4.4253135    4.4253135    4.4253135   -10223.754    10579.542   -44844.805    3594.0016       -25451    20720.355   -52361.915     86.66268 
   94800    2341.7525   -109.89023    2.1188669   -107.77137    30666.731    4.4128398    4.4128398    4.4128398    30666.731    44531.886    36408.039    11060.267     10277.95   -31975.906    26939.022    85.931915 
   94900    1485.0298   -109.16249    1.3436861    -107.8188    10010.873    4.4335983    4.4335983    4.4335983    10010.873    57720.392    -15393.38   -12294.393   -21693.671    4884.3788   -16506.378    87.150328 
   95000    2060.7794   -109.65102    1.8646365   -107.78639   -32140.775    4.4574845    4.4574845    4.4574845   -32140.775   -49596.476    6005.9018   -52831.751   -8885.9758   -13955.485   -13709.629    88.566508 
   95100    1767.4498   -109.38273    1.5992257   -107.78351   -1494.8668    4.4376126    4.4376126    4.4376126   -1494.8668   -29429.723        40201   -15255.878    14058.215   -43389.138      19668.4    87.387266 
   95200    1816.6227   -109.41996    1.6437184   -107.77624    18562.751    4.4149798    4.4149798    4.4149798    18562.751    33875.284    22037.904   -224.93379   -24857.454    22461.598   -29168.101     86.05699 
   95300    1510.1736   -109.17165    1.3664368   -107.80521    7077.1279    4.4173114    4.4173114    4.4173114    7077.1279   -41856.411     79910.22   -16822.425     19755.27   -81987.928    -5242.063    86.193407 
   95400    2494.7141   -110.05574    2.2572698   -107.79847    12699.508    4.4388059    4.4388059    4.4388059    12699.508    1045.0493    14886.094    22167.381   -2496.7766    40328.498   -5778.6797    87.457785 
   95500    995.73891   -108.69481   0.90096549   -107.79385   -11251.535     4.466298     4.466298     4.466298   -11251.535   -51828.141    56161.825   -38088.287    -8237.938   -52871.296   -21070.746      89.0929 
   95600    2655.8862   -110.12067    2.4031017   -107.71757   -40060.967    4.4653977    4.4653977    4.4653977   -40060.967   -20448.426   -60563.388   -39171.087    6444.1692    12910.574     10600.55     89.03903 
   95700    778.33402    -108.4329   0.70425297   -107.72865    12422.862    4.4381591    4.4381591    4.4381591    12422.862    42926.217   -442.60445   -5215.0278   -30833.448   -10013.234   -31317.141    87.419557 
   95800    2725.2733   -110.18857    2.4658845   -107.72269    18419.018     4.429372     4.429372     4.429372    18419.018    50805.217    15184.806   -10732.969    22215.114   -4716.9368    14454.795    86.901341 
   95900     1903.344   -109.50688    1.7221856   -107.78469   -9611.2655    4.4244973    4.4244973    4.4244973   -9611.2655    34926.236    -46516.21   -17243.823   -29379.902    5129.1151   -11342.579    86.614737 
   96000    1706.4382   -109.35414    1.5440211   -107.81012    13865.996    4.4201547    4.4201547    4.4201547    13865.996    32251.626    7457.8578    1888.5041    15705.797   -5592.5171   -5265.1852    86.359958 
   96100    1247.6248   -108.96978    1.1288772    -107.8409   -11488.871    4.4358139    4.4358139    4.4358139   -11488.871    8230.7253   -39909.686   -2787.6514    52785.657   -4544.3907    13434.216    87.281048 
   96200     2307.518   -109.90391    2.0878907   -107.81602   -10720.839    4.4369562    4.4369562    4.4369562   -10720.839    27823.788   -29468.094    -30518.21   -27924.831   -4170.0519    -27436.59    87.348494 
   96300    1550.6649   -109.22292    1.4030742   -107.81985   -9367.4349    4.4360031    4.4360031    4.4360031   -9367.4349   -37948.766    6856.5694    2989.8921    47676.018   -26259.854    5669.4369    87.292219 
   96400     1752.161    -109.4047    1.5853921   -107.81931   -19067.025    4.4304896    4.4304896    4.4304896   -19067.025    33621.564   -74960.313   -15862.327   -19649.596    17047.074    26583.461    86.967134 
   96500    1555.3124   -109.24353    1.4072794   -107.83625    15075.364    4.4107293    4.4107293    4.4107293    15075.364    21873.852   -17589.068    40941.309   -29262.987   -10039.559   -32181.179    85.808676 
   96600     2681.985    -110.2546    2.4267164   -107.82788    5314.9963    4.4209792    4.4209792    4.4209792    5314.9963   -807.46857    18007.225    -1254.767    15636.193   -18620.891    19341.741     86.40829 
   96700    988.82356   -108.74634   0.89470834   -107.85163   -10648.023    4.4417446    4.4417446    4.4417446   -10648.023    20353.869   -79474.668     27176.73   -48292.472    5112.6459   -5486.2911      87.6316 
   96800     1907.971   -109.55037    1.7263722     -107.824    5098.5406    4.4418467    4.4418467    4.4418467    5098.5406    27005.364    -34251.67    22541.928     15516.29   -21324.525    -34015.52    87.637647 
   96900    2155.3195   -109.75799    1.9501784   -107.80781    1653.8216    4.4328802    4.4328802    4.4328802    1653.8216   -31291.491   -19147.758    55400.713    31476.455    10656.663    17182.134    87.107988 
   97000      1796.23   -109.44001    1.6252666   -107.81474   -2783.2381    4.4218138    4.4218138    4.4218138   -2783.2381    22092.293   -40640.192    10198.185   -50045.203    4028.3449   -29409.761    86.457238 
   97100    735.28629   -108.51798   0.66530249   -107.85267    6390.4373    4.4178531    4.4178531    4.4178531    6390.4373    -5925.037    -47508.92    72605.269    94040.344   -10128.512   -1528.0238    86.225122 
   97200    3235.7542   -110.76551    2.9277784   -107.83773     1454.838    4.4307714    4.4307714    4.4307714     1454.838    25188.312   -21679.013    855.21464   -22014.105    16225.884   -1703.2738    86.983728 
   97300    1533.2051   -109.24872    1.3872762   -107.86144    -4904.821    4.4387908    4.4387908    4.4387908    -4904.821   -6414.6971   -40335.278    32035.512    75047.504   -13759.537   -10135.887    87.456892 
   97400    1275.0561   -108.98862    1.1536975   -107.83492     3434.211    4.4378971    4.4378971    4.4378971     3434.211    8219.3373   -44278.766    46362.062   -7304.2982   -8289.3239   -9801.2303    87.404078 
   97500    1977.5009   -109.59951    1.7892844   -107.81023    1010.7568    4.4313897    4.4313897    4.4313897    1010.7568   -19925.024   -30859.677    53816.972    -4977.263   -160.52023    18574.854    87.020154 
   97600    2142.0687   -109.74406    1.9381888   -107.80587    21590.771    4.4191224    4.4191224    4.4191224    21590.771    7075.7084    20987.829    36708.774    47714.346   -11400.396    -27975.08    86.299462 
   97700    1169.8789   -108.89643     1.058531    -107.8379    580.84678    4.4272336    4.4272336    4.4272336    580.84678    33220.826   -35981.611    4503.3255   -42045.859   -4619.9822   -15913.845    86.775537 
   97800    2344.4343   -109.94345    2.1212934   -107.82216   -18156.943    4.4389929    4.4389929    4.4389929   -18156.943    -22825.41   -25935.898   -5709.5205   -9407.0418   -2836.9164    44277.667    87.468835 
   97900    1887.2976   -109.53807    1.7076665    -107.8304   -6443.1042    4.4341548    4.4341548    4.4341548   -6443.1042      6151.22   -6900.2411   -18580.291    5285.9765     -9513.53   -59308.389    87.183147 
   98000    1151.5736   -108.89036     1.041968   -107.84839   -18189.815    4.4250182    4.4250182    4.4250182   -18189.815    40551.092   -74779.067   -20341.469   -38221.381    2811.1608      18738.7    86.645333 
   98100    2087.8128   -109.72941    1.8890969   -107.84031    12899.336    4.4162275    4.4162275    4.4162275    12899.336    37296.371   -10208.995    11610.631     16616.94    7541.1447    35856.658    86.129975 
   98200    1696.7521   -109.38938     1.535257   -107.85413   -1484.3032    4.4333375    4.4333375    4.4333375   -1484.3032    8832.0041    13108.075   -26392.989   -4131.1242   -15455.479    -38165.54    87.134951 
   98300    2118.9843   -109.73822    1.9173015   -107.82092    -1728.317    4.4434998    4.4434998    4.4434998    -1728.317    33228.359   -11565.752   -26847.558   -25216.267    95.399776    11533.756    87.735531 
   98400    1224.9746   -108.93444    1.1083828   -107.82606    3217.6638    4.4363907    4.4363907    4.4363907    3217.6638    6833.3659    36896.428   -34076.803     35094.24   -1673.9824     880.0254    87.315101 
   98500     1993.534   -109.61701    1.8037914   -107.81322   -22925.176    4.4403765    4.4403765    4.4403765   -22925.176    7851.9587   -2748.7827   -73878.705   -19819.932   -32497.309   -22262.673    87.550655 
   98600    2023.5265   -109.61484    1.8309293   -107.78391    22523.705    4.4421953    4.4421953    4.4421953    22523.705    19684.154    6610.1824    41276.777    38009.181    26531.028    9860.3588    87.658279 
   98700    1237.4482   -108.89266    1.1196692   -107.77299    11461.728    4.4618923    4.4618923    4.4618923    11461.728   -4207.5883    53442.992    -14850.22   -61.685175   -18566.588   -24784.985    88.829506 
   98800    1962.7716   -109.50484     1.775957   -107.72888   -29356.312    4.4632384    4.4632384    4.4632384   -29356.312   -46326.666   -26628.405   -15113.866    26284.899    839.62586    4307.7788    88.909928 
   98900    1391.6668   -109.00751    1.2592093    -107.7483    24139.902    4.4263093    4.4263093    4.4263093    24139.902   -6047.0958    81860.429   -3393.6268    26520.446     19271.46    11348.245    86.721202 
   99000    2782.8987   -110.25922    2.5180253   -107.74119    25633.701    4.4195477    4.4195477    4.4195477    25633.701   -7506.9688    50333.616    34074.456   -2661.0265   -15680.814    2120.7026    86.324381 
   99100    633.27821   -108.38777   0.57300343   -107.81476    18014.254    4.4345737    4.4345737    4.4345737    18014.254   -54121.974    22188.203    85976.532    42281.445    27727.063    9334.7811    87.207862 
   99200    2743.8445   -110.24334    2.4826882   -107.76065   -5152.0444    4.4627049    4.4627049    4.4627049   -5152.0444    -17623.93    32735.308   -30567.511   -12014.634    2317.9949   -5466.5934     88.87805 
   99300    787.21185   -108.48159   0.71228583    -107.7693   -31029.971    4.4624471    4.4624471    4.4624471   -31029.971   -99121.164   -12343.471    18374.723    39741.142   -12645.548    1203.4251    88.862648 
   99400    2968.5663   -110.40392    2.6860212    -107.7179    14967.791     4.429142     4.429142     4.429142    14967.791    303.40662    24905.356    19694.612   -10831.866    2898.3246   -4131.1152    86.887805 
   99500    1081.1736   -108.74492   0.97826861   -107.76665   -2600.9441    4.4188603    4.4188603    4.4188603   -2600.9441   -15242.416    -4236.983    11676.566    27500.571   -17180.864   -10352.616    86.284111 
   99600     2421.875   -109.96034    2.1913634   -107.76898   -1422.4468    4.4325605    4.4325605    4.4325605   -1422.4468   -18042.533   -18262.331    32037.524    9425.6242    2475.9841     -4494.26    87.089143 
   99700    1373.5484   -109.02785    1.2428155   -107.78504   -1486.6751    4.4550287    4.4550287    4.4550287   -1486.6751    35843.513    -33500.18   -6803.3582    11119.566    16368.417    8954.8152    88.420206 
   99800    2158.7764   -109.69353    1.9533062   -107.74022   -16156.143    4.4714229    4.4714229    4.4714229   -16156.143   -802.91731   -43665.938   -3999.5731    41472.824   -5672.5111   -11203.769     89.39994 
   99900    1131.2046   -108.77228    1.0235377   -107.74874    23439.543    4.4409549    4.4409549    4.4409549    23439.543    87834.672    29531.436   -47047.477   -645.83977     12237.33    35073.435     87.58487 
  100000    2149.7686   -109.67214    1.9451558   -107.72698    41022.615    4.4216791    4.4216791    4.4216791    41022.615    57938.721    28357.798    36771.325    42470.205    717.72157   -5599.8338    86.449336 
Loop time of 20.9641 on 1 procs for 100000 steps with 8 atoms

Pair  time (%) = 6.11914 (29.1886)
Kspce time (%) = 5.26434 (25.1112)
Neigh time (%) = 0.208034 (0.992333)
Comm  time (%) = 0.78484 (3.74373)
Outpt time (%) = 0.0325205 (0.155125)
Other time (%) = 8.55524 (40.809)

Nlocal:    8 ave 8 max 8 min
Histogram: 1 0 0 0 0 0 0 0 0 0
Nghost:    1612 ave 1612 max 1612 min
Histogram: 1 0 0 0 0 0 0 0 0 0
Neighs:    1998 ave 1998 max 1998 min
Histogram: 1 0 0 0 0 0 0 0 0 0

Total # of neighbors = 1998
Ave neighs/atom = 249.75
Neighbor list builds = 3087
Dangerous builds = 0
unfix 20
unfix 21
print "seeds:6945127"
seeds:6945127
