LAMMPS (10 Feb 2015)
# ---- initialize simulations
clear
units metal
dimension 3
boundary p p p
atom_style charge
atom_modify map array
# ---- create atoms
read_data /Users/eugeneragasa/pyflamestk_git/pypospack/tests/tests_integration/workflow/WorkflowLammpsThermalExpansion/MgO_NaCl_unit.npt.T1900/lammps.structure
  triclinic box = (0 0 0) to (4.2565 4.2565 4.2565) with tilt (0 0 0)
  1 by 1 by 1 MPI processor grid
  reading atoms ...
  8 atoms
# ---- define interatomic potential
include potential.mod
mass 1 24.305
mass 2 15.999

group Mg type 1
4 atoms in group Mg
group O type 2
4 atoms in group O

set group Mg charge 1.7
  4 settings made for charge
set group O charge -1.7
  4 settings made for charge

variable R_cut equal 10.0

pair_style buck/coul/long ${R_cut}
pair_style buck/coul/long 10
pair_coeff 1 1 0.0 0.5 0.0 ${R_cut}
pair_coeff 1 1 0.0 0.5 0.0 10
pair_coeff 1 2 929.69 0.29909 0.0 ${R_cut}
pair_coeff 1 2 929.69 0.29909 0.0 10
pair_coeff 2 2 4870 0.2679 77 ${R_cut}
pair_coeff 2 2 4870 0.2679 77 10

kspace_style pppm 1.0e-5

neighbor 1.0 bin
neigh_modify every 1 delay 0 check yes
# ---- define settings
compute eng all pe/atom
compute eatoms all reduce sum c_eng
# ---- run minimization
reset_timestep 0
fix 1 all box/relax iso 0.0 vmax 0.001
thermo 10
thermo_style custom step pe lx ly lz xy xz yz press pxx pyy pzz pxy pxz pyz c_eatoms
min_style cg
minimize 1e-25 1e-25 5000 10000
PPPM initialization ...
  G vector (1/distance) = 0.353152
  grid = 8 8 8
  stencil order = 5
  estimated absolute RMS force accuracy = 4.10333e-05
  estimated relative force accuracy = 2.84961e-06
  using double precision FFTs
  3d grid and FFT values/proc = 3375 512
Neighbor list info ...
  1 neighbor list requests
  update every 1 steps, delay 0 steps, check yes
  master list distance cutoff = 11
Memory usage per processor = 4.06549 Mbytes
Step PotEng Lx Ly Lz Xy Xz Yz Press Pxx Pyy Pzz Pxy Pxz Pyz eatoms 
       0   -119.82944       4.2565       4.2565       4.2565            0            0            0   -43102.631   -43102.631   -43102.631   -43102.631 -1.1410716e-10 2.0651384e-11 1.0044018e-10   -119.82944 
       9    -119.8549     4.222448     4.222448     4.222448            0            0            0   -490.28356   -490.28356   -490.28356   -490.28356 -3.7927136e-11 -7.2182599e-11 3.2130495e-11    -119.8549 
Loop time of 0.112858 on 1 procs for 9 steps with 8 atoms

Minimization stats:
  Stopping criterion = linesearch alpha is zero
  Energy initial, next-to-last, final = 
        -119.829437963     -119.854898204     -119.854898204
  Force two-norm initial, final = 6.22404 0.0696885
  Force max component initial, final = 6.22404 0.069669
  Final line search alpha, max atom move = 1.75215e-06 1.2207e-07
  Iterations, force evaluations = 9 35

Pair  time (%) = 0.05075 (44.9681)
Kspce time (%) = 0.00441551 (3.91246)
Neigh time (%) = 0 (0)
Comm  time (%) = 0.000630856 (0.558983)
Outpt time (%) = 0 (0)
Other time (%) = 0.0570614 (50.5605)

Nlocal:    8 ave 8 max 8 min
Histogram: 1 0 0 0 0 0 0 0 0 0
Nghost:    2189 ave 2189 max 2189 min
Histogram: 1 0 0 0 0 0 0 0 0 0
Neighs:    2344 ave 2344 max 2344 min
Histogram: 1 0 0 0 0 0 0 0 0 0

Total # of neighbors = 2344
Ave neighs/atom = 293
Neighbor list builds = 0
Dangerous builds = 0
unfix 1
# ---- define output variables ----
variable natoms equal "count(all)"
variable tot_energy equal "c_eatoms"
variable length_x equal "lx"
variable length_y equal "ly"
variable length_z equal "lz"
variable tilt_xy equal "xy"
variable tilt_xz equal "xz"
variable tilt_yz equal "yz"
variable tot_press equal "press"
variable press_xx equal "pxx"
variable press_yy equal "pyy"
variable press_zz equal "pzz"
variable press_xy equal "pxy"
variable press_xz equal "pxz"
variable press_yz equal "pyz"

# ---- output ----
print "pypospack:output_section:begin"
pypospack:output_section:begin
print "tot_energy = ${tot_energy}"
tot_energy = -119.854898204259
print "num_atoms = ${natoms}"
num_atoms = 8
print "xx = ${length_x}"
xx = 4.222448
print "yy = ${length_y}"
yy = 4.222448
print "zz = ${length_z}"
zz = 4.222448
print "xy = ${tilt_xy}"
xy = 0
print "xz = ${tilt_xz}"
xz = 0
print "yz = ${tilt_yz}"
yz = 0
print "tot_press = ${tot_press}"
tot_press = -490.283556338482
print "pxx = ${press_xx}"
pxx = -490.283556338668
print "pyy = ${press_yy}"
pyy = -490.283556338614
print "pzz = ${press_zz}"
pzz = -490.283556338163
print "pxy = ${press_xy}"
pxy = -3.79271362347293e-11
print "pxz = ${press_xz}"
pxz = -7.2182599384956e-11
print "pyz = ${press_yz}"
pyz = 3.21304951944417e-11
print "pypospack:output_section:done"
pypospack:output_section:done
print "pypospack:lammps_sim:done"
pypospack:lammps_sim:done
#------------------------------------------------------------------------------
# RUN THERMOSTAT
# running using an NPT Nose-Hoover style thermostat
#------------------------------------------------------------------------------
variable tempdamp equal 0.1
variable pressdamp equal 1.0
# set initial velocities
velocity all create 1900 6749949 mom yes dist gaussian loop all
# fix for Nose-Hoover style thermostat
fix 20 all npt temp 1900 1900 0.1 aniso 0.0 0.0 1.0 drag 1.0 couple xyz
variable boxx equal lx
variable boxy equal ly
variable boxz equal lz
variable boxp equal press
variable boxt equal temp
# calculate averages every 10000 steps
reset_timestep 0
fix 21 all ave/time 10 10 100 v_boxx v_boxy v_boxz v_boxp v_boxt file lattice.out
thermo_style custom step temp pe ke etotal press lx ly lz press pxx pyy pzz pxy pxz pyz vol
thermo_modify flush yes
thermo 100
run 100000
PPPM initialization ...
  G vector (1/distance) = 0.353501
  grid = 8 8 8
  stencil order = 5
  estimated absolute RMS force accuracy = 4.03791e-05
  estimated relative force accuracy = 2.80417e-06
  using double precision FFTs
  3d grid and FFT values/proc = 3375 512
Memory usage per processor = 3.06549 Mbytes
Step Temp PotEng KinEng TotEng Press Lx Ly Lz Press Pxx Pyy Pzz Pxy Pxz Pyz Volume 
       0         1900    -119.8549    1.7191599   -118.13574    23901.862     4.222448     4.222448     4.222448    23901.862    19623.309     35628.23    16454.046   -8654.0889    958.90473   -13106.937    75.282309 
     100    907.10188   -118.73633   0.82076484   -117.91557    2255.3663      4.25684      4.25684      4.25684    2255.3663     12407.36    -19424.98    13783.719    2372.9203   -11744.069   -11252.094    77.136866 
     200    991.25703   -118.34614   0.89691019   -117.44923   -43229.123    4.2918445    4.2918445    4.2918445   -43229.123   -13851.276   -81357.251   -34478.843    15104.688     7016.954   -22006.523    79.055473 
     300    1445.9843   -118.32833     1.308357   -117.01997     1801.952    4.2940089    4.2940089    4.2940089     1801.952    16866.322   -13798.181    2337.7154    25335.983    -10761.61    -5084.137    79.175139 
     400    2097.4032   -118.60233    1.8977745   -116.70456   -2092.4238    4.3045976    4.3045976    4.3045976   -2092.4238   -18904.161     44215.74    -31588.85     8973.716    24850.907    6168.8111    79.762304 
     500    2309.9553   -118.56349    2.0900961   -116.47339   -5884.1229     4.303998     4.303998     4.303998   -5884.1229   -10377.665    33878.871   -41153.575    2472.5049    11616.603    23176.503    79.728974 
     600    1696.3873   -117.89976    1.5349269   -116.36483    39089.666    4.3021066    4.3021066    4.3021066    39089.666    42204.513    5133.9855      69930.5    6409.8739   -6328.2168    16357.112    79.623912 
     700    1539.9777   -117.72468    1.3934042   -116.33128    1874.6397    4.3193659    4.3193659    4.3193659    1874.6397   -33340.811   -10527.037    49491.768    -31915.27   -4340.4284    34435.947    80.586071 
     800    2060.5813   -118.17288    1.8644572   -116.30842   -29148.241    4.3054585    4.3054585    4.3054585   -29148.241   -33646.005   -72950.598    19151.878    656.54997    3915.2576    14559.947    79.810169 
     900    2103.2775   -118.22835    1.9030897   -116.32526    45146.825    4.2875419    4.2875419    4.2875419    45146.825    30804.622    24880.729    79755.125   -2196.2578    22011.138   -1498.7872    78.817947 
    1000    2293.2561   -118.44491    2.0749863   -116.36992    16944.387    4.2987225    4.2987225    4.2987225    16944.387   -2117.2439    16471.404    36479.001   -5275.9754   -2589.4992   -16268.534    79.436157 
    1100    1950.7777   -118.13433    1.7651047   -116.36922    12328.284    4.3047381    4.3047381    4.3047381    12328.284   -34483.842    65570.814    5897.8812   -572.37136   -6251.9056   -21570.666    79.770114 
    1200    1745.6296   -117.93337    1.5794824   -116.35389    8264.8595    4.3024386    4.3024386    4.3024386    8264.8595   -2901.8318   -15895.458    43591.868   -12909.316    6962.2153   -6877.9254    79.642345 
    1300    1075.9189   -117.33642   0.97351402   -116.36291   -24940.982    4.3074422    4.3074422    4.3074422   -24940.982   -20404.827   -18307.827   -36110.292    17268.594   -10927.682   -3888.1172    79.920533 
    1400    1727.9318   -117.91025     1.563469   -116.34678   -13205.117    4.3012462    4.3012462    4.3012462   -13205.117   -44544.492    9201.2036   -4272.0622   -4060.0162   -2284.8931    30580.118    79.576144 
    1500    2428.2227   -118.53549    2.1971069   -116.33838   -11354.168    4.2914152    4.2914152    4.2914152   -11354.168   -43909.429    25387.651   -15540.726   -18973.947    11560.713    14084.138    79.031753 
    1600     1920.832   -118.08691    1.7380092    -116.3489   -13371.172    4.2997444    4.2997444    4.2997444   -13371.172    -29138.78    21582.282   -32557.019    17204.559   -29502.966    16651.719    79.492821 
    1700     1774.903   -117.94721    1.6059695   -116.34124   -12005.293    4.3049336    4.3049336    4.3049336   -12005.293   -19749.068   -43580.293    27313.483     -7871.35   -6027.1952    7805.5786    79.780982 
    1800    1718.0197   -117.89046    1.5545004   -116.33596   -2639.5576    4.3041416    4.3041416    4.3041416   -2639.5576   -13249.909   -26334.182    31665.419   -30642.756   -12561.361   -6369.8563    79.736954 
    1900    2401.7534   -118.50353     2.173157   -116.33037   -32792.419    4.3034714    4.3034714    4.3034714   -32792.419   -4094.9819   -48977.967   -45304.308   -3415.2765   -14693.792   -4709.1663    79.699714 
    2000    1554.8007   -117.74149    1.4068164   -116.33468    19925.683    4.2993325    4.2993325    4.2993325    19925.683    50987.921    60023.052   -51233.925   -8042.5331   -168.97509     -41543.8     79.46998 
    2100    1866.9268   -118.01985    1.6892346   -116.33061     25458.42    4.2987937    4.2987937    4.2987937     25458.42    5978.6566    45180.594    25216.009   -2543.0915    8091.2881   -16139.273    79.440107 
    2200    1928.4917   -118.08371    1.7449398   -116.33877    4990.0399    4.3063112    4.3063112    4.3063112    4990.0399   -3225.9695    45289.901   -27093.812   -17823.271    1893.2269    19094.679    79.857596 
    2300    1981.7377   -118.12088    1.7931179   -116.32776    23754.858    4.3022443    4.3022443    4.3022443    23754.858   -9123.1102    34162.125     46225.56     1541.913   -11758.493    30519.063    79.631555 
    2400    1873.8257   -118.02387    1.6954769   -116.32839    38317.764     4.294618     4.294618     4.294618    38317.764   -21247.321    30421.365    105779.25    10826.777     20283.98     33258.46    79.208831 
    2500    2333.3092   -118.44919    2.1112272   -116.33796    11517.302    4.3000995    4.3000995    4.3000995    11517.302    4547.5684    29778.208    226.12981   -13806.274    12691.851    6659.9908    79.512517 
    2600    1732.6966   -117.91911    1.5677803   -116.35133      28162.2    4.3056307    4.3056307    4.3056307      28162.2    15031.822      55042.2    14412.579    6906.6384    -3407.104    18432.029    79.819744 
    2700    2124.7881   -118.26908    1.9225529   -116.34652   -34646.419    4.3141439    4.3141439    4.3141439   -34646.419   -38423.482    1371.4418   -66887.216   -8959.7526   -877.71821   -32283.819    80.294148 
    2800    1000.0417   -117.23429   0.90485878   -116.32943     18977.44    4.3123307    4.3123307    4.3123307     18977.44    19354.014     96326.48   -58748.172    18503.677    3306.3772   -19924.274    80.192946 
    2900     1578.319   -117.78288    1.4280962   -116.35478   -21303.508    4.2979466    4.2979466    4.2979466   -21303.508    30314.033   -89135.105    -5089.452   -6234.7577   -1967.7917   -8622.3863    79.393154 
    3000    2390.6967   -118.53502    2.1631526   -116.37187     -28498.2    4.3037706    4.3037706    4.3037706     -28498.2   -22174.791   -44572.363   -18747.445    7640.0561   -6613.6274   -17100.318    79.716336 
    3100     1719.152   -117.93547    1.5555249   -116.37994    5694.3266    4.3271249    4.3271249    4.3271249    5694.3266    -25656.55    82147.135   -39407.605   -745.68141    10261.453   -9951.7483     81.02113 
    3200    2180.0454    -118.3323    1.9725509   -116.35975    -10736.54    4.3200777    4.3200777    4.3200777    -10736.54   -55353.913     46355.67   -23211.375   -4297.0551   -272.11368    15955.759    80.625918 
    3300    2570.8947   -118.68071    2.3261996   -116.35451   -13034.569    4.3000168    4.3000168    4.3000168   -13034.569   -12114.088   -20666.766   -6322.8517    -1459.686   -8235.6569    8063.5758    79.507932 
    3400    2326.0862   -118.52491    2.1046917   -116.42021   -23985.804    4.3048269    4.3048269    4.3048269   -23985.804    -20755.15   -30305.806   -20896.457    8127.8124    4218.5165    14731.421    79.775046 
    3500    2093.3693   -118.34484    1.8941245   -116.45072   -54429.703    4.3202715    4.3202715    4.3202715   -54429.703   -70590.881   -50780.677   -41917.553    9933.7345    3031.5897     5876.854    80.636771 
    3600    1689.8125   -117.96921    1.5289779   -116.44024     13575.49    4.3079938    4.3079938    4.3079938     13575.49   -45841.506    31532.572    55035.403   -4830.0342   -1528.4975   -27844.471    79.951241 
    3700    2209.6848   -118.42568    1.9993692   -116.42631     18724.22    4.2986442    4.2986442    4.2986442     18724.22   -59289.913    94362.282    21100.293   -7712.6026    4538.2863    151.26918     79.43182 
    3800    2147.0246   -118.34808     1.942673   -116.40541    9943.5479    4.3105866    4.3105866    4.3105866    9943.5479   -68923.648    74783.016    23971.276   -7199.0587    14776.638   -13405.015    80.095687 
    3900    1920.6549   -118.12452     1.737849   -116.38667   -15403.539    4.3296267    4.3296267    4.3296267   -15403.539   -75354.692   -50876.704    80020.779   -5590.3513   -11594.434    3225.2557    81.161743 
    4000    1446.2361    -117.6812    1.3085848   -116.37262   -11968.029    4.3202177    4.3202177    4.3202177   -11968.029   -19642.834     -35422.4    19161.148   -14581.664    13692.652    8318.7378    80.633757 
    4100    1659.8644   -117.85924    1.5018802   -116.35736    41901.287    4.2998161    4.2998161    4.2998161    41901.287    2786.2872    40987.649    81929.925   -11798.666    5919.2714   -27572.948    79.496797 
    4200     1603.223   -117.84969    1.4506298   -116.39906    33452.459    4.3080345    4.3080345    4.3080345    33452.459   -313.93992   -9415.3069    110086.62   -5745.6881   -69.464849    20537.247    79.953505 
    4300    2578.1176   -118.73014     2.332735    -116.3974   -39398.338    4.3300752    4.3300752    4.3300752   -39398.338   -63739.833   -59358.666    4903.4853   -5816.6006   -9334.3495   -3150.2704    81.186966 
    4400    2029.3295   -118.19835    1.8361799   -116.36217    6689.8665    4.3226565    4.3226565    4.3226565    6689.8665   -28913.531   -12596.509     61579.64    13581.347   -2174.3781   -8921.2324    80.770391 
    4500    2886.3504   -118.94316    2.6116305   -116.33153   -19450.388    4.2954238    4.2954238    4.2954238   -19450.388   -37672.763   -1465.3679   -19213.034   -7131.9594   -15885.496    34025.824    79.253427 
    4600    1372.8793   -117.60773    1.2422101   -116.36552   -9849.5595    4.2968684    4.2968684    4.2968684   -9849.5595    21562.023   -63056.951    11946.249   -3053.1441   -31967.764   -31720.763    79.333415 
    4700    1684.1147   -117.89298    1.5238224   -116.36916    984.44318    4.2974975    4.2974975    4.2974975    984.44318    1874.2737   -72714.601    73793.657   -4703.5376    5319.9194   -33068.806    79.368264 
    4800    1581.6964   -117.82832    1.4311522   -116.39717   -2700.5413    4.3163991    4.3163991    4.3163991   -2700.5413   -9898.6048   -63387.862    65184.843    3575.6305    26140.148     19994.85     80.42013 
    4900    1880.4213   -118.05957    1.7014447   -116.35812   -35963.547     4.329738     4.329738     4.329738   -35963.547   -9587.7122   -76452.186   -21850.742    6450.8752    5145.4806    22838.953    81.168002 
    5000    2360.0311    -118.4568    2.1354057   -116.32139    23268.812    4.2994044    4.2994044    4.2994044    23268.812     51640.66   -46745.465     64911.24   -4319.9669   -1207.1929    16505.334    79.473969 
    5100    2801.9928   -118.90837     2.535302   -116.37306    2845.5469    4.2982165    4.2982165    4.2982165    2845.5469   -26206.883    7326.2754    27417.248    14751.513    3922.7248    20138.428     79.40811 
    5200    1978.6867   -118.17723    1.7903573   -116.38688   -23318.252    4.3151115    4.3151115    4.3151115   -23318.252   -27509.529   -63586.663    21141.434   -9013.8526   -24468.415   -33742.166    80.348183 
    5300    2402.1528   -118.53552    2.1735183     -116.362   -24345.318    4.3081105    4.3081105    4.3081105   -24345.318    1236.7258   -91285.341    17012.661    7643.0054    3695.3224   -9941.6949    79.957738 
    5400    1597.2515    -117.8354    1.4452268   -116.39017   -18608.197    4.3177194    4.3177194    4.3177194   -18608.197    14889.164   -129493.48    58779.722   -7033.6196   -25965.176   -5840.0265    80.493948 
    5500    1492.5393   -117.72898    1.3504809   -116.37849   -36499.643    4.3229482    4.3229482    4.3229482   -36499.643   -52731.374   -139517.57    82750.017   -13284.171   -11883.284   -2160.1878     80.78674 
    5600    2031.0922   -118.19808    1.8377749   -116.36031   -33401.042    4.3101651    4.3101651    4.3101651   -33401.042   -41874.327   -79079.404    20750.605   -6791.8961   -26421.183   -8462.7331    80.072194 
    5700    1901.4326    -118.0924    1.7204562   -116.37194   -13531.161    4.3105906    4.3105906    4.3105906   -13531.161    14948.561   -50654.407   -4887.6356   -11821.851    9364.0734   -19611.259    80.095908 
    5800    2183.0837    -118.3662       1.9753    -116.3909    8739.7535    4.3216306    4.3216306    4.3216306    8739.7535   -1861.9998   -27083.596    55164.856   -8539.2888    10147.601   -17170.812    80.712897 
    5900    2216.4204   -118.39563    2.0054638   -116.39016   -2278.4861    4.3219017    4.3219017    4.3219017   -2278.4861   -26575.363   -39881.049    59620.954    13855.774   -7380.6139    13286.092    80.728086 
    6000    2689.5204   -118.80352    2.4335346   -116.36998   -18257.115    4.3057471    4.3057471    4.3057471   -18257.115   -3925.9332   -50734.952   -110.46037    8973.9036     1797.058    9078.5577    79.826215 
    6100    2391.4473   -118.52762    2.1638318   -116.36379    12907.773    4.2882117    4.2882117    4.2882117    12907.773     14942.52   -42735.983    66516.782    7131.2278   -7703.4525    2606.5289    78.854894 
    6200    1195.1132   -117.49071    1.0813635   -116.40934   -6648.2878    4.3052575    4.3052575    4.3052575   -6648.2878   -6583.0948    -25434.23    12072.461     20354.78    27891.534   -19565.462    79.798992 
    6300    1517.9071   -117.76735    1.3734342   -116.39392    2263.0161    4.3212491    4.3212491    4.3212491    2263.0161   -28527.725   -36310.155    71626.929    8602.4833     2297.361    8702.6866    80.691522 
    6400    1903.0418   -118.09272    1.7219123   -116.37081   -2568.7716    4.3237524    4.3237524    4.3237524   -2568.7716   -30599.642   -72771.419    95664.747    3215.0829    14893.653    1151.8439    80.831839 
    6500    2046.2542   -118.21974    1.8514938   -116.36824   -5966.8487    4.3167957    4.3167957    4.3167957   -5966.8487    -46229.72   -33528.899    61858.073    6200.3633    11210.109    12915.343    80.442304 
    6600    2215.7379   -118.38224    2.0048462    -116.3774     12064.14    4.2996991    4.2996991    4.2996991     12064.14    17062.948   -21715.793    40845.265   -3885.0356    13686.712   -35321.415    79.490308 
    6700    2208.9561   -118.39416    1.9987099   -116.39545    5348.0312    4.2968462    4.2968462    4.2968462    5348.0312   -16473.876   -11661.468    44179.438    4021.3117   -7569.0779    -7351.663    79.332187 
    6800    1587.5444   -117.86044    1.4364436   -116.42399    24079.124    4.3120615    4.3120615    4.3120615    24079.124   -5948.9373   -66952.315    145138.62    6541.8469    8321.1794   -5145.4959    80.177929 
    6900    1586.9198     -117.841    1.4358784   -116.40512   -17611.271    4.3279304    4.3279304    4.3279304   -17611.271    11508.468   -129451.13    65108.847    3754.9017   -4392.0664   -4646.4017    81.066385 
    7000    2311.0393   -118.44226    2.0910769   -116.35118    -19264.88    4.3137037    4.3137037    4.3137037    -19264.88   -14230.095   -95914.043    52349.499   -1.2038244   -3957.2206    8129.4383    80.269571 
    7100    1613.6644   -117.80988    1.4600775    -116.3498   -12796.197    4.2971247    4.2971247    4.2971247   -12796.197    22763.372   -71269.781    10117.817    5885.2539    13331.236    8836.8504    79.347616 
    7200    1591.0936   -117.82529    1.4396549   -116.38564    30170.566     4.295309     4.295309     4.295309    30170.566    3687.3382    2811.5814    84012.777     3097.785    27799.168   -11605.582    79.247072 
    7300    2010.8088   -118.24602    1.8194221    -116.4266   -19294.747    4.3092277    4.3092277    4.3092277   -19294.747   -33902.543   -54131.016    30149.317     4281.398   -11570.908   -18695.519    80.019962 
    7400    1871.3315   -118.09271      1.69322   -116.39949   -23730.945    4.3066142    4.3066142    4.3066142   -23730.945   -48012.165   -68617.405    45436.737    16482.067    9766.2248   -5236.6951    79.874452 
    7500     1976.944    -118.1593    1.7887805   -116.37052   -2547.6149     4.292999     4.292999     4.292999   -2547.6149    2839.3063    -64419.18    53937.029   -5807.4087     16614.88     18623.99    79.119286 
    7600    1540.9272   -117.78637    1.3942633   -116.39211   -16396.179    4.3100577    4.3100577    4.3100577   -16396.179   -17760.286   -82707.417    51279.164   -3396.7803    24862.096   -7787.8331    80.066209 
    7700     1897.567   -118.09405    1.7169585   -116.37709   -10235.914    4.3023876    4.3023876    4.3023876   -10235.914   -53239.571   -58086.601    80618.428    14546.582    15158.276   -19508.906    79.639515 
    7800    2889.0958   -118.97948    2.6141146   -116.36537    10698.131    4.2825386    4.2825386    4.2825386    10698.131    7217.0355   -12471.068    37348.426   -3822.4758   -2867.2266   -18823.205    78.542342 
    7900    2209.8513   -118.42589    1.9995199   -116.42637   -2698.5302    4.3053872    4.3053872    4.3053872   -2698.5302   -15481.599    -45425.81    52811.818   -3010.8117    14993.677   -4282.0282    79.806203 
    8000    1850.5361   -118.06047     1.674404   -116.38606   -43731.095    4.3149858    4.3149858    4.3149858   -43731.095   -50641.418   -82263.878    1712.0116    14469.604   -8604.6844     23466.85    80.341165 
    8100    1201.2981   -117.42471    1.0869598   -116.33775    40951.322     4.284783     4.284783     4.284783    40951.322    25261.256   -58886.161    156478.87    5420.9644   -1569.6062     25503.16    78.665895 
    8200    1730.3429   -117.92424    1.5656506   -116.35859    17403.413    4.2936387    4.2936387    4.2936387    17403.413    56097.535   -31411.258    27523.963   -4288.4083    14197.818   -27817.577    79.154663 
    8300    2288.8773    -118.4454    2.0710243   -116.37438   -28856.653    4.3236072    4.3236072    4.3236072   -28856.653   -31617.243     -52509.8   -2442.9161    1878.0092   -4978.8951    -42846.79    80.823695 
    8400    2219.3663   -118.34604    2.0081293   -116.33791   -17163.142    4.3229057    4.3229057    4.3229057   -17163.142    42923.589   -39264.277   -55148.737   -1224.7451    3061.9851   -6021.2302    80.784358 
    8500    2466.0262   -118.55076    2.2313123   -116.31945     13466.55    4.2888495    4.2888495    4.2888495     13466.55   -2030.4889    60100.965   -17670.826   -26994.991   -15776.959   -15069.368    78.890084 
    8600    1297.6104   -117.52202    1.1741052   -116.34791     72664.54     4.272499     4.272499     4.272499     72664.54    109987.47    4450.2783    103555.87   -13218.656    23922.135   -10869.658    77.991254 
    8700    1684.1294   -117.92652    1.5238357   -116.40268   -22001.397    4.3060934    4.3060934    4.3060934   -22001.397    43549.837   -118321.34    8767.3162   -12639.228   -359.20641    -11415.85    79.845478 
    8800    2269.6558   -118.41796    2.0536323   -116.36433   -23446.502    4.3290852    4.3290852    4.3290852   -23446.502   -28584.152    -32439.72   -9315.6335    -6405.232   -4696.0602    9711.4924    81.131295 
    8900    2560.1719   -118.63413    2.3164974   -116.31763    15280.969    4.3019678    4.3019678    4.3019678    15280.969   -30701.453    30143.217    46401.143    9453.8831   -1950.7267   -8275.9754    79.616202 
    9000    2059.1159   -118.17318    1.8631313   -116.31005   -7820.5008    4.2855266    4.2855266    4.2855266   -7820.5008    16230.329   -45062.473    5370.6417    10686.604    8077.9756   -21543.285     78.70686 
    9100    1118.6178    -117.3726    1.0121489   -116.36046   -9349.0319    4.2972444    4.2972444    4.2972444   -9349.0319    3295.6566   -19509.735   -11833.017     20065.11    48284.769   -54218.646    79.354243 
    9200    1959.7926   -118.14637    1.7732615    -116.3731    4661.4917    4.3082014    4.3082014    4.3082014    4661.4917    27367.644   -784.64296   -12598.526    19004.449   -2292.1105   -2580.7879    79.962797 
    9300      2699.76   -118.79805    2.4427996   -116.35525   -48454.291    4.3289266    4.3289266    4.3289266   -48454.291   -51381.601   -58555.179   -35426.092    27270.707      3643.32   -2819.0494    81.122375 
    9400    1763.9484   -117.92784    1.5960576   -116.33178   -10583.731    4.3152092    4.3152092    4.3152092   -10583.731   -45556.267    20969.707   -7164.6319    4122.5461    32574.867    4606.7321    80.353641 
    9500    1544.8052   -117.69688    1.3977722    -116.2991    19107.192     4.284737     4.284737     4.284737    19107.192   -24198.853    39290.794    42229.634    -10325.74   -4690.5072    25313.219    78.663365 
    9600    2010.2855   -118.16965    1.8189486    -116.3507   -36039.407     4.301708     4.301708     4.301708   -36039.407   -10295.361   -53478.576   -44344.283    13574.061    21978.136    3623.5234    79.601782 
    9700     1889.557   -118.06783    1.7097108   -116.35812    2903.1172    4.3180104    4.3180104    4.3180104    2903.1172   -2117.9459    34869.205   -24041.908   -23834.259    32520.659     2197.936    80.510225 
    9800    2461.9875   -118.56069    2.2276581   -116.33303   -16614.281    4.3206241    4.3206241    4.3206241   -16614.281    19259.801   -28004.026   -41098.617   -10462.996   -5464.5677     20583.75    80.656516 
    9900    1479.3298   -117.66286    1.3385287   -116.32433    -11629.42    4.3144484    4.3144484    4.3144484    -11629.42    10793.321   -61250.627    15569.046     2538.283    13474.926   -4649.1033    80.311151 
   10000     1481.511    -117.6533    1.3405023    -116.3128    32453.445    4.2803727    4.2803727    4.2803727    32453.445    24011.266    55336.053    18013.015    3120.3501    15776.034    1943.0333    78.423237 
   10100    2115.5008   -118.25122    1.9141496   -116.33707     47701.65    4.2812195    4.2812195    4.2812195     47701.65    37857.115    44447.338    60800.497   -17818.701   -1575.9528    8182.6838    78.469786 
   10200    2449.5335    -118.5781    2.2163894   -116.36171   -12924.378    4.3210092    4.3210092    4.3210092   -12924.378    5747.3469   -33344.771    -11175.71    3880.9956   -8468.8534   -14359.018    80.678083 
   10300    2283.6209   -118.39015    2.0662681   -116.32388   -4174.7583    4.3267505    4.3267505    4.3267505   -4174.7583    39589.795    14412.018   -66526.088     12066.56   -10906.522    -4438.762    81.000099 
   10400    1585.1368   -117.74472    1.4342651   -116.31046    27902.502     4.313972     4.313972     4.313972    27902.502    21234.835    29374.228    33098.444   -19015.053    16164.653   -14593.907    80.284549 
   10500     2063.035   -118.19192    1.8666774   -116.32524   -16292.554    4.3127623    4.3127623    4.3127623   -16292.554   -32698.967   -1448.5453   -14730.149   -9569.2798   -3830.5007   -15050.664     80.21703 
   10600    1726.6086   -117.91461    1.5622717   -116.35234   -1545.4783     4.307269     4.307269     4.307269   -1545.4783   -34517.859      28819.1    1062.3244    2962.0041    110.64769    8974.1092    79.910894 
   10700    1634.2586   -117.84384    1.4787116   -116.36512    20918.363    4.3043628    4.3043628    4.3043628    20918.363    16021.266    39906.302    6827.5203    30279.515    28679.341    23338.139    79.749248 
   10800    2649.3632   -118.75338    2.3971995   -116.35618   -41179.321    4.3026963    4.3026963    4.3026963   -41179.321   -32528.576   -39825.816   -51183.571   -21778.548    4806.4085   -8932.1796    79.656657 
   10900    1063.0639   -117.33199   0.96188254   -116.37011    29023.807    4.3045402    4.3045402    4.3045402    29023.807    35779.745    114617.92   -63326.241   -19134.367   -1138.6239    27379.061    79.759109 
   11000    1008.3405   -117.30393   0.91236766   -116.39157    5104.4607    4.3032129    4.3032129    4.3032129    5104.4607   -41747.307    88296.781   -31236.093    1322.7091    22627.373   -5391.4884    79.685354 
   11100    2938.7481   -119.03336     2.659041   -116.37432   -27850.336    4.2984732    4.2984732    4.2984732   -27850.336   -33730.139   -2597.1957   -47223.675     22951.74    6024.7535    23888.244    79.422337 
   11200    1955.4875    -118.1571    1.7693662   -116.38773    11601.005    4.3066918    4.3066918    4.3066918    11601.005   -313.35109    59201.638   -24085.273   -15118.012    1432.2791   -18172.473    79.878775 
   11300    1619.0185   -117.84034     1.464922   -116.37542    9342.0817    4.3139026    4.3139026    4.3139026    9342.0817    7949.0883    36392.448   -16315.291     6184.626    30204.963   -3433.7736    80.280673 
   11400    1763.1939    -117.9413    1.5953749   -116.34592    5175.7247     4.303178     4.303178     4.303178    5175.7247    37410.764   -1484.4719   -20399.118   -787.85002    -5803.759   -399.75625    79.683414 
   11500       1639.3   -117.82442    1.4832731   -116.34115    11734.706    4.3008236    4.3008236    4.3008236    11734.706    31926.918   -42308.449     45585.65   -9263.0265    4797.8046    11373.835    79.552691 
   11600    1452.8094   -117.68374    1.3145324   -116.36921    26143.117    4.3128774    4.3128774    4.3128774    26143.117    22866.003    9111.6789    46451.669    7217.0858    12883.368   -11099.348     80.22345 
   11700    2320.5658   -118.44169    2.0996967   -116.34199   -27371.652    4.3275706    4.3275706    4.3275706   -27371.652   -33819.089   -39779.958   -8515.9085    6602.7612   -4174.1294   -21026.292    81.046168 
   11800    2009.8553   -118.13384    1.8185593   -116.31528    10583.971    4.3180177    4.3180177    4.3180177    10583.971    -5221.901    10217.721    26756.092    5966.3772   -12115.512   -33971.551    80.510636 
   11900    1973.2159   -118.09047    1.7854073   -116.30506    43261.994    4.2953639    4.2953639    4.2953639    43261.994    61597.891    20008.327    48179.763   -4988.9365    394.88173   -23620.561     79.25011 
   12000    1222.0502   -117.46567    1.1057367   -116.35994     32559.98    4.3030613    4.3030613    4.3030613     32559.98    5534.3823    64712.597     27432.96    4253.3564   -3355.8157   -29947.268    79.676933 
   12100    2192.1716   -118.33723    1.9835229    -116.3537   -29452.186    4.3137012    4.3137012    4.3137012   -29452.186   -48665.572   -23121.015   -16569.971   -19773.909   -10390.928   -10658.344    80.269432 
   12200     2598.617   -118.68824    2.3512833   -116.33696    16698.752    4.2952462    4.2952462    4.2952462    16698.752    4642.9654    14769.194    30684.095   -14543.021    1630.0462     6706.149    79.243596 
   12300    2299.5083   -118.44933    2.0806434   -116.36869    11439.447    4.3027251    4.3027251    4.3027251    11439.447   -17130.559    15182.667    36266.233    29523.978    7307.3259   -3634.4299    79.658255 
   12400    1712.9707   -117.91025    1.5499319   -116.36032    6151.9815    4.3272696    4.3272696    4.3272696    6151.9815    19715.112   -17963.515    16704.348   -18719.591    5036.8084    2663.3137    81.029256 
   12500    1674.9938   -117.83145    1.5155696   -116.31588    7644.0581    4.3388281    4.3388281    4.3388281    7644.0581    93358.317    -42401.57   -28024.574   -10924.133   -21224.341    20945.551    81.680303 
   12600    1809.3272   -117.92638    1.6371173   -116.28927     8247.249    4.3280172    4.3280172    4.3280172     8247.249    14480.452   -13210.871    23472.166    4504.5267   -10277.672    18877.426     81.07126 
   12700    1343.3739   -117.50755    1.2155129   -116.29204    32330.571     4.301122     4.301122     4.301122    32330.571    118079.66    -46629.63    25541.686   -21624.933    16356.109   -4313.6237    79.569255 
   12800    2112.4786   -118.25659     1.911415   -116.34518   -24600.336    4.3003099    4.3003099    4.3003099   -24600.336   -10423.842     -50963.6   -12413.566   -20041.446    4540.6219   -7721.3074    79.524191 
   12900    1864.2538   -118.05736    1.6868161   -116.37055    13.410682     4.308727     4.308727     4.308727    13.410682   -60986.709    63873.934   -2846.9933   -9317.1248    18446.788    -1240.727    79.992071 
   13000    2134.9681   -118.29538     1.931764   -116.36362    -4715.157    4.3115761    4.3115761    4.3115761    -4715.157    11351.998    11080.889   -36578.358     38704.43    -4715.079   -9256.8772    80.150858 
   13100    1844.9733   -118.03907    1.6693706   -116.36969   -20651.129    4.3215295    4.3215295    4.3215295   -20651.129    36559.137   -95167.285   -3345.2389    7930.7254    20732.898   -16039.208    80.707231 
   13200    1538.2747   -117.73488    1.3918632   -116.34302    40245.145    4.3040887    4.3040887    4.3040887    40245.145    114728.59    9200.6852   -3193.8428   -28699.216   -18529.123   -14242.133    79.734016 
   13300    1793.3402   -117.97103    1.6226519   -116.34838    39530.267    4.2946874    4.2946874    4.2946874    39530.267    79707.584    52414.119   -13530.902   -26738.293    18569.315    -20755.62    79.212673 
   13400    1511.1041   -117.74713    1.3672787   -116.37985   -16858.412     4.317966     4.317966     4.317966   -16858.412   -35158.384    28663.017   -44079.869    1590.3839    21563.692   -27244.152    80.507746 
   13500    2575.1468   -118.66749    2.3300469   -116.33744   -31889.284    4.3114247    4.3114247    4.3114247   -31889.284   -27687.097     -31514.3   -36466.455    25203.597   -8101.7222    4620.9739    80.142416 
   13600     1748.892   -117.91707    1.5824342   -116.33463    19980.333    4.3044774    4.3044774    4.3044774    19980.333    31423.668    23575.421    4941.9093    12462.396    12241.568   -897.12847    79.755617 
   13700    2176.2483   -118.31915    1.9691152   -116.35004   -26858.862     4.323083     4.323083     4.323083   -26858.862   -5007.0389   -24567.813   -51001.733    7037.1589   -18717.589   -18974.231      80.7943 
   13800    1885.2191   -118.03365    1.7057859   -116.32786   -16545.461     4.334411     4.334411     4.334411   -16545.461    36352.918   -50327.836   -35661.465   -6445.2027   -3359.4002    3670.7226    81.431095 
   13900    1961.4478   -118.06483    1.7747592   -116.29007   -12945.186    4.3095377    4.3095377    4.3095377   -12945.186    -29235.19   -4953.9364   -4646.4331   -1162.6009    26958.719    18091.132    80.037232 
   14000    1636.8091   -117.76643    1.4810193   -116.28541    48144.137     4.284268     4.284268     4.284268    48144.137    -10706.64    61904.155    93234.895    1665.8447    35716.884    3878.9735    78.637536 
   14100     2416.679   -118.54971    2.1866619   -116.36304   -7419.5197    4.3067395    4.3067395    4.3067395   -7419.5197   -12246.278    9546.9978   -19559.279   -9603.5232    4804.5264    13849.047    79.881424 
   14200    2002.1201   -118.17463    1.8115604   -116.36307   -6490.0561    4.3303044    4.3303044    4.3303044   -6490.0561   -27930.902   -41365.581    49826.315   -3910.1612    3169.5933    26767.057     81.19986 
   14300    1901.5704   -118.04693    1.7205808   -116.32635   -16580.131    4.3320385    4.3320385    4.3320385   -16580.131   -1513.2329   -44115.896   -4111.2638    29382.308    4022.5296   -14636.783    81.297449 
   14400    1807.0169   -117.94168    1.6350269   -116.30665   -16990.655    4.3184931    4.3184931    4.3184931   -16990.655    8484.0481   -69831.294    10375.282    2755.6877   -34358.659    6147.0061    80.537233 
   14500    1492.5504   -117.65612     1.350491   -116.30563    39303.036    4.2905815    4.2905815    4.2905815    39303.036   -21532.764    107589.73    31852.142   -27253.386    5899.5866    4201.4573    78.985701 
   14600    1791.2852   -118.00519    1.6207925    -116.3844   -159.91347    4.2998152    4.2998152    4.2998152   -159.91347   -16504.215    48490.854    -32466.38   -12600.152    29064.513    7721.5644     79.49675 
   14700    1822.8062   -118.03086    1.6493134   -116.38155   -30645.579    4.3201133    4.3201133    4.3201133   -30645.579   -73244.973   -21132.858    2441.0941   -29956.261    4063.0971   -5199.3999    80.627909 
   14800    2435.9697   -118.53881    2.2041166   -116.33469    7260.5769    4.3014367    4.3014367    4.3014367    7260.5769    33741.696   -46732.231    34772.265     -3542.16    16421.763   -10461.303    79.586721 
   14900     1928.438   -118.08945    1.7448913   -116.34456   -22174.668     4.302866     4.302866     4.302866   -22174.668     -9289.45   -40447.633    -16786.92    6950.2568    61947.286    3585.4663    79.666082 
   15000    1227.6791   -117.45248    1.1108298   -116.34165   -4095.2666    4.3139676    4.3139676    4.3139676   -4095.2666    -38892.36   -43262.508    69869.068   -24531.615    21409.131    19806.274    80.284305 
   15100     1767.698   -117.91481    1.5994503   -116.31536   -29598.226    4.3044319    4.3044319    4.3044319   -29598.226   -43345.982   -24727.487    -20721.21   -4628.9497   -14407.041    4054.1539    79.753092 
   15200    2125.4139   -118.25157    1.9231191   -116.32845   -19348.001    4.2926612    4.2926612    4.2926612   -19348.001    -41578.44    14980.451   -31446.013    9111.1526    28965.901    15004.539     79.10061 
   15300     2137.181   -118.29146    1.9337663    -116.3577   -9609.5166    4.3036926    4.3036926    4.3036926   -9609.5166   -3623.6335   -45711.863    20506.947   -18272.897    28799.171    33297.952    79.712004 
   15400    1962.8685   -118.13286    1.7760446   -116.35681   -20659.764    4.3143542    4.3143542    4.3143542   -20659.764   -30450.523   -70717.247    39188.479   -37138.592    10454.624    6461.2288    80.305891 
   15500    1590.2179   -117.77079    1.4388626   -116.33192    4402.8384    4.3023158    4.3023158    4.3023158    4402.8384   -7703.7683   -71342.674    92254.957    6743.2908    23438.288   -5979.3197    79.635526 
   15600    1484.0594   -117.70519    1.3428082   -116.36238    8085.7548    4.3136973    4.3136973    4.3136973    8085.7548    6884.0229   -53594.929    70968.171   -12394.818     33490.12   -7519.3873    80.269213 
   15700    1679.7578   -117.85903    1.5198801   -116.33915    -19638.52    4.3324853    4.3324853    4.3324853    -19638.52   -72467.012    10310.336     3241.117   -33014.671    14137.483   -3470.0881    81.322609 
   15800    2649.8338   -118.68744    2.3976253   -116.28981   -11963.244    4.3107703    4.3107703    4.3107703   -11963.244   -30965.212    -15889.69    10965.171   -16959.287    4536.5691    19494.893    80.105925 
   15900    2283.8714   -118.36672    2.0664948   -116.30023    31232.367    4.3000125    4.3000125    4.3000125    31232.367    625.90214    23635.496    69435.702   -774.61496    16121.571     11794.86    79.507693 
   16000    1626.3789   -117.82077    1.4715818   -116.34918   -25285.865    4.3218043    4.3218043    4.3218043   -25285.865   -7185.7362   -21672.857   -46999.003   -10873.325   -12787.888    14209.761    80.722631 
   16100    1562.6934   -117.74312    1.4139579   -116.32916   -3419.8913     4.298862     4.298862     4.298862   -3419.8913   -912.00157   -50673.182     41325.51   -25936.597    2701.1244     25185.72    79.443891 
   16200    1776.9786   -117.92455    1.6078475   -116.31671    40196.431    4.2799446    4.2799446    4.2799446    40196.431       111715    6815.2475    2059.0446   -3011.6572     21259.67    10275.609    78.399705 
   16300    1663.6285   -117.89554     1.505286   -116.39025   -24618.222    4.3193805    4.3193805    4.3193805   -24618.222    -49449.25   -3424.8679   -20980.548   -4718.1357    33993.577    2683.3115    80.586887 
   16400    2145.7713   -118.27664     1.941539    -116.3351   -22437.913    4.3282369    4.3282369    4.3282369   -22437.913    14815.594   -42207.335   -39921.996    818.78062    1144.0314   -5707.1652    81.083611 
   16500    2116.1821    -118.2186     1.914766   -116.30383   -3635.5092    4.3166334    4.3166334    4.3166334   -3635.5092    1522.4254     23150.72   -35579.673    28787.399   -470.41474    7593.7483    80.433228 
   16600    1474.1645   -117.64931     1.333855   -116.31546    24801.624    4.3098228    4.3098228    4.3098228    24801.624    41358.062     22837.76    10209.048    22625.081    7929.9219       5501.4    80.053118 
   16700     1665.268    -117.8491    1.5067695   -116.34233   -2112.3006    4.3230187    4.3230187    4.3230187   -2112.3006   -12542.784   -36717.091    42922.973   -12218.294    -6688.295   -1077.7982    80.790696 
   16800    1438.3296   -117.62591    1.3014309   -116.32448   -55288.477    4.3379279    4.3379279    4.3379279   -55288.477    17215.855   -101489.76   -81591.525    4858.6805   -6967.7604    9153.6313    81.629471 
   16900    2130.0504   -118.21062    1.9273144   -116.28331   -2697.8855    4.3269504    4.3269504    4.3269504   -2697.8855   -37406.532   -10947.707    40260.582   -24067.443    14936.494    15532.254    81.011328 
   17000    2015.5425   -118.12519    1.8237052   -116.30149    -8965.316    4.3288563    4.3288563    4.3288563    -8965.316    -45422.74   -25216.387    43743.179   -18299.762   -2797.8914    27986.842    81.118424 
   17100    1865.1189   -118.00756    1.6875987   -116.31996   -30809.156     4.331294     4.331294     4.331294   -30809.156    -17308.65   -11300.875   -63817.944    13776.436    5834.6668    6198.2246    81.255541 
   17200    2197.1755    -118.2867    1.9880505   -116.29864   -2697.4387    4.3087282    4.3087282    4.3087282   -2697.4387    15110.971   -24064.315    861.02751   -9523.0559   -1096.3842   -19156.278    79.992137 
   17300     1709.201   -117.86026     1.546521   -116.31374    48450.924    4.2938256    4.2938256    4.2938256    48450.924    90234.037    22700.062    32418.674   -5979.0652   -3175.9638   -7681.8418    79.164999 
   17400    2433.2802   -118.55531    2.2016831   -116.35363   -48491.329    4.3149238    4.3149238    4.3149238   -48491.329   -41186.825   -79316.011   -24971.151     14103.55    -24424.13   -13984.743    80.337702 
   17500     1335.319   -117.54362    1.2082247    -116.3354    19596.868    4.3223136    4.3223136    4.3223136    19596.868    68090.157    25175.358   -34474.912    2995.7362    -10970.12   -12445.728    80.751168 
   17600    1338.6866   -117.52769    1.2112718   -116.31642    18492.268    4.3242463    4.3242463    4.3242463    18492.268   -9410.5576    32223.365    32663.996   -12473.409     1143.757    6843.4026     80.85954 
   17700    1757.6103   -117.89847    1.5903227   -116.30815    2135.3946    4.3278423    4.3278423    4.3278423    2135.3946   -76443.919   -7503.4181    90353.521     11279.24   -15500.928    483.83345    81.061431 
   17800    1961.2205   -118.09539    1.7745535   -116.32084   -17737.609    4.3316096    4.3316096    4.3316096   -17737.609   -38459.823   -44748.233    29995.229   -7419.3109   -3473.8287   -18112.545    81.273306 
   17900    1576.7111   -117.75816    1.4266413   -116.33152   -18833.501    4.3331909    4.3331909    4.3331909   -18833.501   -109674.19     27183.35    25990.338    2559.6752    1120.7562   -34940.709    81.362348 
   18000    2138.5085   -118.24476    1.9349674   -116.30979   -21169.568    4.3158766    4.3158766    4.3158766   -21169.568   -56827.034    16847.767   -23529.438    15209.645   -3651.1397   -7779.5279    80.390929 
   18100    2203.0853    -118.3252    1.9933979    -116.3318    27428.167    4.3029329    4.3029329    4.3029329    27428.167    13708.292   -5331.5536    73907.763    -3478.285    10362.995    13507.478    79.669802 
   18200    2898.7592   -118.98689    2.6228582   -116.36403   -30313.902    4.3156604    4.3156604    4.3156604   -30313.902   -7675.6384    -60800.52    -22465.55    12545.715    13476.693    23273.824    80.378852 
   18300    2003.3635   -118.16577    1.8126854   -116.35309     23904.86    4.3124695    4.3124695    4.3124695     23904.86   -10834.555    6489.2015    76059.935    9827.7468    1428.5997    -85.36277    80.200693 
   18400    1366.4058   -117.59322    1.2363527   -116.35686   -29146.917    4.3066186    4.3066186    4.3066186   -29146.917   -28391.591   -36914.155   -22135.005    6766.1039    28581.788   -42348.863    79.874702 
   18500    1560.4912   -117.76448    1.4119653   -116.35251   -3177.7786    4.2852034    4.2852034    4.2852034   -3177.7786   -14772.493      991.427    4247.7301    10392.646     27291.77    -20242.89    78.689053 
   18600    2181.0717   -118.36925    1.9734795   -116.39577    21028.109    4.2908266    4.2908266    4.2908266    21028.109   -17807.932   -13380.278    94272.537     6392.718   -15677.378   -6973.4153    78.999235 
   18700    2611.0185   -118.75348    2.3625044   -116.39098   -27640.551    4.3080786    4.3080786    4.3080786   -27640.551   -50351.607   -35153.039    2582.9923    11460.948    -20718.65   -1196.4293     79.95596 
   18800    2073.1306   -118.24651    1.8758121   -116.37069    35224.029    4.2995554    4.2995554    4.2995554    35224.029    1258.2889   -21928.283    126342.08   -3014.3619    -2602.027   -19656.823    79.482343 
   18900    2248.9329   -118.40017    2.0348817   -116.36529   -24469.705    4.3112911    4.3112911    4.3112911   -24469.705   -80884.352   -3747.1148    11222.351   -5227.6705   -2958.5152   -2595.9829    80.134962 
   19000    1350.7185   -117.57037    1.2221585   -116.34822   -16592.325    4.3027272    4.3027272    4.3027272   -16592.325   -97205.886    23078.953    24349.956    17896.592    -20257.23   -2767.0398    79.658375 
   19100    1320.7427   -117.53167    1.1950358   -116.33663   -10404.885    4.2824961    4.2824961    4.2824961   -10404.885   -81720.158    4914.9974    45590.505    41758.519      5354.69   -1212.1074    78.540004 
   19200    1747.8223   -117.94288    1.5814663   -116.36142     8182.474    4.2903195    4.2903195    4.2903195     8182.474    30297.446   -18615.322    12865.298   -5169.1414    -1873.504    9982.6323     78.97123 
   19300    2383.8624   -118.51781    2.1569688   -116.36084   -45027.374    4.3125543    4.3125543    4.3125543   -45027.374   -46433.962   -33548.189   -55099.972   -8569.7722   -9383.0445   -4238.7217    80.205421 
   19400    2825.0491   -118.89759    2.5561638   -116.34143   -46999.967     4.310567     4.310567     4.310567   -46999.967     -74233.8   -54959.161   -11806.939    28335.663    -7015.751    16100.721     80.09459 
   19500    1646.0725   -117.81782     1.489401   -116.32842    32242.085    4.2933647    4.2933647    4.2933647    32242.085    8922.3731    18703.824    69100.058   -8687.7458   -25248.324   -15752.292    79.139507 
   19600    1178.5447   -117.42249     1.066372   -116.35612   -3313.1532    4.3037624    4.3037624    4.3037624   -3313.1532   -46277.448    75755.343   -39417.354   -6877.0692    22397.302   -37559.712    79.715882 
   19700    1472.5026   -117.67909    1.3323513   -116.34674   -18463.821    4.3184752    4.3184752    4.3184752   -18463.821   -77030.027     21509.12    129.44332    -354.1886     16691.35   -7101.8608    80.536227 
   19800    1959.0301   -118.09623    1.7725716   -116.32366   -6480.8524     4.321357     4.321357     4.321357   -6480.8524   -52550.266     58645.92   -25538.211   -20918.084   -2444.7697    7176.0884    80.697568 
   19900     2025.286   -118.16369    1.8325214   -116.33117   -24195.513    4.3243545    4.3243545    4.3243545   -24195.513   -65199.742    67612.496   -74999.294   -16425.619    28297.232    10538.665     80.86561 
   20000    2883.6618   -118.92246    2.6091978   -116.31326    3463.3804    4.3015602    4.3015602    4.3015602    3463.3804    8558.0506    20309.197   -18477.106    18510.927    3263.2955    1560.7121    79.593574 
   20100    1898.7196   -118.05798    1.7180014   -116.33998   -6737.2233    4.2937111    4.2937111    4.2937111   -6737.2233     8847.226    14868.173   -43927.068   -4779.5159    21466.857    20416.227    79.158667 
   20200    840.01627    -117.1289   0.76006437   -116.36884   -31735.127    4.2994584    4.2994584    4.2994584   -31735.127   -26556.953   -15829.002   -52819.426   -7785.8409    19197.472    11457.042     79.47696 
   20300    2033.4716   -118.17175    1.8399278   -116.33182    15112.474    4.2839287    4.2839287    4.2839287    15112.474    8245.7766    48762.285   -11670.638   -19757.873    -28388.45   -9857.5072    78.618853 
   20400    1798.7116   -118.01584    1.6275121   -116.38833    9209.3949    4.3014617    4.3014617    4.3014617    9209.3949   -49364.946    120175.47   -43182.342    16225.474    12013.122    1030.8925    79.588106 
   20500    1632.3546   -117.87353    1.4769888   -116.39654    17722.615    4.3285993    4.3285993    4.3285993    17722.615   -33793.426    97782.396   -10821.126   -23342.412    8265.2955   -10062.923    81.103979 
   20600    2349.2682   -118.46519    2.1256672   -116.33952   -16187.719    4.3420347    4.3420347    4.3420347   -16187.719   -29401.194    31332.335   -50494.297   -11935.492   -10898.935   -10184.751     81.86153 
   20700    1764.8857   -117.89882    1.5969057   -116.30192   -28315.794    4.3237943    4.3237943    4.3237943   -28315.794   -73721.787   -29163.474    17937.878    16259.552    4601.2041    8070.6629    80.834188 
   20800    946.42763    -117.1387   0.85634761   -116.28236    36988.864    4.2808116    4.2808116    4.2808116    36988.864   -13410.787     35228.95    89148.429   -6524.1973    8302.0613    8136.6601    78.447362 
   20900    1326.9972   -117.55263    1.2006949   -116.35194    20648.842    4.2821267    4.2821267    4.2821267    20648.842   -898.21965    72697.033   -9852.2869    956.83559   -7174.1527    14911.323    78.519683 
   21000    2114.6487    -118.2829    1.9133786   -116.36953   -22418.511    4.3085613    4.3085613    4.3085613   -22418.511   -53958.829    49787.842   -63084.546   -695.97065   -19816.787    17922.169    79.982842 
   21100    2436.5479   -118.56093    2.2046398   -116.35629   -3990.2381    4.3233362    4.3233362    4.3233362   -3990.2381   -59065.239    77162.043   -30067.519   -3677.9967    19898.667   -11479.973    80.808498 
   21200    2135.7611    -118.2674    1.9324816   -116.33492   -37042.916    4.3265702    4.3265702    4.3265702   -37042.916   -22480.486   -10867.813   -77780.448   -17604.416   -9812.0587   -9041.8026    80.989974 
   21300    1925.4081   -118.03791    1.7421497   -116.29576   -3250.5165    4.3010332    4.3010332    4.3010332   -3250.5165   -70953.302    40913.352    20288.401    13059.286   -40967.838    22940.276    79.564328 
   21400    1557.8396   -117.71914     1.409566   -116.30957     43201.18    4.2939548    4.2939548    4.2939548     43201.18   -19573.282    39355.057    109821.76   -9073.7752    20689.601    14200.826    79.172144 
   21500    1253.9165   -117.51692      1.13457   -116.38235     17539.71    4.3285927    4.3285927    4.3285927     17539.71   -58565.856   -5779.3725    116964.36   -10928.145    5222.1811    34991.184    81.103607 
   21600    1834.7034   -117.99275    1.6600782   -116.33267   -47502.567    4.3537626    4.3537626    4.3537626   -47502.567   -85896.253   -69958.753    13347.305     4992.003   -17544.787   -16349.576    82.526653 
   21700    1688.2247   -117.84026    1.5275412   -116.31272   -62235.289    4.3255816    4.3255816    4.3255816   -62235.289   -87463.955   -34617.579   -64624.333    17622.699    54802.628   -17671.703    80.934468 
   21800    2934.8158   -118.91594    2.6554831   -116.26045    36246.048    4.2555787    4.2555787    4.2555787    36246.048    11288.689    69013.805     28435.65     595.2507    11593.779    33012.354    77.068317 
   21900    1763.4848   -117.92483    1.5956381    -116.3292    29617.986    4.2589822    4.2589822    4.2589822    29617.986   -17373.718    65191.639    41036.038   -9707.3232    36880.704    4976.8382    77.253377 
   22000     1524.049    -117.7627    1.3789916   -116.38371   -45641.873    4.3147341    4.3147341    4.3147341   -45641.873   -94988.062    38631.455   -80569.012    2920.3423    40092.406   -15466.568    80.327103 
   22100    1793.4408   -117.94877    1.6227429   -116.32603   -26676.644    4.3466792    4.3466792    4.3466792   -26676.644   -65979.595   -3355.8393   -10694.499    2197.1995   -26420.441   -15991.337    82.124503 
   22200    1877.6013   -117.97002    1.6988931   -116.27113    -50554.93    4.3371531    4.3371531    4.3371531    -50554.93   -71765.746   -10711.187   -69187.858    522.00686    27659.265    27811.847    81.585742 
   22300    2542.1375   -118.54003    2.3001795   -116.23986   -3759.3574    4.2869831    4.2869831    4.2869831   -3759.3574   -42715.969    37526.145   -6088.2484   -13399.638   -16482.437    3738.8327    78.787139 
   22400     2865.193   -118.87022    2.5924868   -116.27774     34698.78    4.2686877    4.2686877    4.2686877     34698.78   -2931.5005    63295.109    43732.732   -722.40511   -3111.1358    11323.397    77.782722 
   22500    2028.7341   -118.19025    1.8356412   -116.35461   -25824.267    4.3019414    4.3019414    4.3019414   -25824.267   -87859.737     62587.66   -52200.724    8719.9702    31103.696    28422.998    79.614735 
   22600    1066.5714   -117.31458   0.96505622   -116.34952   -9292.5068    4.3172131    4.3172131    4.3172131   -9292.5068   -58112.931    59585.532   -29350.121     6975.683   -2997.6203    16391.374    80.465638 
   22700     1493.021   -117.68458    1.3509167   -116.33367    3629.0914    4.3131986    4.3131986    4.3131986    3629.0914    7623.9277    45173.646     -41910.3   -8825.0013    -11166.04    7626.2718    80.241378 
   22800    1959.4724   -118.10848    1.7729718   -116.33551    23731.067    4.2983657    4.2983657    4.2983657    23731.067   -4067.8912    40016.892    35244.199   -1177.5053    15478.878   -37584.086    79.416379 
   22900    2367.1774   -118.49085    2.1418719   -116.34897    12429.063    4.2809077    4.2809077    4.2809077    12429.063   -33178.856     59733.39    10732.653   -317.10511    11232.544   -37686.224    78.452647 
   23000    1815.7534   -118.02368    1.6429319   -116.38075    34354.143    4.2794872    4.2794872    4.2794872    34354.143    26140.581    74634.693    2287.1534   -10475.193   -9430.0618    25879.498    78.374573 
   23100     1697.294   -117.93461    1.5357473   -116.39886   -29899.312    4.3071454    4.3071454    4.3071454   -29899.312    -17692.28   -8861.8577   -63143.799   -4344.7004   -2641.4622    24465.849    79.904015 
   23200    1502.1065    -117.7204    1.3591375   -116.36126   -41300.044    4.3229249    4.3229249    4.3229249   -41300.044   -58324.636   -79.032805   -65496.463    3210.8335    20062.192   -10700.176    80.785433 
   23300    2371.3553   -118.47085    2.1456521    -116.3252   -19039.159    4.3032109    4.3032109    4.3032109   -19039.159   -15332.278    -4476.487   -37308.713    3952.7034   -3838.7747   -3808.6373    79.685241 
   23400    2434.6357   -118.52869    2.2029096   -116.32578    10029.718    4.2750042    4.2750042    4.2750042    10029.718    28808.064   -6125.1015    7406.1912   -2975.9504   -10075.298    36682.617    78.128528 
   23500    1561.4907   -117.77034    1.4128696   -116.35747    42794.836    4.2702571    4.2702571    4.2702571    42794.836    3679.5568    70986.894    53718.057   -9470.9464    20590.391    28120.938    77.868545 
   23600    1584.5605   -117.83165    1.4337436   -116.39791    14314.984     4.300605     4.300605     4.300605    14314.984    43350.905    1243.5696   -1649.5241   -19652.739    29982.414   -4626.8201    79.540565 
   23700    1749.6993   -117.93981    1.5831647   -116.35664   -4451.2066    4.3198924    4.3198924    4.3198924   -4451.2066    49758.623   -33404.315   -29707.928    19797.468   -12220.587   -4469.6965    80.615544 
   23800    2195.7347   -118.30827    1.9867469   -116.32153   -158.58003    4.3130321    4.3130321    4.3130321   -158.58003    36016.851   -24171.208   -12321.383    2182.8235   -7615.2437    18921.372    80.232083 
   23900     2016.455   -118.13566    1.8245309   -116.31113    16787.449    4.2929469    4.2929469    4.2929469    16787.449    24554.817    -21290.16     47097.69   -40445.546    4369.1447    855.29937    79.116408 
   24000    2171.1243   -118.29705    1.9644789   -116.33257   -1336.5377     4.292128     4.292128     4.292128   -1336.5377    2110.3414    17030.098   -23150.052    31458.156   -5776.1332   -20305.255    79.071137 
   24100    1989.5735   -118.15299     1.800208   -116.35278   -37428.094    4.3251238    4.3251238    4.3251238   -37428.094    -94888.71   -30815.205    13419.633   -3782.2061   -6658.7882    5307.1192    80.908774 
   24200    1866.5782   -117.98316    1.6889192   -116.29424   -83.702788     4.318794     4.318794     4.318794   -83.702788   -42344.243    91776.032   -49682.898   -24814.576    7381.2024     10460.88    80.554064 
   24300    1162.0211    -117.3473    1.0514211   -116.29588    20943.382     4.296685     4.296685     4.296685    20943.382    36545.934    27144.914   -860.70051    50609.698   -3748.2267    2809.6846    79.323258 
   24400    2449.3427   -118.51141    2.2162168   -116.29519   -21064.824    4.2921448    4.2921448    4.2921448   -21064.824   -22199.021   -4702.4516   -36292.999    9776.7614   -26681.383    4692.2484    79.072067 
   24500    1922.8986   -118.06296    1.7398791   -116.32308    45568.216    4.3099892    4.3099892    4.3099892    45568.216    34994.379    24586.609     77123.66   -22344.527    12250.401   -6965.6589    80.062391 
   24600    1074.9858   -117.29729   0.97266973   -116.32462    44167.838    4.3442699    4.3442699    4.3442699    44167.838    34505.629   -19742.745    117740.63    1204.3523    28990.865    3359.9147     81.98802 
   24700     2106.539   -118.13663    1.9060407   -116.23059   -51076.992    4.3496884    4.3496884    4.3496884   -51076.992   -54231.658   -54374.117     -44625.2   -17727.374   -6072.3488   -14586.831    82.295185 
   24800    1586.4982   -117.62059    1.4354969    -116.1851    26240.279    4.3005311    4.3005311    4.3005311    26240.279   -19575.278     51697.34    46598.776    49648.819    18031.114   -10738.924    79.536463 
   24900    2134.7725   -118.14894     1.931587   -116.21736    46637.396    4.2759452    4.2759452    4.2759452    46637.396    21371.665    82519.507    36021.017   -1114.1737   -12709.082   -583.28894    78.180132 
   25000    2134.0371   -118.24124    1.9309216   -116.31032   -5437.7885    4.2973629    4.2973629    4.2973629   -5437.7885    20056.895   -12060.588   -24309.672   -20199.346    15169.389   -27019.097    79.360812 
   25100    1430.0128    -117.6249    1.2939057   -116.33099   -17181.906    4.3206148    4.3206148    4.3206148   -17181.906   -29657.702   -28898.767     7010.751     33503.11    23391.463   -4057.2006    80.655995 
   25200    2029.0413   -118.14751    1.8359192   -116.31159   -22305.718    4.3143426    4.3143426    4.3143426   -22305.718   -18245.717   -43404.065   -5267.3709   -767.67035   -21871.757      19768.1    80.305238 
   25300    1581.0894   -117.72222    1.4306029   -116.29162    53187.151    4.2912898    4.2912898    4.2912898    53187.151    49065.278    74482.322    36013.854   -14997.158   -3266.4911    -23757.67    79.024821 
   25400    2264.3652   -118.37076    2.0488452   -116.32191   -18666.663     4.299765     4.299765     4.299765   -18666.663   -58009.703    30464.634   -28454.921   -18787.166    30031.756   -7850.6074    79.493966 
   25500     2634.492   -118.71707    2.3837437   -116.33332   -25474.567    4.3267158    4.3267158    4.3267158   -25474.567    33621.379   -48620.104   -61424.977   -13257.859   -486.94484   -9955.4038     80.99815 
   25600    1268.6335   -117.45168    1.1478862   -116.30379     30792.31    4.3495556    4.3495556    4.3495556     30792.31    76072.939    15863.296    440.69531    33034.632   -2584.4881   -1132.7065    82.287651 
   25700    2514.0587   -118.48359    2.2747731   -116.20881   -38323.214    4.3456198    4.3456198    4.3456198   -38323.214   -75599.318    7540.0774   -46910.401    -7374.347    2489.5505    5494.9452    82.064474 
   25800    1389.9818   -117.45259    1.2576848    -116.1949    22198.791    4.3225928    4.3225928    4.3225928    22198.791    24567.326    22641.271    19387.776    997.03592    16719.752   -10685.191    80.766821 
   25900    1184.8647   -117.30286    1.0720904   -116.23077    31920.401    4.3053452    4.3053452    4.3053452    31920.401    52277.135    50153.484    -6669.415    14295.437     10518.18   -11175.151    79.803867 
   26000    2208.2592   -118.25744    1.9980794   -116.25936    8021.6221    4.3030942    4.3030942    4.3030942    8021.6221    45373.933    -32212.98    10903.913    3905.2833    2746.0145    15087.055    79.678757 
   26100      1959.81   -118.08052    1.7732773   -116.30725   -33911.433     4.325091     4.325091     4.325091   -33911.433   -16517.591    -45221.59   -39995.119    6974.4403   -7064.4488   -1672.3936    80.906934 
   26200    1867.7193    -117.9794    1.6899516   -116.28945   -14130.131    4.3138029    4.3138029    4.3138029   -14130.131    17921.992    5376.4654   -65688.851    5030.2367   -13307.999   -27335.585     80.27511 
   26300    2301.7318   -118.34652    2.0826553   -116.26386    -3066.374    4.2852269    4.2852269    4.2852269    -3066.374   -1390.8564   -18026.558    10218.293    25752.955   -3231.7292   -4974.1866     78.69035 
   26400    2022.1357   -118.14636    1.8296709   -116.31669   -24929.281    4.2986858    4.2986858    4.2986858   -24929.281   -48268.316   -39119.689    12600.164   -3095.3824   -7531.9463    1495.1395    79.434123 
   26500    1486.0315   -117.65919    1.3445925    -116.3146    1942.9093     4.301602     4.301602     4.301602    1942.9093    10378.273    17731.113   -22280.658     640.8058   -5957.5836   -19768.199    79.595894 
   26600    1569.8751   -117.73222    1.4204559   -116.31176    16091.971    4.2972984    4.2972984    4.2972984    16091.971    10520.196    7798.5426    29957.175    28542.877    26672.145   -21881.877    79.357239 
   26700    2252.0199   -118.34961     2.037675   -116.31194   -51321.589     4.304421     4.304421     4.304421   -51321.589   -70328.772   -9307.5733   -74328.422    9966.7345   -26165.382    16649.894    79.752486 
   26800      1577.56   -117.73782    1.4274094   -116.31041   -19239.958    4.2950798    4.2950798    4.2950798   -19239.958    61598.627   -6719.3748   -112599.12   -4288.6952   -15442.674   -7556.1729     79.23439 
   26900    1776.0708   -117.92893    1.6070262   -116.32191     26170.68    4.2939515    4.2939515    4.2939515     26170.68    82859.697    57389.501   -61737.157    32206.528    18716.009    1046.7029    79.171963 
   27000    1853.6053   -118.01459     1.677181   -116.33741    6013.2863    4.3132023    4.3132023    4.3132023    6013.2863   -1027.4749     51595.59   -32528.256     25380.09   -19292.261    20385.336     80.24158 
   27100    1982.0663   -118.10443    1.7934152   -116.31101   -43848.147    4.3144992    4.3144992    4.3144992   -43848.147   -23456.634   -45998.066   -62089.741   -13562.099   -11508.161   -11050.691    80.313983 
   27200    1927.9368   -118.04073    1.7444378   -116.29629   -28264.032    4.3081802    4.3081802    4.3081802   -28264.032    15233.157   -49689.223    -50336.03    13268.023    11210.094   -20107.392    79.961621 
   27300    1617.3449   -117.76096    1.4634076   -116.29755   -10581.467    4.3081986    4.3081986    4.3081986   -10581.467   -21155.655    47149.131   -57737.876    14919.431   -13199.708   -9797.7347    79.962643 
   27400     1758.496   -117.88243    1.5911242   -116.29131   -35674.796    4.2977104    4.2977104    4.2977104   -35674.796   -66728.936     46603.57   -86899.022   -23367.402   -35483.733   -10927.648    79.380062 
   27500    1819.9113   -117.96476     1.646694   -116.31807    2442.7806    4.2959988    4.2959988    4.2959988    2442.7806    2797.4389    -39544.31    44075.213    797.70837    24341.534   -32304.674    79.285263 
   27600    2194.1174   -118.32938    1.9852835   -116.34409   -41525.596    4.3157945    4.3157945    4.3157945   -41525.596   -28004.539   -58925.961   -37646.289    8050.0451   -892.13173   -15185.278    80.386345 
   27700    1726.7886   -117.89146    1.5624346   -116.32902   -30881.053    4.3105523    4.3105523    4.3105523   -30881.053     -84969.8   -15088.017    7414.6587   -12802.637    -27023.21   -2149.7715    80.093774 
   27800    1868.1215   -117.99951    1.6903156   -116.30919     13856.31    4.2797637    4.2797637    4.2797637     13856.31    -56916.27    82788.997    15696.202    -12308.51    9912.9069    8155.2934    78.389767 
   27900    2359.2893   -118.45583    2.1347345   -116.32109    8704.2967    4.2754154    4.2754154    4.2754154    8704.2967    17781.227    26396.929   -18065.266    10296.352    6448.1658    1329.1081    78.151073 
   28000    1443.0281    -117.6611    1.3056821   -116.35542    12639.093    4.2900324    4.2900324    4.2900324    12639.093    16158.303    13446.012     8312.965   -11481.332   -40779.749   -8145.6715    78.955377 
   28100    1641.0052   -117.84634     1.484816   -116.36152     10956.71    4.3032652    4.3032652    4.3032652     10956.71    222.47144    18192.779    14454.878   -14700.186   -9252.9246   -11040.949    79.688257 
   28200    2524.0959   -118.60815     2.283855   -116.32429   -21482.007    4.3143085    4.3143085    4.3143085   -21482.007     11622.32   -48436.291    -27632.05     8826.622    19823.768   -6732.2088    80.303334 
   28300    2271.6139    -118.3648     2.055404   -116.30939   -1000.3176    4.2877214    4.2877214    4.2877214   -1000.3176   -7994.1349    24393.189   -19400.007   -4528.1158   -9989.2057   -1376.1962    78.827851 
   28400    1504.7579      -117.69    1.3615366   -116.32847     2151.038    4.2772518    4.2772518    4.2772518     2151.038   -1702.0928    40930.041   -32774.834    -26195.37   -16361.033   -2945.3448    78.251821 
   28500    1485.2012   -117.69761    1.3438412   -116.35377   -38030.435    4.2961524    4.2961524    4.2961524   -38030.435   -19969.405   -89695.402   -4426.4984    29721.456    14344.976    26685.818    79.293766 
   28600     1623.568   -117.81549    1.4690384   -116.34645    16456.105     4.294419     4.294419     4.294419    16456.105    41473.821   -14645.335    22539.831    37462.098    1204.2996    13398.173    79.197822 
   28700    2913.7521   -118.96165    2.6364242   -116.32523   -20720.915    4.2930037    4.2930037    4.2930037   -20720.915    2070.5387   -52646.297   -11586.988   -23207.143   -10225.145     241.6495    79.119546 
   28800    1705.2842   -117.88453     1.542977   -116.34156    17297.136    4.2913933    4.2913933    4.2913933    17297.136     43174.98   -46474.293    55190.723    46630.962    59.031981    511.70566    79.030543 
   28900    1414.3151   -117.62336    1.2797021   -116.34366   -2226.2335    4.2863747    4.2863747    4.2863747   -2226.2335    31179.294   -16735.619   -21122.375    17863.716   -808.12424    11945.873      78.7536 
   29000    1881.2066   -118.04201    1.7021553   -116.33986   -9494.6871    4.2861358    4.2861358    4.2861358   -9494.6871    10886.787    11530.536   -50901.384   -34431.503    33142.805   -13116.149    78.740428 
   29100    2010.9452   -118.17256    1.8195455   -116.35302    1230.3803    4.2892931    4.2892931    4.2892931    1230.3803   -24340.182   -26597.655    54628.977    41996.034    10322.258    2275.8925    78.914564 
   29200    2314.6793   -118.44441    2.0943705   -116.35004   -26123.911    4.2970079    4.2970079    4.2970079   -26123.911   -45499.017   -67746.896    34874.179    38268.422   -20467.494    10809.753    79.341141 
   29300    2334.5203   -118.44329    2.1123231   -116.33097    -39643.98    4.2953049    4.2953049    4.2953049    -39643.98   -50119.476   -9228.8707   -59583.595   -33452.838    17043.888    6228.1252     79.24685 
   29400    1050.2004    -117.2911   0.95024336   -116.34086    36147.789    4.2823213    4.2823213    4.2823213    36147.789    65052.482    29273.278    14117.607     21239.69    37216.377    13255.755    78.530389 
   29500     1629.104   -117.83027    1.4740475   -116.35622    29661.475    4.2832183    4.2832183    4.2832183    29661.475     66344.74    7016.7263    15622.958    45388.371    7091.1083     2038.145    78.579749 
   29600    2598.7034   -118.71051    2.3513614   -116.35915   -23313.997    4.3079674    4.3079674    4.3079674   -23313.997    5342.6339   -34557.649   -40726.975   -14852.845    2421.6479    2300.2913    79.949769 
   29700     2209.425   -118.32046    1.9991341   -116.32132   -6928.5652     4.313982     4.313982     4.313982   -6928.5652    24772.584   -23066.871   -22491.409   -4368.7821    30203.904   -13580.726    80.285108 
   29800    2133.0436   -118.22667    1.9300227   -116.29665    1954.8507    4.3056138    4.3056138    4.3056138    1954.8507   -42660.991    65478.438   -16952.895    16192.827   -4665.7946   -7578.9674    79.818804 
   29900    1548.5186   -117.70954    1.4011322    -116.3084   -19093.276    4.3001131    4.3001131    4.3001131   -19093.276    10341.558   -48849.625   -18771.761   -22905.401   -25876.572    -240.7674    79.513275 
   30000    959.67387   -117.19458   0.86833308   -116.32624    44057.513    4.2831235    4.2831235    4.2831235    44057.513    64378.641    28230.097    39563.801   -26648.545   -24972.666   -1387.0255    78.574528 
   30100    2671.7826   -118.75541     2.417485   -116.33793   -1783.4597    4.2895107    4.2895107    4.2895107   -1783.4597   -16334.722   -4772.3052    15756.648   -6285.9324   -4565.3277    648.08436    78.926574 
   30200    2568.1823   -118.66608    2.3237454   -116.34233   -9341.0999    4.3107492    4.3107492    4.3107492   -9341.0999   -33217.463    44045.005   -38850.841   -1157.0459   -28401.651    7233.2306     80.10475 
   30300    1682.6411   -117.84185     1.522489   -116.31936    16391.341    4.3116928    4.3116928    4.3116928    16391.341    6619.1284     78379.23   -35824.336    -31706.52   -9531.4248   -9457.4538    80.157363 
   30400    1294.3267   -117.48467     1.171134   -116.31354   -5954.2118    4.3042155    4.3042155    4.3042155   -5954.2118   -7013.4289    4573.6516   -15422.858   -29557.681     10554.49   -13335.482    79.741064 
   30500    1542.8654   -117.70868     1.396017   -116.31266   -33191.327    4.2978189    4.2978189    4.2978189   -33191.327   -36047.183    12165.156   -75691.952    2614.4179   -35927.525    -13365.45    79.386079 
   30600    2678.7541   -118.73251     2.423793   -116.30871    1671.1137      4.28406      4.28406      4.28406    1671.1137    54712.137    -13122.02   -36576.775    1463.5026   -22760.112   -37.447609    78.626081 
   30700    1596.7042   -117.80612    1.4447315   -116.36139   -9273.5804    4.3034731    4.3034731    4.3034731   -9273.5804    20558.871   -57120.899    8741.2867   -36105.343    18003.954   -19126.282    79.699809 
   30800    1366.1259   -117.55911    1.2360994   -116.32301   -13166.537    4.3188434    4.3188434    4.3188434   -13166.537    39505.303   -62082.021   -16922.895   -8596.4792    13614.139    -335.1463    80.556828 
   30900    2033.8709   -118.13235    1.8402891   -116.29206   -47518.666    4.3213459    4.3213459    4.3213459   -47518.666   -9920.9949    -79002.05   -53632.954    16606.408    18629.083    5101.3832    80.696945 
   31000    1593.0154   -117.75247    1.4413938   -116.31108   -24131.567    4.3070921    4.3070921    4.3070921   -24131.567   -13423.505   -42968.416   -16002.782   -7379.2825    15078.052   -24010.254     79.90105 
   31100     2230.828   -118.33697    2.0185001   -116.31847    34710.324    4.2867163    4.2867163    4.2867163    34710.324    29852.037    30083.129    44195.805   -7433.5831   -187.59044   -9178.8008    78.772428 
   31200    2662.6806   -118.75744    2.4092494   -116.34819    5270.5567    4.2902346    4.2902346    4.2902346    5270.5567    -12509.61    41356.447   -13035.167    22874.697    4297.2288    17688.287    78.966543 
   31300    1451.9305   -117.68208    1.3137372   -116.36835    24806.948    4.2842353    4.2842353    4.2842353    24806.948    16231.973    10293.725    47895.146   -11965.968   -8080.7696   -7253.9069    78.635732 
   31400    1579.2317    -117.8313     1.428922   -116.40238   -8230.8246    4.2937619    4.2937619    4.2937619   -8230.8246   -6714.4458    20696.241   -38674.269   -43753.839    6857.0703   -17029.344    79.161472 
   31500    2084.9379   -118.27489    1.8864956   -116.38839   -36574.795    4.2966268    4.2966268    4.2966268   -36574.795   -28430.394   -25005.123   -56288.867   -1933.3697    17752.187   -9611.4753    79.320036 
   31600    1909.6748   -118.08922    1.7279139    -116.3613    27537.451    4.2738961    4.2738961    4.2738961    27537.451   -25809.363    19832.873    88588.842    7937.6379   -5247.0434    15603.986    78.067792 
   31700     1649.423   -117.88322    1.4924326   -116.39079    4011.0251    4.2847198    4.2847198    4.2847198    4011.0251   -34207.824     22945.61    23295.289   -16062.011   -20229.701   -20226.336    78.662418 
   31800    1400.5179   -117.64859     1.267218   -116.38137    20826.775    4.3009663    4.3009663    4.3009663    20826.775    1768.7352   -35762.845    96474.435    945.09557    17329.985   -25288.669     79.56061 
   31900    2655.9517   -118.75528     2.403161   -116.35212   -36935.872    4.3092045    4.3092045    4.3092045   -36935.872   -37976.823   -62071.411   -10759.382     20464.78   -5095.7991   -13826.159    80.018669 
   32000    1988.4974    -118.1442    1.7992343   -116.34497   -29031.249    4.3157264    4.3157264    4.3157264   -29031.249   -26401.338   -13496.319   -47196.089   -1965.8802   -25064.213   -17196.696     80.38254 
   32100    1932.7918   -118.08421    1.7488307   -116.33538   -17881.741    4.2904685    4.2904685    4.2904685   -17881.741   -15361.952    -8697.233   -29586.039    -10747.96    10100.545     16361.88    78.979461 
   32200    1044.0741   -117.29463   0.94470017   -116.34993    36094.461    4.2747167    4.2747167    4.2747167    36094.461   -32209.178    21414.354    119078.21    16264.581    26486.494    17163.516    78.112766 
   32300    2071.1737   -118.27024    1.8740415    -116.3962    -21039.37    4.3076517    4.3076517    4.3076517    -21039.37   -46211.041   -21031.179    4124.1095    15418.493    2345.4186    3934.1852    79.932196 
   32400    1653.3084   -117.84206    1.4959482   -116.34611    22805.498    4.3235734    4.3235734    4.3235734    22805.498    11870.108    70085.057   -13538.672   -24287.643   -6338.5388   -1009.2469      80.8218 
   32500    1829.2932   -117.96134    1.6551829   -116.30616    48539.481    4.3067929    4.3067929    4.3067929    48539.481   -37200.251    111205.67    71613.018   -10980.385    19584.125    -28542.93    79.884397 
   32600    1994.3056   -118.13553    1.8044896   -116.33104    36997.195    4.3095346    4.3095346    4.3095346    36997.195   -27767.253    146380.69   -7621.8504    17535.821   -5303.7533   -29920.408    80.037057 
   32700      2182.06   -118.28817    1.9743738   -116.31379   -12241.207    4.3080063    4.3080063    4.3080063   -12241.207    -9981.809   -4189.3258   -22552.488   -412.99292   -9025.2156    11584.884    79.951939 
   32800    866.47924   -117.09984   0.78400862   -116.31583    31530.313    4.3054775    4.3054775    4.3054775    31530.313    17422.382    15006.295    62162.263    35184.142    37723.686   -11057.771    79.811226 
   32900    2345.5566   -118.42536    2.1223089   -116.30305   -47541.702    4.3176854    4.3176854    4.3176854   -47541.702   -58803.876   -65477.604   -18343.627    18845.501   -7049.9979   -11800.171    80.492052 
   33000     2257.792   -118.34431    2.0428977   -116.30141      14486.7    4.2985784    4.2985784    4.2985784      14486.7    13076.384    86355.153   -55971.439    2462.7843    14387.094   -5309.7563     79.42817 
   33100    2059.5027   -118.18198    1.8634813    -116.3185    48117.726    4.2881694    4.2881694    4.2881694    48117.726    31179.748    34912.435    78260.995    3689.1062    18061.006   -9244.7157    78.852558 
   33200    1778.7773   -117.94792    1.6094751   -116.33845     24863.65    4.2930567    4.2930567    4.2930567     24863.65    16201.384    27305.346     31084.22    7229.9027   -13073.419    3412.3085    79.122476 
   33300    1214.0345    -117.4482    1.0984839   -116.34971    17324.286    4.2942505    4.2942505    4.2942505    17324.286    -32545.91    87076.064    -2557.296   -7836.4449   -7452.3187    11847.256    79.188503 
   33400    2347.8961   -118.47127    2.1244257   -116.34685   -22767.045    4.3112975    4.3112975    4.3112975   -22767.045   -44928.556   -2158.4823   -21214.098    8555.5203    11386.843    14739.035    80.135319 
   33500    2307.6395   -118.41057    2.0880007   -116.32257    17849.231    4.3079879    4.3079879    4.3079879    17849.231   -58731.706    106839.42    5439.9822   -225.62748   -20552.751   -8077.0174    79.950915 
   33600    2112.5803   -118.23138     1.911507   -116.31987   -9028.9373    4.2941785    4.2941785    4.2941785   -9028.9373   -39787.641    39835.446   -27134.617    4097.9015   -11530.413   -13981.667    79.184517 
   33700    1593.1932   -117.78979    1.4415547   -116.34823    -9189.464    4.3051822    4.3051822    4.3051822    -9189.464   -12538.134   -16809.418    1779.1607    961.74221    21942.298   -39221.666      79.7948 
   33800    1585.6102   -117.77851    1.4346935   -116.34382   -8569.9002    4.3232915    4.3232915    4.3232915   -8569.9002    13551.726   -37900.213   -1361.2136     7237.473   -32008.227   -8399.4837     80.80599 
   33900    1747.9441   -117.90255    1.5815766   -116.32097   -16629.174    4.3363069    4.3363069    4.3363069   -16629.174   -48464.091   -21156.192    19732.761   -14534.975    3878.8158   -6676.9607    81.537995 
   34000     1975.388   -118.06663    1.7873726   -116.27925    -6440.932     4.333225     4.333225     4.333225    -6440.932    8102.4617   -7908.2468   -19517.011   -18560.732   -10955.207   -466.15545    81.364268 
   34100    2019.2399   -118.09257    1.8270507   -116.26552    14862.271    4.3121973    4.3121973    4.3121973    14862.271   -38587.726    86242.065   -3067.5255    22537.258   -33826.121    17918.371    80.185506 
   34200    1893.8848   -118.00188    1.7136267   -116.28826     10791.08    4.3042319    4.3042319    4.3042319     10791.08    37037.078   -11030.903    6367.0658    8570.1501    40.821589    5167.9734    79.741977 
   34300    1959.3125   -118.07507    1.7728272   -116.30225   -23994.878    4.3207837    4.3207837    4.3207837   -23994.878   -16608.212   -25145.923   -30230.499    2041.0211    1964.5508    10163.946    80.665452 
   34400    1673.1067   -117.80125    1.5138621   -116.28739   -7214.2703    4.3196907    4.3196907    4.3196907   -7214.2703   -44713.611    17984.418    5086.3821    25357.083     -20596.4    20128.422    80.604254 
   34500    1998.6515   -118.09087    1.8084219   -116.28245    9247.0274    4.3050364    4.3050364    4.3050364    9247.0274    30697.833   -49131.915    46175.164    8112.4099    4736.1298    11969.495    79.786699 
   34600    2121.1944   -118.23288    1.9193012   -116.31358   -9577.2699    4.3131513    4.3131513    4.3131513   -9577.2699    47161.267   -49656.507    -26236.57   -23920.323     3896.959    16343.613    80.238734 
   34700    2036.7078   -118.15978     1.842856   -116.31693    3042.0487    4.3147459    4.3147459    4.3147459    3042.0487    38711.959    38184.729   -67770.542   -5078.7931   -17917.063   -3402.8905    80.327764 
   34800     1778.775   -117.93859     1.609473   -116.32912   -34478.276    4.3139852    4.3139852    4.3139852   -34478.276    12544.762   -26836.469   -89143.122    3791.0805   -12716.146   -7865.5622    80.285287 
   34900    1920.5541   -118.07108    1.7377577   -116.33332   -40008.714    4.3107415    4.3107415    4.3107415   -40008.714   -8295.7121   -59668.183   -52062.247    26596.718     19611.71    -4816.952    80.104323 
   35000    2155.4885   -118.27651    1.9503313   -116.32618    34482.269    4.2925464    4.2925464    4.2925464    34482.269    20808.772    38973.151    43664.883   -9479.3654     10970.65   -19845.341    79.094263 
   35100    1992.5969   -118.17646    1.8029436   -116.37352    1903.7449    4.3031229    4.3031229    4.3031229    1903.7449   -51190.644    38952.954    17948.925   -21299.216     -33490.4   -25274.878    79.680353 
   35200    1883.8596   -118.05474    1.7045557   -116.35018   -18294.216     4.323418     4.323418     4.323418   -18294.216   -72921.405   -31034.921    49073.679    12620.523   -22420.332    13398.306    80.813085 
   35300    1882.5291   -118.00648    1.7033518   -116.30313    7531.2563    4.3185589    4.3185589    4.3185589    7531.2563   -27448.905     42152.82    7889.8535   -4142.6746   -7209.8118    17852.268    80.540913 
   35400    1695.9247   -117.83309    1.5345083   -116.29858    15711.413    4.3046152    4.3046152    4.3046152    15711.413    37077.178    6197.9703    3859.0895   -5654.7589   -9139.0924   -3224.3259    79.763281 
   35500    2408.0793   -118.50821    2.1788808   -116.32933   -27649.714    4.3131534    4.3131534    4.3131534   -27649.714   -24445.613   -53107.413   -5396.1171    -2171.254    -4504.469   -21597.203    80.238854 
   35600    2066.5367   -118.20009    1.8698459   -116.33025   -13244.956    4.3252118    4.3252118    4.3252118   -13244.956   -43450.422    5518.4727   -1802.9171    -16615.64    -6372.154   -6127.4479    80.913717 
   35700    2125.7534   -118.22232    1.9234264   -116.29889   -24085.141    4.3172834    4.3172834    4.3172834   -24085.141   -92902.514    21337.159   -690.06886    846.43247   -2743.3582    6803.2527    80.469566 
   35800    1548.2543   -117.70358     1.400893   -116.30269    4247.0928    4.3012312    4.3012312    4.3012312    4247.0928   -17312.944   -20625.963    50680.186    542.86722   -16010.385    24257.184    79.575315 
   35900    1580.3823   -117.77465    1.4299631   -116.34469   -12663.583    4.3061795    4.3061795    4.3061795   -12663.583   -36596.752    18733.609   -20127.608   -7550.2902    15203.869    18272.299    79.850269 
   36000    2029.7747   -118.17575    1.8365828   -116.33917   -27114.109    4.3209487    4.3209487    4.3209487   -27114.109   -42897.292   -29748.781    -8696.254   -7851.8935    33368.606   -17228.298    80.674697 
   36100    2345.0065   -118.43487    2.1218112   -116.31306    -35506.15    4.3107895    4.3107895    4.3107895    -35506.15   -44853.657     -42455.4   -19209.392    16975.371   -9352.0025    21834.723    80.106997 
   36200    1617.7759   -117.77017    1.4637976   -116.30637    21229.245    4.2883771    4.2883771    4.2883771    21229.245    33989.924    34929.613   -5231.8028    15034.211    -12839.19    19497.202    78.864019 
   36300    2024.8969   -118.18084    1.8321693   -116.34867   -1378.3501     4.301313     4.301313     4.301313   -1378.3501     16565.51    12194.517   -32895.078   -4723.6598    2639.9726   -17196.445    79.579853 
   36400    1614.0162   -117.80426    1.4603958   -116.34386    8588.6105    4.3114218    4.3114218    4.3114218    8588.6105   -56463.781    44795.477    37434.136    13342.455    673.29742    9723.5887    80.142251 
   36500    1801.9524   -117.96536    1.6304444   -116.33492    30126.133    4.2881802    4.2881802    4.2881802    30126.133    66604.332    3358.4785    20415.589    12527.704     7359.513    19668.939    78.853154 
   36600    2073.8406   -118.24488    1.8764545   -116.36843    5650.8123    4.2912444    4.2912444    4.2912444    5650.8123    25142.477   -36429.132    28239.092   -9933.0156   -4554.0049    3198.2961    79.022314 
   36700    1783.8648    -117.9778    1.6140783   -116.36372    2092.4112    4.3058157    4.3058157    4.3058157    2092.4112   -26672.599   -4387.0387    37336.871   -1399.6926    32453.764    1579.7248    79.830034 
   36800    1959.9952   -118.12287    1.7734448   -116.34942   -43854.164    4.3203353    4.3203353    4.3203353   -43854.164   -11247.829   -39739.123    -80575.54    4978.4854   -5901.6419    16908.289    80.640344 
   36900    1679.3662   -117.84466    1.5195258   -116.32514   -16117.495    4.3227082    4.3227082    4.3227082   -16117.495    25404.006   -35398.118   -38358.372   -101.64665   -18137.122    9071.6688    80.773287 
   37000    1984.5588   -118.08643    1.7956705   -116.29076    15166.812    4.3039824    4.3039824    4.3039824    15166.812      32868.1    4953.3568    7678.9777    14713.431    10241.526   -11083.256    79.728107 
   37100    1909.5572   -118.04754    1.7278075   -116.31973   -8568.8176    4.3115662    4.3115662    4.3115662   -8568.8176    26527.038   -51252.358    -981.1327    15461.148   -2840.0179    6696.5643    80.150303 
   37200    2246.1554   -118.34498    2.0323686   -116.31261   -23567.845    4.3089822    4.3089822    4.3089822   -23567.845   -9700.8494   -56215.597   -4787.0878    5513.7316    10122.949   -13733.973    80.006282 
   37300    1670.1343    -117.8393    1.5111726   -116.32812     26992.15    4.2977174    4.2977174    4.2977174     26992.15    15754.787    8882.9989    56338.664    -30461.28    3195.3425   -10526.948    79.380449 
   37400    1543.2491   -117.77118    1.3963642   -116.37481   -54633.688    4.3234603    4.3234603    4.3234603   -54633.688   -50437.298    -113705.1    241.33596    19359.686   -15601.025   -33432.857    80.815457 
   37500    2516.8699   -118.61861    2.2773168   -116.34129   -31012.268    4.3222186    4.3222186    4.3222186   -31012.268   -57269.242   -38933.209    3165.6461    5304.3272   -34308.461   -11949.197    80.745848 
   37600    1950.1804   -118.09744    1.7645642   -116.33287    319.00466    4.3138379    4.3138379    4.3138379    319.00466   -69932.161   -53912.573    124801.75   -35462.255   -13817.434    26288.302    80.277061 
   37700    1681.1883   -117.84874    1.5211745   -116.32757   -24018.125    4.3004961    4.3004961    4.3004961   -24018.125   -37245.607   -30792.697   -4016.0713    1142.0915    8365.3619    18622.289     79.53452 
   37800    1464.7638   -117.65455    1.3253491    -116.3292    54479.382    4.2836322    4.2836322    4.2836322    54479.382    51232.261    31879.877    80326.008    4931.0168    21104.246     20107.22     78.60253 
   37900    2194.1111    -118.3726    1.9852778   -116.38732   -66918.256    4.3147686    4.3147686    4.3147686   -66918.256   -72776.812   -71958.075   -56019.882   -42376.777    11648.022    13455.237     80.32903 
   38000    2115.1738   -118.27371    1.9138537   -116.35985   -57900.988    4.3172784    4.3172784    4.3172784   -57900.988   -28992.253   -73712.937   -70997.774   -2733.2614      6490.43     45364.87     80.46929 
   38100    2135.9375   -118.25896    1.9326411   -116.32631    18812.653    4.2855625    4.2855625    4.2855625    18812.653    70511.522   -27504.131    13430.569    9476.0417    4847.2822    17239.012    78.708835 
   38200    2259.9741   -118.41213    2.0448721   -116.36726   -10682.081    4.2867495    4.2867495    4.2867495   -10682.081   -25475.481   -5117.9622   -1452.8013    4686.0087   -3024.6318    -23888.26    78.774257 
   38300    1475.6912   -117.73512    1.3352364   -116.39989    30791.393    4.3079449    4.3079449    4.3079449    30791.393    39723.974    4550.9367    48099.269    5841.1511    2435.8958     514.1947    79.948517 
   38400    1474.7876   -117.70212    1.3344188    -116.3677    20751.838    4.3314355    4.3314355    4.3314355    20751.838    71445.408   -35868.488    26678.595    23715.644   -9932.6185    3186.4607    81.263506 
   38500    1934.2503   -118.06203    1.7501504   -116.31188   -21954.475      4.33844      4.33844      4.33844   -21954.475   -31224.389   -11716.579   -22922.458   -6104.6289    1219.4568   -13053.996    81.658383 
   38600    2146.0268   -118.21896    1.9417702   -116.27719   -12110.403    4.3227776    4.3227776    4.3227776   -12110.403    -46427.17   -56240.344    66336.305    1518.0948    8600.5292   -2060.1991    80.777176 
   38700    2599.0465   -118.63415    2.3516719   -116.28248   -6498.8632    4.3064731    4.3064731    4.3064731   -6498.8632   -18149.872    3272.0971   -4618.8149    21582.745   -16640.795    8480.0152    79.866606 
   38800     1885.386   -118.01695    1.7059369   -116.31101    30661.235    4.2985567    4.2985567    4.2985567    30661.235    24975.933    31935.582    35072.189    -4164.409    4475.5639   -362.78871    79.426965 
   38900    1813.3434   -117.99958    1.6407512   -116.35883    40590.993    4.3014032    4.3014032    4.3014032    40590.993    31642.789    23117.391    67012.797   -12763.434    8081.7782   -11102.231    79.584861 
   39000    1649.4582   -117.88002    1.4924644   -116.38756   -21207.959    4.3189307    4.3189307    4.3189307   -21207.959   -34342.912    13387.633   -42668.597   -2954.5015   -9186.1111    22155.734    80.561713 
   39100    1905.4267   -118.09235    1.7240702   -116.36828   -26534.166    4.3190048    4.3190048    4.3190048   -26534.166   -26780.469   -44847.386   -7974.6433    2804.4457    9774.1828   -6124.0271    80.565861 
   39200    2619.8768   -118.70116    2.3705196   -116.33064   -6101.1175    4.3076597    4.3076597    4.3076597   -6101.1175     14726.36   -13881.071   -19148.642    7537.5998   -11608.762   -9317.2503    79.932639 
   39300      1989.19   -118.13965    1.7998609   -116.33979   -17236.689    4.3122876    4.3122876    4.3122876   -17236.689   -53071.652   -34313.431    35675.016   -3115.1897   -23761.126    30995.745    80.190542 
   39400    1263.2459   -117.48451    1.1430114   -116.34149     2522.581    4.3092104    4.3092104    4.3092104     2522.581    40854.928     -12379.2   -20907.985   -28487.375   -11786.959    41954.982    80.018997 
   39500    1563.4404   -117.74619    1.4146338   -116.33156    19106.133    4.2963075    4.2963075    4.2963075    19106.133    41427.244    27736.924   -11845.771   -1078.9899   -13098.605   -16231.745    79.302353 
   39600    1522.8848   -117.74373    1.3779381    -116.3658   -3351.8005    4.3171726    4.3171726    4.3171726   -3351.8005    -67358.37    101390.75   -44087.785       2512.9    -909.5008    1851.2086    80.463371 
   39700    2217.8881   -118.34714    2.0067918   -116.34035   -16437.792    4.3197591    4.3197591    4.3197591   -16437.792   -31046.395    17182.034   -35449.015    894.45439    6576.6883   -11506.168    80.608083 
   39800    2326.6829   -118.42586    2.1052316   -116.32063    49665.162    4.2893374    4.2893374    4.2893374    49665.162    24242.941    59398.091    65354.452    19166.864   -2362.8797    4856.4862     78.91701 
   39900    1888.0249   -118.07885    1.7083246   -116.37053    4387.6017    4.2996021    4.2996021    4.2996021    4387.6017   -44573.069    3344.3654    54391.509   -3315.2517   -6954.5739   -31329.815     79.48493 
   40000    1347.2737   -117.59432    1.2190416   -116.37528   -12281.964    4.3123862    4.3123862    4.3123862   -12281.964   -53420.263   -2782.4935    19356.863   -3029.6226    -13605.08   -15153.098    80.196044 
   40100    2049.1635   -118.20661    1.8541262   -116.35248   -14590.797     4.308505     4.308505     4.308505   -14590.797   -25728.591    38418.351   -56462.152   -22176.601   -3836.3239    17679.216    79.979708 
   40200    2286.4892   -118.42666    2.0688634    -116.3578   -15005.341    4.3061945    4.3061945    4.3061945   -15005.341    38.032116    13566.882   -58620.937   -2345.1343    13184.614    13947.624    79.851102 
   40300    2194.3215     -118.344    1.9854682   -116.35853    29199.697    4.2904781    4.2904781    4.2904781    29199.697    47848.475    85197.544    -45446.93    12409.476   -4736.4637    -11537.41    78.979988 
   40400    1861.7977     -118.078    1.6845937   -116.39341   -5045.9668      4.30332      4.30332      4.30332   -5045.9668    10276.053   -2200.2559   -23213.697   -13644.458    16000.103   -11602.326      79.6913 
   40500    1882.2724   -118.07209    1.7031196   -116.36897   -40668.236    4.3185814    4.3185814    4.3185814   -40668.236   -57443.337    20704.087   -85265.458   -11328.723    18004.862    15188.369    80.542171 
   40600    1872.8457   -118.03857    1.6945902   -116.34398   -4610.0309    4.3213714    4.3213714    4.3213714   -4610.0309   -28061.869    78959.537    -64727.76   -10349.504   -10390.059    15185.139    80.698371 
   40700    2046.9196   -118.19116    1.8520959   -116.33907   -29753.388    4.3195707    4.3195707    4.3195707   -29753.388     5789.176   -14697.166   -80352.174   -19334.429    16091.983   -6703.0308    80.597537 
   40800    1725.9998    -117.8978    1.5617209   -116.33608    8626.8232    4.2962776    4.2962776    4.2962776    8626.8232   -5263.7661    43598.874   -12454.639    23420.197    22197.966    20503.276    79.300699 
   40900    1620.3429   -117.82302    1.4661203    -116.3569    4290.0174    4.2922617    4.2922617    4.2922617    4290.0174    30788.404    36700.601   -54618.952    6563.3766   -4847.4906    -14302.94     79.07853 
   41000    1883.6997   -118.08607    1.7044111   -116.38166    -11945.89    4.3125135    4.3125135    4.3125135    -11945.89   -1415.7225    9001.8009    -43423.75    2946.0581   -5119.3396   -7384.8139    80.203147 
   41100    2309.0239   -118.44886    2.0892534    -116.3596   -41493.004    4.3235043    4.3235043    4.3235043   -41493.004   -71212.994   -9182.9241   -44083.094    3541.4539    7096.4533    28855.242    80.817924 
   41200    1682.1627   -117.85441    1.5220561   -116.33236    6539.8228    4.3124935    4.3124935    4.3124935    6539.8228   -31550.271    43183.411    7986.3284    24396.029   -9675.2725   -21680.966    80.202032 
   41300    1474.3398   -117.66037    1.3340136   -116.32636    21940.269    4.2975111    4.2975111    4.2975111    21940.269    27509.785    66864.251    -28553.23   -8968.5463   -22453.593   -15937.233    79.369023 
   41400    2780.1487    -118.8658     2.515537   -116.35027   -14257.944    4.3085275    4.3085275    4.3085275   -14257.944   -1827.2069   -12047.441   -28899.183   -11188.812   -6373.1367     5712.922     79.98096 
   41500    2065.6469   -118.21464    1.8690407    -116.3456    7662.3079    4.3145946    4.3145946    4.3145946    7662.3079   -38403.936    51001.964    10388.896    2069.3474   -2728.9411   -3024.2812    80.319315 
   41600    1851.0188   -118.00653    1.6748407   -116.33169    -43709.22    4.3106213    4.3106213    4.3106213    -43709.22   -41769.829   -51034.163    -38323.67    9175.6076    -32269.81    23333.567    80.097618 
   41700    1289.1851   -117.49382    1.1664818   -116.32733    13381.897     4.296329     4.296329     4.296329    13381.897    64821.322   -44942.059    20266.428   -27428.436    2544.1147    38694.875    79.303544 
   41800    2107.3252   -118.23878    1.9067521   -116.33203    16824.045    4.2881938    4.2881938    4.2881938    16824.045    51090.426     15758.81     -16377.1   -25773.836   -9977.2182   -8687.2737    78.853907 
   41900    1999.1782   -118.18631    1.8088984   -116.37741    2684.2332    4.3174098    4.3174098    4.3174098    2684.2332    12879.884    37385.942   -42213.126    19238.724   -14741.606    5567.7184    80.476635 
   42000    2189.8796   -118.32009    1.9814491   -116.33864   -16919.742    4.3437525    4.3437525    4.3437525   -16919.742    -8611.353   -30164.028   -11983.845    11613.599   -11055.551    4510.9042    81.958728 
   42100    2022.4338   -118.13167    1.8299406   -116.30173   -14552.158    4.3127884    4.3127884    4.3127884   -14552.158   -2980.2905   -925.72201   -39750.461   -20023.019   -28010.378   -27025.063    80.218486 
   42200    1579.5913   -117.71869    1.4292474   -116.28944    16456.494     4.275992     4.275992     4.275992    16456.494   -17210.588    103786.25   -37206.181    23379.564   -33304.434   -5620.3647    78.182697 
   42300    2139.5493   -118.29968    1.9359091   -116.36377   -15706.359    4.2960995    4.2960995    4.2960995   -15706.359   -65278.823     7838.887    10320.859   -14953.687    3495.9213   -1072.0817    79.290834 
   42400    1817.9104   -118.00962    1.6448835   -116.36474   -42951.959    4.3268513    4.3268513    4.3268513   -42951.959   -39504.489   -40124.228    -49227.16    5300.3753      14035.1    11677.874    81.005763 
   42500    1651.1734   -117.83554    1.4940164   -116.34152   -2558.9268    4.3095812    4.3095812    4.3095812   -2558.9268   -42926.421    8273.5085    26976.132     8560.745   -29376.132   -24568.279    80.039656 
   42600    2173.1552   -118.29386    1.9663165   -116.32754    10804.532     4.292761     4.292761     4.292761    10804.532    25703.136   -24072.359    30782.818   -26992.393   -4922.3814   -5027.9655    79.106126 
   42700    2542.6594   -118.63916    2.3006516   -116.33851    1277.3053    4.2916596    4.2916596    4.2916596    1277.3053   -36035.205    5335.4509    34531.671   -596.90465    413.37102    6584.0304    79.045257 
   42800    1815.7752   -118.00593    1.6429515   -116.36298     1082.256    4.2975223    4.2975223    4.2975223     1082.256   -34535.929   -25466.893     63249.59   -10265.913   -30571.426   -22136.784    79.369643 
   42900    1125.5534   -117.40188    1.0184244   -116.38346   -54054.578    4.3151232    4.3151232    4.3151232   -54054.578   -41311.676   -27056.505   -93795.551    9412.5914   -37245.592   -35251.016     80.34884 
   43000    2197.1607   -118.33481    1.9880372   -116.34677   -25461.351    4.3036168    4.3036168    4.3036168   -25461.351   -25185.363   -35909.764   -15288.926   -11182.349    4952.8943    -23505.78     79.70779 
   43100    1829.8666   -118.01167    1.6557018   -116.35597    43747.655    4.2956458    4.2956458    4.2956458    43747.655   -40291.949    95703.009    75831.905   -12149.418   -3477.1546    12328.797    79.265715 
   43200    2467.7093   -118.59721    2.2328353   -116.36437   -10789.162    4.3094542    4.3094542    4.3094542   -10789.162   -71066.902    21519.492    17179.924    15582.945   -22205.306    13354.325    80.032577 
   43300    2240.7195   -118.37422    2.0274501   -116.34677   -34467.145    4.3328154    4.3328154    4.3328154   -34467.145   -45293.112   -48753.812   -9354.5127   -17184.776    8436.2664    950.44706    81.341198 
   43400     1061.899   -117.27058   0.96082855   -116.30976    24678.156    4.3267851    4.3267851    4.3267851    24678.156   -18099.796    28778.387    63355.876   -38314.042     9761.414   -21545.199    81.002046 
   43500    1721.5551   -117.81958    1.5576992   -116.26188    22816.249    4.3051727    4.3051727    4.3051727    22816.249    12870.238    12877.724    42700.786    -8623.664   -1365.1069   -8881.4609    79.794277 
   43600    1917.7499   -118.03211    1.7352204   -116.29689    -41225.66    4.3235443    4.3235443    4.3235443    -41225.66   -31959.207   -67722.718   -23995.055   -5603.3945   -535.80812    9215.5255    80.820164 
   43700    1731.9737   -117.87027    1.5671262   -116.30314   -18183.275    4.3309564    4.3309564    4.3309564   -18183.275   -27552.495   -12452.241   -14545.089   -22130.849   -21023.373   -8408.8476    81.236544 
   43800    2086.4505   -118.17708    1.8878642   -116.28922   -330.22249    4.3145926    4.3145926    4.3145926   -330.22249    56974.143   -11708.249   -46256.561    10697.182     11244.75   -14487.448    80.319199 
   43900    2023.9411   -118.13293    1.8313045   -116.30162    2889.6731    4.2998794    4.2998794    4.2998794    2889.6731    6705.6249    39246.919   -37283.525    4354.6265   -656.60071   -14646.575    79.500312 
   44000    2197.2946   -118.30281    1.9881584   -116.31465    134.55111    4.2820469    4.2820469    4.2820469    134.55111   -9722.0713   -28762.616    38888.341    -5267.716   -24906.306   -10017.202    78.515294 
   44100    1417.2446   -117.63835    1.2823527   -116.35599    710.52726    4.2936016    4.2936016    4.2936016    710.52726    113325.68   -74535.704   -36658.389     11013.02     4598.345   -22540.348    79.152611 
   44200    1538.5714   -117.75065    1.3921317   -116.35852   -24267.785    4.3162482    4.3162482    4.3162482   -24267.785    26924.578   -110764.69    11036.755    23431.403   -3980.6676   -17917.218    80.411699 
   44300    2146.2002   -118.26389     1.941927   -116.32196    13769.138    4.3153857    4.3153857    4.3153857    13769.138    4700.9869   -28887.415    65493.842   -12222.296    26782.344    6989.5964    80.363503 
   44400    2024.7797   -118.14673    1.8320632   -116.31467    14224.759    4.3127776    4.3127776    4.3127776    14224.759    37247.636   -7841.4228    13268.063   -5547.7123    2064.7356   -870.20716     80.21788 
   44500    1916.4704   -118.04615    1.7340627   -116.31209   -12542.701    4.3054255    4.3054255    4.3054255   -12542.701   -28591.599   -72933.125    63896.621    29436.779   -2500.7746   -6170.4368    79.808333 
   44600    2384.9595   -118.47172    2.1579615   -116.31376    2815.2122    4.2927461    4.2927461    4.2927461    2815.2122    4937.6488   -9359.1099    12867.098    6566.2514    -7367.354   -23770.181    79.105303 
   44700    1601.6529   -117.79859    1.4492092   -116.34938   -27254.717    4.3103402    4.3103402    4.3103402   -27254.717   -2928.0921   -59035.447   -19800.611    3754.6326    574.71216    14427.853    80.081951 
   44800    1487.7161    -117.6853    1.3461167   -116.33918   -54066.809    4.3203423    4.3203423    4.3203423   -54066.809   -24040.877   -131590.48   -6569.0729    30661.671   -14070.055    15513.305    80.640733 
   44900    1645.4145    -117.8176    1.4888056   -116.32879   -9396.3529     4.297956     4.297956     4.297956   -9396.3529    8271.9104   -59284.966    22823.997    20969.893    4671.7858   -36411.937    79.393674 
   45000    2384.8383   -118.48419    2.1578518   -116.32634    28159.892    4.2759188    4.2759188    4.2759188    28159.892    13457.635    44312.344    26709.696   -6419.6859    15033.707    6403.6214    78.178682 
   45100     1859.734   -118.07686    1.6827264   -116.39414    14323.897    4.2985813    4.2985813    4.2985813    14323.897    3457.1874     3815.654    35698.851    5875.3447     3457.529    14189.122    79.428329 
   45200    2328.3239   -118.45769    2.1067164   -116.35098   -56161.675    4.3312948    4.3312948    4.3312948   -56161.675   -62402.771   -39251.184   -66831.071    2258.1673    -12833.73   -125.50671    81.255586 
   45300     1593.121    -117.7458    1.4414893   -116.30431    19837.675    4.3187394    4.3187394    4.3187394    19837.675    16097.053    78516.121   -35100.149    7445.3471    14133.161   -12213.237    80.551009 
   45400    1631.8317   -117.79265    1.4765156   -116.31613   -12339.255    4.3115291    4.3115291    4.3115291   -12339.255   -10677.156   -12453.606   -13887.001    -8323.823    2790.1897   -10767.805    80.148233 
   45500     2099.246   -118.22738    1.8994419   -116.32794   -8840.2467    4.2917472    4.2917472    4.2917472   -8840.2467    40759.925   -63450.115   -3830.5502   -12242.917    3213.9029   -4003.5427    79.050093 
   45600    1797.8018   -117.97899    1.6266888    -116.3523     38744.94     4.269623     4.269623     4.269623     38744.94    57504.685    41499.709    17230.427   -2912.1345    25958.509   -2133.9633    77.833862 
   45700    1747.0019   -117.98181     1.580724   -116.40108   -13270.379    4.3008981    4.3008981    4.3008981   -13270.379   -33565.759    10897.539   -17142.917    1361.3695    29503.626    7436.7356    79.556828 
   45800    1692.6456   -117.88264    1.5315413    -116.3511    -24366.16    4.3249005    4.3249005    4.3249005    -24366.16     34150.52    -20247.99    -87001.01   -9470.4903   -2604.3288   -18938.717    80.896244 
   45900    1488.8715   -117.66805    1.3471622   -116.32089    -7099.088    4.3116401    4.3116401    4.3116401    -7099.088    24589.426   -20675.746   -25210.944    9017.1418   -1802.7502   -12281.301    80.154426 
   46000    1998.1925   -118.13729    1.8080066   -116.32929      22238.6    4.3018812    4.3018812    4.3018812      22238.6    16199.352   -4353.3463    54869.796     24140.84    10243.315    19158.392    79.611398 
   46100    2549.9621   -118.66771    2.3072593   -116.36045   -9826.5205    4.3200208    4.3200208    4.3200208   -9826.5205    55037.362   -65553.892   -18963.032   -7468.6712   -24152.741   -23076.025    80.622733 
   46200     2353.171   -118.47028    2.1291985   -116.34108   -19039.459    4.3262044    4.3262044    4.3262044   -19039.459    3391.7256   -39643.443   -20866.661   -12689.102   -3156.2467   -19247.459    80.969436 
   46300    955.67386    -117.1922   0.86471379   -116.32749    32736.456    4.3074594    4.3074594    4.3074594    32736.456    57497.088   -6264.9044    46977.185    11767.675    4618.2519     7344.966    79.921492 
   46400    1610.4788   -117.78669    1.4571951    -116.3295   -24048.148    4.2925612    4.2925612    4.2925612   -24048.148   -25107.906    22246.088   -69282.627    96.627075    10039.754   -4067.1351    79.095084 
   46500    2165.1204   -118.29123    1.9590464   -116.33219    52997.579    4.2786087    4.2786087    4.2786087    52997.579    85363.962    40777.864    32850.912   -7966.6592    14621.578   -21746.853    78.326318 
   46600    2970.4635   -119.05808    2.6877378   -116.37034   -21666.822    4.2976088    4.2976088    4.2976088   -21666.822   -9373.9042   -45524.784   -10101.777    20045.681    12353.141    603.49734    79.374434 
   46700    1368.6724   -117.59643    1.2384036   -116.35803    3701.8319    4.3162904    4.3162904    4.3162904    3701.8319   -21625.619    10858.497    21872.618    14135.507    32208.369    1334.1827    80.414059 
   46800    1625.8338   -117.78704    1.4710886   -116.31595   -7488.8568    4.3029716    4.3029716    4.3029716   -7488.8568   -3055.1802    1823.0903   -21234.481   -10490.181    9466.2951    13195.146    79.671948 
   46900    1579.3929   -117.75159    1.4290679   -116.32252   -1247.0217    4.2921331    4.2921331    4.2921331   -1247.0217    54159.381   -45426.062   -12474.384   -15661.148   -2929.5111   -13378.502    79.071422 
   47000     1869.606   -118.04436    1.6916588    -116.3527   -11508.646    4.2962437    4.2962437    4.2962437   -11508.646   -50295.076   -41157.112    56926.249    16117.266    7118.4188    -9875.708    79.298817 
   47100    2448.9218   -118.56147    2.2158359   -116.34564   -27498.079    4.3020481    4.3020481    4.3020481   -27498.079    -25018.79   -63533.498    6058.0509   -217.26372   -12761.138    19332.998    79.620662 
   47200    1975.9487   -118.12834    1.7878799   -116.34046   -23346.679    4.3102739    4.3102739    4.3102739   -23346.679    14191.921   -86915.957    2683.9983   -7736.2983   -24740.442   -10821.946    80.078256 
   47300    1166.1667    -117.3899    1.0551721   -116.33473     1748.889    4.2953183    4.2953183    4.2953183     1748.889    24938.852   -15708.213   -3983.9712    22325.806    8786.1082    290.88312    79.247589 
   47400     1574.731    -117.7623    1.4248497   -116.33745    26820.778    4.2835566    4.2835566    4.2835566    26820.778    91572.209   -6935.6923   -4174.1828    13950.163    13009.345    22950.897    78.598367 
   47500    2812.9938   -118.90615    2.5452559   -116.36089   -14343.966    4.2964881    4.2964881    4.2964881   -14343.966    25891.395   -47665.146   -21258.147    22119.779   -14571.156    11225.631    79.312352 
   47600    2568.0622   -118.68917    2.3236366   -116.36554   -30895.213    4.3059652    4.3059652    4.3059652   -30895.213   -44706.019   -32434.246   -15545.375   -36219.855   -4960.0411    13449.646    79.838348 
   47700    813.35526   -117.08672   0.73594093   -116.35078     3826.606    4.3059031    4.3059031    4.3059031     3826.606    36013.947   -47867.443    23333.313    3108.9585     19885.41    16626.036    79.834894 
   47800    1919.2751   -118.05747    1.7366004   -116.32087     -26898.6    4.2974391    4.2974391    4.2974391     -26898.6    11486.557   -62043.776   -30138.581    9344.8421    6574.8191    -8722.163    79.365029 
   47900    1524.6454   -117.71855    1.3795312   -116.33902   -28488.333    4.3046003    4.3046003    4.3046003   -28488.333   -38225.398   -5793.2141   -41446.386   -39924.466    12331.295    3424.5913     79.76245 
   48000    2404.1586   -118.50511    2.1753332   -116.32978    10175.651    4.2886729    4.2886729    4.2886729    10175.651   -33253.615    54296.906    9483.6619     2817.152    21785.678    23366.403    78.880341 
   48100    2332.8561   -118.45149    2.1108172   -116.34067    14831.346    4.2912436    4.2912436    4.2912436    14831.346    41299.569    7505.5557   -4311.0867    11808.292    16546.964   -5352.4378     79.02227 
   48200    1474.2682   -117.67317    1.3339488   -116.33922    -49567.75    4.3266802    4.3266802    4.3266802    -49567.75   -80679.514    7922.5856   -75946.323   -16985.163    12278.132   -23999.666     80.99615 
   48300    1640.2084   -117.78828     1.484095   -116.30418   -46996.341    4.3158145    4.3158145    4.3158145   -46996.341   -37629.119   -49577.759   -53782.144   -27358.061   -8817.3478   -627.33121    80.387462 
   48400     2253.184   -118.31814    2.0387282   -116.27941    19147.203    4.2867035    4.2867035    4.2867035    19147.203    39492.509   -13629.251    31578.351    8089.0442   -12745.882    -7437.311    78.771723 
   48500    2274.5168   -118.38409    2.0580306   -116.32606   -1006.0055    4.2868687    4.2868687    4.2868687   -1006.0055   -67232.081    47660.301    16553.764   -19305.661   -2866.1313   -14939.222    78.780828 
   48600    1810.6299   -117.99628     1.638296   -116.35799    6551.2943    4.2964698    4.2964698    4.2964698    6551.2943   -49054.411    22318.791    46389.503    -35241.56   -15277.956   -2507.9538    79.311342 
   48700    1631.7675   -117.82681    1.4764576   -116.35035    8109.4656    4.3087372    4.3087372    4.3087372    8109.4656   -16877.369   -8211.9931    49417.759    9058.3578   -27112.211   -4808.3855     79.99264 
   48800    2110.2435   -118.23383    1.9093927   -116.32444   -35332.509    4.3019008    4.3019008    4.3019008   -35332.509   -19520.659   -65920.998    -20555.87   -18149.743   -7836.0842    20504.168    79.612485 
   48900    2164.8099   -118.27479    1.9587655   -116.31603   -28340.511    4.2894445    4.2894445    4.2894445   -28340.511     2598.218   -92246.142    4626.3905   -47598.721   -10461.048    6111.4272    78.922922 
   49000    1987.9547   -118.13248    1.7987432   -116.33373   -9270.4952    4.3026272    4.3026272    4.3026272   -9270.4952   -16018.443    -41602.51    29809.467   -480.76569    12267.588   -5638.1814    79.652819 
   49100    1570.1663   -117.75522    1.4207195    -116.3345   -5905.3961     4.310525     4.310525     4.310525   -5905.3961   -44808.477   -31867.265    58959.554   -22200.736    24587.005    28179.747    80.092253 
   49200    1963.2783   -118.09858    1.7764154   -116.32217     6120.864    4.2921747    4.2921747    4.2921747     6120.864   -38653.982   -23309.588    80326.162   -27423.278    13328.378    6201.1216    79.073721 
   49300    1801.0549   -117.96641    1.6296323   -116.33678    20314.245    4.2865342    4.2865342    4.2865342    20314.245     10566.23   -23102.662    73479.168    16631.915   -18551.311   -18602.205    78.762391 
   49400     1758.489   -117.94573    1.5911178   -116.35461   -8888.2964    4.2952209    4.2952209    4.2952209   -8888.2964    7305.9236   -42090.517    8119.7044    19256.164    6173.4765   -34049.176    79.242199 
   49500    1879.1856   -118.04766    1.7003266   -116.34733   -19239.023    4.2987164    4.2987164    4.2987164   -19239.023   -4289.6943   -43413.764   -10013.611   -9785.6913     479.5409   -8934.0298     79.43582 
   49600    1703.8823   -117.89043    1.5417086   -116.34872   -12469.612    4.3084522    4.3084522    4.3084522   -12469.612    16608.023    -36976.43   -17040.427    32432.496     2523.143    14384.248    79.976763 
   49700    1433.9451   -117.62993    1.2974637   -116.33246   -18960.746    4.3122494    4.3122494    4.3122494   -18960.746    35862.585     -39788.3   -52956.521    7242.5336   -32055.549   -7496.5061    80.188414 
   49800    2545.6558   -118.61893    2.3033629   -116.31557   -26768.559     4.310139     4.310139     4.310139   -26768.559    9112.1427   -11269.005   -78148.815   -15460.532    12805.195   -8815.2467    80.070737 
   49900    2477.4674    -118.5621    2.2416646   -116.32043   -40773.259    4.3156507    4.3156507    4.3156507   -40773.259   -33975.002    -34598.92   -53745.856    10572.887   -6203.7952   -13594.513    80.378306 
   50000      1610.66   -117.78489     1.457359   -116.32753   -10642.601     4.290753     4.290753     4.290753   -10642.601    16364.782    -12842.47   -35450.114    14914.182   -37732.201   -17496.166    78.995169 
   50100    930.53857   -117.16341   0.84197085   -116.32144    74515.494     4.270419     4.270419     4.270419    74515.494    60829.237    93522.194     69195.05   -2183.1434   -30781.769   -2194.4041    77.877403 
   50200     1992.664   -118.16065    1.8030043   -116.35765   -22092.697    4.3082428    4.3082428    4.3082428   -22092.697   -82862.898    -16647.11    33231.918    354.66222    915.15341    16542.162    79.965107 
   50300    1706.9458   -117.87577    1.5444804   -116.33129    16435.235    4.3193949    4.3193949    4.3193949    16435.235    2030.7218    16439.042    30835.942   -4786.1869    6101.1651   -41655.605    80.587694 
   50400    2181.1537   -118.27358    1.9735537   -116.30002    39701.875    4.3099674    4.3099674    4.3099674    39701.875    20672.322    72268.425    26164.879   -8660.4184    4757.3657   -8318.0666    80.061174 
   50500    2671.2431   -118.71126    2.4169969   -116.29426    4409.7552    4.2921695    4.2921695    4.2921695    4409.7552   -4642.0707   -33878.948    51750.284    470.67623    11210.743    27269.196    79.073433 
   50600    1672.6124   -117.81681    1.5134148   -116.30339    53842.994    4.2637687    4.2637687    4.2637687    53842.994    51836.207    74855.501    34837.274    9726.8195   -1419.5057   -47874.738    77.514138 
   50700    1250.3601   -117.49766    1.1313521   -116.36631    16951.644    4.2882721    4.2882721    4.2882721    16951.644    30539.561    37912.412   -17597.041     4747.169   -27700.321   -1445.7114    78.858226 
   50800    2359.8883   -118.46946    2.1352765   -116.33418   -20113.922    4.3129785    4.3129785    4.3129785   -20113.922   -23565.601   -40258.802     3482.636   -2516.0968   -27141.178    10268.152    80.229094 
   50900    1933.0723   -118.07483    1.7490845   -116.32575    10340.619    4.3122432    4.3122432    4.3122432    10340.619     51952.94    33305.644   -54236.727   -617.13407   -8810.4327   -17239.816    80.188063 
   51000    2167.6716   -118.27321    1.9613548   -116.31186   -32212.463    4.3138019    4.3138019    4.3138019   -32212.463   -21685.172   -24494.468   -50457.748   -597.42759   -22976.832   -21842.901    80.275053 
   51100    1774.6378   -117.91344    1.6057296   -116.30771    30011.653    4.3052154    4.3052154    4.3052154    30011.653    11072.398    24453.046    54509.516     2318.362    8328.3309    14184.361    79.796648 
   51200    1931.4458   -118.07575    1.7476127   -116.32813   -14803.266    4.3099893    4.3099893    4.3099893   -14803.266   -47758.702   -19056.515    22405.417    4444.2001    9223.6202    18051.278    80.062393 
   51300    1993.9114   -118.12096     1.804133   -116.31683    784.18359    4.3026902    4.3026902    4.3026902    784.18359   -55403.165    13199.641    44556.075   -3720.1283    3172.5829   -1039.8931    79.656321 
   51400    2484.1272   -118.56632    2.2476905   -116.31863     18500.06    4.2855072    4.2855072    4.2855072     18500.06    45028.798    1880.1651    8591.2187    3120.9635   -21641.397    8351.2379     78.70579 
   51500    1908.6706   -118.09507    1.7270053   -116.36807   -30832.124     4.304481     4.304481     4.304481   -30832.124    2879.1917   -14706.635   -80668.929    19226.621    11390.091    26584.521     79.75582 
   51600    1898.8979   -118.06186    1.7181628   -116.34369    8963.4731    4.3047126    4.3047126    4.3047126    8963.4731   -13447.514    21511.678    18826.256   -2006.1045    23526.858   -2312.0985    79.768696 
   51700    1528.3471   -117.71778    1.3828806    -116.3349    46959.157    4.3069152    4.3069152    4.3069152    46959.157    70371.198   -12200.901    82707.174     1325.743    31930.024   -16857.963    79.891204 
   51800    1283.4123   -117.50078    1.1612584   -116.33952   -13930.632    4.3260616    4.3260616    4.3260616   -13930.632   -32022.379   -37844.744    28075.227    36446.436    24001.593   -1348.5819    80.961419 
   51900    2511.1783   -118.59354    2.2721669   -116.32137   -30416.949    4.3129679    4.3129679    4.3129679   -30416.949   -2599.2208   -62870.865   -25780.761    749.97372   -25289.991   -6574.4675    80.228499 
   52000    1988.4128   -118.12705    1.7991577   -116.32789   -2396.8485    4.3030775    4.3030775    4.3030775   -2396.8485    21478.935   -10885.937   -17783.543    -12170.28    7046.9583   -12725.107    79.677832 
   52100    2318.9256   -118.44029    2.0982127   -116.34208   -32510.171    4.3078562    4.3078562    4.3078562   -32510.171   -45510.712     3753.667   -55773.469    10195.268    19746.211    32141.721    79.943581 
   52200    1556.4493   -117.76398     1.408308   -116.35567    36368.317    4.3149356    4.3149356    4.3149356    36368.317    21769.282    48714.014    38621.655    21622.053   -36262.436    12652.993    80.338357 
   52300     1635.774   -117.83572    1.4800827   -116.35564   -40941.079    4.3332199    4.3332199    4.3332199   -40941.079     -85426.9    20642.531   -58038.867   -11245.837    10511.219    5646.1854    81.363978 
   52400    1274.4312   -117.47168    1.1531322   -116.31855   -26205.761    4.3201416    4.3201416    4.3201416   -26205.761   -57424.649    -13321.97   -7870.6634    -19866.72    1950.8812    2117.3831    80.629495 
   52500    2074.0506   -118.16097    1.8766446   -116.28432    32262.487    4.2798145    4.2798145    4.2798145    32262.487   -1799.6195    10345.064    88242.015    27096.128   -32072.158   -24122.292    78.392556 
   52600    2822.6082   -118.88727    2.5539552   -116.33331    8177.3303    4.2808477    4.2808477    4.2808477    8177.3303    19403.202    19091.477   -13962.689    7001.1493   -7570.5454   -14895.922    78.449349 
   52700    1581.3749   -117.81809    1.4308613   -116.38723    4917.9118    4.3221248    4.3221248    4.3221248    4917.9118   -23258.615    29602.809    8409.5413    1860.2061    24419.864    12389.251    80.740586 
   52800    1930.9105   -118.07841    1.7471284   -116.33128   -15904.033    4.3300256    4.3300256    4.3300256   -15904.033   -52815.612   -23262.621    28366.135    9937.5839    26877.961   -13269.318    81.184175 
   52900    1590.2197   -117.74849    1.4388642   -116.30962    15276.505    4.3021991    4.3021991    4.3021991    15276.505   -37829.034    75430.166    8228.3849    3339.0448    12006.173   -1586.5701    79.629046 
   53000     1765.097   -117.90915    1.5970969   -116.31205    13835.149    4.2756321    4.2756321    4.2756321    13835.149   -33365.867      50745.2    24126.114   -5707.2077    10781.928    36466.387    78.162959 
   53100    1489.8524   -117.69791    1.3480497   -116.34986    58537.911    4.2694483    4.2694483    4.2694483    58537.911   -6194.8931     54915.17    126893.46    13213.397   -10657.278    24725.583     77.82431 
   53200    2229.0451   -118.42161    2.0168868   -116.40472    17829.017    4.2990678    4.2990678    4.2990678    17829.017   -43336.779    81317.778    15506.053    2327.9342    6110.4226    695.22175    79.455303 
   53300    2334.2449   -118.48231    2.1120739   -116.37023    -17826.14    4.3175081    4.3175081    4.3175081    -17826.14   -53550.705   -35354.367    35426.652   -19535.651    6744.6446   -23307.947    80.482133 
   53400    1852.7831   -118.01889    1.6764371   -116.34245   -17145.241    4.2987311    4.2987311    4.2987311   -17145.241    -43801.01   -5618.5417   -2016.1714    3985.7755    313.82775    19684.817    79.436637 
   53500    1784.6204   -117.95138    1.6147621   -116.33662   -35928.604    4.2849862    4.2849862    4.2849862   -35928.604   -105303.25    20440.413    -22922.97    13134.231    3100.2927   -2136.7066    78.677088 
   53600    1729.3021   -117.93145    1.5647088   -116.36674   -4725.3708    4.2960974    4.2960974    4.2960974   -4725.3708   -90579.487   -3986.8284    80390.203   -10918.876    10982.797   -5791.0787    79.290717 
   53700    2009.8257   -118.19179    1.8185326   -116.37326    2222.4282    4.3139772    4.3139772    4.3139772    2222.4282   -66727.605    61759.098    11635.791   -6906.2489    1108.8579   -3247.2471    80.284839 
   53800    1669.0473    -117.8674    1.5101891   -116.35721    28978.076    4.3131963    4.3131963    4.3131963    28978.076   -11723.804    58377.004    40281.029   -5036.2977    -2371.276    13906.516    80.241246 
   53900    2779.7778   -118.84755    2.5152014   -116.33235   -3262.4966     4.297824     4.297824     4.297824   -3262.4966   -26787.941   -27976.316    44976.767   -1440.3984    7122.6344   -10325.659     79.38636 
   54000     2141.929   -118.29342    1.9380624   -116.35536    2118.0243    4.2836919    4.2836919    4.2836919    2118.0243   -42729.009      77945.9   -28862.818   -6675.2817   -9086.2352    12099.062    78.605818 
   54100    1730.5071     -117.937    1.5657992    -116.3712   -6806.2876    4.2864807    4.2864807    4.2864807   -6806.2876   -48560.311    34743.883    -6602.435    21614.057    8456.7312    15862.584     78.75944 
   54200    1464.0152   -117.70989    1.3246717   -116.38522   -12677.868    4.3088065    4.3088065    4.3088065   -12677.868   -55342.163    13652.709    3655.8501    9560.8252    2339.9883    31565.391    79.996499 
   54300    1640.3706    -117.8463    1.4842418   -116.36205   -26190.589    4.3183008    4.3183008    4.3183008   -26190.589   -82570.219    31188.343   -27189.891   -6085.7897   -2443.5127    17945.181    80.526471 
   54400    2186.8014    -118.3147    1.9786639   -116.33603   -850.23191     4.294512     4.294512     4.294512   -850.23191    -53914.11    7917.5849    43445.829    21595.966    4682.0411   -1908.7048    79.202969 
   54500    2040.7647    -118.1994    1.8465268   -116.35288    15017.452    4.2760274    4.2760274    4.2760274    15017.452   -1076.9322    9731.2156    36398.073   -10749.772   -7141.2903    4196.2702    78.184638 
   54600    2184.6565   -118.35682    1.9767231    -116.3801    18208.991    4.2792361    4.2792361    4.2792361    18208.991   -34567.609   -7146.7843    96341.365   -26695.429   -14313.843    6471.2974    78.360778 
   54700    2255.4861   -118.44008    2.0408112   -116.39927   -47032.541    4.3053549    4.3053549    4.3053549   -47032.541   -80929.921   -50016.604   -10151.097    1123.0903   -16994.546    -14342.07    79.804408 
   54800    1114.2337   -117.39293    1.0081821   -116.38475   -41624.634    4.3182862    4.3182862    4.3182862   -41624.634   -104762.75   -25920.724    5809.5694   -9131.8424    14713.246   -34139.078    80.525654 
   54900    2027.8435   -118.17552    1.8348355   -116.34068   -242.61176    4.2920015    4.2920015    4.2920015   -242.61176   -80665.053   -6741.1119     86678.33   -17941.307    14051.414    20433.753    79.064146 
   55000    1844.7776   -118.03825    1.6691935   -116.36906    4180.1915    4.2913255    4.2913255    4.2913255    4180.1915   -36219.063   -25707.866    74467.503   -886.34993    4135.9607    13108.011    79.026795 
   55100    2114.8053   -118.29527    1.9135203   -116.38175   -648.00519    4.2967285    4.2967285    4.2967285   -648.00519   -21441.398    -22173.29    41670.673     10855.84   -11915.748   -57880.882    79.325669 
   55200    2332.2883   -118.50252    2.1103035   -116.39221   -28743.875    4.2914997    4.2914997    4.2914997   -28743.875    3454.4117   -40957.989   -48728.047     1813.427    5628.4701   -28110.802    79.036418 
   55300    1799.1292    -118.0143      1.62789   -116.38641   -4898.3112    4.2838036    4.2838036    4.2838036   -4898.3112   -84927.294    39668.463    30563.897    14790.097    19771.287    14892.357    78.611968 
   55400    1092.6004   -117.38254   0.98860784   -116.39394    41999.998    4.2888866    4.2888866    4.2888866    41999.998    -35995.61    84430.328    77565.277    3183.3879    9205.7439    30939.954    78.892129 
   55500    2454.2402   -118.59157    2.2206481   -116.37092   -9667.8914    4.3033639    4.3033639    4.3033639   -9667.8914   -35469.396   -68.712322     6534.434    -9530.703    13688.023   -20971.698    79.693741 
   55600    2540.9883   -118.65911    2.2991396   -116.35997    17680.427    4.2950549    4.2950549    4.2950549    17680.427   -12145.181   -13462.663    78649.124   -7475.7115   -5779.6455    3376.0394    79.233009 
   55700    1775.7512   -117.96881     1.606737   -116.36207    3254.0395    4.2878783    4.2878783    4.2878783    3254.0395   -19578.904    55666.672   -26325.649    7698.8631   -18333.641    21621.286    78.836504 
   55800    1470.7926   -117.69932    1.3308041   -116.36852   -21278.753    4.2898051    4.2898051    4.2898051   -21278.753   -69803.805     26791.42   -20823.874     3942.991   -971.04146    16587.863    78.942828 
   55900    1665.0231   -117.87562    1.5065479   -116.36907    15648.706    4.2950084    4.2950084    4.2950084    15648.706   -74827.111    10024.119    111749.11   -2985.2709    8978.0705   -33075.906    79.230439 
   56000    2053.7857   -118.22709    1.8583085   -116.36878   -29447.756    4.3160951    4.3160951    4.3160951   -29447.756   -92830.358   -7195.1979    11682.289    17462.091     1635.339    30128.005    80.403142 
   56100    2299.4677    -118.4289    2.0806067    -116.3483   -6545.0292     4.309894     4.309894     4.309894   -6545.0292   -35240.173   -34212.961    49818.046    7024.7202     5740.785    13857.401    80.057082 
   56200    2165.3933   -118.29158    1.9592934   -116.33228     32335.39     4.281462     4.281462     4.281462     32335.39   -25407.311   -156.06399    122569.54   -20355.741    20430.019   -26903.199    78.483126 
   56300    1099.6207   -117.36253   0.99495989   -116.36757   -5891.3087    4.2738921    4.2738921    4.2738921   -5891.3087   -75277.601    -11723.29    69326.965    2312.5659   -12617.698     26309.36     78.06757 
   56400     1362.661   -117.65274    1.2329643   -116.41978     30743.55    4.2898703    4.2898703    4.2898703     30743.55    -75695.61    73954.445    93971.816    5262.4653    774.94499   -8628.0132    78.946429 
   56500    2178.1156   -118.37529    1.9708048   -116.40449   -42540.884    4.3228195    4.3228195    4.3228195   -42540.884   -112522.98   -22180.014    7080.3404    -6626.258    7295.2121    26243.253    80.779526 
   56600    2088.0104     -118.254    1.8892756   -116.36473   -5602.1468    4.3031463    4.3031463    4.3031463   -5602.1468   -78653.254    20962.117    40884.697     13827.15    11218.748    6977.1488    79.681655 
   56700    1983.0987   -118.12953    1.7943493   -116.33519    26280.881    4.2708856    4.2708856    4.2708856    26280.881   -11737.208    69659.702     20920.15    6351.4775    2021.3566   -670.04286    77.902935 
   56800    2001.3708   -118.19704    1.8108824   -116.38616     -19723.8    4.2844353    4.2844353    4.2844353     -19723.8   -82156.552    18907.094    4078.0577   -438.66811    -21110.97   -1553.9867     78.64675 
   56900    1955.1145   -118.15053    1.7690287   -116.38151   -8753.5264    4.3057303    4.3057303    4.3057303   -8753.5264    -63189.51     16629.62     20299.31    7809.2809    -10670.93   -19548.028    79.825285 
   57000    1547.3578    -117.7613    1.4000818   -116.36122    3442.0076    4.3186698    4.3186698    4.3186698    3442.0076   -99327.604    20940.225    88713.401     12573.54   -6566.1757   -6638.2354    80.547117 
   57100    1963.1605   -118.11589    1.7763088   -116.33958   -27245.465    4.3100725    4.3100725    4.3100725   -27245.465   -57014.672    6108.5476   -30830.272    2862.6263    -9941.162    28262.792    80.067034 
   57200    1398.9031   -117.59184     1.265757   -116.32608    46962.528    4.2826144    4.2826144    4.2826144    46962.528   -57162.546    50295.938    147754.19    -10295.19   -3284.1312    6484.2847    78.546516 
   57300    2812.4918   -118.90382    2.5448017   -116.35902   -8993.2451    4.2909768    4.2909768    4.2909768   -8993.2451   -34317.174    2788.3244    4549.1147    3545.7938   -4232.1673    2841.1943    79.007533 
   57400    2218.1543   -118.37497    2.0070327   -116.36794    7820.4259    4.3046722    4.3046722    4.3046722    7820.4259   -42353.279    69412.577   -3598.0207   -6835.5742    -23002.39     1886.478    79.766451 
   57500    2111.0589   -118.27229    1.9101304   -116.36216   -23417.161    4.3052506    4.3052506    4.3052506   -23417.161   -36012.369    15640.527   -49879.642    3494.2726    4925.9237    43192.687    79.798608 
   57600    1651.4216    -117.8378     1.494241   -116.34356   -16205.138    4.3006939    4.3006939    4.3006939   -16205.138   -80783.158     60966.19   -28798.445    16910.384    6975.2861    18947.712    79.545498 
   57700     1824.102   -117.98534    1.6504858   -116.33485    13477.848    4.2911017    4.2911017    4.2911017    13477.848   -27055.802    14853.639    52635.708    28453.565    14647.475   -17533.865    79.014433 
   57800    2318.2687   -118.45558    2.0976183   -116.35796   -7707.7945    4.2892878    4.2892878    4.2892878   -7707.7945    6795.5471   -7275.0202    -22643.91   -6438.9222      32809.4    28532.446    78.914274 
   57900    1773.9514   -117.97698    1.6051085   -116.37188    20053.483    4.2864455    4.2864455    4.2864455    20053.483    25489.354   -51624.789    86295.884    2373.7156     16415.51    6392.4402    78.757498 
   58000    1484.0973   -117.74472    1.3428425   -116.40188    640.93684    4.3064489    4.3064489    4.3064489    640.93684   -38654.218    53186.667   -12609.639    16415.074   -25038.249    10594.599    79.865257 
   58100    1570.6524   -117.78408    1.4211593   -116.36293   -20254.383    4.3268735    4.3268735    4.3268735   -20254.383   -84342.373   -2852.2568    26431.481   -21582.383    141.78644   -48335.552     81.00701 
   58200    1300.5719    -117.5157    1.1767848   -116.33891   -4556.7992    4.3207833    4.3207833    4.3207833   -4556.7992   -47100.892     40404.72   -6974.2263   -7159.2461   -3300.5325     739.4262    80.665432 
   58300    2550.8671   -118.61397    2.3080782   -116.30589   -39130.445    4.3046313    4.3046313    4.3046313   -39130.445   -54183.753   -10339.376   -52868.207   -13400.034   -20020.611     41930.19    79.764174 
   58400    2121.7072   -118.24121    1.9197653   -116.32145    22188.143    4.2983592    4.2983592    4.2983592    22188.143   -11681.185    65824.401    12421.212    2695.7375    28331.551    882.40041     79.41602 
   58500      2678.75   -118.75792    2.4237893   -116.33413    569.21664    4.3059527    4.3059527    4.3059527    569.21664   -17577.491    21375.546    -2090.406   -3721.6334    10612.093     4711.695    79.837656 
   58600      2435.79   -118.54166     2.203954   -116.33771   -38413.434    4.3081401    4.3081401    4.3081401   -38413.434   -52671.184   -21605.809   -40963.308     13271.53    1455.9788     6850.406    79.959385 
   58700    1110.2148    -117.3548    1.0045457   -116.35025   -19166.026    4.3014258    4.3014258    4.3014258   -19166.026   -73175.178   -16861.469     32538.57    8461.9856    15085.292    19516.893    79.586115 
   58800    1830.7537   -118.01514    1.6565044   -116.35864    7199.2761    4.2876272    4.2876272    4.2876272    7199.2761   -34456.927     41911.94    14142.815   -13421.196    16553.778    21335.337    78.822655 
   58900     2317.926   -118.48112    2.0973082   -116.38381    6181.9574    4.2943009    4.2943009    4.2943009    6181.9574   -61416.763    56663.698    23298.937    4894.3874   -1512.0254   -17657.844    79.191292 
   59000    2011.9304   -118.19877    1.8204369   -116.37833    2156.5454    4.3045808    4.3045808    4.3045808    2156.5454    18095.344    28960.518   -40586.226    14205.817    4315.9609   -2623.7097    79.761369 
   59100    1983.0011   -118.14076     1.794261   -116.34649    14617.832    4.3050092    4.3050092    4.3050092    14617.832   -46213.519    105003.65   -14936.635    20506.575   -2899.8759    15032.155    79.785186 
   59200    2479.9927   -118.58985    2.2439495    -116.3459    -28682.01    4.3142261    4.3142261    4.3142261    -28682.01   -36580.144   -24317.193   -25148.692    10365.796   -24253.212    14350.006    80.298733 
   59300    1614.2986   -117.79668    1.4606513   -116.33603    -18626.11    4.3092699    4.3092699    4.3092699    -18626.11   -29281.173   -6964.0056   -19633.151   -9202.6162    5175.8654   -43379.762     80.02231 
   59400    2111.3911   -118.23705     1.910431   -116.32662   -31965.215    4.2938274    4.2938274    4.2938274   -31965.215    -56011.79   -10350.291   -29533.563   -18156.987     4407.128   -31640.341    79.165096 
   59500    1350.2721   -117.58195    1.2217545   -116.36019    3894.4089    4.2953799    4.2953799    4.2953799    3894.4089   -66208.343     34346.07      43545.5    33991.641   -21514.591    7115.5368    79.251001 
   59600    2335.2384   -118.45722    2.1129728   -116.34425    13217.291    4.2922347    4.2922347    4.2922347    13217.291    42524.757   -23557.462    20684.577   -1907.2737   -9738.4227   -14555.509    79.077035 
   59700    2093.9291   -118.24305    1.8946311   -116.34842    38031.349    4.2960521    4.2960521    4.2960521    38031.349    29252.132    79653.722     5188.194   -20301.328    11360.195   -34748.192    79.288209 
   59800    2136.1262    -118.2699    1.9328118   -116.33709    -17580.88    4.3145948    4.3145948    4.3145948    -17580.88   -5260.4122   -16544.228   -30937.999    17242.736   -1321.9648    6022.7587    80.319323 
   59900    2063.6047   -118.17874    1.8671929   -116.31155    2456.2257     4.297642     4.297642     4.297642    2456.2257   -8995.0442     17731.86   -1368.1391   -18398.967    3401.3738    28631.318    79.376275 
   60000    1227.6361    -117.4525    1.1107909   -116.34171    27022.748    4.2904927    4.2904927    4.2904927    27022.748    66859.348    5174.6778    9034.2181   -1094.1559     16794.33   -15760.112    78.980792 
   60100    1979.5257   -118.14053    1.7911164   -116.34942   -47997.968    4.3065403    4.3065403    4.3065403   -47997.968   -17713.933   -61307.391   -64972.579    4787.1438    26345.094   -44877.115    79.870342 
   60200     2784.046   -118.85082    2.5190633   -116.33175     1497.039    4.2956023    4.2956023    4.2956023     1497.039    24748.354   -4398.7718   -15858.465   -6820.2156    10565.968     1455.599    79.263309 
   60300    2067.6852   -118.24355     1.870885   -116.37267   -38654.134    4.3015874    4.3015874    4.3015874   -38654.134   -21619.414   -97285.927    2942.9382   -2623.5875    11829.609   -14563.377    79.595083 
   60400    1482.9581   -117.70915    1.3418116   -116.36733   -15216.408    4.3007578    4.3007578    4.3007578   -15216.408   -24046.723   -24637.961    3035.4609   -27684.009   -1828.8548    -31055.87    79.549045 
   60500    2169.7771   -118.30144    1.9632599   -116.33818   -6482.4545    4.3043929    4.3043929    4.3043929   -6482.4545   -33837.969   -5229.3987    19620.004    2329.5848   -1507.6997    -1730.757    79.750922 
   60600    1640.6959   -117.81256    1.4845361   -116.32803    3881.9389    4.3025459    4.3025459    4.3025459    3881.9389   -11864.749   -5244.1105    28754.676   -3134.4488   -6027.6246    18425.266    79.648302 
   60700    1652.4544   -117.81388    1.4951754    -116.3187    52515.953    4.2893046    4.2893046    4.2893046    52515.953    74790.077   -2458.2944    85216.075   -12188.753     11444.27   -27075.118    78.915199 
   60800    2019.2755   -118.16776    1.8270829   -116.34068        50625    4.3015152    4.3015152    4.3015152        50625    95818.386   -21945.555    78002.168   -7744.3367   -8490.6465     4705.257    79.591079 
   60900    2674.7883   -118.74226    2.4202046   -116.32205   -17386.258     4.305504     4.305504     4.305504   -17386.258    -21328.79   -17008.708   -13821.278   -11478.414   -17038.393    41375.004    79.812696 
   61000    2107.3057   -118.21615    1.9067345   -116.30942    42560.782    4.2807011    4.2807011    4.2807011    42560.782    29387.429     7559.306    90735.612   -5010.8117    24526.786   -12783.489    78.441289 
   61100    1131.8894   -117.39127    1.0241573   -116.36711    16802.706    4.2899311    4.2899311    4.2899311    16802.706    68143.333    9438.5809   -27173.796     6451.973   -21919.509    89.168605    78.949787 
   61200    1571.2786   -117.78767    1.4217259   -116.36594   -56165.492    4.3076691    4.3076691    4.3076691   -56165.492   -22124.112   -67437.814   -78934.549   -5718.9409     7109.594     47117.94    79.933167 
   61300    2355.4068   -118.48323    2.1312216   -116.35201    16146.762    4.3001041    4.3001041    4.3001041    16146.762   -6372.8503   -10068.691    64881.828     1537.071    10751.228   -13718.359    79.512773 
   61400    2791.9078   -118.87318    2.5261768     -116.347    10295.924    4.2970865    4.2970865    4.2970865    10295.924    37948.019   -4334.4069   -2725.8403    25958.598    -9613.576    1001.1954    79.345495 
   61500    2009.1516   -118.17216    1.8179226   -116.35424   -22208.428    4.2958136    4.2958136    4.2958136   -22208.428   -743.25447   -60469.553   -5412.4759    6254.7986    5826.9896    36385.538    79.275004 
   61600    1419.1694   -117.63774    1.2840943   -116.35364   -9011.4373    4.3029376    4.3029376    4.3029376   -9011.4373   -50705.289   -34182.283    57853.261   -9521.9617    12034.099    27616.113    79.670062 
   61700    1592.6755    -117.7829    1.4410863   -116.34181    -13863.01    4.3118791    4.3118791    4.3118791    -13863.01   -42633.231   -740.46979    1784.6709    1604.8704   -5855.0328   -23822.479    80.167754 
   61800    1445.3874   -117.63183    1.3078169   -116.32401    28252.352    4.3188747    4.3188747    4.3188747    28252.352     27236.58    7441.4409    50079.034    9501.5319    1087.2545   -13706.955    80.558584 
   61900    2478.0979   -118.54601     2.242235   -116.30378   -29632.573    4.3228973    4.3228973    4.3228973   -29632.573   -50123.541   -66602.855    27828.677   -15769.296   -7212.7015    38862.723    80.783891 
   62000    1876.2539   -117.99936     1.697674   -116.30169    7938.0896    4.3146678    4.3146678    4.3146678    7938.0896    38613.466   -23777.592    8978.3954   -14503.088    2687.3528    6072.4076    80.323404 
   62100    2575.0772   -118.62059     2.329984    -116.2906   -6393.1828    4.3006821    4.3006821    4.3006821   -6393.1828    16747.329   -29647.172   -6279.7053    20385.241    9807.2595    -10330.15    79.544842 
   62200    2052.7224   -118.17446    1.8573464   -116.31711   -19165.578    4.2968044    4.2968044    4.2968044   -19165.578   -17988.421   -21389.807   -18118.507    1728.5043     10220.41     26643.61    79.329874 
   62300    1367.6133   -117.58783    1.2374453   -116.35039   -29765.574    4.3017523    4.3017523    4.3017523   -29765.574   -31602.899    -32762.04   -24931.784   -11437.411     18945.41    11150.123    79.604242 
   62400    2006.8819   -118.16162     1.815869   -116.34575     14902.65    4.2926312    4.2926312    4.2926312     14902.65    38033.178   -49685.842    56360.615    20108.904    1768.7325   -28426.625    79.098952 
   62500    2295.0923   -118.45311    2.0766477   -116.37646   -6732.2763    4.3108657    4.3108657    4.3108657   -6732.2763   -25186.097   -33876.367    38865.635   -6677.6284   -7047.6525   -12574.903    80.111246 
   62600    2178.4207    -118.3252    1.9710809   -116.35412   -42534.746    4.3046882    4.3046882    4.3046882   -42534.746   -58707.269   -95378.347    26481.379   -36667.855     -12795.9    8071.3738    79.767338 
   62700    1572.3265    -117.7384    1.4226741   -116.31572    54328.813    4.2651196    4.2651196    4.2651196    54328.813    26713.867    75453.702     60818.87    4321.1048   -661.40861    -31040.23    77.587838 
   62800    1354.8766   -117.62411    1.2259208   -116.39819    910.99245    4.2913887    4.2913887    4.2913887    910.99245   -36614.527    50655.376   -11307.872      10996.6    10973.021   -30765.619    79.030289 
   62900    1775.1901   -117.96455    1.6062293   -116.35832    -21631.03    4.3269163    4.3269163    4.3269163    -21631.03   -69878.363    31843.808   -26858.534   -26484.057    14316.526     13619.99    81.009412 
   63000    2650.8424   -118.70023    2.3985379   -116.30169   -40340.141    4.3339742    4.3339742    4.3339742   -40340.141   -24685.287   -39408.765   -56926.371     22636.42    23572.455   -18188.575    81.406479 
   63100    2085.0188   -118.16914    1.8865688   -116.28257   -56344.219    4.3225536    4.3225536    4.3225536   -56344.219   -50137.528   -67282.539   -51612.591   -11754.421   -507.56736   -20378.278    80.764619 
   63200    2034.9201   -118.10449    1.8412385   -116.26325    3009.4584    4.2852707    4.2852707    4.2852707    3009.4584    14138.023   -11582.219    6472.5713   -28326.638   -10306.788    29803.404    78.692761 
   63300    1872.0635   -118.00017    1.6938824   -116.30628     -10209.2    4.2855294    4.2855294    4.2855294     -10209.2    27571.341   -49309.794   -8889.1467    8300.4256    6890.2952   -12129.255    78.707011 
   63400    1319.7201   -117.53452    1.1941105   -116.34041   -17443.214    4.3144916    4.3144916    4.3144916   -17443.214   -22554.343   -62723.054    32947.755   -6681.9066    12374.205    -33309.05    80.313564 
   63500    2189.3096   -118.29055    1.9809333   -116.30962   -25261.011    4.3249604    4.3249604    4.3249604   -25261.011   -56598.275   -32226.189     13041.43   -32915.793    -1491.064    7794.6275    80.899603 
   63600    2007.4624   -118.10745    1.8163942   -116.29106   -43627.023    4.3144336    4.3144336    4.3144336   -43627.023    7808.3083   -58481.957   -80207.421   -8877.8031   -20546.374    33090.502     80.31032 
   63700    1952.8224   -118.05425    1.7669548   -116.28729   -9698.2602    4.2776212    4.2776212    4.2776212   -9698.2602    52597.787   -28579.303   -53113.265     9956.739    6226.0837   -36801.346    78.272098 
   63800    1991.1334    -118.1206    1.8016193   -116.31898    15594.969    4.2741707    4.2741707    4.2741707    15594.969    11886.955    55546.247   -20648.294   -6107.5797    -3776.186   -39714.142    78.082835 
   63900     1834.133   -118.00826    1.6595621    -116.3487   -10547.284    4.3074817    4.3074817    4.3074817   -10547.284     31910.37    -43171.11   -20381.112    16083.703   -27633.728    13536.921    79.922733 
   64000    1654.5945   -117.82993    1.4971118   -116.33282    5590.6071    4.3129798    4.3129798    4.3129798    5590.6071    14748.586    20925.896   -18902.661    -3027.901    4098.1104   -21882.729    80.229167 
   64100    2307.1549   -118.39947    2.0875623    -116.3119    708.92806    4.3108369    4.3108369    4.3108369    708.92806    7876.2231    46600.021    -52349.46   -5094.1876   -6365.6039    -13253.05    80.109637 
   64200    2261.1469   -118.35347    2.0459332   -116.30754    24854.816    4.3049802    4.3049802    4.3049802    24854.816    32970.065   -21029.207    62623.591    16949.149    5539.4265    23517.011    79.783572 
   64300    1171.2221   -117.37783    1.0597464   -116.31808    54038.439    4.3029911    4.3029911    4.3029911    54038.439    92084.215    66973.482    3057.6194   -15552.065   -18535.353    6595.5071    79.673029 
   64400    2174.1195   -118.27833     1.967189   -116.31114   -19320.037    4.3219987    4.3219987    4.3219987   -19320.037    13984.421   -5627.3855   -66317.147    5686.7562     15929.78   -5096.8918     80.73352 
   64500    1722.0755   -117.84388    1.5581701   -116.28571   -23668.316     4.326174     4.326174     4.326174   -23668.316   -10801.516   -32072.508   -28130.923   -15024.547    14278.263    14968.721    80.967727 
   64600    1891.9264   -117.97774    1.7118548   -116.26589      19603.1    4.3040006    4.3040006    4.3040006      19603.1   -20771.951    52425.503    27155.748   -7775.0314   -16363.961   -24435.054     79.72912 
   64700    2687.3396   -118.71928    2.4315613   -116.28772     7594.593     4.299438     4.299438     4.299438     7594.593   -15610.886    55832.753   -17438.089   -3635.8892    7589.8108   -11126.109    79.475827 
   64800    1596.5801   -117.75812    1.4446193    -116.3135    33799.984    4.3004573    4.3004573    4.3004573    33799.984    48816.296    6201.5898    46382.067   -41358.696     1706.978    8906.0691    79.532367 
   64900    1983.6339   -118.12159    1.7948337   -116.32675   -4634.0945    4.3052194    4.3052194    4.3052194   -4634.0945    1297.3638   -168.73248   -15030.915   -1221.5172   -4633.2157   -7643.0099    79.796872 
   65000    1724.6439   -117.88499    1.5604941   -116.32449   -33472.914    4.3174437    4.3174437    4.3174437   -33472.914    16742.619   -49998.529    -67162.83    20585.611   -27976.354   -12704.101    80.478531 
   65100    1516.1852    -117.6867    1.3718762   -116.31482   -16816.913    4.2984857    4.2984857    4.2984857   -16816.913   -8199.1101   -60421.418     18169.79   -40690.638   -13110.774    36411.062     79.42303 
   65200    2248.5285    -118.3455    2.0345158   -116.31099   -15434.521    4.2920204    4.2920204    4.2920204   -15434.521   -32589.164   -15151.311    1436.9115   -15894.755    10857.216    12490.465    79.065194 
   65300    2289.8254   -118.40584    2.0718821   -116.33396   -30967.059     4.320504     4.320504     4.320504   -30967.059   -15474.172   -66085.331   -11341.675    19633.054     15380.34   -2825.7994     80.64979 
   65400    1550.2479   -117.72407    1.4026969   -116.32137   -37108.876    4.3237243    4.3237243    4.3237243   -37108.876   -51193.797   -65507.832    5375.0024   -38896.681    22626.336    25794.935    80.830262 
   65500     2132.812   -118.21742    1.9298132    -116.2876   -21448.113    4.2971219    4.2971219    4.2971219   -21448.113    5759.1552   -26182.513   -43920.982   -4163.8075     11065.11    192.15083    79.347456 
   65600    1733.1893   -117.87282    1.5682261   -116.30459    49774.671    4.2849901    4.2849901    4.2849901    49774.671    121541.88    18957.491    8824.6382   -6226.3421    16524.846    18058.767    78.677305 
   65700    1651.8956   -117.86439    1.4946699   -116.36972   -16196.805    4.3114706    4.3114706    4.3114706   -16196.805    54583.189   -50289.803     -52883.8   -3561.6421    7547.8118    26319.907    80.144971 
   65800     2004.781    -118.1543     1.813968   -116.34033   -31885.957    4.3324898    4.3324898    4.3324898   -31885.957    1175.6295   -34209.113   -62624.389     1007.556   -16498.747    3567.3559    81.322858 
   65900    1490.5238   -117.66473    1.3486573   -116.31607   -5056.6715    4.3242712    4.3242712    4.3242712   -5056.6715    44253.045   -58888.224   -534.83617   -5152.0212    7284.4545    5223.4755    80.860936 
   66000    1441.5135   -117.59199    1.3043117   -116.28768   -6141.8272     4.312866     4.312866     4.312866   -6141.8272    70474.335   -98673.261     9773.445     6340.322    16566.131    18159.052    80.222816 
   66100     2006.043   -118.09089    1.8151098   -116.27578    20783.801    4.2966046    4.2966046    4.2966046    20783.801     84898.36   -35486.829    12939.873    5399.4752    4459.3625    9990.5571    79.318804 
   66200     1319.927   -117.51931    1.1942977   -116.32502    23631.319    4.3001387    4.3001387    4.3001387    23631.319    89671.748    7562.7426   -26340.533   -18681.142    24334.828    17833.607    79.514696 
   66300    1904.9369   -118.06798    1.7236269   -116.34435   -17116.565    4.3146735    4.3146735    4.3146735   -17116.565   -20550.831   -22481.755   -8317.1097    22329.749   -3811.1595    9517.9921     80.32372 
   66400    2030.7106   -118.15969    1.8374296   -116.32226    15958.523    4.3008748    4.3008748    4.3008748    15958.523    25043.974    12882.074    9949.5226    21134.205    -28272.14    11188.802    79.555535 
   66500    1984.4038   -118.12998    1.7955302   -116.33445    24051.513     4.284993     4.284993     4.284993    24051.513    59429.514    53193.605    -40468.58    24538.686    5005.6923   -1367.7792    78.677464 
   66600    1972.3024   -118.13466    1.7845806   -116.35008    36314.179    4.2868622    4.2868622    4.2868622    36314.179    55882.447    2076.2741    50983.816    -18043.79   -11007.249    18720.229    78.780471 
   66700    1405.1029   -117.64982    1.2713666   -116.37845    28215.583    4.3096071    4.3096071    4.3096071    28215.583    65658.617    28001.536    -9013.402    616.89006     22510.26    10439.048    80.041098 
   66800    1936.8958   -118.08624    1.7525441   -116.33369   -62428.544    4.3337294    4.3337294    4.3337294   -62428.544   -60915.701   -4518.4836   -121851.45    28710.713   -21248.103   -27986.075    81.392686 
   66900     1749.516    -117.8937    1.5829988    -116.3107    -27057.29    4.3017111    4.3017111    4.3017111    -27057.29    -49719.08    7043.3286   -38496.118   -15600.987   -45714.961   -19208.748    79.601953 
   67000     2150.347   -118.23614    1.9456791   -116.29046     59036.37     4.261553     4.261553     4.261553     59036.37    7866.2659    68970.945     100271.9   -30127.453   -4631.1014      29353.8    77.393355 
   67100    2132.8624   -118.30568    1.9298587   -116.37582   -3917.7245    4.2901245    4.2901245    4.2901245   -3917.7245    37219.835   -33906.136   -15066.872    -3782.842    4926.7227   -6775.1299    78.960464 
   67200     1829.024   -118.00575    1.6549394   -116.35081   -30014.277    4.3144615    4.3144615    4.3144615   -30014.277    -20276.99   -32142.414   -37623.427    2747.2188   -1337.2558   -17164.537    80.311878 
   67300    2308.9712   -118.40415    2.0892057   -116.31494    29058.907    4.2969767    4.2969767    4.2969767    29058.907    89992.225   -445.99738   -2369.5055   -30067.887   -18727.303    4524.0676    79.339416 
   67400    1846.2713   -118.02011     1.670545   -116.34957   -19605.587    4.2977455    4.2977455    4.2977455   -19605.587     33312.67   -22189.635   -69939.796   -2139.9979   -1195.5899    22306.663    79.382008 
   67500    1463.3162   -117.68699    1.3240393   -116.36295   -8472.5234    4.2916557    4.2916557    4.2916557   -8472.5234   -22652.334   -42724.464    39959.228    29879.679    15538.844   -1925.5882    79.045042 
   67600    2048.2567   -118.21372    1.8533057   -116.36041    33641.025    4.2848213    4.2848213    4.2848213    33641.025    26506.971   -11360.094    85776.197     8770.918    12522.221   -16250.522    78.668005 
   67700    2349.2213   -118.50085    2.1256248   -116.37522    9810.0508    4.3020295    4.3020295    4.3020295    9810.0508   -44241.074    12525.524    61145.702    -2784.116    18621.668    17756.068    79.619628 
   67800    1795.9092   -117.98657    1.6249764   -116.36159   -53547.808    4.3213183    4.3213183    4.3213183   -53547.808   -64086.393   -93789.923   -2767.1068    26668.793    17733.238    5963.9996    80.695399 
   67900    761.53288   -117.05507   0.68905095   -116.36602    4881.8793    4.2875527    4.2875527    4.2875527    4881.8793    42217.689   -58201.108    30629.058   -10375.807    12797.094   -926.92322    78.818547 
   68000    1240.7308   -117.46108    1.1226393   -116.33844    85412.927    4.2580454    4.2580454    4.2580454    85412.927    93700.725    7469.5652    155068.49   -19899.243   -20487.507    13373.166    77.202412 
   68100    2423.4602   -118.59028    2.1927978   -116.39749    9356.8471    4.2912669    4.2912669    4.2912669    9356.8471    34618.494   -42958.575    36410.622    23526.352   -13451.554    20100.018    79.023557 
   68200    2607.3455   -118.72811     2.359181   -116.36893    -22722.28    4.3143854    4.3143854    4.3143854    -22722.28   -19942.181   -34763.861   -13460.799    6895.5223   -17827.655   -9942.2312     80.30763 
   68300    1736.6752   -117.93102    1.5713802   -116.35964     10286.57    4.3124609    4.3124609    4.3124609     10286.57    74117.334   -6882.1919   -36375.431   -21166.579   -13618.358   -15101.478     80.20021 
   68400    1508.8418   -117.72477    1.3652318   -116.35954   -6696.1335    4.3007637    4.3007637    4.3007637   -6696.1335    19175.153   -8620.7513   -30642.802   -2767.6421    22162.436   -9770.0969    79.549372 
   68500    1833.3279   -118.00664    1.6588337   -116.34781   -12876.489    4.2840692    4.2840692    4.2840692   -12876.489   -54499.475    2973.4654    12896.543    18887.832   -3719.4993    5175.7913     78.62659 
   68600    1892.2466   -118.07535    1.7121445   -116.36321    26327.366    4.2839168    4.2839168    4.2839168    26327.366    75165.503    31028.366    -27211.77    720.16603     14708.99   -15139.444    78.618197 
   68700    2066.4811   -118.24608    1.8697955   -116.37628    4637.5067     4.300348     4.300348     4.300348    4637.5067    105185.95   -49861.619   -41411.812   -24049.595    6660.9197   -39273.863    79.526304 
   68800    2250.0446   -118.39677    2.0358876   -116.36089    6015.0347    4.2999312    4.2999312    4.2999312    6015.0347    39011.921   -27163.606    6196.7891    27710.502    13541.279   -1177.2682    79.503183 
   68900    1860.2656   -118.03391    1.6832074   -116.35071   -20100.734    4.3009271    4.3009271    4.3009271   -20100.734    64067.005   -78616.446   -45752.762     10829.98    14970.495   -11316.609    79.558438 
   69000    1864.1503   -118.02564    1.6867223   -116.33892   -18925.333     4.299809     4.299809     4.299809   -18925.333    10833.693   -35969.515   -31640.178   -10444.284   -13641.092   -35545.599    79.496405 
   69100    1859.3991   -118.02429    1.6824233   -116.34187    15768.112    4.3023615    4.3023615    4.3023615    15768.112   -13109.188    19753.969    40659.555    24881.529    42448.086    1555.5496    79.638062 
   69200    1199.1637   -117.42863    1.0850285   -116.34361    39261.774    4.3095422    4.3095422    4.3095422    39261.774    21703.587   -9878.0051    105959.74   -4871.7442    21859.913    18658.079    80.037483 
   69300     2353.696   -118.45042    2.1296736   -116.32075   -8205.8462    4.3213989    4.3213989    4.3213989   -8205.8462    22630.269   -87969.015    40721.208   -13572.841   -9089.1778   -5677.6107    80.699911 
   69400    1936.5336    -118.0644    1.7522163   -116.31219   -8137.6401    4.3346838    4.3346838    4.3346838   -8137.6401    77447.019   -29046.098   -72813.841    -13845.19   -19453.161    2291.3644    81.446468 
   69500    1746.9665   -117.86541     1.580692   -116.28472     15567.58    4.3346816    4.3346816    4.3346816     15567.58    92050.249   -55173.614    9826.1041    6367.2104    27835.046    8210.6443    81.446348 
   69600    1849.2974    -117.9441    1.6732832   -116.27081    38564.415    4.3131919    4.3131919    4.3131919    38564.415    83932.224    24351.124    7409.8973    7896.7173    18814.877   -4071.6619    80.241003 
   69700     2479.561   -118.51236    2.2435589    -116.2688   -28068.781    4.3038565    4.3038565    4.3038565   -28068.781   -15430.005   -22710.016   -46066.322    4480.9311     244.0533    5913.9165    79.721112 
   69800    1044.3328   -117.27589   0.94493431   -116.33095    26798.635    4.3221538    4.3221538    4.3221538    26798.635    22158.799   -11984.397    70221.504    7223.0977     16003.63   -13158.889    80.742214 
   69900     1376.915   -117.53372    1.2458617   -116.28786   -35540.304    4.3394244    4.3394244    4.3394244   -35540.304   -77134.238     7010.445    -36497.12   -16179.894    3618.4731    4570.4434    81.713984 
   70000    2248.1918   -118.26983    2.0342112   -116.23562   -39022.593    4.3189509    4.3189509    4.3189509   -39022.593   -43937.072   -23560.683   -49570.024    9677.4375    9906.7019     9451.155    80.562848 
   70100    2255.1471   -118.29173    2.0405045   -116.25122    37260.277    4.2936885    4.2936885    4.2936885    37260.277    62042.359    52475.771   -2737.2983    11095.003   -18563.553    -25457.75    79.157415 
   70200    1725.4228   -117.87267    1.5611988   -116.31147    135.97953    4.2995688    4.2995688    4.2995688    135.97953     17894.85    38266.628    -55753.54   -21550.785    10371.742   -3349.3425    79.483083 
   70300    1887.6252   -118.03445    1.7079629   -116.32649   -3176.4088     4.300617     4.300617     4.300617   -3176.4088    -15363.61    33000.416   -27166.032   -21979.922    24597.395    22676.049    79.541228 
   70400    1934.9405   -118.08354    1.7507748   -116.33277    14434.136    4.3066121    4.3066121    4.3066121    14434.136   -39044.642    78218.783    4128.2661      1377.64    10321.825    10557.492    79.874335 
   70500    1986.1882   -118.12851    1.7971448   -116.33136   -61146.414     4.316475     4.316475     4.316475   -61146.414   -71953.439   -45897.859   -65587.945    -30486.64      350.417    -3941.258    80.424376 
   70600    971.79673     -117.202    0.8793021    -116.3227    56907.122    4.2915829    4.2915829    4.2915829    56907.122    63728.965    1097.7746    105894.63   -16276.716   -18465.748    38749.223    79.041018 
   70700    1965.3757   -118.11729    1.7783133   -116.33898    25519.151    4.2940571    4.2940571    4.2940571    25519.151    35098.501    40278.605    1180.3487    9494.8173    14860.947    19976.561    79.177804 
   70800    3125.8938   -119.15163    2.8283744   -116.32326   -20781.287    4.3062572    4.3062572    4.3062572   -20781.287   -11416.936   -10968.566   -39958.361   -1433.8645    7155.3716   -14547.648    79.854591 
   70900    1672.0061   -117.85443    1.5128663   -116.34157    25018.471    4.3013571    4.3013571    4.3013571    25018.471    13376.369    40053.348    21625.696   -7740.3608   -3860.4506    36467.639    79.582299 
   71000     1180.193    -117.4111    1.0678634   -116.34324    11287.541    4.3081862    4.3081862    4.3081862    11287.541   -46255.309    2622.4353    77495.497   -22711.869   -1249.7234    37214.045    79.961955 
   71100    2372.6315   -118.47202    2.1468068   -116.32522   -10868.956    4.3095742    4.3095742    4.3095742   -10868.956    2319.1055    7144.3901   -42070.363    25865.102   -20462.596   -11731.171    80.039262 
   71200    2205.8843   -118.32102    1.9959305   -116.32509   -6919.0777    4.3024321    4.3024321    4.3024321   -6919.0777    27254.892   -8923.2471   -39088.878   -9039.3955    7519.0099    27343.104    79.641987 
   71300    1281.5808   -117.51952    1.1596012   -116.35992    542.56203    4.3134218    4.3134218    4.3134218    542.56203   -22652.647    85752.254    -61471.92   -27247.357   -35261.098    16620.106    80.253834 
   71400    2141.3584   -118.26038    1.9375461   -116.32283   -59846.697    4.3153453    4.3153453    4.3153453   -59846.697   -51041.241   -22958.331   -105540.52    17835.664   -32283.428   -19410.648    80.361245 
   71500     1900.031   -118.01897     1.719188   -116.29978     3484.508    4.2913377    4.2913377    4.2913377     3484.508    23899.501   -35653.168    22207.191   -15812.554    22394.227    10385.335    79.027471 
   71600    1737.4052   -117.90465    1.5720408   -116.33261    20944.856    4.2960661    4.2960661    4.2960661    20944.856   -35138.848    7960.3242    90013.091   -6989.0524   -2327.6774    9281.3706    79.288984 
   71700    1641.8225   -117.80998    1.4855555   -116.32443   -19197.623    4.3190551    4.3190551    4.3190551   -19197.623   -49273.969    14824.133   -23143.032    19133.133   -4746.4536    146.29238    80.568679 
   71800     1942.254   -118.05579    1.7573923   -116.29839    -21592.05    4.3278387    4.3278387    4.3278387    -21592.05    13012.042   -33720.658   -44067.535   -10882.281   -22343.695   -26233.193    81.061231 
   71900    1672.1134   -117.80288    1.5129634   -116.28992    13546.066    4.3250273    4.3250273    4.3250273    13546.066     37389.21   -30160.851    33409.839   -9610.7331   -15040.421    633.43797    80.903362 
   72000    2176.0469    -118.2385    1.9689329   -116.26956    10661.909    4.3040911    4.3040911    4.3040911    10661.909    10303.214    29055.829   -7373.3169   -3239.8615    3054.3007    6024.5604    79.734151 
   72100    2689.9274   -118.72216    2.4339028   -116.28825   -24240.785    4.3119453    4.3119453    4.3119453   -24240.785    36975.448   -43343.994   -66353.809     700.7854    5468.3024   -30935.278    80.171448 
   72200    1749.5943   -117.89854    1.5830697   -116.31547   -1157.4632    4.3436969    4.3436969    4.3436969   -1157.4632    9373.5487   -34492.929    21646.991    7250.3878    -22932.56    2180.9078    81.955579 
   72300     1442.089   -117.57167    1.3048325   -116.26684   -52608.704    4.3553761    4.3553761    4.3553761   -52608.704   -89049.676   -78854.768    10078.333   -24287.457   -24751.613   -5704.4576     82.61844 
   72400    1827.6608   -117.88406    1.6537059   -116.23035   -27659.195    4.3110519    4.3110519    4.3110519   -27659.195   -54618.851    34144.681   -62503.416    8883.4781   -5918.7836    2075.4649    80.121627 
   72500    2121.8474   -118.14048    1.9198922   -116.22059    40483.549    4.2788842    4.2788842    4.2788842    40483.549    1034.7526    37375.846    83040.048   -19254.575    30995.856   -1415.0786    78.341451 
   72600    1927.9808   -118.05571    1.7444775   -116.31123    -31676.83    4.3074033    4.3074033    4.3074033    -31676.83   -39585.401   -30612.965   -24832.124   -37772.886   -33808.137   -14137.275    79.918371 
   72700    1607.1189   -117.77767     1.454155   -116.32351    12674.461    4.3007938    4.3007938    4.3007938    12674.461    21357.666   -525.69962    17191.417    13090.443   -30617.228   -5756.6375    79.551041 
   72800    2281.5649   -118.39396    2.0644078   -116.32955     9695.473    4.2993267    4.2993267    4.2993267     9695.473    52526.571   -38073.577    14633.425   -7254.7208    3648.3998   -18753.808    79.469657 
   72900    1439.8214    -117.6657    1.3027806   -116.36292   -15072.912    4.3180134    4.3180134    4.3180134   -15072.912   -8789.6882   -7493.4649   -28935.583   -13937.209   -7556.2577    5631.1586    80.510398 
   73000    1974.6264   -118.10667    1.7866835   -116.31999   -37951.857    4.3111984    4.3111984    4.3111984   -37951.857   -67416.646   -26560.647   -19878.277    2520.5691   -21349.933    7180.5255    80.129796 
   73100    2236.8612   -118.33148     2.023959   -116.30752    13632.046    4.2927524    4.2927524    4.2927524    13632.046    23142.545   -8876.9621    26630.555    11828.145   -4297.7207    10271.104    79.105654 
   73200    1631.2107   -117.81454    1.4759537   -116.33859    5552.8057    4.3030015    4.3030015    4.3030015    5552.8057    40291.236   -23561.414   -71.404893   -5152.1596    -24292.36    24430.423    79.673608 
   73300    1563.4439   -117.74632    1.4146369   -116.33168   -5886.8183    4.3139087    4.3139087    4.3139087   -5886.8183   -47847.357    -72565.57    102752.47    -6076.115   -17564.631   -3916.3336    80.281015 
   73400    2331.0012   -118.43922    2.1091388   -116.33008   -1607.0546    4.3001486    4.3001486    4.3001486   -1607.0546    16415.185   -54855.565    33619.217   -8804.0978    9344.6317   -26197.029    79.515242 
   73500    1709.4932   -117.88292    1.5467853   -116.33614    45001.695     4.289178     4.289178     4.289178    45001.695    87962.816   -12716.875    59759.145   -16243.807    35408.986     12696.22    78.908213 
   73600    1554.4789   -117.76033    1.4065252   -116.35381   -6617.3954    4.3068319    4.3068319    4.3068319   -6617.3954     6032.944   -76042.079    50156.948   -2304.4795    2436.6454     25820.05    79.886569 
   73700    2423.6669   -118.50486    2.1929847   -116.31188   -29776.127    4.3167147    4.3167147    4.3167147   -29776.127    10352.948   -57722.717   -41958.612   -3396.7827   -7180.5719    1859.8306    80.437772 
   73800    2743.9911   -118.77693    2.4828208   -116.29411   -18970.915    4.3054784    4.3054784    4.3054784   -18970.915    9663.8859   -58409.035   -8167.5959   -28826.383    20801.106   -5102.9971    79.811273 
   73900    1850.8866   -117.99885    1.6747211   -116.32412   -19985.605    4.3033562    4.3033562    4.3033562   -19985.605    2353.1258   -81040.629    18730.687    1508.8031   -330.95925    17223.341    79.693312 
   74000    1612.3727   -117.79385    1.4589087   -116.33494   -21904.505    4.3075957    4.3075957    4.3075957   -21904.505    10011.763   -54616.114   -21109.164    11468.162    7612.9708     23414.62     79.92908 
   74100    2226.6417   -118.34773    2.0147122   -116.33302    2227.8464    4.3000721    4.3000721    4.3000721    2227.8464    32816.037   -3074.2815   -23058.216   -21705.944    18648.658    13883.125       79.511 
   74200    2588.1891    -118.6809    2.3418479   -116.33905    3160.8258    4.2967667    4.2967667    4.2967667    3160.8258    34496.576    -7322.288   -17691.811   -13739.604    16884.167     9234.114    79.327785 
   74300    2112.6337   -118.24181    1.9115554   -116.33026   -234.08137    4.2991687    4.2991687    4.2991687   -234.08137     71131.97    -59882.87   -11951.344   -10175.623   -3830.5591     11092.79    79.460898 
   74400      1371.18   -117.57711    1.2406725   -116.33644    7732.9789    4.2955608    4.2955608    4.2955608    7732.9789    478.77102   -60537.282    83257.448   -29224.852   -14830.533      18144.2    79.261014 
   74500    1731.7425   -117.91005     1.566917   -116.34314    11311.145     4.298537     4.298537     4.298537    11311.145   -5841.2271   -24908.248    64682.912    3679.8166    6371.8074    5683.9599    79.425873 
   74600    2259.4329   -118.39746    2.0443823   -116.35308     -21342.4    4.3245828    4.3245828    4.3245828     -21342.4   -22402.961   -21989.013   -19635.226   -8791.4104    12236.564     2997.393    80.878416 
   74700    1525.1715   -117.69766    1.3800072   -116.31765   -36703.567      4.34051      4.34051      4.34051   -36703.567   -67159.488   -102377.15    59425.933   -50646.316      9770.23   -2626.1132    81.775326 
   74800    2181.7278   -118.23855    1.9740732   -116.26447   -9093.2319    4.3040505    4.3040505    4.3040505   -9093.2319     1361.746   -39592.988    10951.547   -5718.1934    1695.6573    6990.6745    79.731895 
   74900    2327.2341   -118.36205    2.1057303   -116.25632    47772.411    4.2749571    4.2749571    4.2749571    47772.411     97455.88    47291.259   -1429.9062    30596.626    27829.695   -1734.6629    78.125945 
   75000    1465.5743   -117.68478    1.3260824    -116.3587    513.87571    4.3055415    4.3055415    4.3055415    513.87571    68900.435   -55044.437   -12314.371   -13819.091    23770.609   -4767.4131    79.814781 
   75100    1121.9776   -117.36038    1.0151889   -116.34519   -43395.191    4.3229767    4.3229767    4.3229767   -43395.191   -4852.6252   -110320.66   -15012.287    -12666.02    -17882.04   -1891.6241    80.788342 
   75200    1394.7106   -117.57703    1.2619634   -116.31507    20717.701    4.2940642    4.2940642    4.2940642    20717.701     29438.34   -18872.913    51587.676     28188.64    33933.714   -23098.348    79.178197 
   75300    2614.8404   -118.67374    2.3659625   -116.30778    11199.797    4.2750583    4.2750583    4.2750583    11199.797    22428.438   -4829.8446    16000.799     2272.977    24882.094   -11816.229    78.131495 
   75400    1532.9393   -117.74223    1.3870357    -116.3552    13728.471    4.2941084    4.2941084    4.2941084    13728.471      30497.1   -53158.248    63846.562   -1240.8222   -13600.955   -21982.638    79.180642 
   75500    1895.5119   -118.05226     1.715099   -116.33716   -2754.4276    4.3151877    4.3151877    4.3151877   -2754.4276    -3751.637   -25499.057    20987.411    34435.193    958.75366   -2462.6738    80.352441 
   75600    2231.1988   -118.33438    2.0188355   -116.31554   -38778.039    4.3233622    4.3233622    4.3233622   -38778.039   -41929.059   -22624.473   -51780.585    15272.283   -1429.5437    4461.2611    80.809955 
   75700    1285.1725    -117.4707    1.1628511   -116.30785   -13100.684    4.3045397    4.3045397    4.3045397   -13100.684    3685.4419   -60607.803     17620.31   -9318.8253    2709.0589   -2209.4836    79.759081 
   75800    2128.7622   -118.21447    1.9261488   -116.28832    559.03778    4.2760634    4.2760634    4.2760634    559.03778    20042.294   -36881.833    18516.652   -17539.153   -32889.425    4113.2268    78.186612 
   75900    2217.4263   -118.33992     2.006374   -116.33355    8742.8364    4.2776327    4.2776327    4.2776327    8742.8364   -3146.5704     33607.21   -4232.1305    16074.011   -4681.0673   -14514.548    78.272729 
   76000     1919.365   -118.10178    1.7366818   -116.36509   -17634.862    4.3017153    4.3017153    4.3017153   -17634.862      6104.49    10884.984   -69894.059   -5340.3514     7340.433   -17181.259    79.602185 
   76100    1615.2674   -117.79989    1.4615279   -116.33836   -17703.723    4.3159058    4.3159058    4.3159058   -17703.723   -59869.518    39593.212   -32834.864    9532.5311   -3124.0464    9062.5164    80.392561 
   76200    1917.7245   -118.03749    1.7351974   -116.30229    1307.5489    4.3124295    4.3124295    4.3124295    1307.5489   -9880.4477    39966.003   -26162.909    1232.9963    2110.2954   -20867.047    80.198459 
   76300    1178.2799   -117.36842    1.0661324   -116.30229   -17037.594    4.3133139    4.3133139    4.3133139   -17037.594    4649.7197    26956.881   -82719.383   -98.445018    18289.763    12829.903     80.24781 
   76400    2024.1146   -118.12377    1.8314614   -116.29231   -45873.297      4.30493      4.30493      4.30493   -45873.297   -64638.157   -17903.612   -55078.122    15882.141    19859.968    14584.804    79.780781 
   76500    2688.4783   -118.71436    2.4325916   -116.28177    23897.391    4.2892338    4.2892338    4.2892338    23897.391    56009.781    20947.122   -5264.7292    12765.486    1271.1955   -26872.424    78.911293 
   76600    1634.7705   -117.81604    1.4791747   -116.33687    -24188.63    4.3150232    4.3150232    4.3150232    -24188.63   -5625.8907    1071.4982   -68011.497   -2386.1664   -12084.492   -11267.122    80.343252 
   76700    1279.1973   -117.46989    1.1574446   -116.31245   -58456.082    4.3211597    4.3211597    4.3211597   -58456.082   -94618.999   -48535.587    -32213.66    23035.846    3574.5238    22909.822    80.686513 
   76800    2016.9064   -118.11022    1.8249393   -116.28529    25337.778    4.2785063    4.2785063    4.2785063    25337.778   -11363.116    12865.103    74511.346     6986.289   -14479.719   -6786.8421    78.320697 
   76900     2231.502   -118.35045    2.0191099   -116.33134    34589.746    4.2739653    4.2739653    4.2739653    34589.746     33289.15    44574.506    25905.581   -10027.212    4990.8566   -59641.427    78.071583 
   77000     2175.069   -118.32054    1.9680482    -116.3525   -34212.641    4.3105772    4.3105772    4.3105772   -34212.641   -54192.191   -7646.0273   -40799.704    9173.1647     9868.624   -8434.1227    80.095159 
   77100    1853.9399   -117.99791    1.6774838   -116.32043    5201.4232    4.3114836    4.3114836    4.3114836    5201.4232    14757.633   -41770.691    42617.327    1527.3172   -23330.364    11602.762    80.145696 
   77200    1452.7356   -117.62981    1.3144657   -116.31535   -14943.921    4.2978915    4.2978915    4.2978915   -14943.921    -14282.99   -21450.727   -9098.0459    8868.8059     -15447.6    -33827.64    79.390101 
   77300    2070.2993   -118.18961    1.8732503   -116.31636   -397.73367    4.2920186    4.2920186    4.2920186   -397.73367   -44863.792    36913.377    6757.2144   -12538.482    23007.094    29282.064    79.065095 
   77400    2227.1851   -118.34215    2.0152039   -116.32695   -9947.4291    4.2983874    4.2983874    4.2983874   -9947.4291   -30014.398   -32727.807    32899.918    5130.7232    20833.826    -2823.834    79.417585 
   77500     1869.721   -118.01655    1.6917629   -116.32478    11539.511    4.3034591    4.3034591    4.3034591    11539.511    22591.346   -22153.386    34180.572   -1962.7738    4827.2217   -12343.272    79.699032 
   77600    1450.4057   -117.64967    1.3123576   -116.33731    13443.998    4.3034764    4.3034764    4.3034764    13443.998    50264.012    9625.6988   -19557.718   -12778.375    28246.427    6661.5568    79.699994 
   77700    1312.8571   -117.52443    1.1879007   -116.33653   -12728.963    4.3029144    4.3029144    4.3029144   -12728.963   -6666.2193   -33829.644    2308.9751   -6686.0743    11309.038    31804.069    79.668774 
   77800    2530.7574    -118.6096    2.2898824   -116.31972   -18692.554    4.2892311    4.2892311    4.2892311   -18692.554   -12269.767   -50412.478    6604.5825   -1467.6199   -7342.7777    37050.404    78.911146 
   77900    2810.8864   -118.87991    2.5433491   -116.33657    -3471.883    4.2853774    4.2853774    4.2853774    -3471.883   -29362.017   -618.64277    19565.011    7885.7392    6304.0243   -21506.934    78.698639 
   78000    1642.7158   -117.84409    1.4863638   -116.35772   -10582.781    4.2929815    4.2929815    4.2929815   -10582.781   -18128.552   -23047.759    9427.9689   -13536.258    18464.667    14186.507    79.118319 
   78100    1221.8235   -117.45201    1.1055316   -116.34648   -12705.393    4.2968568    4.2968568    4.2968568   -12705.393    10054.384   -48522.133    351.56805   -13633.861   -4452.2232     45262.99    79.332774 
   78200    1686.3165    -117.8633    1.5258146   -116.33748   -20243.315    4.2928449    4.2928449    4.2928449   -20243.315      13303.6    -45726.74   -28306.805    7567.7893   -2931.9358   -33455.144    79.110766 
   78300    2155.4254   -118.28554    1.9502742   -116.33527    2853.9555    4.2746515    4.2746515    4.2746515    2853.9555     5886.106   -27041.143    29716.904   -30712.335   -6225.7077    -17355.91     78.10919 
   78400    2377.4293   -118.51694     2.151148   -116.36579    12941.013    4.2838388    4.2838388    4.2838388    12941.013    13748.946   -33625.699     58699.79    -15636.84    6825.7856    36985.853    78.613901 
   78500    2044.5881   -118.21682    1.8499863   -116.36683   -32295.663    4.3242765    4.3242765    4.3242765   -32295.663    4466.9756   -33873.914    -67480.05    20064.779    10554.887   -12503.146    80.861233 
   78600    1729.9726   -117.86726    1.5653155   -116.30194   -30556.305    4.3235411    4.3235411    4.3235411   -30556.305    40291.363   -90270.829   -41689.449    -24506.64    511.99134   -9730.8393    80.819988 
   78700    1532.0924   -117.66126    1.3862694   -116.27499     14579.14     4.293876     4.293876     4.293876     14579.14    48722.219   -70314.419    65329.619   -41413.204    15870.089    19635.405    79.167787 
   78800    2035.4409   -118.13653    1.8417097   -116.29482   -22171.381    4.2869092    4.2869092    4.2869092   -22171.381    25190.217   -58541.212    -33163.15    30659.509     1892.885   -34395.174     78.78306 
   78900    2118.1296   -118.23933    1.9165282    -116.3228   -28534.254    4.2819129    4.2819129    4.2819129   -28534.254   -19961.093   -77910.939     12269.27   -23433.302    10529.728   -14958.674    78.507922 
   79000    2137.2803    -118.2799    1.9338562   -116.34604   -8018.4032    4.2842799    4.2842799    4.2842799   -8018.4032   -40429.905   -31129.898    47504.594   -58552.718    24852.319    -5079.887    78.638189 
   79100    1858.3555    -118.0444    1.6814791   -116.36292   -20444.605    4.3075182    4.3075182    4.3075182   -20444.605   -4479.1481   -40300.853   -16553.813     25489.56    1890.8141    -7001.845    79.924765 
   79200    1589.9467   -117.76622    1.4386172   -116.32761   -23474.856    4.3097909    4.3097909    4.3097909   -23474.856   -37763.135    19711.806   -52373.238   -17055.644   -2450.7195   -4304.0246    80.051338 
   79300    1531.9819   -117.69818    1.3861694   -116.31201    12337.315    4.2895555    4.2895555    4.2895555    12337.315    -2175.162    9903.0258    29284.082   -62009.046   -12299.656   -32180.769    78.929049 
   79400    2710.2793   -118.76576    2.4523177   -116.31344    6516.9248    4.2839857    4.2839857    4.2839857    6516.9248   -14389.223    14847.983    19092.015    17508.675    1791.7735    16186.521    78.621994 
   79500    1996.6676   -118.15155    1.8066268   -116.34492   -8527.1219    4.3025334    4.3025334    4.3025334   -8527.1219   -33767.945   -35423.175    43609.754   -14328.195   -15314.249   -12896.212    79.647609 
   79600    1377.8636   -117.59365    1.2467199   -116.34693   -8293.5535    4.3063512    4.3063512    4.3063512   -8293.5535    -47819.05   -3714.3051    26652.694   -52149.212   -32459.351   -20935.571     79.85982 
   79700    1927.3161   -118.07052    1.7438761   -116.32664   -21159.825    4.2925869    4.2925869    4.2925869   -21159.825     9710.741    10473.024    -83663.24    11155.034   -780.35227    28821.528    79.096504 
   79800     1897.343   -118.05723    1.7167559   -116.34047   -27519.864    4.2967364    4.2967364    4.2967364   -27519.864   -19796.378   -9404.2086   -53359.005   -1228.9252   -8302.1081    7639.9242    79.326105 
   79900    1806.9473   -117.97968    1.6349638   -116.34471   -35628.293    4.3100202    4.3100202    4.3100202   -35628.293    -67636.79    -26835.87   -12412.218   -55523.641   -1891.2246   -10768.738    80.064119 
   80000    1576.4787   -117.75949     1.426431   -116.33306   -150.42914    4.3037136    4.3037136    4.3037136   -150.42914    -16448.44     11585.56    4411.5926    600.69114   -1864.4102    32815.603     79.71317 
   80100     2513.186   -118.58927    2.2739835   -116.31529   -30589.508    4.3083231    4.3083231    4.3083231   -30589.508   -38209.019   -33048.268   -20511.238    3739.8436   -1885.8613    18273.022    79.969576 
   80200    1986.8133   -118.10769    1.7977105   -116.30998   -47301.519    4.3268505    4.3268505    4.3268505   -47301.519   -67288.793   -65333.526   -9282.2387   -41993.399    752.61499   -1064.1887    81.005717 
   80300    1841.2237   -117.95946    1.6659779   -116.29348   -19444.148     4.311946     4.311946     4.311946   -19444.148    1934.1517     19883.65   -80150.246   -19934.693   -20995.681    19966.166    80.171485 
   80400    2365.7579   -118.42983    2.1405875   -116.28924   -8750.0944    4.2956264    4.2956264    4.2956264   -8750.0944    11036.754   -8852.7476   -28434.289     8391.968   -16665.904   -16144.141    79.264645 
   80500    1578.8258   -117.75203    1.4285547   -116.32347   -36105.108    4.2990421    4.2990421    4.2990421   -36105.108   -82873.234   -97306.097    71864.007    -29392.41   -5240.3948    2674.1947    79.453875 
   80600    1842.5995   -117.99956    1.6672228   -116.33233   -41.828166    4.2978361    4.2978361    4.2978361   -41.828166   -7925.1776   -20438.908    28238.601   -19128.264   -24575.567    12885.339    79.387027 
   80700    2301.0585   -118.42097    2.0820461   -116.33892    -3908.034    4.3148637    4.3148637    4.3148637    -3908.034   -4554.6895    5302.9188   -12472.331   -6483.0036    6394.5413    7959.8945     80.33434 
   80800    1606.3358   -117.77221    1.4534464   -116.31877   -15258.164    4.3205231    4.3205231    4.3205231   -15258.164    24632.692   -85542.764     15135.58   -21720.375   -1747.7526   -16691.122    80.650856 
   80900    1556.6078   -117.71202    1.4084514   -116.30357    29158.576    4.2951855    4.2951855    4.2951855    29158.576    101204.98   -44570.666    30841.413   -16105.844    14472.072    -3684.052    79.240239 
   81000     2549.472   -118.60858    2.3068158   -116.30176    10708.135    4.2759231    4.2759231    4.2759231    10708.135    27975.927   -9390.5133    13538.992   -21944.649    17172.107   -8389.8892    78.178919 
   81100    2274.0083   -118.39343    2.0575705   -116.33586    8764.8251    4.2794355    4.2794355    4.2794355    8764.8251    56218.088   -41053.499    11129.886   -18677.896   -14477.843   -16574.074    78.371735 
   81200    1323.7939   -117.57374    1.1977965   -116.37595   -33350.807    4.3121498    4.3121498    4.3121498   -33350.807   -50139.295   -91071.435     41158.31   -26438.667   -15694.966   -12954.946    80.182854 
   81300    1746.3063   -117.91901    1.5800946   -116.33891   -43830.584    4.3175607    4.3175607    4.3175607   -43830.584    -38203.71   -77886.393   -15401.649   -26245.815    -456.6516   -19176.021    80.485078 
   81400    2399.3219   -118.47049    2.1709569   -116.29953    9741.1645     4.289522     4.289522     4.289522    9741.1645    50836.707    5984.8125   -27598.026    12161.607   -17384.059    7320.1155    78.927202 
   81500    2030.4947   -118.16734    1.8372343   -116.33011    32926.797      4.28382      4.28382      4.28382    32926.797    63494.154   -38437.094    73723.333   -5398.6661   -39298.535   -466.71976    78.612866 
   81600    1946.8143   -118.12136    1.7615185   -116.35984    4397.8348    4.3117772    4.3117772    4.3117772    4397.8348    20320.941   -62442.982    55315.545   -10228.909   -1901.1788   -10117.501    80.162071 
   81700      1422.69   -117.62628    1.2872798     -116.339    4000.0175     4.323648     4.323648     4.323648    4000.0175    13642.603   -35395.735    33753.185    5508.4634     20073.85     42380.64     80.82598 
   81800    1799.1385   -117.92706    1.6278983   -116.29916    16538.316    4.3057343    4.3057343    4.3057343    16538.316    11363.262    8996.9314    29254.754    8715.0208   -5084.8033    17780.501    79.825504 
   81900    2392.1558   -118.45856    2.1644728   -116.29409    12139.072    4.2883989    4.2883989    4.2883989    12139.072    12264.826    14374.727    9777.6641    13515.258   -7931.5843   -15791.214    78.865223 
   82000    2116.8133     -118.254    1.9153372   -116.33866    6321.7777    4.2848617    4.2848617    4.2848617    6321.7777     30603.61   -41114.658    29476.381   -29502.339   -9635.5282      20243.1    78.670231 
   82100    1707.5021   -117.90887    1.5449838   -116.36389   -8356.8334    4.3006232    4.3006232    4.3006232   -8356.8334    17455.152   -43721.375    1195.7228   -19214.046    3696.3038    3092.1608    79.541573 
   82200    1289.5051   -117.51444    1.1667713   -116.34767     3392.972    4.3072359    4.3072359    4.3072359     3392.972   -32228.139    155.20897    42251.846    40961.131   -12588.916   -4001.7352     79.90905 
   82300    1880.3155   -118.03136    1.7013489   -116.33001    13776.192    4.3007247    4.3007247    4.3007247    13776.192   -4619.6567    21644.788    24303.444    4896.3091   -5121.6811    1721.3761    79.547208 
   82400    2631.3078   -118.70097    2.3808626    -116.3201   -20936.799    4.2918679    4.2918679    4.2918679   -20936.799   -11192.057   -27512.698   -24105.643     10310.29    16732.507    8079.9966    79.056766 
   82500    1782.8566   -117.95678    1.6131662   -116.34361    9655.1943    4.2860908    4.2860908    4.2860908    9655.1943    5584.9318    -27377.85    50758.501    32282.408    6179.6939   -1937.5831    78.737947 
   82600     1756.764    -117.9614     1.589557   -116.37184   -9120.6229    4.2922654    4.2922654    4.2922654   -9120.6229    16429.386   -41018.722    -2772.533   -8880.3521   -11933.509   -19686.406    79.078732 
   82700    1835.6106   -118.02713     1.660899   -116.36623     49.27522    4.2986489    4.2986489    4.2986489     49.27522    57561.313    -39788.36   -17625.126   -3117.0545   -14206.312   -5104.3524    79.432077 
   82800    2165.5753   -118.31012     1.959458   -116.35066     -29768.1    4.3031146    4.3031146    4.3031146     -29768.1    -60454.21   -18559.218   -10290.873    12429.424    1919.5539    14367.821     79.67989 
   82900    1685.7344   -117.86817    1.5252879   -116.34289    8138.2421    4.2975821    4.2975821    4.2975821    8138.2421     33101.57    24058.326    -32745.17   -7727.3278   -26346.723    -5565.639    79.372953 
   83000    2186.3268   -118.33108    1.9782344   -116.35285    4416.2697    4.3090065    4.3090065    4.3090065    4416.2697     46191.63    21085.463   -54028.284   -23803.168   -5233.8237   -3889.9402     80.00764 
   83100    2264.8478   -118.38894    2.0492819   -116.33966   -10746.438    4.3392007    4.3392007    4.3392007   -10746.438    24117.204   -49366.562   -6989.9557   -4348.4634    39974.963    23427.767    81.701344 
   83200    1516.2696   -117.66733    1.3719526   -116.29538    11160.502    4.3488051    4.3488051    4.3488051    11160.502   -59811.012    14333.342    78959.177    -3080.747   -29229.092   -16315.648    82.245061 
   83300    2137.1908   -118.16583    1.9337752   -116.23206    3477.9403    4.3382076    4.3382076    4.3382076    3477.9403    -61636.38    34878.351     37191.85   -11039.105    6101.7187    4982.8779    81.645262 
   83400    2139.2576   -118.14148    1.9356453   -116.20583   -30469.562    4.3227503    4.3227503    4.3227503   -30469.562   -19046.885   -6476.5416   -65885.259   -4155.9509   -20769.534    12698.798     80.77565 
   83500    1849.0348   -117.90673    1.6730455   -116.23368    10275.973    4.3021195    4.3021195    4.3021195    10275.973   -11269.146    66946.939   -24849.874   -9154.2223   -22597.697   -4457.2837    79.624627 
   83600    2702.9115   -118.70421    2.4456511   -116.25856   -4516.7106    4.2986184    4.2986184    4.2986184   -4516.7106    14050.787   -3979.8442   -23621.075    3573.0961    8539.4198   -11574.743     79.43039 
   83700    1200.7374   -117.39795    1.0864525    -116.3115   -33854.959    4.3146089    4.3146089    4.3146089   -33854.959   -55574.764    4316.1008   -50306.213   -6858.2064   -39495.129    7029.7814    80.320111 
   83800    1928.3025   -118.03071    1.7447687   -116.28594    14892.122     4.308292     4.308292     4.308292    14892.122   -14182.617     20202.03    38656.952   -12122.233    2505.2951    2889.4475    79.967847 
   83900    1796.2882   -117.92477    1.6253193   -116.29945    21581.543    4.3107425    4.3107425    4.3107425    21581.543   -39834.663    28355.271    76224.021    10876.129     15657.92     11667.72    80.104379 
   84000    1533.5165   -117.68661     1.387558   -116.29905    17225.859    4.3145704    4.3145704    4.3145704    17225.859   -22682.422   -17551.322    91911.322   -841.18125   -53675.416    4591.3711    80.317959 
   84100    2372.2078   -118.43954    2.1464235   -116.29312   -7509.2685    4.3106303    4.3106303    4.3106303   -7509.2685   -36978.361   -10084.677    24535.233     31165.05   -8043.5204   -2335.9031    80.098123 
   84200     2054.189   -118.15967    1.8586733   -116.30099     24001.23    4.2899733    4.2899733    4.2899733     24001.23    31593.875    53880.541   -13470.727    9674.5595     46703.12   -1536.1765    78.952114 
   84300    1299.6816   -117.50122    1.1759793   -116.32524    47753.132    4.2807143    4.2807143    4.2807143    47753.132    98767.603    37778.882    6712.9108   -5877.0347   -27591.728    3145.2813    78.442014 
   84400    1224.6982   -117.46317    1.1081327   -116.35504   -33188.902    4.3021123    4.3021123    4.3021123   -33188.902   -30798.228   -5756.3383    -63012.14    26463.021   -34491.808    4753.3043    79.624229 
   84500    2632.4092   -118.69847    2.3818592   -116.31661     7847.108    4.2849077    4.2849077    4.2849077     7847.108    31779.014    20487.351   -28725.042    11748.268    27901.425    11899.362    78.672766 
   84600    2024.8279   -118.18308    1.8321069   -116.35098    17634.634    4.2900975    4.2900975    4.2900975    17634.634   -692.38174    59340.725   -5744.4406    2114.0439   -7405.6632    16508.074    78.958973 
   84700    1641.6336   -117.84029    1.4853846   -116.35491   -47278.079    4.3179164    4.3179164    4.3179164   -47278.079   -45346.694   -46040.099   -50447.446   -18915.163    -36492.01    9689.4293    80.504968 
   84800    1897.6363   -118.03343    1.7170212    -116.3164   -555.38724    4.3085051    4.3085051    4.3085051   -555.38724    15513.288   -4071.2809   -13108.169   -15885.696    7988.0008   -19634.227    79.979713 
   84900    1340.2929   -117.52261    1.2127252   -116.30988    13084.362    4.3099511    4.3099511    4.3099511    13084.362    43817.128    42197.566   -46761.607   -16050.307     14093.69    7759.2872    80.060266 
   85000    1899.7623   -118.01013    1.7189449   -116.29119   -40520.692    4.3107468    4.3107468    4.3107468   -40520.692   -52941.086    1538.9883   -70159.978    423.01372   -18654.215     4505.037    80.104617 
   85100    2332.8352   -118.38359    2.1107983   -116.27279    9784.0419    4.2928423    4.2928423    4.2928423    9784.0419    67707.559    16598.398   -54953.832   -4560.5442   -11019.406   -29800.893    79.110621 
   85200     1126.779   -117.33675    1.0195333   -116.31722    4804.4973    4.3032457    4.3032457    4.3032457    4804.4973   -41638.208    93784.788   -37733.088   -13974.492    31502.882   -7557.7257    79.687175 
   85300    2285.6763   -118.36844    2.0681279   -116.30031   -12824.647     4.306256     4.306256     4.306256   -12824.647    31076.237   -32087.315   -37462.865   -10931.817    4720.8418   -3801.5466    79.854524 
   85400    1923.8074   -118.04977    1.7407014   -116.30907    12940.832    4.3031947    4.3031947    4.3031947    12940.832    59895.926    16385.736   -37459.165   -959.91162    9137.1748   -9117.8401    79.684344 
   85500    1785.5276   -117.93025    1.6155829   -116.31467   -3330.0053     4.306125     4.306125     4.306125   -3330.0053    54040.368    8506.5621   -72536.946   -3916.9204     10166.99   -7972.1023    79.847237 
   85600    1860.8934    -117.9923    1.6837754   -116.30853   -23335.414    4.3090795    4.3090795    4.3090795   -23335.414   -5171.3706   -56862.009   -7972.8625   -40336.384   -13979.442    22789.747    80.011705 
   85700    2113.4323    -118.2078    1.9122779   -116.29552   -7911.7535    4.2975162    4.2975162    4.2975162   -7911.7535    -12394.29   -5500.0267   -5840.9441   -1929.6265    11805.303    8812.0187    79.369306 
   85800    2367.3199   -118.43229    2.1420008   -116.29028     23136.48    4.2826907    4.2826907    4.2826907     23136.48     9597.969    17424.691     42386.78   -16405.417    14313.575   -14947.572    78.550714 
   85900     1433.045   -117.62747    1.2966493   -116.33082    11257.702    4.2945718    4.2945718    4.2945718    11257.702    7618.4835   -29880.935    56035.559   -52242.786   -9934.8416    8388.4866    79.206276 
   86000    2221.6983   -118.32599    2.0102394   -116.31575   -11008.862    4.3079918    4.3079918    4.3079918   -11008.862   -10352.131   -20590.578   -2083.8778     28473.43   -430.70223   -2249.2094    79.951127 
   86100    2080.7735   -118.19772    1.8827276   -116.31499   -9625.1019    4.3094756    4.3094756    4.3094756   -9625.1019   -31954.004   -28989.187    32067.885   -6588.0166    4764.2756   -8478.1325    80.033768 
   86200    1375.0923   -117.55593    1.2442124   -116.31172    10115.343    4.3001197    4.3001197    4.3001197    10115.343   -26543.602    22314.894    34574.737    -34294.84    -25514.27   -17373.978    79.513638 
   86300    2774.5639   -118.81384    2.5104837   -116.30335    -11946.12    4.3017183    4.3017183    4.3017183    -11946.12    16466.678   -25150.912   -27154.127    6083.6417     13620.74    10522.983    79.602354 
   86400    1942.8619    -118.0843    1.7579422   -116.32635   -1459.9784    4.3223364    4.3223364    4.3223364   -1459.9784   -7322.8948   -19749.861     22692.82   -13596.365   -10421.532   -13818.373    80.752448 
   86500    1351.9843    -117.5212    1.2233038    -116.2979     22777.41    4.3311169    4.3311169    4.3311169     22777.41    14428.111   -19123.262     73027.38    -22146.55   -11581.976    12126.156    81.245573 
   86600    1365.7245   -117.51536    1.2357363   -116.27962    20142.517    4.3204129    4.3204129    4.3204129    20142.517    25144.254    28574.573    6708.7247    15050.038    33567.159   -10001.158    80.644688 
   86700    2383.1691   -118.43173    2.1563415   -116.27539   -11915.626    4.2857427    4.2857427    4.2857427   -11915.626   -7716.5738   -25376.549   -2653.7556   -10975.434   -14102.428   -26570.657    78.718768 
   86800    2106.1067   -118.23087    1.9056496   -116.32522    21773.997    4.2783603    4.2783603    4.2783603    21773.997    28429.601   -2288.7318    39181.123   -13302.983   -27829.694    4657.0591    78.312676 
   86900    1764.0397    -117.9648    1.5961402   -116.36865   -12319.075    4.3074323    4.3074323    4.3074323   -12319.075   -17831.477   -31323.095    12197.346   -43822.567    23845.216    1651.1649    79.919982 
   87000    2024.9205   -118.16046    1.8321906   -116.32827    6231.8412     4.316125     4.316125     4.316125    6231.8412    16890.707   -15180.811    16985.628    7377.6621   -5963.8178   -11810.539    80.404812 
   87100    2149.1335   -118.26319    1.9445811   -116.31861   -19798.754    4.3309108    4.3309108    4.3309108   -19798.754   -11763.671   -9129.8639   -38502.728   -7206.1011   -38956.067    3155.4755    81.233978 
   87200     1745.384   -117.87082    1.5792601   -116.29156   -29465.807    4.3296174    4.3296174    4.3296174   -29465.807   -33612.641   -55726.184     941.4048   -58819.606    2854.3177    1483.1647    81.161217 
   87300    2144.5244   -118.21714    1.9404107   -116.27673    32325.099    4.2804223    4.2804223    4.2804223    32325.099    76831.085    33438.317   -13294.106     14356.61    19399.111     2495.645     78.42596 
   87400    1659.1563   -117.81246    1.5012394   -116.31122    61130.595    4.2687184    4.2687184    4.2687184    61130.595    161602.88    33621.213   -11832.304    9178.7141   -25676.509   -14804.458    77.784402 
   87500    1043.2547     -117.333    0.9439588   -116.38904   -33096.407    4.3107703    4.3107703    4.3107703   -33096.407    5449.8984   -60302.111   -44437.008    -43460.66   -25776.632     12655.99    80.105928 
   87600    2196.9101   -118.31282    1.9878104   -116.32501   -30922.015    4.3199627    4.3199627    4.3199627   -30922.015   -49663.391    17872.258    -60974.91    22988.344    27120.278    6322.3884    80.619477 
   87700    1748.9819   -117.88947    1.5825155   -116.30695   -11014.418    4.3193455    4.3193455    4.3193455   -11014.418   -41222.571   -770.82237    8950.1403    -10484.62   -7670.1224   -29890.509    80.584928 
   87800     1854.307   -117.97971    1.6778159   -116.30189    5260.2398    4.3094273    4.3094273    4.3094273    5260.2398   -16306.548    7004.7676      25082.5   -27054.403   -18964.142    18415.189    80.031081 
   87900    2608.3839   -118.65215    2.3601206   -116.29202    5983.4651    4.2936799    4.2936799    4.2936799    5983.4651   -4591.9503   -9361.8656    31904.211   -5224.3407    29311.859    834.77351    79.156942 
   88000    1749.0762   -117.91404    1.5826009   -116.33143    29506.124    4.2904614    4.2904614    4.2904614    29506.124   -20517.754    43050.505     65985.62    3075.3775   -4344.6276   -25498.557    78.979065 
   88100    1426.3011   -117.65793    1.2905472   -116.36739   -46958.785    4.3031156    4.3031156    4.3031156   -46958.785   -80157.311   -58413.824    -2305.219   -17096.285   -22830.248   -3672.0661    79.679946 
   88200     1718.058   -117.92204     1.554535   -116.36751   -30789.066    4.2849653    4.2849653    4.2849653   -30789.066   -42349.205   -74921.976    24903.985    2508.0256    15361.976    165.10533    78.675937 
   88300    2296.4052   -118.43831    2.0778357   -116.36047    38393.248     4.262729     4.262729     4.262729    38393.248   -4563.6192    26165.092    93578.272    2825.6236   -8844.0501    36149.817    77.457447 
   88400    2351.3338   -118.52549    2.1275363   -116.39795    6296.6118    4.2844533    4.2844533    4.2844533    6296.6118   -20033.252    13098.153    25824.934   -6149.5438   -18197.057    19661.834    78.647736 
   88500    1649.8138   -117.87714    1.4927862   -116.38435    37135.391    4.3049001    4.3049001    4.3049001    37135.391   -31877.344     52571.08    90712.435    4366.4045    18281.612   -25179.883    79.779117 
   88600    2055.7838   -118.20645    1.8601164   -116.34634   -24386.517     4.326534     4.326534     4.326534   -24386.517   -82618.102    11441.353   -1982.8014   -13801.009   -17688.416   -1516.3289    80.987944 
   88700    1445.9736   -117.60772    1.3083473   -116.29937   -9336.3318    4.3177541    4.3177541    4.3177541   -9336.3318   -33589.883    11927.221   -6346.3328    5094.6299   -24414.028    -6457.227    80.495892 
   88800    1708.4338   -117.82266    1.5458268   -116.27683    22023.901    4.2894537    4.2894537    4.2894537    22023.901     8888.457    57530.482   -347.23488    4141.4534    36711.569    -42159.89    78.923428 
   88900    1770.3933   -117.93577     1.601889   -116.33389    -1787.517    4.3012447    4.3012447    4.3012447    -1787.517   -82397.292    28208.732    48826.009   -4330.2594   -44718.338     30255.37    79.576062 
   89000    2088.2115   -118.21836    1.8894577   -116.32891   -19601.341    4.3189663    4.3189663    4.3189663   -19601.341    1903.3578   -38576.257   -22131.125   -1207.0013   -38341.863    16847.237    80.563706 
   89100    2196.6708   -118.30189    1.9875939    -116.3143   -3409.5563    4.3291799    4.3291799    4.3291799   -3409.5563    -44335.69   -10257.954    44364.975    11046.806    15703.327   -37569.425     81.13662 
   89200    2453.9152    -118.5137     2.220354   -116.29334   -34203.813    4.3286038    4.3286038    4.3286038   -34203.813    -50857.19   -77905.966    26151.718   -3540.7209    5542.7021   -21673.899    81.104228 
   89300    1776.2005   -117.89307    1.6071436   -116.28593    5375.9288    4.3059151    4.3059151    4.3059151    5375.9288    63972.266   -40342.095   -7502.3838    506.34991   -46827.861    17110.955    79.835564 
   89400    1023.9149   -117.25708   0.92645973   -116.33062    30518.192    4.2977979    4.2977979    4.2977979    30518.192    189597.57   -35560.045   -62482.946    17559.988   -26270.058   -35655.403    79.384912 
   89500    1372.8542   -117.60241    1.2421873   -116.36022    25895.006    4.3138531    4.3138531    4.3138531    25895.006    127454.85    -73029.03    23259.195   -4542.2997   -17677.247   -1728.3207    80.277912 
   89600    1811.5663   -117.97776    1.6391432   -116.33861   -25985.852     4.322711     4.322711     4.322711   -25985.852    3154.2186   -68393.465   -12718.308   -3695.5807   -32426.135    10891.858    80.773447 
   89700    1755.0156   -117.89564     1.587975   -116.30767   -1912.7823    4.3046875    4.3046875    4.3046875   -1912.7823   -16027.052   -5051.9154     15340.62    6075.0312   -6059.0485   -28584.506    79.767301 
   89800    2245.2287   -118.34195    2.0315301   -116.31042    18415.021    4.2933378    4.2933378    4.2933378    18415.021    9787.3489    46844.792   -1387.0784   -2714.2498     519.0785   -3017.6371    79.138021 
   89900    2208.4642   -118.34175    1.9982648   -116.34349    308.09577    4.2936819    4.2936819    4.2936819    308.09577     -6241.54   -5422.6626     12588.49    11405.017   -3777.1516    22989.203    79.157051 
   90000    1946.7806   -118.12653     1.761488   -116.36504    1530.8847    4.3072435    4.3072435    4.3072435    1530.8847    20482.164    12354.819    -28244.33    432.35129   -8487.4207   -1259.1981    79.909475 
   90100    1002.5592   -117.27324   0.90713662    -116.3661    4186.5946    4.3287585    4.3287585    4.3287585    4186.5946   -34688.998   -20336.697    67585.478   -17033.619   -4094.8781   -51649.347    81.112924 
   90200    1830.9939   -117.97406    1.6567217   -116.31734   -19227.386    4.3191864    4.3191864    4.3191864   -19227.386   -64184.876    48564.531   -42061.813    7339.6418    16934.526   -765.89846    80.576026 
   90300    2348.9201   -118.40606    2.1253523   -116.28071    26646.535    4.2856663    4.2856663    4.2856663    26646.535    26451.249    46475.883    7012.4727    14903.728   -5614.4984    3672.5441    78.714556 
   90400    2338.2086   -118.44628    2.1156603   -116.33062     8141.616    4.2975723    4.2975723    4.2975723     8141.616   -23535.063    17772.746    30187.165   -19595.873   -24740.373   -10079.661     79.37241 
   90500     2110.763   -118.24031    1.9098628   -116.33045   -11769.422    4.3075898    4.3075898    4.3075898   -11769.422   -28313.862    6722.6907   -13717.096    18499.696    14988.075    12905.219    79.928752 
   90600    1021.2073   -117.25551   0.92400983    -116.3315    68290.673    4.2921778    4.2921778    4.2921778    68290.673    52308.949    81689.972    70873.097    30690.127    17599.643    9363.8345    79.073889 
   90700    2415.4978   -118.49819    2.1855932   -116.31259   -4171.6646    4.3048021    4.3048021    4.3048021   -4171.6646   -38365.878    10054.881    15796.003   -9524.2056   -25092.901   -1693.9694    79.773672 
   90800    2354.2846   -118.43738    2.1302062   -116.30718    533.20116    4.3052276    4.3052276    4.3052276    533.20116   -23005.329    8932.7792    15672.153    16839.577   -10360.405    11093.439    79.797329 
   90900    1216.5043   -117.42973    1.1007187   -116.32901    33649.657    4.2993972    4.2993972    4.2993972    33649.657    1064.9286    65148.453    34735.589    29428.498    9287.1837    26207.206    79.473568 
   91000    1924.2069    -118.0554    1.7410628   -116.31433    1008.9093    4.3053919    4.3053919    4.3053919    1008.9093    28080.018    5255.0786   -30308.368    2793.3366    -3978.998    2432.2093    79.806462 
   91100    2582.0246   -118.64225    2.3362701   -116.30598   -17697.052    4.3072189    4.3072189    4.3072189   -17697.052    22799.627   -18210.524   -57680.261   -3320.0632   -1650.5487   -12446.451    79.908106 
   91200     1720.399    -117.8724    1.5566531   -116.31575    17080.343     4.309604     4.309604     4.309604    17080.343   -25992.198    57120.428      20112.8    6899.3127      19096.6    10160.267    80.040926 
   91300    1385.4835    -117.5614    1.2536146   -116.30778    32009.771    4.3253203    4.3253203    4.3253203    32009.771    608.33434     111499.2   -16078.226    15068.521   -24901.157    28225.746    80.919806 
   91400    2149.9079   -118.22233    1.9452818   -116.27705   -15478.758     4.320123     4.320123     4.320123   -15478.758   -26468.006   -17030.768   -2937.5006   -8088.8987    3389.0786    4826.9917    80.628453 
   91500    1602.5795   -117.71413    1.4500476   -116.26408    19452.097     4.302043     4.302043     4.302043    19452.097   -22123.974    64486.424     15993.84    24703.794    23194.142   -10914.164    79.620377 
   91600    2107.9035    -118.1877    1.9072754   -116.28042     27404.11    4.3123967    4.3123967    4.3123967     27404.11    20756.906    53216.538    8238.8875    4797.5096   -11063.122    7067.5108    80.196631 
   91700    2269.9626   -118.32529    2.0539099   -116.27138   -25650.621    4.3303662    4.3303662    4.3303662   -25650.621   -52412.026   -74232.211    49692.373    26911.595    10268.776    2163.6815    81.203336 
   91800     2293.121   -118.33954     2.074864   -116.26467   -51217.014    4.3195892    4.3195892    4.3195892   -51217.014   -42314.997   -27505.775   -83830.269    13078.214   -3432.2233    -11657.45    80.598569 
   91900    1659.0664   -117.78883    1.5011581   -116.28767   -5069.1343    4.2846177    4.2846177    4.2846177   -5069.1343   -68459.272    46182.129    7069.7403    17798.123   -35049.444   -4797.0254     78.65679 
   92000    1293.4112   -117.48621    1.1703057    -116.3159    39557.861    4.2684791    4.2684791    4.2684791    39557.861   -28652.416    52883.945    94442.055    52563.368    1616.2576     4093.222    77.771323 
   92100    2076.6638   -118.23597    1.8790091   -116.35696   -19232.927     4.296381     4.296381     4.296381   -19232.927   -68658.147   -19832.285    30791.651   -9013.2376    13850.139     13835.52    79.306424 
   92200    1979.9413   -118.12337    1.7914925   -116.33188   -5338.1497    4.3166734    4.3166734    4.3166734   -5338.1497   -3231.6825   -12372.554   -410.21243    -3602.773   -3812.2318    2831.2158    80.435463 
   92300    1716.2096   -117.87657    1.5528625    -116.3237    6105.0797    4.3168564    4.3168564    4.3168564    6105.0797    29647.775    -37104.81    25772.274    49542.042   -6638.4437   -5811.8491    80.445693 
   92400    2633.9389   -118.69464    2.3832432    -116.3114   -9800.7104    4.3017114    4.3017114    4.3017114   -9800.7104   -14443.117   -9430.3383   -5528.6762   -18850.776   -9653.8218    1643.8748    79.601968 
   92500    1648.1148   -117.82097    1.4912489   -116.32972     70978.87     4.287081     4.287081     4.287081     70978.87    61087.515    103120.87    48728.227    505.05015   -9516.2331   -7262.1495    78.792535 
   92600    1387.1752   -117.64204    1.2551452   -116.38689   -2448.8229    4.3209217    4.3209217    4.3209217   -2448.8229   -48746.068    40408.678    990.92109    44525.022   -10382.724    18192.227    80.673182 
   92700    2464.4897   -118.54461    2.2299221   -116.31469   -34392.053    4.3352694    4.3352694    4.3352694   -34392.053   -85392.287    34874.614   -52658.488   -13070.754    14737.139   -19680.144    81.479481 
   92800    1876.3412   -117.99356     1.697753   -116.29581    -37815.22    4.3137543    4.3137543    4.3137543    -37815.22    -10823.78   -75132.799   -27489.082    23778.442   -6795.1395    1031.7037    80.272391 
   92900    919.01044   -117.14839   0.83153996   -116.31685   -42558.593     4.289563     4.289563     4.289563   -42558.593   -15202.312   -111103.81    -1369.659    57373.911   -6474.9297    10901.127    78.929465 
   93000    2106.4888   -118.22563    1.9059953   -116.31963    45490.936     4.252208     4.252208     4.252208    45490.936    35268.403    81004.195    20200.208    -19648.13     15792.98   -26767.836    76.885333 
   93100    2448.9472   -118.60622    2.2158589   -116.39036    31439.086    4.2694786    4.2694786    4.2694786    31439.086   -22949.349    45803.351    71463.255    9840.9963    11943.849   -4721.0709    77.825968 
   93200    1579.7416   -117.82209    1.4293834    -116.3927    -25251.72    4.3279553    4.3279553    4.3279553    -25251.72   -85997.548   -8803.7763    19046.165    61374.182   -3044.1017    16148.684    81.067781 
   93300    2228.8009   -118.30459    2.0166659   -116.28792   -38575.861    4.3361604    4.3361604    4.3361604   -38575.861   -43814.904   -43746.028   -28166.651   -14857.979     11082.87    29944.302    81.529734 
   93400    1008.7038   -117.17065    0.9126964   -116.25795    34448.293    4.3080641    4.3080641    4.3080641    34448.293    46224.221   -36939.511     94060.17    26283.373   -2301.7687    3439.6082    79.955156 
   93500    1614.7005   -117.73071     1.461015   -116.26969    4573.2233    4.2938459    4.2938459    4.2938459    4573.2233   -35442.554    -41156.87    90319.093    31799.344     2489.955   -16935.518    79.166123 
   93600    2882.6772   -118.89234    2.6083069   -116.28403    16199.055    4.2810405    4.2810405    4.2810405    16199.055    43845.662    -4415.801    9167.3052   -24480.576   -11911.387     153.7024    78.459946 
   93700    1718.5762   -117.91624    1.5550039   -116.36124    6467.1669    4.2969176    4.2969176    4.2969176    6467.1669    4816.1497     5856.914    8728.4368    69081.082    978.58635    6685.6765    79.336141 
   93800    2084.1649   -118.22052    1.8857962   -116.33473   -26300.685    4.3263508    4.3263508    4.3263508   -26300.685   -61813.279    24518.834    -41607.61    3534.4581    1539.0036    1012.6389    80.977654 
   93900    2006.6973   -118.10214    1.8157019   -116.28644   -1254.7873     4.316282     4.316282     4.316282   -1254.7873    3612.4241    40996.117   -48372.903    4982.2057    1847.5867    -16265.28    80.413585 
   94000    1361.3855    -117.5005    1.2318102   -116.26869    22324.133    4.2845359    4.2845359    4.2845359    22324.133    15213.436    10579.843    41179.118    76659.203   -3166.1536    9731.7804    78.652289 
   94100    2606.5911   -118.63622    2.3584984   -116.27772    1360.4184    4.2918438    4.2918438    4.2918438    1360.4184    23298.596    12810.332   -32027.673     -43431.5   -15.730444   -13857.921    79.055431 
   94200    1399.3224   -117.57963    1.2661363   -116.31349    34471.488    4.3067168    4.3067168    4.3067168    34471.488    35927.008   -47587.087    115074.54    53492.927   -16764.889   -10281.109    79.880163 
   94300    2194.8447   -118.28366    1.9859416   -116.29772   -20742.216    4.3267628    4.3267628    4.3267628   -20742.216   -8706.4645   -77169.287    23649.104    18624.286   -4986.5917    11235.777    81.000793 
   94400    2124.9981   -118.17857    1.9227429   -116.25582   -14365.124    4.3204324    4.3204324    4.3204324   -14365.124    21129.488   -41223.578   -23001.282     18968.07   -16289.326    11959.576    80.645779 
   94500    1480.9523   -117.59111    1.3399967   -116.25111    10934.622    4.2989344    4.2989344    4.2989344    10934.622    25430.844   -64589.303    71962.326    44316.606   -1305.4921   -1901.3313    79.447908 
   94600    2433.9361   -118.48406    2.2022765   -116.28179   -9317.2519    4.2913995    4.2913995    4.2913995   -9317.2519   -20417.028   -29711.953    22177.226   -46572.027   -11187.943     4611.371    79.030885 
   94700    1934.3165   -118.07393    1.7502102   -116.32372   -27539.554     4.290193     4.290193     4.290193   -27539.554   -3681.9568   -70641.619    -8295.085    34275.853   -8069.5496   -22065.955    78.964244 
   94800    1635.3937    -117.8261    1.4797386   -116.34636   -25465.526    4.2951456    4.2951456    4.2951456   -25465.526   -52981.206   -33961.664    10546.292    54431.596   -21936.224   -18461.171    79.238032 
   94900    1938.0697   -118.10724    1.7536062   -116.35363   -1782.2516    4.3120342    4.3120342    4.3120342   -1782.2516    30736.518   -28716.826   -7366.4461   -54947.122    8651.3785   -12326.453    80.176405 
   95000    2444.4876   -118.53985    2.2118238   -116.32803   -62388.678    4.3374581    4.3374581    4.3374581   -62388.678   -30524.783   -72562.025   -84079.227    7706.8877    13411.258     -5519.93    81.602955 
   95100    1495.1809   -117.65637    1.3528711    -116.3035    6696.6405    4.3193789    4.3193789    4.3193789    6696.6405    32037.052    17965.705   -29912.836    4173.4648    -17567.73   -19761.102    80.586797 
   95200    1942.6712   -118.02448    1.7577697   -116.26671    38685.806    4.2887314    4.2887314    4.2887314    38685.806    109874.69   -10531.809    16714.541   -35048.435     12529.73    18086.545    78.883569 
   95300    2400.1545   -118.47336    2.1717103   -116.30165   -14805.874    4.3045215    4.3045215    4.3045215   -14805.874    18052.161   -27715.278   -34754.504   -7960.5371    5631.3677   -15579.113    79.758074 
   95400    1939.7236   -118.05195    1.7551027   -116.29684    10213.181    4.3354407    4.3354407    4.3354407    10213.181    39261.459   -31306.919    22685.001   -17524.317   -23142.057   -32902.864    81.489143 
   95500    1963.8248   -118.03978    1.7769099   -116.26287   -30542.335    4.3535617    4.3535617    4.3535617   -30542.335   -16207.801    -69018.65   -6400.5544   -2993.2289   -1921.0311   -5650.6777    82.515229 
   95600    1162.4859   -117.30551    1.0518416   -116.25367   -6496.1824    4.3268829    4.3268829    4.3268829   -6496.1824    56938.256   -67187.753   -9239.0506    -14754.17    14959.655   -58616.776    81.007539 
   95700    2319.9603   -118.31378    2.0991489   -116.21463    26301.306    4.2823457    4.2823457    4.2823457    26301.306    88304.026   -18503.226    9103.1194    20889.019   -972.93196   -8104.7144     78.53173 
   95800     2260.777   -118.34264    2.0455985   -116.29704   -3027.0676     4.293116     4.293116     4.293116   -3027.0676    37775.479   -28368.406   -18488.276    6710.2311   -11094.157   -23478.865    79.125755 
   95900    1319.2045   -117.52258     1.193644   -116.32893   -19591.113    4.3263865    4.3263865    4.3263865   -19591.113    18677.258     -26554.9   -50895.697   -45.482282    11218.117   -68858.996    80.979657 
   96000    2068.8355   -118.15012    1.8719259   -116.27819   -4914.3605    4.3278084    4.3278084    4.3278084   -4914.3605   -31796.837   -20494.352    37548.108   -4481.5056    11770.317    32204.103    81.059529 
   96100    1927.3573   -118.00592    1.7439134     -116.262   -2185.5071    4.3134543    4.3134543    4.3134543   -2185.5071    5219.1543   -55035.606     43259.93   -4804.2989   -24306.481    -20882.82    80.255647 
   96200    1540.3191   -117.67078    1.3937131   -116.27707    22931.606    4.2997981    4.2997981    4.2997981    22931.606    48170.063   -18986.581    39611.336    2869.6771    658.80237   -12803.624    79.495801 
   96300    1948.5322   -118.07656    1.7630729   -116.31348    11189.769    4.3051842    4.3051842    4.3051842    11189.769    16826.922   -29742.925     46485.31   -3670.7361    895.23353    13922.432    79.794915 
   96400    1787.8687   -117.94539    1.6177012   -116.32769   -21323.649    4.3182107    4.3182107    4.3182107   -21323.649    4682.9967   -23239.287   -45414.656   -16054.999    5147.9695   -33417.341    80.521433 
   96500    2283.9745   -118.35915    2.0665882   -116.29256    8473.4384    4.2964072    4.2964072    4.2964072    8473.4384   -1576.5726    7262.1763    19734.711    11143.638    7660.8288   -41601.863    79.307875 
   96600    1679.6276   -117.84324    1.5197623   -116.32348    52549.149    4.2984282    4.2984282    4.2984282    52549.149     35445.56     70014.48    52187.409    7.2495763   -3970.8637    31918.772    79.419845 
   96700    1631.4342   -117.80694     1.476156   -116.33079     1221.294     4.321458     4.321458     4.321458     1221.294   -7067.4357    30590.335   -19859.017   -14859.669   -2190.5226    7513.1917    80.703223 
   96800    1240.1182   -117.44107    1.1220851   -116.31898    50819.531    4.3152943    4.3152943    4.3152943    50819.531    -18044.61    93471.219    77031.986   -3069.6426    199.86888   -51931.356    80.358398 
   96900    2233.0591   -118.32655    2.0205188   -116.30603    9945.8516    4.3087013    4.3087013    4.3087013    9945.8516    3337.3732   -11447.546    37947.728   -6579.8335   -3442.2485    16641.012    79.990637 
   97000    2048.7292   -118.16191    1.8537332   -116.30818   -964.92776    4.2917066    4.2917066    4.2917066   -964.92776   -3128.6355    29147.179   -28913.327   -29953.615    9288.0536    10156.275    79.047854 
   97100    1675.0489   -117.84987    1.5156195   -116.33425    11496.592    4.2759757    4.2759757    4.2759757    11496.592    12765.928   -8282.7285    30006.577   -12682.394   -12058.771   -42239.578    78.181805 
   97200    2098.4179   -118.27017    1.8986926   -116.37148    1730.2238    4.2966561    4.2966561    4.2966561    1730.2238    49521.284   -37627.902   -6702.7103    38649.543   -10006.686   -6048.0736    79.321659 
   97300    2030.0052   -118.19315    1.8367914   -116.35636   -30451.683    4.3257398    4.3257398    4.3257398   -30451.683   -27076.206   -50404.363   -13874.481    -10687.19    11421.609    15168.449    80.943348 
   97400    1699.0663    -117.8575    1.5373509   -116.32015    5234.8221    4.3003347    4.3003347    4.3003347    5234.8221     24841.09   -25441.387    16304.764   -19818.442   -6776.2057   -43220.811    79.525565 
   97500    2251.9755   -118.33961    2.0376348   -116.30198    52870.012     4.286069     4.286069     4.286069    52870.012    115271.62    23040.403    20298.013    11274.175   -24503.493   -5039.4142    78.736749 
   97600    2516.6976   -118.62868    2.2771609   -116.35152   -13054.397    4.3259572    4.3259572    4.3259572   -13054.397    -19444.87    3799.6044   -23517.926    12981.358    17083.161    17468.186    80.955555 
   97700    1098.2301    -117.3175   0.99370164   -116.32379    4390.7311    4.3535971    4.3535971    4.3535971    4390.7311   -11059.848    11315.832     12916.21   -20021.485   -2507.2758    -50131.51    82.517244 
   97800    2268.7481   -118.30031    2.0528109    -116.2475   -41669.225    4.3351567    4.3351567    4.3351567   -41669.225   -81041.958    877.70481   -44843.422   -1375.9274    39.860055    1660.2209    81.473131 
   97900    2051.9078    -118.0954    1.8566093   -116.23879    4798.8075     4.286593     4.286593     4.286593    4798.8075    49260.053   -15966.709   -18896.922   -4101.5814   -18719.562    15813.107     78.76563 
   98000    2003.6055   -118.10261    1.8129044    -116.2897    28076.309    4.2755501    4.2755501    4.2755501    28076.309    60691.829    6631.4167    16905.682   -3973.3581    22772.331    -4567.367    78.158461 
   98100    1736.6706   -117.92378     1.571376    -116.3524    14607.932    4.3080684    4.3080684    4.3080684    14607.932   -15814.542    42771.449    16866.889    17053.619    3079.9941   -30882.754    79.955397 
   98200    1891.4615   -118.04521    1.7114341   -116.33377    8740.6988    4.3290986    4.3290986    4.3290986    8740.6988    83822.743   -28243.766   -29356.881    9620.4342   -17106.092    4825.3898    81.132047 
   98300    2138.3256   -118.24441    1.9348019    -116.3096   -3319.0941    4.3406518    4.3406518    4.3406518   -3319.0941    84526.072   -4077.6855   -90405.669   -8183.4141   -1725.6581    4611.6018    81.783342 
   98400     2414.022   -118.45651    2.1842578   -116.27225    12240.511    4.3220167    4.3220167    4.3220167    12240.511    21593.257    3141.9564    11986.318     23660.15    12139.683   -10278.022    80.734532 
   98500    1974.0728   -118.03544    1.7861826   -116.24926     29449.04    4.2842949    4.2842949    4.2842949     29449.04    124502.49   -9293.0642   -26862.309    6814.1116   -24030.478   -151.69955    78.639015 
   98600    1059.3315   -117.28993   0.95850543   -116.33142   -32200.681    4.2876598    4.2876598    4.2876598   -32200.681   -72621.707    89291.239   -113271.57   -15192.461     42369.72   -11574.388    78.824451 
   98700    2113.3746   -118.26486    1.9122258   -116.35264   -6895.2497     4.288085     4.288085     4.288085   -6895.2497    35885.017   -8236.1705   -48334.596   -8582.2139     55901.98     1786.932    78.847904 
   98800     2622.215    -118.7342    2.3726352   -116.36156    15394.751    4.2960752    4.2960752    4.2960752    15394.751    55084.939    35672.149   -44572.836   -12613.904   -10254.668   -10278.807    79.289491 
   98900    1246.0921   -117.48879    1.1274903    -116.3613    32712.927    4.3128125    4.3128125    4.3128125    32712.927    88109.164     85222.53   -75192.912   -14473.387    33825.193    1237.0443    80.219831 
   99000    1901.2518   -118.03506    1.7202925   -116.31477   -22034.512    4.3312317    4.3312317    4.3312317   -22034.512    21706.164   -28823.955   -58985.745    4365.1299     37131.93    4461.9456    81.252033 
   99100    2616.6323   -118.61923    2.3675839   -116.25165    3135.0266    4.3208044    4.3208044    4.3208044    3135.0266    7957.1509   -3525.3691    4973.2981     2668.696   -9443.3129   -23223.606     80.66661 
   99200    1339.2112   -117.46856    1.2117465   -116.25681    32918.106    4.3011218    4.3011218    4.3011218    32918.106    26761.246    112448.84   -40455.768   -11152.808    46409.932   -6849.3926    79.569244 
   99300    1754.3991   -117.87188    1.5874172   -116.28446    1333.5026    4.2934305    4.2934305    4.2934305    1333.5026   -23332.088    41444.089   -14111.494   -8127.8623     2881.801   -10560.189    79.143147 
   99400    2191.2383   -118.26217    1.9826784    -116.2795    43010.813    4.2777788    4.2777788    4.2777788    43010.813    32189.253    21223.896    75619.289    18522.341    20116.147   -10748.752    78.280749 
   99500    1751.3357   -117.93863    1.5846453   -116.35398   -20404.228    4.3034767    4.3034767    4.3034767   -20404.228   -36343.627    26251.561   -51120.617   -10385.295    66157.474    10291.434    79.700009 
   99600    1899.9669   -118.04427      1.71913   -116.32514   -17334.318    4.3311272    4.3311272    4.3311272   -17334.318   -35832.096    24953.436   -41124.295    5027.6474    447.17947   -16309.727    81.246153 
   99700    2243.8354   -118.29986    2.0302694   -116.26959   -10921.609    4.3276046    4.3276046    4.3276046   -10921.609   -20357.366   -23983.291    11575.831   -5169.7254    8880.5203     3530.588    81.048078 
   99800    1876.7562   -117.95979    1.6981284   -116.26166    11988.857    4.2941991    4.2941991    4.2941991    11988.857    25887.586    43203.793   -33124.809   -8473.4203    24260.525    20095.175    79.185658 
   99900    1988.7724   -118.07429    1.7994831    -116.2748    47678.502    4.2756406    4.2756406    4.2756406    47678.502    44966.298    60011.511    38057.696    1677.4301   -42692.492   -2683.1885    78.163425 
  100000    1976.0558   -118.10773    1.7879768   -116.31976    5134.0232    4.2978218    4.2978218    4.2978218    5134.0232    4932.8538   -24787.044     35256.26    6088.3723    6772.1833    11248.784    79.386236 
Loop time of 221.439 on 1 procs for 100000 steps with 8 atoms

Pair  time (%) = 72.9906 (32.962)
Kspce time (%) = 56.8035 (25.652)
Neigh time (%) = 2.14794 (0.969992)
Comm  time (%) = 12.3449 (5.57487)
Outpt time (%) = 0.309417 (0.13973)
Other time (%) = 76.8425 (34.7014)

Nlocal:    8 ave 8 max 8 min
Histogram: 1 0 0 0 0 0 0 0 0 0
Nghost:    2189 ave 2189 max 2189 min
Histogram: 1 0 0 0 0 0 0 0 0 0
Neighs:    2240 ave 2240 max 2240 min
Histogram: 1 0 0 0 0 0 0 0 0 0

Total # of neighbors = 2240
Ave neighs/atom = 280
Neighbor list builds = 2475
Dangerous builds = 0
unfix 20
unfix 21
print "seeds:6749949"
seeds:6749949
