LAMMPS (10 Feb 2015)
# ---- initialize simulations
clear
units metal
dimension 3
boundary p p p
atom_style charge
atom_modify map array
# ---- create atoms
read_data /Users/eugeneragasa/pyflamestk_git/pypospack/tests/tests_integration/workflow/WorkflowLammpsThermalExpansion/param_9544/MgO_NaCl_unit.npt.T100/lammps.structure
  triclinic box = (0 0 0) to (4.2565 4.2565 4.2565) with tilt (0 0 0)
  1 by 1 by 1 MPI processor grid
  reading atoms ...
  8 atoms
# ---- define interatomic potential
include potential.mod
mass 1 24.305
mass 2 15.999

group Mg type 1
4 atoms in group Mg
group O type 2
4 atoms in group O

set group Mg charge 1.64252902328
  4 settings made for charge
set group O charge -1.64252902328
  4 settings made for charge

variable R_cut equal 10.0

pair_style buck/coul/long ${R_cut}
pair_style buck/coul/long 10
pair_coeff 1 1 0.0 0.5 0.0 ${R_cut}
pair_coeff 1 1 0.0 0.5 0.0 10
pair_coeff 1 2 1425.65456865 0.277130619093 0.0 ${R_cut}
pair_coeff 1 2 1425.65456865 0.277130619093 0.0 10
pair_coeff 2 2 8710.58674493 0.211543782712 -4.62088168449 ${R_cut}
pair_coeff 2 2 8710.58674493 0.211543782712 -4.62088168449 10

kspace_style pppm 1.0e-5

neighbor 1.0 bin
neigh_modify every 1 delay 0 check yes
# ---- define settings
compute eng all pe/atom
compute eatoms all reduce sum c_eng
# ---- run minimization
reset_timestep 0
fix 1 all box/relax iso 0.0 vmax 0.001
thermo 10
thermo_style custom step pe lx ly lz xy xz yz press pxx pyy pzz pxy pxz pyz c_eatoms
min_style cg
minimize 1e-25 1e-25 5000 10000
PPPM initialization ...
  G vector (1/distance) = 0.352708
  grid = 8 8 8
  stencil order = 5
  estimated absolute RMS force accuracy = 3.89813e-05
  estimated relative force accuracy = 2.7071e-06
  using double precision FFTs
  3d grid and FFT values/proc = 3375 512
Neighbor list info ...
  1 neighbor list requests
  update every 1 steps, delay 0 steps, check yes
  master list distance cutoff = 11
Memory usage per processor = 4.06549 Mbytes
Step PotEng Lx Ly Lz Xy Xz Yz Press Pxx Pyy Pzz Pxy Pxz Pyz eatoms 
       0   -111.38871       4.2565       4.2565       4.2565            0            0            0   -14022.103   -14022.103   -14022.103   -14022.103 -1.0617953e-11 -7.0203049e-11 5.2505523e-12   -111.38871 
       6    -111.3915    4.2448057    4.2448057    4.2448057            0            0            0    11.870105    11.870105    11.870105    11.870105 -3.2023954e-10 4.899455e-11 2.2757866e-10    -111.3915 
Loop time of 0.0151882 on 1 procs for 6 steps with 8 atoms

Minimization stats:
  Stopping criterion = linesearch alpha is zero
  Energy initial, next-to-last, final = 
        -111.388714234     -111.391500014     -111.391500014
  Force two-norm initial, final = 2.0248 0.00171153
  Force max component initial, final = 2.0248 0.00170464
  Final line search alpha, max atom move = 0.00229153 3.90625e-06
  Iterations, force evaluations = 6 44

Pair  time (%) = 0.00413537 (27.2275)
Kspce time (%) = 0.00238991 (15.7353)
Neigh time (%) = 0 (0)
Comm  time (%) = 0.000451326 (2.97156)
Outpt time (%) = 0 (0)
Other time (%) = 0.00821161 (54.0657)

Nlocal:    8 ave 8 max 8 min
Histogram: 1 0 0 0 0 0 0 0 0 0
Nghost:    2189 ave 2189 max 2189 min
Histogram: 1 0 0 0 0 0 0 0 0 0
Neighs:    2344 ave 2344 max 2344 min
Histogram: 1 0 0 0 0 0 0 0 0 0

Total # of neighbors = 2344
Ave neighs/atom = 293
Neighbor list builds = 0
Dangerous builds = 0
unfix 1
# ---- define output variables ----
variable natoms equal "count(all)"
variable tot_energy equal "c_eatoms"
variable length_x equal "lx"
variable length_y equal "ly"
variable length_z equal "lz"
variable tilt_xy equal "xy"
variable tilt_xz equal "xz"
variable tilt_yz equal "yz"
variable tot_press equal "press"
variable press_xx equal "pxx"
variable press_yy equal "pyy"
variable press_zz equal "pzz"
variable press_xy equal "pxy"
variable press_xz equal "pxz"
variable press_yz equal "pyz"

# ---- output ----
print "pypospack:output_section:begin"
pypospack:output_section:begin
print "tot_energy = ${tot_energy}"
tot_energy = -111.391500014071
print "num_atoms = ${natoms}"
num_atoms = 8
print "xx = ${length_x}"
xx = 4.24480566540602
print "yy = ${length_y}"
yy = 4.24480566540602
print "zz = ${length_z}"
zz = 4.24480566540602
print "xy = ${tilt_xy}"
xy = 0
print "xz = ${tilt_xz}"
xz = 0
print "yz = ${tilt_yz}"
yz = 0
print "tot_press = ${tot_press}"
tot_press = 11.8701047091937
print "pxx = ${press_xx}"
pxx = 11.8701047092997
print "pyy = ${press_yy}"
pyy = 11.8701047087814
print "pzz = ${press_zz}"
pzz = 11.8701047094999
print "pxy = ${press_xy}"
pxy = -3.20239539923879e-10
print "pxz = ${press_xz}"
pxz = 4.8994550277695e-11
print "pyz = ${press_yz}"
pyz = 2.27578662531736e-10
print "pypospack:output_section:done"
pypospack:output_section:done
print "pypospack:lammps_sim:done"
pypospack:lammps_sim:done
#------------------------------------------------------------------------------
# RUN THERMOSTAT
# running using an NPT Nose-Hoover style thermostat
#------------------------------------------------------------------------------
variable tempdamp equal 0.1
variable pressdamp equal 1.0
# set initial velocities
velocity all create 100 9044895 mom yes dist gaussian loop all
# fix for Nose-Hoover style thermostat
fix 20 all npt temp 100 100 0.1 aniso 0.0 0.0 1.0 drag 1.0 couple xyz
variable boxx equal lx
variable boxy equal ly
variable boxz equal lz
variable boxp equal press
variable boxt equal temp
# calculate averages every 10000 steps
reset_timestep 0
fix 21 all ave/time 10 10 100 v_boxx v_boxy v_boxz v_boxp v_boxt file lattice.out
thermo_style custom step temp pe ke etotal press lx ly lz press pxx pyy pzz pxy pxz pyz vol
thermo_modify flush yes
thermo 100
run 100000
PPPM initialization ...
  G vector (1/distance) = 0.352825
  grid = 8 8 8
  stencil order = 5
  estimated absolute RMS force accuracy = 3.87738e-05
  estimated relative force accuracy = 2.69269e-06
  using double precision FFTs
  3d grid and FFT values/proc = 3375 512
Memory usage per processor = 3.06549 Mbytes
Step Temp PotEng KinEng TotEng Press Lx Ly Lz Press Pxx Pyy Pzz Pxy Pxz Pyz Volume 
       0          100    -111.3915  0.090482102   -111.30102    1275.5863    4.2448057    4.2448057    4.2448057    1275.5863    1572.1938    1230.1459    1024.4191   -576.27337    1002.0004   -792.84324    76.484501 
     100    46.688252   -111.32995  0.042244512   -111.28771    3885.3755    4.2459232    4.2459232    4.2459232    3885.3755    6281.0709    2873.4887     2501.567   -234.30627   -798.86644   -419.57766    76.544928 
     200    81.209072   -111.33728  0.073479675    -111.2638    224.04279    4.2472937    4.2472937    4.2472937    224.04279    435.81486   -63.802086     300.1156    849.44794   -268.81694    189.14336    76.619073 
     300    59.347559   -111.29576  0.053698919   -111.24206    4022.6067    4.2470488    4.2470488    4.2470488    4022.6067    3516.8325    5181.0955    3369.8921    343.01634   -1867.7874    1137.6288    76.605818 
     400    108.81053   -111.32453  0.098454055   -111.22607    1030.4434    4.2497927    4.2497927    4.2497927    1030.4434    255.86791    1581.1429    1254.3195    339.89264   -740.97031     1117.295    76.754395 
     500    73.609682   -111.28234  0.066603587   -111.21573   -244.15455    4.2498488    4.2498488    4.2498488   -244.15455   -2188.8568    1958.6436   -502.25048   -519.39026   -1475.3881   -33.247474    76.757431 
     600    66.459724   -111.27109  0.060134155   -111.21096   -1355.9399     4.250112     4.250112     4.250112   -1355.9399   -1209.1745   -820.17167   -2038.4735    66.466686   -2850.8335    160.10684    76.771692 
     700     156.7302   -111.35056   0.14181278   -111.20874   -4964.8968    4.2523112    4.2523112    4.2523112   -4964.8968   -3180.0798   -6368.8191   -5345.7916    187.30287     1205.952   -375.81154     76.89093 
     800    102.47398   -111.30202  0.092720614    -111.2093   -475.27866    4.2503415    4.2503415    4.2503415   -475.27866    1222.4052    549.16478   -3197.4059   -317.00726   -1417.4409   -346.11785    76.784132 
     900    124.01746   -111.32219    0.1122136   -111.20998    -5026.146    4.2515111    4.2515111    4.2515111    -5026.146   -3821.3896   -5131.5125   -6125.5359   -60.182941    13.932681   -840.54144    76.847539 
    1000     35.88199   -111.24367  0.032466779    -111.2112    2380.1535    4.2514522    4.2514522    4.2514522    2380.1535    6309.6137   -253.07718    1083.9239    27.544491   -1585.1744   -403.84444    76.844342 
    1100    131.74131   -111.32921   0.11920231      -111.21   -206.19295    4.2496596    4.2496596    4.2496596   -206.19295   -1427.6678    191.05044    618.03845    808.58778    51.350207    1413.4356     76.74718 
    1200     50.54445   -111.25628  0.045733681   -111.21055    3966.1412    4.2503906    4.2503906    4.2503906    3966.1412    4548.4484    4114.6451    3235.3301    769.08225   -1388.0672    1275.0815    76.786793 
    1300    73.458128   -111.27753  0.066466458   -111.21106   -1586.8688    4.2512556    4.2512556    4.2512556   -1586.8688   -1775.2388   -3678.2943    692.92668    1020.8432   -1270.0799    582.32123    76.833684 
    1400    84.072224   -111.28675  0.076070315   -111.21068   -891.22328    4.2494207    4.2494207    4.2494207   -891.22328   -1529.7965   -1549.3742    405.50089   -989.29426   -1075.0759   -177.07617    76.734238 
    1500     134.1996   -111.33136   0.12142662   -111.20993   -2404.0399    4.2512133    4.2512133    4.2512133   -2404.0399   -1241.5279   -3149.9232   -2820.6685    -536.9083    -80.07546   -1179.7172    76.831389 
    1600    127.87619   -111.32583   0.11570507   -111.21013   -4192.1806    4.2507746    4.2507746    4.2507746   -4192.1806   -4567.6365   -3159.3395   -4849.5657   -990.53965    103.11861   -699.23529    76.807605 
    1700    62.590566   -111.26737   0.05663326   -111.21074   -874.48295    4.2493676    4.2493676    4.2493676   -874.48295   -392.30746    87.419174   -2318.5606     135.3291   -2758.3887   -273.70089    76.731364 
    1800     122.7906   -111.32133   0.11110352   -111.21023   -1334.1917    4.2508139    4.2508139    4.2508139   -1334.1917   -339.13476   -1758.4717   -1904.9687    522.32149    160.27038     970.1439    76.809736 
    1900    77.356846    -111.2804    0.0699941    -111.2104    5057.7447    4.2485685    4.2485685    4.2485685    5057.7447    4313.5882    6576.4783    4283.1676    213.58669   -2060.8819    1365.1611    76.688084 
    2000    100.88698    -111.3019  0.091284664   -111.21061    1020.2696    4.2491695    4.2491695    4.2491695    1020.2696    506.92021    765.16425    1788.7244    111.67475   -658.48931    275.74758    76.720632 
    2100     50.04972   -111.25627  0.045286038   -111.21098    3413.7171     4.250397     4.250397     4.250397    3413.7171    5825.4464    526.01812    3889.6869   -337.81766   -1612.9257    186.09442     76.78714 
    2200     147.6189   -111.34357   0.13356869      -111.21   -227.86321    4.2490656    4.2490656    4.2490656   -227.86321    300.03497   -1938.1217     954.4971     517.6413    376.58128    17.665729    76.715004 
    2300    136.34355   -111.33341   0.12336651   -111.21004    249.76481    4.2498635    4.2498635    4.2498635    249.76481    2117.8016   -1090.4554   -278.05174   -927.62655    291.03848   -248.82733     76.75823 
    2400    120.85611   -111.31971   0.10935314   -111.21035   -2961.7123    4.2514202    4.2514202    4.2514202   -2961.7123   -893.19009   -5024.8394   -2967.1074     361.8608   -879.32308   -1545.2188    76.842607 
    2500    105.59164   -111.30618  0.095541537   -111.21064   -1859.8188    4.2497999    4.2497999    4.2497999   -1859.8188   -3228.6477   -1307.2288   -1043.5798   -1754.5057    112.58986     -839.678     76.75478 
    2600    111.16107   -111.31093   0.10058087   -111.21035     700.2703    4.2503843    4.2503843    4.2503843     700.2703    329.38283     754.8176    1016.6105    772.72802   -1497.0208     1261.531    76.786453 
    2700    106.00759   -111.30618  0.095917891   -111.21027      138.603    4.2505777    4.2505777    4.2505777      138.603   -2042.4103   -284.10805    2742.3274    868.58865    194.42442    1816.9848    76.796936 
    2800    48.617495   -111.25487  0.043990131   -111.21087    1367.6135    4.2493994    4.2493994    4.2493994    1367.6135   -1305.5859    2058.5656    3349.8609    509.77955   -3241.6094    1452.6098    76.733084 
    2900    105.36854   -111.30586  0.095339674   -111.21052   -1512.0634    4.2513523    4.2513523    4.2513523   -1512.0634   -52.264922   -3556.8141   -927.11117   -113.51666   -193.26156   -539.88495    76.838927 
    3000    119.28634    -111.3179   0.10793278   -111.20997    486.48914     4.250229     4.250229     4.250229    486.48914    2294.8985   -1106.0998    270.66871   -1208.2194   -95.668701   -406.38448    76.778034 
    3100    137.30503    -111.3343   0.12423648   -111.21006   -2527.2957    4.2498249    4.2498249    4.2498249   -2527.2957    630.50621   -4263.3295   -3949.0639    179.88119    -551.5465   -596.90832    76.756137 
    3200     85.18121   -111.28768  0.077073749   -111.21061   -1121.0048    4.2515257    4.2515257    4.2515257   -1121.0048    3195.2117   -3447.8636   -3110.3624   -299.22148   -169.83487   -1063.2391     76.84833 
    3300    113.15929   -111.31277   0.10238891   -111.21038   -258.14599    4.2499458    4.2499458    4.2499458   -258.14599    1218.5915   -1997.0622    4.0327773    646.80161   -1062.9753   -52.933452    76.762688 
    3400    96.313316   -111.29744  0.087146313   -111.21029    2706.4027    4.2491684    4.2491684    4.2491684    2706.4027    2986.1997    393.38256     4739.626   -555.45222    441.84844    650.96266    76.720573 
    3500    62.345779   -111.26712  0.056411771    -111.2107     1589.845    4.2507103    4.2507103    4.2507103     1589.845   -52.345103     442.6076    4379.2726    831.63032   -1562.7055     1174.004    76.804119 
    3600    55.315714   -111.26094   0.05005082   -111.21089    358.09793    4.2495409    4.2495409    4.2495409    358.09793   -2796.4901     -217.387    4088.1709   -552.77832   -449.64299    1021.6535    76.740752 
    3700    93.944891   -111.29534  0.085003311   -111.21034   -523.18555    4.2503177    4.2503177    4.2503177   -523.18555   -1749.3531    -1210.485    1390.2815    248.01735   -1042.4511    368.48177    76.782841 
    3800    129.79856   -111.32739   0.11744447   -111.20994    -3135.881    4.2511448    4.2511448    4.2511448    -3135.881   -1611.7477    -5314.113   -2481.7823   -394.61686    704.26808   -167.05578    76.827675 
    3900    93.466578     -111.295  0.084570524   -111.21043   -3115.1948    4.2496527    4.2496527    4.2496527   -3115.1948   -3270.1018   -2749.1065   -3326.3759   -1171.7109   -1381.0853   -1027.0758    76.746808 
    4000    104.09248   -111.30454  0.094185061   -111.21036   -3335.6817    4.2512552    4.2512552    4.2512552   -3335.6817    57.500234   -5397.1697   -4667.3757   -587.42916   -910.91581   -1613.8742    76.833659 
    4100    100.77334   -111.30162  0.091181834   -111.21044    1109.6219    4.2504554    4.2504554    4.2504554    1109.6219    2941.5564   -1054.0137     1441.323   -653.69258   -62.645919    503.90058    76.790307 
    4200    98.054624   -111.29907  0.088721884   -111.21035    2422.5413    4.2485726    4.2485726    4.2485726    2422.5413     2447.685    1209.9831    3609.9558    1433.7599   -985.83957    1393.5544    76.688302 
    4300    48.615319    -111.2549  0.043988163   -111.21091    3742.1283    4.2502749    4.2502749    4.2502749    3742.1283     4228.978    2174.7529     4822.654   -163.66429   -891.37714    1640.8969    76.780521 
    4400    84.698084   -111.28725  0.076636606   -111.21061    2020.7996    4.2501286    4.2501286    4.2501286    2020.7996    1215.4097     1433.756    3413.2332    580.30454   -1052.1288    201.12264    76.772593 
    4500    125.54733   -111.32359   0.11359786      -111.21    991.84717    4.2493823    4.2493823    4.2493823    991.84717    1577.9383   -398.31088    1795.9141     -1852.59    927.00098   -2.5790951    76.732159 
    4600     129.8741   -111.32764   0.11751281   -111.21013   -1781.8608    4.2512727    4.2512727    4.2512727   -1781.8608   -832.03802   -2192.5992    -2320.945    345.56772   -189.99937   -303.89104    76.834611 
    4700    113.52883   -111.31308   0.10272327   -111.21036   -3304.5999    4.2503677    4.2503677    4.2503677   -3304.5999   -2476.6224   -4965.7998   -2471.3774   -444.64633    237.89388   -605.71427     76.78555 
    4800    120.67409    -111.3195   0.10918845   -111.21031   -2552.3218     4.250483     4.250483     4.250483   -2552.3218    -3097.452   -3307.9231   -1251.5905   -530.72424   -1450.3994     -528.341    76.791803 
    4900    126.87265   -111.32486   0.11479704   -111.21006    -1225.641    4.2514004    4.2514004    4.2514004    -1225.641   -1324.2525   -2753.7918    401.12131     233.1317   -87.877849   -215.12456    76.841533 
    5000    73.132248   -111.27673  0.066171595   -111.21056    1683.2208    4.2491273    4.2491273    4.2491273    1683.2208   -1611.2016    1836.6516    4824.2125   -1139.6682   -1292.7035    1526.2684    76.718346 
    5100    75.873851   -111.27947  0.068652255   -111.21081    820.51835    4.2500315    4.2500315    4.2500315    820.51835   -197.31491    374.68201     2284.188    1232.1211    -1565.575    1364.1019    76.767332 
    5200    94.926162   -111.29621  0.085891186   -111.21032    1958.7659     4.250886     4.250886     4.250886    1958.7659    2086.9751    2334.9284    1454.3942   -521.68757    558.99617    1431.0685    76.813645 
    5300    136.22748   -111.33314   0.12326148   -111.20987    326.95876     4.249272     4.249272     4.249272    326.95876    1148.4725    756.44632   -924.04254    431.54653   -736.81737    10.161367    76.726185 
    5400    107.95749     -111.308  0.097682201   -111.21032   -141.17439    4.2504542    4.2504542    4.2504542   -141.17439    4626.8951    -2544.633   -2505.7853   -1411.6206    410.63005   -1312.1472    76.790242 
    5500    118.34843   -111.31727   0.10708415   -111.21019   -1339.7742    4.2508378    4.2508378    4.2508378   -1339.7742    1647.6725   -3042.5793   -2624.4157   -163.19002   -991.76176   -1142.5663    76.811035 
    5600    125.56941   -111.32377   0.11361784   -111.21015    304.28429    4.2495176    4.2495176    4.2495176    304.28429    1977.5327   -1516.9033    452.22347   -271.65787    913.07449   -80.543474    76.739486 
    5700    96.314697    -111.2974  0.087147561   -111.21026    1124.2882    4.2507395    4.2507395    4.2507395    1124.2882    490.07407    -596.9405    3479.7311    484.18089    -665.9968    817.47401    76.805704 
    5800    61.654346   -111.26647  0.055786148   -111.21068    545.12634    4.2499968    4.2499968    4.2499968    545.12634   -1162.4473   -1476.4151    4274.2414    142.99586   -1020.9386     949.5447    76.765451 
    5900    60.658035   -111.26553  0.054884665   -111.21065    773.36388    4.2494305    4.2494305    4.2494305    773.36388   -3261.6586    1803.0228    3778.7275   -1202.8096   -910.84176    695.60091     76.73477 
    6000    111.47533    -111.3109   0.10086523   -111.21003   -1927.0714    4.2517002    4.2517002    4.2517002   -1927.0714   -3411.6281   -870.67906   -1498.9069    6.6182722    121.70171    944.68175    76.857793 
    6100    87.798147   -111.28984  0.079441608    -111.2104   -1789.8656    4.2501369    4.2501369    4.2501369   -1789.8656   -1783.7586   -2016.0872   -1569.7509   -1264.8548    1005.9705    496.01344    76.773046 
    6200    103.63089   -111.30418  0.093767403   -111.21041   -4098.1318    4.2501679    4.2501679    4.2501679   -4098.1318   -1757.9529   -5166.6279   -5369.8145    483.69898   -1607.8969   -1188.3357    76.774722 
    6300    104.71158   -111.30509  0.094745242   -111.21035    -1522.687    4.2515314    4.2515314    4.2515314    -1522.687     1835.273   -2349.0559   -4054.2782   -836.97893    279.78095   -954.37195     76.84864 
    6400    118.76246   -111.31749   0.10745877   -111.21003    293.86635    4.2496374    4.2496374    4.2496374    293.86635    1467.3592   -976.57516    390.81504    409.68853    -802.4795   -688.95312    76.745981 
    6500    72.804452   -111.27635  0.065874998   -111.21047    2481.4284    4.2496357    4.2496357    4.2496357    2481.4284    4449.6125   -56.561549    3051.2343   -628.40859   -362.43524    945.38451    76.745885 
    6600    58.254856   -111.26347  0.052710218   -111.21076     3189.734    4.2502425    4.2502425    4.2502425     3189.734    2677.3367    1984.2562    4907.6091    393.29528   -942.81957    879.17025    76.778765 
    6700    95.249415   -111.29649  0.086183673   -111.21031    2799.7678    4.2487805    4.2487805    4.2487805    2799.7678    1667.3158    3148.6213    3583.3662   -249.85639    352.19961    1363.8559    76.699562 
    6800    101.24586   -111.30185   0.09160938   -111.21024    1148.3338    4.2505819    4.2505819    4.2505819    1148.3338    1015.2143    981.49755    1448.2895   -563.68465    258.89575    513.70926    76.797162 
    6900    116.97137   -111.31618   0.10583815   -111.21035   -3231.9547    4.2508983    4.2508983    4.2508983   -3231.9547   -1762.9476   -4196.6109   -3736.3056   -446.14214   -121.77589   -824.19258     76.81431 
    7000    95.969352    -111.2973  0.086835087   -111.21047   -1837.5538    4.2491306    4.2491306    4.2491306   -1837.5538   -1666.7171   -2009.4344   -1836.5099   -2531.0464   -655.48127   -1107.0524    76.718524 
    7100    150.08308   -111.34573   0.13579833   -111.20993   -4184.7338    4.2515984    4.2515984    4.2515984   -4184.7338   -3605.8331   -4197.5026   -4750.8658    1380.9354    151.78096   -415.37619    76.852269 
    7200    98.048588    -111.2991  0.088716423   -111.21038   -645.11207    4.2504095    4.2504095    4.2504095   -645.11207   -1424.6811   -893.14805    382.49293   -820.06846    256.04917    834.74392    76.787818 
    7300    88.704253   -111.29079  0.080261472   -111.21053   -210.25399    4.2490337    4.2490337    4.2490337   -210.25399   -2484.8719   -771.56979    2625.6797    717.02031   -2267.3819    242.58117    76.713274 
    7400    76.589595   -111.27997  0.069299875   -111.21067    2787.6031    4.2503178    4.2503178    4.2503178    2787.6031    1650.5817    3644.8921    3067.3355   -1557.5914   -201.41876    482.73615    76.782846 
    7500    114.59379   -111.31393   0.10368687   -111.21024    2323.6542    4.2493435    4.2493435    4.2493435    2323.6542    2354.6635    1878.6079    2737.6911   -423.93293    423.16967    1507.3286    76.730055 
    7600    112.91054   -111.31251   0.10216383   -111.21035    1540.9387    4.2495719    4.2495719    4.2495719    1540.9387    2777.2567    2209.2428   -363.68331    155.20653     1229.537    787.66001    76.742428 
    7700    102.82755   -111.30339  0.093040529   -111.21035     879.8397    4.2507872    4.2507872    4.2507872     879.8397    5177.8366    -1282.866   -1255.4515   -733.71102    -700.5133   -613.19625    76.808291 
    7800    143.65559   -111.33989    0.1299826   -111.20991   -1134.3461    4.2493007    4.2493007    4.2493007   -1134.3461     2148.426   -2243.8832   -3307.5812   -105.60013   -314.97492   -1800.6813    76.727739 
    7900    114.70843   -111.31388    0.1037906   -111.21009    200.65663     4.250447     4.250447     4.250447    200.65663    1990.0788   -477.21941   -910.88949   -1595.1326    366.78855   -556.75655    76.789851 
    8000    113.25896   -111.31266   0.10247908   -111.21018   -2254.8489    4.2516125    4.2516125    4.2516125   -2254.8489   -2933.5816   -2693.1138   -1137.8512    1157.4466   -341.01276    1019.8697    76.853037 
    8100    55.516269   -111.26105  0.050232286   -111.21082     1218.728    4.2488845    4.2488845    4.2488845     1218.728   -1277.2179   -42.370892    4975.7727   -1530.5705    -109.2555    644.35119    76.705193 
    8200    99.339803   -111.30021  0.089884741   -111.21032   -1429.1246    4.2507042    4.2507042    4.2507042   -1429.1246   -4047.1667   -1750.9576    1510.7505    89.813793   -391.40534    952.31396    76.803793 
    8300    81.999285   -111.28449  0.074194677   -111.21029   -670.87605    4.2511967    4.2511967    4.2511967   -670.87605   -2866.5491    1295.1724   -441.25147   -1398.7382    1823.5162    801.83826     76.83049 
    8400      89.5006    -111.2915  0.080982024   -111.21052   -2100.6245    4.2499012    4.2499012    4.2499012   -2100.6245   -2454.3793   -3187.4706   -660.02357   -888.44635   -902.79612    113.90842     76.76027 
    8500    102.59178   -111.30315  0.092827196   -111.21033   -2221.8754    4.2512707    4.2512707    4.2512707   -2221.8754    197.77907   -2383.4704   -4479.9348    -236.3685   -76.681056   -637.83177    76.834504 
    8600     112.6317   -111.31198   0.10191152   -111.21006   -436.94574    4.2499765    4.2499765    4.2499765   -436.94574    4282.8006   -2531.4704   -3062.1673   -218.23104    312.89184   -832.30886     76.76435 
    8700    119.94783   -111.31859   0.10853131   -111.21005    -615.0576    4.2497877    4.2497877    4.2497877    -615.0576   -103.62141    978.81305   -2720.3644    878.99924   -225.01405    172.54904    76.754122 
    8800    58.612122   -111.26358   0.05303348   -111.21054    2686.1614    4.2510753    4.2510753    4.2510753    2686.1614    6173.2288   -1087.5912    2972.8467   -628.11008   -1021.6698   -175.94648    76.823906 
    8900    99.851163    -111.3005  0.090347431   -111.21015    1302.8623    4.2487387    4.2487387    4.2487387    1302.8623    1931.3769   -930.55461    2907.7646    224.28635   -705.79487    306.87301      76.6973 
    9000    66.968524   -111.27092  0.060594528   -111.21033    4153.7772    4.2487774    4.2487774    4.2487774    4153.7772    3800.1571    2771.5888    5889.5857   -1777.2283    1521.3586    1399.0133    76.699392 
    9100    97.838138   -111.29895  0.088526003   -111.21042    -994.5517    4.2516149    4.2516149    4.2516149    -994.5517   -942.81234   -1931.8975   -108.94525    536.79649    1352.6545    1117.7316    76.853165 
    9200    76.371525   -111.27964   0.06910256   -111.21053   -1200.8036    4.2493051    4.2493051    4.2493051   -1200.8036   -688.43977   -3060.0244    146.05346   -2489.6178   -238.33008    -74.22354    76.727976 
    9300    119.36151   -111.31818    0.1080008   -111.21018   -3105.7328     4.250138     4.250138     4.250138   -3105.7328   -1663.4505    -4806.552   -2847.1958   -53.686772   -826.87049    -1600.235    76.773106 
    9400    129.61784   -111.32748   0.11728094    -111.2102   -2941.3641    4.2507956    4.2507956    4.2507956   -2941.3641   -2760.6354   -1214.5904   -4848.8664   -857.61002    607.10576   -554.39321    76.808745 
    9500    94.043563   -111.29565  0.085092592   -111.21056   -1162.6731    4.2491843    4.2491843    4.2491843   -1162.6731   -407.75359   -3139.6164    59.350593    -402.3226   -648.99468     645.1167    76.721433 
    9600      111.859   -111.31166   0.10121237   -111.21044   -1552.8785    4.2509263    4.2509263    4.2509263   -1552.8785   -2780.1842   -1493.7951   -384.65623     576.7056   -234.22292    304.86144     76.81583 
    9700    74.004088   -111.27747  0.066960454   -111.21051    4775.8003    4.2490322    4.2490322    4.2490322    4775.8003     7768.361    1508.9873    5050.0527   -1573.8213     497.3008    968.46134    76.713193 
    9800    123.84701   -111.32207   0.11205938   -111.21001    2205.8663    4.2481867    4.2481867    4.2481867    2205.8663    631.54517    2600.0674    3385.9865     744.0831    1363.8408    599.24002    76.667409 
    9900    68.458125   -111.27245   0.06194235   -111.21051     3518.792    4.2510026    4.2510026    4.2510026     3518.792    8246.3372   -407.33818     2717.377    -2427.433    240.91545     748.2594    76.819966 
   10000    131.57025   -111.32927   0.11904753   -111.21022   -826.82879    4.2499622    4.2499622    4.2499622   -826.82879    1817.6949   -2099.1312     -2199.05    745.83976    162.78162   -87.976823    76.763577 
   10100    117.72367   -111.31677   0.10651885   -111.21025    1056.8414    4.2486693    4.2486693    4.2486693    1056.8414    3515.3338    -423.3636    78.553917   -1233.6418    727.31116   -794.07322     76.69354 
   10200    133.16208   -111.33057   0.12048785   -111.21008   -2724.4818    4.2516497    4.2516497    4.2516497   -2724.4818   -1.1624948   -4302.2456   -3870.0374    171.06959   -335.18826   -456.53204    76.855053 
   10300    112.82462   -111.31265   0.10208609   -111.21056   -3583.8766    4.2504422    4.2504422    4.2504422   -3583.8766   -3936.0132   -5049.5662   -1766.0502    -867.8213   -904.19933   -1158.4464    76.789587 
   10400    84.106746    -111.2867  0.076101551    -111.2106   -583.75844    4.2504007    4.2504007    4.2504007   -583.75844   -1385.4965   -3168.3334    2802.5546   -1639.1225   -623.96218    283.85357    76.787338 
   10500    115.47736   -111.31479   0.10448634   -111.21031   -1752.4819    4.2512247    4.2512247    4.2512247   -1752.4819   -2766.0413   -2803.6832    312.27885    810.93679    2498.2759     1462.472    76.832006 
   10600    51.083016   -111.25692  0.046220986    -111.2107    2362.3751    4.2485515    4.2485515    4.2485515    2362.3751    3685.0419   -829.35377    4231.4372   -2575.7529    1209.9193    1396.2846    76.687163 
   10700    118.38786    -111.3173   0.10711982   -111.21018   -2745.9531    4.2515548    4.2515548    4.2515548   -2745.9531   -3536.0652   -2496.3566   -2205.4374   -421.07643   -326.39116    211.77088    76.849906 
   10800    72.469111   -111.27591  0.065571574   -111.21034    2206.0592    4.2509334    4.2509334    4.2509334    2206.0592    8314.4228   -245.69586   -1450.5493   -1355.1679    77.985703   -760.57591    76.816216 
   10900    142.52181   -111.33882   0.12895673   -111.20987   -1912.6234    4.2485767    4.2485767    4.2485767   -1912.6234    -979.3986   -1365.3879   -3393.0837    638.20295    645.26957   -148.54352    76.688525 
   11000    88.851223   -111.29078  0.080394454   -111.21039    410.76191    4.2510436    4.2510436    4.2510436    410.76191    6112.9427   -3256.3195   -1624.3376   -187.21633   -378.06656   -252.01361    76.822191 
   11100    112.87803   -111.31222   0.10213441   -111.21009   -1091.2374    4.2509793    4.2509793    4.2509793   -1091.2374    1010.0071   -2675.7549   -1607.9644   -202.94652    -557.1002   -913.46279    76.818701 
   11200    89.847523    -111.2917  0.081295927    -111.2104    1060.1039    4.2489744    4.2489744    4.2489744    1060.1039    1694.2671   -2024.7098    3510.7545   -755.93581    642.62733    140.36269    76.710061 
   11300    64.736835   -111.26912  0.058575249   -111.21054    1591.6852    4.2506166    4.2506166    4.2506166    1591.6852    3597.3566   -2179.6495    3357.3485   -804.02245    1858.2887    918.60811     76.79904 
   11400    92.822847   -111.29432  0.083988063   -111.21033   -865.75276    4.2492895    4.2492895    4.2492895   -865.75276   -1172.4836   -2772.9425    1348.1679   -935.69441   -124.73228    1239.4438    76.727129 
   11500    56.544614   -111.26179  0.051162755   -111.21063    1562.0791      4.24967      4.24967      4.24967    1562.0791    1514.9681    664.36847    2506.9008   -2051.0835    139.79353    789.60375    76.747746 
   11600    133.89168   -111.33116   0.12114801   -111.21001    -4493.306    4.2520553    4.2520553    4.2520553    -4493.306   -3180.5308   -4072.2104   -6227.1769    527.98836    1185.5516    122.67764    76.877051 
   11700    72.381022   -111.27591  0.065491869   -111.21042    696.92533    4.2481763    4.2481763    4.2481763    696.92533     3637.295   -515.09413   -1031.4248   -1711.5276    386.49896    255.54468    76.666844 
   11800    144.44521    -111.3407   0.13069706      -111.21   -3411.7465     4.250266     4.250266     4.250266   -3411.7465   -3490.0566   -3388.1082   -3357.0746    749.46103   -1010.1376   -1555.3075     76.78004 
   11900    82.119143   -111.28484  0.074303126   -111.21054    1458.9839     4.251365     4.251365     4.251365    1458.9839     7336.668   -2564.1269   -395.58931   -740.98014   -290.18958   -389.79906    76.839613 
   12000    116.28495    -111.3154   0.10521706   -111.21018    49.962361    4.2483968    4.2483968    4.2483968    49.962361   -626.19379   -739.35137    1515.4322    561.91507    3058.0333    839.77897    76.678783 
   12100    77.773383    -111.2809  0.070370991   -111.21052    3597.1214    4.2494639    4.2494639    4.2494639    3597.1214    5893.8651    -80.23493    4977.7341   -1203.1024    1077.9774    1376.4582    76.736577 
   12200    91.472407   -111.29321  0.082766157   -111.21045    2492.2021    4.2501593    4.2501593    4.2501593    2492.2021    3304.1599    2463.9655    1708.4808   -1748.7582   -307.00823    792.20893    76.774256 
   12300    110.76413   -111.31046   0.10022171   -111.21024   -100.21304    4.2491005    4.2491005    4.2491005   -100.21304   -1434.6289    1582.0353   -448.04544    387.25181   -583.19161   -319.30775    76.716893 
   12400    93.502002   -111.29498  0.084602576   -111.21038   -28.191137    4.2514225    4.2514225    4.2514225   -28.191137    1329.7909    1535.3586   -2949.7229   -994.08063    1175.7786    677.39649    76.842731 
   12500    142.25107   -111.33866   0.12871175   -111.20995   -2947.6888    4.2501604    4.2501604    4.2501604   -2947.6888   -1697.8365   -2186.4741   -4958.7557    1579.9731   -47.187135   -256.06752    76.774317 
   12600    99.625524   -111.30033  0.090143268   -111.21019   -387.73262    4.2492144    4.2492144    4.2492144   -387.73262    526.70156   -1304.7238   -385.17559   -2460.5599   -1060.8983   -1279.1738    76.723064 
   12700    139.55507   -111.33632   0.12627236   -111.21005   -4561.1333    4.2529114    4.2529114    4.2529114   -4561.1333   -2372.9194   -6234.4764    -5076.004     475.6395    694.65618   -863.86613    76.923495 
   12800    76.662013   -111.28007  0.069365401   -111.21071    1560.6019    4.2494791    4.2494791    4.2494791    1560.6019    3365.0503   -861.94998    2178.7055   -1062.4874     1459.619    539.29799      76.7374 
   12900    107.59827   -111.30778  0.097357176   -111.21042    594.25638    4.2491483    4.2491483    4.2491483    594.25638   -1169.0652    117.44359    2834.3907   -969.81334    601.19682    1610.9728    76.719482 
   13000    79.440671    -111.2823  0.071879589   -111.21042    1520.6465    4.2516776    4.2516776    4.2516776    1520.6465     4549.973    625.33348   -613.36713   -612.93324    -375.5077    1017.1936    76.856567 
   13100    96.517436   -111.29766  0.087331005   -111.21033      223.905    4.2496088    4.2496088    4.2496088      223.905    -1664.653    4705.7811   -2369.4131   -1504.5612    1282.3183    876.60486    76.744426 
   13200    104.89497   -111.30517  0.094911172   -111.21026   -85.251216    4.2503988    4.2503988    4.2503988   -85.251216    555.49449    2424.2236   -3235.4718    829.12886    225.18077    136.15438    76.787236 
   13300    110.49722   -111.30998   0.09998021      -111.21   -823.53915    4.2511455    4.2511455    4.2511455   -823.53915    2773.6576     -1107.85    -4136.425   -225.40701   -521.62479   -977.70917    76.827714 
   13400    127.25993   -111.32506   0.11514746   -111.20992   -2823.8798    4.2493338    4.2493338    4.2493338   -2823.8798   -1875.5963   -2393.6391    -4202.404    884.87125   -553.58392   -1098.4138    76.729529 
   13500    85.856835     -111.288  0.077685068   -111.21032   -477.76526    4.2515188    4.2515188    4.2515188   -477.76526    873.69842   -1452.9296   -854.06465   -1223.0268    2055.3971   -89.289062    76.847953 
   13600    103.79982   -111.30413  0.093920261   -111.21021   -954.14579    4.2507428    4.2507428    4.2507428   -954.14579     879.5997   -2980.6529   -761.38419   -697.31629    550.64537    736.05946    76.805882 
   13700    64.986506   -111.26928  0.058801156   -111.21048    2530.1684    4.2478783    4.2478783    4.2478783    2530.1684    702.66537    1896.9973    4990.8424   -1470.5083   -738.18886     1202.096    76.650712 
   13800    83.297696   -111.28581  0.075369506   -111.21045    276.88014    4.2514159    4.2514159    4.2514159    276.88014    41.506247     2350.507   -1561.3728    188.30165    170.15946    855.09271    76.842372 
   13900    66.780399   -111.27096  0.060424309   -111.21054    1451.1549    4.2502315    4.2502315    4.2502315    1451.1549    2869.7528    3581.6343   -2097.9224    39.236787    662.71751    1754.5974    76.778168 
   14000    104.89209   -111.30511  0.094908565    -111.2102   -408.06136    4.2487137    4.2487137    4.2487137   -408.06136    -900.3896     1280.046   -1603.8404   -339.38684    898.68715    219.06968    76.695943 
   14100    115.78238   -111.31474   0.10476233   -111.20998   -1325.2301    4.2512808    4.2512808    4.2512808   -1325.2301    4370.5425   -3179.5898   -5166.6432   -260.44797   -1105.8358   -671.18085    76.835052 
   14200    110.98465   -111.31054   0.10042124   -111.21012   -1423.6554    4.2498901    4.2498901    4.2498901   -1423.6554    162.63294    -183.2877   -4250.3115   -589.87519    1773.3312   -1164.0709    76.759672 
   14300    110.37967   -111.31009  0.099873848   -111.21022   -1612.3387    4.2500287    4.2500287    4.2500287   -1612.3387   -1159.6297   -933.19387   -2744.1926    379.16364    953.31599    -404.1748    76.767182 
   14400     90.01014   -111.29177  0.081443066   -111.21033    873.37348     4.251116     4.251116     4.251116    873.37348    1949.3074    34.735286    636.07779    -963.9593    129.87261    920.64519    76.826116 
   14500    93.484706   -111.29486  0.084586927   -111.21028    1687.3704    4.2483752    4.2483752    4.2483752    1687.3704   -554.22501    5127.8976    488.43873     450.2301   -248.78773     849.1579    76.677617 
   14600    65.500012   -111.26991  0.059265788   -111.21064    2148.9598    4.2502301    4.2502301    4.2502301    2148.9598    -1250.209    6560.5289    1136.5594   -1618.5842    885.82204    1657.2706    76.778096 
   14700    99.240248   -111.30024  0.089794662   -111.21044   -769.84256    4.2516602    4.2516602    4.2516602   -769.84256    1381.5142    656.45198   -4347.4939    696.66593    405.93841    410.93844    76.855624 
   14800    111.42624   -111.31107    0.1008208   -111.21025    346.57621    4.2483452    4.2483452    4.2483452    346.57621    418.58007    1073.7723   -452.62373   -1008.5066   -1949.1763    -132.2208    76.675992 
   14900    134.68841   -111.33198   0.12186891   -111.21011   -2005.1864    4.2510258    4.2510258    4.2510258   -2005.1864    1324.4434   -2561.4066   -4778.5959    71.446051    687.73437   -451.78411    76.821223 
   15000    119.70773   -111.31852   0.10831407   -111.21021   -2599.7825    4.2516541    4.2516541    4.2516541   -2599.7825    2973.8523    -3293.654   -7479.5459    -883.7415    1199.8043   -382.83117     76.85529 
   15100    119.69633   -111.31854   0.10830376   -111.21023   -1126.9435    4.2491651    4.2491651    4.2491651   -1126.9435   -1812.6905    704.22788    -2272.368   -2291.5434    1287.6285   -66.687439    76.720393 
   15200    105.42337   -111.30568  0.095389285   -111.21029    1295.1082    4.2508794    4.2508794    4.2508794    1295.1082    3666.8046    2099.3708   -1880.8509    711.17634   -1445.8443   -197.66184    76.813285 
   15300    80.571191   -111.28343  0.072902506   -111.21053    2141.0443    4.2497183    4.2497183    4.2497183    2141.0443    649.57402    6285.7745   -512.21555   -104.43256     876.4375    1352.0701    76.750361 
   15400    83.026118   -111.28572  0.075123776   -111.21059    599.63388    4.2494087    4.2494087    4.2494087    599.63388   -1854.9716    5299.7225   -1645.8492    1431.8587    1596.3812    2045.6267    76.733589 
   15500    94.764752   -111.29613  0.085745139   -111.21038     393.2129     4.251719     4.251719     4.251719     393.2129    487.04861    1413.5373    -720.9472   -1661.4631   -67.029724    816.21971    76.858814 
   15600     122.8075   -111.32123   0.11111881   -111.21011   -1128.5626     4.249343     4.249343     4.249343   -1128.5626    794.14314   -1157.8757   -3021.9552   -383.86579   -991.92825   -696.35153    76.730029 
   15700    110.50246   -111.31023  0.099984944   -111.21025   -2342.4196     4.249935     4.249935     4.249935   -2342.4196   -2437.6207    -1477.655   -3111.9832   -340.59224    848.69678   -1130.0488      76.7621 
   15800    118.34263   -111.31725    0.1070789   -111.21017   -3288.8511    4.2524716    4.2524716    4.2524716   -3288.8511    1322.7524   -3687.7502   -7501.5554    236.91811    1541.2339   -259.80196    76.899633 
   15900    103.81116   -111.30411  0.093930521   -111.21018    354.63359    4.2490446    4.2490446    4.2490446    354.63359    1379.2129    2192.8424   -2508.1545   -362.76327   -1359.3343    120.46667    76.713866 
   16000    89.088517   -111.29091  0.080609162    -111.2103    1319.3075     4.249438     4.249438     4.249438    1319.3075    1153.5079    2713.3775    91.037029   -837.45434    244.29234    292.44072    76.735177 
   16100    64.126059   -111.26857  0.058022605   -111.21055    1512.8114    4.2509029    4.2509029    4.2509029    1512.8114    4953.2448    2864.6683   -3279.4791    547.41576    560.48257    1565.0723    76.814561 
   16200    72.258374   -111.27577  0.065380895   -111.21039    1898.5467    4.2489657    4.2489657    4.2489657    1898.5467   -1076.1258    5232.6765    1539.0895   -411.14521    1407.5113    1128.9977    76.709595 
   16300    98.869494   -111.29967  0.089459196   -111.21021     281.6254    4.2506279    4.2506279    4.2506279     281.6254    2851.1585   -1735.0597   -271.22255   -129.32394   -1321.6292    810.59024    76.799656 
   16400    97.466391    -111.2984  0.088189638   -111.21021   -1061.3333    4.2504508    4.2504508    4.2504508   -1061.3333    1285.8392   -2829.6689   -1640.1702   -730.76282    798.51084   -653.49305    76.790056 
   16500    106.77512   -111.30674  0.096612375   -111.21013    -2462.034    4.2492714    4.2492714    4.2492714    -2462.034   -1966.4549   -788.10416   -4631.5428   -285.50621    2783.5202   -641.71761    76.726149 
   16600    104.93068   -111.30502  0.094943484   -111.21007   -1700.7839    4.2519712    4.2519712    4.2519712   -1700.7839   -678.09182   -290.32692   -4133.9329   -1036.3686     181.5153   -817.27194    76.872488 
   16700    114.45996    -111.3136   0.10356578   -111.21004   -1356.0648     4.250213     4.250213     4.250213   -1356.0648    734.73865   -239.47158   -4563.4615    556.44649   -528.50976   -1293.9399    76.777167 
   16800    76.853603   -111.27993  0.069538755   -111.21039    1276.2563    4.2484569    4.2484569    4.2484569    1276.2563   -1705.2474     6161.829   -627.81278   -99.221085   -208.08482    856.35888    76.682037 
   16900    83.003883   -111.28554  0.075103658   -111.21043    642.22238    4.2515022    4.2515022    4.2515022    642.22238    726.83799    2527.8466   -1328.0175    795.79359    2081.7678    1692.7488    76.847056 
   17000    92.048731   -111.29356  0.083287626   -111.21027    1366.3866    4.2497213    4.2497213    4.2497213    1366.3866    1890.6104     1840.901    367.64828   -1798.7635   -1238.8617     1689.989    76.750522 
   17100    111.02391   -111.31057   0.10045676   -111.21011    235.48074      4.24938      4.24938      4.24938    235.48074   -1224.7403   -1352.9791    3284.1616   -1705.3931   -78.849346   -49.539186    76.732032 
   17200    103.40701   -111.30388  0.093564836   -111.21031   -254.52482    4.2510311    4.2510311    4.2510311   -254.52482    5645.9569   -2916.2279   -3493.3034    439.16379    953.71435   -1046.3615    76.821511 
   17300    111.30185   -111.31095   0.10070825   -111.21024   -536.77706    4.2492918    4.2492918    4.2492918   -536.77706    -457.3021    784.08218   -1937.1113   -656.76337    1462.2173   -231.05712    76.727254 
   17400    130.44652   -111.32812   0.11803075   -111.21009    -1503.853    4.2507323    4.2507323    4.2507323    -1503.853    1347.6391   -754.53778   -5104.6602    1019.0617   -24.186185   -552.08882    76.805314 
   17500    103.71641   -111.30406  0.093844786   -111.21021    219.84954    4.2509299    4.2509299    4.2509299    219.84954    2231.1817    3525.6018   -5097.2348   -1463.3823   -280.08986    -530.9988    76.816027 
   17600    100.93966   -111.30174  0.091332327    -111.2104    94.379986    4.2484396    4.2484396    4.2484396    94.379986   -1332.8281    5734.6666   -4118.6985    773.67544    2647.3163    208.13832    76.681102 
   17700    87.807408   -111.28988  0.079449988   -111.21043    738.83893    4.2508197    4.2508197    4.2508197    738.83893   -915.90096    4127.0769   -994.65917   -359.02176    34.349539     1223.595    76.810048 
   17800    122.79006   -111.32122   0.11110303   -111.21012   -1109.8356    4.2510996    4.2510996    4.2510996   -1109.8356    369.46451   -2115.7248   -1583.2464   -20.987294   -211.53874    1539.1213    76.825223 
   17900    92.054788    -111.2937  0.083293107   -111.21041    1005.4982    4.2485359    4.2485359    4.2485359    1005.4982    -497.3081    2132.8438    1380.9591   -483.17075    822.45646    77.038153    76.686315 
   18000    107.15686    -111.3073  0.096957783   -111.21034   -1369.7399    4.2510142    4.2510142    4.2510142   -1369.7399    693.06898   -3847.0494   -955.23942   -963.31755    2815.7368   -536.72767    76.820593 
   18100     105.7343   -111.30598  0.095670617   -111.21031   -609.70519    4.2503904    4.2503904    4.2503904   -609.70519    4055.7635   -1510.9433   -4373.9358    494.24683    -800.7141   -1201.7472    76.786783 
   18200    117.82205   -111.31674   0.10660787   -111.21013   -494.97591    4.2495983    4.2495983    4.2495983   -494.97591   -907.62659    1761.9683   -2339.2695   -547.06311   -793.21683   -1018.3705    76.743862 
   18300    89.646681   -111.29154  0.081114201   -111.21043    253.01036      4.25115      4.25115      4.25115    253.01036    6065.2098    2150.5632    -7456.742    967.40625     362.8147    426.59689    76.827958 
   18400    83.112867   -111.28561  0.075202268   -111.21041    472.99358    4.2491565    4.2491565    4.2491565    472.99358    1090.9856    3828.8275   -3500.8324   -1452.9707    1753.3555    721.32347    76.719927 
   18500    101.21158   -111.30183  0.091578361   -111.21025   -15.293838    4.2498374    4.2498374    4.2498374   -15.293838    1937.8954    480.14059   -2463.9175   -1203.0697    186.98053    1455.9806    76.756816 
   18600    87.999617   -111.28988  0.079623903   -111.21026    440.49195    4.2516077    4.2516077    4.2516077    440.49195    3671.2597    -411.4806   -1938.3032     -987.521   -129.04015    168.22549    76.852777 
   18700    89.721461   -111.29152  0.081181863   -111.21034    -858.2374    4.2490581    4.2490581    4.2490581    -858.2374   -38.748668   -2412.2516   -123.71195    538.85177    2816.2408    3.6174333    76.714598 
   18800    81.641227   -111.28434  0.073870697   -111.21047   -390.80433    4.2500512    4.2500512    4.2500512   -390.80433   -158.09463   -1038.6966    24.378195    98.980819    1220.2745   -316.88008    76.768402 
   18900    115.18885   -111.31429   0.10422529   -111.21007   -1700.0502    4.2515921    4.2515921    4.2515921   -1700.0502    1483.3469   -3177.9264   -3405.5711    129.01553   -228.55069   -1288.0337     76.85193 
   19000    88.891335   -111.29068  0.080430748   -111.21025    65.320681    4.2491922    4.2491922    4.2491922    65.320681   -674.06288    4483.9013   -3613.8764   -855.71415    -416.7558   -916.65384    76.721859 
   19100    92.376783   -111.29394  0.083584454   -111.21035   -1057.9131    4.2505741    4.2505741    4.2505741   -1057.9131    -195.8193    1525.5175   -4503.4375    -644.9238    1645.0053   -374.16727    76.796738 
   19200    90.002889    -111.2918  0.081436506   -111.21036     635.9122    4.2503092    4.2503092    4.2503092     635.9122    5353.1773    1891.0726   -5336.5134   -815.69676   -544.77143    1046.7374    76.782381 
   19300    106.80175   -111.30677  0.096636469   -111.21013    765.72229    4.2491398    4.2491398    4.2491398    765.72229    244.65496    1523.0197    529.49219   -1811.2831   -206.33394    1434.0234    76.719022 
   19400    93.865303    -111.2952  0.084931298   -111.21027    78.280136     4.251255     4.251255     4.251255    78.280136    5510.3977   -3299.9562   -1975.6011    612.99417    1520.9564    734.27083     76.83365 
   19500    90.447092   -111.29214   0.08183843    -111.2103     307.4909    4.2497629    4.2497629    4.2497629     307.4909    1384.8069   -2232.3802    1770.0459   -1289.0956    2239.4931    178.85101    76.752775 
   19600    111.18124   -111.31073   0.10059913   -111.21013    432.68943     4.249094     4.249094     4.249094    432.68943    1181.1384   -2168.1141    2285.0439    593.20078    75.582852   -1120.4792    76.716539 
   19700    109.20735   -111.30895  0.098813102   -111.21013   -46.930026    4.2516332    4.2516332    4.2516332   -46.930026    2211.7106    -242.7701   -2109.7306   -165.43709   -1325.7983   -1455.1108     76.85416 
   19800    103.06545   -111.30352  0.093255787   -111.21027   -693.56692     4.249823     4.249823     4.249823   -693.56692    76.375746    1592.4604   -3749.5369     585.9683     1247.412   -819.47239    76.756037 
   19900    97.335714   -111.29834    0.0880714   -111.21027    361.72001    4.2494648    4.2494648    4.2494648    361.72001   -409.87615    6159.1097   -4664.0735   -1098.1719    1611.9565   -75.856665    76.736629 
   20000    116.53041   -111.31545   0.10543916   -111.21001   -95.285898    4.2513221    4.2513221    4.2513221   -95.285898    4347.7921    206.24033   -4839.8902   -2330.2202   -218.36894    562.92753    76.837291 
   20100     113.8167    -111.3131   0.10298374   -111.21012   -420.96732    4.2496694    4.2496694    4.2496694   -420.96732    446.18551    1490.6168   -3199.7042   -79.199682    164.98835    570.65473    76.747709 
   20200    100.83208   -111.30158  0.091234984   -111.21035   -460.04222    4.2505616    4.2505616    4.2505616   -460.04222    1086.4504   -2107.0517   -359.52539   -13.149667    2385.5689    1291.3898    76.796059 
   20300    110.30576      -111.31  0.099806973    -111.2102    -243.8422    4.2509486    4.2509486    4.2509486    -243.8422    4275.7737   -4115.5443   -891.75597    1151.6186    1030.3195    763.76454    76.817037 
   20400    113.03541   -111.31236   0.10227682   -111.21009    390.42151    4.2490914    4.2490914    4.2490914    390.42151    39.265125    -3237.478    4369.4774   -2023.3296   -569.86824   -772.19209    76.716401 
   20500    102.93684   -111.30336  0.093139413   -111.21022   -438.83237    4.2513894    4.2513894    4.2513894   -438.83237    4256.9469    -3257.485    -2315.959   -123.69083   -557.47314   -1437.2989    76.840939 
   20600    86.529352   -111.28872  0.078293576   -111.21043     137.1924     4.250762     4.250762     4.250762     137.1924    3079.2489    1536.9034   -4204.5751   -761.72748    747.32876   -1472.9241    76.806922 
   20700     95.14862   -111.29639  0.086092471   -111.21029    592.10774    4.2489467    4.2489467    4.2489467    592.10774    2695.4327    2343.1556   -3262.2651   -1378.5853    492.78389     28.88659    76.708562 
   20800    109.45278   -111.30905  0.099035172   -111.21002   -930.80752    4.2516268    4.2516268    4.2516268   -930.80752    3327.6829    179.84921   -6299.9546   -1216.6453   -300.79492     68.07955     76.85381 
   20900    93.409326    -111.2948  0.084518721   -111.21028   -880.95038     4.250573     4.250573     4.250573   -880.95038    2891.2044    -144.5361   -5389.5194   -779.39707    2054.6447     690.3958    76.796678 
   21000    102.87084   -111.30333  0.093079697   -111.21025   -1513.9573    4.2497548    4.2497548    4.2497548   -1513.9573    -1790.567    214.18416   -2965.4891    568.02357    2129.9741    1290.1814    76.752338 
   21100     93.60809   -111.29501  0.084698567   -111.21031    -46.38925    4.2512219    4.2512219    4.2512219    -46.38925     5790.842    -5912.363    -17.64679   -173.20463   -350.06643    336.14909    76.831854 
   21200    110.60174   -111.31027   0.10007478    -111.2102   -455.72471    4.2495133    4.2495133    4.2495133   -455.72471    1557.3703   -3454.7066    530.16212    5.0063748   -1463.0099   -201.15371    76.739258 
   21300    73.041681   -111.27667  0.066089648   -111.21058    1326.2071    4.2500274    4.2500274    4.2500274    1326.2071    4236.2127   -928.62647    671.03497   -1065.1526    1024.7296   -1124.4298    76.767111 
   21400    86.325822   -111.28855  0.078109418   -111.21044   -119.97376    4.2510762    4.2510762    4.2510762   -119.97376    4330.4157    216.18227   -4906.5193   -852.99406    824.66626   -907.05946    76.823959 
   21500    85.994698   -111.28816   0.07780981   -111.21035     1280.224    4.2484658    4.2484658    4.2484658     1280.224    2151.7321     2187.188   -498.24805   -2414.0416   -276.76487   -817.09702    76.682522 
   21600    102.67651   -111.30316  0.092903861   -111.21026   -427.93533     4.250592     4.250592     4.250592   -427.93533    3092.1819     917.9762   -5293.9641    39.748267   -283.95353   -497.11872     76.79771 
   21700    92.585072    -111.2941  0.083772919   -111.21033   -1231.8045    4.2511695    4.2511695    4.2511695   -1231.8045    1980.5702    856.89785   -6532.8814    502.54698    1639.0401    940.29966    76.829015 
   21800    94.400499   -111.29572  0.085415555    -111.2103   -749.79086    4.2488876    4.2488876    4.2488876   -749.79086    1188.4618   -1670.4374    -1767.397   -395.92666    1830.3717    1409.6156    76.705363 
   21900    121.39246    -111.3199   0.10983845   -111.21006   -1188.7513    4.2508325    4.2508325    4.2508325   -1188.7513    3036.5032   -5529.0617   -1073.6954   -340.26686   -895.41098    681.63665    76.810747 
   22000    90.710211   -111.29243  0.082076505   -111.21035    1074.4208    4.2501818    4.2501818    4.2501818    1074.4208    6471.5069   -3120.7809   -127.46366   -1173.3915   -63.063743   -373.15216    76.775476 
   22100    104.81062   -111.30518  0.094834849   -111.21034   -670.93356    4.2495067    4.2495067    4.2495067   -670.93356   -2434.0557    820.20658    -398.9516    577.56949    802.86791   -1178.9461    76.738899 
   22200    74.890515    -111.2783  0.067762511   -111.21054     2198.573    4.2509041    4.2509041    4.2509041     2198.573    6722.2533    646.53232   -773.06671   -1451.6376     833.0957   -919.83643    76.814629 
   22300    123.40495   -111.32181   0.11165939   -111.21015    458.48213    4.2494286    4.2494286    4.2494286    458.48213   -379.85093     4565.726   -2810.4286    174.75063    17.864013   -1183.0251    76.734666 
   22400    83.442571   -111.28604  0.075500592   -111.21054    1816.3622    4.2496646    4.2496646    4.2496646    1816.3622    3379.3999    4187.5499   -2117.8631   -584.31176    1435.5227   -263.20398    76.747455 
   22500     119.2087   -111.31822   0.10786254   -111.21036   -2675.4157     4.252081     4.252081     4.252081   -2675.4157   -69.342319    118.84745   -8075.7521    1034.9785    812.51603    633.26126    76.878445 
   22600    109.44825   -111.30936  0.099031073   -111.21033   -603.80335    4.2494753    4.2494753    4.2494753   -603.80335    1911.0681   -2128.6308   -1593.8474   -1135.7313    -641.2171     816.0325    76.737194 
   22700    135.13137   -111.33229    0.1222697   -111.21002   -2009.2902    4.2504739    4.2504739    4.2504739   -2009.2902    1057.4512    -5197.659   -1887.6628   -1392.1216   -295.75318    1109.7163    76.791309 
   22800    110.77373   -111.31062    0.1002304   -111.21039   -1911.5764    4.2516257    4.2516257    4.2516257   -1911.5764    1540.8431   -4094.5802   -3180.9922   -406.63742    1479.2448   -241.55305     76.85375 
   22900     86.31194    -111.2886  0.078096857    -111.2105    176.78312    4.2494652    4.2494652    4.2494652    176.78312    286.47963    151.40226    92.467474   -1944.5614    1742.1816   -673.80466    76.736648 
   23000    106.64571   -111.30683  0.096495276   -111.21033    699.33408     4.250615     4.250615     4.250615    699.33408    669.93522     2810.343    -1382.276    145.69489   -571.30199   -1856.7026    76.798954 
   23100    69.432987   -111.27336  0.062824426   -111.21054    3732.5496    4.2498888    4.2498888    4.2498888    3732.5496     8112.917    4833.9625   -1749.2307     104.0026    667.38276   -1709.3772    76.759599 
   23200    110.04807   -111.30995  0.099573803   -111.21037   -419.83777    4.2492395    4.2492395    4.2492395   -419.83777   -2415.1656    5467.6583   -4312.0061    1171.9246    2388.6759   -34.051625     76.72442 
   23300    77.506636   -111.28057  0.070129633   -111.21044    1551.4275    4.2512044    4.2512044    4.2512044    1551.4275    8196.5746    720.45886    -4262.751    -842.4126    846.52083    372.81154    76.830907 
   23400    154.06307   -111.34921    0.1393995   -111.20981   -3127.9359    4.2504175    4.2504175    4.2504175   -3127.9359    -1479.416   -2532.2105   -5372.1813   -947.89887   -1051.7994    1058.5052    76.788249 
   23500    97.520772   -111.29858  0.088238844   -111.21035   -306.39415    4.2493297    4.2493297    4.2493297   -306.39415    4142.9714    -4119.309    -942.8449   -1625.4156    138.09715    502.34292    76.729308 
   23600    120.02636   -111.31871   0.10860238   -111.21011   -3418.8215    4.2519177    4.2519177    4.2519177   -3418.8215   -861.20193   -4268.0289   -5127.2336    441.51815    1562.1401     278.2031     76.86959 
   23700    73.091427   -111.27694  0.066134659   -111.21081    1106.7755    4.2497104    4.2497104    4.2497104    1106.7755    2131.1095    1162.4009    26.816256    -1396.592    867.90334   -399.17464    76.749934 
   23800    81.875878   -111.28449  0.074083015   -111.21041    1206.4385    4.2496243    4.2496243    4.2496243    1206.4385    963.92726    2216.7504    438.63793   -5.4730888    378.10373   -1806.1152    76.745267 
   23900    67.263132   -111.27133  0.060861096   -111.21047    1219.8123    4.2509131    4.2509131    4.2509131    1219.8123    2557.1529    3862.3889   -2760.1049    536.50155    1557.1729   -1443.3093    76.815112 
   24000    60.755175   -111.26561  0.054972559   -111.21064    1781.4864    4.2492201    4.2492201    4.2492201    1781.4864    2921.3296     3862.816   -1439.6864   -234.34492      1483.75   -1001.7454     76.72337 
   24100    123.81748   -111.32209   0.11203266   -111.21006   -2016.2857    4.2509924    4.2509924    4.2509924   -2016.2857   -1275.5749   -160.80895   -4612.4732   -682.55237     -721.547    4.5386909    76.819411 
   24200    95.162806   -111.29629  0.086105307   -111.21018    18.594541    4.2509717    4.2509717    4.2509717    18.594541    9157.8204   -4905.5515   -4196.4852   -1566.8294     38.81318    676.32922    76.818293 
   24300    144.45209   -111.34063   0.13070329   -111.20993   -3559.2003    4.2494935    4.2494935    4.2494935   -3559.2003   -2348.8307   -2841.5724   -5487.1978    525.82141    2060.6245    884.34625    76.738183 
   24400    76.002561   -111.27936  0.068768714   -111.21059     1254.673    4.2510095    4.2510095    4.2510095     1254.673    9127.1217    -2034.846   -3328.2566   -763.10141    1064.5601    838.99182    76.820338 
   24500    131.07176   -111.32865   0.11859648   -111.21005    -1923.206    4.2508701    4.2508701    4.2508701    -1923.206    -2086.902   -2.5907526   -3680.1252    684.73735    -651.7762   -767.27255    76.812782 
   24600    57.613351   -111.26284  0.052129771   -111.21071    3463.7465    4.2485867    4.2485867    4.2485867    3463.7465    4387.0223     3825.068    2179.1491   -628.36051    717.17345   -1363.1144    76.689066 
   24700    92.761145   -111.29451  0.083932233   -111.21058    10.256132    4.2510334    4.2510334    4.2510334    10.256132   -1824.7353    3432.4128   -1576.9091    520.94799    2346.2112   -1179.6286    76.821636 
   24800    75.362272   -111.27884  0.068189368   -111.21065    1263.2739    4.2498578    4.2498578    4.2498578    1263.2739    1023.4814    2084.4243    681.91591   -1978.9974    454.24048   -1028.1469     76.75792 
   24900    110.28341    -111.3103  0.099786749   -111.21051   -943.27693    4.2498862    4.2498862    4.2498862   -943.27693   -122.13887   -3060.3483    352.65638    -2477.688   -1249.5842    -246.9506    76.759461 
   25000    127.02267   -111.32512   0.11493278   -111.21019   -2282.4764    4.2515565    4.2515565    4.2515565   -2282.4764    2373.8384   -4527.7937   -4693.4738    108.19255   -166.67535   -221.60103    76.850001 
   25100    104.39975    -111.3048  0.094463086   -111.21034   -308.79414    4.2493575    4.2493575    4.2493575   -308.79414    5434.1357   -3056.0276   -3304.4906   -599.39163    2093.8798      1337.37    76.730813 
   25200    151.58536   -111.34722   0.13715762   -111.21006   -3090.3727    4.2506596    4.2506596    4.2506596   -3090.3727   -1124.3079   -2625.3242   -5521.4858    463.81436    1048.0194    1055.9863    76.801371 
   25300    86.915664   -111.28916   0.07864312   -111.21052    2242.6684     4.251048     4.251048     4.251048    2242.6684    9915.1504    123.45104   -3310.5964   -779.41479    209.02898   -203.27487    76.822426 
   25400    128.33619    -111.3263   0.11612128   -111.21018    -182.8288    4.2490379    4.2490379    4.2490379    -182.8288   -2690.7772    5041.2514   -2898.9606    541.17615    1223.4374   -801.15291    76.713503 
   25500    47.472063   -111.25385  0.042953721    -111.2109    4731.7553    4.2498777    4.2498777    4.2498777    4731.7553    9582.6903    4018.6627    593.91305   -1374.8129    647.81279   -1547.2267       76.759 
   25600    118.29941   -111.31734   0.10703979    -111.2103   -603.27656    4.2509455    4.2509455    4.2509455   -603.27656   -947.33806    294.62957   -1157.1212   -1552.5549   -578.78269   -923.41743     76.81687 
   25700    71.919246   -111.27556  0.065074045   -111.21048    2394.2429    4.2491937    4.2491937    4.2491937    2394.2429    5951.9149   -1440.4164    2671.2302   -2351.7044   -437.16681   -706.71463    76.721944 
   25800    124.94966   -111.32348   0.11305708   -111.21042    -3083.104    4.2514758    4.2514758    4.2514758    -3083.104   -1124.9823   -4476.1163   -3648.2134    377.48356     893.9861    40.196091    76.845622 
   25900    108.75956   -111.30881  0.098407939   -111.21041   -2745.6741    4.2505865    4.2505865    4.2505865   -2745.6741    1437.4643   -6077.2825    -3597.204   -292.28761    842.98435    995.58875     76.79741 
   26000    122.82214   -111.32114   0.11113205   -111.21001   -3144.1738    4.2502737    4.2502737    4.2502737   -3144.1738   -1194.1219   -5141.3705    -3097.029   -1548.3855   -129.28001    581.03617    76.780455 
   26100    121.32973    -111.3201   0.10978169   -111.21031   -2587.0448    4.2519589    4.2519589    4.2519589   -2587.0448     1142.855   -2027.5334    -6876.456    402.53725    1075.8587    491.74973     76.87182 
   26200    66.868916   -111.27109    0.0605044   -111.21059    1971.4646      4.24933      4.24933      4.24933    1971.4646    6571.2884    2228.8458   -2885.7406   -1911.0258    1792.7959    -189.4491    76.729327 
   26300     97.37194   -111.29842  0.088104177   -111.21031    737.50831    4.2494896    4.2494896    4.2494896    737.50831    1849.9884    2081.4589   -1718.9224   -659.63745   -139.44354     -899.688     76.73797 
   26400    46.738628   -111.25294  0.042290093   -111.21065    4840.1658     4.250772     4.250772     4.250772    4840.1658    12196.902    1443.8279    879.76775   -2818.5064   -1562.5944   -1364.0866    76.807467 
   26500    115.58233   -111.31481   0.10458132   -111.21023   -250.96088    4.2495477    4.2495477    4.2495477   -250.96088   -2116.3229    1242.0507    121.38958    1039.6217   -31.349216   -1634.9232     76.74112 
   26600     65.50861   -111.26984  0.059273567   -111.21057    2004.5715    4.2498036    4.2498036    4.2498036    2004.5715    7974.2765    -3004.175    1043.6129    -51.77043    1632.1611    23.705667    76.754982 
   26700    135.69002   -111.33271   0.12277519   -111.20993   -3494.4088    4.2513147    4.2513147    4.2513147   -3494.4088   -3632.6509   -3595.4367   -3255.1388    149.01233     1009.201    517.29017    76.836888 
   26800    98.065616   -111.29898  0.088731831   -111.21025   -817.22519    4.2497518    4.2497518    4.2497518   -817.22519    2720.4676   -4120.2462    -1051.897   -600.70767    236.87873    1060.1535    76.752177 
   26900    116.97231   -111.31593   0.10583901   -111.21009   -3190.3838    4.2514489    4.2514489    4.2514489   -3190.3838   -2334.0675   -988.98544   -6248.0984   -1362.0322    995.02769    811.95353    76.844163 
   27000    80.996298   -111.28378  0.073287153    -111.2105    -435.3918    4.2504125    4.2504125    4.2504125    -435.3918    2739.8578    384.15751   -4430.1907   -230.36375    611.09117   -243.76896    76.787981 
   27100    83.232997   -111.28566  0.075310965   -111.21035    892.84056     4.248983     4.248983     4.248983    892.84056    444.87242    2039.4825     194.1667   -4606.8413   -492.57315   -415.72886    76.710532 
   27200    99.391382   -111.30018  0.089931411   -111.21025    -180.4777    4.2514588    4.2514588    4.2514588    -180.4777    260.17249     852.8466   -1654.4522    902.06664   -193.94451   -1346.6733    76.844701 
   27300    77.586179    -111.2806  0.070201605    -111.2104    1286.0768    4.2502174    4.2502174    4.2502174    1286.0768    3040.7423   -233.20846    1050.6966   -1170.7368    899.08211   -857.51036    76.777408 
   27400    117.12952    -111.3161   0.10598125   -111.21012   -519.95759    4.2492452    4.2492452    4.2492452   -519.95759   -1764.8608    -1601.468     1806.456    1310.6064    688.10264   -518.93903    76.724729 
   27500    95.286146    -111.2965  0.086216907   -111.21028    1693.3728    4.2508964    4.2508964    4.2508964    1693.3728    8289.2819   -3480.3604    271.19687   -1083.5521    397.36891   -281.45954    76.814207 
   27600    135.58274   -111.33268   0.12267811      -111.21   -1384.8373    4.2501977    4.2501977    4.2501977   -1384.8373   -2348.9278    931.47166   -2737.0559    239.06479    1763.3215    1200.9022    76.776338 
   27700    90.534041   -111.29234  0.081917103   -111.21042    1128.6249     4.249899     4.249899     4.249899    1128.6249    6456.9917    241.89744   -3313.0146   -68.369443    1947.4847    1166.1886    76.760152 
   27800    113.23456   -111.31268   0.10245701   -111.21022   -389.42722    4.2508705    4.2508705    4.2508705   -389.42722    -2687.834    6708.5688   -5189.0164   -2137.6635   -487.05536    574.79308    76.812802 
   27900    101.33223   -111.30203  0.091687528   -111.21034    573.02168    4.2490204    4.2490204    4.2490204    573.02168    535.23312    2212.7148   -1028.8828   -981.48145   -1253.5831   -1080.9203    76.712553 
   28000    106.10004   -111.30626  0.096001543   -111.21026   -1265.4683    4.2508819    4.2508819    4.2508819   -1265.4683   -4636.8597    3042.5245   -2202.0698   -1356.5745    762.25555   -1689.0491    76.813423 
   28100    106.31313   -111.30647  0.096194351   -111.21028   -1868.7958    4.2513793    4.2513793    4.2513793   -1868.7958    -3375.335   -744.77317   -1486.2791    1674.1122    1923.6821   -389.20955    76.840392 
   28200     94.03435   -111.29542  0.085084256   -111.21034    119.15745    4.2487429    4.2487429    4.2487429    119.15745   -579.63656   -2840.9568    3778.0657   -3171.1649    455.99237   -62.906368    76.697527 
   28300    118.86463   -111.31765   0.10755122    -111.2101    -1538.352    4.2507587    4.2507587    4.2507587    -1538.352   -1106.6911   -2845.9901    -662.3749    458.12211    296.40837    594.47039    76.806744 
   28400    83.051332   -111.28562   0.07514659   -111.21047    1049.1043    4.2506773    4.2506773    4.2506773    1049.1043    3975.3937    1532.9609   -2361.0418   -2081.4383     1849.007    832.97944     76.80233 
   28500    103.78023   -111.30427  0.093902531   -111.21037    486.55559    4.2492061    4.2492061    4.2492061    486.55559   -1683.5847    5872.3843   -2729.1328   -277.92513    1102.7608    808.70086    76.722612 
   28600    86.715625   -111.28881   0.07846212   -111.21035    2088.4876    4.2504586    4.2504586    4.2504586    2088.4876    6148.7942    4357.0667   -4240.3982   -2311.8873   -484.04166    519.03449    76.790476 
   28700    110.70769   -111.31024   0.10017064   -111.21007     269.6948    4.2498929    4.2498929    4.2498929     269.6948   -2010.7019    7271.0655   -4451.2792    49.895149   -192.12686   -1083.0819    76.759821 
   28800    112.03319   -111.31152   0.10136998   -111.21015   -677.42805    4.2500896    4.2500896    4.2500896   -677.42805    161.31257    936.13792   -3129.7347    852.21646    891.80815   -917.04288    76.770478 
   28900    98.481393   -111.29933  0.089108034   -111.21022   -507.36158    4.2514739    4.2514739    4.2514739   -507.36158   -2387.2595    2940.2031   -2075.0283   -926.69722    263.70624   -981.75244    76.845518 
   29000    116.28926   -111.31533   0.10522096   -111.21011   -1632.3037    4.2494544    4.2494544    4.2494544   -1632.3037   -2532.5292   -2814.3364    449.95443    -15.84857   -191.06123    77.840994    76.736063 
   29100    62.232358   -111.26685  0.056309146   -111.21055    1683.9954    4.2498354    4.2498354    4.2498354    1683.9954   -1861.0869    5616.3575    1296.7155   -3163.4607    1643.9355     1371.455    76.756707 
   29200    96.798265   -111.29795  0.087585105   -111.21036   -1812.5586    4.2518263    4.2518263    4.2518263   -1812.5586   -5961.5616    4782.4857   -4258.5998     928.2062    2438.2061    1658.1528    76.864628 
   29300    49.545932   -111.25539  0.044830201   -111.21056    1786.3828    4.2490987    4.2490987    4.2490987    1786.3828   -753.37383    5587.0265    525.49575   -5188.4689    243.38347    1248.6952    76.716797 
   29400    119.11486   -111.31808   0.10777762   -111.21031   -2764.1879    4.2506678    4.2506678    4.2506678   -2764.1879   -4778.5546    930.74999   -4444.7591   -608.72251    -527.1879   -804.56384    76.801819 
   29500    99.964195   -111.30076  0.090449705   -111.21031   -1303.0566    4.2510968    4.2510968    4.2510968   -1303.0566   -920.92713    2664.7896   -5653.0323   -1005.8668       927.73   -883.73479    76.825072 
   29600    124.33658   -111.32259   0.11250235   -111.21009   -2514.3145    4.2497633    4.2497633    4.2497633   -2514.3145   -3320.7392   -757.50628   -3464.6979   -498.57206    858.92051   -331.40229    76.752799 
   29700    118.60357   -111.31769     0.107315   -111.21038   -864.67854    4.2508721    4.2508721    4.2508721   -864.67854   -1424.9191    2054.9727   -3224.0892   -221.42891   -347.05963    296.73793    76.812889 
   29800    84.705854   -111.28717  0.076643637   -111.21052    3177.3476    4.2496219    4.2496219    4.2496219    3177.3476    1573.8376    8629.6126   -671.40752   -1743.1413   -202.43396    287.20122    76.745137 
   29900    108.85459   -111.30877  0.098493917   -111.21027    1588.1759    4.2490926    4.2490926    4.2490926    1588.1759   -2303.9043     7451.425   -382.99308    871.51283    1267.9523    443.33556    76.716467 
   30000    53.313503   -111.25897  0.048239178   -111.21073    4265.8885    4.2506664    4.2506664    4.2506664    4265.8885    2603.9349    9943.2855    250.44505   -3637.4931    1287.3971    1700.2598     76.80174 
   30100    125.01844   -111.32339   0.11311931   -111.21027   -1032.6021    4.2498397    4.2498397    4.2498397   -1032.6021   -544.64852   -1689.2853   -863.87245   -635.95882    953.46294    906.59476    76.756939 
   30200    75.591895   -111.27891  0.068397135   -111.21051    1643.6033    4.2493069    4.2493069    4.2493069    1643.6033    1088.9151    3155.4286    686.46625   -3021.3447    1530.8779   -416.15753    76.728072 
   30300    144.20558   -111.34058   0.13048024    -111.2101   -4899.6957    4.2520439    4.2520439    4.2520439   -4899.6957   -3648.7663   -3838.5703   -7211.7505    1867.1875    1106.6064   -1446.2199    76.876434 
   30400    96.930091   -111.29821  0.087704383    -111.2105   -1635.3432    4.2499798    4.2499798    4.2499798   -1635.3432   -3224.2867    1192.9469   -2874.6899    -2466.672    -703.7562   -717.13891    76.764533 
   30500     122.4947   -111.32102   0.11083578   -111.21018   -2840.6881    4.2504068    4.2504068    4.2504068   -2840.6881   -4249.3439   -224.17328    -4048.547   -1657.7617   -818.23878    563.73157    76.787671 
   30600    104.96546   -111.30545  0.094974958   -111.21047   -992.83119    4.2512031    4.2512031    4.2512031   -992.83119    -3541.897    5988.4961   -5425.0927   -364.84958    1173.5286    778.29744    76.830839 
   30700    85.926489   -111.28818  0.077748093   -111.21043    1427.7649    4.2492982    4.2492982    4.2492982    1427.7649    3246.5229    2092.8973   -1056.1254   -2625.5949    1534.0927    969.67658    76.727605 
   30800    106.84769   -111.30696  0.096678032   -111.21028    710.45958    4.2504649    4.2504649    4.2504649    710.45958     1189.385    2194.3803   -1252.3865   -1108.9148    487.17513    501.73834    76.790818 
   30900    62.502616   -111.26711   0.05655368   -111.21055    4288.0233    4.2499939    4.2499939    4.2499939    4288.0233    10609.795    1630.6405    623.63461   -2243.5999    1119.5055   -150.04559    76.765293 
   31000    131.63623   -111.32921   0.11910723    -111.2101   -588.86314    4.2492197    4.2492197    4.2492197   -588.86314    1136.8568   -2001.8622   -901.58407    1971.7115    2002.1571   -315.03012    76.723352 
   31100     74.88248   -111.27824  0.067755242   -111.21048    2237.2395    4.2509306    4.2509306    4.2509306    2237.2395    4068.0203    4389.7484   -1746.0502   -1181.9305    786.98834   -783.13764    76.816062 
   31200    144.40365   -111.34064   0.13065946   -111.20998   -3488.1371    4.2509304    4.2509304    4.2509304   -3488.1371   -2754.7531   -2779.7599   -4929.8984    288.17128   -974.25157   -431.46071    76.816052 
   31300    84.689627   -111.28713  0.076628954    -111.2105    230.43796    4.2493136    4.2493136    4.2493136    230.43796    905.03615    1707.7138   -1921.4361   -3364.1031     -741.718   -621.88101    76.728437 
   31400     113.7856   -111.31312    0.1029556   -111.21016   -2720.3913    4.2516491    4.2516491    4.2516491   -2720.3913    527.56722   -1556.4896   -7132.2515   -218.26785    754.88899    111.15411    76.855019 
   31500    78.519596   -111.28155  0.071046181    -111.2105   -272.29015    4.2502412    4.2502412    4.2502412   -272.29015    4771.3124    -2560.317   -3027.8658   -3172.0609    940.41495    962.39084    76.778694 
   31600    74.600052   -111.27808  0.067499695   -111.21058    417.95929    4.2497176    4.2497176    4.2497176    417.95929    5232.8212   -4238.8016    259.85818   -2927.1148    1392.2576    731.66108    76.750324 
   31700    106.07913    -111.3062  0.095982629   -111.21022   -1391.4349    4.2512392    4.2512392    4.2512392   -1391.4349    2347.8366   -4629.7386   -1892.4027    793.41693    2463.2421    406.05764    76.832794 
   31800    75.388365   -111.27858  0.068212977   -111.21036    1267.2177    4.2494599    4.2494599    4.2494599    1267.2177    2087.8021   -863.98143    2577.8324   -1576.3686    1429.0563   -748.22602    76.736362 
   31900     134.3249   -111.33155   0.12153999   -111.21001   -2806.3404    4.2508413    4.2508413    4.2508413   -2806.3404   -3518.2237   -4282.4882   -618.30934    770.24932   -1005.1065   -716.28484    76.811223 
   32000     73.49046   -111.27695  0.066495712   -111.21045    2402.0623    4.2508872    4.2508872    4.2508872    2402.0623    6252.2013    2129.6448   -1175.6594    -2895.524   -1340.5753   -627.38213    76.813713 
   32100    128.93863   -111.32661   0.11666638   -111.20994   -345.28046     4.249011     4.249011     4.249011   -345.28046    2777.8845   -704.40636   -3109.3195    1068.8085    322.94331   -278.14512    76.712048 
   32200    67.271057   -111.27136  0.060868266    -111.2105    3141.5784    4.2502342    4.2502342    4.2502342    3141.5784    10076.352    2818.1235   -3469.7404   -2735.6296    690.43173    405.57081    76.778318 
   32300    105.86791   -111.30609   0.09579151    -111.2103   -523.87086    4.2512241    4.2512241    4.2512241   -523.87086    2189.2579    996.35497   -4757.2254   -1051.0695    33.433201   -101.10789    76.831973 
   32400    100.52745    -111.3012   0.09095935   -111.21024     168.3646    4.2491035    4.2491035    4.2491035     168.3646    3521.8608   -3463.1859     446.4189   -1820.5534    1207.0005    97.609401    76.717055 
   32500    108.19766   -111.30804  0.097899519   -111.21014   -1019.4527    4.2509267    4.2509267    4.2509267   -1019.4527   -4563.0402    1860.2191    -355.5369   -102.90691    2527.3341    577.27628     76.81585 
   32600    115.48364   -111.31478   0.10449203   -111.21029   -2751.1584    4.2509983    4.2509983    4.2509983   -2751.1584   -3502.8275   -5251.2509    500.60323    272.60347    779.67963    739.27204    76.819731 
   32700    79.870335   -111.28274  0.072268357   -111.21047   -84.804287    4.2497307    4.2497307    4.2497307   -84.804287   -1740.1643   -2100.5875    3586.3389   -3895.2317   -1702.6707   -25.899215    76.751033 
   32800    112.73093   -111.31213   0.10200131   -111.21013   -1386.2976    4.2514034    4.2514034    4.2514034   -1386.2976    2917.4474   -4228.8848   -2847.4554    1048.6063   -1535.2236   -1524.8238    76.841698 
   32900    73.751183    -111.2772   0.06673162   -111.21047    2186.3839    4.2493462    4.2493462    4.2493462    2186.3839     5576.514    2810.9483   -1828.3105    -2893.979    383.05515   -995.20222    76.730205 
   33000    108.47449   -111.30858  0.098149996   -111.21043   -790.33512    4.2498408    4.2498408    4.2498408   -790.33512    2343.7218   -864.39466   -3850.3325   -434.53997    615.97285    313.35614    76.756996 
   33100    105.05484   -111.30528  0.095055826   -111.21022    -323.3118    4.2517147    4.2517147    4.2517147    -323.3118    2864.0083    1897.4076   -5731.3513    -2500.703    411.14374    551.18094     76.85858 
   33200    131.29514   -111.32877    0.1187986   -111.20997   -736.08602    4.2495027    4.2495027    4.2495027   -736.08602   -3765.6796    4656.8713   -3099.4497    1239.7393    1538.2778    376.74626    76.738683 
   33300    122.36968   -111.32092   0.11072266   -111.21019   -525.08761    4.2499058    4.2499058    4.2499058   -525.08761   -336.08487    155.28714   -1394.4651     372.7611    1406.1138     137.1027    76.760521 
   33400    91.454687   -111.29313  0.082750123   -111.21038    830.94584    4.2512292    4.2512292    4.2512292    830.94584   -2945.5122    6670.2472   -1231.8974   -307.18586    -333.9315    367.42815    76.832252 
   33500    106.84457   -111.30697  0.096675216   -111.21029    619.34169    4.2494487    4.2494487    4.2494487    619.34169     3480.118    -2520.478    898.38512   -965.50887    -1449.565   -189.17866    76.735756 
   33600    63.011798   -111.26761  0.057014399   -111.21059    3557.8603    4.2499165    4.2499165    4.2499165    3557.8603    3102.3447     7341.802    229.43428    -1530.302    -465.6607   -849.97333    76.761103 
   33700    94.329812   -111.29574  0.085351596   -111.21039   -413.08848    4.2505653    4.2505653    4.2505653   -413.08848     3066.949   -334.68925   -3971.5252   -894.09314   -146.86807   -624.64463    76.796261 
   33800    72.589047   -111.27614  0.065680095   -111.21046     174.2079    4.2494814    4.2494814    4.2494814     174.2079   -332.45918    2282.5027   -1427.4198   -3956.2153   -395.33332   -634.79421    76.737527 
   33900    135.42947   -111.33261   0.12253943   -111.21007   -4255.4279    4.2519516    4.2519516    4.2519516   -4255.4279   -3481.4729   -2230.1927    -7054.618     720.8811    506.00968   -40.018574    76.871426 
   34000     115.7274   -111.31491   0.10471259    -111.2102   -2809.1691    4.2507644    4.2507644    4.2507644   -2809.1691   -3989.7604    1158.6041   -5596.3509   -830.66179     2222.804    466.61843    76.807054 
   34100    118.81255   -111.31765   0.10750409   -111.21015   -3020.9707    4.2497749    4.2497749    4.2497749   -3020.9707   -4519.4859   -1511.8858   -3031.5403    569.09923    1367.3795     1047.961    76.753427 
   34200    101.44852   -111.30236  0.091792749   -111.21057   -684.34098    4.2515274    4.2515274    4.2515274   -684.34098    164.04561    1417.9339   -3635.0025   -1729.9603    -802.1486    172.66211    76.848421 
   34300    76.644885   -111.27987  0.069349902   -111.21052    3304.3471    4.2494659    4.2494659    4.2494659    3304.3471     1971.782    8357.7215   -416.46219    125.33082   -746.48124   -1390.2724    76.736689 
   34400    88.402341   -111.29033  0.079988296   -111.21034    2777.5997    4.2490264    4.2490264    4.2490264    2777.5997    5691.2713    1983.9741    657.55363   -1307.7014   -395.72851    -1226.271    76.712882 
   34500    44.599176   -111.25122  0.040354272   -111.21086     4503.524    4.2504536    4.2504536    4.2504536     4503.524    1233.6634    12567.907   -290.99886   -2013.5011   -702.12783   -510.65733    76.790209 
   34600     121.5934   -111.32028   0.11002027   -111.21026   -1126.9173    4.2497592    4.2497592    4.2497592   -1126.9173   -130.11694   -1956.0474   -1294.5875   -985.36262   -787.50985    397.39252    76.752578 
   34700    92.562023    -111.2941  0.083752063   -111.21035    292.07354     4.250284     4.250284     4.250284    292.07354   -3578.9315    5976.1896   -1521.0376   -644.89375    654.03143   -81.393513    76.781015 
   34800    154.00729   -111.34925   0.13934903    -111.2099   -5693.6894     4.251676     4.251676     4.251676   -5693.6894   -6961.0462   -3136.7193   -6983.3028    1403.8876    1766.6901   -118.02735    76.856477 
   34900    86.452971   -111.28878  0.078224465   -111.21056   -1413.4601    4.2494693    4.2494693    4.2494693   -1413.4601   -6182.2428    3181.2686   -1239.4061   -3219.5068     749.3315    348.94565    76.736869 
   35000    129.82534   -111.32762   0.11746869   -111.21015    -3623.122     4.251229     4.251229     4.251229    -3623.122   -4113.5183   -1973.0227   -4782.8249   -317.57921     202.1162    333.05456    76.832238 
   35100    79.556084   -111.28269  0.071984017   -111.21071    1325.4271    4.2503885    4.2503885    4.2503885    1325.4271     366.3979    6198.8295   -2588.9461    -1461.386    357.39859   -331.12571    76.786677 
   35200    82.280812   -111.28503  0.074449408   -111.21058    1604.4907    4.2488501    4.2488501    4.2488501    1604.4907    1554.4805    2369.0777    889.91377   -1911.0733   -579.33475    -1510.158     76.70333 
   35300    79.399547   -111.28244  0.071842379    -111.2106    1947.9746    4.2506944    4.2506944    4.2506944    1947.9746    1414.3781    4246.9461    182.59939   -1607.5978   -1837.4704    -904.2768    76.803261 
   35400    86.118836   -111.28837  0.077922133   -111.21044    2872.1446     4.249855     4.249855     4.249855    2872.1446    624.82536    7761.7898    229.81874   -238.26883   -944.56647    130.99551    76.757768 
   35500    136.34119   -111.33336   0.12336437      -111.21   -518.41211    4.2494175    4.2494175    4.2494175   -518.41211   -1802.1804    1239.6764   -992.73227    1531.6089    886.50027    1126.5968    76.734064 
   35600    85.089402    -111.2874  0.076990679   -111.21041    1132.0925    4.2509853    4.2509853    4.2509853    1132.0925   -6228.1213    12358.546   -2734.1468    -885.6882     1054.472    797.75293    76.819028 
   35700    151.77698   -111.34732     0.137331   -111.20999    -4147.147    4.2504375    4.2504375    4.2504375    -4147.147   -5436.6266   -2499.7858   -4505.0285   -995.11267    458.10909   -718.51656    76.789334 
   35800    85.750251   -111.28807  0.077588629   -111.21048    887.87555    4.2498302    4.2498302    4.2498302    887.87555    -2947.273    8054.3052   -2443.4056   -1469.4225    940.37599   -554.41413    76.756422 
   35900    136.86853   -111.33391   0.12384152   -111.21006    -3826.586     4.251694     4.251694     4.251694    -3826.586   -1583.4411   -3105.7668   -6790.5502   -223.08581    887.84099   -204.43534    76.857455 
   36000    48.395301   -111.25474  0.043789085   -111.21095     1529.372      4.24931      4.24931      4.24931     1529.372    962.42426    2184.2064    1441.4855   -2632.0895   -829.18822    273.95938    76.728243 
   36100     99.03699   -111.30013   0.08961075   -111.21051    -1366.351    4.2505915    4.2505915    4.2505915    -1366.351    759.30482   -4540.8391   -317.51885   -1270.2484   -1739.6103    46.728503    76.797681 
   36200    74.941985   -111.27826  0.067809083   -111.21045    1788.6384     4.250802     4.250802     4.250802    1788.6384    182.72485    5685.4778   -502.28757    1030.8138   -843.87058   -214.16633    76.809089 
   36300    97.769311   -111.29895  0.088463727   -111.21049    266.79365    4.2489874    4.2489874    4.2489874    266.79365    -2278.378    1859.7016    1219.0574   -619.13038    460.07949    601.59405    76.710765 
   36400    108.41417   -111.30837  0.098095422   -111.21028   -1090.7124    4.2508463    4.2508463    4.2508463   -1090.7124   -5492.3084    3608.9634   -1388.7921    -835.1354    68.387707    483.82417    76.811492 
   36500    105.40363   -111.30547  0.095371422    -111.2101    258.08385    4.2508314    4.2508314    4.2508314    258.08385   -4145.0785    8519.8994   -3600.5693   -1132.4978    857.29862    118.75812    76.810686 
   36600    149.45412   -111.34513   0.13522923    -111.2099    -2007.267    4.2495006    4.2495006    4.2495006    -2007.267   -1391.3007   -172.47843   -4458.0219     275.0321    1767.2632   -368.24441    76.738564 
   36700    71.577088   -111.27526  0.064764454    -111.2105    2135.9511    4.2506822    4.2506822    4.2506822    2135.9511   -26.916964    9674.3259   -3239.5557   -1209.7452    702.12172   -830.21179    76.802596 
   36800    116.35092    -111.3155   0.10527676   -111.21022   -1472.0729    4.2502817    4.2502817    4.2502817   -1472.0729    2600.8439   -4449.7287   -2567.3338   -633.30486   -975.20252   -195.19214    76.780891 
   36900    50.274945   -111.25622  0.045489827   -111.21073    3633.7722     4.249142     4.249142     4.249142    3633.7722    2027.7142    6016.9747    2856.6276   -337.91694   -1630.3338    289.08842    76.719143 
   37000    115.97236   -111.31519   0.10493423   -111.21026   -1996.4634    4.2513532    4.2513532    4.2513532   -1996.4634   -1018.2774   -3565.6843   -1405.4286    1287.4876   -336.24551     1245.606    76.838974 
   37100    62.190737    -111.2669  0.056271486   -111.21062    883.02039    4.2493759    4.2493759    4.2493759    883.02039   -3534.1606    1643.6647     4539.557   -2177.6107   -227.56385    577.13612    76.731814 
   37200    120.56275   -111.31934   0.10908771   -111.21026   -3155.4169    4.2505227    4.2505227    4.2505227   -3155.4169   -6212.6126   -4177.2121    923.57393   -2132.1527   -239.02465   -879.52167    76.793951 
   37300    118.43765   -111.31733   0.10716487   -111.21016   -2089.0555    4.2516262    4.2516262    4.2516262   -2089.0555   -6337.1795    3396.0068   -3325.9936   -113.96576    1246.4037     -740.844    76.853778 
   37400    115.64181   -111.31475   0.10463514   -111.21012   -840.22947    4.2492989    4.2492989    4.2492989   -840.22947   -2149.4528    2029.2272   -2400.4628    -1154.601    1833.6051   -21.739851    76.727641 
   37500    114.63862   -111.31405   0.10372743   -111.21033   -452.92445    4.2502365    4.2502365    4.2502365   -452.92445    -96.17132    2089.8371   -3352.4391   -425.01904    707.71907    928.16077     76.77844 
   37600    72.759021   -111.27643  0.065833891    -111.2106    3430.9499    4.2502732    4.2502732    4.2502732    3430.9499    2179.4807    10275.935   -2162.5662   -912.81689   -828.98016   -274.76882    76.780431 
   37700    125.87092   -111.32403   0.11389065   -111.21014    470.38263    4.2490786    4.2490786    4.2490786    470.38263    2472.1393   -1092.7262    31.734792    1393.1169   -885.74013   -863.18873    76.715705 
   37800    54.648424   -111.26024  0.049447043   -111.21079    4215.9449      4.25014      4.25014      4.25014    4215.9449   -681.89714    10557.588    2772.1442   -1057.6908   -743.64946    460.08654    76.773213 
   37900    122.49046   -111.32112   0.11083194   -111.21028   -2072.6343    4.2504892    4.2504892    4.2504892   -2072.6343   -3861.2871   -3627.1311    1270.5151   -1226.4246   -715.40138    541.31366    76.792138 
   38000    76.624852   -111.27983  0.069331776    -111.2105    583.66924    4.2494928    4.2494928    4.2494928    583.66924   -6099.0174    3682.4663    4167.5588   -2105.5174    90.033885   -269.96394    76.738143 
   38100    141.32325   -111.33789   0.12787225   -111.21002   -4575.5058    4.2517994    4.2517994    4.2517994   -4575.5058   -6826.1365   -2361.8801   -4538.5008    434.36936    1806.5071   -1438.8592    76.863169 
   38200    88.122405   -111.29023  0.079735004    -111.2105   -1173.7025    4.2499934    4.2499934    4.2499934   -1173.7025   -3968.4509    2748.9921   -2301.6486   -1407.5732    1558.1571   -591.26525    76.765267 
   38300    108.91444   -111.30884   0.09854807   -111.21029   -2519.3259    4.2499508    4.2499508    4.2499508   -2519.3259   -1482.2854   -2333.7308   -3741.9615   -1697.9753     350.8694    753.79775    76.762959 
   38400    102.50622   -111.30321  0.092749782   -111.21046   -752.37904    4.2512801    4.2512801    4.2512801   -752.37904   -642.14241    3181.8181   -4796.8128    946.37266   -372.82803    501.57575    76.835009 
   38500    84.893673   -111.28715   0.07681358   -111.21033    2068.7082     4.249266     4.249266     4.249266    2068.7082    2066.9246    4751.7555   -612.55544    -682.0504   -166.31109    390.53688    76.725857 
   38600    98.436392   -111.29944  0.089067316   -111.21037    956.45982    4.2496862    4.2496862    4.2496862    956.45982   -942.02009    2047.9754    1763.4241    -1080.225   -983.51455   -382.73792     76.74862 
   38700     60.96253   -111.26581  0.055160178   -111.21065    3587.0984    4.2503189    4.2503189    4.2503189    3587.0984   -2873.9431    11129.656    2505.5827   -2137.0342   -1189.5194   -707.37642    76.782906 
   38800    131.21684   -111.32878   0.11872776   -111.21005   -522.44671    4.2493188    4.2493188    4.2493188   -522.44671   -3089.7116   -737.90677    2260.2783    766.47208    337.14713   -761.26412    76.728718 
   38900    78.132253   -111.28122  0.070695705   -111.21052    1873.1141    4.2501606    4.2501606    4.2501606    1873.1141   -5070.9021    11021.118   -330.87389    14.832169     1290.059   -343.07881     76.77433 
   39000    130.90008   -111.32863   0.11844114   -111.21019   -4023.2045    4.2510345    4.2510345    4.2510345   -4023.2045   -3540.8088   -3673.2953   -4855.5093   -840.69207    1593.3448    733.26475    76.821693 
   39100    85.897431   -111.28822  0.077721801    -111.2105    -791.8745    4.2494043    4.2494043    4.2494043    -791.8745   -2199.0204    989.32623   -1165.9294   -1051.3048    111.88764   -313.76501    76.733348 
   39200    127.41973   -111.32536   0.11529205   -111.21007   -3209.2952    4.2514756    4.2514756    4.2514756   -3209.2952   -874.54051   -2832.5654   -5920.7796   -46.636054    367.73269   -460.90002    76.845613 
   39300    78.037516   -111.28124  0.070609984   -111.21063    8.9926556     4.250236     4.250236     4.250236    8.9926556   -1209.2081    2028.3276   -792.14157   -969.42408   -499.96506   -198.02202    76.778417 
   39400    84.462151     -111.287  0.076423129   -111.21058   -72.594014    4.2490868    4.2490868    4.2490868   -72.594014   -1659.8655   -2319.5235     3761.607   -3714.4097    -1304.307   -37.409138    76.716151 
   39500    93.223245   -111.29477  0.084350351   -111.21042    843.90872    4.2509627    4.2509627    4.2509627    843.90872   -3971.2804    3577.5138    2925.4927    229.88916   -610.50339   -425.09182    76.817801 
   39600    97.444381   -111.29852  0.088169723   -111.21035    1776.4777    4.2496621    4.2496621    4.2496621    1776.4777   -2870.6038    5237.8462    2962.1906   -749.76892    556.83426   -1589.4561    76.747317 
   39700    121.37912   -111.32003   0.10982638   -111.21021   -486.81675    4.2494538    4.2494538    4.2494538   -486.81675   -4380.1322    748.42218    2171.2598    222.14917    1046.8759   -321.52274    76.736033 
   39800    98.997457   -111.29982   0.08957498   -111.21025    783.97655    4.2508205    4.2508205    4.2508205    783.97655   -4061.4024    8335.8419   -1922.5098   -1230.8778    383.35717    755.22058    76.810094 
   39900    139.75514   -111.33643   0.12645339   -111.20998   -1281.4629    4.2498097    4.2498097    4.2498097   -1281.4629    1352.0392   -2194.6507   -3001.7771    906.40731    742.02662    807.36322    76.755316 
   40000    94.948881   -111.29625  0.085911743   -111.21033     998.2767    4.2500623    4.2500623    4.2500623     998.2767   -1870.6957    7309.6754   -2444.1496   -138.02741    646.84437   -50.405568    76.769001 
   40100    102.96802   -111.30344  0.093167625   -111.21028   -866.00878    4.2507384    4.2507384    4.2507384   -866.00878    832.51402   -2157.0628   -1273.4775   -2005.2599   -409.30749   -1338.0004    76.805642 
   40200    73.725798   -111.27727  0.066708651   -111.21056    1506.4948    4.2488623    4.2488623    4.2488623    1506.4948   -1758.0696    1072.9878    5204.5662   -1960.1164   -1744.5578    -809.4379    76.703992 
   40300    102.35409   -111.30284  0.092612135   -111.21023   -839.08025    4.2507577    4.2507577    4.2507577   -839.08025   -2421.1303   -2142.5575     2046.447   -396.26389    -690.5386   -506.09756    76.806691 
   40400    92.608057   -111.29404  0.083793716   -111.21025   -1093.5265    4.2509654    4.2509654    4.2509654   -1093.5265   -5643.5007   -335.92615    2698.8474    873.17255    759.24825    213.45716    76.817949 
   40500    99.666116   -111.30038  0.090179997    -111.2102   -1172.5451    4.2491886    4.2491886    4.2491886   -1172.5451   -4258.4755   -2332.9748    3073.8151   -3167.2309    1203.1333    185.92113    76.721663 
   40600    119.19642   -111.31794   0.10785143   -111.21008   -1646.0516    4.2507794    4.2507794    4.2507794   -1646.0516   -3280.5965    1011.3976    -2668.956    745.59123     724.8297   -316.35493    76.807866 
   40700    108.68785   -111.30842  0.098343047   -111.21008   -451.73635     4.250538     4.250538     4.250538   -451.73635   -766.79796    4353.3612   -4941.7723   -1082.7403    777.43819    392.97832    76.794784 
   40800    104.51307   -111.30477  0.094565626   -111.21021   -5.1166883    4.2494508    4.2494508    4.2494508   -5.1166883     773.9286    35.368231    -824.6469   -53.528839     29.50012     150.4062    76.735869 
   40900     77.43924   -111.28051  0.070068651   -111.21044    2375.5661    4.2502122    4.2502122    4.2502122    2375.5661   -1486.9038    9249.8218   -636.21983   -2310.5215   -1032.1388   -284.43873    76.777126 
   41000    95.064091   -111.29619  0.086015987   -111.21018    1503.7903    4.2494327    4.2494327    4.2494327    1503.7903    3966.3288   -1847.6388     2392.681   -81.725043   -1016.7488   -929.58638    76.734886 
   41100    83.498742    -111.2859  0.075551417   -111.21035    1003.3346     4.249732     4.249732     4.249732    1003.3346   -4428.5683    3998.5828    3439.9894    898.76421   -535.21414    -1105.126    76.751106 
   41200    89.602449   -111.29151  0.081074179   -111.21044   -949.92681      4.25135      4.25135      4.25135   -949.92681   -2415.3881   -1519.8726    1085.4802    -1399.853    1095.9109    390.87872    76.838801 
   41300    101.76531   -111.30232  0.092079395   -111.21024    -1441.684    4.2494537    4.2494537    4.2494537    -1441.684   -3199.5149   -2544.5041    1418.9669    440.33808    49.507958    134.10265    76.736026 
   41400    111.19945   -111.31073    0.1006156   -111.21012   -1989.8757    4.2500511    4.2500511    4.2500511   -1989.8757   -632.12823   -1982.1302   -3355.3685   -1471.6681    1542.1225     553.0186    76.768393 
   41500    112.66854   -111.31211   0.10194486   -111.21017   -2925.3185    4.2516689    4.2516689    4.2516689   -2925.3185   -1168.7993   -2077.4378   -5529.7185    930.02971    1446.8964    164.39852    76.856092 
   41600    85.767769   -111.28797  0.077604479   -111.21036   -379.84137    4.2494244    4.2494244    4.2494244   -379.84137    348.09388   -854.72968   -632.88829   -4442.3919    122.30362   -783.75319    76.734438 
   41700     103.4775   -111.30393  0.093628618    -111.2103    139.03888     4.249847     4.249847     4.249847    139.03888    741.55187   -1421.0684    1096.6332   -588.63684   -1341.8246   -817.76956    76.757333 
   41800    94.566523   -111.29585  0.085565777   -111.21028    1598.5736    4.2502153    4.2502153    4.2502153    1598.5736   -803.72064    3901.5484    1697.8929    130.12899   -1519.6259   -1022.5391    76.777291 
   41900    94.343206   -111.29575  0.085363715   -111.21039    1086.1512     4.249197     4.249197     4.249197    1086.1512   -589.76171   -2571.0014    6419.2168   -532.42965    629.31752    438.09845    76.722123 
   42000    96.053533    -111.2974  0.086911256   -111.21049    554.05516    4.2505458    4.2505458    4.2505458    554.05516   -5680.8228    5567.0821    1775.9062   -583.61019    1117.4274    356.35135    76.795207 
   42100    110.64887   -111.31033   0.10011743   -111.21022     737.6826    4.2496613    4.2496613    4.2496613     737.6826    2863.7835   -1863.8896     1213.154   -546.46556    1236.8807   -415.42276    76.747272 
   42200    126.36839   -111.32446   0.11434078   -111.21012   -580.19226    4.2489724    4.2489724    4.2489724   -580.19226   -893.13724     1059.235   -1906.6745    1641.4756    435.76326    356.50395    76.709956 
   42300    91.944132   -111.29355  0.083192983   -111.21036   -368.88035    4.2512874    4.2512874    4.2512874   -368.88035    2630.2885    992.09322   -4729.0227   -2157.3434    1001.7002    284.03072    76.835405 
   42400     114.0149   -111.31336   0.10316307    -111.2102    -1787.479    4.2501469    4.2501469    4.2501469    -1787.479    735.99974   -4789.6492   -1308.7876   -836.98257   -342.56475    365.90967    76.773588 
   42500    92.428092   -111.29385   0.08363088   -111.21022    1260.8722    4.2487994    4.2487994    4.2487994    1260.8722     1408.177    -724.9109    3099.3504    -1616.031   -601.17597   -1194.7056    76.700586 
   42600    109.99468   -111.30965  0.099525499   -111.21012   -932.92402     4.251019     4.251019     4.251019   -932.92402    118.75499   -4036.4714    1118.9444    1023.9184   -684.84305    -1286.295    76.820853 
   42700    80.036655   -111.28289  0.072418847   -111.21048   -43.511084    4.2498598    4.2498598    4.2498598   -43.511084   -2991.3083   -1966.6213    4827.3963   -2696.1499    270.80521    163.65792    76.758027 
   42800    102.34104   -111.30283  0.092600322   -111.21023   -625.83599    4.2499124    4.2499124    4.2499124   -625.83599   -1354.0016   -5053.1912    4529.6848   -713.33869    642.03268    178.57717    76.760878 
   42900    114.25543   -111.31341   0.10338072   -111.21003   -244.24487    4.2507476    4.2507476    4.2507476   -244.24487   -208.82786      1900.44   -2424.3467    433.74305     1732.638    633.71912    76.806142 
   43000    91.324495   -111.29291  0.082632323   -111.21028    528.21672    4.2491577    4.2491577    4.2491577    528.21672    5184.1212   -2272.5073   -1326.9637   -1731.4323    1121.4261    1.1393083    76.719992 
   43100    108.17254   -111.30818   0.09787679    -111.2103   -1894.0436     4.250876     4.250876     4.250876   -1894.0436   -2050.2585    1525.6798   -5157.5521   -1546.1244   -246.37622   -0.7817338    76.813101 
   43200    85.357964   -111.28748   0.07723368   -111.21025    1133.2705     4.250943     4.250943     4.250943    1133.2705    3616.8564    1200.1743   -1417.2192   -1610.4681   -974.30213   -332.35941    76.816737 
   43300    127.69049   -111.32543   0.11553704   -111.20989   -950.78444    4.2488864    4.2488864    4.2488864   -950.78444   -1092.3145   -1438.5099   -321.52888    2175.4289   -1432.6744   -1172.9181    76.705298 
   43400    61.234862   -111.26592   0.05540659   -111.21052    1628.7818    4.2503978    4.2503978    4.2503978    1628.7818     811.9299    3268.0285    806.38707   -2095.5962    1423.1149   -170.36041    76.787184 
   43500    104.37895    -111.3047  0.094444268   -111.21026   -1849.5873    4.2511213    4.2511213    4.2511213   -1849.5873   -1569.9991   -5708.9534    1730.1907   -218.24332    472.66866   -335.67656    76.826402 
   43600    84.169885   -111.28645  0.076158681   -111.21029    1519.8747    4.2488446    4.2488446    4.2488446    1519.8747    2275.3917   -840.72279    3124.9552   -1155.6979    1476.9578   -126.26082    76.703036 
   43700    106.82442    -111.3069  0.096656978   -111.21024   -887.94166    4.2508534    4.2508534    4.2508534   -887.94166    4708.0792   -3747.2838   -3624.6205    784.73026    1042.1789    123.38215    76.811876 
   43800    91.696911   -111.29344  0.082969292   -111.21047   -1577.9109    4.2501103    4.2501103    4.2501103   -1577.9109    1526.6401   -2801.5982   -3458.7745   -2823.1481    625.56494    122.91908    76.771601 
   43900    98.908841   -111.29991  0.089494798   -111.21042   -1134.4806    4.2495483    4.2495483    4.2495483   -1134.4806    271.93226   -3814.4891    139.11489   -3741.9518   -30.399048    779.56474    76.741149 
   44000    134.15118   -111.33156    0.1213828   -111.21018   -2197.1007    4.2514587    4.2514587    4.2514587   -2197.1007   -1389.1252    83.502253   -5285.6793    900.19042   -956.03698   -456.75825    76.844698 
   44100    81.871705   -111.28461  0.074079239   -111.21053    1183.0664    4.2488758    4.2488758    4.2488758    1183.0664    887.13446   -265.94199    2928.0069   -1550.0041    290.19896   -950.02025    76.704723 
   44200    105.61444   -111.30602  0.095562169   -111.21046   -1086.1373    4.2494267    4.2494267    4.2494267   -1086.1373   -3208.6679   -1625.5057    1575.7617   -47.987827    98.619002   -924.15387    76.734564 
   44300    68.080608   -111.27221  0.061600765   -111.21061    3089.8675    4.2508594    4.2508594    4.2508594    3089.8675    3959.8355    2217.1838    3092.5832   -1476.2684    1655.5121   -584.77717    76.812204 
   44400    128.33301   -111.32614    0.1161184   -111.21003    158.97046    4.2489627    4.2489627    4.2489627    158.97046    2777.6935   -3354.0039    1053.2217    1215.9248    1342.5332    871.33474    76.709431 
   44500      79.6127   -111.28254  0.072035244    -111.2105    1868.3574    4.2494713    4.2494713    4.2494713    1868.3574    5236.7692    1362.7578   -994.45464   -1621.7531    2118.7658    537.37535    76.736978 
   44600    113.87315   -111.31326   0.10303482   -111.21022    -1411.225     4.250958     4.250958     4.250958    -1411.225    1398.6056   -2109.1478   -3523.1329   -1846.2599   -439.86683    314.64467     76.81755 
   44700    126.35199   -111.32441   0.11432594   -111.21009   -891.01384    4.2494333    4.2494333    4.2494333   -891.01384    213.62877   -868.86117   -2017.8091   -1187.1385   -1123.0502   -344.13847    76.734921 
   44800    113.75998   -111.31303   0.10293242    -111.2101   -800.84847    4.2509011    4.2509011    4.2509011   -800.84847     144.7349   -301.61166   -2245.6686    54.507593   -280.39915   -713.04613    76.814466 
   44900    101.30722   -111.30206  0.091664904   -111.21039   -1419.6037     4.250508     4.250508     4.250508   -1419.6037   -822.34528   -2638.0973   -798.36866   -531.67526    1347.1916   -119.94214    76.793158 
   45000    67.285288   -111.27152  0.060881142   -111.21064    1758.2024    4.2488709    4.2488709    4.2488709    1758.2024    533.17718   -2149.1427    6890.5728   -2588.4986    731.32536   -1156.0866    76.704456 
   45100    120.69397   -111.31928   0.10920644   -111.21008    -1409.035    4.2515847    4.2515847    4.2515847    -1409.035   -39.835666   -3554.8445   -632.42479    1578.3551     512.8572   -599.02418    76.851527 
   45200    70.477199   -111.27416   0.06376925   -111.21039    1300.0362    4.2502069    4.2502069    4.2502069    1300.0362    1356.8689   -2163.3469    4706.5865   -2061.4611    1147.0781   -24.865712    76.776837 
   45300    112.17874   -111.31178   0.10150168   -111.21028   -2428.4667    4.2495847    4.2495847    4.2495847   -2428.4667   -2579.3207   -3755.6027   -950.47675    -1777.636    791.70134    863.82447    76.743123 
   45400    93.113801   -111.29454  0.084251324   -111.21029   -21.379067    4.2513025    4.2513025    4.2513025   -21.379067   -273.31527    3646.4965   -3437.3184   -2416.9783     747.3888    1018.5882    76.836224 
   45500    134.25831   -111.33132   0.12147974   -111.20984    -1679.554    4.2501539    4.2501539    4.2501539    -1679.554   -2668.8313    941.24554   -3311.0763    609.21378   -1672.9869   -359.40278    76.773962 
   45600    95.967401   -111.29716  0.086833321   -111.21033   -29.586485    4.2499235    4.2499235    4.2499235   -29.586485   -1017.1267    3135.8501   -2207.4829     43.53334    804.67161   -598.71089    76.761478 
   45700    74.948071    -111.2784   0.06781459   -111.21059    1040.5327    4.2508392    4.2508392    4.2508392    1040.5327    1503.2463    1955.6566   -337.30497   -991.42816    445.94553   -1235.1421    76.811106 
   45800    108.81035   -111.30881  0.098453887   -111.21035    434.12971    4.2489291    4.2489291    4.2489291    434.12971    349.40057   -2020.0975    2973.0861     27.91887    1307.3087   -799.30592    76.707611 
   45900     79.27036   -111.28214  0.071725488   -111.21042    1974.4161    4.2501821    4.2501821    4.2501821    1974.4161    2483.4871   -1151.1535    4590.9145   -1008.1354    1445.9879    454.90422    76.775491 
   46000    107.41264   -111.30761  0.097189211   -111.21042   -2198.9151    4.2512416    4.2512416    4.2512416   -2198.9151   -1838.6335   -3681.6694   -1076.4425   -888.82156    806.19983    935.39204    76.832926 
   46100    66.741832   -111.27106  0.060389413   -111.21067    1084.9335    4.2485427    4.2485427    4.2485427    1084.9335   -1317.4145     460.9119    4111.3031   -4545.0472    231.15061    1082.5046    76.686684 
   46200    142.30979   -111.33869   0.12876489   -111.20993   -3212.0649    4.2510557    4.2510557    4.2510557   -3212.0649   -4494.5573    499.80972   -5641.4472     777.8025   -1412.7043   -346.66673    76.822845 
   46300    89.188644   -111.29105   0.08069976   -111.21036   -8.9586448     4.250711     4.250711     4.250711   -8.9586448   -2877.4184     3697.242   -846.69961   -1062.7077     462.2778   -563.19024     76.80416 
   46400    104.26564   -111.30473  0.094341741   -111.21039   -1736.8013    4.2492916    4.2492916    4.2492916   -1736.8013   -4112.1195   -186.38846   -911.89594    -1140.617    243.88781   -315.33755    76.727245 
   46500    92.338501     -111.294  0.083549816   -111.21045     485.6577    4.2507099    4.2507099    4.2507099     485.6577   -1496.8264    2212.1744    741.62518   -539.96736    1513.1952   -869.93722    76.804097 
   46600    108.24051   -111.30806  0.097938292   -111.21012     1192.702    4.2497528    4.2497528    4.2497528     1192.702    968.18372   -1808.2149    4418.1371    416.60199    256.05379   -824.76319    76.752231 
   46700    107.35077   -111.30741  0.097133233   -111.21028    130.91458    4.2496371    4.2496371    4.2496371    130.91458    -1360.113   -523.32744    2276.1841    18.840905    1249.9131    -142.3514    76.745965 
   46800    66.347859   -111.27073  0.060032937    -111.2107    1870.4778    4.2510325    4.2510325    4.2510325    1870.4778    2136.3315    2675.5006    799.60133   -3084.0758    1294.6043    1634.3867    76.821587 
   46900    128.86284   -111.32668   0.11659781   -111.21008   -680.04908    4.2493813    4.2493813    4.2493813   -680.04908   -2187.8551     1595.109   -1447.4011   -477.10032   -98.407907    1611.6124    76.732106 
   47000    91.781289   -111.29329  0.083045639   -111.21025    1877.9515     4.249759     4.249759     4.249759    1877.9515    649.06511    5668.0889   -683.29952   -666.21971   -11.137687   -310.71202    76.752568 
   47100    123.85071   -111.32225   0.11206273   -111.21019   -3260.1964    4.2520155    4.2520155    4.2520155   -3260.1964   -3313.0681   -465.14989   -6002.3711    571.90843   -476.58201   -1333.3046    76.874891 
   47200    75.808845   -111.27918  0.068593436   -111.21059    28.704747    4.2494732    4.2494732    4.2494732    28.704747   -3165.0233    -1414.192    4665.3296   -3070.4201    114.83044   -1631.3058     76.73708 
   47300    131.83293   -111.32927    0.1192852   -111.20998   -2035.2803    4.2505357    4.2505357    4.2505357   -2035.2803   -1888.2056   -5135.1393    917.50404    312.43929    406.90598   -41.339857    76.794656 
   47400    98.431609   -111.29934  0.089062988   -111.21027   -96.958974    4.2511258    4.2511258    4.2511258   -96.958974    -3193.109   -1508.4363    4410.6683   -218.05519    1589.7811    361.30104    76.826644 
   47500    78.401664   -111.28145  0.070939473   -111.21051   -220.75635    4.2495133    4.2495133    4.2495133   -220.75635   -1853.1543   -2642.4138     3833.299   -2775.8273    1024.7062    885.98607    76.739255 
   47600    91.054656   -111.29285  0.082388166   -111.21046    -276.5373    4.2508141    4.2508141    4.2508141    -276.5373   -5116.4908    4643.4527   -356.57381   -1515.5857    504.02111    1167.9472    76.809749 
   47700    96.914479   -111.29796  0.087690257   -111.21027    1520.3799    4.2500622    4.2500622    4.2500622    1520.3799    1448.7928    4031.0976    -918.7508   -700.91544    -404.5127    252.97333    76.768995 
   47800    120.39934   -111.31912   0.10893985   -111.21018   -1202.5641    4.2494835    4.2494835    4.2494835   -1202.5641   -4217.3218    4224.9922   -3615.3626    1291.8244    652.51315   -107.97503    76.737639 
   47900    79.892135   -111.28288  0.072288083   -111.21059   -383.37726    4.2513402    4.2513402    4.2513402   -383.37726   -121.65294    1179.6227   -2208.1016   -2104.4793    1226.8646   -985.35044    76.838271 
   48000    126.74926   -111.32487   0.11468539   -111.21019   -1751.3328    4.2499633    4.2499633    4.2499633   -1751.3328   -721.11463   -4567.7701      34.8863    548.82514   -342.06556    -761.4417    76.763638 
   48100    104.21666   -111.30452  0.094297423   -111.21022    1411.0426    4.2490488    4.2490488    4.2490488    1411.0426     510.8184   -583.68039    4305.9897   -329.73868    480.79781   -350.85361    76.714094 
   48200    91.966818   -111.29363  0.083213509   -111.21042    119.00835    4.2512306    4.2512306    4.2512306    119.00835    2167.6255   -1954.4747    143.87428    588.63897    612.14226    473.53932    76.832328 
   48300    68.288156   -111.27241  0.061788558   -111.21062    1327.1016    4.2494059    4.2494059    4.2494059    1327.1016   -3334.4505    2447.8088    4867.9464   -3218.7585    1348.5387    1845.6859    76.733434 
   48400    90.970182   -111.29261  0.082311732    -111.2103    1728.9333    4.2493535    4.2493535    4.2493535    1728.9333    1877.8809    4219.1876   -910.26876   -1336.2042   -119.28137    1316.2085    76.730599 
   48500    113.72296   -111.31295   0.10289892   -111.21005   -193.83803    4.2508327    4.2508327    4.2508327   -193.83803     -3436.77    5772.1345   -2916.8786    300.65238    293.23456    101.54758    76.810758 
   48600    90.733693   -111.29253  0.082097752   -111.21044   -1050.3544    4.2497076    4.2497076    4.2497076   -1050.3544   -1674.4214   -629.08082   -847.56109   -1363.3103   -260.42128   -1415.6288    76.749784 
   48700    122.55359   -111.32112   0.11088907   -111.21023    -3361.847    4.2509452    4.2509452    4.2509452    -3361.847   -6903.7374   -210.52213   -2971.2817   -180.09592   -160.47471   -1423.7849    76.816855 
   48800    118.90717   -111.31774    0.1075897   -111.21015   -728.68781    4.2506435    4.2506435    4.2506435   -728.68781    706.28242   -3082.0526    189.70672    -100.7461    370.16994   -137.11136    76.800502 
   48900    116.67623   -111.31569    0.1055711   -111.21012   -768.75073     4.249344     4.249344     4.249344   -768.75073   -2074.2418   -1213.2837    981.27331    1510.6662    548.36431    414.02709    76.730085 
   49000     68.08966   -111.27221  0.061608955   -111.21061    925.56482     4.250831     4.250831     4.250831    925.56482   -1488.3932     3008.426    1256.6616   -2362.0391    2311.2804     1133.313    76.810664 
   49100    77.238198   -111.28046  0.069886745   -111.21057     1941.649     4.250204     4.250204     4.250204     1941.649    2908.2791    3406.9185    -490.2505   -388.01228   -400.05685      984.726    76.776682 
   49200    103.20824   -111.30346  0.093384984   -111.21007    2137.5075    4.2489666    4.2489666    4.2489666    2137.5075   -832.09829    7038.5258    206.09484   -432.78985    382.46835    815.44857     76.70964 
   49300    94.455633   -111.29583  0.085465442   -111.21036    448.35747    4.2508751    4.2508751    4.2508751    448.35747    4403.0278    1342.7954   -4400.7509    380.01281     504.2401    449.56126    76.813054 
   49400     112.2664   -111.31182     0.101581   -111.21024   -2537.3777    4.2507988    4.2507988    4.2507988   -2537.3777   -3664.4061   -2154.2493   -1793.4777   -1589.9405    446.99743   -1002.1483    76.808916 
   49500    117.88608   -111.31672    0.1066658   -111.21006   -1217.7958    4.2500218    4.2500218    4.2500218   -1217.7958    1355.4196    -3872.234   -1136.5729   -905.16937    3.0171059   -925.72388    76.766806 
   49600    139.37959   -111.33601   0.12611358   -111.20989    -1976.556    4.2509765    4.2509765    4.2509765    -1976.556   -1563.2468   -3137.4987   -1228.9224    1554.1433   -744.92375   -979.20197    76.818553 
   49700    80.662773   -111.28357  0.072985372   -111.21058    420.59287    4.2497536    4.2497536    4.2497536    420.59287    568.08864   -2390.3628    3084.0528   -1439.2068    1194.7568     518.5327    76.752273 
   49800    75.962311   -111.27953  0.068732296    -111.2108    136.40157    4.2502187    4.2502187    4.2502187    136.40157   -3582.7859    3885.7737    106.21693   -1737.5738    922.71705    1544.9954    76.777474 
   49900    81.289227   -111.28415  0.073552201    -111.2106    1849.3559    4.2503621    4.2503621    4.2503621    1849.3559    205.09809     3465.667    1877.3025   -1292.7609    1403.6451    1027.2824    76.785249 
   50000    98.518885   -111.29945  0.089141957   -111.21031    970.16205    4.2490897    4.2490897    4.2490897    970.16205    756.51389     2577.451    -423.4787    1658.6446   -91.309723    886.79807    76.716308 
   50100    98.779166   -111.29984  0.089377465   -111.21047   -1615.8744    4.2504226    4.2504226    4.2504226   -1615.8744   -2599.6903    784.54146   -3032.4745   -1207.9746    904.13085   -457.68518    76.788528 
   50200     99.95016   -111.30079  0.090437006   -111.21035   -1783.5599    4.2508917    4.2508917    4.2508917   -1783.5599     3572.095   -5401.6651   -3521.1096    415.17759   -131.73724   -589.85467    76.813956 
   50300    144.15846   -111.34033    0.1304376   -111.20989   -2157.2776    4.2496577    4.2496577    4.2496577   -2157.2776   -1434.6271   -3957.2002   -1080.0054    328.57872    205.91721   -729.16869    76.747077 
   50400    98.461752   -111.29941  0.089090262   -111.21032    1069.0014    4.2498064    4.2498064    4.2498064    1069.0014    6829.4026   -1435.2692   -2187.1293    917.94568    900.99703   -477.61469    76.755135 
   50500    91.227065   -111.29311  0.082544165   -111.21057   -22.852371    4.2499825    4.2499825    4.2499825   -22.852371    82.330623    157.83336   -308.72109   -2458.9922    459.22415    1009.4247    76.764678 
   50600    58.006542   -111.26335  0.052485538   -111.21086    3334.0028    4.2491934    4.2491934    4.2491934    3334.0028    2188.0761    4286.2999    3527.6324   -1681.4902    132.21023    953.61892    76.721923 
   50700    110.89997    -111.3107   0.10034462   -111.21036    1185.2666    4.2499544    4.2499544    4.2499544    1185.2666   -981.97829    4751.9859   -214.20778    749.74824   -146.21015    1028.0288    76.763153 
   50800    80.962262   -111.28384  0.073256356   -111.21058    1637.4375    4.2494386    4.2494386    4.2494386    1637.4375      1323.98    1983.6796     1604.653     299.7628     1028.505    617.91193     76.73521 
   50900    105.32916    -111.3059  0.095304042   -111.21059   -2482.4692    4.2500877    4.2500877    4.2500877   -2482.4692   -4022.9635    -626.2708   -2798.1735   -1347.3219   -312.06732   -49.101251    76.770377 
   51000    121.51804    -111.3202   0.10995208   -111.21025   -2733.7078    4.2510146    4.2510146    4.2510146   -2733.7078    -2066.962   -4125.2632   -2008.8981   -800.22917    698.97726   -346.99095    76.820618 
   51100    130.41482   -111.32794   0.11800207   -111.20993   -1968.3045    4.2502842    4.2502842    4.2502842   -1968.3045    696.72025   -3935.9654   -2665.6684    2813.3498   -835.99411    -1322.426    76.781026 
   51200    108.12239   -111.30814  0.097831409   -111.21031   -1561.8948    4.2499657    4.2499657    4.2499657   -1561.8948   -1914.6447    678.43936   -3449.4791   -1186.7552    1695.3091   -238.92023    76.763764 
   51300    64.596237   -111.26916  0.058448033   -111.21071    1226.1842    4.2503367    4.2503367    4.2503367    1226.1842    3080.3921    1561.3007   -963.14036   -1397.8027    1023.7178    1072.1323    76.783869 
   51400    103.26524   -111.30369  0.093436563   -111.21025    1106.9748    4.2500141    4.2500141    4.2500141    1106.9748   -2387.8675    4700.9847    1007.8073   -1237.6074    176.57036    1529.0716    76.766388 
   51500    75.726568   -111.27882   0.06851899   -111.21031    3541.6278    4.2495412    4.2495412    4.2495412    3541.6278    4662.2277    5657.6608    304.99477    1339.9602     1443.723    1456.0426    76.740766 
   51600    101.63574    -111.3024  0.091962153   -111.21044   -572.36585    4.2503654    4.2503654    4.2503654   -572.36585    219.27069   -337.32194   -1599.0463   -85.954711   -792.88927   -121.36745    76.785429 
   51700    87.403659   -111.28955  0.079084667   -111.21047    337.21673    4.2500161    4.2500161    4.2500161    337.21673    1460.9236   -1005.3501     556.0767    -1316.746    730.61299   -161.56965    76.766499 
   51800    150.55436   -111.34607   0.13622475   -111.20985   -2675.0753    4.2507011    4.2507011    4.2507011   -2675.0753   -1280.6856   -3303.9004   -3440.6399    317.47558   -721.96892   -834.42629    76.803622 
   51900    116.10763   -111.31529   0.10505662   -111.21023   -1421.7513    4.2506414    4.2506414    4.2506414   -1421.7513    1666.7487   -3922.3176   -2009.6849   -95.385473    1544.9567   -1091.1483    76.800384 
   52000    96.858235   -111.29803  0.087639367   -111.21039   -1730.2558     4.249928     4.249928     4.249928   -1730.2558   -3249.4508    -863.9781   -1077.3385   -1155.4926    -60.89559   -40.881431    76.761722 
   52100    88.245069   -111.29048  0.079845993   -111.21063    207.77465    4.2501231    4.2501231    4.2501231    207.77465   -2205.7744    2995.1167   -166.01834   -1256.5978    57.726775      422.826    76.772296 
   52200    87.880528   -111.28983  0.079516149   -111.21031    1737.9928    4.2501073    4.2501073    4.2501073    1737.9928    618.88361    2279.5232    2315.5716    1653.2894    415.35119     1505.047    76.771442 
   52300    90.380446    -111.2921  0.081778127   -111.21032    304.79014    4.2495692    4.2495692    4.2495692    304.79014   -2119.5179    2303.2876     730.6007   -208.20838    882.79686    1098.0709    76.742283 
   52400    63.050085   -111.26781  0.057049042   -111.21076    1127.1611    4.2497814    4.2497814    4.2497814    1127.1611    3213.5624    -1312.748    1480.6689    -1091.647    1161.9645    516.02355    76.753781 
   52500    128.68175   -111.32654   0.11643395    -111.2101   -1882.0866    4.2503271    4.2503271    4.2503271   -1882.0866   -590.34966   -3679.7139   -1376.1962   -291.85725   -1248.0835     96.35588     76.78335 
   52600    115.08334   -111.31419   0.10412983   -111.21006    -57.36468    4.2497575    4.2497575    4.2497575    -57.36468     4427.268   -2440.8893   -2158.4727    1331.4044    1174.5423   -1164.0592    76.752487 
   52700    128.09094    -111.3261   0.11589938    -111.2102   -2444.5423    4.2503313    4.2503313    4.2503313   -2444.5423    683.44621   -4720.4757   -3296.5974   -806.91276    444.52037   -933.13049    76.783579 
   52800    75.094756   -111.27881  0.067947313   -111.21086    1300.4152    4.2496719    4.2496719    4.2496719    1300.4152    3177.6284    915.22799   -191.61064   -2404.2734    1222.6559   -134.90512    76.747848 
   52900    107.84989   -111.30795  0.097584845   -111.21037    824.01011    4.2494464    4.2494464    4.2494464    824.01011   -1422.4204    3963.0416   -68.590897   -325.22401   -1149.0645    1241.2234    76.735628 
   53000     84.75683   -111.28714  0.076689761   -111.21045    2297.7374    4.2499383    4.2499383    4.2499383    2297.7374    2472.6793    2456.3387    1964.1943    1193.2724    547.83131    1728.6808    76.762281 
   53100     71.85636   -111.27584  0.065017145   -111.21083    1017.8676    4.2498693    4.2498693    4.2498693    1017.8676   -2146.1666    1640.3922    3559.3771    243.54664   -379.21897    544.64946    76.758542 
   53200    93.078438   -111.29477  0.084219327   -111.21055   -988.74553     4.249733     4.249733     4.249733   -988.74553   -1958.5967    -669.1751   -338.46483   -2193.3828    530.90237    219.24493    76.751159 
   53300    116.18472   -111.31523   0.10512638    -111.2101   -1721.3211    4.2507206    4.2507206    4.2507206   -1721.3211   -370.94096   -4390.2485   -402.77384    1071.3223    208.92381   -541.12096    76.804676 
   53400    143.17186   -111.33958   0.12954491   -111.21004   -4013.8873    4.2507432    4.2507432    4.2507432   -4013.8873    -3651.736   -4143.4526   -4246.4732     -555.574    576.78794   -479.04971    76.805903 
   53500    83.499541   -111.28613   0.07555214   -111.21057   -887.00259    4.2500674    4.2500674    4.2500674   -887.00259    1859.1713   -1482.9789   -3037.2002   -622.87016    2105.8037   -536.57313    76.769275 
   53600    115.98774   -111.31529   0.10494815   -111.21035   -1918.2277    4.2506449    4.2506449    4.2506449   -1918.2277   -1529.7332    -753.9356   -3471.0143   -604.64961    -1149.335   -335.28234    76.800574 
   53700    78.956199   -111.28194  0.071441228    -111.2105    3264.3263    4.2494074    4.2494074    4.2494074    3264.3263    3510.4585    6197.1573    85.362939    1084.5458    1710.3131    1151.5666    76.733519 
   53800    99.982587   -111.30093  0.090466346   -111.21046    1371.2033    4.2499162    4.2499162    4.2499162    1371.2033   -340.45976    3141.2616    1312.8081   -56.011836   -601.35961    1449.4515    76.761083 
   53900    56.841194    -111.2622  0.051431107   -111.21077    2797.8436    4.2500702    4.2500702    4.2500702    2797.8436    3865.1408    2584.2256    1944.1645   -2061.0697    1069.5604    1265.3673    76.769428 
   54000    114.30559   -111.31371    0.1034261   -111.21028   -391.42607    4.2495726    4.2495726    4.2495726   -391.42607   -2451.0206   -2.8626257    1279.6051    52.902569   -808.11871     87.67536    76.742468 
   54100     128.9466   -111.32667    0.1166736      -111.21   -926.40567    4.2504851    4.2504851    4.2504851   -926.40567    1157.7047   -2637.7452   -1299.1764    809.60741    453.12028   -1181.3339    76.791915 
   54200    115.93258   -111.31507   0.10489824   -111.21018   -2301.1927    4.2509206    4.2509206    4.2509206   -2301.1927   -1358.0171   -3809.5803   -1735.9808   -533.46309    1132.5883   -961.08764    76.815519 
   54300    110.25299   -111.31017   0.09975922   -111.21042   -3005.0244     4.250078     4.250078     4.250078   -3005.0244   -3072.0686   -1835.1094   -4107.8952   -2473.7175   -213.71223    -500.2249    76.769851 
   54400    90.310192   -111.29215  0.081714559   -111.21043     416.8687    4.2502761    4.2502761    4.2502761     416.8687    502.08972    892.02281   -143.50641    881.28324    995.14989    541.43776    76.780586 
   54500    114.48825   -111.31369   0.10359138   -111.21009    -404.0596    4.2502863    4.2502863    4.2502863    -404.0596   -3518.4333    2944.6389   -638.38438    1962.6201   -1107.9411    1134.9888    76.781142 
   54600    45.903215   -111.25219  0.041534193   -111.21066    2689.5104    4.2494453    4.2494453    4.2494453    2689.5104    2340.3851    3397.0899    2331.0563    -599.4151    1658.8146    1178.6005    76.735571 
   54700    98.015096   -111.29914  0.088686118   -111.21046   -942.39727    4.2504758    4.2504758    4.2504758   -942.39727    -2717.555   -1996.5381    1886.9012   -1875.6052   -861.59202    1185.9116    76.791408 
   54800    92.211462   -111.29367  0.083434869   -111.21024    1924.9327     4.249607     4.249607     4.249607    1924.9327    4009.2197    875.07442    890.50393   -396.42546    1693.6251     294.9726    76.744333 
   54900    138.73487   -111.33555   0.12553023   -111.21002   -1873.8331    4.2501355    4.2501355    4.2501355   -1873.8331    -910.7505   -3494.4926   -1216.2562    182.13511    472.37486   -316.52541    76.772969 
   55000    95.857232   -111.29723  0.086733638   -111.21049   -1212.3389     4.250909     4.250909     4.250909   -1212.3389    4134.0782   -4529.3473   -3241.7477   -1414.7179    402.16678   -901.38709     76.81489 
   55100    106.59575   -111.30673  0.096450073   -111.21028   -576.97941    4.2497227    4.2497227    4.2497227   -576.97941   -758.21209    154.35879   -1127.0849   -753.00364   -70.569224   -809.90506    76.750601 
   55200    116.91964   -111.31603   0.10579134   -111.21024    635.30161    4.2496529    4.2496529    4.2496529    635.30161    1287.1343    2375.1624   -1756.3919    859.60789   -166.11495    271.44738    76.746819 
   55300    74.067922   -111.27758  0.067018212   -111.21056    1698.3687    4.2504522    4.2504522    4.2504522    1698.3687    703.54355    2388.0831    2003.4796    453.99741    992.21025    944.67431    76.790134 
   55400    85.854968   -111.28829   0.07768338   -111.21061   -906.83664    4.2498052    4.2498052    4.2498052   -906.83664   -4508.1398    418.25093     1369.379   -2612.5568   -935.28353    1873.9793    76.755071 
   55500    65.600019   -111.26999  0.059356276   -111.21064    1891.7749    4.2496781    4.2496781    4.2496781    1891.7749    1685.6881   -121.92892    4111.5655    63.620465     1246.564    766.55367    76.748186 
   55600    143.09287   -111.33935   0.12947343   -111.20987   -2808.6443    4.2507424    4.2507424    4.2507424   -2808.6443   -3699.6303   -3688.1952   -1038.1076    887.23118   -157.18513   -381.48464    76.805862 
   55700    86.914563    -111.2891  0.078642123   -111.21046   -707.10049    4.2498092    4.2498092    4.2498092   -707.10049     2599.264   -2708.1606   -2012.4048   -740.86992    2829.6358   -811.82156    76.755288 
   55800    122.63984   -111.32132    0.1109671   -111.21036   -3642.5683     4.250864     4.250864     4.250864   -3642.5683   -3262.2644   -5433.5554    -2231.885   -2288.0878   -841.83317   -685.80534    76.812451 
   55900    101.60851   -111.30255  0.091937512   -111.21062    649.13119    4.2499804    4.2499804    4.2499804    649.13119    4049.9209    2015.3168   -4117.8442    240.84321    627.12477    295.76529     76.76456 
   56000    118.72101   -111.31758   0.10742126   -111.21016    540.81905    4.2492462    4.2492462    4.2492462    540.81905   -884.53395    3640.0847   -1133.0936    2265.3926    150.78677   -73.015031    76.724788 
   56100    81.334826   -111.28418   0.07359346   -111.21058    1363.9295    4.2503983    4.2503983    4.2503983    1363.9295    1737.9259    2252.9652    100.89755   -1129.6764    185.30832    462.91538    76.787208 
   56200    65.903579   -111.27047  0.059630943   -111.21084    2366.4868    4.2498026    4.2498026    4.2498026    2366.4868    254.90386    3308.0556    3536.5009   -2244.0061    889.13712    1146.0008    76.754928 
   56300    119.74252   -111.31856   0.10834555   -111.21021    198.71866    4.2491985    4.2491985    4.2491985    198.71866   -73.096011   -222.46985    891.72183   -931.66639   -521.53269    1151.4463    76.722203 
   56400    93.652425   -111.29502  0.084738682   -111.21029     943.6513    4.2503994    4.2503994    4.2503994     943.6513    2722.6227   -1754.3225    1862.6537    1124.7399    2469.1731    434.28501     76.78727 
   56500    124.90663   -111.32319   0.11301814   -111.21017   -3780.1704    4.2506962    4.2506962    4.2506962   -3780.1704   -4582.5001   -4774.9356   -1983.0754   -1054.6351   -1170.8833   -1160.5483    76.803357 
   56600    82.780996   -111.28539  0.074901985   -111.21049   -543.63741    4.2498821    4.2498821    4.2498821   -543.63741    2021.7559   -2580.7143   -1071.9539   -737.35497    1490.7162        -1056    76.759237 
   56700    142.43303   -111.33878    0.1288764    -111.2099   -2818.7137    4.2506483    4.2506483    4.2506483   -2818.7137   -4504.3928   -1707.7997   -2243.9488    1049.4745   -1167.1673    5.0547038    76.800758 
   56800    83.726139   -111.28621   0.07575717   -111.21045    1120.2741    4.2494652    4.2494652    4.2494652    1120.2741    1174.3433    3361.1633   -1174.6845   -254.01386    1214.4464    838.01209    76.736648 
   56900    81.972997   -111.28483  0.074170891   -111.21066   -207.84596    4.2502069    4.2502069    4.2502069   -207.84596   -4376.6136    587.62175     3165.454    -1917.735     86.36045    1471.2249    76.776837 
   57000     81.91973   -111.28469  0.074122693   -111.21057    1282.7213    4.2502083    4.2502083    4.2502083    1282.7213    1958.2751    1541.4416    348.44715   -964.85444   -79.948259     718.4825    76.776914 
   57100    102.86201   -111.30317  0.093071706    -111.2101    1959.7964    4.2487274    4.2487274    4.2487274    1959.7964     918.7223     1427.351     3533.316    255.39206    2678.6846    544.79624    76.696685 
   57200    113.42677   -111.31288   0.10263093   -111.21025    -642.4389    4.2502585    4.2502585    4.2502585    -642.4389    943.16758   -2714.4413   -156.04301   -1104.8238   -61.608533    4.1517236    76.779636 
   57300    80.838353   -111.28362  0.073144241   -111.21047   -309.83342    4.2506642    4.2506642    4.2506642   -309.83342    1710.7477   -2450.2547   -189.99319   -1796.3434    1366.5756   -633.94675     76.80162 
   57400    136.48479   -111.33341    0.1234943   -111.20992   -2341.5567    4.2496024    4.2496024    4.2496024   -2341.5567   -2430.6169   -2797.9849   -1796.0683    671.28951   -1889.5317    -59.13385    76.744082 
   57500    96.783223   -111.29776  0.087571494   -111.21019    1534.5365    4.2498281    4.2498281    4.2498281    1534.5365    2558.8921    679.12624     1365.591    2227.3898    1090.7255   -722.30084    76.756309 
   57600    103.77838   -111.30415  0.093900864   -111.21025   -1255.1875    4.2501979    4.2501979    4.2501979   -1255.1875   -4880.8283    492.15586    623.10995   -1525.5249   -726.31633    155.85371    76.776352 
   57700    59.596606   -111.26471  0.053924261   -111.21078    1082.6953    4.2495122    4.2495122    4.2495122    1082.6953    760.29858    116.20917    2371.5783   -2054.1228    653.29651    749.92244    76.739197 
   57800    103.97552    -111.3044  0.094079236   -111.21032    327.67848    4.2502814    4.2502814    4.2502814    327.67848   -3187.3696   -1230.3504    5400.7554   -508.67978    424.40107    1286.1977    76.780873 
   57900     102.1677    -111.3027  0.092443481   -111.21026    823.95932    4.2493031    4.2493031    4.2493031    823.95932    3048.7556    28.177912    -605.0555    144.40372    1606.8807    1247.6979    76.727871 
   58000     86.67972   -111.28903  0.078429632    -111.2106   -953.38084    4.2498264    4.2498264    4.2498264   -953.38084   -1666.7571   -3543.7999    2350.4145   -1651.4018    1828.2005   -1047.7229    76.756219 
   58100    116.12864   -111.31537   0.10507563   -111.21029   -2725.1889    4.2512266    4.2512266    4.2512266   -2725.1889    -797.7165   -4302.9454   -3074.9048   -757.53969   -597.67572   -884.37701     76.83211 
   58200    113.91402   -111.31321    0.1030718   -111.21013    536.60584    4.2493697    4.2493697    4.2493697    536.60584     470.1952    1118.3681    21.254241    1635.0132    1104.8538   -699.35479    76.731475 
   58300    128.20948   -111.32608   0.11600663   -111.21008   -1204.9411    4.2495232    4.2495232    4.2495232   -1204.9411     -1934.64    260.93275   -1941.1159   -528.15825    -1140.737    812.09594     76.73979 
   58400    63.967043   -111.26855  0.057878725   -111.21067    1099.2901    4.2505194    4.2505194    4.2505194    1099.2901    192.11475    2254.1429    851.61261   -1725.1008    1144.9986    823.09986    76.793771 
   58500    105.10659   -111.30536  0.095102653   -111.21025     68.81669    4.2496862    4.2496862    4.2496862     68.81669   -2957.5595      900.856    2263.1536   -769.47483   -877.28391   -10.042152    76.748621 
   58600    90.981325   -111.29257  0.082321815   -111.21025    2769.8298    4.2494003    4.2494003    4.2494003    2769.8298    4161.2871    1099.3046    3048.8975    758.45537     2482.881    738.43787    76.733134 
   58700    99.607531   -111.30062  0.090126987   -111.21049   -211.70987    4.2501155    4.2501155    4.2501155   -211.70987   -482.87197   -1783.9933    1631.7356   -1993.9325    303.39064    501.27363    76.771883 
   58800    89.157167   -111.29125  0.080671278   -111.21057     -1105.97    4.2496297    4.2496297    4.2496297     -1105.97    1290.7677    -4007.291   -601.38687   -2344.8866    573.54037    578.84256    76.745564 
   58900    115.65708   -111.31486   0.10464896   -111.21021   -1394.2096    4.2508085    4.2508085    4.2508085   -1394.2096   -3353.2333   -4187.6877    3358.2923    1108.5329    162.88632   -507.38246    76.809444 
   59000    135.04188    -111.3322   0.12218873   -111.21001   -1947.4646    4.2501507    4.2501507    4.2501507   -1947.4646 -0.096912497   -1531.9602   -4310.3366    1756.6524    -537.7944   -966.68399     76.77379 
   59100    86.480038   -111.28869  0.078248956   -111.21044   -76.582595     4.248939     4.248939     4.248939   -76.582595   -2987.6718   -44.088384    2802.0124   -1800.0681    1725.1217    125.35416    76.708145 
   59200     97.14261    -111.2984  0.087896675   -111.21051   -1101.8222    4.2508405    4.2508405    4.2508405   -1101.8222   -3848.0552     361.5345    181.05419   -2422.4936   -1645.4987    990.75934    76.811179 
   59300    82.658806   -111.28518  0.074791425   -111.21039    2192.5016    4.2497201    4.2497201    4.2497201    2192.5016    1269.6763    3325.0949    1982.7336   -135.85763    2623.1576    1377.8248    76.750457 
   59400    109.11256   -111.30882  0.098727342   -111.21009    633.96861    4.2489054    4.2489054    4.2489054    633.96861    321.29578    221.47951    1359.1306   -104.04249    326.79816    764.60721    76.706326 
   59500    72.150998    -111.2758  0.065283739   -111.21052    1285.1624     4.250044     4.250044     4.250044    1285.1624    3112.3959    -426.0454    1169.1368   -2077.1413     1756.144    -799.9875    76.768011 
   59600    103.40651   -111.30384  0.093564385   -111.21028   -724.36509    4.2497653    4.2497653    4.2497653   -724.36509   -1406.9496   -2378.8562    1612.7105   -918.29605   -440.48931   -480.89273    76.752907 
   59700    125.64237   -111.32373   0.11368386   -111.21005   -1211.0177    4.2500415    4.2500415    4.2500415   -1211.0177    671.39827   -4248.0354   -56.415966    2241.9637   -481.02403   -356.24313    76.767876 
   59800    112.04897   -111.31156   0.10138426   -111.21017   -715.35937    4.2502284    4.2502284    4.2502284   -715.35937   -2650.2011   -3157.2111    3661.3341   -80.422311    129.83887    181.75434       76.778 
   59900    98.843745    -111.2999  0.089435898   -111.21046   -636.73692    4.2491024    4.2491024    4.2491024   -636.73692   -605.96923    -1677.557    373.31546   -1188.6515    -1158.623    404.37123    76.716994 
   60000    81.029417   -111.28381  0.073317119   -111.21049    1070.0651     4.250105     4.250105     4.250105    1070.0651   -3046.6685   -636.13097    6892.9947   -594.55739     1620.581   -225.99798    76.771312 
   60100    107.14344   -111.30716  0.096945639   -111.21021    249.02545    4.2504253    4.2504253    4.2504253    249.02545    1837.5232   -530.02607   -560.42078    219.06468    358.18867    1070.6469    76.788673 
   60200    69.535291   -111.27341  0.062916993   -111.21049    2368.9072    4.2485546    4.2485546    4.2485546    2368.9072    1751.3464    117.54838    5237.8267   -2309.2524    2395.2625    263.12184    76.687331 
   60300     92.36795   -111.29403  0.083576462   -111.21045    -702.3329    4.2501897    4.2501897    4.2501897    -702.3329   -788.86579   -1804.2045     486.0716   -2816.9598   -509.95749    868.67965    76.775906 
   60400    104.61883   -111.30478  0.094661317   -111.21012   -1404.2153    4.2507569    4.2507569    4.2507569   -1404.2153    241.83545   -2258.0308   -2196.4507    979.98997    979.03856   -610.98872    76.806648 
   60500    130.55933   -111.32805   0.11813283   -111.20992   -2595.4439    4.2500667    4.2500667    4.2500667   -2595.4439   -4011.4468   -3995.9798    221.09475    1285.1062    313.10103   -1058.7102    76.769237 
   60600    110.13456   -111.30992   0.09965206   -111.21027   -1873.8231      4.25059      4.25059      4.25059   -1873.8231    -2412.966   -2882.8889   -325.61423   -939.35682   -20.207187   -28.133243    76.797601 
   60700    91.503092   -111.29325  0.082793921   -111.21045   -372.17721    4.2499179    4.2499179    4.2499179   -372.17721   -2268.0156   -439.09745    1590.5814   -1402.2345   -552.12972    402.34828    76.761175 
   60800    108.45691   -111.30848  0.098134094   -111.21034    117.56068    4.2498718    4.2498718    4.2498718    117.56068    530.19752   -750.51102    572.99555    603.15279    456.39742    2005.8219    76.758677 
   60900    78.411595   -111.28142  0.070948459   -111.21047    2638.1182     4.250539     4.250539     4.250539    2638.1182    1580.5792    228.40245     6105.373   -764.63526    2155.1325    159.35353    76.794833 
   61000    82.991704   -111.28556  0.075092638   -111.21046    1533.2491     4.249104     4.249104     4.249104    1533.2491    5098.6465   -233.37548   -265.52354   -2656.9444     163.4126     170.8348    76.717084 
   61100    84.780167   -111.28717  0.076710877   -111.21046    1147.3318    4.2495571    4.2495571    4.2495571    1147.3318   -17.991056   -1020.8128    4480.7993   -1372.9469    573.49235   -369.04869    76.741631 
   61200     131.3323   -111.32873   0.11883223    -111.2099   -1922.5832    4.2513673    4.2513673    4.2513673   -1922.5832   -626.57506   -3316.5603   -1824.6141    789.37283   -1172.6381    419.23642     76.83974 
   61300    116.24642   -111.31531    0.1051822   -111.21012   -1678.2758    4.2498257    4.2498257    4.2498257   -1678.2758   -2671.4989   -2810.5544    447.22588   -376.34778    1656.9607    494.17985    76.756178 
   61400    111.77888   -111.31139   0.10113988   -111.21025   -2628.5547    4.2501566    4.2501566    4.2501566   -2628.5547   -4975.6787   -3471.8188    561.83337   -1189.3198   -713.14396   -899.06189    76.774112 
   61500    106.93302   -111.30708  0.096755243   -111.21032   -1392.9898    4.2505924    4.2505924    4.2505924   -1392.9898   -785.34328   -877.24672   -2516.3795    290.78181    878.14376   -120.71959    76.797729 
   61600    92.667901   -111.29413  0.083847864   -111.21028    1072.6346    4.2494482    4.2494482    4.2494482    1072.6346   -193.75852    435.64217      2976.02    150.07536     1361.927    612.74917    76.735728 
   61700    85.744871   -111.28793  0.077583762   -111.21035    769.47938    4.2502873    4.2502873    4.2502873    769.47938    2511.2643    46.514404   -249.34056   -2515.4611    530.89549    1583.6717    76.781195 
   61800    64.168714   -111.26874  0.058061201   -111.21068    2160.1908    4.2493843    4.2493843    4.2493843    2160.1908    3237.4175    959.71288    2283.4419   -2540.9591    720.10028     425.1808    76.732265 
   61900    109.11885   -111.30892  0.098733027   -111.21019    400.53548    4.2491679    4.2491679    4.2491679    400.53548    1891.7132   -479.72528   -210.38142    880.66334   -1150.7052    -367.2752    76.720546 
   62000     113.0848   -111.31242    0.1023215    -111.2101   -118.05301    4.2510871    4.2510871    4.2510871   -118.05301   -1716.7816   -2729.9976    4092.6202    399.80809    1229.8745   -701.95292    76.824546 
   62100    123.17062   -111.32163   0.11144736   -111.21018   -1915.1599     4.249987     4.249987     4.249987   -1915.1599   -341.18573    -4829.237   -575.05692   -818.53491    -1395.707    218.73845    76.764923 
   62200    102.55141   -111.30308  0.092790667   -111.21029   -327.43689    4.2491202    4.2491202    4.2491202   -327.43689    -2292.047   -3913.7607     5223.497   -623.86606    531.03551    144.80433    76.717958 
   62300     110.3133   -111.30996  0.099813797   -111.21015   -220.59446     4.250886     4.250886     4.250886   -220.59446    406.77477   -3740.0311    2671.4729     1062.043    55.897578    346.24493    76.813646 
   62400    92.522962   -111.29403  0.083716721   -111.21031    506.03673    4.2498373    4.2498373    4.2498373    506.03673    2982.3922   -1661.9934    197.71141   -700.52746    2284.0225    242.29141    76.756807 
   62500    65.947227   -111.27029  0.059670437   -111.21062    1160.8468    4.2496262    4.2496262    4.2496262    1160.8468    661.17596   -1680.3987    4501.7631   -3446.4213    1230.2758    223.24133     76.74537 
   62600    89.193237   -111.29115  0.080703916   -111.21045   -326.35953    4.2504991    4.2504991    4.2504991   -326.35953    1556.3136    120.62558   -2656.0178   -1481.7073   -941.06477    635.33215    76.792673 
   62700    95.540837   -111.29671  0.086447357   -111.21026   -276.14993    4.2494492    4.2494492    4.2494492   -276.14993   -1970.4969      315.998    826.04909     541.4802    516.16617    123.84923    76.735784 
   62800     122.3428   -111.32087   0.11069833   -111.21017   -3149.3576    4.2512541    4.2512541    4.2512541   -3149.3576   -3826.6662   -3764.1497   -1857.2569   -507.20197   -256.82808     729.1897    76.833603 
   62900    101.37823   -111.30211   0.09172915   -111.21038   -1545.8266    4.2506701    4.2506701    4.2506701   -1545.8266   -2204.1614   -4574.0724    2140.7539   -694.84227    826.66787   -1193.3981    76.801944 
   63000    113.99473   -111.31337   0.10314483   -111.21023   -657.28385    4.2489157    4.2489157    4.2489157   -657.28385    958.07779   -3704.6538    774.72446     1106.795    -762.2508    86.602905    76.706884 
   63100    100.83404   -111.30157  0.091236759   -111.21033    746.16783    4.2507405    4.2507405    4.2507405    746.16783    1874.6661   -3570.9552    3934.7925    734.37106    818.36715   -21.161593    76.805755 
   63200    88.416932   -111.29042  0.080001498   -111.21042    1107.6391    4.2503255    4.2503255    4.2503255    1107.6391    4507.2043    -3180.753     1996.466   -2291.3217    272.79602    1199.2847    76.783266 
   63300    79.862925   -111.28283  0.072261653   -111.21056    1971.2928    4.2487559    4.2487559    4.2487559    1971.2928    1814.8222    1009.0329    3090.0233   -2648.3734    622.10409    1176.6185    76.698231 
   63400    90.327668   -111.29213  0.081730372    -111.2104    1302.0823    4.2503575    4.2503575    4.2503575    1302.0823   -145.60401     1122.058     2929.793    -21.32602   -434.42818   -868.40238    76.784997 
   63500    118.54731    -111.3173    0.1072641   -111.21003   -1407.3591    4.2500297    4.2500297    4.2500297   -1407.3591   -2192.3466    1185.6599   -3215.3905    286.11725    78.714472    372.13428    76.767236 
   63600    96.908839   -111.29797  0.087685154   -111.21028    -1293.895    4.2502047    4.2502047    4.2502047    -1293.895   -6029.4609   -1567.4756    3715.2516   -1226.0024    294.81954   -698.96379    76.776716 
   63700    119.91888   -111.31868   0.10850513   -111.21017   -2953.1258    4.2509919    4.2509919    4.2509919   -2953.1258   -2420.2835   -3554.2819    -2884.812   -502.75752   -564.11968    883.12345    76.819387 
   63800    102.91077   -111.30346  0.093115831   -111.21035   -416.06808    4.2490392    4.2490392    4.2490392   -416.06808      461.823   -1395.5108   -314.51641    2025.6094    976.36955   -499.47933    76.713571 
   63900    110.61823   -111.31036    0.1000897   -111.21027   -968.67887    4.2504347    4.2504347    4.2504347   -968.67887    1093.7301   -3306.0093   -693.75736    -441.4406    529.55941    -183.4481    76.789185 
   64000    82.599337   -111.28526  0.074737616   -111.21052    677.52807    4.2509071    4.2509071    4.2509071    677.52807    2611.4512   -1494.1201    915.25307   -2661.9378    683.35536    221.87536    76.814787 
   64100     93.80946   -111.29528  0.084880771    -111.2104    1329.8758    4.2485307    4.2485307    4.2485307    1329.8758    1071.6081    3375.5035   -457.48422   -1645.2311   -1932.2199    563.20388    76.686036 
   64200    101.76176   -111.30228  0.092076179    -111.2102    1564.8017    4.2498612    4.2498612    4.2498612    1564.8017   -689.18379    3532.7309     1850.858    216.53578    562.48173    1311.6662    76.758106 
   64300    105.55573    -111.3056   0.09550904   -111.21009    438.25037    4.2506958    4.2506958    4.2506958    438.25037   -2443.3192    661.89609    3096.1743   -156.16565   -1.8887455   -528.48484    76.803334 
   64400    108.20507   -111.30803  0.097906217   -111.21012   -636.90722     4.249558     4.249558     4.249558   -636.90722   -2540.6326    470.90446    159.00649     -549.034     367.4392   -141.00475    76.741678 
   64500    101.44159   -111.30201   0.09178648   -111.21023    -133.2155    4.2503881    4.2503881    4.2503881    -133.2155   -1730.4204   -3468.6423    4799.4162     696.9747   -279.76169   -678.14221    76.786657 
   64600    116.10256    -111.3152   0.10505203   -111.21015   -967.61978    4.2499925    4.2499925    4.2499925   -967.61978    2302.7955   -3501.7116   -1703.9432    1042.2758    37.286753    854.45493    76.765217 
   64700    90.543149   -111.29228  0.081925344   -111.21035   -381.36998    4.2498683    4.2498683    4.2498683   -381.36998   -497.65336   -3154.3326     2507.876   -1988.5285     1813.512    683.91601    76.758489 
   64800    88.939324   -111.29086  0.080474169   -111.21039   -1136.2894    4.2513428    4.2513428    4.2513428   -1136.2894    533.99402   -2407.0679   -1535.7942   -2512.3916   -702.79121    249.30338    76.838409 
   64900    89.058547    -111.2909  0.080582044   -111.21032    189.66183    4.2491852    4.2491852    4.2491852    189.66183   -877.54008    2598.1444   -1151.6189   -225.65818    382.17213   -405.95761    76.721479 
   65000    96.252788   -111.29733  0.087091546   -111.21024    86.691381    4.2494211    4.2494211    4.2494211    86.691381   -3265.0021    3011.2134    513.86282   -432.43117   -811.10674    128.60935    76.734261 
   65100    100.87375   -111.30149  0.091272691   -111.21022   -1325.3629    4.2516045    4.2516045    4.2516045   -1325.3629   -3144.4057   -519.69222   -311.99088   -829.07544    523.55947    13.503967    76.852601 
   65200    96.360636   -111.29743  0.087189128   -111.21024   -269.70035    4.2494099    4.2494099    4.2494099   -269.70035   -1251.6342   -534.17473    976.70788    328.99483   -1078.7497    171.91403    76.733655 
   65300    112.03354   -111.31146    0.1013703   -111.21009   -14.574275    4.2495082    4.2495082    4.2495082   -14.574275    1044.2816   -2770.9154     1682.911    2039.7333   -165.70208    419.46543    76.738976 
   65400    99.735657   -111.30035  0.090242918    -111.2101    739.55323    4.2505396    4.2505396    4.2505396    739.55323    2653.1052   -4658.9996    4224.5541   -90.434044    572.68848   -382.29913    76.794869 
   65500    97.513849   -111.29844   0.08823258   -111.21021    180.49406    4.2494037    4.2494037    4.2494037    180.49406    2181.2919   -1597.1643   -42.645452   -2365.6623   -874.74355    1061.8425    76.733319 
   65600    84.772764   -111.28706  0.076704178   -111.21035    1046.3103    4.2503397    4.2503397    4.2503397    1046.3103   -1321.3565   -534.58141    4994.8687   -1747.3647   -289.89762   -592.65461    76.784036 
   65700    95.273181    -111.2965  0.086205176   -111.21029    873.86776    4.2497419    4.2497419    4.2497419    873.86776   -944.37122    3311.0635    254.91104    3.9660558   -346.75669    1209.2954    76.751642 
   65800    98.007466   -111.29899  0.088679215   -111.21031    -146.4233    4.2490062    4.2490062    4.2490062    -146.4233   -4607.9908    3505.6995    663.02136   -313.66968    1329.7293   -466.54199    76.711786 
   65900    97.437612   -111.29852  0.088163599   -111.21035   -1670.6302    4.2516278    4.2516278    4.2516278   -1670.6302   -4813.0643   -553.93508    355.10871   -999.85482   -450.52905   -162.12884    76.853863 
   66000    111.68512    -111.3113   0.10105504   -111.21024   -1947.3434    4.2502486    4.2502486    4.2502486   -1947.3434   -1707.5639   -2014.9828   -2119.4836       1620.9   -616.58359   -449.85338    76.779096 
   66100    110.33556   -111.31004  0.099833935   -111.21021   -653.03743    4.2489362    4.2489362    4.2489362   -653.03743   -629.84727   -696.48831   -632.77672    901.42364   -558.81895    261.36607    76.707994 
   66200    111.63777   -111.31121    0.1010122    -111.2102   -1201.3159     4.251197     4.251197     4.251197   -1201.3159    1755.9821   -4141.6327   -1218.2971   -1315.8658    695.48507    1658.1687    76.830504 
   66300    92.854466   -111.29436  0.084016672   -111.21035    252.69509    4.2500658    4.2500658    4.2500658    252.69509   -163.04115    509.45929    411.66713   -1785.4978    -961.9634   -726.35232    76.769193 
   66400    96.891071   -111.29797  0.087669077    -111.2103     1193.081     4.249418     4.249418     4.249418     1193.081   -825.22617    4982.4396    -577.9705   -361.91976   -741.79939    165.19537    76.734094 
   66500    99.088309   -111.29993  0.089657184   -111.21028    1496.7431    4.2502172    4.2502172    4.2502172    1496.7431   -2557.7399    3772.3628    3275.6066   -422.60401     338.3063     -974.684    76.777394 
   66600    98.593467   -111.29952  0.089209441   -111.21031    769.38238    4.2492709    4.2492709    4.2492709    769.38238    -2725.976    5006.3145    27.808607   -1013.6523   -54.912053    1350.8691    76.726126 
   66700     110.5059   -111.31029  0.099988062    -111.2103   -1362.2644    4.2508473    4.2508473    4.2508473   -1362.2644    -5453.614   -1230.1461    2596.9669    135.38392    310.03755    387.79571    76.811546 
   66800    107.32239   -111.30729  0.097107558   -111.21019   -849.72794    4.2507457    4.2507457    4.2507457   -849.72794   -1114.5397   -1871.6789    437.03473    2145.3146   -819.63876    160.96359    76.806038 
   66900    118.76032    -111.3175   0.10745683   -111.21004   -1070.1411    4.2487967    4.2487967    4.2487967   -1070.1411     303.4357   -3043.4476   -470.41159   -4.9950393    1369.7157    235.57054    76.700441 
   67000    89.521464   -111.29141  0.081000902   -111.21041   -128.28614    4.2505014    4.2505014    4.2505014   -128.28614   -562.06261   -1583.1153    1760.3194   -2980.9324   -1256.8779   -74.903415    76.792799 
   67100    94.226951    -111.2957  0.085258525   -111.21044   -834.25745    4.2509695    4.2509695    4.2509695   -834.25745    -446.6095    52.426154    -2108.589   -1248.3209   -267.31103    293.07227    76.818173 
   67200    81.481605   -111.28413  0.073726268   -111.21041    1558.5121    4.2485783    4.2485783    4.2485783    1558.5121   -1891.2725    7358.2314   -791.42254   -139.00313   -432.17905   -293.36717    76.688613 
   67300    98.090112   -111.29901  0.088753995   -111.21025    574.49041    4.2499853    4.2499853    4.2499853    574.49041   -1398.4704    2389.6572    732.28439   -413.28252    626.55547    205.29474    76.764828 
   67400    97.310291   -111.29831  0.088048397   -111.21026   -313.58398    4.2501801    4.2501801    4.2501801   -313.58398   -3536.3005    2192.9083    402.64022   -902.80273   -326.93471   -621.84044    76.775383 
   67500    107.01945   -111.30698  0.096833445   -111.21015   -1179.8463    4.2497576    4.2497576    4.2497576   -1179.8463   -2546.4123   -128.12845   -864.99811    1293.1979   -2329.0576    637.59585    76.752492 
   67600    113.97831   -111.31317   0.10312997   -111.21004   -877.39784    4.2506857    4.2506857    4.2506857   -877.39784   -982.35092   -5012.4178    3362.5752    1289.1892    844.35901    -226.3321     76.80279 
   67700    98.405403   -111.29929  0.089039277   -111.21025    569.16099    4.2490537    4.2490537    4.2490537    569.16099    1434.5151   -1493.1702    1766.1381   -927.95172   -811.45726    1517.6422    76.714356 
   67800    90.928131   -111.29262  0.082273684   -111.21035    269.87956    4.2496421    4.2496421    4.2496421    269.87956   -882.93562   -689.38301    2381.9573    -1954.416   -86.038428   -621.85869    76.746233 
   67900    75.113168   -111.27847  0.067963973   -111.21051    1134.9097    4.2512245    4.2512245    4.2512245    1134.9097   -1374.8871    3220.4047    1559.2115   -706.26257   -1163.2388   -184.51996    76.831998 
   68000    91.958914   -111.29351  0.083206358    -111.2103    1033.5682    4.2488604    4.2488604    4.2488604    1033.5682   -1063.2913    3694.4303    469.56553   -394.54253    629.25193   -814.45083    76.703887 
   68100    88.416247    -111.2903  0.080000878    -111.2103    620.48487    4.2495367    4.2495367    4.2495367    620.48487    -4106.116    4418.2795    1549.2911   -1818.6275    645.54287    523.29841     76.74052 
   68200    114.57673   -111.31382   0.10367143   -111.21015    -2597.038    4.2516747    4.2516747    4.2516747    -2597.038   -3713.8091   -2437.9887   -1639.3163    313.01817   -834.75214    1148.9767    76.856411 
   68300    113.78792   -111.31307    0.1029577   -111.21011   -1922.1251    4.2500245    4.2500245    4.2500245   -1922.1251   -3622.9745   -485.46335   -1657.9376    2111.2101    370.23856   -669.34255    76.766955 
   68400    123.27389    -111.3216   0.11154081   -111.21006   -1799.7314    4.2504248    4.2504248    4.2504248   -1799.7314   -1282.6054   -3990.4181   -126.17067    290.42535   -207.34534    394.47176    76.788648 
   68500     98.43035   -111.29942  0.089061849   -111.21036   -4.6715722    4.2503477    4.2503477    4.2503477   -4.6715722   -187.17742    347.83949   -174.67679   -2005.0813   -83.675086   -1550.4495    76.784469 
   68600    89.947568   -111.29183   0.08138645   -111.21045     761.6569     4.249477     4.249477     4.249477     761.6569   -1307.7039    5731.3047   -2138.6301   -1406.1376   -1791.3946    1234.6167    76.737289 
   68700    82.902325   -111.28544  0.075011766   -111.21043    1605.7338    4.2509294    4.2509294    4.2509294    1605.7338   -1259.8492    4364.6692    1712.3815     72.29931    491.47767   -409.92859    76.815995 
   68800      94.7337     -111.296  0.085717042   -111.21028    1128.0623    4.2497973    4.2497973    4.2497973    1128.0623   -2653.7474    6495.6988   -457.76445   -568.37907    84.547111    338.67057    76.754641 
   68900    103.55809   -111.30398   0.09370154   -111.21027   -130.87249    4.2489705    4.2489705    4.2489705   -130.87249   -2768.4438    2247.1598     128.6665   -1459.4102   -527.80633   -531.62487    76.709852 
   69000    120.81647   -111.31947   0.10931728   -111.21016   -2211.8613    4.2515599    4.2515599    4.2515599   -2211.8613   -5850.5193    -1659.988    874.92338    455.47698   -999.39674   -159.75222    76.850181 
   69100    130.09424   -111.32779     0.117712   -111.21007   -2354.7814    4.2504808    4.2504808    4.2504808   -2354.7814   -2588.9759   -3625.4343   -849.93393    1215.7138    708.35271    825.03126    76.791683 
   69200    104.56176   -111.30492  0.094609675   -111.21031    137.67144     4.248851     4.248851     4.248851    137.67144    -2106.007    2285.8883    233.13295   -963.62572     767.6058   -267.56509    76.703382 
   69300    99.407448   -111.30036  0.089945948   -111.21041    384.20444    4.2503617    4.2503617    4.2503617    384.20444   -39.386446    1381.4601   -189.46034    -1303.179   -858.35202   -326.82274    76.785225 
   69400    68.523536   -111.27258  0.062001535   -111.21058    2853.1744    4.2492174    4.2492174    4.2492174    2853.1744    263.04821     9037.116   -740.64117   -962.01682    63.647331   -1685.8364    76.723225 
   69500    96.805896   -111.29796  0.087592009   -111.21037    874.14333    4.2494756    4.2494756    4.2494756    874.14333   -972.10149    5249.3916   -1654.8602   -745.61637   -647.97272    247.43208    76.737211 
   69600    78.555498   -111.28154  0.071078665   -111.21046    1733.6813    4.2500121    4.2500121    4.2500121    1733.6813    908.78247    3487.2753    804.98599   -1373.8777    501.82169    -165.1918    76.766283 
   69700    124.86932   -111.32313   0.11298438   -111.21014   -2047.0907    4.2490236    4.2490236    4.2490236   -2047.0907   -3633.9347   -463.18435    -2044.153    427.48762   -2173.5104    873.41812    76.712729 
   69800    104.54455   -111.30496   0.09459411   -111.21036   -1379.2622    4.2504662    4.2504662    4.2504662   -1379.2622   -2848.3695   -2990.7066    1701.2894     2098.866    253.65615   -1096.2412    76.790888 
   69900    123.21611   -111.32165   0.11148852   -111.21016   -2642.1225    4.2511144    4.2511144    4.2511144   -2642.1225   -4116.8985   -3266.9111   -542.55776     223.4581    203.50031    71.207566    76.826026 
   70000    82.976028   -111.28553  0.075078454   -111.21045    1290.6692    4.2483267    4.2483267    4.2483267    1290.6692    152.22418    2994.1377    725.64579    -1705.102   -1136.9213   -618.42788    76.674991 
   70100    77.841879   -111.28085  0.070432968   -111.21042    1573.7451    4.2500615    4.2500615    4.2500615    1573.7451   -2286.7715    4701.7475    2306.2594   -1317.7959    33.637605    240.16877    76.768959 
   70200    77.870157   -111.28082  0.070458555   -111.21036    1142.0024    4.2506767    4.2506767    4.2506767    1142.0024    -548.2154    4478.1073   -503.88476    186.82464   -415.98839   -151.03786    76.802297 
   70300    76.470351   -111.27966   0.06919198   -111.21047    1355.1572    4.2491125    4.2491125    4.2491125    1355.1572    39.278926     3411.516    614.67655   -1002.7911    1727.3276   -879.81297    76.717544 
   70400    119.14595   -111.31798   0.10780576   -111.21017   -1953.9692    4.2508489    4.2508489    4.2508489   -1953.9692   -2328.2843   -2930.8097    -602.8137    -1070.105   -1743.8855    152.41789    76.811634 
   70500    100.81139   -111.30145  0.091216265   -111.21023   -1034.7846    4.2503494    4.2503494    4.2503494   -1034.7846   -1056.4729   -2228.7677     180.8868    854.73904   -37.058637   -1611.3144     76.78456 
   70600    139.33903   -111.33611   0.12607689   -111.21003   -4164.5406    4.2505476    4.2505476    4.2505476   -4164.5406    -5687.423   -3525.8365   -3280.3622    1563.3692    461.30775    1341.3709    76.795302 
   70700    84.324765   -111.28679   0.07629882   -111.21049    112.16898    4.2513907    4.2513907    4.2513907    112.16898   -677.75075   -129.93752    1144.1952     102.4446    421.24165   -544.09668    76.841006 
   70800    107.24607   -111.30732  0.097038498   -111.21028   -309.70825    4.2494209    4.2494209    4.2494209   -309.70825   -3007.4107    4214.8177   -2136.5317   -998.37771   -398.43215    463.26712    76.734249 
   70900    70.162593     -111.274  0.063484588   -111.21052    2575.2542    4.2493384    4.2493384    4.2493384    2575.2542    323.56575    7845.1619   -442.96519   -478.56988    -1369.634   -1372.7889     76.72978 
   71000    97.653605   -111.29871  0.088359034   -111.21035    82.645969    4.2515138    4.2515138    4.2515138    82.645969   -1609.0125    1203.0465    653.90388   -1011.7674    742.55383   -507.73059    76.847684 
   71100    100.58639   -111.30129  0.091012682   -111.21028    404.87754     4.249289     4.249289     4.249289    404.87754    260.03869    1855.3713   -900.77736   -1717.1414   -1566.9463    188.91472    76.727104 
   71200    116.61174   -111.31566   0.10551275   -111.21015   -530.29619    4.2496803    4.2496803    4.2496803   -530.29619   -1638.9099   -2083.8077     2131.829    220.11193   -812.91104   -220.40698    76.748305 
   71300    138.32793   -111.33514   0.12516202   -111.20998   -2521.6253    4.2511207    4.2511207    4.2511207   -2521.6253   -3809.4225   -2621.2216   -1134.2317    1988.9673    20.080041    -30.07779    76.826367 
   71400    101.98531   -111.30253  0.092278448   -111.21025     112.9858    4.2492024    4.2492024    4.2492024     112.9858   -1612.0835     92.41682    1858.6241     170.8574    850.95947   -1046.1592    76.722416 
   71500    121.29645      -111.32   0.10975158   -111.21025   -1047.0452    4.2503462    4.2503462    4.2503462   -1047.0452   -4150.6535    2692.8879   -1683.3701   -1412.7586    -512.3172    1139.6857    76.784388 
   71600    70.535228   -111.27447  0.063821756   -111.21064    3043.6171    4.2495599    4.2495599    4.2495599    3043.6171    2120.9842    6200.0333    809.83384   -1022.6579   -472.02062   -664.78707    76.741781 
   71700    107.31556   -111.30744  0.097101375   -111.21034    507.38712    4.2486585    4.2486585    4.2486585    507.38712   -1493.3769    4746.7037   -1731.1653    821.06739      533.783   -16.977253    76.692955 
   71800    75.013035   -111.27841   0.06787337   -111.21054    1709.8733    4.2508153    4.2508153    4.2508153    1709.8733    2862.7351     932.2766    1334.6083   -926.20332   -74.017994   -1653.4932    76.809813 
   71900    112.76984   -111.31233   0.10203652   -111.21029   -1028.6697    4.2499261    4.2499261    4.2499261   -1028.6697   -825.40872   -2838.4451    577.84456   -1712.5567   -1534.2366   -381.55481    76.761619 
   72000    111.47612     -111.311   0.10086594   -111.21013   -588.29046    4.2488595    4.2488595    4.2488595   -588.29046    9.3905104   -990.66813   -783.59377    654.88778   -1751.4515   -210.74062    76.703841 
   72100    111.86627   -111.31126   0.10121895   -111.21004   -1530.4395    4.2514164    4.2514164    4.2514164   -1530.4395   -2662.3868   -5332.4254    3403.4939    1727.0161     1331.624    737.66964    76.842404 
   72200    109.34904   -111.30921  0.098941312   -111.21027    -1817.434    4.2501677    4.2501677    4.2501677    -1817.434   -3990.4037    692.09502   -2153.9933    372.87833   -406.33473    512.41713    76.774711 
   72300    74.430785   -111.27785  0.067346539   -111.21051    1064.8354    4.2493055    4.2493055    4.2493055    1064.8354   -946.42798     2409.793    1731.1412   -1348.1358   -139.72181    -199.1179    76.727999 
   72400    101.32129   -111.30186  0.091677631   -111.21019   -577.35923    4.2509386    4.2509386    4.2509386   -577.35923   -2265.2089    2417.8552    -1884.724   -681.31876   -820.95358   -93.378963    76.816498 
   72500    56.619772   -111.26175   0.05123076   -111.21052    2349.3105    4.2492095    4.2492095    4.2492095    2349.3105    2477.7935    1533.3479      3036.79   -705.73988    651.78046   -1672.4969    76.722798 
   72600    101.67013   -111.30231  0.091993269   -111.21032   -1741.8969    4.2506905    4.2506905    4.2506905   -1741.8969    -1760.387   -2504.1211    -961.1826   -1198.3654   -731.21469    506.67041     76.80305 
   72700     78.95947   -111.28179  0.071444188   -111.21035    384.36093    4.2507655    4.2507655    4.2507655    384.36093    3349.9244   -4670.6527     2473.811   -125.91541   -1284.0788    -1449.538    76.807116 
   72800    122.54618   -111.32094   0.11088236   -111.21005   -1971.8363    4.2493237    4.2493237    4.2493237   -1971.8363   -2294.6033   -4861.0646    1240.1589     1557.762    899.99884    577.13395    76.728985 
   72900    104.13891   -111.30446  0.094227074   -111.21023   -1450.4274    4.2511248    4.2511248    4.2511248   -1450.4274   -675.89058   -3463.1979   -212.19365    1103.2084    4.0782114   -130.40375     76.82659 
   73000    99.351192   -111.30013  0.089895046   -111.21024   -1062.1657    4.2509467    4.2509467    4.2509467   -1062.1657   -1886.9018   -3070.9296    1771.3342   -787.47505    301.19973    771.24723    76.816934 
   73100    104.68894   -111.30494   0.09472475   -111.21022      154.691    4.2489129    4.2489129    4.2489129      154.691   -864.13357    3761.4797   -2433.2731   -646.52166    -1649.286   -36.395254    76.706734 
   73200    72.384748   -111.27597  0.065495242   -111.21047    2417.3848    4.2503931    4.2503931    4.2503931    2417.3848    1415.0121    1083.5358    4753.6067    329.80718    474.41847   -874.06352    76.786929 
   73300    100.77463   -111.30147  0.091183004   -111.21028   -467.55509    4.2502362    4.2502362    4.2502362   -467.55509   -1710.5623    1071.0572    -763.1602   -1347.2097    -722.0837   -530.59113    76.778425 
   73400    67.251073   -111.27138  0.060850184   -111.21053    1964.3454    4.2491899    4.2491899    4.2491899    1964.3454    1985.9912   -909.13237    4816.1774   -1818.9587   -2430.2955   -1285.6531    76.721737 
   73500    137.43968   -111.33446   0.12435831    -111.2101   -2450.7873    4.2510063    4.2510063    4.2510063   -2450.7873   -2688.8959   -4171.5697   -491.89638   -368.20188   -539.03802    608.52985    76.820167 
   73600    103.37974   -111.30388  0.093540161   -111.21034    -214.8439    4.2494521    4.2494521    4.2494521    -214.8439    249.82605   -3279.8102    2385.4525     1343.135    643.54704   -619.09755    76.735942 
   73700    137.92132   -111.33496   0.12479411   -111.21016   -3410.2653    4.2504203    4.2504203    4.2504203   -3410.2653   -5060.0725   -3699.1111   -1471.6123    1359.9801    1144.2721    1385.0966    76.788404 
   73800    105.97636   -111.30642  0.095889637   -111.21053   -154.78215    4.2510243    4.2510243    4.2510243   -154.78215    1408.7309   -1696.6011   -176.47627    -563.8955   -991.47613   -463.83596    76.821144 
   73900    109.19947   -111.30917  0.098805979   -111.21036    1682.7636    4.2484082    4.2484082    4.2484082    1682.7636    263.49361    1897.4434    2887.3538   -249.92974   -39.061204    -761.8627    76.679402 
   74000    98.238054   -111.29927  0.088887856   -111.21039    1949.4587    4.2496569    4.2496569    4.2496569    1949.4587    3048.5911    2438.0126    361.77236    -927.2709   -106.46742   -795.48805    76.747035 
   74100    64.302086   -111.26892  0.058181879   -111.21074    2967.1189    4.2505307    4.2505307    4.2505307    2967.1189    3311.9651   -982.23207    6571.6237   -1318.9031    -1030.888   -1063.1879    76.794385 
   74200    117.10205   -111.31631   0.10595639   -111.21036   -300.69564    4.2489553    4.2489553    4.2489553   -300.69564   -694.89604    1208.8699   -1416.0608   -606.07436   -1857.6048   -156.77155    76.709029 
   74300     94.89421   -111.29624  0.085862276   -111.21038    1112.6481    4.2501198    4.2501198    4.2501198    1112.6481    1852.6351   -3031.9137    4517.2228    158.81667    67.237102   -505.96203    76.772118 
   74400    151.50628   -111.34703   0.13708607   -111.20995   -4638.6749    4.2508839    4.2508839    4.2508839   -4638.6749   -5381.1257   -5331.4019   -3203.4971    55.380771    874.14547    630.40951    76.813531 
   74500    86.398073   -111.28867  0.078174792   -111.21049   -1137.1378     4.249645     4.249645     4.249645   -1137.1378    -1934.691   -3711.2012    2234.4789   -590.43903   -603.03694    729.10052    76.746387 
   74600    134.16401   -111.33142   0.12139442   -111.21003   -3468.4207    4.2514308    4.2514308    4.2514308   -3468.4207   -4371.9691   -3372.3276   -2660.9655    508.56697   -784.73284    315.87793    76.843184 
   74700    78.116625   -111.28143  0.070681564   -111.21074    2309.2497     4.249114     4.249114     4.249114    2309.2497    3578.1488   -748.46415    4098.0645    587.92022    387.66316   -902.81604    76.717625 
   74800    83.166428   -111.28587  0.075250732   -111.21062    1294.0247    4.2491609    4.2491609    4.2491609    1294.0247     957.8821   -318.99314    3243.1851   -1603.2109   -206.41958   -1177.3539    76.720168 
   74900    62.830852   -111.26755  0.056850675    -111.2107    1777.5675    4.2511878    4.2511878    4.2511878    1777.5675    4668.8449   -267.49343    931.35103   -2094.2321   -1830.2971   -843.53342    76.830009 
   75000    84.025537   -111.28641  0.076028071   -111.21039    1824.2942    4.2490918    4.2490918    4.2490918    1824.2942    2430.8052   -251.54852    3293.6259   -765.88515   -302.56466   -812.50336    76.716421 
   75100    120.80495   -111.31934   0.10930686   -111.21004   -808.75874    4.2496089    4.2496089    4.2496089   -808.75874    1767.3676   -2524.5348   -1669.1091    708.88451    624.44397    257.53708    76.744436 
   75200    87.284754   -111.28934   0.07897708   -111.21036   -927.89128    4.2511242    4.2511242    4.2511242   -927.89128    201.26654   -6825.2777    3840.3373    477.57539     759.5922    86.934677    76.826558 
   75300    124.52688   -111.32282   0.11267454   -111.21014   -4066.6589    4.2500317    4.2500317    4.2500317   -4066.6589   -4574.8612   -4469.1889   -3155.9267   -996.59478   -1765.3388    675.74155    76.767342 
   75400    80.779873   -111.28359  0.073091327    -111.2105    366.26258    4.2503194    4.2503194    4.2503194    366.26258    1504.2067   -5056.5481    4651.1291    565.66757   -1165.4634   -315.83087    76.782934 
   75500    115.07873   -111.31422   0.10412565   -111.21009   -1791.6606    4.2504375    4.2504375    4.2504375   -1791.6606   -1084.7183   -4254.1901   -36.073533   -595.89586    327.66651   -306.15988    76.789337 
   75600    48.285088    -111.2544  0.043689363   -111.21071    2026.4093    4.2487087    4.2487087    4.2487087    2026.4093     2315.398   -566.60196     4330.432   -1665.3173   -1880.1281   -920.16307    76.695673 
   75700    89.112713   -111.29113  0.080631056    -111.2105   -495.83697    4.2511663    4.2511663    4.2511663   -495.83697    -918.0476    1105.7443   -1675.2076   -1235.6955   -1268.1406   -748.33401    76.828839 
   75800     94.51488   -111.29577   0.08551905   -111.21026    1307.8969    4.2497716    4.2497716    4.2497716    1307.8969    2337.5198    961.79118    624.37955   -670.84186   -134.74981   -289.62978    76.753247 
   75900    107.48708   -111.30756  0.097256569   -111.21031    435.06131    4.2486451    4.2486451    4.2486451    435.06131   -546.89042    204.95488    1647.1195    144.01517     1558.875   -179.83033    76.692231 
   76000     112.2024   -111.31178   0.10152308   -111.21026   -1368.7928    4.2511802    4.2511802    4.2511802   -1368.7928    326.18836   -2533.7484   -1898.8184   -670.55749   -662.81152    1486.7098    76.829593 
   76100    104.35004   -111.30474  0.094418108   -111.21033    250.71269    4.2499557    4.2499557    4.2499557    250.71269    541.73735   -3789.8999    4000.3007     1089.055   -886.31193   -773.49268    76.763225 
   76200     142.3307   -111.33881    0.1287838   -111.21002    -1197.906    4.2496125    4.2496125    4.2496125    -1197.906    1414.2126   -3432.2813   -1575.6493    1125.3365    209.68107     483.1835    76.744627 
   76300    82.255458   -111.28492  0.074426467   -111.21049    1565.2846    4.2505505    4.2505505    4.2505505    1565.2846    3936.3565   -3751.6292    4511.1265   -921.06323   -194.18893    -1519.697     76.79546 
   76400    105.54041   -111.30591  0.095495181   -111.21042   -1108.2264    4.2493877    4.2493877    4.2493877   -1108.2264   -1691.6791     798.0908    -2431.091   -2567.5098   -1519.4281   -550.47114    76.732451 
   76500    81.318115   -111.28408  0.073578339    -111.2105    1267.9729    4.2501748    4.2501748    4.2501748    1267.9729    666.34181     2268.463     869.1138   -1357.8966   -1686.2907   -114.12505    76.775096 
   76600     126.3884   -111.32446   0.11435888    -111.2101    -1492.372    4.2509992    4.2509992    4.2509992    -1492.372   -3954.0801    2503.7009   -3026.7369     565.4791     1262.785    -272.8159    76.819782 
   76700    92.483924   -111.29424  0.083681398   -111.21055   -75.428482    4.2487984    4.2487984    4.2487984   -75.428482   -3029.8815    2289.3155    514.28056   -308.77845    114.72631    1323.9806    76.700534 
   76800     107.0066   -111.30727  0.096821821   -111.21045   -1770.6928    4.2508941    4.2508941    4.2508941   -1770.6928   -3629.9626   -1092.9936   -589.12203   -743.76666   -1396.8736   -140.88772    76.814082 
   76900    133.00288   -111.33042   0.12034381   -111.21007   -1565.6326    4.2510365    4.2510365    4.2510365   -1565.6326    166.34457   -3468.6693    -1394.573    477.50661   -388.89466    742.24191    76.821807 
   77000     116.0804   -111.31508   0.10503199   -111.21004    889.50072    4.2488119    4.2488119    4.2488119    889.50072    1528.9657   -1678.8548    2818.3912    533.48754    656.76861   -963.54383    76.701263 
   77100    104.39346    -111.3048  0.094457398   -111.21034    -73.90782     4.250501     4.250501     4.250501    -73.90782    4327.3782    -1848.245   -2700.8566   -950.94362   -603.55528   -256.93782    76.792779 
   77200     68.35281   -111.27262  0.061847059   -111.21077    2332.2095    4.2496216    4.2496216    4.2496216    2332.2095    2411.4909      909.829    3675.3086   -1633.7386    -1322.589   -1431.6903    76.745122 
   77300    117.47761   -111.31648   0.10629621   -111.21018    174.78768    4.2493931    4.2493931    4.2493931    174.78768    133.89611    4465.3919    -4074.925   -1572.6361   -402.81215   -542.95644    76.732745 
   77400     76.94418   -111.28006  0.069620711   -111.21043    1697.0762    4.2506365    4.2506365    4.2506365    1697.0762    660.28679    2892.1154    1538.8262    91.472864     719.2918    301.75099    76.800123 
   77500    89.539112   -111.29153   0.08101687   -111.21051    -1705.524    4.2493851    4.2493851    4.2493851    -1705.524   -4371.6082    308.85871   -1053.8225   -715.24641   -1028.4516    582.82866    76.732309 
   77600     90.03938   -111.29188  0.081469523   -111.21041   -1750.6984    4.2499373    4.2499373    4.2499373   -1750.6984   -3032.1877   -2393.7458     173.8381    606.17863   -2193.8806    601.24969     76.76223 
   77700    121.51256   -111.31986   0.10994712   -111.20991   -2362.9784    4.2515255    4.2515255    4.2515255   -2362.9784   -1930.6379   -4489.9063   -668.39104    939.16261      343.056   -444.06978    76.848315 
   77800    103.39171    -111.3037   0.09355099   -111.21015   -1407.6698    4.2491843    4.2491843    4.2491843   -1407.6698   -638.96032   -3547.5439   -36.505314    -1323.706   -922.95529   -364.22064    76.721433 
   77900    66.114125   -111.27043   0.05982145    -111.2106    256.13864    4.2496959    4.2496959    4.2496959    256.13864    530.94333   -1525.0641    1762.5367   -1410.1139   -1235.4346   -861.36628    76.749146 
   78000    95.040022   -111.29637  0.085994209   -111.21038    378.16345    4.2506581    4.2506581    4.2506581    378.16345     1095.889    2357.5295   -2318.9281   -1782.0892   -1123.8733    133.47919    76.801293 
   78100     82.76924   -111.28516  0.074891348   -111.21027    3445.0819    4.2487054    4.2487054    4.2487054    3445.0819    1029.6064    5832.8328    3472.8065    304.94508    1048.3444   -787.44884    76.695495 
   78200    91.755562   -111.29347  0.083022361   -111.21045    603.79623    4.2503432    4.2503432    4.2503432    603.79623     1058.356    3353.0935   -2600.0608   -668.54332    322.66447    972.85983    76.784221 
   78300    70.594037   -111.27444  0.063874968   -111.21056    821.20852    4.2500664    4.2500664    4.2500664    821.20852   -606.06819   -227.37995    3297.0737   -112.43425   -1312.5282   -584.45111    76.769222 
   78400    130.71535   -111.32814   0.11827399   -111.20987   -1662.3359    4.2494255    4.2494255    4.2494255   -1662.3359   -1411.7536   -1692.9333   -1882.3208    410.33024    -16.81131    256.38422    76.734499 
   78500     123.0895   -111.32136   0.11137396   -111.20998   -1608.9122    4.2513697    4.2513697    4.2513697   -1608.9122    126.54486   -4600.3358   -352.94555    645.05101   -240.30362   -211.08866    76.839869 
   78600     99.29825   -111.30035  0.089847143    -111.2105     -2286.91    4.2502811    4.2502811    4.2502811     -2286.91   -2426.9031   -3895.7634   -538.06345    -742.4585   -410.29885   -711.46367    76.780858 
   78700    86.732423   -111.28917  0.078477319    -111.2107   -875.92978    4.2493154    4.2493154    4.2493154   -875.92978   -2845.3955    2463.8313   -2246.2251   -2243.5318     -2241.98    106.95845    76.728537 
   78800    98.549958   -111.29954  0.089170073   -111.21037    776.36783    4.2511793    4.2511793    4.2511793    776.36783   -2192.7518     4872.557   -350.70174   -1036.3053    329.02415   -1150.7134    76.829546 
   78900    106.60741   -111.30668  0.096460629   -111.21022    487.35602    4.2496478    4.2496478    4.2496478    487.35602    -3061.727    6223.5053   -1699.7103   -1423.5984    353.13327    937.72544    76.746544 
   79000    78.346506    -111.2816  0.070889565   -111.21071    827.22656    4.2494486    4.2494486    4.2494486    827.22656   -3500.6561    4866.7162    1115.6195   -407.87961   -1638.8136   -254.90023    76.735748 
   79100    125.06022   -111.32343   0.11315711   -111.21027   -1223.8573    4.2510225    4.2510225    4.2510225   -1223.8573      -943.08   -340.22922   -2388.2626    542.81724   -651.65449    850.85508    76.821046 
   79200    139.86654   -111.33653   0.12655418   -111.20998    127.82026    4.2493645    4.2493645    4.2493645    127.82026   -894.10281   -1924.3824     3201.946     767.5384    204.15349   -1447.2808    76.731196 
   79300    134.09176   -111.33155   0.12132904   -111.21022   -985.67892    4.2502973    4.2502973    4.2502973   -985.67892    1267.1792   -1996.4368   -2227.7792   -573.30332    155.96382   -480.20015    76.781736 
   79400    84.526755   -111.28718  0.076481585    -111.2107    729.39893    4.2504893    4.2504893    4.2504893    729.39893    724.60555    902.27934    561.31192   -1124.1419   -1739.3439   -530.23221    76.792143 
   79500    95.704474   -111.29712  0.086595419   -111.21053    1739.0674     4.248555     4.248555     4.248555    1739.0674   -237.84412    5759.6988   -304.65238   -1413.5313   -894.10594   -171.57224    76.687353 
   79600     98.16947   -111.29909  0.088825799   -111.21027    1858.0367    4.2503743    4.2503743    4.2503743    1858.0367   -255.43402     7629.861   -1800.3168   -260.85668    592.77593     326.7612    76.785909 
   79700    82.336519   -111.28507  0.074499813   -111.21057   -75.840391    4.2505136    4.2505136    4.2505136   -75.840391   -3748.2574    4106.3676   -585.63135   -1396.5679   -150.21537   -652.65991     76.79346 
   79800    86.579036   -111.28887  0.078338531   -111.21053   -1762.0055    4.2491265    4.2491265    4.2491265   -1762.0055    -4879.631    2335.7965   -2742.1821   -1528.3214   -2414.5219   -65.249359      76.7183 
   79900    126.54453   -111.32451   0.11450015   -111.21001   -2947.4658    4.2511978    4.2511978    4.2511978   -2947.4658   -4421.7692   -3987.0982   -433.52997    853.13595   -434.98337   -168.29114    76.830547 
   80000    133.51946   -111.33084   0.12081122   -111.21003   -2719.6722    4.2506229    4.2506229    4.2506229   -2719.6722   -2877.0174   -3836.5521   -1445.4472   -9.1245059    93.519945    436.36541    76.799384 
   80100    85.975345   -111.28831  0.077792299   -111.21052   -934.52689    4.2494105    4.2494105    4.2494105   -934.52689   -3867.8663    544.65314    519.63247   -138.12423   -1233.4655   -361.20741    76.733686 
   80200    68.678914   -111.27292  0.062142124   -111.21078    977.21477    4.2506857    4.2506857    4.2506857    977.21477    1083.4637     3075.915   -1227.7344   -1900.4281   -1171.7984    182.90471    76.802786 
   80300    79.391331   -111.28219  0.071834945   -111.21036    3670.5389    4.2490557    4.2490557    4.2490557    3670.5389    441.14114    7056.3703    3514.1051   -346.33289    4.8648709   -705.26603    76.714465 
   80400    85.570826   -111.28767  0.077426282   -111.21024    2616.5508    4.2492236    4.2492236    4.2492236    2616.5508    770.79514    7381.3182   -302.46102   -1012.2749    1021.2865    450.81586    76.723563 
   80500    64.246061   -111.26884  0.058131186   -111.21071    759.01313    4.2508702    4.2508702    4.2508702    759.01313     674.4398    920.89678    681.70281   -848.97767    -1193.351   -225.32489    76.812791 
   80600    105.53102   -111.30577  0.095486687   -111.21028   -1439.8008    4.2493743    4.2493743    4.2493743   -1439.8008   -1986.6993   -3137.6399    804.93693   -325.89575   -514.23718    -191.6198    76.731723 
   80700     130.6568   -111.32817   0.11822102   -111.20995   -1688.8226    4.2502543    4.2502543    4.2502543   -1688.8226   -1197.0218   -2656.2244   -1213.2216    83.400875    95.671929   -344.43992    76.779405 
   80800    117.23301   -111.31622   0.10607489   -111.21015    -2977.376    4.2514928    4.2514928    4.2514928    -2977.376    -4353.216   -3886.9784   -691.93365    570.85426    283.99264   -675.27109    76.846544 
   80900     71.47475   -111.27537  0.064671856    -111.2107   -1144.8466    4.2491697    4.2491697    4.2491697   -1144.8466   -3913.3848    2582.7822    -2103.937   -1957.5351   -1839.7449    257.41436    76.720643 
   81000      80.2867    -111.2833  0.072645093   -111.21066    682.85389    4.2500103    4.2500103    4.2500103    682.85389   -3671.7308    6210.3879   -490.09541   -420.09837   -1354.9763    202.33976    76.766184 
   81100    104.67043   -111.30493  0.094708005   -111.21023    785.16196    4.2505707    4.2505707    4.2505707    785.16196   -1705.9423     6005.324   -1943.8959   -803.48005    818.06749    1301.6298    76.796553 
   81200    82.392641   -111.28523  0.074550593   -111.21067    705.18735    4.2490721    4.2490721    4.2490721    705.18735   -3942.6557    4820.2215    1237.9962   -1117.5577   -1496.4036   -928.54259    76.715356 
   81300    104.94692   -111.30558   0.09495818   -111.21062   -1384.3921    4.2505893    4.2505893    4.2505893   -1384.3921   -709.41749   -1319.4523   -2124.3065    -999.6438   -1099.2064   -203.20589    76.797562 
   81400    127.25965   -111.32526   0.11514721   -111.21011    163.05946    4.2500265    4.2500265    4.2500265    163.05946    258.02594   -2883.5535     3114.706     247.5659   -509.16542   -787.89389    76.767063 
   81500    157.15524   -111.35203   0.14219736   -111.20983   -1032.4935    4.2494323    4.2494323    4.2494323   -1032.4935   -1792.4477   -1111.7952    -193.2377     1064.034   -63.512149    926.80017    76.734867 
   81600    92.780416   -111.29449   0.08394967   -111.21054    1025.1738    4.2507671    4.2507671    4.2507671    1025.1738    685.60944    1235.2052    1154.7067    13.130491   -572.90332    433.84618    76.807198 
   81700    90.259046   -111.29228  0.081668281   -111.21062    1605.1901    4.2494013    4.2494013    4.2494013    1605.1901    -1715.969    5250.9877    1280.5516   -982.33453   -1189.7093   -932.65982    76.733186 
   81800    103.35184   -111.30388  0.093514913   -111.21037     2602.956     4.248788     4.248788     4.248788     2602.956   -169.26264    9180.6259   -1202.4954   -788.07121    369.86084   -290.24705    76.699969 
   81900    101.75161   -111.30253  0.092066993   -111.21046    613.45376    4.2510719    4.2510719    4.2510719    613.45376   -1996.9399    3160.2992    677.00197   -716.98334    214.92587    395.04253    76.823726 
   82000    95.321998   -111.29691  0.086249347   -111.21066   -2014.4856     4.249948     4.249948     4.249948   -2014.4856   -4322.4663    1739.2862   -3460.2766   -1593.0516   -1871.1092    1137.4663    76.762808 
   82100    98.865265   -111.29999   0.08945537   -111.21053    -1967.041    4.2497342    4.2497342    4.2497342    -1967.041   -3694.8576    -1949.838   -256.42738   -420.96486   -1377.2116   -391.15072    76.751222 
   82200    155.40874   -111.35046   0.14061709   -111.20984   -4368.0921    4.2515302    4.2515302    4.2515302   -4368.0921   -3049.9608   -5846.9923   -4207.3231    244.13303    421.68496   -317.87684    76.848571 
   82300     94.13918   -111.29555  0.085179109   -111.21037   -769.12104     4.249718     4.249718     4.249718   -769.12104   -4328.0695   -59.829516    2080.5359    879.99965    -920.4861   -568.09571    76.750345 
   82400    85.155495   -111.28765  0.077050482    -111.2106   -1135.5719      4.25013      4.25013      4.25013   -1135.5719   -3873.3732    3739.6288   -3272.9712   -572.04801    -1555.959    729.68245     76.77267 
   82500    65.640865   -111.27019  0.059393234   -111.21079    2882.5424    4.2499872    4.2499872    4.2499872    2882.5424    968.95126    4698.0486    2980.6274   -344.27913   -267.36892    288.65264    76.764929 
   82600    101.02655    -111.3015  0.091410941   -111.21008    2736.7525    4.2485737    4.2485737    4.2485737    2736.7525    27.780358    6631.1757    1551.3015   -568.67559    878.47513    232.52108    76.688362 
   82700      80.9749    -111.2837  0.073267791   -111.21043     1520.636    4.2503782    4.2503782    4.2503782     1520.636    1334.4385    2291.7635    935.70593   -1251.6702   -713.49134   -426.81314    76.786119 
   82800    71.379122   -111.27523   0.06458533   -111.21065    367.10146    4.2503663    4.2503663    4.2503663    367.10146    113.36703   -2191.0036    3178.9409   -750.05836   -576.91946   -426.80792    76.785475 
   82900     134.8512     -111.332    0.1220162   -111.20998   -1894.1263    4.2488294    4.2488294    4.2488294   -1894.1263   -800.30695   -2944.7534   -1937.3186   -78.083921   -498.16436   -273.66379    76.702211 
   83000    100.45646   -111.30105  0.090895113   -111.21016     337.0558    4.2506761    4.2506761    4.2506761     337.0558    293.94726   -2934.7541    3651.9742    1268.1976     195.9449    589.37003    76.802267 
   83100     104.5896   -111.30501  0.094634864   -111.21038    -3556.058    4.2509691    4.2509691    4.2509691    -3556.058   -6606.6551    701.97894   -4763.4977   -372.02904   -1197.4409    609.03538    76.818148 
   83200    39.921387   -111.24713   0.03612171   -111.21101     1039.879    4.2488642    4.2488642    4.2488642     1039.879   -4379.4648    5995.9775    1503.1244   -502.91701   -2128.2432   -457.93258    76.704095 
   83300    116.94268   -111.31598   0.10581219   -111.21017   -1177.2582    4.2506172    4.2506172    4.2506172   -1177.2582   -3234.8673    3645.8827   -3942.7899   -527.14353    1031.3937    -28.07039    76.799076 
   83400    82.230725   -111.28485  0.074404088   -111.21044    1245.4593     4.249735     4.249735     4.249735    1245.4593   -2416.7093    4589.5659    1563.5213   -649.90497    -932.2724    89.100303    76.751267 
   83500    92.817446   -111.29482  0.083983176   -111.21083   -2142.2902    4.2499821    4.2499821    4.2499821   -2142.2902   -3939.4698   -11.395195   -2476.0055    -1397.495   -1670.2868    1264.1181    76.764655 
   83600    112.35802   -111.31205    0.1016639   -111.21038   -1432.4022    4.2509388    4.2509388    4.2509388   -1432.4022     406.6914   -4874.3502    170.45239   -448.61188   -886.85963     75.23591    76.816508 
   83700    132.75995      -111.33     0.120124   -111.20988    1489.0028    4.2488921    4.2488921    4.2488921    1489.0028     969.4037   -323.09133     3820.696    819.98803    423.86491   -693.31811    76.705609 
   83800    137.35979   -111.33443   0.12428603   -111.21015   -375.57851    4.2498629    4.2498629    4.2498629   -375.57851   -748.15706    1277.0858   -1655.6643    1030.4843   -227.05083   -810.46453    76.758195 
   83900     56.33045   -111.26191  0.050968975   -111.21094     2912.457    4.2507578    4.2507578    4.2507578     2912.457   -1070.5264    4051.7746    5756.1228   -64.571611   -1091.9633    472.48129    76.806696 
   84000    125.50517   -111.32385   0.11355972   -111.21029    832.79612    4.2487353    4.2487353    4.2487353    832.79612    -3428.782    8673.6287   -2746.4584   -504.92769   -289.94812    1236.5433    76.697113 
   84100    89.162972   -111.29106  0.080676531   -111.21039    4263.2368    4.2491447    4.2491447    4.2491447    4263.2368    1128.6558    6327.6224    5333.4323   -627.87804    471.85077    268.13278    76.719288 
   84200    125.32704   -111.32385   0.11339854   -111.21045   -2962.2013    4.2514115    4.2514115    4.2514115   -2962.2013   -5253.6991    695.93408   -4328.8389   -1410.6169   -387.14452    -646.8405    76.842138 
   84300    82.155844   -111.28509  0.074336334   -111.21075   -1684.7862    4.2496152    4.2496152    4.2496152   -1684.7862     -4030.68    -1040.392    16.713305   -1007.1089   -1954.1549   -1032.6534    76.744777 
   84400    137.64846   -111.33466   0.12454722   -111.21012   -3095.1892    4.2506586    4.2506586    4.2506586   -3095.1892   -2176.8162   -4158.9065   -2949.8449    13.479635    44.227666    560.56846    76.801321 
   84500    131.72289   -111.32941   0.11918563   -111.21023   -2428.2166    4.2506865    4.2506865    4.2506865   -2428.2166   -2720.4385   -2349.2442   -2214.9671    1128.4376    -614.8664    652.85995    76.802833 
   84600    70.360075    -111.2744  0.063663274   -111.21074   -329.81658    4.2494905    4.2494905    4.2494905   -329.81658   -4611.1434    3877.3375   -255.64385   -18.590312   -1498.1464    109.35372    76.738019 
   84700    93.672724   -111.29534  0.084757049   -111.21058   -777.07273    4.2511095    4.2511095    4.2511095   -777.07273   -3174.2366    3848.7249   -3005.7065   -220.28671   -1035.9747   -816.43776    76.825762 
   84800    69.369739   -111.27316  0.062767198   -111.21039    4738.8883    4.2491128    4.2491128    4.2491128    4738.8883    381.21024    8455.5874    5379.8674   -201.69875    938.44536    160.71386    76.717558 
   84900    131.21904   -111.32872   0.11872974   -111.20999   -419.98409     4.248968     4.248968     4.248968   -419.98409   -1116.0735    2664.8727   -2808.7515    -833.4383   -258.59851    631.85656    76.709715 
   85000    52.992516   -111.25865  0.047948742    -111.2107    1962.6354    4.2512263    4.2512263    4.2512263    1962.6354     1084.389   -1235.3025    6038.8198   -1461.9568   -956.22353    516.18498    76.832097 
   85100    128.66028   -111.32653   0.11641453   -111.21011   -2143.3202    4.2500693    4.2500693    4.2500693   -2143.3202   -1539.2508   -2721.7616   -2168.9482    -724.8728   -188.83961   -501.35288    76.769379 
   85200    103.25319   -111.30375  0.093425656   -111.21033    1106.0957    4.2489163    4.2489163    4.2489163    1106.0957    1956.6187   -1963.3906    3325.0591    695.61113   -226.62681    -485.9263    76.706919 
   85300    98.231151   -111.29924  0.088881609   -111.21036   -1507.1599    4.2513396    4.2513396    4.2513396   -1507.1599   -2995.6066    -775.2624   -750.61062    813.18816    358.67176   -93.288698    76.838236 
   85400    58.209632   -111.26355  0.052669299   -111.21088   -587.08532    4.2497947    4.2497947    4.2497947   -587.08532   -5299.7993    5351.7689   -1813.2255    102.41771   -2800.8214    583.81518      76.7545 
   85500    65.957478   -111.27043  0.059679712   -111.21075     715.8395    4.2497929    4.2497929    4.2497929     715.8395   -4130.5206    5526.6313    751.40774   -621.16329    121.29987    1043.4547    76.754404 
   85600     123.1236   -111.32134   0.11140482   -111.20993    -1955.068    4.2507998    4.2507998    4.2507998    -1955.068   -3954.8334    2468.9269   -4379.2976     5.837966   -326.31655    627.68494    76.808974 
   85700    68.402151   -111.27245  0.061891704   -111.21056    168.86771    4.2490628    4.2490628    4.2490628    168.86771   -4236.6377    2674.8722    2068.3686   -1642.0902   -1548.3354   -271.82037    76.714852 
   85800    125.38187    -111.3237   0.11344815   -111.21025   -4482.5381    4.2514364    4.2514364    4.2514364   -4482.5381   -3144.6193   -5153.7289   -5149.2661   -1285.5067   -359.93742   -1203.9392    76.843484 
   85900    102.23051   -111.30295  0.092500317   -111.21045     870.2704    4.2504847    4.2504847    4.2504847     870.2704    117.74033   -1341.1095    3834.1804    180.59966   -181.98143   -90.100724    76.791891 
   86000    143.71395   -111.33993    0.1300354   -111.20989    208.66341    4.2483207    4.2483207    4.2483207    208.66341    90.857236    2001.5744   -1466.4414     946.5097    299.88736    636.91162    76.674662 
   86100    67.854542    -111.2722  0.061396215    -111.2108    3142.5352    4.2504589    4.2504589    4.2504589    3142.5352   -87.486255     5412.866    4102.2258    632.16405   -1770.7784    780.50165    76.790494 
   86200    85.696303   -111.28836  0.077539816   -111.21082    1685.9461    4.2503029    4.2503029    4.2503029    1685.9461   -2701.0308    6810.2033     948.6657   -532.34552     319.2435   -682.03698    76.782038 
   86300    117.02353   -111.31618   0.10588535    -111.2103     2193.262      4.24836      4.24836      4.24836     2193.262   -1638.2293    6914.0684    1303.9467     72.15208   -44.542517   -61.961892     76.67679 
   86400    109.10805   -111.30919  0.098723254   -111.21047    993.55154    4.2506509    4.2506509    4.2506509    993.55154   -2719.4596    2001.2533    3698.8609   -397.98013    55.352823     703.2785    76.800902 
   86500    125.27859   -111.32374    0.1133547   -111.21039   -4102.9807    4.2507393    4.2507393    4.2507393   -4102.9807   -4999.6054   -2544.0892   -4765.2475   -1255.0669   -1965.1701    829.65316    76.805693 
   86600    98.229483   -111.29941  0.088880101   -111.21053   -1841.1643    4.2500618    4.2500618    4.2500618   -1841.1643   -4029.5709   -2929.1117    1435.1897   -1266.7897   -1128.5136   -219.48848    76.768971 
   86700    155.02228   -111.35011   0.14026741   -111.20985   -3359.2369    4.2515769    4.2515769    4.2515769   -3359.2369   -2345.0812   -2589.2025    -5143.427    386.52051    765.72295   -1363.1374    76.851103 
   86800    76.742903   -111.28008  0.069438591   -111.21064    1396.5583    4.2489105    4.2489105    4.2489105    1396.5583   -3198.0248    5882.7835    1504.9163    1121.1287   -1800.7328    211.25362    76.706605 
   86900     85.55499   -111.28816  0.077411953   -111.21074   -1167.6397    4.2503396    4.2503396    4.2503396   -1167.6397   -3340.0633    3896.4702   -4059.3259    317.73399   -1386.9439    790.46147    76.784028 
   87000    78.599514   -111.28174  0.071118492   -111.21062    1572.0264    4.2513627    4.2513627    4.2513627    1572.0264   -3457.0978    6970.6781    1202.4987   -186.92103   -409.72479    1411.6352    76.839489 
   87100    118.82922   -111.31772   0.10751917    -111.2102    1088.4826    4.2484884    4.2484884    4.2484884    1088.4826    -1198.998    3615.9709    848.47493    229.14394    344.57469   -48.105539    76.683744 
   87200    107.65525   -111.30778  0.097408729   -111.21037   -920.72851    4.2502876    4.2502876    4.2502876   -920.72851   -2213.3926   -1303.1722    754.37929   -1146.8745   -935.18999   -285.25681     76.78121 
   87300    92.153031   -111.29379  0.083381999   -111.21041   -1320.3325    4.2516009    4.2516009    4.2516009   -1320.3325   -1556.8947   -4849.0819    2444.9793   -769.15024    106.46385   -687.36554    76.852408 
   87400     128.4945   -111.32646   0.11626452    -111.2102    -1116.441    4.2493155    4.2493155    4.2493155    -1116.441   -404.08535   -1772.9508   -1172.2868   -207.04784    20.256133      298.449    76.728541 
   87500    82.093906   -111.28464  0.074280292   -111.21036    2110.0351    4.2500476    4.2500476    4.2500476    2110.0351   -5.6249426    832.88574    5502.8446    882.49916    -75.52209     464.3335    76.768202 
   87600    74.117986   -111.27758  0.067063511   -111.21052   -33.629475    4.2500524    4.2500524    4.2500524   -33.629475   -1517.6558    4528.5426   -3111.7753    954.03855      -1549.5    502.57564    76.768462 
   87700     44.66709    -111.2512  0.040415722   -111.21079    1953.4105    4.2492175    4.2492175    4.2492175    1953.4105   -4335.7271    7609.9012    2586.0573   -692.03242   -1457.9134     145.5117    76.723233 
   87800    107.65271   -111.30761  0.097406434    -111.2102   -1183.7783    4.2514421    4.2514421    4.2514421   -1183.7783   -3363.4785    2420.9466    -2608.803    565.45887    936.03636    66.656447    76.843795 
   87900     98.15045   -111.29902   0.08880859   -111.21022   -1226.0866    4.2494927    4.2494927    4.2494927   -1226.0866   -4734.6319      1277.78   -221.40797   -344.46854   -1798.3372     372.2864    76.738138 
   88000    102.07211   -111.30269  0.092356993   -111.21034   -3109.5181    4.2496121    4.2496121    4.2496121   -3109.5181   -4864.1598   -2683.2872   -1781.1072   -590.40174   -1412.4083    364.99792    76.744608 
   88100    119.92963   -111.31876   0.10851485   -111.21024   -3188.4846    4.2521838    4.2521838    4.2521838   -3188.4846   -4973.4889   -3112.5034   -1479.4615   -968.83689    -320.0484    108.80398    76.884022 
   88200    113.61246    -111.3129   0.10279894    -111.2101    298.99321     4.249307     4.249307     4.249307    298.99321   -859.74063    941.40972    815.31054   -57.807078     908.3794   -1230.6647    76.728079 
   88300    93.920293   -111.29535  0.084981055   -111.21037    1720.2477    4.2488526    4.2488526    4.2488526    1720.2477   -1129.1591    5810.5363    479.36602    1425.2663   -949.28224    308.61926    76.703467 
   88400    54.844873   -111.26051  0.049624794   -111.21088    3629.3646    4.2504434    4.2504434    4.2504434    3629.3646   -874.48567    7187.5608    4575.0186    451.32065   -1262.6203    427.91382    76.789652 
   88500    105.51241   -111.30574  0.095469841   -111.21027      1575.83    4.2492948    4.2492948    4.2492948      1575.83   -266.50867    5609.3356   -615.33705    885.59292    117.12215    2264.8491    76.727417 
   88600    107.48254    -111.3075  0.097252457   -111.21025    1751.6466    4.2500826    4.2500826    4.2500826    1751.6466   -2110.6788     2104.278    5261.3407    115.83646   -960.85484    510.96122    76.770099 
   88700    127.32758   -111.32549   0.11520867   -111.21028   -1678.7244     4.250493     4.250493     4.250493   -1678.7244   -2387.5032   -1506.7258   -1141.9443    -685.8111   -469.05111   -677.88959    76.792344 
   88800     112.7354   -111.31238   0.10200536   -111.21038   -1787.3896    4.2493496    4.2493496    4.2493496   -1787.3896   -5301.2499   -1580.3225    1519.4035   -1030.8034   -1761.5083   -256.11657    76.730386 
   88900    141.74246   -111.33831   0.12825155   -111.21006   -3176.2197    4.2518282    4.2518282    4.2518282   -3176.2197   -5199.2281   -1782.8057   -2546.6253   -328.00915    691.99891   -84.329292    76.864735 
   89000    109.07865   -111.30909  0.098696652   -111.21039   -334.51299    4.2503555    4.2503555    4.2503555   -334.51299   -4171.3778     4446.892   -1279.0532    810.97442     -1288.74    1423.1991    76.784891 
   89100    78.941233   -111.28209  0.071427686   -111.21066    818.88122    4.2485639    4.2485639    4.2485639    818.88122   -4679.8479    7888.7164   -752.22488    762.30821   -2310.8576   -418.42429    76.687835 
   89200    80.297474   -111.28328  0.072654842   -111.21063    366.21544    4.2511139    4.2511139    4.2511139    366.21544   -3972.7907    4685.0156    386.42143   -56.392369    61.166502    626.80196    76.825999 
   89300    106.52698   -111.30662  0.096387849   -111.21023   -4.1611521    4.2504401    4.2504401    4.2504401   -4.1611521   -1806.5771    1948.6169   -154.52331    1056.2813   -433.70383   -248.92809    76.789474 
   89400    109.25027   -111.30908  0.098851938   -111.21022   -284.01613    4.2495154    4.2495154    4.2495154   -284.01613   -1942.1548   -739.64641    1829.7528    794.53375   -689.93552    1503.2131    76.739368 
   89500    100.93392   -111.30165  0.091327133   -111.21032   -878.01055    4.2505199    4.2505199    4.2505199   -878.01055   -2565.1862   -4339.0904    4270.2449   -642.57274   -1527.8448    -170.8546    76.793799 
   89600    124.18312   -111.32256    0.1123635    -111.2102   -1510.2396    4.2497447    4.2497447    4.2497447   -1510.2396   -163.26958   -3835.3076   -532.14164   -1326.4353    830.74516   -390.68877    76.751794 
   89700    103.21277   -111.30359  0.093389079    -111.2102    863.91753    4.2503048    4.2503048    4.2503048    863.91753   -2528.8393     911.9047    4208.6872   -858.48216     657.6896   -474.00444    76.782145 
   89800    88.475603   -111.29045  0.080054585    -111.2104    720.01929    4.2504266    4.2504266    4.2504266    720.01929   -1682.0841    4013.1111   -170.96915    994.16985   -756.03738     329.8176    76.788744 
   89900     55.82623   -111.26113  0.050512746   -111.21061    2706.2851    4.2481799    4.2481799    4.2481799    2706.2851   -608.16966    5123.3426    3603.6825    109.29074   -1505.6407    1419.5485    76.667042 
   90000    94.411274   -111.29561  0.085425305   -111.21018    238.60049    4.2502077    4.2502077    4.2502077    238.60049   -2635.1234    3614.8894   -263.96451     1056.503   -682.99693    1039.4442    76.776881 
   90100    79.634166   -111.28235  0.072054667    -111.2103    295.42322    4.2509205    4.2509205    4.2509205    295.42322    -512.0729   -787.60981    2185.9524    609.66804   -613.91192    312.90987    76.815517 
   90200    102.08058    -111.3027  0.092364654   -111.21033   -2783.6374    4.2493989    4.2493989    4.2493989   -2783.6374   -3309.8155   -3049.9608   -1991.1358    234.08123   -2231.8659   -675.97082    76.733055 
   90300    91.583568   -111.29324  0.082866737   -111.21037   -1535.6885    4.2501088    4.2501088    4.2501088   -1535.6885   -2314.4121   -5593.0084     3300.355   -907.09634   -128.41089   -180.77593    76.771518 
   90400    122.71852   -111.32107    0.1110383   -111.21003   -2128.7257    4.2507212    4.2507212    4.2507212   -2128.7257   -2301.2656   -2604.8568   -1480.0547   -1262.8673    160.00703   -618.34502    76.804712 
   90500    96.984724   -111.29807  0.087753816   -111.21031   -479.43998      4.24998      4.24998      4.24998   -479.43998   -2853.8613   -48.498156    1464.0395    505.76469   -686.27285    1206.8433     76.76454 
   90600    75.315985   -111.27869  0.068147486   -111.21054    1180.5839       4.2502       4.2502       4.2502    1180.5839    -3094.053     2801.749    3834.0558   -264.85166   -1121.4203    142.37122    76.776462 
   90700    92.598781   -111.29419  0.083785323   -111.21041    2234.4188    4.2491292    4.2491292    4.2491292    2234.4188    2131.1476    3545.5579    1026.5508    14.725641    165.98687    1254.3434    76.718451 
   90800    87.435308   -111.28947  0.079113304   -111.21035    3049.3286    4.2494736    4.2494736    4.2494736    3049.3286    565.17539    2585.9405    5996.8698    875.79921   -419.81041    1096.1203    76.737104 
   90900    118.06711   -111.31702    0.1068296   -111.21019   -1423.9626    4.2513478    4.2513478    4.2513478   -1423.9626    179.96941   -2303.2195   -2148.6379    1298.2025   -1437.3549    380.62576    76.838682 
   91000    88.265177    -111.2904  0.079864187   -111.21054    365.49797    4.2495368    4.2495368    4.2495368    365.49797    1548.8473   -3432.6648    2980.3114    380.91199   -1833.2765    742.48695    76.740529 
   91100    150.51507   -111.34629    0.1361892    -111.2101   -3020.9272    4.2499286    4.2499286    4.2499286   -3020.9272   -2860.5668   -3316.7394   -2885.4754   -1394.5648    364.19032   -1403.8073    76.761755 
   91200    107.25979   -111.30745  0.097050915    -111.2104    -858.6271    4.2512424    4.2512424    4.2512424    -858.6271   -2175.9264   -2765.1291    2365.1742   -1257.6373    832.91755   -166.19459    76.832969 
   91300    126.09361   -111.32438   0.11409215   -111.21028   -3155.0501    4.2505398    4.2505398    4.2505398   -3155.0501   -5990.4778    1261.8095   -4736.4821   -23.605375   -1952.9928   -236.37573    76.794877 
   91400    73.778483   -111.27744  0.066756322   -111.21068    1914.1966    4.2494657    4.2494657    4.2494657    1914.1966   -3898.3114    3341.4697    6299.4315    39.736014   -639.88053    1875.6823    76.736677 
   91500    110.04897   -111.30993  0.099574621   -111.21036    989.97219    4.2499376    4.2499376    4.2499376    989.97219   -1176.1263      3892.48    253.56286    640.29397   -551.82345      793.355    76.762246 
   91600    98.509431   -111.29957  0.089133403   -111.21043    1416.3954    4.2495667    4.2495667    4.2495667    1416.3954    816.61013    969.84861    2462.7275    958.10885    -91.42574    483.03115    76.742149 
   91700     94.61883   -111.29625  0.085613106   -111.21064    780.08007    4.2505115    4.2505115    4.2505115    780.08007    966.87954   -1381.6103     2754.971    446.30476   -1346.2265    445.27171    76.793345 
   91800    121.48561    -111.3202   0.10992274   -111.21027    -557.1277    4.2499794    4.2499794    4.2499794    -557.1277     4294.913    -4465.987   -1500.3091   -138.88045   -202.55881   -367.64487    76.764507 
   91900    112.75352   -111.31208   0.10202175   -111.21006    297.84363    4.2490093    4.2490093    4.2490093    297.84363    1098.7042   -4460.3231    4255.1497   -841.68058    717.02224    1184.4067    76.711955 
   92000    136.59336   -111.33362   0.12359254   -111.21003   -3011.2628    4.2512292    4.2512292    4.2512292   -3011.2628   -1043.2693   -3625.7026   -4364.8165   -133.66293   -195.23084   -1220.2981    76.832249 
   92100    72.202551   -111.27595  0.065330385   -111.21062    683.33009    4.2503168    4.2503168    4.2503168    683.33009   -1062.9671   -67.322129    3180.2795   -960.37759   -602.24333    1158.9104    76.782793 
   92200    103.48681   -111.30397  0.093637044   -111.21033   -833.61365    4.2491768    4.2491768    4.2491768   -833.61365   -2746.3736    1964.9509   -1719.4182    -438.8046   -378.85728    920.44004    76.721028 
   92300    62.754798   -111.26729   0.05678186   -111.21051    2164.9204    4.2500498    4.2500498    4.2500498    2164.9204     484.4026     1748.626    4261.7327    1027.9676    151.16288    1090.0344    76.768324 
   92400    85.089557   -111.28737  0.076990819   -111.21037   0.22101831    4.2502405    4.2502405    4.2502405   0.22101831    1365.9825    1833.4073   -3198.7267    2004.1134   -2122.9997    389.62016    76.778656 
   92500    75.542413   -111.27885  0.068352363    -111.2105    356.79307    4.2500632    4.2500632    4.2500632    356.79307    278.58708    -2786.722    3578.5141     1105.737   -1377.4497   -86.758701    76.769051 
   92600    98.103937   -111.29898  0.088766504   -111.21021   -517.58981    4.2504253    4.2504253    4.2504253   -517.58981    2801.9448   -4466.4047    111.69044   -1179.0014    651.66392    94.247071    76.788674 
   92700    126.85346   -111.32472   0.11477968   -111.20994   -1833.4445    4.2497934    4.2497934    4.2497934   -1833.4445    672.79354   -5390.3234   -782.80377    -647.5853    552.04587   -527.93243    76.754429 
   92800    92.267308   -111.29369  0.083485399   -111.21021   -376.68532    4.2507717    4.2507717    4.2507717   -376.68532    -1253.771   -3642.5145    3766.2296   -500.97779   -872.49625    644.88608    76.807448 
   92900    109.76029   -111.30943  0.099313419   -111.21012     -2041.23    4.2510997    4.2510997    4.2510997     -2041.23    416.24636    -2809.273   -3730.6634   -373.47536   -755.13352    212.37686    76.825232 
   93000    66.116641   -111.27028  0.059823726   -111.21046    2414.8191    4.2487708    4.2487708    4.2487708    2414.8191    2112.4656    465.27483    4666.7169    252.64066   -198.76654    2354.5007    76.699035 
   93100    96.172747   -111.29729  0.087019123   -111.21027    195.09249    4.2503073    4.2503073    4.2503073    195.09249    2831.8642    2213.5675   -4460.1542    750.36519     516.7678    71.124485    76.782276 
   93200    61.317015   -111.26608  0.055480924    -111.2106    1041.1634    4.2508067    4.2508067    4.2508067    1041.1634    2326.6733    357.26509    439.55177    1383.3418   -1796.2664    864.98792    76.809345 
   93300    96.686787   -111.29786  0.087484236   -111.21038   -1399.6062    4.2497989    4.2497989    4.2497989   -1399.6062    1165.1925   -1478.4674   -3885.5437    370.21112   -679.81747    582.48818    76.754728 
   93400    116.49252   -111.31545   0.10540488   -111.21005   -1138.7991    4.2503155    4.2503155    4.2503155   -1138.7991   -367.53655    -3995.519    946.65824    65.849659    379.56847   -337.92704    76.782721 
   93500    121.34166   -111.31991   0.10979249   -111.21012   -1156.9072    4.2502243    4.2502243    4.2502243   -1156.9072   -538.29821   -1205.8657   -1726.5576   -354.41445   -391.65564   -417.06131    76.777781 
   93600    136.01498   -111.33324   0.12306921   -111.21017   -2788.3417    4.2503246    4.2503246    4.2503246   -2788.3417   -5289.1837   -3809.5593    733.71775   -1617.4073   -67.547948   -538.81611    76.783217 
   93700    89.719391   -111.29172  0.081179991   -111.21054    1854.3223    4.2504313    4.2504313    4.2504313    1854.3223    2061.1741    578.16341    2923.6296   -1126.6332   -227.63213    1681.1012    76.788997 
   93800    123.63885   -111.32201   0.11187103   -111.21014    1730.0748    4.2487522    4.2487522    4.2487522    1730.0748    2923.6904     3556.705   -1290.1711     866.0851    359.43817   -123.01554     76.69803 
   93900    74.251978   -111.27768   0.06718475    -111.2105     4337.942    4.2489292    4.2489292    4.2489292     4337.942    3807.7171    4236.4455    4969.6633    2193.0159   -1230.5336    1557.4073    76.707615 
   94000    104.30066   -111.30484  0.094373433   -111.21047   -135.37559     4.251097     4.251097     4.251097   -135.37559    3487.4226    1808.7475   -5702.2968    862.07364   -463.04037   -467.01079    76.825081 
   94100    91.287848    -111.2931  0.082599163    -111.2105    764.47104    4.2491069    4.2491069    4.2491069    764.47104    2130.5613   -1015.1883    1178.0402   -1287.0102     494.7899    2108.7135     76.71724 
   94200    127.65726   -111.32565   0.11550697   -111.21014   -1976.7852    4.2497205    4.2497205    4.2497205   -1976.7852    329.01023   -2426.6539   -3832.7119   -179.28961    777.26765    225.54561     76.75048 
   94300    137.71703   -111.33473   0.12460926   -111.21012   -4313.5049    4.2512324    4.2512324    4.2512324   -4313.5049   -5037.0482   -4559.1769   -3344.2895    40.231781   -910.21207   -727.57981    76.832424 
   94400    93.228458   -111.29485  0.084355068    -111.2105   -1551.4729    4.2497877    4.2497877    4.2497877   -1551.4729   -775.40216   -1542.5698   -2336.4467   -529.98888   -1055.7247    1732.7666     76.75412 
   94500    121.51112   -111.32037   0.10994582   -111.21042   -2113.0516    4.2505486    4.2505486    4.2505486   -2113.0516   -2758.3981   -1870.5141   -1710.2426   -773.30655    481.90494   -329.82025    76.795358 
   94600    57.791382   -111.26308  0.052290857   -111.21079    4219.5023    4.2490608    4.2490608    4.2490608    4219.5023    5416.6365    5941.8097    1300.0608    545.04646   -166.53631    1481.5525    76.714746 
   94700    112.82271   -111.31243   0.10208436   -111.21035    626.97608    4.2489371    4.2489371    4.2489371    626.97608    54.761126    2979.6294   -1153.4623    2323.4003   -1227.3829   -831.92972    76.708046 
   94800    48.577237   -111.25467  0.043953705   -111.21072    4189.0677    4.2505387    4.2505387    4.2505387    4189.0677    5689.7034    3274.0784    3603.4214    620.09507    -755.7218    1765.0144    76.794818 
   94900    123.74968   -111.32222   0.11197131   -111.21025   -1171.9129    4.2495879    4.2495879    4.2495879   -1171.9129    176.16103   -1613.6567    -2078.243   -459.44826    203.22006   -199.40759    76.743295 
   95000    98.802185   -111.29966  0.089398293   -111.21026     381.3747    4.2488705    4.2488705    4.2488705     381.3747    1285.8697   -2915.0487    2773.3031   -919.74457   -98.039518    564.87052    76.704435 
   95100    119.50675   -111.31817   0.10813222   -111.21004    -2735.638    4.2514682    4.2514682    4.2514682    -2735.638   -969.70855   -4013.0244   -3224.1811   -1099.6618    417.51858     156.4056     76.84521 
   95200    98.037892   -111.29916  0.088706745   -111.21045   -2333.3039     4.250195     4.250195     4.250195   -2333.3039   -1212.0747   -3368.3641   -2419.4731    -601.4067   -513.39549    1026.9081    76.776194 
   95300    66.496316   -111.27077  0.060167264   -111.21061    341.63838    4.2495725    4.2495725    4.2495725    341.63838    3401.3887   -921.43121   -1455.0424    353.58991    998.88419    1594.2969    76.742462 
   95400    99.420606   -111.30026  0.089957853    -111.2103   -986.42543    4.2504261    4.2504261    4.2504261   -986.42543   -190.05485     2731.505   -5500.7264    2203.2146    -1577.945   -727.89906    76.788716 
   95500    45.108385   -111.25148  0.040815015   -111.21067    2682.2909    4.2491455    4.2491455    4.2491455    2682.2909    4690.3152     4119.656   -763.09854    898.74529   -1029.4258    1816.5108    76.719331 
   95600    117.41609   -111.31654   0.10624054    -111.2103   -3083.6243    4.2512751    4.2512751    4.2512751   -3083.6243   -2651.9754   -1973.7883   -4625.1093   -807.10622    670.52716    531.15665    76.834738 
   95700    82.477067   -111.28499  0.074626984   -111.21036    1128.7923    4.2501768    4.2501768    4.2501768    1128.7923    2890.8892    620.68357   -125.19598   -672.45378   -200.62786    863.13832    76.775204 
   95800    152.23452   -111.34756     0.137745   -111.20981   -2339.1988     4.249204     4.249204     4.249204   -2339.1988   -2771.9356   -2483.2266   -1762.4343    -122.1769   -248.65065   -858.17686    76.722498 
   95900    102.38881   -111.30295   0.09264355    -111.2103   -52.252504    4.2512517    4.2512517    4.2512517   -52.252504    860.54928   -1407.7783    390.47153   -308.78707   -859.16782    609.05685    76.833473 
   96000    109.63356   -111.30941  0.099198749   -111.21021   -499.84667    4.2505488    4.2505488    4.2505488   -499.84667   -95.393826    -1331.522   -72.624225   -1517.7318    1214.7675   -209.57956    76.795367 
   96100    98.161034   -111.29918  0.088818167   -111.21037    2252.3913    4.2487121    4.2487121    4.2487121    2252.3913    3900.5108    3417.3018   -560.63858    314.93455    155.06503    205.27556    76.695856 
   96200    76.061847   -111.27936  0.068822358   -111.21054    3063.9023    4.2502291    4.2502291    4.2502291    3063.9023    3322.3699    4276.5663    1592.7709    2697.5266   -831.93613    718.43001    76.778041 
   96300    104.99184   -111.30533  0.094998822   -111.21033   -1194.8734    4.2501271    4.2501271    4.2501271   -1194.8734   -1689.4695    1687.9406   -3583.0911    990.93858   -1243.6008    1048.8971    76.772513 
   96400    79.100205    -111.2821  0.071571528   -111.21053    256.68012    4.2501464    4.2501464    4.2501464    256.68012    1564.9332   -787.77721    -7.115617   -422.75186   -264.10096    2338.4226    76.773557 
   96500    150.23245   -111.34586   0.13593348   -111.20993   -3847.5901    4.2512079    4.2512079    4.2512079   -3847.5901   -5242.6504   -1871.4941   -4428.6259   -1603.7372   -89.753831   -1070.2054    76.831095 
   96600    105.32324   -111.30557  0.095298685   -111.21027   -813.27334    4.2490457    4.2490457    4.2490457   -813.27334   -424.93767   -749.34504   -1265.5373   -340.18028   -1002.0452    1633.4329    76.713924 
   96700    133.44997   -111.33084   0.12074834   -111.21009   -3576.1119    4.2508811    4.2508811    4.2508811   -3576.1119   -3712.1736   -3754.3151    -3261.847    42.445734    768.05367    32.372259    76.813379 
   96800    85.399794   -111.28791  0.077271528   -111.21064    1282.4016    4.2506658    4.2506658    4.2506658    1282.4016     3392.218    3246.8298   -2791.8429    193.52745   -99.915773    463.71837    76.801708 
   96900    99.693709   -111.30057  0.090204963   -111.21036    2267.5375    4.2480811    4.2480811    4.2480811    2267.5375    2068.0677    3306.8483    1427.6966    1184.5227    -574.6824   -911.79687    76.661693 
   97000    84.504981   -111.28685  0.076461883   -111.21038    2438.3017    4.2498237    4.2498237    4.2498237    2438.3017    3998.7996    4033.1059   -717.00026    870.72523   -1352.1985    551.92095    76.756071 
   97100    78.076448   -111.28118  0.070645211   -111.21053    1569.2482     4.250298     4.250298     4.250298    1569.2482    552.92051    262.27025    3892.5537   -92.487212    48.086744    1604.7942    76.781773 
   97200      111.145   -111.31081   0.10056633   -111.21025   -692.48312    4.2493141    4.2493141    4.2493141   -692.48312   -673.52513   -1391.6402   -12.284076   -659.19051    104.99373   -224.03609    76.728463 
   97300    103.59171   -111.30393  0.093731959    -111.2102   -419.69967    4.2504738    4.2504738    4.2504738   -419.69967   -1426.2132   -4162.4701    4329.5843   -273.90798    280.36555    781.69702    76.791302 
   97400    124.94992   -111.32318   0.11305731   -111.21012   -2727.5645    4.2498318    4.2498318    4.2498318   -2727.5645   -3837.9208   -3951.1082   -393.66452   -937.02921   -606.90968   -957.15963    76.756509 
   97500    81.194244   -111.28405  0.073466258   -111.21058   -570.32152    4.2499992    4.2499992    4.2499992   -570.32152     2007.306   -3347.6428   -370.62776   -1346.1178    797.43904     1396.953    76.765583 
   97600    99.734547   -111.30063  0.090241914   -111.21039   -1642.7694    4.2514142    4.2514142    4.2514142   -1642.7694   -1440.4186   -631.70861   -2856.1809    472.87759    638.99438   -850.06927    76.842283 
   97700    74.775481   -111.27819  0.067658427   -111.21053    1632.9484     4.248826     4.248826     4.248826    1632.9484    4418.3547    2903.2735   -2422.7829    2009.8466   -1487.0368    997.87598    76.702026 
   97800     82.75962   -111.28539  0.074882643   -111.21051    725.65656    4.2498265    4.2498265    4.2498265    725.65656    1553.1661    131.21593    492.58767    788.25897   -762.72027     1526.728    76.756224 
   97900    87.541481   -111.28958  0.079209371   -111.21037   -674.55354    4.2514658    4.2514658    4.2514658   -674.55354    91.933237    146.12717    -2261.721   -744.96414   -1730.8995    925.06396    76.845081 
   98000    97.929356   -111.29887  0.088608539   -111.21026   -616.39386    4.2495873    4.2495873    4.2495873   -616.39386   -1924.5101   -4177.9269    4253.2553   -1536.0983    142.47917   -516.82986    76.743262 
   98100     129.1457   -111.32687   0.11685375   -111.21001   -1870.7753    4.2504751    4.2504751    4.2504751   -1870.7753   -694.29366   -4354.6727   -563.35966   -23.283668    281.63258   -442.10637    76.791371 
   98200    100.91689   -111.30159  0.091311727   -111.21028   -324.46176    4.2505874    4.2505874    4.2505874   -324.46176   -804.80402   -4718.2145    4549.6332   -583.37835    946.59649    57.540299    76.797458 
   98300    116.00519    -111.3152   0.10496393   -111.21023   -1803.8222    4.2500887    4.2500887    4.2500887   -1803.8222   -1049.3913   -3204.6434    -1157.432   -621.92546    205.78653   -817.81629     76.77043 
   98400    81.800009   -111.28453  0.074014367   -111.21051    1452.9214    4.2508452    4.2508452    4.2508452    1452.9214    2617.2975   -807.18954    2548.6562     999.2783   -1054.2047    149.33616    76.811433 
   98500     99.82418    -111.3007  0.090323016   -111.21038     1138.863    4.2495863    4.2495863    4.2495863     1138.863   -320.73063    2317.5274    1419.7922    523.19974   -839.67496    464.17698     76.74321 
   98600    73.119313   -111.27668  0.066159891   -111.21052    2089.7668    4.2491808    4.2491808    4.2491808    2089.7668    2210.3467    1422.9641    2635.9895    588.08074   -1106.6039    2979.8887    76.721245 
   98700    103.45558   -111.30398  0.093608785   -111.21037   -1224.5102    4.2515261    4.2515261    4.2515261   -1224.5102   -4381.0941   -1156.0382    1863.6017   -46.895134    183.02522    929.44519     76.84835 
   98800    115.11071   -111.31436   0.10415459    -111.2102    -1239.972    4.2498652    4.2498652    4.2498652    -1239.972   -1628.8205   -1003.1612   -1087.9343    245.14831   -1815.7205    251.31411    76.758323 
   98900    122.56584   -111.32105   0.11090015   -111.21015   -1685.6965    4.2497955    4.2497955    4.2497955   -1685.6965   -2189.3218   -4103.8231    1236.0553   -1104.4091    518.35448   -402.85684    76.754544 
   99000    130.82364   -111.32851   0.11837198   -111.21013   -3043.5743    4.2512992    4.2512992    4.2512992   -3043.5743   -2288.1731   -3739.7501   -3102.7998   -1532.4304    421.13209   -533.44105    76.836049 
   99100    98.238296   -111.29929  0.088888074   -111.21041    223.19832    4.2497507    4.2497507    4.2497507    223.19832    606.52914   -1888.7612     1951.827    324.23157    184.11455   -393.16867    76.752116 
   99200    112.07758   -111.31172   0.10141015   -111.21031    535.97549    4.2501135    4.2501135    4.2501135    535.97549    699.84916    382.61263    525.46467    1794.6987   -969.99981    63.182612    76.771775 
   99300    61.887669   -111.26668  0.055997263   -111.21069    4253.6468    4.2495363    4.2495363    4.2495363    4253.6468    1958.0456    1755.0286    9047.8661    580.17258    -1389.371    1967.7491    76.740501 
   99400    97.381338   -111.29855  0.088112681   -111.21044    1221.8019    4.2491214    4.2491214    4.2491214    1221.8019   -2906.6396    1760.1388    4811.9067   -999.60817   -426.32077     779.8617    76.718024 
   99500      77.2104   -111.28028  0.069861592   -111.21042    1936.9381    4.2507268    4.2507268    4.2507268    1936.9381   -241.85846    64.663832    5988.0089   -14.443778   -51.147974    1111.9479    76.805016 
   99600    130.29639    -111.3281   0.11789491   -111.21021   -2624.1885    4.2506038    4.2506038    4.2506038   -2624.1885   -5938.9513   -1959.5663    25.952021    246.24324     660.6502   -34.744746    76.798347 
   99700    106.94249   -111.30712  0.096763817   -111.21036   -2007.9636    4.2496444    4.2496444    4.2496444   -2007.9636   -931.71545   -4630.7655   -461.40992   -995.05921   -373.50933    346.16108    76.746359 
   99800    122.37487   -111.32081   0.11072736   -111.21008   -3584.1577    4.2515286    4.2515286    4.2515286   -3584.1577   -3057.2929   -5672.8311   -2022.3491   -1321.6295    671.06211   -247.46911    76.848484 
   99900    104.91589   -111.30524    0.0949301   -111.21031   -1712.3751    4.2506745    4.2506745    4.2506745   -1712.3751   -800.56698   -2721.7388   -1614.8197     168.2168   -2086.0815   -1176.3922    76.802179 
  100000     72.85678   -111.27634  0.065922345   -111.21042    992.78312    4.2496743    4.2496743    4.2496743    992.78312    1750.1928   -2110.5578    3338.7144    699.73763   -702.60656    1832.5858     76.74798 
Loop time of 22.5369 on 1 procs for 100000 steps with 8 atoms

Pair  time (%) = 7.42664 (32.9532)
Kspce time (%) = 5.33825 (23.6867)
Neigh time (%) = 0 (0)
Comm  time (%) = 1.07267 (4.75962)
Outpt time (%) = 0.0363946 (0.161489)
Other time (%) = 8.66297 (38.439)

Nlocal:    8 ave 8 max 8 min
Histogram: 1 0 0 0 0 0 0 0 0 0
Nghost:    2189 ave 2189 max 2189 min
Histogram: 1 0 0 0 0 0 0 0 0 0
Neighs:    2344 ave 2344 max 2344 min
Histogram: 1 0 0 0 0 0 0 0 0 0

Total # of neighbors = 2344
Ave neighs/atom = 293
Neighbor list builds = 0
Dangerous builds = 0
unfix 20
unfix 21
print "seeds:9044895"
seeds:9044895
