LAMMPS (16 Mar 2018)
include init.mod
# ---- init.mod file
variable up equal 1.0e-6
units metal
dimension 3
boundary p p p
atom_style charge
atom_modify map array
variable cfac equal 1.0e-4
variable cunits string GPa
# ---- define minimization parameters
variable etol equal 0.0
variable ftol equal 1.0e-10
variable maxiter equal 100
variable maxeval equal 1000
variable dmax equal 1.0e-2
# --- read data structure
read_data lammps.structure
  triclinic box = (0 0 0) to (4.2565 4.2565 4.2565) with tilt (0 0 0)
  1 by 1 by 1 MPI processor grid
  reading atoms ...
  8 atoms
include potential.mod
mass 1 24.305
mass 2 15.999

group Mg type 1
4 atoms in group Mg
group O type 2
4 atoms in group O

set group Mg charge 2.467095066210368
  4 settings made for charge
set group O charge -2.467095066210368
  4 settings made for charge

variable R_cut equal 10.0

pair_style buck/coul/long ${R_cut}
pair_style buck/coul/long 10
pair_coeff 1 1 0.0 0.5 0.0 ${R_cut}
pair_coeff 1 1 0.0 0.5 0.0 10
pair_coeff 1 2 935.4807786808233 0.3084619384680258 0.0 ${R_cut}
pair_coeff 1 2 935.4807786808233 0.3084619384680258 0.0 10
pair_coeff 2 2 12266.368986574063 0.11126335340408924 33.77611037763418 ${R_cut}
pair_coeff 2 2 12266.368986574063 0.11126335340408924 33.77611037763418 10

kspace_style pppm 1.0e-5

neighbor 1.0 bin
neigh_modify every 1 delay 0 check yes
thermo	1
thermo_style custom step temp pe press pxx pyy pzz pxy pxz pyz lx ly lz vol
thermo_modify norm no
# ---- Compute initial state
fix 3 all box/relax aniso 0.0
minimize ${etol} ${ftol} ${maxiter} ${maxeval}
minimize 0 ${ftol} ${maxiter} ${maxeval}
minimize 0 1e-10 ${maxiter} ${maxeval}
minimize 0 1e-10 100 ${maxeval}
minimize 0 1e-10 100 1000
PPPM initialization ...
  using 12-bit tables for long-range coulomb (../kspace.cpp:321)
  G vector (1/distance) = 0.361586
  grid = 9 9 9
  stencil order = 5
  estimated absolute RMS force accuracy = 5.09539e-05
  estimated relative force accuracy = 3.53856e-06
  using double precision FFTs
  3d grid and FFT values/proc = 4096 729
Neighbor list info ...
  update every 1 steps, delay 0 steps, check yes
  max neighbors/atom: 2000, page size: 100000
  master list distance cutoff = 11
  ghost atom cutoff = 11
  binsize = 5.5, bins = 1 1 1
  1 neighbor lists, perpetual/occasional/extra = 1 0 0
  (1) pair buck/coul/long, perpetual
      attributes: half, newton on
      pair build: half/bin/newton/tri
      stencil: half/bin/3d/newton/tri
      bin: standard
Per MPI rank memory allocation (min/avg/max) = 4.682 | 4.682 | 4.682 Mbytes
Step Temp PotEng Press Pxx Pyy Pzz Pxy Pxz Pyz Lx Ly Lz Volume 
       0            0   -266.32012   -948031.58   -948031.58   -948031.58   -948031.58 2.7571011e-10 2.6034611e-10 -3.7477605e-10       4.2565       4.2565       4.2565    77.118383 
       1            0   -266.33377   -947887.81   -947887.81   -947887.81   -947887.81 8.2397424e-11 -2.9837734e-10 -5.6457771e-10    4.2560743    4.2560743    4.2560743     77.09525 
       2            0   -266.34744   -947744.46   -947744.46   -947744.46   -947744.46 -2.1793782e-10 1.6053333e-10 1.7166927e-10    4.2556487    4.2556487    4.2556487    77.072121 
       3            0   -266.36111   -947601.76   -947601.76   -947601.76   -947601.76 -1.6633249e-10 8.2442798e-10 9.1340096e-10     4.255223     4.255223     4.255223    77.048997 
       4            0   -266.37475   -947457.58   -947457.58   -947457.58   -947457.58 -5.7817979e-10 -4.5641173e-10 -7.7892562e-10    4.2547974    4.2547974    4.2547974    77.025878 
       5            0   -266.38843   -947313.23   -947313.23   -947313.23   -947313.23 -2.2916057e-11 -5.2320447e-10 -8.7744155e-10    4.2543717    4.2543717    4.2543717    77.002763 
       6            0   -266.40217   -947170.83   -947170.83   -947170.83   -947170.83 6.8332126e-10 1.0108813e-10 1.2534698e-10    4.2539461    4.2539461    4.2539461    76.979653 
       7            0   -266.41587    -947026.6    -947026.6    -947026.6    -947026.6 1.0621863e-10 -2.7200852e-10 3.8026475e-10    4.2535204    4.2535204    4.2535204    76.956547 
       8            0   -266.42949    -946879.7    -946879.7    -946879.7    -946879.7 2.5649533e-10 9.7168603e-11 -3.247443e-10    4.2530948    4.2530948    4.2530948    76.933447 
       9            0    -266.4431   -946732.33   -946732.33   -946732.33   -946732.33 -1.3842538e-10 -4.9642359e-10 8.3898454e-10    4.2526691    4.2526691    4.2526691     76.91035 
      10            0   -266.45671   -946584.76   -946584.76   -946584.76   -946584.76 3.1476812e-10 3.342044e-10 3.5070505e-10    4.2522435    4.2522435    4.2522435    76.887259 
      11            0   -266.47033   -946436.48   -946436.48   -946436.48   -946436.48 1.9195501e-10 -2.9647238e-10 1.7171613e-10    4.2518178    4.2518178    4.2518178    76.864172 
      12            0   -266.48393   -946288.31   -946288.31   -946288.31   -946288.31 2.0855314e-10 5.371051e-10 1.5236453e-10    4.2513922    4.2513922    4.2513922     76.84109 
      13            0   -266.49764   -946142.55   -946142.55   -946142.55   -946142.55 5.4468334e-12 2.0483212e-11 -1.6985967e-10    4.2509665    4.2509665    4.2509665    76.818012 
      14            0   -266.51133   -945996.18   -945996.18   -945996.18   -945996.18 1.6365762e-10 7.6722023e-10 5.7274442e-10    4.2505409    4.2505409    4.2505409    76.794939 
      15            0   -266.52501   -945849.58   -945849.58   -945849.58   -945849.58 -1.682427e-10 -5.4583858e-10 -2.4130108e-10    4.2501152    4.2501152    4.2501152     76.77187 
      16            0   -266.53858   -945698.35   -945698.35   -945698.35   -945698.35 -7.9674431e-10 4.4095923e-10 -3.6551796e-10    4.2496896    4.2496896    4.2496896    76.748806 
      17            0   -266.55212   -945545.46   -945545.46   -945545.46   -945545.46 -5.06384e-10 -1.2496861e-10 2.4128861e-10    4.2492639    4.2492639    4.2492639    76.725747 
      18            0   -266.56568   -945393.58   -945393.58   -945393.58   -945393.58 2.3784282e-10 -5.8878864e-11 -7.5567887e-10    4.2488383    4.2488383    4.2488383    76.702693 
      19            0   -266.57924   -945241.64   -945241.64   -945241.64   -945241.64 -1.09832e-10 2.4228919e-10 8.2875743e-10    4.2484126    4.2484126    4.2484126    76.679643 
      20            0   -266.59287   -945091.75   -945091.75   -945091.75   -945091.75 4.8511339e-10 1.7777738e-10 -8.4182171e-10     4.247987     4.247987     4.247987    76.656597 
      21            0    -266.6065   -944941.79   -944941.79   -944941.79   -944941.79 -6.2124579e-10 -2.7507046e-11 5.401734e-10    4.2475613    4.2475613    4.2475613    76.633556 
      22            0   -266.62015   -944790.66   -944790.66   -944790.66   -944790.66 -5.016498e-11 9.2380456e-11 1.7958871e-10    4.2471357    4.2471357    4.2471357     76.61052 
      23            0   -266.63374   -944638.13   -944638.13   -944638.13   -944638.13 -1.7468398e-10 -1.1570911e-11 2.5986122e-10      4.24671      4.24671      4.24671    76.587489 
      24            0   -266.64736   -944485.28   -944485.28   -944485.28   -944485.28 2.4687172e-10 4.3251902e-10 6.2602928e-10    4.2462844    4.2462844    4.2462844    76.564462 
      25            0   -266.66083   -944328.33   -944328.33   -944328.33   -944328.33 1.0172281e-10 3.6773855e-10 6.5354991e-10    4.2458587    4.2458587    4.2458587     76.54144 
      26            0   -266.67434   -944172.74   -944172.74   -944172.74   -944172.74   3.7996e-10 -4.8481512e-11 4.766397e-10    4.2454331    4.2454331    4.2454331    76.518422 
      27            0   -266.68792   -944019.01   -944019.01   -944019.01   -944019.01 2.3435875e-10 2.4033776e-10 1.5808654e-10    4.2450074    4.2450074    4.2450074    76.495409 
      28            0    -266.7015   -943863.83   -943863.83   -943863.83   -943863.83 3.2128355e-11 -3.0285493e-10 -1.4182545e-10    4.2445818    4.2445818    4.2445818      76.4724 
      29            0   -266.71509   -943708.69   -943708.69   -943708.69   -943708.69 1.5022901e-10 6.5900454e-10 6.6147635e-10    4.2441561    4.2441561    4.2441561    76.449397 
      30            0   -266.72865   -943552.82   -943552.82   -943552.82   -943552.82 1.2248538e-10 -7.170973e-10 -8.1760083e-10    4.2437305    4.2437305    4.2437305    76.426397 
      31            0    -266.7422    -943396.1    -943396.1    -943396.1    -943396.1 1.1925034e-10 4.1444017e-11 -6.2888963e-10    4.2433048    4.2433048    4.2433048    76.403403 
      32            0   -266.75574   -943239.27   -943239.27   -943239.27   -943239.27 -3.5243148e-10 5.5650597e-10 2.3455647e-10    4.2428792    4.2428792    4.2428792    76.380413 
      33            0   -266.76928   -943081.59   -943081.59   -943081.59   -943081.59 -6.2756261e-10 -3.2765704e-10 9.5413059e-10    4.2424535    4.2424535    4.2424535    76.357427 
      34            0   -266.78279    -942922.9    -942922.9    -942922.9    -942922.9 2.565159e-10 6.7258392e-10 -1.0188298e-10    4.2420279    4.2420279    4.2420279    76.334447 
      35            0   -266.79632   -942764.17   -942764.17   -942764.17   -942764.17 -2.0757149e-10 7.2710175e-11 -6.9798681e-10    4.2416022    4.2416022    4.2416022     76.31147 
      36            0   -266.80982   -942604.74   -942604.74   -942604.74   -942604.74 4.5108052e-10 -5.5609313e-10 1.1459058e-10    4.2411766    4.2411766    4.2411766    76.288499 
      37            0    -266.8233   -942444.45   -942444.45   -942444.45   -942444.45 1.1943366e-10 1.0652683e-10 -3.406255e-10    4.2407509    4.2407509    4.2407509    76.265532 
      38            0   -266.83676   -942283.66   -942283.66   -942283.66   -942283.66 3.0660689e-11 1.1131499e-10 -3.5428757e-10    4.2403253    4.2403253    4.2403253     76.24257 
      39            0   -266.85025   -942122.42   -942122.42   -942122.42   -942122.42 4.5241569e-10 3.9009255e-10 8.979685e-10    4.2398996    4.2398996    4.2398996    76.219612 
      40            0   -266.86379    -941961.8    -941961.8    -941961.8    -941961.8 2.4233642e-10 3.6057412e-10 4.3511817e-10     4.239474     4.239474     4.239474    76.196659 
      41            0   -266.87736   -941802.94   -941802.94   -941802.94   -941802.94 -2.7082245e-10 -4.6627488e-11 -8.2031871e-11    4.2390483    4.2390483    4.2390483     76.17371 
      42            0   -266.89086   -941641.59   -941641.59   -941641.59   -941641.59 -2.0129324e-10 7.6694941e-10 -3.68921e-10    4.2386227    4.2386227    4.2386227    76.150766 
      43            0    -266.9043   -941477.96   -941477.96   -941477.96   -941477.96 -3.0686076e-10 7.5177543e-10 6.2127277e-10     4.238197     4.238197     4.238197    76.127827 
      44            0   -266.91773   -941313.81   -941313.81   -941313.81   -941313.81 4.7672508e-10 -5.0958059e-11 7.143491e-10    4.2377714    4.2377714    4.2377714    76.104893 
      45            0   -266.93117   -941148.48   -941148.48   -941148.48   -941148.48 -1.0837254e-10 2.880008e-10 -1.0166884e-09    4.2373457    4.2373457    4.2373457    76.081962 
      46            0   -266.94461   -940982.96   -940982.96   -940982.96   -940982.96 -4.2636653e-10 -2.8210896e-11 -4.1465504e-10    4.2369201    4.2369201    4.2369201    76.059037 
      47            0   -266.95809   -940818.49   -940818.49   -940818.49   -940818.49 6.5511951e-10 -5.2255619e-11 1.0349159e-10    4.2364944    4.2364944    4.2364944    76.036116 
      48            0   -266.97158   -940654.78   -940654.78   -940654.78   -940654.78 4.3042047e-11 6.5286848e-11 9.7079949e-11    4.2360688    4.2360688    4.2360688      76.0132 
      49            0   -266.98512    -940492.4    -940492.4    -940492.4    -940492.4 4.4583755e-10 -7.5507614e-12 -2.5113187e-10    4.2356431    4.2356431    4.2356431    75.990288 
      50            0   -266.99861   -940328.43   -940328.43   -940328.43   -940328.43 2.7320282e-10 3.8798286e-10 -1.6503067e-10    4.2352175    4.2352175    4.2352175    75.967381 
      51            0   -267.01199    -940159.6    -940159.6    -940159.6    -940159.6 1.769026e-10 7.2538505e-11 9.0667902e-10    4.2347918    4.2347918    4.2347918    75.944479 
      52            0   -267.02537   -939990.24   -939990.24   -939990.24   -939990.24 -1.7364503e-10 1.6661337e-11 -3.6302509e-10    4.2343662    4.2343662    4.2343662    75.921581 
      53            0   -267.03873   -939820.73   -939820.73   -939820.73   -939820.73 3.5313413e-10 9.3838552e-10 9.6388334e-10    4.2339405    4.2339405    4.2339405    75.898688 
      54            0   -267.05216   -939652.48   -939652.48   -939652.48   -939652.48 -2.7186048e-10 -2.0110081e-10 1.9593355e-10    4.2335149    4.2335149    4.2335149    75.875799 
      55            0   -267.06559   -939484.59   -939484.59   -939484.59   -939484.59 8.885992e-11 3.2818905e-10 2.2357531e-10    4.2330892    4.2330892    4.2330892    75.852915 
      56            0   -267.07904   -939316.87   -939316.87   -939316.87   -939316.87 -1.3354754e-10 -1.5914097e-10 1.8455785e-11    4.2326636    4.2326636    4.2326636    75.830036 
      57            0   -267.09248   -939148.37   -939148.37   -939148.37   -939148.37 7.2687788e-11 -5.5918489e-10 -1.5215531e-11    4.2322379    4.2322379    4.2322379    75.807161 
      58            0   -267.10593   -938979.49   -938979.49   -938979.49   -938979.49 1.2315552e-10 1.0545916e-10 1.1037895e-10    4.2318123    4.2318123    4.2318123    75.784291 
      59            0    -267.1193   -938808.39   -938808.39   -938808.39   -938808.39 6.3451051e-11 4.0316162e-10 4.0010604e-10    4.2313866    4.2313866    4.2313866    75.761425 
      60            0   -267.13263   -938635.29   -938635.29   -938635.29   -938635.29 5.0192399e-10 5.5264491e-11 3.8495962e-10     4.230961     4.230961     4.230961    75.738564 
      61            0   -267.14596   -938462.61   -938462.61   -938462.61   -938462.61 -5.4514642e-10 -1.2684747e-09 -2.832302e-10    4.2305353    4.2305353    4.2305353    75.715708 
      62            0   -267.15936   -938290.42   -938290.42   -938290.42   -938290.42 1.3558805e-11 -7.5262474e-11 -2.8498573e-10    4.2301097    4.2301097    4.2301097    75.692856 
      63            0   -267.17274   -938116.86   -938116.86   -938116.86   -938116.86 -4.0383016e-10 -8.6977944e-10 -6.2238523e-10     4.229684     4.229684     4.229684    75.670008 
      64            0   -267.18614   -937944.17   -937944.17   -937944.17   -937944.17 -6.1591554e-10 4.7945206e-10 4.9471899e-10    4.2292584    4.2292584    4.2292584    75.647166 
      65            0   -267.19952   -937771.18   -937771.18   -937771.18   -937771.18 -1.3906731e-10 4.7351817e-10 5.9769571e-10    4.2288327    4.2288327    4.2288327    75.624328 
      66            0    -267.2129   -937598.31   -937598.31   -937598.31   -937598.31 -1.6410876e-10 1.9088051e-10 -5.1032662e-10    4.2284071    4.2284071    4.2284071    75.601494 
      67            0   -267.22626    -937424.8    -937424.8    -937424.8    -937424.8 7.6418064e-12 -1.6672806e-10 3.6036653e-10    4.2279814    4.2279814    4.2279814    75.578666 
      68            0   -267.23961   -937249.07   -937249.07   -937249.07   -937249.07 4.9227228e-10 2.4751551e-10 5.0230831e-10    4.2275558    4.2275558    4.2275558    75.555841 
      69            0   -267.25296   -937072.22   -937072.22   -937072.22   -937072.22 -6.9105822e-11 -4.8470614e-10 -4.3306258e-10    4.2271301    4.2271301    4.2271301    75.533022 
      70            0   -267.26627   -936894.59   -936894.59   -936894.59   -936894.59 2.3578766e-10 4.5846513e-10 -1.8022535e-10    4.2267045    4.2267045    4.2267045    75.510207 
      71            0   -267.27961   -936717.36   -936717.36   -936717.36   -936717.36 -7.4102246e-11 -8.2076185e-10 -6.5108391e-10    4.2262788    4.2262788    4.2262788    75.487396 
      72            0   -267.29295   -936541.08   -936541.08   -936541.08   -936541.08 3.1620583e-10 4.2367578e-11 -1.0462104e-09    4.2258532    4.2258532    4.2258532     75.46459 
      73            0   -267.30627   -936364.17   -936364.17   -936364.17   -936364.17 -6.4750199e-10 -2.8911229e-11 -4.365204e-10    4.2254275    4.2254275    4.2254275    75.441789 
      74            0   -267.31958   -936185.19   -936185.19   -936185.19   -936185.19 -5.0440844e-10 -3.1560759e-10 7.412612e-12    4.2250019    4.2250019    4.2250019    75.418992 
      75            0   -267.33297   -936008.54   -936008.54   -936008.54   -936008.54 -2.4605422e-11 -2.9935013e-10 7.694054e-10    4.2245762    4.2245762    4.2245762      75.3962 
      76            0   -267.34639   -935832.03   -935832.03   -935832.03   -935832.03 -1.1542823e-10 2.5334695e-10 2.9048444e-10    4.2241506    4.2241506    4.2241506    75.373413 
      77            0   -267.35965   -935650.62   -935650.62   -935650.62   -935650.62 4.4720496e-11 4.0127157e-10 1.6453504e-10    4.2237249    4.2237249    4.2237249     75.35063 
      78            0    -267.3729   -935468.86   -935468.86   -935468.86   -935468.86 -1.9100184e-10 1.6182595e-10 -2.4999458e-10    4.2232993    4.2232993    4.2232993    75.327852 
      79            0   -267.38614   -935286.57   -935286.57   -935286.57   -935286.57 -2.7967209e-10 -1.8456497e-11 -4.8244328e-10    4.2228736    4.2228736    4.2228736    75.305078 
      80            0    -267.3994   -935103.89   -935103.89   -935103.89   -935103.89 -5.2857837e-11 3.7582174e-10 4.7909676e-10     4.222448     4.222448     4.222448    75.282309 
      81            0   -267.41263   -934920.31   -934920.31   -934920.31   -934920.31 -3.4973034e-10 -2.6031118e-10 1.2343104e-11    4.2220223    4.2220223    4.2220223    75.259544 
      82            0   -267.42598   -934740.16   -934740.16   -934740.16   -934740.16 4.2268031e-10 4.0698176e-10 9.4638831e-10    4.2215967    4.2215967    4.2215967    75.236784 
      83            0   -267.43932   -934559.52   -934559.52   -934559.52   -934559.52 1.4712488e-11 -1.982045e-10 -2.0313625e-10     4.221171     4.221171     4.221171    75.214029 
      84            0   -267.45263   -934378.29   -934378.29   -934378.29   -934378.29 7.351762e-11 3.5376692e-10 2.3430774e-10    4.2207454    4.2207454    4.2207454    75.191278 
      85            0    -267.4659    -934194.5    -934194.5    -934194.5    -934194.5 -1.4958464e-10 -2.7559349e-11 -6.0937893e-10    4.2203197    4.2203197    4.2203197    75.168532 
      86            0   -267.47913   -934007.83   -934007.83   -934007.83   -934007.83 2.4827266e-10 -4.1484405e-11 -2.7512912e-10    4.2198941    4.2198941    4.2198941     75.14579 
      87            0    -267.4923   -933820.26   -933820.26   -933820.26   -933820.26 2.4689891e-10 4.6871631e-10 7.1928345e-10    4.2194684    4.2194684    4.2194684    75.123053 
      88            0   -267.50549   -933633.41   -933633.41   -933633.41   -933633.41 1.0958839e-10 2.6935072e-10 -4.0300304e-10    4.2190428    4.2190428    4.2190428    75.100321 
      89            0   -267.51876   -933448.45   -933448.45   -933448.45   -933448.45 -4.9314207e-11 -4.7820488e-10 -3.6752723e-10    4.2186171    4.2186171    4.2186171    75.077593 
      90            0   -267.53206    -933264.4    -933264.4    -933264.4    -933264.4 -3.5350319e-11 -5.2199619e-10 -5.4306286e-10    4.2181915    4.2181915    4.2181915     75.05487 
      91            0   -267.54533   -933078.58   -933078.58   -933078.58   -933078.58 7.608747e-10 2.2759494e-10 2.4432458e-10    4.2177658    4.2177658    4.2177658    75.032151 
      92            0   -267.55862   -932892.49   -932892.49   -932892.49   -932892.49 -4.2182661e-10 -2.8390696e-10 4.4892236e-11    4.2173402    4.2173402    4.2173402    75.009437 
      93            0   -267.57186   -932704.52   -932704.52   -932704.52   -932704.52 2.6021538e-10 -2.7148206e-10 6.9704013e-10    4.2169145    4.2169145    4.2169145    74.986728 
      94            0   -267.58499   -932513.29   -932513.29   -932513.29   -932513.29 -7.2678864e-11 -1.3379566e-11 4.7553886e-10    4.2164889    4.2164889    4.2164889    74.964023 
      95            0   -267.59812    -932321.6    -932321.6    -932321.6    -932321.6 5.4119141e-11 -3.6593204e-10 -1.5570794e-09    4.2160632    4.2160632    4.2160632    74.941322 
      96            0   -267.61136   -932133.32   -932133.32   -932133.32   -932133.32 2.9008158e-10 1.226337e-10 -2.9854198e-10    4.2156376    4.2156376    4.2156376    74.918627 
      97            0   -267.62456   -931943.06   -931943.06   -931943.06   -931943.06 2.6638002e-10 -5.8144424e-10 -3.6776374e-10    4.2152119    4.2152119    4.2152119    74.895936 
      98            0   -267.63778   -931752.69   -931752.69   -931752.69   -931752.69 -1.1694268e-10 1.1305041e-10 -1.7277231e-10    4.2147863    4.2147863    4.2147863    74.873249 
      99            0     -267.651   -931561.75   -931561.75   -931561.75   -931561.75 -5.4259493e-10 -6.8578704e-10 -1.5508169e-09    4.2143606    4.2143606    4.2143606    74.850567 
     100            0   -267.66419      -931370      -931370      -931370      -931370 -1.6052608e-10 -3.7977849e-10 3.780144e-10     4.213935     4.213935     4.213935     74.82789 
Loop time of 0.158383 on 1 procs for 100 steps with 8 atoms

49.2% CPU use with 1 MPI tasks x no OpenMP threads

Minimization stats:
  Stopping criterion = max iterations
  Energy initial, next-to-last, final = 
        -266.320115016     -267.650998527     -267.664190867
  Force two-norm initial, final = 79.0371 76.1028
  Force max component initial, final = 45.6321 43.938
  Final line search alpha, max atom move = 2.27501e-06 9.99592e-05
  Iterations, force evaluations = 100 100

MPI task timing breakdown:
Section |  min time  |  avg time  |  max time  |%varavg| %total
---------------------------------------------------------------
Pair    | 0.07093    | 0.07093    | 0.07093    |   0.0 | 44.78
Kspace  | 0.033482   | 0.033482   | 0.033482   |   0.0 | 21.14
Neigh   | 0          | 0          | 0          |   0.0 |  0.00
Comm    | 0.0012341  | 0.0012341  | 0.0012341  |   0.0 |  0.78
Output  | 0.0009625  | 0.0009625  | 0.0009625  |   0.0 |  0.61
Modify  | 0          | 0          | 0          |   0.0 |  0.00
Other   |            | 0.05177    |            |       | 32.69

Nlocal:    8 ave 8 max 8 min
Histogram: 1 0 0 0 0 0 0 0 0 0
Nghost:    2189 ave 2189 max 2189 min
Histogram: 1 0 0 0 0 0 0 0 0 0
Neighs:    2344 ave 2344 max 2344 min
Histogram: 1 0 0 0 0 0 0 0 0 0

Total # of neighbors = 2344
Ave neighs/atom = 293
Neighbor list builds = 0
Dangerous builds = 0

variable tmp equal pxx
variable pxx0 equal ${tmp}
variable pxx0 equal -931370.00138442
variable tmp equal pyy
variable pyy0 equal ${tmp}
variable pyy0 equal -931370.00138442
variable tmp equal pzz
variable pzz0 equal ${tmp}
variable pzz0 equal -931370.001384419
variable tmp equal pyz
variable pyz0 equal ${tmp}
variable pyz0 equal 3.78014396835617e-10
variable tmp equal pxz
variable pxz0 equal ${tmp}
variable pxz0 equal -3.79778490577069e-10
variable tmp equal pxy
variable pxy0 equal ${tmp}
variable pxy0 equal -1.60526075758573e-10

variable tmp equal lx
variable lx0 equal ${tmp}
variable lx0 equal 4.21393499999998
variable tmp equal ly
variable ly0 equal ${tmp}
variable ly0 equal 4.21393499999998
variable tmp equal lz
variable lz0 equal ${tmp}
variable lz0 equal 4.21393499999998

 # ---- define the derivatives w.r.t. strain components
variable d1 equal -(v_pxx1-${pxx0})/(v_delta/v_len0)*${cfac}
variable d1 equal -(v_pxx1--931370.00138442)/(v_delta/v_len0)*${cfac}
variable d1 equal -(v_pxx1--931370.00138442)/(v_delta/v_len0)*0.0001
variable d2 equal -(v_pyy1-${pyy0})/(v_delta/v_len0)*${cfac}
variable d2 equal -(v_pyy1--931370.00138442)/(v_delta/v_len0)*${cfac}
variable d2 equal -(v_pyy1--931370.00138442)/(v_delta/v_len0)*0.0001
variable d3 equal -(v_pzz1-${pzz0})/(v_delta/v_len0)*${cfac}
variable d3 equal -(v_pzz1--931370.001384419)/(v_delta/v_len0)*${cfac}
variable d3 equal -(v_pzz1--931370.001384419)/(v_delta/v_len0)*0.0001
variable d4 equal -(v_pyz1-${pyz0})/(v_delta/v_len0)*${cfac}
variable d4 equal -(v_pyz1-3.78014396835617e-10)/(v_delta/v_len0)*${cfac}
variable d4 equal -(v_pyz1-3.78014396835617e-10)/(v_delta/v_len0)*0.0001
variable d5 equal -(v_pxz1-${pxz0})/(v_delta/v_len0)*${cfac}
variable d5 equal -(v_pxz1--3.79778490577069e-10)/(v_delta/v_len0)*${cfac}
variable d5 equal -(v_pxz1--3.79778490577069e-10)/(v_delta/v_len0)*0.0001
variable d6 equal -(v_pxy1-${pxy0})/(v_delta/v_len0)*${cfac}
variable d6 equal -(v_pxy1--1.60526075758573e-10)/(v_delta/v_len0)*${cfac}
variable d6 equal -(v_pxy1--1.60526075758573e-10)/(v_delta/v_len0)*0.0001

# ---- write restart files
unfix 3
write_restart restart.equil
PPPM initialization ...
  using 12-bit tables for long-range coulomb (../kspace.cpp:321)
  G vector (1/distance) = 0.36205
  grid = 9 9 9
  stencil order = 5
  estimated absolute RMS force accuracy = 4.99595e-05
  estimated relative force accuracy = 3.4695e-06
  using double precision FFTs
  3d grid and FFT values/proc = 4096 729
# ---- uxx Perturbation
variable dir equal 1
include displace.mod
# NOTE: This script should not need to be
# modified. See in.elastic for more info.
# Find which reference length to use

if "${dir} == 1" then    "variable len0 equal ${lx0}"
variable len0 equal ${lx0}
variable len0 equal 4.21393499999998
if "${dir} == 2" then    "variable len0 equal ${ly0}"
if "${dir} == 3" then    "variable len0 equal ${lz0}"
if "${dir} == 4" then    "variable len0 equal ${lz0}"
if "${dir} == 5" then    "variable len0 equal ${lz0}"
if "${dir} == 6" then    "variable len0 equal ${ly0}"

# Reset box and simulation parameters

clear
read_restart restart.equil remap
  triclinic box = (0.0212825 0.0212825 0.0212825) to (4.23522 4.23522 4.23522) with tilt (0 0 0)
  1 by 1 by 1 MPI processor grid
  8 atoms
include potential.mod
mass 1 24.305
mass 2 15.999

group Mg type 1
4 atoms in group Mg
group O type 2
4 atoms in group O

set group Mg charge 2.467095066210368
  4 settings made for charge
set group O charge -2.467095066210368
  4 settings made for charge

variable R_cut equal 10.0

pair_style buck/coul/long ${R_cut}
pair_style buck/coul/long 10
pair_coeff 1 1 0.0 0.5 0.0 ${R_cut}
pair_coeff 1 1 0.0 0.5 0.0 10
pair_coeff 1 2 935.4807786808233 0.3084619384680258 0.0 ${R_cut}
pair_coeff 1 2 935.4807786808233 0.3084619384680258 0.0 10
pair_coeff 2 2 12266.368986574063 0.11126335340408924 33.77611037763418 ${R_cut}
pair_coeff 2 2 12266.368986574063 0.11126335340408924 33.77611037763418 10

kspace_style pppm 1.0e-5

neighbor 1.0 bin
neigh_modify every 1 delay 0 check yes
thermo	1
thermo_style custom step temp pe press pxx pyy pzz pxy pxz pyz lx ly lz vol
thermo_modify norm no

# Negative deformation

variable delta equal -${up}*${len0}
variable delta equal -1e-06*${len0}
variable delta equal -1e-06*4.21393499999998
if "${dir} == 1" then    "change_box all x delta 0 ${delta} remap units box"
change_box all x delta 0 ${delta} remap units box
change_box all x delta 0 -4.21393499999998e-06 remap units box
  triclinic box = (0.0212825 0.0212825 0.0212825) to (4.23521 4.23522 4.23522) with tilt (0 0 0)
if "${dir} == 2" then    "change_box all y delta 0 ${delta} remap units box"
if "${dir} == 3" then    "change_box all z delta 0 ${delta} remap units box"
if "${dir} == 4" then    "change_box all yz delta ${delta} remap units box"
if "${dir} == 5" then    "change_box all xz delta ${delta} remap units box"
if "${dir} == 6" then    "change_box all xy delta ${delta} remap units box"

# Relax atoms positions

minimize ${etol} ${ftol} ${maxiter} ${maxeval}
minimize 0 ${ftol} ${maxiter} ${maxeval}
minimize 0 1e-10 ${maxiter} ${maxeval}
minimize 0 1e-10 100 ${maxeval}
minimize 0 1e-10 100 1000
PPPM initialization ...
  using 12-bit tables for long-range coulomb (../kspace.cpp:321)
  G vector (1/distance) = 0.36205
  grid = 9 9 9
  stencil order = 5
  estimated absolute RMS force accuracy = 4.99595e-05
  estimated relative force accuracy = 3.46949e-06
  using double precision FFTs
  3d grid and FFT values/proc = 4096 729
Neighbor list info ...
  update every 1 steps, delay 0 steps, check yes
  max neighbors/atom: 2000, page size: 100000
  master list distance cutoff = 11
  ghost atom cutoff = 11
  binsize = 5.5, bins = 1 1 1
  1 neighbor lists, perpetual/occasional/extra = 1 0 0
  (1) pair buck/coul/long, perpetual
      attributes: half, newton on
      pair build: half/bin/newton/tri
      stencil: half/bin/3d/newton/tri
      bin: standard
Per MPI rank memory allocation (min/avg/max) = 4.682 | 4.682 | 4.682 Mbytes
Step Temp PotEng Press Pxx Pyy Pzz Pxy Pxz Pyz Lx Ly Lz Volume 
     100            0   -267.66424   -931368.88   -931370.76   -931367.94   -931367.94 -8.9274759e-10 -1.1778235e-10 5.3570003e-10    4.2139308     4.213935     4.213935    74.827815 
     101            0   -267.66424   -931368.96   -931370.82   -931368.03   -931368.03 8.2098303e-11 6.5427255e-10 4.772381e-10    4.2139308     4.213935     4.213935    74.827815 
     102            0   -267.66424   -931368.96   -931370.82   -931368.03   -931368.03 8.2098303e-11 6.5427255e-10 4.772381e-10    4.2139308     4.213935     4.213935    74.827815 
Loop time of 0.00594997 on 1 procs for 2 steps with 8 atoms

100.8% CPU use with 1 MPI tasks x no OpenMP threads

Minimization stats:
  Stopping criterion = linesearch alpha is zero
  Energy initial, next-to-last, final = 
        -267.664235308     -267.664238355     -267.664238355
  Force two-norm initial, final = 0.00099145 0.00111927
  Force max component initial, final = 0.000221267 0.00022905
  Final line search alpha, max atom move = 0.0078125 1.78946e-06
  Iterations, force evaluations = 2 15

MPI task timing breakdown:
Section |  min time  |  avg time  |  max time  |%varavg| %total
---------------------------------------------------------------
Pair    | 0.0027921  | 0.0027921  | 0.0027921  |   0.0 | 46.93
Kspace  | 0.0028906  | 0.0028906  | 0.0028906  |   0.0 | 48.58
Neigh   | 0          | 0          | 0          |   0.0 |  0.00
Comm    | 0.00020456 | 0.00020456 | 0.00020456 |   0.0 |  3.44
Output  | 1.1921e-05 | 1.1921e-05 | 1.1921e-05 |   0.0 |  0.20
Modify  | 0          | 0          | 0          |   0.0 |  0.00
Other   |            | 5.078e-05  |            |       |  0.85

Nlocal:    8 ave 8 max 8 min
Histogram: 1 0 0 0 0 0 0 0 0 0
Nghost:    2189 ave 2189 max 2189 min
Histogram: 1 0 0 0 0 0 0 0 0 0
Neighs:    2472 ave 2472 max 2472 min
Histogram: 1 0 0 0 0 0 0 0 0 0

Total # of neighbors = 2472
Ave neighs/atom = 309
Neighbor list builds = 0
Dangerous builds = 0

# Obtain new stress tensor

variable tmp equal pxx
variable pxx1 equal ${tmp}
variable pxx1 equal -931370.82278848
variable tmp equal pyy
variable pyy1 equal ${tmp}
variable pyy1 equal -931368.027328441
variable tmp equal pzz
variable pzz1 equal ${tmp}
variable pzz1 equal -931368.027328441
variable tmp equal pxy
variable pxy1 equal ${tmp}
variable pxy1 equal 8.20983034366577e-11
variable tmp equal pxz
variable pxz1 equal ${tmp}
variable pxz1 equal 6.54272554263079e-10
variable tmp equal pyz
variable pyz1 equal ${tmp}
variable pyz1 equal 4.77238096169623e-10

# Compute elastic constant from pressure tensor

variable C1neg equal ${d1}
variable C1neg equal -82.1404059999622
variable C2neg equal ${d2}
variable C2neg equal 197.405597893521
variable C3neg equal ${d3}
variable C3neg equal 197.405597800389
variable C4neg equal ${d4}
variable C4neg equal 9.92236993340061e-09
variable C5neg equal ${d5}
variable C5neg equal 1.03405104484015e-07
variable C6neg equal ${d6}
variable C6neg equal 2.42624379195231e-08

# Reset box and simulation parameters

clear
read_restart restart.equil remap
  triclinic box = (0.0212825 0.0212825 0.0212825) to (4.23522 4.23522 4.23522) with tilt (0 0 0)
  1 by 1 by 1 MPI processor grid
  8 atoms
include potential.mod
mass 1 24.305
mass 2 15.999

group Mg type 1
4 atoms in group Mg
group O type 2
4 atoms in group O

set group Mg charge 2.467095066210368
  4 settings made for charge
set group O charge -2.467095066210368
  4 settings made for charge

variable R_cut equal 10.0

pair_style buck/coul/long ${R_cut}
pair_style buck/coul/long 10
pair_coeff 1 1 0.0 0.5 0.0 ${R_cut}
pair_coeff 1 1 0.0 0.5 0.0 10
pair_coeff 1 2 935.4807786808233 0.3084619384680258 0.0 ${R_cut}
pair_coeff 1 2 935.4807786808233 0.3084619384680258 0.0 10
pair_coeff 2 2 12266.368986574063 0.11126335340408924 33.77611037763418 ${R_cut}
pair_coeff 2 2 12266.368986574063 0.11126335340408924 33.77611037763418 10

kspace_style pppm 1.0e-5

neighbor 1.0 bin
neigh_modify every 1 delay 0 check yes
thermo	1
thermo_style custom step temp pe press pxx pyy pzz pxy pxz pyz lx ly lz vol
thermo_modify norm no

# Positive deformation

variable delta equal ${up}*${len0}
variable delta equal 1e-06*${len0}
variable delta equal 1e-06*4.21393499999998
if "${dir} == 1" then    "change_box all x delta 0 ${delta} remap units box"
change_box all x delta 0 ${delta} remap units box
change_box all x delta 0 4.21393499999998e-06 remap units box
  triclinic box = (0.0212825 0.0212825 0.0212825) to (4.23522 4.23522 4.23522) with tilt (0 0 0)
if "${dir} == 2" then    "change_box all y delta 0 ${delta} remap units box"
if "${dir} == 3" then    "change_box all z delta 0 ${delta} remap units box"
if "${dir} == 4" then    "change_box all yz delta ${delta} remap units box"
if "${dir} == 5" then    "change_box all xz delta ${delta} remap units box"
if "${dir} == 6" then    "change_box all xy delta ${delta} remap units box"

# Relax atoms positions

minimize ${etol} ${ftol} ${maxiter} ${maxeval}
minimize 0 ${ftol} ${maxiter} ${maxeval}
minimize 0 1e-10 ${maxiter} ${maxeval}
minimize 0 1e-10 100 ${maxeval}
minimize 0 1e-10 100 1000
PPPM initialization ...
  using 12-bit tables for long-range coulomb (../kspace.cpp:321)
  G vector (1/distance) = 0.359644
  grid = 8 9 9
  stencil order = 5
  estimated absolute RMS force accuracy = 6.07106e-05
  estimated relative force accuracy = 4.21612e-06
  using double precision FFTs
  3d grid and FFT values/proc = 3840 648
Neighbor list info ...
  update every 1 steps, delay 0 steps, check yes
  max neighbors/atom: 2000, page size: 100000
  master list distance cutoff = 11
  ghost atom cutoff = 11
  binsize = 5.5, bins = 1 1 1
  1 neighbor lists, perpetual/occasional/extra = 1 0 0
  (1) pair buck/coul/long, perpetual
      attributes: half, newton on
      pair build: half/bin/newton/tri
      stencil: half/bin/3d/newton/tri
      bin: standard
Per MPI rank memory allocation (min/avg/max) = 4.662 | 4.662 | 4.662 Mbytes
Step Temp PotEng Press Pxx Pyy Pzz Pxy Pxz Pyz Lx Ly Lz Volume 
     100            0   -267.66416   -931373.98   -931372.34   -931374.81   -931374.81 -4.8900078e-10 -2.4953504e-10 -6.1575048e-10    4.2139392     4.213935     4.213935    74.827964 
     101            0   -267.66417   -931373.96   -931372.36   -931374.77   -931374.77 -7.6923453e-11 1.2908902e-10 -1.8073094e-10    4.2139392     4.213935     4.213935    74.827964 
     102            0   -267.66417   -931373.96   -931372.36   -931374.77   -931374.77 -7.6923453e-11 1.2908902e-10 -1.8073094e-10    4.2139392     4.213935     4.213935    74.827964 
Loop time of 0.00562 on 1 procs for 2 steps with 8 atoms

89.0% CPU use with 1 MPI tasks x no OpenMP threads

Minimization stats:
  Stopping criterion = linesearch alpha is zero
  Energy initial, next-to-last, final = 
        -267.664164958     -267.664168082     -267.664168082
  Force two-norm initial, final = 0.000991032 0.00152523
  Force max component initial, final = 0.000221491 0.00037029
  Final line search alpha, max atom move = 0.00195312 7.23222e-07
  Iterations, force evaluations = 2 15

MPI task timing breakdown:
Section |  min time  |  avg time  |  max time  |%varavg| %total
---------------------------------------------------------------
Pair    | 0.0026586  | 0.0026586  | 0.0026586  |   0.0 | 47.31
Kspace  | 0.0026932  | 0.0026932  | 0.0026932  |   0.0 | 47.92
Neigh   | 0          | 0          | 0          |   0.0 |  0.00
Comm    | 0.00019741 | 0.00019741 | 0.00019741 |   0.0 |  3.51
Output  | 1.0967e-05 | 1.0967e-05 | 1.0967e-05 |   0.0 |  0.20
Modify  | 0          | 0          | 0          |   0.0 |  0.00
Other   |            | 5.984e-05  |            |       |  1.06

Nlocal:    8 ave 8 max 8 min
Histogram: 1 0 0 0 0 0 0 0 0 0
Nghost:    2189 ave 2189 max 2189 min
Histogram: 1 0 0 0 0 0 0 0 0 0
Neighs:    2472 ave 2472 max 2472 min
Histogram: 1 0 0 0 0 0 0 0 0 0

Total # of neighbors = 2472
Ave neighs/atom = 309
Neighbor list builds = 0
Dangerous builds = 0

# Obtain new stress tensor

variable tmp equal pe
variable e1 equal ${tmp}
variable e1 equal -267.664168081775
variable tmp equal press
variable p1 equal ${tmp}
variable p1 equal -931373.96407277
variable tmp equal pxx
variable pxx1 equal ${tmp}
variable pxx1 equal -931372.357722324
variable tmp equal pyy
variable pyy1 equal ${tmp}
variable pyy1 equal -931374.767247993
variable tmp equal pzz
variable pzz1 equal ${tmp}
variable pzz1 equal -931374.767247992
variable tmp equal pxy
variable pxy1 equal ${tmp}
variable pxy1 equal -7.69234525846478e-11
variable tmp equal pxz
variable pxz1 equal ${tmp}
variable pxz1 equal 1.2908901800331e-10
variable tmp equal pyz
variable pyz1 equal ${tmp}
variable pyz1 equal -1.80730943076295e-10

# Compute elastic constant from pressure tensor

variable C1pos equal ${d1}
variable C1pos equal 235.633790399879
variable C2pos equal ${d2}
variable C2pos equal 476.586357306223
variable C3pos equal ${d3}
variable C3pos equal 476.586357294582
variable C4pos equal ${d4}
variable C4pos equal 5.58745339911912e-08
variable C5pos equal ${d5}
variable C5pos equal -5.08867508580379e-08
variable C6pos equal ${d6}
variable C6pos equal -8.36026231739252e-09

# Combine positive and negative

variable C1${dir} equal 0.5*(${C1neg}+${C1pos})
variable C11 equal 0.5*(${C1neg}+${C1pos})
variable C11 equal 0.5*(-82.1404059999622+${C1pos})
variable C11 equal 0.5*(-82.1404059999622+235.633790399879)
variable C2${dir} equal 0.5*(${C2neg}+${C2pos})
variable C21 equal 0.5*(${C2neg}+${C2pos})
variable C21 equal 0.5*(197.405597893521+${C2pos})
variable C21 equal 0.5*(197.405597893521+476.586357306223)
variable C3${dir} equal 0.5*(${C3neg}+${C3pos})
variable C31 equal 0.5*(${C3neg}+${C3pos})
variable C31 equal 0.5*(197.405597800389+${C3pos})
variable C31 equal 0.5*(197.405597800389+476.586357294582)
variable C4${dir} equal 0.5*(${C4neg}+${C4pos})
variable C41 equal 0.5*(${C4neg}+${C4pos})
variable C41 equal 0.5*(9.92236993340061e-09+${C4pos})
variable C41 equal 0.5*(9.92236993340061e-09+5.58745339911912e-08)
variable C5${dir} equal 0.5*(${C5neg}+${C5pos})
variable C51 equal 0.5*(${C5neg}+${C5pos})
variable C51 equal 0.5*(1.03405104484015e-07+${C5pos})
variable C51 equal 0.5*(1.03405104484015e-07+-5.08867508580379e-08)
variable C6${dir} equal 0.5*(${C6neg}+${C6pos})
variable C61 equal 0.5*(${C6neg}+${C6pos})
variable C61 equal 0.5*(2.42624379195231e-08+${C6pos})
variable C61 equal 0.5*(2.42624379195231e-08+-8.36026231739252e-09)

# Delete dir to make sure it is not reused

variable dir delete
# ---- uyy Perturbation
variable dir equal 2
include displace.mod
# NOTE: This script should not need to be
# modified. See in.elastic for more info.
# Find which reference length to use

if "${dir} == 1" then    "variable len0 equal ${lx0}"
if "${dir} == 2" then    "variable len0 equal ${ly0}"
variable len0 equal ${ly0}
variable len0 equal 4.21393499999998
if "${dir} == 3" then    "variable len0 equal ${lz0}"
if "${dir} == 4" then    "variable len0 equal ${lz0}"
if "${dir} == 5" then    "variable len0 equal ${lz0}"
if "${dir} == 6" then    "variable len0 equal ${ly0}"

# Reset box and simulation parameters

clear
read_restart restart.equil remap
  triclinic box = (0.0212825 0.0212825 0.0212825) to (4.23522 4.23522 4.23522) with tilt (0 0 0)
  1 by 1 by 1 MPI processor grid
  8 atoms
include potential.mod
mass 1 24.305
mass 2 15.999

group Mg type 1
4 atoms in group Mg
group O type 2
4 atoms in group O

set group Mg charge 2.467095066210368
  4 settings made for charge
set group O charge -2.467095066210368
  4 settings made for charge

variable R_cut equal 10.0

pair_style buck/coul/long ${R_cut}
pair_style buck/coul/long 10
pair_coeff 1 1 0.0 0.5 0.0 ${R_cut}
pair_coeff 1 1 0.0 0.5 0.0 10
pair_coeff 1 2 935.4807786808233 0.3084619384680258 0.0 ${R_cut}
pair_coeff 1 2 935.4807786808233 0.3084619384680258 0.0 10
pair_coeff 2 2 12266.368986574063 0.11126335340408924 33.77611037763418 ${R_cut}
pair_coeff 2 2 12266.368986574063 0.11126335340408924 33.77611037763418 10

kspace_style pppm 1.0e-5

neighbor 1.0 bin
neigh_modify every 1 delay 0 check yes
thermo	1
thermo_style custom step temp pe press pxx pyy pzz pxy pxz pyz lx ly lz vol
thermo_modify norm no

# Negative deformation

variable delta equal -${up}*${len0}
variable delta equal -1e-06*${len0}
variable delta equal -1e-06*4.21393499999998
if "${dir} == 1" then    "change_box all x delta 0 ${delta} remap units box"
if "${dir} == 2" then    "change_box all y delta 0 ${delta} remap units box"
change_box all y delta 0 ${delta} remap units box
change_box all y delta 0 -4.21393499999998e-06 remap units box
  triclinic box = (0.0212825 0.0212825 0.0212825) to (4.23522 4.23521 4.23522) with tilt (0 0 0)
if "${dir} == 3" then    "change_box all z delta 0 ${delta} remap units box"
if "${dir} == 4" then    "change_box all yz delta ${delta} remap units box"
if "${dir} == 5" then    "change_box all xz delta ${delta} remap units box"
if "${dir} == 6" then    "change_box all xy delta ${delta} remap units box"

# Relax atoms positions

minimize ${etol} ${ftol} ${maxiter} ${maxeval}
minimize 0 ${ftol} ${maxiter} ${maxeval}
minimize 0 1e-10 ${maxiter} ${maxeval}
minimize 0 1e-10 100 ${maxeval}
minimize 0 1e-10 100 1000
PPPM initialization ...
  using 12-bit tables for long-range coulomb (../kspace.cpp:321)
  G vector (1/distance) = 0.36205
  grid = 9 9 9
  stencil order = 5
  estimated absolute RMS force accuracy = 4.99595e-05
  estimated relative force accuracy = 3.46949e-06
  using double precision FFTs
  3d grid and FFT values/proc = 4096 729
Neighbor list info ...
  update every 1 steps, delay 0 steps, check yes
  max neighbors/atom: 2000, page size: 100000
  master list distance cutoff = 11
  ghost atom cutoff = 11
  binsize = 5.5, bins = 1 1 1
  1 neighbor lists, perpetual/occasional/extra = 1 0 0
  (1) pair buck/coul/long, perpetual
      attributes: half, newton on
      pair build: half/bin/newton/tri
      stencil: half/bin/3d/newton/tri
      bin: standard
Per MPI rank memory allocation (min/avg/max) = 4.682 | 4.682 | 4.682 Mbytes
Step Temp PotEng Press Pxx Pyy Pzz Pxy Pxz Pyz Lx Ly Lz Volume 
     100            0   -267.66424   -931368.88   -931367.94   -931370.76   -931367.94 -1.1963206e-10 -4.9154395e-10 -9.503561e-11     4.213935    4.2139308     4.213935    74.827815 
     101            0   -267.66424   -931368.96   -931368.03   -931370.82   -931368.03 1.3946274e-10 2.8450064e-10 2.0519065e-10     4.213935    4.2139308     4.213935    74.827815 
     102            0   -267.66424   -931368.96   -931368.03   -931370.82   -931368.03 1.3946274e-10 2.8450064e-10 2.0519065e-10     4.213935    4.2139308     4.213935    74.827815 
Loop time of 0.00593114 on 1 procs for 2 steps with 8 atoms

84.3% CPU use with 1 MPI tasks x no OpenMP threads

Minimization stats:
  Stopping criterion = linesearch alpha is zero
  Energy initial, next-to-last, final = 
        -267.664235308     -267.664238355     -267.664238355
  Force two-norm initial, final = 0.00099145 0.00111927
  Force max component initial, final = 0.000221267 0.00022905
  Final line search alpha, max atom move = 0.0078125 1.78946e-06
  Iterations, force evaluations = 2 15

MPI task timing breakdown:
Section |  min time  |  avg time  |  max time  |%varavg| %total
---------------------------------------------------------------
Pair    | 0.0027287  | 0.0027287  | 0.0027287  |   0.0 | 46.01
Kspace  | 0.002934   | 0.002934   | 0.002934   |   0.0 | 49.47
Neigh   | 0          | 0          | 0          |   0.0 |  0.00
Comm    | 0.00020552 | 0.00020552 | 0.00020552 |   0.0 |  3.47
Output  | 1.0967e-05 | 1.0967e-05 | 1.0967e-05 |   0.0 |  0.18
Modify  | 0          | 0          | 0          |   0.0 |  0.00
Other   |            | 5.198e-05  |            |       |  0.88

Nlocal:    8 ave 8 max 8 min
Histogram: 1 0 0 0 0 0 0 0 0 0
Nghost:    2189 ave 2189 max 2189 min
Histogram: 1 0 0 0 0 0 0 0 0 0
Neighs:    2472 ave 2472 max 2472 min
Histogram: 1 0 0 0 0 0 0 0 0 0

Total # of neighbors = 2472
Ave neighs/atom = 309
Neighbor list builds = 0
Dangerous builds = 0

# Obtain new stress tensor

variable tmp equal pxx
variable pxx1 equal ${tmp}
variable pxx1 equal -931368.027328443
variable tmp equal pyy
variable pyy1 equal ${tmp}
variable pyy1 equal -931370.822788479
variable tmp equal pzz
variable pzz1 equal ${tmp}
variable pzz1 equal -931368.027328442
variable tmp equal pxy
variable pxy1 equal ${tmp}
variable pxy1 equal 1.39462736714687e-10
variable tmp equal pxz
variable pxz1 equal ${tmp}
variable pxz1 equal 2.84500638866343e-10
variable tmp equal pyz
variable pyz1 equal ${tmp}
variable pyz1 equal 2.05190651250864e-10

# Compute elastic constant from pressure tensor

variable C1neg equal ${d1}
variable C1neg equal 197.405597695615
variable C2neg equal ${d2}
variable C2neg equal -82.14040590683
variable C3neg equal ${d3}
variable C3neg equal 197.405597707257
variable C4neg equal ${d4}
variable C4neg equal -1.72823745584753e-08
variable C5neg equal ${d5}
variable C5neg equal 6.64279129443412e-08
variable C6neg equal ${d6}
variable C6neg equal 2.9998881247326e-08

# Reset box and simulation parameters

clear
read_restart restart.equil remap
  triclinic box = (0.0212825 0.0212825 0.0212825) to (4.23522 4.23522 4.23522) with tilt (0 0 0)
  1 by 1 by 1 MPI processor grid
  8 atoms
include potential.mod
mass 1 24.305
mass 2 15.999

group Mg type 1
4 atoms in group Mg
group O type 2
4 atoms in group O

set group Mg charge 2.467095066210368
  4 settings made for charge
set group O charge -2.467095066210368
  4 settings made for charge

variable R_cut equal 10.0

pair_style buck/coul/long ${R_cut}
pair_style buck/coul/long 10
pair_coeff 1 1 0.0 0.5 0.0 ${R_cut}
pair_coeff 1 1 0.0 0.5 0.0 10
pair_coeff 1 2 935.4807786808233 0.3084619384680258 0.0 ${R_cut}
pair_coeff 1 2 935.4807786808233 0.3084619384680258 0.0 10
pair_coeff 2 2 12266.368986574063 0.11126335340408924 33.77611037763418 ${R_cut}
pair_coeff 2 2 12266.368986574063 0.11126335340408924 33.77611037763418 10

kspace_style pppm 1.0e-5

neighbor 1.0 bin
neigh_modify every 1 delay 0 check yes
thermo	1
thermo_style custom step temp pe press pxx pyy pzz pxy pxz pyz lx ly lz vol
thermo_modify norm no

# Positive deformation

variable delta equal ${up}*${len0}
variable delta equal 1e-06*${len0}
variable delta equal 1e-06*4.21393499999998
if "${dir} == 1" then    "change_box all x delta 0 ${delta} remap units box"
if "${dir} == 2" then    "change_box all y delta 0 ${delta} remap units box"
change_box all y delta 0 ${delta} remap units box
change_box all y delta 0 4.21393499999998e-06 remap units box
  triclinic box = (0.0212825 0.0212825 0.0212825) to (4.23522 4.23522 4.23522) with tilt (0 0 0)
if "${dir} == 3" then    "change_box all z delta 0 ${delta} remap units box"
if "${dir} == 4" then    "change_box all yz delta ${delta} remap units box"
if "${dir} == 5" then    "change_box all xz delta ${delta} remap units box"
if "${dir} == 6" then    "change_box all xy delta ${delta} remap units box"

# Relax atoms positions

minimize ${etol} ${ftol} ${maxiter} ${maxeval}
minimize 0 ${ftol} ${maxiter} ${maxeval}
minimize 0 1e-10 ${maxiter} ${maxeval}
minimize 0 1e-10 100 ${maxeval}
minimize 0 1e-10 100 1000
PPPM initialization ...
  using 12-bit tables for long-range coulomb (../kspace.cpp:321)
  G vector (1/distance) = 0.359644
  grid = 9 8 9
  stencil order = 5
  estimated absolute RMS force accuracy = 6.07106e-05
  estimated relative force accuracy = 4.21612e-06
  using double precision FFTs
  3d grid and FFT values/proc = 3840 648
Neighbor list info ...
  update every 1 steps, delay 0 steps, check yes
  max neighbors/atom: 2000, page size: 100000
  master list distance cutoff = 11
  ghost atom cutoff = 11
  binsize = 5.5, bins = 1 1 1
  1 neighbor lists, perpetual/occasional/extra = 1 0 0
  (1) pair buck/coul/long, perpetual
      attributes: half, newton on
      pair build: half/bin/newton/tri
      stencil: half/bin/3d/newton/tri
      bin: standard
Per MPI rank memory allocation (min/avg/max) = 4.662 | 4.662 | 4.662 Mbytes
Step Temp PotEng Press Pxx Pyy Pzz Pxy Pxz Pyz Lx Ly Lz Volume 
     100            0   -267.66416   -931373.98   -931374.81   -931372.34   -931374.81 -5.7925385e-10 -3.8212267e-10 -6.1741354e-10     4.213935    4.2139392     4.213935    74.827964 
     101            0   -267.66417   -931373.96   -931374.77   -931372.36   -931374.77 -4.8945923e-10 1.0498803e-10 1.7037268e-10     4.213935    4.2139392     4.213935    74.827964 
     102            0   -267.66417   -931373.96   -931374.77   -931372.36   -931374.77 -4.8945923e-10 1.0498803e-10 1.7037268e-10     4.213935    4.2139392     4.213935    74.827964 
Loop time of 0.00564885 on 1 procs for 2 steps with 8 atoms

106.2% CPU use with 1 MPI tasks x no OpenMP threads

Minimization stats:
  Stopping criterion = linesearch alpha is zero
  Energy initial, next-to-last, final = 
        -267.664164958     -267.664168082     -267.664168082
  Force two-norm initial, final = 0.000991032 0.00152523
  Force max component initial, final = 0.000221491 0.00037029
  Final line search alpha, max atom move = 0.00195312 7.23222e-07
  Iterations, force evaluations = 2 15

MPI task timing breakdown:
Section |  min time  |  avg time  |  max time  |%varavg| %total
---------------------------------------------------------------
Pair    | 0.0026798  | 0.0026798  | 0.0026798  |   0.0 | 47.44
Kspace  | 0.0027049  | 0.0027049  | 0.0027049  |   0.0 | 47.88
Neigh   | 0          | 0          | 0          |   0.0 |  0.00
Comm    | 0.00019836 | 0.00019836 | 0.00019836 |   0.0 |  3.51
Output  | 1.0967e-05 | 1.0967e-05 | 1.0967e-05 |   0.0 |  0.19
Modify  | 0          | 0          | 0          |   0.0 |  0.00
Other   |            | 5.484e-05  |            |       |  0.97

Nlocal:    8 ave 8 max 8 min
Histogram: 1 0 0 0 0 0 0 0 0 0
Nghost:    2189 ave 2189 max 2189 min
Histogram: 1 0 0 0 0 0 0 0 0 0
Neighs:    2472 ave 2472 max 2472 min
Histogram: 1 0 0 0 0 0 0 0 0 0

Total # of neighbors = 2472
Ave neighs/atom = 309
Neighbor list builds = 0
Dangerous builds = 0

# Obtain new stress tensor

variable tmp equal pe
variable e1 equal ${tmp}
variable e1 equal -267.664168081775
variable tmp equal press
variable p1 equal ${tmp}
variable p1 equal -931373.96407277
variable tmp equal pxx
variable pxx1 equal ${tmp}
variable pxx1 equal -931374.767247992
variable tmp equal pyy
variable pyy1 equal ${tmp}
variable pyy1 equal -931372.357722325
variable tmp equal pzz
variable pzz1 equal ${tmp}
variable pzz1 equal -931374.767247993
variable tmp equal pxy
variable pxy1 equal ${tmp}
variable pxy1 equal -4.89459227617773e-10
variable tmp equal pxz
variable pxz1 equal ${tmp}
variable pxz1 equal 1.04988027470152e-10
variable tmp equal pyz
variable pyz1 equal ${tmp}
variable pyz1 equal 1.70372681749109e-10

# Compute elastic constant from pressure tensor

variable C1pos equal ${d1}
variable C1pos equal 476.58635720145
variable C2pos equal ${d2}
variable C2pos equal 235.633790504653
variable C3pos equal ${d3}
variable C3pos equal 476.586357399356
variable C4pos equal ${d4}
variable C4pos equal 2.07641715086508e-08
variable C5pos equal ${d5}
variable C5pos equal -4.84766518047221e-08
variable C6pos equal ${d6}
variable C6pos equal 3.289331518592e-08

# Combine positive and negative

variable C1${dir} equal 0.5*(${C1neg}+${C1pos})
variable C12 equal 0.5*(${C1neg}+${C1pos})
variable C12 equal 0.5*(197.405597695615+${C1pos})
variable C12 equal 0.5*(197.405597695615+476.58635720145)
variable C2${dir} equal 0.5*(${C2neg}+${C2pos})
variable C22 equal 0.5*(${C2neg}+${C2pos})
variable C22 equal 0.5*(-82.14040590683+${C2pos})
variable C22 equal 0.5*(-82.14040590683+235.633790504653)
variable C3${dir} equal 0.5*(${C3neg}+${C3pos})
variable C32 equal 0.5*(${C3neg}+${C3pos})
variable C32 equal 0.5*(197.405597707257+${C3pos})
variable C32 equal 0.5*(197.405597707257+476.586357399356)
variable C4${dir} equal 0.5*(${C4neg}+${C4pos})
variable C42 equal 0.5*(${C4neg}+${C4pos})
variable C42 equal 0.5*(-1.72823745584753e-08+${C4pos})
variable C42 equal 0.5*(-1.72823745584753e-08+2.07641715086508e-08)
variable C5${dir} equal 0.5*(${C5neg}+${C5pos})
variable C52 equal 0.5*(${C5neg}+${C5pos})
variable C52 equal 0.5*(6.64279129443412e-08+${C5pos})
variable C52 equal 0.5*(6.64279129443412e-08+-4.84766518047221e-08)
variable C6${dir} equal 0.5*(${C6neg}+${C6pos})
variable C62 equal 0.5*(${C6neg}+${C6pos})
variable C62 equal 0.5*(2.9998881247326e-08+${C6pos})
variable C62 equal 0.5*(2.9998881247326e-08+3.289331518592e-08)

# Delete dir to make sure it is not reused

variable dir delete
# ---- uzz Perturbation
variable dir equal 3
include displace.mod
# NOTE: This script should not need to be
# modified. See in.elastic for more info.
# Find which reference length to use

if "${dir} == 1" then    "variable len0 equal ${lx0}"
if "${dir} == 2" then    "variable len0 equal ${ly0}"
if "${dir} == 3" then    "variable len0 equal ${lz0}"
variable len0 equal ${lz0}
variable len0 equal 4.21393499999998
if "${dir} == 4" then    "variable len0 equal ${lz0}"
if "${dir} == 5" then    "variable len0 equal ${lz0}"
if "${dir} == 6" then    "variable len0 equal ${ly0}"

# Reset box and simulation parameters

clear
read_restart restart.equil remap
  triclinic box = (0.0212825 0.0212825 0.0212825) to (4.23522 4.23522 4.23522) with tilt (0 0 0)
  1 by 1 by 1 MPI processor grid
  8 atoms
include potential.mod
mass 1 24.305
mass 2 15.999

group Mg type 1
4 atoms in group Mg
group O type 2
4 atoms in group O

set group Mg charge 2.467095066210368
  4 settings made for charge
set group O charge -2.467095066210368
  4 settings made for charge

variable R_cut equal 10.0

pair_style buck/coul/long ${R_cut}
pair_style buck/coul/long 10
pair_coeff 1 1 0.0 0.5 0.0 ${R_cut}
pair_coeff 1 1 0.0 0.5 0.0 10
pair_coeff 1 2 935.4807786808233 0.3084619384680258 0.0 ${R_cut}
pair_coeff 1 2 935.4807786808233 0.3084619384680258 0.0 10
pair_coeff 2 2 12266.368986574063 0.11126335340408924 33.77611037763418 ${R_cut}
pair_coeff 2 2 12266.368986574063 0.11126335340408924 33.77611037763418 10

kspace_style pppm 1.0e-5

neighbor 1.0 bin
neigh_modify every 1 delay 0 check yes
thermo	1
thermo_style custom step temp pe press pxx pyy pzz pxy pxz pyz lx ly lz vol
thermo_modify norm no

# Negative deformation

variable delta equal -${up}*${len0}
variable delta equal -1e-06*${len0}
variable delta equal -1e-06*4.21393499999998
if "${dir} == 1" then    "change_box all x delta 0 ${delta} remap units box"
if "${dir} == 2" then    "change_box all y delta 0 ${delta} remap units box"
if "${dir} == 3" then    "change_box all z delta 0 ${delta} remap units box"
change_box all z delta 0 ${delta} remap units box
change_box all z delta 0 -4.21393499999998e-06 remap units box
  triclinic box = (0.0212825 0.0212825 0.0212825) to (4.23522 4.23522 4.23521) with tilt (0 0 0)
if "${dir} == 4" then    "change_box all yz delta ${delta} remap units box"
if "${dir} == 5" then    "change_box all xz delta ${delta} remap units box"
if "${dir} == 6" then    "change_box all xy delta ${delta} remap units box"

# Relax atoms positions

minimize ${etol} ${ftol} ${maxiter} ${maxeval}
minimize 0 ${ftol} ${maxiter} ${maxeval}
minimize 0 1e-10 ${maxiter} ${maxeval}
minimize 0 1e-10 100 ${maxeval}
minimize 0 1e-10 100 1000
PPPM initialization ...
  using 12-bit tables for long-range coulomb (../kspace.cpp:321)
  G vector (1/distance) = 0.36205
  grid = 9 9 9
  stencil order = 5
  estimated absolute RMS force accuracy = 4.99595e-05
  estimated relative force accuracy = 3.46949e-06
  using double precision FFTs
  3d grid and FFT values/proc = 4096 729
Neighbor list info ...
  update every 1 steps, delay 0 steps, check yes
  max neighbors/atom: 2000, page size: 100000
  master list distance cutoff = 11
  ghost atom cutoff = 11
  binsize = 5.5, bins = 1 1 1
  1 neighbor lists, perpetual/occasional/extra = 1 0 0
  (1) pair buck/coul/long, perpetual
      attributes: half, newton on
      pair build: half/bin/newton/tri
      stencil: half/bin/3d/newton/tri
      bin: standard
Per MPI rank memory allocation (min/avg/max) = 4.682 | 4.682 | 4.682 Mbytes
Step Temp PotEng Press Pxx Pyy Pzz Pxy Pxz Pyz Lx Ly Lz Volume 
     100            0   -267.66424   -931368.88   -931367.94   -931367.94   -931370.76 -1.4701403e-10 1.4192064e-10 -8.3847189e-11     4.213935     4.213935    4.2139308    74.827815 
     101            0   -267.66424   -931368.96   -931368.03   -931368.03   -931370.82 3.9381644e-10 -4.8423533e-11 -3.7065196e-10     4.213935     4.213935    4.2139308    74.827815 
     102            0   -267.66424   -931368.96   -931368.03   -931368.03   -931370.82 3.9381644e-10 -4.8423533e-11 -3.7065196e-10     4.213935     4.213935    4.2139308    74.827815 
Loop time of 0.00592017 on 1 procs for 2 steps with 8 atoms

101.3% CPU use with 1 MPI tasks x no OpenMP threads

Minimization stats:
  Stopping criterion = linesearch alpha is zero
  Energy initial, next-to-last, final = 
        -267.664235308     -267.664238355     -267.664238355
  Force two-norm initial, final = 0.00099145 0.00111927
  Force max component initial, final = 0.000221267 0.00022905
  Final line search alpha, max atom move = 0.0078125 1.78946e-06
  Iterations, force evaluations = 2 15

MPI task timing breakdown:
Section |  min time  |  avg time  |  max time  |%varavg| %total
---------------------------------------------------------------
Pair    | 0.0027707  | 0.0027707  | 0.0027707  |   0.0 | 46.80
Kspace  | 0.0028815  | 0.0028815  | 0.0028815  |   0.0 | 48.67
Neigh   | 0          | 0          | 0          |   0.0 |  0.00
Comm    | 0.00020289 | 0.00020289 | 0.00020289 |   0.0 |  3.43
Output  | 1.2159e-05 | 1.2159e-05 | 1.2159e-05 |   0.0 |  0.21
Modify  | 0          | 0          | 0          |   0.0 |  0.00
Other   |            | 5.293e-05  |            |       |  0.89

Nlocal:    8 ave 8 max 8 min
Histogram: 1 0 0 0 0 0 0 0 0 0
Nghost:    2189 ave 2189 max 2189 min
Histogram: 1 0 0 0 0 0 0 0 0 0
Neighs:    2472 ave 2472 max 2472 min
Histogram: 1 0 0 0 0 0 0 0 0 0

Total # of neighbors = 2472
Ave neighs/atom = 309
Neighbor list builds = 0
Dangerous builds = 0

# Obtain new stress tensor

variable tmp equal pxx
variable pxx1 equal ${tmp}
variable pxx1 equal -931368.027328442
variable tmp equal pyy
variable pyy1 equal ${tmp}
variable pyy1 equal -931368.027328441
variable tmp equal pzz
variable pzz1 equal ${tmp}
variable pzz1 equal -931370.822788478
variable tmp equal pxy
variable pxy1 equal ${tmp}
variable pxy1 equal 3.93816443134438e-10
variable tmp equal pxz
variable pxz1 equal ${tmp}
variable pxz1 equal -4.84235334458784e-11
variable tmp equal pyz
variable pyz1 equal ${tmp}
variable pyz1 equal -3.70651960748557e-10

# Compute elastic constant from pressure tensor

variable C1neg equal ${d1}
variable C1neg equal 197.405597800389
variable C2neg equal ${d2}
variable C2neg equal 197.405597893521
variable C3neg equal ${d3}
variable C3neg equal -82.1404058951885
variable C4neg equal ${d4}
variable C4neg equal -7.48666357584174e-08
variable C5neg equal ${d5}
variable C5neg equal 3.31354957131191e-08
variable C6neg equal ${d6}
variable C6neg equal 5.54342518893011e-08

# Reset box and simulation parameters

clear
read_restart restart.equil remap
  triclinic box = (0.0212825 0.0212825 0.0212825) to (4.23522 4.23522 4.23522) with tilt (0 0 0)
  1 by 1 by 1 MPI processor grid
  8 atoms
include potential.mod
mass 1 24.305
mass 2 15.999

group Mg type 1
4 atoms in group Mg
group O type 2
4 atoms in group O

set group Mg charge 2.467095066210368
  4 settings made for charge
set group O charge -2.467095066210368
  4 settings made for charge

variable R_cut equal 10.0

pair_style buck/coul/long ${R_cut}
pair_style buck/coul/long 10
pair_coeff 1 1 0.0 0.5 0.0 ${R_cut}
pair_coeff 1 1 0.0 0.5 0.0 10
pair_coeff 1 2 935.4807786808233 0.3084619384680258 0.0 ${R_cut}
pair_coeff 1 2 935.4807786808233 0.3084619384680258 0.0 10
pair_coeff 2 2 12266.368986574063 0.11126335340408924 33.77611037763418 ${R_cut}
pair_coeff 2 2 12266.368986574063 0.11126335340408924 33.77611037763418 10

kspace_style pppm 1.0e-5

neighbor 1.0 bin
neigh_modify every 1 delay 0 check yes
thermo	1
thermo_style custom step temp pe press pxx pyy pzz pxy pxz pyz lx ly lz vol
thermo_modify norm no

# Positive deformation

variable delta equal ${up}*${len0}
variable delta equal 1e-06*${len0}
variable delta equal 1e-06*4.21393499999998
if "${dir} == 1" then    "change_box all x delta 0 ${delta} remap units box"
if "${dir} == 2" then    "change_box all y delta 0 ${delta} remap units box"
if "${dir} == 3" then    "change_box all z delta 0 ${delta} remap units box"
change_box all z delta 0 ${delta} remap units box
change_box all z delta 0 4.21393499999998e-06 remap units box
  triclinic box = (0.0212825 0.0212825 0.0212825) to (4.23522 4.23522 4.23522) with tilt (0 0 0)
if "${dir} == 4" then    "change_box all yz delta ${delta} remap units box"
if "${dir} == 5" then    "change_box all xz delta ${delta} remap units box"
if "${dir} == 6" then    "change_box all xy delta ${delta} remap units box"

# Relax atoms positions

minimize ${etol} ${ftol} ${maxiter} ${maxeval}
minimize 0 ${ftol} ${maxiter} ${maxeval}
minimize 0 1e-10 ${maxiter} ${maxeval}
minimize 0 1e-10 100 ${maxeval}
minimize 0 1e-10 100 1000
PPPM initialization ...
  using 12-bit tables for long-range coulomb (../kspace.cpp:321)
  G vector (1/distance) = 0.359644
  grid = 9 9 8
  stencil order = 5
  estimated absolute RMS force accuracy = 6.07106e-05
  estimated relative force accuracy = 4.21612e-06
  using double precision FFTs
  3d grid and FFT values/proc = 3840 648
Neighbor list info ...
  update every 1 steps, delay 0 steps, check yes
  max neighbors/atom: 2000, page size: 100000
  master list distance cutoff = 11
  ghost atom cutoff = 11
  binsize = 5.5, bins = 1 1 1
  1 neighbor lists, perpetual/occasional/extra = 1 0 0
  (1) pair buck/coul/long, perpetual
      attributes: half, newton on
      pair build: half/bin/newton/tri
      stencil: half/bin/3d/newton/tri
      bin: standard
Per MPI rank memory allocation (min/avg/max) = 4.665 | 4.665 | 4.665 Mbytes
Step Temp PotEng Press Pxx Pyy Pzz Pxy Pxz Pyz Lx Ly Lz Volume 
     100            0   -267.66416   -931373.98   -931374.81   -931374.81   -931372.34 -3.2163422e-10 -1.2451653e-09 -1.0395314e-09     4.213935     4.213935    4.2139392    74.827964 
     101            0   -267.66417   -931373.96   -931374.77   -931374.77   -931372.36 -9.2837303e-10 5.2390844e-10 -2.7958157e-10     4.213935     4.213935    4.2139392    74.827964 
     102            0   -267.66417   -931373.96   -931374.77   -931374.77   -931372.36 -9.0682522e-10 3.7891692e-10 -3.1042978e-10     4.213935     4.213935    4.2139392    74.827964 
Loop time of 0.00563478 on 1 procs for 2 steps with 8 atoms

88.7% CPU use with 1 MPI tasks x no OpenMP threads

Minimization stats:
  Stopping criterion = linesearch alpha is zero
  Energy initial, next-to-last, final = 
        -267.664164958     -267.664168082     -267.664168082
  Force two-norm initial, final = 0.000991032 0.00152523
  Force max component initial, final = 0.000221491 0.00037029
  Final line search alpha, max atom move = 0.00195312 7.23222e-07
  Iterations, force evaluations = 2 15

MPI task timing breakdown:
Section |  min time  |  avg time  |  max time  |%varavg| %total
---------------------------------------------------------------
Pair    | 0.0027249  | 0.0027249  | 0.0027249  |   0.0 | 48.36
Kspace  | 0.0026414  | 0.0026414  | 0.0026414  |   0.0 | 46.88
Neigh   | 0          | 0          | 0          |   0.0 |  0.00
Comm    | 0.00020576 | 0.00020576 | 0.00020576 |   0.0 |  3.65
Output  | 1.0967e-05 | 1.0967e-05 | 1.0967e-05 |   0.0 |  0.19
Modify  | 0          | 0          | 0          |   0.0 |  0.00
Other   |            | 5.174e-05  |            |       |  0.92

Nlocal:    8 ave 8 max 8 min
Histogram: 1 0 0 0 0 0 0 0 0 0
Nghost:    2189 ave 2189 max 2189 min
Histogram: 1 0 0 0 0 0 0 0 0 0
Neighs:    2472 ave 2472 max 2472 min
Histogram: 1 0 0 0 0 0 0 0 0 0

Total # of neighbors = 2472
Ave neighs/atom = 309
Neighbor list builds = 0
Dangerous builds = 0

# Obtain new stress tensor

variable tmp equal pe
variable e1 equal ${tmp}
variable e1 equal -267.664168081775
variable tmp equal press
variable p1 equal ${tmp}
variable p1 equal -931373.964072771
variable tmp equal pxx
variable pxx1 equal ${tmp}
variable pxx1 equal -931374.767247993
variable tmp equal pyy
variable pyy1 equal ${tmp}
variable pyy1 equal -931374.767247992
variable tmp equal pzz
variable pzz1 equal ${tmp}
variable pzz1 equal -931372.357722328
variable tmp equal pxy
variable pxy1 equal ${tmp}
variable pxy1 equal -9.06825216483629e-10
variable tmp equal pxz
variable pxz1 equal ${tmp}
variable pxz1 equal 3.78916922972019e-10
variable tmp equal pyz
variable pyz1 equal ${tmp}
variable pyz1 equal -3.10429776897823e-10

# Compute elastic constant from pressure tensor

variable C1pos equal ${d1}
variable C1pos equal 476.586357306223
variable C2pos equal ${d2}
variable C2pos equal 476.58635720145
variable C3pos equal ${d3}
variable C3pos equal 235.633790900465
variable C4pos equal ${d4}
variable C4pos equal 6.8844417373344e-08
variable C5pos equal ${d5}
variable C5pos equal -7.58695413549088e-08
variable C6pos equal ${d6}
variable C6pos equal 7.46299140725056e-08

# Combine positive and negative

variable C1${dir} equal 0.5*(${C1neg}+${C1pos})
variable C13 equal 0.5*(${C1neg}+${C1pos})
variable C13 equal 0.5*(197.405597800389+${C1pos})
variable C13 equal 0.5*(197.405597800389+476.586357306223)
variable C2${dir} equal 0.5*(${C2neg}+${C2pos})
variable C23 equal 0.5*(${C2neg}+${C2pos})
variable C23 equal 0.5*(197.405597893521+${C2pos})
variable C23 equal 0.5*(197.405597893521+476.58635720145)
variable C3${dir} equal 0.5*(${C3neg}+${C3pos})
variable C33 equal 0.5*(${C3neg}+${C3pos})
variable C33 equal 0.5*(-82.1404058951885+${C3pos})
variable C33 equal 0.5*(-82.1404058951885+235.633790900465)
variable C4${dir} equal 0.5*(${C4neg}+${C4pos})
variable C43 equal 0.5*(${C4neg}+${C4pos})
variable C43 equal 0.5*(-7.48666357584174e-08+${C4pos})
variable C43 equal 0.5*(-7.48666357584174e-08+6.8844417373344e-08)
variable C5${dir} equal 0.5*(${C5neg}+${C5pos})
variable C53 equal 0.5*(${C5neg}+${C5pos})
variable C53 equal 0.5*(3.31354957131191e-08+${C5pos})
variable C53 equal 0.5*(3.31354957131191e-08+-7.58695413549088e-08)
variable C6${dir} equal 0.5*(${C6neg}+${C6pos})
variable C63 equal 0.5*(${C6neg}+${C6pos})
variable C63 equal 0.5*(5.54342518893011e-08+${C6pos})
variable C63 equal 0.5*(5.54342518893011e-08+7.46299140725056e-08)

# Delete dir to make sure it is not reused

variable dir delete
# ---- uyz Perturbation
variable dir equal 4
include displace.mod
# NOTE: This script should not need to be
# modified. See in.elastic for more info.
# Find which reference length to use

if "${dir} == 1" then    "variable len0 equal ${lx0}"
if "${dir} == 2" then    "variable len0 equal ${ly0}"
if "${dir} == 3" then    "variable len0 equal ${lz0}"
if "${dir} == 4" then    "variable len0 equal ${lz0}"
variable len0 equal ${lz0}
variable len0 equal 4.21393499999998
if "${dir} == 5" then    "variable len0 equal ${lz0}"
if "${dir} == 6" then    "variable len0 equal ${ly0}"

# Reset box and simulation parameters

clear
read_restart restart.equil remap
  triclinic box = (0.0212825 0.0212825 0.0212825) to (4.23522 4.23522 4.23522) with tilt (0 0 0)
  1 by 1 by 1 MPI processor grid
  8 atoms
include potential.mod
mass 1 24.305
mass 2 15.999

group Mg type 1
4 atoms in group Mg
group O type 2
4 atoms in group O

set group Mg charge 2.467095066210368
  4 settings made for charge
set group O charge -2.467095066210368
  4 settings made for charge

variable R_cut equal 10.0

pair_style buck/coul/long ${R_cut}
pair_style buck/coul/long 10
pair_coeff 1 1 0.0 0.5 0.0 ${R_cut}
pair_coeff 1 1 0.0 0.5 0.0 10
pair_coeff 1 2 935.4807786808233 0.3084619384680258 0.0 ${R_cut}
pair_coeff 1 2 935.4807786808233 0.3084619384680258 0.0 10
pair_coeff 2 2 12266.368986574063 0.11126335340408924 33.77611037763418 ${R_cut}
pair_coeff 2 2 12266.368986574063 0.11126335340408924 33.77611037763418 10

kspace_style pppm 1.0e-5

neighbor 1.0 bin
neigh_modify every 1 delay 0 check yes
thermo	1
thermo_style custom step temp pe press pxx pyy pzz pxy pxz pyz lx ly lz vol
thermo_modify norm no

# Negative deformation

variable delta equal -${up}*${len0}
variable delta equal -1e-06*${len0}
variable delta equal -1e-06*4.21393499999998
if "${dir} == 1" then    "change_box all x delta 0 ${delta} remap units box"
if "${dir} == 2" then    "change_box all y delta 0 ${delta} remap units box"
if "${dir} == 3" then    "change_box all z delta 0 ${delta} remap units box"
if "${dir} == 4" then    "change_box all yz delta ${delta} remap units box"
change_box all yz delta ${delta} remap units box
change_box all yz delta -4.21393499999998e-06 remap units box
  triclinic box = (0.0212825 0.0212825 0.0212825) to (4.23522 4.23522 4.23522) with tilt (0 0 -4.21393e-06)
if "${dir} == 5" then    "change_box all xz delta ${delta} remap units box"
if "${dir} == 6" then    "change_box all xy delta ${delta} remap units box"

# Relax atoms positions

minimize ${etol} ${ftol} ${maxiter} ${maxeval}
minimize 0 ${ftol} ${maxiter} ${maxeval}
minimize 0 1e-10 ${maxiter} ${maxeval}
minimize 0 1e-10 100 ${maxeval}
minimize 0 1e-10 100 1000
PPPM initialization ...
  using 12-bit tables for long-range coulomb (../kspace.cpp:321)
  G vector (1/distance) = 0.36205
  grid = 9 9 9
  stencil order = 5
  estimated absolute RMS force accuracy = 4.99595e-05
  estimated relative force accuracy = 3.46949e-06
  using double precision FFTs
  3d grid and FFT values/proc = 4096 729
Neighbor list info ...
  update every 1 steps, delay 0 steps, check yes
  max neighbors/atom: 2000, page size: 100000
  master list distance cutoff = 11
  ghost atom cutoff = 11
  binsize = 5.5, bins = 1 1 1
  1 neighbor lists, perpetual/occasional/extra = 1 0 0
  (1) pair buck/coul/long, perpetual
      attributes: half, newton on
      pair build: half/bin/newton/tri
      stencil: half/bin/3d/newton/tri
      bin: standard
Per MPI rank memory allocation (min/avg/max) = 4.682 | 4.682 | 4.682 Mbytes
Step Temp PotEng Press Pxx Pyy Pzz Pxy Pxz Pyz Lx Ly Lz Volume 
     100            0   -267.66419   -931369.41   -931369.36   -931369.44   -931369.44 -4.5317129e-10 1.4642989e-10    3.3026681     4.213935     4.213935     4.213935     74.82789 
     101            0   -267.66419   -931369.47   -931369.55   -931369.43   -931369.43 -4.5558301e-10 -1.1527003e-10    3.3208713     4.213935     4.213935     4.213935     74.82789 
     102            0   -267.66471   -931290.05   -931289.94   -931290.11   -931290.11  0.005015145 0.0050151505    3.4237559     4.213935     4.213935     4.213935     74.82789 
     103            0   -268.40346   -803983.62    -803948.2   -804001.33   -804001.33 0.0035912993 0.0035910026    13.124403     4.213935     4.213935     4.213935     74.82789 
     104            0   -268.89888   -643618.69   -643530.99   -643662.54   -643662.54 -0.014745879 -0.014746476    18.498742     4.213935     4.213935     4.213935     74.82789 
     105            0   -268.96298   -593400.59   -593294.96   -593453.41   -593453.41  0.024361116   0.02436049    19.069929     4.213935     4.213935     4.213935     74.82789 
     106            0   -268.98337   -565371.74   -565256.26   -565429.48   -565429.48  0.013396038  0.013395368    19.065533     4.213935     4.213935     4.213935     74.82789 
     107            0   -269.11046   -502683.15    -502575.6   -502736.92   -502736.92 0.0092470452  0.009246316    13.730247     4.213935     4.213935     4.213935     74.82789 
     108            0   -269.12665   -506477.46   -506381.04   -506525.68   -506525.68 -0.0033919187 -0.0033925206    11.780094     4.213935     4.213935     4.213935     74.82789 
     109            0   -269.12716   -519118.74   -519069.21    -519143.5    -519143.5 -0.030089437 -0.030089327    11.444499     4.213935     4.213935     4.213935     74.82789 
     110            0   -269.12717    -519142.4   -519099.22   -519163.99   -519163.99  0.030663818  0.030663966    10.139856     4.213935     4.213935     4.213935     74.82789 
     111            0   -269.12727   -516160.13   -516131.83   -516174.28   -516174.28  0.034999389  0.034999337    4.1488416     4.213935     4.213935     4.213935     74.82789 
     112            0   -269.12729   -516030.42   -516003.11   -516044.07   -516044.07   0.02354032  0.023540312    3.9136583     4.213935     4.213935     4.213935     74.82789 
     113            0   -269.12731   -515743.27   -515723.48   -515753.17   -515753.17 0.0095127857 0.0095128684    3.4851533     4.213935     4.213935     4.213935     74.82789 
     114            0   -269.12731   -515730.03   -515712.92   -515738.58   -515738.58 -0.022363336  -0.02236333    3.3624864     4.213935     4.213935     4.213935     74.82789 
     115            0   -269.12731   -515726.76   -515718.98   -515730.64   -515730.64  0.023162925  0.023162859    2.3979781     4.213935     4.213935     4.213935     74.82789 
     116            0   -269.12731   -515726.76   -515718.98   -515730.64   -515730.64  0.023162925  0.023162859    2.3979781     4.213935     4.213935     4.213935     74.82789 
Loop time of 0.0162089 on 1 procs for 16 steps with 8 atoms

98.7% CPU use with 1 MPI tasks x no OpenMP threads

Minimization stats:
  Stopping criterion = linesearch alpha is zero
  Energy initial, next-to-last, final = 
        -267.664189079     -269.127314215     -269.127314215
  Force two-norm initial, final = 0.000989392 0.000476112
  Force max component initial, final = 0.000220241 0.000151107
  Final line search alpha, max atom move = 0.03125 4.7221e-06
  Iterations, force evaluations = 16 42

MPI task timing breakdown:
Section |  min time  |  avg time  |  max time  |%varavg| %total
---------------------------------------------------------------
Pair    | 0.0076067  | 0.0076067  | 0.0076067  |   0.0 | 46.93
Kspace  | 0.007771   | 0.007771   | 0.007771   |   0.0 | 47.94
Neigh   | 0          | 0          | 0          |   0.0 |  0.00
Comm    | 0.00054502 | 0.00054502 | 0.00054502 |   0.0 |  3.36
Output  | 0.00014973 | 0.00014973 | 0.00014973 |   0.0 |  0.92
Modify  | 0          | 0          | 0          |   0.0 |  0.00
Other   |            | 0.0001364  |            |       |  0.84

Nlocal:    8 ave 8 max 8 min
Histogram: 1 0 0 0 0 0 0 0 0 0
Nghost:    2189 ave 2189 max 2189 min
Histogram: 1 0 0 0 0 0 0 0 0 0
Neighs:    2472 ave 2472 max 2472 min
Histogram: 1 0 0 0 0 0 0 0 0 0

Total # of neighbors = 2472
Ave neighs/atom = 309
Neighbor list builds = 0
Dangerous builds = 0

# Obtain new stress tensor

variable tmp equal pxx
variable pxx1 equal ${tmp}
variable pxx1 equal -515718.982075856
variable tmp equal pyy
variable pyy1 equal ${tmp}
variable pyy1 equal -515730.644590505
variable tmp equal pzz
variable pzz1 equal ${tmp}
variable pzz1 equal -515730.644586177
variable tmp equal pxy
variable pxy1 equal ${tmp}
variable pxy1 equal 0.0231629253778156
variable tmp equal pxz
variable pxz1 equal ${tmp}
variable pxz1 equal 0.0231628586214978
variable tmp equal pyz
variable pyz1 equal ${tmp}
variable pyz1 equal 2.39797813291047

# Compute elastic constant from pressure tensor

variable C1neg equal ${d1}
variable C1neg equal 41565101.9308564
variable C2neg equal ${d2}
variable C2neg equal 41563935.6793915
variable C3neg equal ${d3}
variable C3neg equal 41563935.6798242
variable C4neg equal ${d4}
variable C4neg equal 239.797813253246
variable C5neg equal ${d5}
variable C5neg equal 2.31628590012763
variable C6neg equal ${d6}
variable C6neg equal 2.31629255383417

# Reset box and simulation parameters

clear
read_restart restart.equil remap
  triclinic box = (0.0212825 0.0212825 0.0212825) to (4.23522 4.23522 4.23522) with tilt (0 0 0)
  1 by 1 by 1 MPI processor grid
  8 atoms
include potential.mod
mass 1 24.305
mass 2 15.999

group Mg type 1
4 atoms in group Mg
group O type 2
4 atoms in group O

set group Mg charge 2.467095066210368
  4 settings made for charge
set group O charge -2.467095066210368
  4 settings made for charge

variable R_cut equal 10.0

pair_style buck/coul/long ${R_cut}
pair_style buck/coul/long 10
pair_coeff 1 1 0.0 0.5 0.0 ${R_cut}
pair_coeff 1 1 0.0 0.5 0.0 10
pair_coeff 1 2 935.4807786808233 0.3084619384680258 0.0 ${R_cut}
pair_coeff 1 2 935.4807786808233 0.3084619384680258 0.0 10
pair_coeff 2 2 12266.368986574063 0.11126335340408924 33.77611037763418 ${R_cut}
pair_coeff 2 2 12266.368986574063 0.11126335340408924 33.77611037763418 10

kspace_style pppm 1.0e-5

neighbor 1.0 bin
neigh_modify every 1 delay 0 check yes
thermo	1
thermo_style custom step temp pe press pxx pyy pzz pxy pxz pyz lx ly lz vol
thermo_modify norm no

# Positive deformation

variable delta equal ${up}*${len0}
variable delta equal 1e-06*${len0}
variable delta equal 1e-06*4.21393499999998
if "${dir} == 1" then    "change_box all x delta 0 ${delta} remap units box"
if "${dir} == 2" then    "change_box all y delta 0 ${delta} remap units box"
if "${dir} == 3" then    "change_box all z delta 0 ${delta} remap units box"
if "${dir} == 4" then    "change_box all yz delta ${delta} remap units box"
change_box all yz delta ${delta} remap units box
change_box all yz delta 4.21393499999998e-06 remap units box
  triclinic box = (0.0212825 0.0212825 0.0212825) to (4.23522 4.23522 4.23522) with tilt (0 0 4.21393e-06)
if "${dir} == 5" then    "change_box all xz delta ${delta} remap units box"
if "${dir} == 6" then    "change_box all xy delta ${delta} remap units box"

# Relax atoms positions

minimize ${etol} ${ftol} ${maxiter} ${maxeval}
minimize 0 ${ftol} ${maxiter} ${maxeval}
minimize 0 1e-10 ${maxiter} ${maxeval}
minimize 0 1e-10 100 ${maxeval}
minimize 0 1e-10 100 1000
PPPM initialization ...
  using 12-bit tables for long-range coulomb (../kspace.cpp:321)
  G vector (1/distance) = 0.36205
  grid = 9 9 9
  stencil order = 5
  estimated absolute RMS force accuracy = 4.99596e-05
  estimated relative force accuracy = 3.4695e-06
  using double precision FFTs
  3d grid and FFT values/proc = 4096 729
Neighbor list info ...
  update every 1 steps, delay 0 steps, check yes
  max neighbors/atom: 2000, page size: 100000
  master list distance cutoff = 11
  ghost atom cutoff = 11
  binsize = 5.5, bins = 1 1 1
  1 neighbor lists, perpetual/occasional/extra = 1 0 0
  (1) pair buck/coul/long, perpetual
      attributes: half, newton on
      pair build: half/bin/newton/tri
      stencil: half/bin/3d/newton/tri
      bin: standard
Per MPI rank memory allocation (min/avg/max) = 4.682 | 4.682 | 4.682 Mbytes
Step Temp PotEng Press Pxx Pyy Pzz Pxy Pxz Pyz Lx Ly Lz Volume 
     100            0   -267.66419   -931369.41   -931369.36   -931369.44   -931369.44 4.9017171e-11 -3.7041183e-10   -3.3026681     4.213935     4.213935     4.213935     74.82789 
     101            0   -267.66419   -931369.47   -931369.55   -931369.43   -931369.43 -2.6237556e-11 8.6915821e-11   -3.3208713     4.213935     4.213935     4.213935     74.82789 
     102            0   -267.66471   -931290.07   -931289.97   -931290.12   -931290.12 1.2619155e-07 1.2682233e-07    -3.438858     4.213935     4.213935     4.213935     74.82789 
     103            0   -268.40346   -803983.54   -803948.06   -804001.28   -804001.28 -0.017040427 -0.017040131    -13.08209     4.213935     4.213935     4.213935     74.82789 
     104            0   -268.89888   -643618.81   -643531.12   -643662.65   -643662.65 0.0069611382 0.0069617413   -18.559304     4.213935     4.213935     4.213935     74.82789 
     105            0   -268.96299   -593400.68   -593294.94   -593453.55   -593453.55 -0.028627125  -0.02862639   -19.065403     4.213935     4.213935     4.213935     74.82789 
     106            0   -268.98337   -565371.72   -565256.29   -565429.44   -565429.44 -0.0093750294 -0.0093742621   -19.030367     4.213935     4.213935     4.213935     74.82789 
     107            0   -269.11047   -502683.31   -502575.64   -502737.15   -502737.15 -0.021156992 -0.021156348   -13.797379     4.213935     4.213935     4.213935     74.82789 
     108            0   -269.12665   -506477.53   -506381.09   -506525.75   -506525.75 -0.017106363  -0.01710592   -11.874041     4.213935     4.213935     4.213935     74.82789 
     109            0   -269.12716   -519119.17   -519069.68   -519143.91   -519143.91 0.0066961605 0.0066961278   -11.451802     4.213935     4.213935     4.213935     74.82789 
     110            0   -269.12716   -519142.79   -519099.78    -519164.3    -519164.3  -0.02148001 -0.021480026   -10.051124     4.213935     4.213935     4.213935     74.82789 
     111            0   -269.12727    -516160.5   -516132.37   -516174.56   -516174.56  0.037916449  0.037916407   -4.2203035     4.213935     4.213935     4.213935     74.82789 
     112            0   -269.12729   -516030.59   -516003.31   -516044.23   -516044.23  0.026341114   0.02634108   -3.9324942     4.213935     4.213935     4.213935     74.82789 
     113            0    -269.1273   -515743.12   -515723.38   -515752.99   -515752.99 -0.073218701 -0.073218632   -3.5480826     4.213935     4.213935     4.213935     74.82789 
     114            0   -269.12731   -515730.04   -515712.95   -515738.59   -515738.59 0.0098150102 0.0098149968   -3.3410088     4.213935     4.213935     4.213935     74.82789 
     115            0   -269.12731    -515726.8   -515718.83   -515730.78   -515730.78   0.04491209  0.044912048    -2.311404     4.213935     4.213935     4.213935     74.82789 
     116            0   -269.12731    -515726.8   -515718.83   -515730.78   -515730.78   0.04491209  0.044912048    -2.311404     4.213935     4.213935     4.213935     74.82789 
Loop time of 0.0158551 on 1 procs for 16 steps with 8 atoms

100.9% CPU use with 1 MPI tasks x no OpenMP threads

Minimization stats:
  Stopping criterion = linesearch alpha is zero
  Energy initial, next-to-last, final = 
        -267.664189079     -269.127313866     -269.127313866
  Force two-norm initial, final = 0.000989392 0.000472196
  Force max component initial, final = 0.000220241 0.000149929
  Final line search alpha, max atom move = 0.03125 4.68529e-06
  Iterations, force evaluations = 16 42

MPI task timing breakdown:
Section |  min time  |  avg time  |  max time  |%varavg| %total
---------------------------------------------------------------
Pair    | 0.0072429  | 0.0072429  | 0.0072429  |   0.0 | 45.68
Kspace  | 0.0077972  | 0.0077972  | 0.0077972  |   0.0 | 49.18
Neigh   | 0          | 0          | 0          |   0.0 |  0.00
Comm    | 0.00054312 | 0.00054312 | 0.00054312 |   0.0 |  3.43
Output  | 0.00013947 | 0.00013947 | 0.00013947 |   0.0 |  0.88
Modify  | 0          | 0          | 0          |   0.0 |  0.00
Other   |            | 0.0001323  |            |       |  0.83

Nlocal:    8 ave 8 max 8 min
Histogram: 1 0 0 0 0 0 0 0 0 0
Nghost:    2189 ave 2189 max 2189 min
Histogram: 1 0 0 0 0 0 0 0 0 0
Neighs:    2472 ave 2472 max 2472 min
Histogram: 1 0 0 0 0 0 0 0 0 0

Total # of neighbors = 2472
Ave neighs/atom = 309
Neighbor list builds = 0
Dangerous builds = 0

# Obtain new stress tensor

variable tmp equal pe
variable e1 equal ${tmp}
variable e1 equal -269.127313866495
variable tmp equal press
variable p1 equal ${tmp}
variable p1 equal -515726.797011092
variable tmp equal pxx
variable pxx1 equal ${tmp}
variable pxx1 equal -515718.832404142
variable tmp equal pyy
variable pyy1 equal ${tmp}
variable pyy1 equal -515730.779318259
variable tmp equal pzz
variable pzz1 equal ${tmp}
variable pzz1 equal -515730.779310874
variable tmp equal pxy
variable pxy1 equal ${tmp}
variable pxy1 equal 0.0449120897215971
variable tmp equal pxz
variable pxz1 equal ${tmp}
variable pxz1 equal 0.044912047890239
variable tmp equal pyz
variable pyz1 equal ${tmp}
variable pyz1 equal -2.31140399285338

# Compute elastic constant from pressure tensor

variable C1pos equal ${d1}
variable C1pos equal -41565116.8980278
variable C2pos equal ${d2}
variable C2pos equal -41563922.2066161
variable C3pos equal ${d3}
variable C3pos equal -41563922.2073545
variable C4pos equal ${d4}
variable C4pos equal 231.140399323139
variable C5pos equal ${d5}
variable C5pos equal -4.49120482700175
variable C6pos equal ${d6}
variable C6pos equal -4.49120898821232

# Combine positive and negative

variable C1${dir} equal 0.5*(${C1neg}+${C1pos})
variable C14 equal 0.5*(${C1neg}+${C1pos})
variable C14 equal 0.5*(41565101.9308564+${C1pos})
variable C14 equal 0.5*(41565101.9308564+-41565116.8980278)
variable C2${dir} equal 0.5*(${C2neg}+${C2pos})
variable C24 equal 0.5*(${C2neg}+${C2pos})
variable C24 equal 0.5*(41563935.6793915+${C2pos})
variable C24 equal 0.5*(41563935.6793915+-41563922.2066161)
variable C3${dir} equal 0.5*(${C3neg}+${C3pos})
variable C34 equal 0.5*(${C3neg}+${C3pos})
variable C34 equal 0.5*(41563935.6798242+${C3pos})
variable C34 equal 0.5*(41563935.6798242+-41563922.2073545)
variable C4${dir} equal 0.5*(${C4neg}+${C4pos})
variable C44 equal 0.5*(${C4neg}+${C4pos})
variable C44 equal 0.5*(239.797813253246+${C4pos})
variable C44 equal 0.5*(239.797813253246+231.140399323139)
variable C5${dir} equal 0.5*(${C5neg}+${C5pos})
variable C54 equal 0.5*(${C5neg}+${C5pos})
variable C54 equal 0.5*(2.31628590012763+${C5pos})
variable C54 equal 0.5*(2.31628590012763+-4.49120482700175)
variable C6${dir} equal 0.5*(${C6neg}+${C6pos})
variable C64 equal 0.5*(${C6neg}+${C6pos})
variable C64 equal 0.5*(2.31629255383417+${C6pos})
variable C64 equal 0.5*(2.31629255383417+-4.49120898821232)

# Delete dir to make sure it is not reused

variable dir delete
# ---- uxz Perturbation
variable dir equal 5
include displace.mod
# NOTE: This script should not need to be
# modified. See in.elastic for more info.
# Find which reference length to use

if "${dir} == 1" then    "variable len0 equal ${lx0}"
if "${dir} == 2" then    "variable len0 equal ${ly0}"
if "${dir} == 3" then    "variable len0 equal ${lz0}"
if "${dir} == 4" then    "variable len0 equal ${lz0}"
if "${dir} == 5" then    "variable len0 equal ${lz0}"
variable len0 equal ${lz0}
variable len0 equal 4.21393499999998
if "${dir} == 6" then    "variable len0 equal ${ly0}"

# Reset box and simulation parameters

clear
read_restart restart.equil remap
  triclinic box = (0.0212825 0.0212825 0.0212825) to (4.23522 4.23522 4.23522) with tilt (0 0 0)
  1 by 1 by 1 MPI processor grid
  8 atoms
include potential.mod
mass 1 24.305
mass 2 15.999

group Mg type 1
4 atoms in group Mg
group O type 2
4 atoms in group O

set group Mg charge 2.467095066210368
  4 settings made for charge
set group O charge -2.467095066210368
  4 settings made for charge

variable R_cut equal 10.0

pair_style buck/coul/long ${R_cut}
pair_style buck/coul/long 10
pair_coeff 1 1 0.0 0.5 0.0 ${R_cut}
pair_coeff 1 1 0.0 0.5 0.0 10
pair_coeff 1 2 935.4807786808233 0.3084619384680258 0.0 ${R_cut}
pair_coeff 1 2 935.4807786808233 0.3084619384680258 0.0 10
pair_coeff 2 2 12266.368986574063 0.11126335340408924 33.77611037763418 ${R_cut}
pair_coeff 2 2 12266.368986574063 0.11126335340408924 33.77611037763418 10

kspace_style pppm 1.0e-5

neighbor 1.0 bin
neigh_modify every 1 delay 0 check yes
thermo	1
thermo_style custom step temp pe press pxx pyy pzz pxy pxz pyz lx ly lz vol
thermo_modify norm no

# Negative deformation

variable delta equal -${up}*${len0}
variable delta equal -1e-06*${len0}
variable delta equal -1e-06*4.21393499999998
if "${dir} == 1" then    "change_box all x delta 0 ${delta} remap units box"
if "${dir} == 2" then    "change_box all y delta 0 ${delta} remap units box"
if "${dir} == 3" then    "change_box all z delta 0 ${delta} remap units box"
if "${dir} == 4" then    "change_box all yz delta ${delta} remap units box"
if "${dir} == 5" then    "change_box all xz delta ${delta} remap units box"
change_box all xz delta ${delta} remap units box
change_box all xz delta -4.21393499999998e-06 remap units box
  triclinic box = (0.0212825 0.0212825 0.0212825) to (4.23522 4.23522 4.23522) with tilt (0 -4.21393e-06 0)
if "${dir} == 6" then    "change_box all xy delta ${delta} remap units box"

# Relax atoms positions

minimize ${etol} ${ftol} ${maxiter} ${maxeval}
minimize 0 ${ftol} ${maxiter} ${maxeval}
minimize 0 1e-10 ${maxiter} ${maxeval}
minimize 0 1e-10 100 ${maxeval}
minimize 0 1e-10 100 1000
PPPM initialization ...
  using 12-bit tables for long-range coulomb (../kspace.cpp:321)
  G vector (1/distance) = 0.36205
  grid = 9 9 9
  stencil order = 5
  estimated absolute RMS force accuracy = 4.99595e-05
  estimated relative force accuracy = 3.46949e-06
  using double precision FFTs
  3d grid and FFT values/proc = 4096 729
Neighbor list info ...
  update every 1 steps, delay 0 steps, check yes
  max neighbors/atom: 2000, page size: 100000
  master list distance cutoff = 11
  ghost atom cutoff = 11
  binsize = 5.5, bins = 1 1 1
  1 neighbor lists, perpetual/occasional/extra = 1 0 0
  (1) pair buck/coul/long, perpetual
      attributes: half, newton on
      pair build: half/bin/newton/tri
      stencil: half/bin/3d/newton/tri
      bin: standard
Per MPI rank memory allocation (min/avg/max) = 4.682 | 4.682 | 4.682 Mbytes
Step Temp PotEng Press Pxx Pyy Pzz Pxy Pxz Pyz Lx Ly Lz Volume 
     100            0   -267.66419   -931369.41   -931369.44   -931369.36   -931369.44 -6.5459335e-11    3.3026681 -7.3306227e-11     4.213935     4.213935     4.213935     74.82789 
     101            0   -267.66419   -931369.47   -931369.43   -931369.55   -931369.43 -1.0256911e-09    3.3208713 -5.6627915e-12     4.213935     4.213935     4.213935     74.82789 
     102            0   -267.66471   -931290.05   -931290.11   -931289.94   -931290.11 0.0050151456    3.4237559 0.0050151506     4.213935     4.213935     4.213935     74.82789 
     103            0   -268.40346   -803983.62   -804001.33    -803948.2   -804001.33 0.0035914395    13.124403 0.0035912129     4.213935     4.213935     4.213935     74.82789 
     104            0   -268.89888   -643618.69   -643662.54   -643530.99   -643662.54 -0.014745601    18.498741 -0.014746045     4.213935     4.213935     4.213935     74.82789 
     105            0   -268.96298   -593400.59   -593453.41   -593294.96   -593453.41   0.02436143    19.069928  0.024360981     4.213935     4.213935     4.213935     74.82789 
     106            0   -268.98337   -565371.74   -565429.48   -565256.26   -565429.48   0.01339637    19.065532  0.013395889     4.213935     4.213935     4.213935     74.82789 
     107            0   -269.11046   -502683.15   -502736.92    -502575.6   -502736.92 0.0092473396    13.730246 0.0092467788     4.213935     4.213935     4.213935     74.82789 
     108            0   -269.12665   -506477.46   -506525.68   -506381.04   -506525.68 -0.0033916722    11.780093 -0.0033921564     4.213935     4.213935     4.213935     74.82789 
     109            0   -269.12716   -519118.76   -519143.52   -519069.24   -519143.52  -0.03008941    11.473351 -0.030089325     4.213935     4.213935     4.213935     74.82789 
     110            0   -269.12717   -519142.45   -519164.04   -519099.26   -519164.04  0.048659411    10.101513  0.048659555     4.213935     4.213935     4.213935     74.82789 
     111            0   -269.12727   -516160.22   -516174.33      -516132   -516174.33 -0.0067707724    4.2334431 -0.0067708517     4.213935     4.213935     4.213935     74.82789 
     112            0   -269.12729   -516030.38   -516044.03    -516003.1   -516044.03  0.063307029    3.9502878  0.063307067     4.213935     4.213935     4.213935     74.82789 
     113            0   -269.12731   -515743.48   -515753.34   -515723.77   -515753.34 -0.048450309     3.471787 -0.048450298     4.213935     4.213935     4.213935     74.82789 
     114            0   -269.12731   -515730.27   -515738.78   -515713.25   -515738.78  0.016684046    3.2963892  0.016684088     4.213935     4.213935     4.213935     74.82789 
     115            0   -269.12731   -515730.27   -515738.78   -515713.25   -515738.78  0.016684046    3.2963892  0.016684088     4.213935     4.213935     4.213935     74.82789 
Loop time of 0.015938 on 1 procs for 15 steps with 8 atoms

87.8% CPU use with 1 MPI tasks x no OpenMP threads

Minimization stats:
  Stopping criterion = linesearch alpha is zero
  Energy initial, next-to-last, final = 
        -267.664189079     -269.127314677     -269.127314677
  Force two-norm initial, final = 0.000989392 0.000339048
  Force max component initial, final = 0.000220241 0.000152128
  Final line search alpha, max atom move = 0.0625 9.50798e-06
  Iterations, force evaluations = 15 38

MPI task timing breakdown:
Section |  min time  |  avg time  |  max time  |%varavg| %total
---------------------------------------------------------------
Pair    | 0.0067744  | 0.0067744  | 0.0067744  |   0.0 | 42.50
Kspace  | 0.0083897  | 0.0083897  | 0.0083897  |   0.0 | 52.64
Neigh   | 0          | 0          | 0          |   0.0 |  0.00
Comm    | 0.00050235 | 0.00050235 | 0.00050235 |   0.0 |  3.15
Output  | 0.00014544 | 0.00014544 | 0.00014544 |   0.0 |  0.91
Modify  | 0          | 0          | 0          |   0.0 |  0.00
Other   |            | 0.0001261  |            |       |  0.79

Nlocal:    8 ave 8 max 8 min
Histogram: 1 0 0 0 0 0 0 0 0 0
Nghost:    2189 ave 2189 max 2189 min
Histogram: 1 0 0 0 0 0 0 0 0 0
Neighs:    2472 ave 2472 max 2472 min
Histogram: 1 0 0 0 0 0 0 0 0 0

Total # of neighbors = 2472
Ave neighs/atom = 309
Neighbor list builds = 0
Dangerous builds = 0

# Obtain new stress tensor

variable tmp equal pxx
variable pxx1 equal ${tmp}
variable pxx1 equal -515738.775431959
variable tmp equal pyy
variable pyy1 equal ${tmp}
variable pyy1 equal -515713.254564558
variable tmp equal pzz
variable pzz1 equal ${tmp}
variable pzz1 equal -515738.775426483
variable tmp equal pxy
variable pxy1 equal ${tmp}
variable pxy1 equal 0.0166840462975528
variable tmp equal pxz
variable pxz1 equal ${tmp}
variable pxz1 equal 3.29638917433395
variable tmp equal pyz
variable pyz1 equal ${tmp}
variable pyz1 equal 0.0166840882073202

# Compute elastic constant from pressure tensor

variable C1neg equal ${d1}
variable C1neg equal 41563122.5952461
variable C2neg equal ${d2}
variable C2neg equal 41565674.6819862
variable C3neg equal ${d3}
variable C3neg equal 41563122.5957936
variable C4neg equal ${d4}
variable C4neg equal 1.66840878293058
variable C5neg equal ${d5}
variable C5neg equal 329.638917471373
variable C6neg equal ${d6}
variable C6neg equal 1.66840464580789

# Reset box and simulation parameters

clear
read_restart restart.equil remap
  triclinic box = (0.0212825 0.0212825 0.0212825) to (4.23522 4.23522 4.23522) with tilt (0 0 0)
  1 by 1 by 1 MPI processor grid
  8 atoms
include potential.mod
mass 1 24.305
mass 2 15.999

group Mg type 1
4 atoms in group Mg
group O type 2
4 atoms in group O

set group Mg charge 2.467095066210368
  4 settings made for charge
set group O charge -2.467095066210368
  4 settings made for charge

variable R_cut equal 10.0

pair_style buck/coul/long ${R_cut}
pair_style buck/coul/long 10
pair_coeff 1 1 0.0 0.5 0.0 ${R_cut}
pair_coeff 1 1 0.0 0.5 0.0 10
pair_coeff 1 2 935.4807786808233 0.3084619384680258 0.0 ${R_cut}
pair_coeff 1 2 935.4807786808233 0.3084619384680258 0.0 10
pair_coeff 2 2 12266.368986574063 0.11126335340408924 33.77611037763418 ${R_cut}
pair_coeff 2 2 12266.368986574063 0.11126335340408924 33.77611037763418 10

kspace_style pppm 1.0e-5

neighbor 1.0 bin
neigh_modify every 1 delay 0 check yes
thermo	1
thermo_style custom step temp pe press pxx pyy pzz pxy pxz pyz lx ly lz vol
thermo_modify norm no

# Positive deformation

variable delta equal ${up}*${len0}
variable delta equal 1e-06*${len0}
variable delta equal 1e-06*4.21393499999998
if "${dir} == 1" then    "change_box all x delta 0 ${delta} remap units box"
if "${dir} == 2" then    "change_box all y delta 0 ${delta} remap units box"
if "${dir} == 3" then    "change_box all z delta 0 ${delta} remap units box"
if "${dir} == 4" then    "change_box all yz delta ${delta} remap units box"
if "${dir} == 5" then    "change_box all xz delta ${delta} remap units box"
change_box all xz delta ${delta} remap units box
change_box all xz delta 4.21393499999998e-06 remap units box
  triclinic box = (0.0212825 0.0212825 0.0212825) to (4.23522 4.23522 4.23522) with tilt (0 4.21393e-06 0)
if "${dir} == 6" then    "change_box all xy delta ${delta} remap units box"

# Relax atoms positions

minimize ${etol} ${ftol} ${maxiter} ${maxeval}
minimize 0 ${ftol} ${maxiter} ${maxeval}
minimize 0 1e-10 ${maxiter} ${maxeval}
minimize 0 1e-10 100 ${maxeval}
minimize 0 1e-10 100 1000
PPPM initialization ...
  using 12-bit tables for long-range coulomb (../kspace.cpp:321)
  G vector (1/distance) = 0.36205
  grid = 9 9 9
  stencil order = 5
  estimated absolute RMS force accuracy = 4.99596e-05
  estimated relative force accuracy = 3.4695e-06
  using double precision FFTs
  3d grid and FFT values/proc = 4096 729
Neighbor list info ...
  update every 1 steps, delay 0 steps, check yes
  max neighbors/atom: 2000, page size: 100000
  master list distance cutoff = 11
  ghost atom cutoff = 11
  binsize = 5.5, bins = 1 1 1
  1 neighbor lists, perpetual/occasional/extra = 1 0 0
  (1) pair buck/coul/long, perpetual
      attributes: half, newton on
      pair build: half/bin/newton/tri
      stencil: half/bin/3d/newton/tri
      bin: standard
Per MPI rank memory allocation (min/avg/max) = 4.682 | 4.682 | 4.682 Mbytes
Step Temp PotEng Press Pxx Pyy Pzz Pxy Pxz Pyz Lx Ly Lz Volume 
     100            0   -267.66419   -931369.41   -931369.44   -931369.36   -931369.44 4.079344e-10   -3.3026681 -5.1932005e-10     4.213935     4.213935     4.213935     74.82789 
     101            0   -267.66419   -931369.47   -931369.43   -931369.55   -931369.43 -2.8395506e-10   -3.3208713 2.4592321e-10     4.213935     4.213935     4.213935     74.82789 
     102            0   -267.66471   -931290.07   -931290.12   -931289.97   -931290.12 1.2629059e-07    -3.438858 1.2692532e-07     4.213935     4.213935     4.213935     74.82789 
     103            0   -268.40346   -803983.54   -804001.28   -803948.06   -804001.28 -0.017040397    -13.08209  -0.01704018     4.213935     4.213935     4.213935     74.82789 
     104            0   -268.89888   -643618.81   -643662.65   -643531.12   -643662.65 0.0069611936   -18.559304  0.006961651     4.213935     4.213935     4.213935     74.82789 
     105            0   -268.96299   -593400.68   -593453.55   -593294.94   -593453.55 -0.028627062   -19.065403 -0.028626488     4.213935     4.213935     4.213935     74.82789 
     106            0   -268.98337   -565371.72   -565429.44   -565256.29   -565429.44 -0.0093749616   -19.030368 -0.0093743649     4.213935     4.213935     4.213935     74.82789 
     107            0   -269.11047   -502683.31   -502737.15   -502575.64   -502737.15 -0.021156939    -13.79738 -0.021156465     4.213935     4.213935     4.213935     74.82789 
     108            0   -269.12665   -506477.53   -506525.75   -506381.09   -506525.75 -0.017106309   -11.874041 -0.017106025     4.213935     4.213935     4.213935     74.82789 
     109            0   -269.12716   -519119.17   -519143.91   -519069.68   -519143.91 0.0066961867   -11.451802 0.0066961449     4.213935     4.213935     4.213935     74.82789 
     110            0   -269.12716   -519142.79    -519164.3   -519099.78    -519164.3 -0.021479997   -10.051123 -0.021480009     4.213935     4.213935     4.213935     74.82789 
     111            0   -269.12727    -516160.5   -516174.56   -516132.37   -516174.56  0.037916424   -4.2203035  0.037916398     4.213935     4.213935     4.213935     74.82789 
     112            0   -269.12729   -516030.59   -516044.23   -516003.31   -516044.23  0.026341103   -3.9324942  0.026341076     4.213935     4.213935     4.213935     74.82789 
     113            0    -269.1273   -515743.12   -515752.99   -515723.38   -515752.99 -0.073218684   -3.5480827 -0.073218624     4.213935     4.213935     4.213935     74.82789 
     114            0   -269.12731   -515730.04   -515738.59   -515712.95   -515738.59 0.0098150183   -3.3410089 0.0098150011     4.213935     4.213935     4.213935     74.82789 
     115            0   -269.12731    -515726.8   -515730.78   -515718.83   -515730.78  0.044912072   -2.3114044  0.044912039     4.213935     4.213935     4.213935     74.82789 
     116            0   -269.12731    -515726.8   -515730.78   -515718.83   -515730.78  0.044912072   -2.3114044  0.044912039     4.213935     4.213935     4.213935     74.82789 
Loop time of 0.0158579 on 1 procs for 16 steps with 8 atoms

100.9% CPU use with 1 MPI tasks x no OpenMP threads

Minimization stats:
  Stopping criterion = linesearch alpha is zero
  Energy initial, next-to-last, final = 
        -267.664189079     -269.127313865     -269.127313865
  Force two-norm initial, final = 0.000989392 0.000472196
  Force max component initial, final = 0.000220241 0.00014993
  Final line search alpha, max atom move = 0.03125 4.68531e-06
  Iterations, force evaluations = 16 42

MPI task timing breakdown:
Section |  min time  |  avg time  |  max time  |%varavg| %total
---------------------------------------------------------------
Pair    | 0.007257   | 0.007257   | 0.007257   |   0.0 | 45.76
Kspace  | 0.0077703  | 0.0077703  | 0.0077703  |   0.0 | 49.00
Neigh   | 0          | 0          | 0          |   0.0 |  0.00
Comm    | 0.00054693 | 0.00054693 | 0.00054693 |   0.0 |  3.45
Output  | 0.0001514  | 0.0001514  | 0.0001514  |   0.0 |  0.95
Modify  | 0          | 0          | 0          |   0.0 |  0.00
Other   |            | 0.0001323  |            |       |  0.83

Nlocal:    8 ave 8 max 8 min
Histogram: 1 0 0 0 0 0 0 0 0 0
Nghost:    2189 ave 2189 max 2189 min
Histogram: 1 0 0 0 0 0 0 0 0 0
Neighs:    2472 ave 2472 max 2472 min
Histogram: 1 0 0 0 0 0 0 0 0 0

Total # of neighbors = 2472
Ave neighs/atom = 309
Neighbor list builds = 0
Dangerous builds = 0

# Obtain new stress tensor

variable tmp equal pe
variable e1 equal ${tmp}
variable e1 equal -269.127313865263
variable tmp equal press
variable p1 equal ${tmp}
variable p1 equal -515726.79697175
variable tmp equal pxx
variable pxx1 equal ${tmp}
variable pxx1 equal -515730.779288018
variable tmp equal pyy
variable pyy1 equal ${tmp}
variable pyy1 equal -515718.83234915
variable tmp equal pzz
variable pzz1 equal ${tmp}
variable pzz1 equal -515730.77927808
variable tmp equal pxy
variable pxy1 equal ${tmp}
variable pxy1 equal 0.0449120720977319
variable tmp equal pxz
variable pxz1 equal ${tmp}
variable pxz1 equal -2.31140440674229
variable tmp equal pyz
variable pyz1 equal ${tmp}
variable pyz1 equal 0.0449120392156172

# Compute elastic constant from pressure tensor

variable C1pos equal ${d1}
variable C1pos equal -41563922.2096402
variable C2pos equal ${d2}
variable C2pos equal -41565116.903527
variable C3pos equal ${d3}
variable C3pos equal -41563922.2106339
variable C4pos equal ${d4}
variable C4pos equal -4.49120388376028
variable C5pos equal ${d5}
variable C5pos equal 231.140440636251
variable C6pos equal ${d6}
variable C6pos equal -4.4912072258258

# Combine positive and negative

variable C1${dir} equal 0.5*(${C1neg}+${C1pos})
variable C15 equal 0.5*(${C1neg}+${C1pos})
variable C15 equal 0.5*(41563122.5952461+${C1pos})
variable C15 equal 0.5*(41563122.5952461+-41563922.2096402)
variable C2${dir} equal 0.5*(${C2neg}+${C2pos})
variable C25 equal 0.5*(${C2neg}+${C2pos})
variable C25 equal 0.5*(41565674.6819862+${C2pos})
variable C25 equal 0.5*(41565674.6819862+-41565116.903527)
variable C3${dir} equal 0.5*(${C3neg}+${C3pos})
variable C35 equal 0.5*(${C3neg}+${C3pos})
variable C35 equal 0.5*(41563122.5957936+${C3pos})
variable C35 equal 0.5*(41563122.5957936+-41563922.2106339)
variable C4${dir} equal 0.5*(${C4neg}+${C4pos})
variable C45 equal 0.5*(${C4neg}+${C4pos})
variable C45 equal 0.5*(1.66840878293058+${C4pos})
variable C45 equal 0.5*(1.66840878293058+-4.49120388376028)
variable C5${dir} equal 0.5*(${C5neg}+${C5pos})
variable C55 equal 0.5*(${C5neg}+${C5pos})
variable C55 equal 0.5*(329.638917471373+${C5pos})
variable C55 equal 0.5*(329.638917471373+231.140440636251)
variable C6${dir} equal 0.5*(${C6neg}+${C6pos})
variable C65 equal 0.5*(${C6neg}+${C6pos})
variable C65 equal 0.5*(1.66840464580789+${C6pos})
variable C65 equal 0.5*(1.66840464580789+-4.4912072258258)

# Delete dir to make sure it is not reused

variable dir delete
# ---- uxy Perturbation
variable dir equal 6
include displace.mod
# NOTE: This script should not need to be
# modified. See in.elastic for more info.
# Find which reference length to use

if "${dir} == 1" then    "variable len0 equal ${lx0}"
if "${dir} == 2" then    "variable len0 equal ${ly0}"
if "${dir} == 3" then    "variable len0 equal ${lz0}"
if "${dir} == 4" then    "variable len0 equal ${lz0}"
if "${dir} == 5" then    "variable len0 equal ${lz0}"
if "${dir} == 6" then    "variable len0 equal ${ly0}"
variable len0 equal ${ly0}
variable len0 equal 4.21393499999998

# Reset box and simulation parameters

clear
read_restart restart.equil remap
  triclinic box = (0.0212825 0.0212825 0.0212825) to (4.23522 4.23522 4.23522) with tilt (0 0 0)
  1 by 1 by 1 MPI processor grid
  8 atoms
include potential.mod
mass 1 24.305
mass 2 15.999

group Mg type 1
4 atoms in group Mg
group O type 2
4 atoms in group O

set group Mg charge 2.467095066210368
  4 settings made for charge
set group O charge -2.467095066210368
  4 settings made for charge

variable R_cut equal 10.0

pair_style buck/coul/long ${R_cut}
pair_style buck/coul/long 10
pair_coeff 1 1 0.0 0.5 0.0 ${R_cut}
pair_coeff 1 1 0.0 0.5 0.0 10
pair_coeff 1 2 935.4807786808233 0.3084619384680258 0.0 ${R_cut}
pair_coeff 1 2 935.4807786808233 0.3084619384680258 0.0 10
pair_coeff 2 2 12266.368986574063 0.11126335340408924 33.77611037763418 ${R_cut}
pair_coeff 2 2 12266.368986574063 0.11126335340408924 33.77611037763418 10

kspace_style pppm 1.0e-5

neighbor 1.0 bin
neigh_modify every 1 delay 0 check yes
thermo	1
thermo_style custom step temp pe press pxx pyy pzz pxy pxz pyz lx ly lz vol
thermo_modify norm no

# Negative deformation

variable delta equal -${up}*${len0}
variable delta equal -1e-06*${len0}
variable delta equal -1e-06*4.21393499999998
if "${dir} == 1" then    "change_box all x delta 0 ${delta} remap units box"
if "${dir} == 2" then    "change_box all y delta 0 ${delta} remap units box"
if "${dir} == 3" then    "change_box all z delta 0 ${delta} remap units box"
if "${dir} == 4" then    "change_box all yz delta ${delta} remap units box"
if "${dir} == 5" then    "change_box all xz delta ${delta} remap units box"
if "${dir} == 6" then    "change_box all xy delta ${delta} remap units box"
change_box all xy delta ${delta} remap units box
change_box all xy delta -4.21393499999998e-06 remap units box
  triclinic box = (0.0212825 0.0212825 0.0212825) to (4.23522 4.23522 4.23522) with tilt (-4.21393e-06 0 0)

# Relax atoms positions

minimize ${etol} ${ftol} ${maxiter} ${maxeval}
minimize 0 ${ftol} ${maxiter} ${maxeval}
minimize 0 1e-10 ${maxiter} ${maxeval}
minimize 0 1e-10 100 ${maxeval}
minimize 0 1e-10 100 1000
PPPM initialization ...
  using 12-bit tables for long-range coulomb (../kspace.cpp:321)
  G vector (1/distance) = 0.36205
  grid = 9 9 9
  stencil order = 5
  estimated absolute RMS force accuracy = 4.99595e-05
  estimated relative force accuracy = 3.46949e-06
  using double precision FFTs
  3d grid and FFT values/proc = 4096 729
Neighbor list info ...
  update every 1 steps, delay 0 steps, check yes
  max neighbors/atom: 2000, page size: 100000
  master list distance cutoff = 11
  ghost atom cutoff = 11
  binsize = 5.5, bins = 1 1 1
  1 neighbor lists, perpetual/occasional/extra = 1 0 0
  (1) pair buck/coul/long, perpetual
      attributes: half, newton on
      pair build: half/bin/newton/tri
      stencil: half/bin/3d/newton/tri
      bin: standard
Per MPI rank memory allocation (min/avg/max) = 4.682 | 4.682 | 4.682 Mbytes
Step Temp PotEng Press Pxx Pyy Pzz Pxy Pxz Pyz Lx Ly Lz Volume 
     100            0   -267.66419   -931369.41   -931369.44   -931369.44   -931369.36    3.3026681 2.8223413e-10 -5.9984145e-10     4.213935     4.213935     4.213935     74.82789 
     101            0   -267.66419   -931369.47   -931369.43   -931369.43   -931369.55    3.3208713 2.2767477e-11 -1.2489829e-10     4.213935     4.213935     4.213935     74.82789 
     102            0   -267.66471   -931290.05   -931290.11   -931290.11   -931289.94    3.4237559 0.0050151451 0.0050151506     4.213935     4.213935     4.213935     74.82789 
     103            0   -268.40346   -803983.62   -804001.33   -804001.33    -803948.2    13.124403 0.0035909667 0.0035911205     4.213935     4.213935     4.213935     74.82789 
     104            0   -268.89888   -643618.69   -643662.54   -643662.54   -643530.99    18.498741 -0.014746521 -0.014746241     4.213935     4.213935     4.213935     74.82789 
     105            0   -268.96298   -593400.59   -593453.41   -593453.41   -593294.96    19.069928  0.024360401  0.024360755     4.213935     4.213935     4.213935     74.82789 
     106            0   -268.98337   -565371.74   -565429.48   -565429.48   -565256.26    19.065532  0.013395288  0.013395648     4.213935     4.213935     4.213935     74.82789 
     107            0   -269.11046   -502683.15   -502736.92   -502736.92    -502575.6    13.730246 0.0092462871 0.0092465897     4.213935     4.213935     4.213935     74.82789 
     108            0   -269.12665   -506477.46   -506525.68   -506525.68   -506381.04    11.780093 -0.0033925659 -0.0033922996     4.213935     4.213935     4.213935     74.82789 
     109            0   -269.12716   -519118.76   -519143.52   -519143.52   -519069.24    11.473351 -0.030089396 -0.030089351     4.213935     4.213935     4.213935     74.82789 
     110            0   -269.12717   -519142.45   -519164.04   -519164.04   -519099.26    10.101513  0.048659473  0.048659548     4.213935     4.213935     4.213935     74.82789 
     111            0   -269.12727   -516160.22   -516174.33   -516174.33      -516132     4.233443 -0.0067707353 -0.0067708222     4.213935     4.213935     4.213935     74.82789 
     112            0   -269.12729   -516030.38   -516044.03   -516044.03    -516003.1    3.9502877  0.063307054  0.063307081     4.213935     4.213935     4.213935     74.82789 
     113            0   -269.12731   -515743.48   -515753.34   -515753.34   -515723.77     3.471787 -0.048450315 -0.048450316     4.213935     4.213935     4.213935     74.82789 
     114            0   -269.12731   -515730.27   -515738.78   -515738.78   -515713.25    3.2963891  0.016684046   0.01668408     4.213935     4.213935     4.213935     74.82789 
     115            0   -269.12731   -515730.27   -515738.78   -515738.78   -515713.25    3.2963891  0.016684046   0.01668408     4.213935     4.213935     4.213935     74.82789 
Loop time of 0.014693 on 1 procs for 15 steps with 8 atoms

102.1% CPU use with 1 MPI tasks x no OpenMP threads

Minimization stats:
  Stopping criterion = linesearch alpha is zero
  Energy initial, next-to-last, final = 
        -267.664189079     -269.127314676     -269.127314676
  Force two-norm initial, final = 0.000989392 0.000339047
  Force max component initial, final = 0.000220241 0.000152128
  Final line search alpha, max atom move = 0.0625 9.50798e-06
  Iterations, force evaluations = 15 38

MPI task timing breakdown:
Section |  min time  |  avg time  |  max time  |%varavg| %total
---------------------------------------------------------------
Pair    | 0.0068855  | 0.0068855  | 0.0068855  |   0.0 | 46.86
Kspace  | 0.0070431  | 0.0070431  | 0.0070431  |   0.0 | 47.94
Neigh   | 0          | 0          | 0          |   0.0 |  0.00
Comm    | 0.00049329 | 0.00049329 | 0.00049329 |   0.0 |  3.36
Output  | 0.00014591 | 0.00014591 | 0.00014591 |   0.0 |  0.99
Modify  | 0          | 0          | 0          |   0.0 |  0.00
Other   |            | 0.0001252  |            |       |  0.85

Nlocal:    8 ave 8 max 8 min
Histogram: 1 0 0 0 0 0 0 0 0 0
Nghost:    2189 ave 2189 max 2189 min
Histogram: 1 0 0 0 0 0 0 0 0 0
Neighs:    2472 ave 2472 max 2472 min
Histogram: 1 0 0 0 0 0 0 0 0 0

Total # of neighbors = 2472
Ave neighs/atom = 309
Neighbor list builds = 0
Dangerous builds = 0

# Obtain new stress tensor

variable tmp equal pxx
variable pxx1 equal ${tmp}
variable pxx1 equal -515738.775414375
variable tmp equal pyy
variable pyy1 equal ${tmp}
variable pyy1 equal -515738.775408425
variable tmp equal pzz
variable pzz1 equal ${tmp}
variable pzz1 equal -515713.254549074
variable tmp equal pxy
variable pxy1 equal ${tmp}
variable pxy1 equal 3.29638914280251
variable tmp equal pxz
variable pxz1 equal ${tmp}
variable pxz1 equal 0.0166840457779634
variable tmp equal pyz
variable pyz1 equal ${tmp}
variable pyz1 equal 0.0166840795759141

# Compute elastic constant from pressure tensor

variable C1neg equal ${d1}
variable C1neg equal 41563122.5970045
variable C2neg equal ${d2}
variable C2neg equal 41563122.5975995
variable C3neg equal ${d3}
variable C3neg equal 41565674.6835345
variable C4neg equal ${d4}
variable C4neg equal 1.66840791978997
variable C5neg equal ${d5}
variable C5neg equal 1.66840461577419
variable C6neg equal ${d6}
variable C6neg equal 329.638914296304

# Reset box and simulation parameters

clear
read_restart restart.equil remap
  triclinic box = (0.0212825 0.0212825 0.0212825) to (4.23522 4.23522 4.23522) with tilt (0 0 0)
  1 by 1 by 1 MPI processor grid
  8 atoms
include potential.mod
mass 1 24.305
mass 2 15.999

group Mg type 1
4 atoms in group Mg
group O type 2
4 atoms in group O

set group Mg charge 2.467095066210368
  4 settings made for charge
set group O charge -2.467095066210368
  4 settings made for charge

variable R_cut equal 10.0

pair_style buck/coul/long ${R_cut}
pair_style buck/coul/long 10
pair_coeff 1 1 0.0 0.5 0.0 ${R_cut}
pair_coeff 1 1 0.0 0.5 0.0 10
pair_coeff 1 2 935.4807786808233 0.3084619384680258 0.0 ${R_cut}
pair_coeff 1 2 935.4807786808233 0.3084619384680258 0.0 10
pair_coeff 2 2 12266.368986574063 0.11126335340408924 33.77611037763418 ${R_cut}
pair_coeff 2 2 12266.368986574063 0.11126335340408924 33.77611037763418 10

kspace_style pppm 1.0e-5

neighbor 1.0 bin
neigh_modify every 1 delay 0 check yes
thermo	1
thermo_style custom step temp pe press pxx pyy pzz pxy pxz pyz lx ly lz vol
thermo_modify norm no

# Positive deformation

variable delta equal ${up}*${len0}
variable delta equal 1e-06*${len0}
variable delta equal 1e-06*4.21393499999998
if "${dir} == 1" then    "change_box all x delta 0 ${delta} remap units box"
if "${dir} == 2" then    "change_box all y delta 0 ${delta} remap units box"
if "${dir} == 3" then    "change_box all z delta 0 ${delta} remap units box"
if "${dir} == 4" then    "change_box all yz delta ${delta} remap units box"
if "${dir} == 5" then    "change_box all xz delta ${delta} remap units box"
if "${dir} == 6" then    "change_box all xy delta ${delta} remap units box"
change_box all xy delta ${delta} remap units box
change_box all xy delta 4.21393499999998e-06 remap units box
  triclinic box = (0.0212825 0.0212825 0.0212825) to (4.23522 4.23522 4.23522) with tilt (4.21393e-06 0 0)

# Relax atoms positions

minimize ${etol} ${ftol} ${maxiter} ${maxeval}
minimize 0 ${ftol} ${maxiter} ${maxeval}
minimize 0 1e-10 ${maxiter} ${maxeval}
minimize 0 1e-10 100 ${maxeval}
minimize 0 1e-10 100 1000
PPPM initialization ...
  using 12-bit tables for long-range coulomb (../kspace.cpp:321)
  G vector (1/distance) = 0.36205
  grid = 9 9 9
  stencil order = 5
  estimated absolute RMS force accuracy = 4.99596e-05
  estimated relative force accuracy = 3.4695e-06
  using double precision FFTs
  3d grid and FFT values/proc = 4096 729
Neighbor list info ...
  update every 1 steps, delay 0 steps, check yes
  max neighbors/atom: 2000, page size: 100000
  master list distance cutoff = 11
  ghost atom cutoff = 11
  binsize = 5.5, bins = 1 1 1
  1 neighbor lists, perpetual/occasional/extra = 1 0 0
  (1) pair buck/coul/long, perpetual
      attributes: half, newton on
      pair build: half/bin/newton/tri
      stencil: half/bin/3d/newton/tri
      bin: standard
Per MPI rank memory allocation (min/avg/max) = 4.682 | 4.682 | 4.682 Mbytes
Step Temp PotEng Press Pxx Pyy Pzz Pxy Pxz Pyz Lx Ly Lz Volume 
     100            0   -267.66419   -931369.41   -931369.44   -931369.44   -931369.36   -3.3026681 3.0014411e-10 -2.9374817e-10     4.213935     4.213935     4.213935     74.82789 
     101            0   -267.66419   -931369.47   -931369.43   -931369.43   -931369.55   -3.3208713 -2.1833357e-10 7.1530705e-10     4.213935     4.213935     4.213935     74.82789 
     102            0   -267.66471   -931290.07   -931290.12   -931290.12   -931289.97    -3.438858 1.2665863e-07 1.2722805e-07     4.213935     4.213935     4.213935     74.82789 
     103            0   -268.40346   -803983.54   -804001.28   -804001.28   -803948.06   -13.082089  -0.01704035 -0.017039994     4.213935     4.213935     4.213935     74.82789 
     104            0   -268.89888   -643618.81   -643662.65   -643662.65   -643531.12   -18.559303 0.0069612822 0.0069620086     4.213935     4.213935     4.213935     74.82789 
     105            0   -268.96299   -593400.68   -593453.55   -593453.55   -593294.94   -19.065403 -0.028626966 -0.028626089     4.213935     4.213935     4.213935     74.82789 
     106            0   -268.98337   -565371.72   -565429.44   -565429.44   -565256.29   -19.030367 -0.0093748613 -0.0093739462     4.213935     4.213935     4.213935     74.82789 
     107            0   -269.11047   -502683.31   -502737.15   -502737.15   -502575.64   -13.797379 -0.021156803 -0.021156059     4.213935     4.213935     4.213935     74.82789 
     108            0   -269.12665   -506477.53   -506525.75   -506525.75   -506381.09    -11.87404 -0.017106206 -0.017105671     4.213935     4.213935     4.213935     74.82789 
     109            0   -269.12716   -519119.17   -519143.91   -519143.91   -519069.68   -11.451802 0.0066961241 0.0066961525     4.213935     4.213935     4.213935     74.82789 
     110            0   -269.12716   -519142.79    -519164.3    -519164.3   -519099.78   -10.051124 -0.021480039 -0.021480026     4.213935     4.213935     4.213935     74.82789 
     111            0   -269.12727    -516160.5   -516174.56   -516174.56   -516132.37   -4.2203035  0.037916471  0.037916372     4.213935     4.213935     4.213935     74.82789 
     112            0   -269.12729   -516030.59   -516044.23   -516044.23   -516003.31   -3.9324942  0.026341122  0.026341062     4.213935     4.213935     4.213935     74.82789 
     113            0    -269.1273   -515743.12   -515752.99   -515752.99   -515723.38   -3.5480826  -0.07321872 -0.073218615     4.213935     4.213935     4.213935     74.82789 
     114            0   -269.12731   -515730.04   -515738.59   -515738.59   -515712.95   -3.3410088 0.0098150014  0.009815002     4.213935     4.213935     4.213935     74.82789 
     115            0   -269.12731    -515726.8   -515730.77   -515730.77   -515718.86    -2.349258  0.050019282  0.050019188     4.213935     4.213935     4.213935     74.82789 
     116            0   -269.12732   -515726.02   -515727.97   -515727.97   -515722.11   -2.0665201 -0.010717889 -0.010717907     4.213935     4.213935     4.213935     74.82789 
     117            0   -269.12732   -515726.02   -515727.97   -515727.97   -515722.11   -2.0665201 -0.010717889 -0.010717907     4.213935     4.213935     4.213935     74.82789 
Loop time of 0.0149591 on 1 procs for 17 steps with 8 atoms

100.3% CPU use with 1 MPI tasks x no OpenMP threads

Minimization stats:
  Stopping criterion = linesearch alpha is zero
  Energy initial, next-to-last, final = 
        -267.664189079     -269.127315541     -269.127315541
  Force two-norm initial, final = 0.000989392 8.12813e-05
  Force max component initial, final = 0.000220241 4.11233e-05
  Final line search alpha, max atom move = 0.5 2.05616e-05
  Iterations, force evaluations = 17 38

MPI task timing breakdown:
Section |  min time  |  avg time  |  max time  |%varavg| %total
---------------------------------------------------------------
Pair    | 0.0069537  | 0.0069537  | 0.0069537  |   0.0 | 46.48
Kspace  | 0.0072284  | 0.0072284  | 0.0072284  |   0.0 | 48.32
Neigh   | 0          | 0          | 0          |   0.0 |  0.00
Comm    | 0.00050068 | 0.00050068 | 0.00050068 |   0.0 |  3.35
Output  | 0.00015211 | 0.00015211 | 0.00015211 |   0.0 |  1.02
Modify  | 0          | 0          | 0          |   0.0 |  0.00
Other   |            | 0.0001242  |            |       |  0.83

Nlocal:    8 ave 8 max 8 min
Histogram: 1 0 0 0 0 0 0 0 0 0
Nghost:    2189 ave 2189 max 2189 min
Histogram: 1 0 0 0 0 0 0 0 0 0
Neighs:    2472 ave 2472 max 2472 min
Histogram: 1 0 0 0 0 0 0 0 0 0

Total # of neighbors = 2472
Ave neighs/atom = 309
Neighbor list builds = 0
Dangerous builds = 0

# Obtain new stress tensor

variable tmp equal pe
variable e1 equal ${tmp}
variable e1 equal -269.127315541158
variable tmp equal press
variable p1 equal ${tmp}
variable p1 equal -515726.017062163
variable tmp equal pxx
variable pxx1 equal ${tmp}
variable pxx1 equal -515727.969970851
variable tmp equal pyy
variable pyy1 equal ${tmp}
variable pyy1 equal -515727.969962422
variable tmp equal pzz
variable pzz1 equal ${tmp}
variable pzz1 equal -515722.111253217
variable tmp equal pxy
variable pxy1 equal ${tmp}
variable pxy1 equal -2.0665201299812
variable tmp equal pxz
variable pxz1 equal ${tmp}
variable pxz1 equal -0.0107178888849266
variable tmp equal pyz
variable pyz1 equal ${tmp}
variable pyz1 equal -0.0107179073307147

# Compute elastic constant from pressure tensor

variable C1pos equal ${d1}
variable C1pos equal -41564203.1413569
variable C2pos equal ${d2}
variable C2pos equal -41564203.1421998
variable C3pos equal ${d3}
variable C3pos equal -41564789.0131202
variable C4pos equal ${d4}
variable C4pos equal 1.07179077087291
variable C5pos equal ${d5}
variable C5pos equal 1.07178885051481
variable C6pos equal ${d6}
variable C6pos equal 206.652012982067

# Combine positive and negative

variable C1${dir} equal 0.5*(${C1neg}+${C1pos})
variable C16 equal 0.5*(${C1neg}+${C1pos})
variable C16 equal 0.5*(41563122.5970045+${C1pos})
variable C16 equal 0.5*(41563122.5970045+-41564203.1413569)
variable C2${dir} equal 0.5*(${C2neg}+${C2pos})
variable C26 equal 0.5*(${C2neg}+${C2pos})
variable C26 equal 0.5*(41563122.5975995+${C2pos})
variable C26 equal 0.5*(41563122.5975995+-41564203.1421998)
variable C3${dir} equal 0.5*(${C3neg}+${C3pos})
variable C36 equal 0.5*(${C3neg}+${C3pos})
variable C36 equal 0.5*(41565674.6835345+${C3pos})
variable C36 equal 0.5*(41565674.6835345+-41564789.0131202)
variable C4${dir} equal 0.5*(${C4neg}+${C4pos})
variable C46 equal 0.5*(${C4neg}+${C4pos})
variable C46 equal 0.5*(1.66840791978997+${C4pos})
variable C46 equal 0.5*(1.66840791978997+1.07179077087291)
variable C5${dir} equal 0.5*(${C5neg}+${C5pos})
variable C56 equal 0.5*(${C5neg}+${C5pos})
variable C56 equal 0.5*(1.66840461577419+${C5pos})
variable C56 equal 0.5*(1.66840461577419+1.07178885051481)
variable C6${dir} equal 0.5*(${C6neg}+${C6pos})
variable C66 equal 0.5*(${C6neg}+${C6pos})
variable C66 equal 0.5*(329.638914296304+${C6pos})
variable C66 equal 0.5*(329.638914296304+206.652012982067)

# Delete dir to make sure it is not reused

variable dir delete

# ---- Output final values
variable C11all equal ${C11}
variable C11all equal 76.7466921999584
variable C22all equal ${C22}
variable C22all equal 76.7466922989115
variable C33all equal ${C33}
variable C33all equal 76.7466925026382
variable C12all equal 0.5*(${C12}+${C21})
variable C12all equal 0.5*(336.995977448533+${C21})
variable C12all equal 0.5*(336.995977448533+336.995977599872)
variable C13all equal 0.5*(${C13}+${C31})
variable C13all equal 0.5*(336.995977553306+${C31})
variable C13all equal 0.5*(336.995977553306+336.995977547485)
variable C23all equal 0.5*(${C23}+${C32})
variable C23all equal 0.5*(336.995977547485+${C32})
variable C23all equal 0.5*(336.995977547485+336.995977553306)
variable C44all equal ${C44}
variable C44all equal 235.469106288193
variable C55all equal ${C55}
variable C55all equal 280.389679053812
variable C66all equal ${C66}
variable C66all equal 268.145463639185
variable C14all equal 0.5*(${C14}+${C41})
variable C14all equal 0.5*(-7.48358570039272+${C41})
variable C14all equal 0.5*(-7.48358570039272+3.28984519622959e-08)
variable C15all equal 0.5*(${C15}+${C51})
variable C15all equal 0.5*(-399.80719704926+${C51})
variable C15all equal 0.5*(-399.80719704926+2.62591768129886e-08)
variable C16all equal 0.5*(${C16}+${C61})
variable C16all equal 0.5*(-540.272176198661+${C61})
variable C16all equal 0.5*(-540.272176198661+7.95108780106529e-09)
variable C24all equal 0.5*(${C24}+${C42})
variable C24all equal 0.5*(6.73638769984245+${C42})
variable C24all equal 0.5*(6.73638769984245+1.74089847508775e-09)
variable C25all equal 0.5*(${C25}+${C52})
variable C25all equal 0.5*(278.889229599386+${C52})
variable C25all equal 0.5*(278.889229599386+8.97563056980955e-09)
variable C26all equal 0.5*(${C26}+${C62})
variable C26all equal 0.5*(-540.272300150245+${C62})
variable C26all equal 0.5*(-540.272300150245+3.1446098216623e-08)
variable C34all equal 0.5*(${C34}+${C43})
variable C34all equal 0.5*(6.73623485118151+${C43})
variable C34all equal 0.5*(6.73623485118151+-3.0111091925367e-09)
variable C35all equal 0.5*(${C35}+${C53})
variable C35all equal 0.5*(-399.807420149446+${C53})
variable C35all equal 0.5*(-399.807420149446+-2.13670228208948e-08)
variable C36all equal 0.5*(${C36}+${C63})
variable C36all equal 0.5*(442.835207153112+${C63})
variable C36all equal 0.5*(442.835207153112+6.50320829809034e-08)
variable C45all equal 0.5*(${C45}+${C54})
variable C45all equal 0.5*(-1.41139755041485+${C54})
variable C45all equal 0.5*(-1.41139755041485+-1.08745946343706)
variable C46all equal 0.5*(${C46}+${C64})
variable C46all equal 0.5*(1.37009934533144+${C64})
variable C46all equal 0.5*(1.37009934533144+-1.08745821718908)
variable C56all equal 0.5*(${C56}+${C65})
variable C56all equal 0.5*(1.3700967331445+${C65})
variable C56all equal 0.5*(1.3700967331445+-1.41140129000895)

print "c11 = ${C11all} ${cunits}"
c11 = 76.7466921999584 GPa
print "c22 = ${C22all} ${cunits}"
c22 = 76.7466922989115 GPa
print "c33 = ${C33all} ${cunits}"
c33 = 76.7466925026382 GPa
print "c12 = ${C12all} ${cunits}"
c12 = 336.995977524202 GPa
print "c13 = ${C13all} ${cunits}"
c13 = 336.995977550395 GPa
print "c23 = ${C23all} ${cunits}"
c23 = 336.995977550395 GPa
print "c44 = ${C44all} ${cunits}"
c44 = 235.469106288193 GPa
print "c55 = ${C55all} ${cunits}"
c55 = 280.389679053812 GPa
print "c66 = ${C66all} ${cunits}"
c66 = 268.145463639185 GPa
print "c14 = ${C14all} ${cunits}"
c14 = -3.74179283374713 GPa
print "c15 = ${C15all} ${cunits}"
c15 = -199.9035985115 GPa
print "c16 = ${C16all} ${cunits}"
c16 = -270.136088095355 GPa
print "c24 = ${C24all} ${cunits}"
c24 = 3.36819385079167 GPa
print "c25 = ${C25all} ${cunits}"
c25 = 139.444614804181 GPa
print "c26 = ${C26all} ${cunits}"
c26 = -270.136150059399 GPa
print "c34 = ${C34all} ${cunits}"
c34 = 3.3681174240852 GPa
print "c35 = ${C35all} ${cunits}"
c35 = -199.903710085407 GPa
print "c36 = ${C36all} ${cunits}"
c36 = 221.417603609072 GPa
print "c45 = ${C45all} ${cunits}"
c45 = -1.24942850692595 GPa
print "c46 = ${C46all} ${cunits}"
c46 = 0.14132056407118 GPa
print "c56 = ${C56all} ${cunits}"
c56 = -0.0206522784322251 GPa
print "lammps_sim_done"
lammps_sim_done
Total wall time: 0:00:00
