LAMMPS (10 Feb 2015)
# ---- initialize simulations
clear
units metal
dimension 3
boundary p p p
atom_style charge
atom_modify map array
# ---- create atoms
read_data /Users/eugeneragasa/pyflamestk_git/pypospack/tests/tests_integration/workflow/WorkflowLammpsThermalExpansion/param_3867/MgO_NaCl_unit.npt.T200/lammps.structure
  triclinic box = (0 0 0) to (4.2565 4.2565 4.2565) with tilt (0 0 0)
  1 by 1 by 1 MPI processor grid
  reading atoms ...
  8 atoms
# ---- define interatomic potential
include potential.mod
mass 1 24.305
mass 2 15.999

group Mg type 1
4 atoms in group Mg
group O type 2
4 atoms in group O

set group Mg charge 1.73479148785
  4 settings made for charge
set group O charge -1.73479148785
  4 settings made for charge

variable R_cut equal 10.0

pair_style buck/coul/long ${R_cut}
pair_style buck/coul/long 10
pair_coeff 1 1 0.0 0.5 0.0 ${R_cut}
pair_coeff 1 1 0.0 0.5 0.0 10
pair_coeff 1 2 1225.32983502 0.291530354982 0.0 ${R_cut}
pair_coeff 1 2 1225.32983502 0.291530354982 0.0 10
pair_coeff 2 2 16858.6500597 0.120403294253 7.45918898041 ${R_cut}
pair_coeff 2 2 16858.6500597 0.120403294253 7.45918898041 10

kspace_style pppm 1.0e-5

neighbor 1.0 bin
neigh_modify every 1 delay 0 check yes
# ---- define settings
compute eng all pe/atom
compute eatoms all reduce sum c_eng
# ---- run minimization
reset_timestep 0
fix 1 all box/relax iso 0.0 vmax 0.001
thermo 10
thermo_style custom step pe lx ly lz xy xz yz press pxx pyy pzz pxy pxz pyz c_eatoms
min_style cg
minimize 1e-25 1e-25 5000 10000
PPPM initialization ...
  G vector (1/distance) = 0.3534
  grid = 8 8 8
  stencil order = 5
  estimated absolute RMS force accuracy = 4.23269e-05
  estimated relative force accuracy = 2.93944e-06
  using double precision FFTs
  3d grid and FFT values/proc = 3375 512
Neighbor list info ...
  1 neighbor list requests
  update every 1 steps, delay 0 steps, check yes
  master list distance cutoff = 11
Memory usage per processor = 4.06549 Mbytes
Step PotEng Lx Ly Lz Xy Xz Yz Press Pxx Pyy Pzz Pxy Pxz Pyz eatoms 
       0   -122.62677       4.2565       4.2565       4.2565            0            0            0    18600.794    18600.794    18600.794    18600.794 4.9707872e-11 4.7042733e-11 1.8950886e-10   -122.62677 
       5   -122.63132    4.2712858    4.2712858    4.2712858            0            0            0   -6.7076035   -6.7076035   -6.7076035   -6.7076035 9.5134085e-11 4.9732958e-12 8.6603347e-11   -122.63132 
Loop time of 0.0076282 on 1 procs for 5 steps with 8 atoms

Minimization stats:
  Stopping criterion = linesearch alpha is zero
  Energy initial, next-to-last, final = 
        -122.626768711     -122.631316441     -122.631316441
  Force two-norm initial, final = 2.68597 0.0019334
  Force max component initial, final = 2.68596 0.000975322
  Final line search alpha, max atom move = 0.00390625 3.80985e-06
  Iterations, force evaluations = 5 22

Pair  time (%) = 0.00201511 (26.4166)
Kspce time (%) = 0.00119734 (15.6962)
Neigh time (%) = 0 (0)
Comm  time (%) = 0.00023222 (3.04423)
Outpt time (%) = 0 (0)
Other time (%) = 0.00418353 (54.8429)

Nlocal:    8 ave 8 max 8 min
Histogram: 1 0 0 0 0 0 0 0 0 0
Nghost:    2189 ave 2189 max 2189 min
Histogram: 1 0 0 0 0 0 0 0 0 0
Neighs:    2344 ave 2344 max 2344 min
Histogram: 1 0 0 0 0 0 0 0 0 0

Total # of neighbors = 2344
Ave neighs/atom = 293
Neighbor list builds = 0
Dangerous builds = 0
unfix 1
# ---- define output variables ----
variable natoms equal "count(all)"
variable tot_energy equal "c_eatoms"
variable length_x equal "lx"
variable length_y equal "ly"
variable length_z equal "lz"
variable tilt_xy equal "xy"
variable tilt_xz equal "xz"
variable tilt_yz equal "yz"
variable tot_press equal "press"
variable press_xx equal "pxx"
variable press_yy equal "pyy"
variable press_zz equal "pzz"
variable press_xy equal "pxy"
variable press_xz equal "pxz"
variable press_yz equal "pyz"

# ---- output ----
print "pypospack:output_section:begin"
pypospack:output_section:begin
print "tot_energy = ${tot_energy}"
tot_energy = -122.631316441343
print "num_atoms = ${natoms}"
num_atoms = 8
print "xx = ${length_x}"
xx = 4.27128583299446
print "yy = ${length_y}"
yy = 4.27128583299446
print "zz = ${length_z}"
zz = 4.27128583299446
print "xy = ${tilt_xy}"
xy = 0
print "xz = ${tilt_xz}"
xz = 0
print "yz = ${tilt_yz}"
yz = 0
print "tot_press = ${tot_press}"
tot_press = -6.70760353710228
print "pxx = ${press_xx}"
pxx = -6.70760353705429
print "pyy = ${press_yy}"
pyy = -6.70760353725253
print "pzz = ${press_zz}"
pzz = -6.70760353700002
print "pxy = ${press_xy}"
pxy = 9.51340852761742e-11
print "pxz = ${press_xz}"
pxz = 4.97329584958765e-12
print "pyz = ${press_yz}"
pyz = 8.66033470907354e-11
print "pypospack:output_section:done"
pypospack:output_section:done
print "pypospack:lammps_sim:done"
pypospack:lammps_sim:done
#------------------------------------------------------------------------------
# RUN THERMOSTAT
# running using an NPT Nose-Hoover style thermostat
#------------------------------------------------------------------------------
variable tempdamp equal 0.1
variable pressdamp equal 1.0
# set initial velocities
velocity all create 200 1751014 mom yes dist gaussian loop all
# fix for Nose-Hoover style thermostat
fix 20 all npt temp 200 200 0.1 aniso 0.0 0.0 1.0 drag 1.0 couple xyz
variable boxx equal lx
variable boxy equal ly
variable boxz equal lz
variable boxp equal press
variable boxt equal temp
# calculate averages every 10000 steps
reset_timestep 0
fix 21 all ave/time 10 10 100 v_boxx v_boxy v_boxz v_boxp v_boxt file lattice.out
thermo_style custom step temp pe ke etotal press lx ly lz press pxx pyy pzz pxy pxz pyz vol
thermo_modify flush yes
thermo 100
run 100000
PPPM initialization ...
  G vector (1/distance) = 0.353246
  grid = 8 8 8
  stencil order = 5
  estimated absolute RMS force accuracy = 4.26311e-05
  estimated relative force accuracy = 2.96057e-06
  using double precision FFTs
  3d grid and FFT values/proc = 3375 512
Memory usage per processor = 3.06549 Mbytes
Step Temp PotEng KinEng TotEng Press Lx Ly Lz Press Pxx Pyy Pzz Pxy Pxz Pyz Volume 
       0          200   -122.63132    0.1809642   -122.45036    2473.1801    4.2712858    4.2712858    4.2712858    2473.1801    675.79037    3641.1541    3102.5958    274.42734   -427.14199     -536.509    77.924838 
     100    98.624353    -122.5148  0.089237387   -122.42556   -1688.9406    4.2763326    4.2763326    4.2763326   -1688.9406   -4615.8037   -541.92353    90.905298    86.731919    62.283475   -555.90978    78.201382 
     200    106.42348   -122.47469  0.096294203    -122.3784   -6265.6127    4.2774461    4.2774461    4.2774461   -6265.6127   -7572.9415    -7221.017   -4002.8796   -1388.3511   -38.186015   -4428.1925    78.262484 
     300    79.589818   -122.40502   0.07201454   -122.33301    6246.1059    4.2753345    4.2753345    4.2753345    6246.1059   -3905.4841     8822.733    13821.069   -658.81915   -222.61276   -1927.2452    78.146638 
     400    222.39255    -122.5014   0.20122545   -122.30017    3034.0499    4.2764208    4.2764208    4.2764208    3034.0499   -4149.0988    7192.7972    6058.4512    353.71152   -766.44506    2022.3598    78.206218 
     500    287.09081   -122.53878    0.2597658   -122.27901   -1298.8715    4.2793381    4.2793381    4.2793381   -1298.8715   -8474.5733    1727.4253    2850.5335    183.49968    61.503185   -306.56618    78.366384 
     600    135.19826    -122.3936   0.12233023   -122.27127    4290.8627    4.2779769    4.2779769    4.2779769    4290.8627   -5900.2612    10931.841    7841.0087   -386.96794   -854.77221   -3194.2179    78.291625 
     700    156.88561   -122.41091   0.14195339   -122.26895   -4891.6194    4.2760971    4.2760971    4.2760971   -4891.6194   -7055.5114   -4864.8001   -2754.5466   -1902.6147   -1075.3614    -8000.601    78.188462 
     800    166.94202   -122.42018   0.15105265   -122.26913   -3242.5692    4.2805883    4.2805883    4.2805883   -3242.5692   -10554.182    -2276.018    3102.4919    573.74268    1309.4258   -479.88334    78.435087 
     900    329.33143   -122.56565     0.297986   -122.26766   -985.39381    4.2797185    4.2797185    4.2797185   -985.39381   -8050.8944   -1261.9043    6356.6173   -78.554709    621.72033     3322.378    78.387282 
    1000    217.66092   -122.46631   0.19694418   -122.26936    3597.4802    4.2744945    4.2744945    4.2744945    3597.4802   -2575.1983    3240.4593     10127.18   -709.20937    353.84239   -1354.9957    78.100587 
    1100    142.93535   -122.39985   0.12933091   -122.27052   -5389.3276    4.2797659    4.2797659    4.2797659   -5389.3276   -8057.6866    -7415.491   -694.80539   -662.06423   -1997.4359   -6227.8029    78.389889 
    1200    139.85125   -122.39708   0.12654035   -122.27054   -2192.2635    4.2811473    4.2811473    4.2811473   -2192.2635   -10545.374    570.96946    3397.6143   -971.42001    -893.4263   -4147.2265     78.46582 
    1300    227.06738   -122.47445   0.20545533   -122.26899    5539.3277    4.2745189    4.2745189    4.2745189    5539.3277     -2751.23    12276.904    7092.3091    1262.1057    -126.1762    1396.2475    78.101922 
    1400    275.35035   -122.51744   0.24914278   -122.26829    1920.6981    4.2780908    4.2780908    4.2780908    1920.6981   -5334.9317    1989.1491    9107.8769   -470.16403    403.37079    1367.7824    78.297881 
    1500    138.65609   -122.39577   0.12545895   -122.27031    1694.4951    4.2805909    4.2805909    4.2805909    1694.4951   -10165.042    6329.3178    8919.2099   -663.53439    1096.5732   -2704.1144    78.435231 
    1600    136.20779   -122.39398   0.12324367   -122.27074   -2360.9522    4.2754885    4.2754885    4.2754885   -2360.9522   -4707.6542   -1516.3992   -858.80317   -1657.3911   -1398.1461   -5358.5785    78.155081 
    1700    196.03923   -122.44756   0.17738042   -122.27018   -3539.5016    4.2790532    4.2790532    4.2790532   -3539.5016   -9713.4986   -1614.5403    709.53411   -615.56734   -930.75958   -2421.7925    78.350735 
    1800    326.46318    -122.5638   0.29539075   -122.26841   -2998.5727    4.2809389    4.2809389    4.2809389   -2998.5727   -9835.2128   -1757.2812    2596.7759    1402.6264   -1686.8236    1139.6738     78.45436 
    1900    239.08562   -122.48566   0.21632969   -122.26933    3912.5346    4.2740349    4.2740349    4.2740349    3912.5346    -1361.995    3900.7557    9198.8432   -1412.7755   -258.30029   -1393.8712    78.075396 
    2000    129.57672   -122.38793   0.11724374   -122.27069   -1952.9491    4.2785131    4.2785131    4.2785131   -1952.9491   -8893.7566   -4803.8882    7838.7976    -825.0025    459.29006   -5842.6729    78.321067 
    2100    124.28394   -122.38328   0.11245472   -122.27083   -4204.8907    4.2824783    4.2824783    4.2824783   -4204.8907   -11566.326   -2245.9839    1197.6375   -611.55461    473.18235   -2466.6425    78.539028 
    2200    201.08231    -122.4514    0.1819435   -122.26946    5556.1964    4.2744409    4.2744409    4.2744409    5556.1964   -5215.2033    15283.889    6599.9036    112.77675    801.19222    746.40532    78.097645 
    2300     308.1952   -122.54715   0.27886149   -122.26829    1110.2058    4.2767024    4.2767024    4.2767024    1110.2058   -3316.7741    2764.7523    3882.6392     126.4888   -303.20465    1695.0167    78.221669 
    2400    161.79909   -122.41662   0.14639921   -122.27022   -373.58238    4.2815839    4.2815839    4.2815839   -373.58238   -10619.363    5854.5843    3644.0311   -1386.3291   -826.31858   -3587.5484    78.489825 
    2500    147.53931   -122.40424   0.13349667   -122.27074   -2888.6234    4.2769918    4.2769918    4.2769918   -2888.6234   -6795.3306   -3433.3715    1562.8317   -513.50804   -2406.9376    -7523.433    78.237555 
    2600    154.55491   -122.41047   0.13984453   -122.27063      2132.08    4.2771771    4.2771771    4.2771771      2132.08   -7142.0956    645.51799    12892.818    157.36818     527.1294   -1359.0673    78.247722 
    2700    307.14912   -122.54639   0.27791498   -122.26847   -1762.9045    4.2802035    4.2802035    4.2802035   -1762.9045   -10379.607   -69.704812     5160.598    941.68259    1379.4878    2225.8269    78.413938 
    2800    258.48607     -122.503   0.23388363   -122.26912   -561.12258    4.2765762    4.2765762    4.2765762   -561.12258   -3767.4089    517.54849    1566.4926    -1240.858    1050.3789    -1095.667    78.214745 
    2900    153.30545   -122.40907   0.13871399   -122.27035   -2717.4941    4.2784058    4.2784058    4.2784058   -2717.4941   -8836.0289   -3117.5429    3801.0895   -1721.1688    -857.7391   -5433.1481    78.315173 
    3000    136.36561   -122.39384   0.12338647   -122.27045   -2759.0239    4.2806825    4.2806825    4.2806825   -2759.0239   -10718.104   -1245.3392     3686.372    113.76615   -1046.0514   -3898.1886    78.440266 
    3100    163.46424   -122.41749   0.14790588   -122.26958    5955.8901    4.2756131    4.2756131    4.2756131    5955.8901   -6141.7931    16831.427    7178.0368    462.22063    1078.3482    1978.2051    78.161916 
    3200    292.45698    -122.5327   0.26462122   -122.26808    1332.1854    4.2773325    4.2773325    4.2773325    1332.1854    -5611.789    58.899209    9549.4461    7.6249189   -768.89151   -31.956333    78.256252 
    3300    171.27028   -122.42472   0.15496895   -122.26975    750.12011    4.2805098    4.2805098    4.2805098    750.12011   -8706.7304    8396.6597     2560.431   -880.93541    839.58533   -2585.3308    78.430771 
    3400    172.61195   -122.42652   0.15618292   -122.27033   -5017.1956    4.2774395    4.2774395    4.2774395   -5017.1956   -5584.6434   -3321.0545   -6145.8889   -141.71505    196.66862   -7076.5968    78.262123 
    3500    174.29629   -122.42836   0.15770695   -122.27065   -241.99287    4.2774822    4.2774822    4.2774822   -241.99287   -8012.2508   -2229.6833    9515.9555   -247.97213   -7.0579973   -1146.1452    78.264467 
    3600    271.02365   -122.51415   0.24522789   -122.26892    810.14275    4.2792327    4.2792327    4.2792327    810.14275   -7952.4622    3695.5056    6687.3849    102.47566    89.701955    2056.2207    78.360594 
    3700    243.49721   -122.48912   0.22032139   -122.26879   -356.83508    4.2777626    4.2777626    4.2777626   -356.83508   -5650.2671   -1801.7928    6381.5547   -601.69991   -471.61657   -3467.5931     78.27986 
    3800    149.28735   -122.40534   0.13507833   -122.27026   -1508.8618    4.2784546    4.2784546    4.2784546   -1508.8618   -8081.3237   -1758.0896    5312.8278   -1026.6137    27.909211   -4396.8533    78.317853 
    3900     148.7983   -122.40509   0.13463583   -122.27045   -1569.0627    4.2785219    4.2785219    4.2785219   -1569.0627   -9319.9707     5674.786   -1062.0033    731.15817   -1298.3902   -4039.8663    78.321551 
    4000    197.24746   -122.44824   0.17847365   -122.26977    898.22821    4.2770951    4.2770951    4.2770951    898.22821   -8926.7096    13559.426   -1938.0314    -220.9954    840.08465    2715.4989    78.243222 
    4100    259.77405   -122.50387   0.23504902   -122.26883    1434.2217    4.2787936    4.2787936    4.2787936    1434.2217   -6523.5666     1915.393    8910.8386    74.271091    410.86469    356.22206    78.336472 
    4200    196.81623   -122.44777   0.17808346   -122.26968    2365.4554     4.278527     4.278527     4.278527    2365.4554   -7794.3206     8392.014    6498.6727   -854.04822   -5.2916194   -2836.6993    78.321833 
    4300    141.63865   -122.39855   0.12815763    -122.2704   -1162.5252     4.276808     4.276808     4.276808   -1162.5252   -3326.6647   -2011.0628    1850.1518   -284.39896    359.30726   -8737.0924    78.227467 
    4400    176.94651   -122.43021   0.16010492   -122.27011   -3779.3724     4.279098     4.279098     4.279098   -3779.3724       -10026   -5491.9022    4179.7849    2234.3012    1116.0914   -2499.0847    78.353192 
    4500    283.16831   -122.52485   0.25621663   -122.26863   -3847.5128    4.2797823    4.2797823    4.2797823   -3847.5128   -8943.5701    686.50136   -3285.4698    970.07287    744.94743    2904.3387    78.390789 
    4600    236.41467   -122.48233   0.21391296   -122.26842    960.51272    4.2765082    4.2765082    4.2765082    960.51272   -317.48749     3812.064   -613.03832   -32.944479    -1188.854   -3729.5441    78.211018 
    4700    192.81321   -122.44366   0.17446145    -122.2692   -2037.8018    4.2784874    4.2784874    4.2784874   -2037.8018    -7798.087   -3252.0651    4936.7468   -1397.3851   -908.82417   -3648.4034    78.319654 
    4800    97.136864   -122.35802  0.087891476   -122.27013    2566.6673    4.2794265    4.2794265    4.2794265    2566.6673    -8635.889     12937.86    3398.0307    5.9224766   -563.68881   -3589.9288    78.371237 
    4900    209.78677   -122.45896   0.18981948   -122.26914    1467.9542    4.2765207    4.2765207    4.2765207    1467.9542   -7943.0609    10307.064    2039.8597    1431.8209     1479.578    2395.9732    78.211701 
    5000      229.173   -122.47612   0.20736055   -122.26876    3255.4782    4.2782118    4.2782118    4.2782118    3255.4782   -5447.0901    7208.6925    8004.8321    464.94991    656.24755   -462.07732    78.304522 
    5100    230.98612   -122.47802    0.2090011   -122.26902   -559.66985    4.2797989    4.2797989    4.2797989   -559.66985   -7273.1727    8895.6111   -3301.4479    672.88085   -432.98726   -3004.6801    78.391701 
    5200    178.14385   -122.43069    0.1611883    -122.2695   -2925.4994    4.2769668    4.2769668    4.2769668   -2925.4994   -5273.5617   -513.87223   -2989.0643    862.95983   -346.04636   -6074.3288    78.236182 
    5300    149.48649   -122.40514   0.13525852   -122.26988   -2695.6164    4.2788092    4.2788092    4.2788092   -2695.6164   -8846.6742   -774.66479    1534.4898     664.1076    -386.4308   -417.90441    78.337332 
    5400    271.80623   -122.51498   0.24593598   -122.26904   -5066.8593    4.2803978    4.2803978    4.2803978   -5066.8593   -11152.267   -3152.0181   -896.29298   -565.91509    656.34322    2023.6228    78.424615 
    5500    193.94235   -122.44489   0.17548312   -122.26941     5685.945     4.275231     4.275231     4.275231     5685.945    1695.6713    11090.324      4271.84   -125.91935   -659.47291   -4244.6125    78.140962 
    5600    245.21039   -122.49126   0.22187151   -122.26939   -1998.2544    4.2779495    4.2779495    4.2779495   -1998.2544   -5184.7901    401.99322   -1211.9662    1007.2946    990.30635   -4721.3816    78.290118 
    5700    95.128765   -122.35652  0.086074506   -122.27045     1865.747     4.280686     4.280686     4.280686     1865.747   -11319.749    21770.134   -4853.1436    1492.8054     563.2299   -3494.9912    78.440455 
    5800    235.34129   -122.48214   0.21294174    -122.2692   -2050.0578    4.2761841    4.2761841    4.2761841   -2050.0578   -6712.3754    2488.3231   -1926.1212    463.60135    311.31453    3435.3543    78.193238 
    5900    186.35162   -122.43803   0.16861486   -122.26941    4452.5528    4.2770867    4.2770867    4.2770867    4452.5528   -4371.5885    10449.256    7279.9914   -40.061227    395.94492    341.50549    78.242758 
    6000    246.03095   -122.49132   0.22261398   -122.26871   -1930.9173    4.2802907    4.2802907    4.2802907   -1930.9173   -7657.2701    105.05222    1759.4658   -1239.6315   -1984.9282   -1940.8945    78.418731 
    6100    179.05932    -122.4314   0.16201664   -122.26938     106.2899     4.276292     4.276292     4.276292     106.2899   -4398.5259    3941.2517    776.14393   -581.35579     121.4573   -5882.7051    78.199157 
    6200    166.16368   -122.42016   0.15034839   -122.26981   -566.11697     4.278726     4.278726     4.278726   -566.11697   -9496.8407    1077.1085    6721.3813     2432.835    974.01859   -1647.3334    78.332757 
    6300    222.82701   -122.47066   0.20161856   -122.26904   -2104.4176    4.2802156    4.2802156    4.2802156   -2104.4176   -10163.802     7858.292   -4007.7424    1285.5897    1997.4902    2422.0125    78.414601 
    6400    210.78184   -122.45966   0.19071984   -122.26894    3160.4324    4.2746524    4.2746524    4.2746524    3160.4324    1192.7924    6336.2564    1952.2485    -77.06842    460.30291   -5462.6674    78.109243 
    6500    257.12052   -122.50137   0.23264805   -122.26872    -4059.921    4.2790064    4.2790064    4.2790064    -4059.921    -5981.453    1188.5247   -7386.8347   -1325.3878   -985.22313   -179.29846    78.348159 
    6600    153.45157   -122.40822   0.13884621   -122.26938   -2525.8072    4.2814109    4.2814109    4.2814109   -2525.8072   -13474.124    10783.753     -4887.05     757.0716    1478.1119   -3528.7312    78.480316 
    6700    174.67965   -122.42742   0.15805382   -122.26936   -293.52316    4.2758327    4.2758327    4.2758327   -293.52316   -8639.4968    1521.5579    6237.3694    1057.6463    370.79577    3388.7186    78.173962 
    6800    168.82701   -122.42215   0.15275823   -122.26939    3442.0973    4.2771131    4.2771131    4.2771131    3442.0973   -4875.6396    7455.4428    7746.4888    -276.8392     321.3646   -505.96912    78.244209 
    6900    214.91919   -122.46358    0.1944634   -122.26911    704.78873    4.2803076    4.2803076    4.2803076    704.78873   -8440.1124    2214.0497    8340.4289    308.59559   -219.63931   -2821.9016    78.419658 
    7000    233.63672   -122.48032   0.21139941   -122.26892   -411.48103    4.2771793    4.2771793    4.2771793   -411.48103   -5081.1045    1203.9421    2642.7193   -235.65105    564.97034   -1825.4828    78.247843 
    7100    203.39993   -122.45343   0.18404053   -122.26939   -156.40529    4.2789857    4.2789857    4.2789857   -156.40529   -8923.0821    463.33593    7990.5303    156.89725    540.77136   -1553.8211    78.347023 
    7200    201.20599   -122.45112   0.18205541   -122.26906    187.57299    4.2791068    4.2791068    4.2791068    187.57299   -9788.0503    9462.3366    888.43264   -316.33093   -189.55473    3900.4656    78.353676 
    7300    205.71549   -122.45504    0.1861357    -122.2689    872.67385    4.2752473    4.2752473    4.2752473    872.67385     219.3886    128.62638    2270.0066    588.76892    38.874828    -4532.428    78.141858 
    7400    210.13217   -122.45887     0.190132   -122.26874   -2766.5579    4.2803353    4.2803353    4.2803353   -2766.5579   -8780.4039    4280.1361   -3799.4061    196.61883    603.73774   -1910.8108    78.421181 
    7500    187.95394   -122.43909   0.17006467   -122.26903   -3169.5908    4.2806773    4.2806773    4.2806773   -3169.5908    -14090.35     2876.027    1705.5503    894.85818    2859.1695   -1650.4741    78.439981 
    7600    154.83395   -122.40949   0.14009701   -122.26939   -53.711755     4.274459     4.274459     4.274459   -53.711755   -8918.5341   -1839.6798    10597.079    1119.4573    574.82908     1298.555    78.098641 
    7700    193.80943   -122.44441   0.17536285   -122.26905   -2613.8234    4.2790614    4.2790614    4.2790614   -2613.8234   -9525.2805   -4806.1499    6489.9603   -849.92431    267.00179    1748.3375     78.35118 
    7800    241.31022   -122.48701   0.21834255   -122.26867   -1874.9796     4.281196     4.281196     4.281196   -1874.9796   -9250.9558   -845.61675    4471.6336    26.119273   -499.29091   -2495.2667    78.468495 
    7900    226.55487    -122.4738    0.2049916   -122.26881    3418.1228    4.2757683    4.2757683    4.2757683    3418.1228   -6272.8757     2845.209    13682.035    28.161599    -122.7995   -1279.1224    78.170431 
    8000    196.46325   -122.44712   0.17776407   -122.26935    2312.7172    4.2784205    4.2784205    4.2784205    2312.7172    -8712.704    3704.8699    11945.986    1364.8959    1526.3912   -608.63594    78.315985 
    8100    141.94981   -122.39828   0.12843917   -122.26984    2536.0069    4.2791559    4.2791559    4.2791559    2536.0069   -10561.044    10193.789    7975.2756    493.57934   -44.227781    562.23194    78.356375 
    8200    213.97568   -122.46294    0.1936097   -122.26933   -2114.7915     4.276409     4.276409     4.276409   -2114.7915   -1979.4249   -4522.9213    157.97175   -588.99987    1010.5178   -761.13185    78.205571 
    8300    245.17526    -122.4909   0.22183972   -122.26906    -3438.896    4.2802995    4.2802995    4.2802995    -3438.896   -7036.1843    988.25935   -4268.7631    266.39712   -1482.2839   -2697.7331    78.419211 
    8400    224.72707   -122.47288   0.20333778   -122.26954   -859.15519    4.2785656    4.2785656    4.2785656   -859.15519   -11114.175    1822.0655    6714.6441    487.32868    831.36577    316.68689     78.32395 
    8500    150.50092   -122.40656   0.13617639   -122.27038    1785.8205    4.2748453    4.2748453    4.2748453    1785.8205   -8893.3245     893.5576    13357.229    1451.7255    464.06996    728.22203    78.119818 
    8600    151.75262    -122.4075   0.13730896   -122.27019    -884.8252     4.280941     4.280941     4.280941    -884.8252   -12032.544   -3447.8244    12825.893     -750.062   -1029.2751    132.78542    78.454478 
    8700    217.58253   -122.46584   0.19687325   -122.26897    2.5322571    4.2801122    4.2801122    4.2801122    2.5322571   -9334.3195    1624.1894    7717.7268    20.603069    578.37781   -1408.7722    78.408921 
    8800    221.91815   -122.46924    0.2007962   -122.26845    4067.4094    4.2745717    4.2745717    4.2745717    4067.4094   -5500.9454    2629.0479    15074.126    1589.7513   -849.55861   -2510.7495    78.104819 
    8900    247.62275   -122.49269   0.22405427   -122.26864   -3228.9179     4.279861     4.279861     4.279861   -3228.9179   -12110.513   -1205.5419    3629.3014     319.0238    1244.8544    1076.6365    78.395112 
    9000    147.23423   -122.40282   0.13322062    -122.2696   -1186.8006    4.2803869    4.2803869    4.2803869   -1186.8006   -12671.369    5753.6348    3357.3321   -59.532926   -2068.8062    1087.5549    78.424017 
    9100    225.83134   -122.47343   0.20433694   -122.26909   -2175.1583    4.2758276    4.2758276    4.2758276   -2175.1583   -1500.1168   -3203.8017   -1821.5565   -1093.6535   -1443.5765   -111.13677    78.173681 
    9200    172.76345   -122.42554      0.15632   -122.26922     3520.399    4.2789113    4.2789113    4.2789113     3520.399   -7035.9244    8144.9941    9452.1273    874.75056    833.67825   -1919.1134    78.342937 
    9300    239.18651   -122.48515   0.21642098   -122.26873   -2756.5133    4.2799319    4.2799319    4.2799319   -2756.5133   -10765.933    225.14535    2271.2477    682.83901   -377.75949   -2012.1144    78.399012 
    9400    159.89185   -122.41393   0.14467351   -122.26926    1000.5301    4.2758705    4.2758705    4.2758705    1000.5301   -10199.562    -1965.381    15166.534    -415.2201    663.40971    1116.0103    78.176035 
    9500    201.48441   -122.45135   0.18230733   -122.26904   -2414.6662    4.2795103    4.2795103    4.2795103   -2414.6662   -8820.0804   -6408.5493    7984.6311   -327.72128   -1061.5365    427.05816    78.375844 
    9600    212.80859   -122.46153   0.19255369   -122.26898     -1096.36    4.2799164    4.2799164    4.2799164     -1096.36   -7686.6517    -3405.818    7803.3899   -225.04452    617.30797    567.67499    78.398159 
    9700    195.29129   -122.44559   0.17670366   -122.26889     3392.323    4.2749807    4.2749807    4.2749807     3392.323   -7237.1712   -90.951439    17505.092    2335.3319   -118.57516   -1499.9877     78.12724 
    9800    222.73853   -122.47058    0.2015385   -122.26905    -2264.808    4.2792257    4.2792257    4.2792257    -2264.808   -11264.009    115.14903    4354.4364    367.95099    836.20992   -796.42788    78.360208 
    9900    154.45033   -122.40957   0.13974991   -122.26982    -843.0866    4.2802494    4.2802494    4.2802494    -843.0866   -11993.389    9791.9154    -327.7857   -415.38164     165.9763    725.34239     78.41646 
   10000    226.04783   -122.47425   0.20453283   -122.26971    435.02934    4.2748084    4.2748084    4.2748084    435.02934    529.85637   -1647.3596    2422.5912   -700.06245    -853.5157    -948.8237    78.117791 
   10100    195.23446   -122.44629   0.17665224   -122.26963    2900.7455    4.2781163    4.2781163    4.2781163    2900.7455    -5941.848    7530.0026    7114.0818     140.4655    298.33046    1100.0657    78.299276 
   10200    241.03571   -122.48713   0.21809418   -122.26903   -4008.7352    4.2810314    4.2810314    4.2810314   -4008.7352   -12655.015   -4568.6439    5197.4539    852.06752   -633.35801   -1128.0737    78.459449 
   10300    160.92563   -122.41492   0.14560889   -122.26931    2736.1177    4.2760962    4.2760962    4.2760962    2736.1177   -9961.1229   -1299.3195    19468.796   -1270.5113    1233.4898    430.56294    78.188413 
   10400    213.06703   -122.46167   0.19278753   -122.26888   -675.34653    4.2780417    4.2780417    4.2780417   -675.34653   -7683.1443    -360.1749    6017.2796    56.266852   -944.89241   -238.58305    78.295185 
   10500    167.26582   -122.42053   0.15134563   -122.26918   -625.61985    4.2798078    4.2798078    4.2798078   -625.61985   -8842.9324    176.66947    6789.4034    200.56281    270.27751   -514.51432    78.392192 
   10600    216.22092   -122.46442   0.19564123   -122.26878   -2360.6066    4.2767132    4.2767132    4.2767132   -2360.6066   -8393.4454   -1977.8942    3289.5199    1572.0377     411.6583    518.62702    78.222262 
   10700    199.75496   -122.44978   0.18074249   -122.26903    -888.5385    4.2790182    4.2790182    4.2790182    -888.5385   -11788.679   -126.64351    9249.7066    277.49883   -1434.4356   -792.46069    78.348811 
   10800    201.54443   -122.45119   0.18236163   -122.26883    -599.6458     4.279625     4.279625     4.279625    -599.6458   -8914.9881    6710.6828    405.36787    -1566.453    79.736148    2243.2942    78.382145 
   10900    219.81186   -122.46745   0.19889039   -122.26856    797.72278    4.2753328    4.2753328    4.2753328    797.72278    754.62686   -2339.7097    3978.2512   -65.447161   -1129.6578   -1539.2892    78.146543 
   11000    173.39668   -122.42582   0.15689296   -122.26893     1960.829    4.2789759    4.2789759    4.2789759     1960.829   -6926.7541    8161.9234    4647.3176    340.49697    1976.1969   -2093.6098    78.346487 
   11100    234.86532   -122.48109   0.21251108   -122.26858   -3076.5068    4.2807848    4.2807848    4.2807848   -3076.5068   -11641.731   -1056.8188    3469.0295    1744.0781    368.37488   -616.02931    78.445888 
   11200     181.5226   -122.43315   0.16424546   -122.26891    3741.9119    4.2753922    4.2753922    4.2753922    3741.9119   -7988.4832    1730.6633    17483.556   -1033.8754   -847.50715    765.81679    78.149804 
   11300    221.53263   -122.46908   0.20044738   -122.26864   -489.72876    4.2779702    4.2779702    4.2779702   -489.72876   -6406.8849   -865.33839     5803.037   -788.46238   -1216.3533     2804.163    78.291259 
   11400    173.20765   -122.42625   0.15672192   -122.26952   -3069.2099    4.2801732    4.2801732    4.2801732   -3069.2099    -10180.01    -6453.747    7426.1276    625.24739   -1782.9985   -1666.2978    78.412272 
   11500    184.56763   -122.43661   0.16700067   -122.26961   -3347.9579    4.2766649    4.2766649    4.2766649   -3347.9579   -8983.9822   -7377.1118    6317.2203   -173.95282    771.33707   -1065.5291    78.219615 
   11600    217.30976   -122.46577   0.19662644   -122.26915   -1266.1144    4.2787105    4.2787105    4.2787105   -1266.1144   -10957.622   -368.25866    7527.5378    281.87205   -314.51878   -776.61809    78.331908 
   11700    217.67702   -122.46597   0.19695875   -122.26902    1058.6649    4.2782585    4.2782585    4.2782585    1058.6649   -6920.8988    9741.1904    355.70318    -1147.611    303.56112    2012.6518    78.307086 
   11800     180.9248   -122.43317   0.16370456   -122.26947    1775.7584    4.2759658    4.2759658    4.2759658    1775.7584    242.26494   -722.20626    5807.2164    579.84388   -972.01208     1857.977    78.181262 
   11900    190.91475    -122.4422   0.17274368   -122.26946   -53.917415    4.2801733    4.2801733    4.2801733   -53.917415   -8466.0456    6152.8971    2151.3963    1061.4996   -1196.9333    -516.1267    78.412274 
   12000    197.04179   -122.44736   0.17828755   -122.26907    2541.3206    4.2786519    4.2786519    4.2786519    2541.3206    -9383.378   -1772.4392    18779.779    942.12389   -338.90524   -836.46611    78.328689 
   12100    257.90555   -122.50181   0.23335836   -122.26845    681.71363    4.2753044    4.2753044    4.2753044    681.71363   -5636.7505   -282.83715    7964.7285   -366.36013   -27.239472   -1163.7628    78.144987 
   12200    188.47208   -122.43942   0.17053349   -122.26889    687.59081    4.2797931    4.2797931    4.2797931    687.59081   -7716.5351   -1255.5882    11034.896   -1582.5146    178.06434    896.78896    78.391381 
   12300    177.52053   -122.42988   0.16062431   -122.26925   -3885.5166    4.2797504    4.2797504    4.2797504   -3885.5166   -10123.954   -2879.3403    1346.7448    1231.3423   -355.93985    1488.7719    78.389036 
   12400    150.83706   -122.40598   0.13648054    -122.2695    -1135.268    4.2763573    4.2763573    4.2763573    -1135.268   -8537.9718   -2572.2371    7704.4049    153.21409    838.22668   -312.85743    78.202735 
   12500     215.8891   -122.46401   0.19534099   -122.26867   -244.63841    4.2797688    4.2797688    4.2797688   -244.63841   -11175.897   -107.98931    10549.971   -214.57909   -1696.5302      503.823    78.390046 
   12600    232.62727   -122.47884   0.21048604   -122.26836   -605.23926    4.2787872    4.2787872    4.2787872   -605.23926    -6750.323    4346.6568    587.94844   -387.21354   -836.53339    266.71095     78.33612 
   12700    195.22661   -122.44571   0.17664514   -122.26906   -1986.9366    4.2767573    4.2767573    4.2767573   -1986.9366   -1187.1317   -6577.6369    1803.9588    337.54852     4.647243   -66.915187    78.224685 
   12800     184.5816   -122.43695   0.16701331   -122.26993     -736.177    4.2808256    4.2808256    4.2808256     -736.177   -9289.2394    3514.9971    3565.7113    1535.5882    1709.3435   -1543.5758    78.448134 
   12900    216.08462   -122.46519   0.19551791   -122.26968    3170.2146    4.2776956    4.2776956    4.2776956    3170.2146    -7903.087    3320.5578    14093.173    -139.9708    325.49709    890.49909    78.276179 
   13000    246.79251   -122.49221   0.22330305   -122.26891    3089.9426    4.2754082    4.2754082    4.2754082    3089.9426   -5272.4898    5717.3517     8824.966   -260.92261   -1600.6759    2623.5456     78.15068 
   13100    155.09929   -122.40979    0.1403371   -122.26946    2217.3313     4.281154     4.281154     4.281154    2217.3313   -8160.5992    411.33902    14401.254   -675.23369    1187.3457    586.62955    78.466186 
   13200    197.09996   -122.44784   0.17834018    -122.2695   -5587.0959    4.2784617    4.2784617    4.2784617   -5587.0959   -9148.3874   -8075.6979    462.79743    2084.2877   -197.16957   -814.99603    78.318246 
   13300    136.91259   -122.39394   0.12388138   -122.27005   -131.56667    4.2754108    4.2754108    4.2754108   -131.56667   -7509.6271   -6805.0673    13919.994    1643.9318    1164.5413   -2954.8894    78.150824 
   13400    302.34416   -122.54216   0.27356735   -122.26859   -6654.7997    4.2818605    4.2818605    4.2818605   -6654.7997   -11542.242   -6771.8806   -1650.2764    -695.3753    155.42047    1572.1679    78.505041 
   13500    173.32687   -122.42622   0.15682979   -122.26939    3479.0907    4.2777389    4.2777389    4.2777389    3479.0907   -5033.6018    5733.9131    9736.9609    528.73767   -308.44761    1692.2204    78.278559 
   13600    192.30351   -122.44371   0.17400026   -122.26971   -982.33425    4.2750712    4.2750712    4.2750712   -982.33425   -245.30611   -2337.1173   -364.57931    201.68658    -562.6429    1973.3995    78.132201 
   13700    119.52736   -122.37844   0.10815087   -122.27029    2039.5107    4.2812818    4.2812818    4.2812818    2039.5107   -10064.222    5388.3609    10794.393    1423.1669   -1198.0982   -788.90427    78.473216 
   13800    263.41162     -122.507   0.23834037   -122.26866     216.0055    4.2784368    4.2784368    4.2784368     216.0055   -8105.8592    1125.2773    7628.5984   -202.18793    1306.9189    -2380.365    78.316877 
   13900    274.59891   -122.51698   0.24846286   -122.26852     2549.424    4.2749841    4.2749841    4.2749841     2549.424   -4125.0467    2057.7347    9715.5838   -294.02972   -1025.2953     1243.238    78.127427 
   14000    188.39509   -122.43998   0.17046383   -122.26952   -224.40301     4.280921     4.280921     4.280921   -224.40301   -8289.2387   -2175.1624     9791.192    734.31911    225.53065    2120.9699    78.453376 
   14100    137.03898   -122.39426   0.12399575   -122.27027   -2499.9082    4.2785022    4.2785022    4.2785022   -2499.9082   -9619.1357    -6089.548    8208.9592    1192.0401   -286.41206    1129.3834    78.320471 
   14200    155.78414   -122.41113   0.14095676   -122.27018   -106.14567    4.2761126    4.2761126    4.2761126   -106.14567   -9272.9233   -1373.1659    10327.652    1821.2887   -21.870193   -1635.5899    78.189313 
   14300    262.07911    -122.5062   0.23713469   -122.26907   -2365.0002     4.281388     4.281388     4.281388   -2365.0002   -11526.145    1025.3825     3405.762   -913.75381   -845.53514   -614.61134    78.479052 
   14400    208.86231   -122.45843   0.18898301   -122.26945     1234.533    4.2774174    4.2774174    4.2774174     1234.533   -3775.5845    2878.0234    4601.1601    892.79824   -470.65873     2375.091    78.260909 
   14500    185.50186   -122.43803   0.16784598   -122.27018   -2381.9809    4.2753222    4.2753222    4.2753222   -2381.9809   -2896.4087    -5952.418    1702.8839    1850.6474    2091.9334    266.84013    78.145965 
   14600    119.41136   -122.37877   0.10804591   -122.27073    31.061669    4.2819189    4.2819189    4.2819189    31.061669   -10038.409   -368.15668    10499.751    547.67709    145.18911   -1094.8457    78.508253 
   14700    286.20115   -122.52803   0.25896081   -122.26907   -2.0519067     4.278497     4.278497     4.278497   -2.0519067   -6267.0346    1308.3323    4952.5465   -293.59215    661.52707   -354.19388    78.320183 
   14800    249.13948   -122.49425   0.22542663   -122.26882    6766.3851    4.2745267    4.2745267    4.2745267    6766.3851   -3097.4104    7232.1324    16164.433   -922.06366   -1964.0148    1827.7397    78.102352 
   14900    196.93655   -122.44779   0.17819233    -122.2696   -1110.5323    4.2806653    4.2806653    4.2806653   -1110.5323   -6895.9161    2740.5518    823.76745    1276.7423    519.53734    1991.8329     78.43932 
   15000    104.36551   -122.36491  0.094432111   -122.27047   -2935.2378    4.2789183    4.2789183    4.2789183   -2935.2378   -9064.1624   -6979.6283    7238.0772    985.64606    926.62275    -3437.137    78.343325 
   15100    183.19606   -122.43558   0.16575964   -122.26982   -2660.5168    4.2761601    4.2761601    4.2761601   -2660.5168   -8458.9257   -4755.2783    5232.6537    887.69463    284.05732   -1964.4122     78.19192 
   15200    273.85467   -122.51619   0.24778946    -122.2684   -1790.0932    4.2806216    4.2806216    4.2806216   -1790.0932   -10246.261   -2664.9691    7540.9507   -215.33802    2263.6293   -296.25685    78.436918 
   15300    224.46996   -122.47223   0.20310514   -122.26913   -634.18017    4.2775988    4.2775988    4.2775988   -634.18017   -5010.7733   -310.50395    3418.7368    -281.2843   -1249.3629    2926.7129    78.270866 
   15400    142.26712   -122.39883   0.12872628    -122.2701   -2761.1337    4.2758765    4.2758765    4.2758765   -2761.1337   -4456.6267   -5131.7229    1304.9485    1545.1062      1723.12    2377.9038    78.176363 
   15500    142.56601   -122.39941   0.12899672   -122.27042   -1439.0459    4.2816037    4.2816037    4.2816037   -1439.0459   -10850.272    3755.4118    2777.7224    878.64747   -72.308733   -3157.1174    78.490919 
   15600    261.63391   -122.50589   0.23673186   -122.26915    3403.8718    4.2776225    4.2776225    4.2776225    3403.8718   -5219.1917    3765.2284    11665.579    489.43205    -66.41937   -1639.2457     78.27217 
   15700    275.13897   -122.51742   0.24895152   -122.26847    5306.7469    4.2747319    4.2747319    4.2747319    5306.7469   -1907.2034    4860.6058    12966.838   -701.70097    1495.1106   -514.07386      78.1136 
   15800    183.51855   -122.43584   0.16605144   -122.26979   -842.78478    4.2810202    4.2810202    4.2810202   -842.78478   -8926.9364   -895.82627    7294.4083    226.10434   -833.16793    4200.3929     78.45883 
   15900    118.06169   -122.37735    0.1068247   -122.27052   -3289.0184    4.2785046    4.2785046    4.2785046   -3289.0184   -6777.1872   -7895.0294    4805.1613    820.68036    1558.2889   -1991.2279    78.320602 
   16000    200.56226   -122.45147   0.18147294   -122.26999   -3076.8805    4.2761652    4.2761652    4.2761652   -3076.8805   -7618.9848   -2058.0038    446.34705   -98.274734   -879.37935   -3485.7735    78.192201 
   16100    246.15799   -122.49175   0.22272892   -122.26902    423.32598    4.2802595    4.2802595    4.2802595    423.32598   -9605.8343    2801.0822    8074.7301   -142.04848    53.711665   -491.28691    78.417015 
   16200    217.35197   -122.46626   0.19666463   -122.26959   -516.78904    4.2777088    4.2777088    4.2777088   -516.78904    -4316.779    889.22807    1877.1838    104.33247   -126.50584    -263.9326    78.276904 
   16300    126.53328   -122.38508   0.11448997   -122.27059   -1388.9073    4.2770622    4.2770622    4.2770622   -1388.9073   -5820.2183   -6434.2393    8087.7357    1632.4605    777.86049    2337.9103    78.241413 
   16400    158.12331   -122.41327   0.14307329   -122.27019   -73.177322    4.2812608    4.2812608    4.2812608   -73.177322   -7685.2742     1431.365    6034.3772   -199.56098      1248.89    -2953.433    78.472057 
   16500    285.63102   -122.52697   0.25844495   -122.26852    3364.8214    4.2766161    4.2766161    4.2766161    3364.8214   -3897.2882    2182.0076    11809.745   -1328.2004   -1395.9384    829.50547    78.216936 
   16600    271.00961   -122.51354   0.24521519   -122.26832    4377.7415    4.2757228    4.2757228    4.2757228    4377.7415   -1900.2977    4999.7033    10033.819   -157.17764    65.119875    729.50706     78.16793 
   16700    174.69918    -122.4277   0.15807149   -122.26963   -1777.1552    4.2818961    4.2818961    4.2818961   -1777.1552   -10781.839   -760.85258    6211.2258    1457.7032   -62.711716    1298.2913    78.506999 
   16800    123.97328   -122.38244   0.11217363   -122.27027   -3039.4787    4.2772786    4.2772786    4.2772786   -3039.4787    -6581.921   -4212.6455    1676.1305    2212.2584     1188.496   -3858.0813    78.253292 
   16900    157.65685   -122.41257   0.14265123   -122.26992   -362.94499    4.2755082    4.2755082    4.2755082   -362.94499   -5053.7404    182.50463    3782.4008   -393.81898   -520.49162   -5296.1836    78.156161 
   17000    289.40349   -122.52998   0.26185836   -122.26812    -6136.828    4.2822878    4.2822878    4.2822878    -6136.828   -13339.136   -2309.9653   -2761.3829   -323.12876   -582.85632    1638.6901    78.528546 
   17100    191.21266   -122.44216   0.17301323   -122.26914   -406.82489    4.2773323    4.2773323    4.2773323   -406.82489   -4215.4737   -1810.5343    4805.5333   -660.31974   -831.24284    229.98299    78.256238 
   17200     191.9721   -122.44349   0.17370039   -122.26979   -2074.5191    4.2755854    4.2755854    4.2755854   -2074.5191   -1407.1935   -6207.4576    1391.0938   -60.189417   -1281.5771    1762.0136    78.160397 
   17300    133.48698   -122.39113   0.12078182   -122.27035    2913.8741    4.2816834    4.2816834    4.2816834    2913.8741   -7638.7113    3314.3371    13065.997    1016.6934    367.79126   -4616.5817    78.495298 
   17400    262.91332   -122.50662    0.2378895   -122.26873    4030.8378    4.2763809    4.2763809    4.2763809    4030.8378   -2225.4721    3162.1863    11155.799    826.02834    527.80422   -1856.0071    78.204033 
   17500    249.81896   -122.49462   0.22604145   -122.26857    5047.8996    4.2756758    4.2756758    4.2756758    5047.8996   -2628.5942    7369.9735    10402.319    1188.8979    727.34653    827.68841    78.165356 
   17600    177.00816    -122.4297    0.1601607   -122.26954   -1127.7024    4.2816096    4.2816096    4.2816096   -1127.7024   -9811.4321   -3350.2521    9778.5771    297.65869   -1276.4881    1237.6709    78.491241 
   17700    163.83572   -122.41859     0.148242   -122.27035    -5194.388    4.2764452    4.2764452    4.2764452    -5194.388   -4525.6617   -6763.4319   -4294.0704    493.80691     611.7149   -3620.8695     78.20756 
   17800    172.84262   -122.42643   0.15639163   -122.27004   -3267.2435    4.2768286    4.2768286    4.2768286   -3267.2435   -7459.3219   -2117.7277   -224.68092   -904.69922   -1016.4306   -5509.4292    78.228594 
   17900    258.09094   -122.50252   0.23352611   -122.26899   -6018.5108    4.2831535    4.2831535    4.2831535   -6018.5108   -13863.959   -5193.8726    1002.2989   -559.62843   -1739.4998    784.60075     78.57618 
   18000     167.2771   -122.42051   0.15135584   -122.26916    3459.5367    4.2756665    4.2756665    4.2756665    3459.5367   -4032.6278    3740.6203    10670.618    1515.6659    325.14991   -2086.7642    78.164846 
   18100    205.12149    -122.4547   0.18559823   -122.26911    1255.2315    4.2755686    4.2755686    4.2755686    1255.2315   -1209.8217    -3111.286    8086.8022    2045.7168    1647.7545   -720.80828    78.159476 
   18200    135.37712   -122.39225   0.12249207   -122.26975    3236.2735    4.2822772    4.2822772    4.2822772    3236.2735   -7319.1632     4695.751    12332.233    974.68637    722.42931   -3771.0974    78.527961 
   18300    280.24955   -122.52213   0.25357568   -122.26855    -1399.521    4.2769187    4.2769187    4.2769187    -1399.521   -5953.0321    2418.8731   -664.40391   -1086.0795   -2009.9605     9.596328    78.233543 
   18400    206.46949   -122.45602   0.18681793    -122.2692    4874.5344    4.2759854    4.2759854    4.2759854    4874.5344   -3083.1767    7372.5701     10334.21   -570.22217   -1174.6674   -28.379465    78.182338 
   18500    230.96495   -122.47762   0.20898194   -122.26864   -3345.8942    4.2814569    4.2814569    4.2814569   -3345.8942   -9504.5613     -3426.94    2893.8187    535.95731    44.065242    973.44372    78.482844 
   18600    142.49701   -122.39853   0.12893429   -122.26959   -1567.3204     4.276527     4.276527     4.276527   -1567.3204   -5593.7609   -3287.5924    4179.3922    1011.8241    1458.0755   -5096.6825    78.212046 
   18700    173.64798   -122.42681   0.15712034   -122.26969   -2874.9389    4.2786069    4.2786069    4.2786069   -2874.9389    -9175.513    3774.7634   -3224.0671    16.768044   -619.85821   -4512.5418    78.326218 
   18800    220.94045   -122.46892   0.19991156   -122.26901   -2205.4779    4.2813831    4.2813831    4.2813831   -2205.4779   -14538.759    898.28344     7024.042    914.94003   -633.01874    257.56726    78.478786 
   18900    182.81179   -122.43446   0.16541195   -122.26904    3864.7802    4.2749009    4.2749009    4.2749009    3864.7802   -3092.2078    7298.6172    7387.9312    1334.2253   -1156.2092   -1372.7415    78.122865 
   19000    246.90623   -122.49203   0.22340594   -122.26862    -2355.292     4.278179     4.278179     4.278179    -2355.292    -5971.806   -5309.6482    4215.5783   -100.02332   -478.24025   -394.68907    78.302722 
   19100    159.69611   -122.41384   0.14449639   -122.26935    953.46022    4.2818918    4.2818918    4.2818918    953.46022   -7698.8558     4710.501    5848.7354    118.94876   -304.83715   -3171.7971     78.50676 
   19200    234.02197   -122.48091     0.211748   -122.26916   -411.47439    4.2753995    4.2753995    4.2753995   -411.47439   -6391.9294    6779.7271   -1622.2208    46.021066   -3123.4452    1021.7709    78.150205 
   19300    197.96546   -122.44849   0.17912331   -122.26937    2579.4848    4.2776432    4.2776432    4.2776432    2579.4848   -8351.4251    13827.542    2262.3378    728.05007    -235.6469   -1562.0183    78.273307 
   19400    211.70952   -122.46056   0.19155922     -122.269   -1395.2916    4.2809138    4.2809138    4.2809138   -1395.2916   -8582.0666    1298.0064    3098.1853   -251.00105    -783.3284   -74.208889     78.45298 
   19500    173.65563   -122.42629   0.15712727   -122.26916   -2260.1848    4.2758304    4.2758304    4.2758304   -2260.1848   -7368.2466    832.83265   -245.14043    157.17652    -221.2772    -4730.953    78.173836 
   19600    183.98468   -122.43567   0.16647321    -122.2692   -4291.4899    4.2794548    4.2794548    4.2794548   -4291.4899   -10361.761   -251.77488   -2260.9333    22.159961    -1216.762   -2788.9446    78.372793 
   19700     195.2525   -122.44561   0.17666857   -122.26894    139.21475    4.2801575    4.2801575    4.2801575    139.21475   -13731.283    1004.2312    13144.697   -168.90584   -2211.6776    1720.9223    78.411409 
   19800     231.9817   -122.47852   0.20990192   -122.26862    2298.3283    4.2742051    4.2742051    4.2742051    2298.3283   -4076.4981    4592.2859     6379.197    1886.2444    1133.7766   -1424.9275    78.084722 
   19900    189.07472   -122.44015   0.17107878   -122.26907    1717.7798    4.2792523    4.2792523    4.2792523    1717.7798   -7337.3094    3690.0118    8800.6372    877.26056   -296.38683    -2404.491    78.361667 
   20000     196.7999    -122.4476   0.17806869   -122.26954   -649.81652    4.2808221    4.2808221    4.2808221   -649.81652   -8847.1689    8562.6924    -1664.973   -267.82536   -774.81215   -3591.8676    78.447937 
   20100    181.89118   -122.43433   0.16457896   -122.26975    1855.7703    4.2742547    4.2742547    4.2742547    1855.7703   -6327.4838    11463.252    431.54264   -1857.9554   -3189.3393    -26.97297    78.087444 
   20200    232.30254   -122.47936   0.21019222   -122.26917   -2759.5352    4.2793639    4.2793639    4.2793639   -2759.5352    -11199.14     7615.155    -4694.621   -178.70986   -1464.9091    1705.3664    78.367802 
   20300     253.9695   -122.49841   0.22979694   -122.26861   -3829.2685    4.2808668    4.2808668    4.2808668   -3829.2685   -9997.8122   -5429.9523    3939.9589    1590.8419    1619.4666   -460.45914    78.450395 
   20400    160.95038   -122.41487   0.14563128   -122.26924    538.92866    4.2750721    4.2750721    4.2750721    538.92866   -7002.8744    4303.3904      4316.27    1098.2914   -2209.0851   -3121.7363    78.132248 
   20500    180.50173   -122.43266   0.16332175   -122.26934   -4423.3519    4.2799597    4.2799597    4.2799597   -4423.3519   -14097.467    3422.8625   -2595.4509    346.88532   -1483.1822   -3463.1568    78.400535 
   20600    120.43264   -122.37853   0.10896999   -122.26956    4567.4423    4.2798911    4.2798911    4.2798911    4567.4423   -13947.372    9102.2654    18547.434    -257.9429   -854.60866    553.69078    78.396767 
   20700    270.14618   -122.51274   0.24443394   -122.26831    1576.0239    4.2742738    4.2742738    4.2742738    1576.0239   -4280.5491    5854.9787     3153.642   -175.76401    1285.6219   -126.27412     78.08849 
   20800    204.41361   -122.45378   0.18495773   -122.26882    1556.1978    4.2800389    4.2800389    4.2800389    1556.1978   -9179.9328    3961.0757    9887.4505   -1102.3498    113.19785   -1711.6299    78.404892 
   20900    218.44694   -122.46682   0.19765538   -122.26917   -3100.8123    4.2808335    4.2808335    4.2808335   -3100.8123   -8171.0402    835.54751   -1966.9442   -242.18429   -1953.2672   -691.10767    78.448565 
   21000    167.89047   -122.42158   0.15191083   -122.26967     660.1438     4.274449     4.274449     4.274449     660.1438   -7833.8705    13321.595   -3507.2928    1020.7932    -446.3456   -918.86637     78.09809 
   21100     208.9021    -122.4582   0.18901901   -122.26918   -2056.2347    4.2798956    4.2798956    4.2798956   -2056.2347   -11329.921    9314.2681   -4153.0509    1532.2001    58.734142    55.231177    78.397016 
   21200    245.38762   -122.49055   0.22203187   -122.26852   -1787.0379    4.2808376    4.2808376    4.2808376   -1787.0379    -9780.934    775.53439    3644.2858    634.75423    1553.6685   -1527.5957    78.448793 
   21300    179.66441   -122.43166   0.16256413   -122.26909    2172.4029    4.2744543    4.2744543    4.2744543    2172.4029   -6476.0011    6779.8895    6213.3203   -819.99659   -2332.2718   -2681.2074     78.09838 
   21400    171.15909   -122.42433   0.15486834   -122.26946   -3495.6247    4.2797292    4.2797292    4.2797292   -3495.6247   -14005.089    1376.3819    2141.8334    -260.6357   -1828.2045    -1107.314    78.387868 
   21500    150.39297   -122.40575   0.13607872   -122.26967    300.75092    4.2804535    4.2804535    4.2804535    300.75092    -15998.25    2199.7297    14700.774   -751.34262    38.620876    86.616735    78.427676 
   21600    259.48759   -122.50347   0.23478982   -122.26868    2362.9242    4.2744103    4.2744103    4.2744103    2362.9242   -4132.3436    5386.9751    5834.1411    712.61788    1445.2811    680.63575    78.095968 
   21700    212.12201   -122.46093   0.19193245     -122.269    3475.9525    4.2788039    4.2788039    4.2788039    3475.9525   -8946.0808     9046.287    10327.651    872.24416    674.92514   -2028.8459    78.337041 
   21800    202.61807   -122.45301   0.18333309   -122.26968   -2998.2158    4.2806672    4.2806672    4.2806672   -2998.2158   -10363.991    3675.8228   -2306.4793     803.7754    -2025.759   -2345.7251    78.439426 
   21900    119.99281   -122.37893   0.10857202   -122.27036    538.57574    4.2749967    4.2749967    4.2749967    538.57574   -9270.4528    16310.783   -5424.6033   -57.601341     1965.526   -116.39404    78.128115 
   22000    252.87228    -122.4981   0.22880416   -122.26929   -5112.3673    4.2797069    4.2797069    4.2797069   -5112.3673   -11479.526    2125.2627   -5982.8391   -450.29651    1393.2749    708.54344    78.386644 
   22100    246.65708    -122.4922   0.22318051   -122.26902   -62.108397    4.2801742    4.2801742    4.2801742   -62.108397   -8661.9436   -1254.6194    9730.2378    519.87164    525.30081    1008.6511    78.412323 
   22200    242.26046   -122.48822   0.21920235   -122.26902   -246.19939    4.2747455    4.2747455    4.2747455   -246.19939   -6062.0242    2183.6936    3139.7323   -440.10694    -882.8272   -2099.8378    78.114346 
   22300    119.31907    -122.3781    0.1079624   -122.27014    181.28869    4.2795881    4.2795881    4.2795881    181.28869    -14781.93    6974.9437    8350.8523   -103.00878   -1318.2075   -1579.6254    78.380117 
   22400    124.27588   -122.38278   0.11244743   -122.27033    527.70615    4.2804258    4.2804258    4.2804258    527.70615   -15726.183    6480.3187    10828.982    415.85979    1642.2563    252.70396    78.426152 
   22500    251.13445    -122.4962   0.22723172   -122.26897    2247.6904     4.274808     4.274808     4.274808    2247.6904   -5116.4932    8854.4533    3005.1111    490.55263    758.28748    746.80522    78.117773 
   22600    224.15121   -122.47162   0.20281672    -122.2688    3823.4485    4.2787877    4.2787877    4.2787877    3823.4485   -7969.0825    5513.9636    13925.464    97.051853    621.41614   -534.96027     78.33615 
   22700    238.24866   -122.48512    0.2155724   -122.26955   -6838.7753    4.2808237    4.2808237    4.2808237   -6838.7753   -11496.135   -865.34816   -8154.8429   -382.96725   -2083.9322    -363.8146    78.448025 
   22800    105.40479   -122.36598  0.095372466    -122.2706    -1533.066    4.2762127    4.2762127    4.2762127    -1533.066   -11142.251    12217.922   -5674.8689    346.12049    400.29483     -627.342    78.194806 
   22900    239.74668   -122.48657   0.21692784   -122.26964   -3463.5752    4.2796446    4.2796446    4.2796446   -3463.5752   -10123.515    3065.8421    -3333.053    126.88449    2188.8244     844.5407     78.38322 
   23000    240.92663   -122.48674   0.21799548   -122.26874    3772.0814    4.2789659    4.2789659    4.2789659    3772.0814   -7358.7392    8726.7724    9948.2109   -710.39384   -64.663056   -1074.3226    78.345936 
   23100    240.24208   -122.48621   0.21737608   -122.26883    1196.6308     4.275653     4.275653     4.275653    1196.6308     -6160.24    5280.9154     4469.217    -1025.438    168.01118   -94.839007    78.164107 
   23200    125.85663   -122.38387   0.11387773   -122.26999   -458.51821    4.2803698    4.2803698    4.2803698   -458.51821   -15922.258    7571.6316    6975.0718    92.381319   -240.65915    -991.7305    78.423077 
   23300    145.79549   -122.40183   0.13191882   -122.26991   -662.88174    4.2794016    4.2794016    4.2794016   -662.88174   -13852.475    439.13917     11424.69    672.68914    1484.0129    930.27418     78.36987 
   23400    234.91755   -122.48191   0.21255833   -122.26936    1875.9505     4.274803     4.274803     4.274803    1875.9505   -3445.8009    6505.0152    2568.6372    754.82147   -159.75659    2835.4114    78.117495 
   23500    262.57357   -122.50611   0.23758208   -122.26853    57.850578    4.2799485    4.2799485    4.2799485    57.850578   -9267.3298   -830.52299    10271.405    553.08672   -1001.0002   -2032.8819    78.399923 
   23600     187.4506   -122.43926   0.16960924   -122.26965   -2975.7449    4.2800601    4.2800601    4.2800601   -2975.7449   -10279.266    6671.0326   -5319.0018   -433.99616   -847.97305    180.71245    78.406053 
   23700    117.75802   -122.37724   0.10654993   -122.27069   -1608.0138    4.2760198    4.2760198    4.2760198   -1608.0138   -10446.646    14452.389   -8829.7846   -1474.9769    1138.9183   -1119.3717    78.184224 
   23800    206.04052   -122.45646   0.18642979   -122.27003   -1383.8024    4.2795993    4.2795993    4.2795993   -1383.8024   -9498.4185    3856.1279    1490.8836   -1334.0517    2431.7754    2857.2906    78.380735 
   23900      256.842   -122.50108   0.23239604   -122.26868    3081.8059    4.2783248    4.2783248    4.2783248    3081.8059   -5603.1883    6188.8957    8659.7103    617.30312   -1274.9731    1080.6763    78.310725 
   24000       288.22   -122.52955   0.26078751   -122.26877   -1798.3331    4.2765215    4.2765215    4.2765215   -1798.3331   -7537.4988   -1084.1422    3226.6416     847.9745   -184.56803   -113.31446    78.211745 
   24100    109.43847   -122.36942  0.099022231   -122.27039    494.36298    4.2808794    4.2808794    4.2808794    494.36298   -15515.932     6781.504    10217.517     847.7748    646.81314   -1284.2692    78.451089 
   24200    171.90801   -122.42555   0.15554598      -122.27   -2052.4588    4.2781203    4.2781203    4.2781203   -2052.4588   -12176.386    994.62888     5024.381    83.844357    2316.9646   -643.59705    78.299501 
   24300    171.16908    -122.4246   0.15487738   -122.26972    4788.0213    4.2749372    4.2749372    4.2749372    4788.0213   -3145.8353    12435.195    5074.7042   -703.60634    593.04065    4184.1829    78.124855 
   24400    264.04707   -122.50738   0.23891534   -122.26846   -2133.6405    4.2813974    4.2813974    4.2813974   -2133.6405   -10061.945   -2759.6826    6420.7064   -1562.6728   -620.76754    598.24899    78.479574 
   24500    199.82193   -122.45008   0.18080309   -122.26928   -2799.9695    4.2793267    4.2793267    4.2793267   -2799.9695   -10742.976    7141.9733   -4798.9057   -1169.7284    619.40359    994.46928    78.365759 
   24600    128.95039   -122.38698   0.11667702    -122.2703   -510.88445    4.2752049    4.2752049    4.2752049   -510.88445   -6957.3959    8527.0761   -3102.3335    781.28755    43.539025   -414.32559    78.139533 
   24700    228.79238   -122.47668   0.20701615   -122.26966    -4354.301    4.2807077    4.2807077    4.2807077    -4354.301   -10334.164   -1364.1248   -1364.6144    1403.1453    1938.1547    741.43084    78.441648 
   24800    242.84851   -122.48856   0.21973443   -122.26882    2833.7304    4.2786195    4.2786195    4.2786195    2833.7304   -4795.5825    4266.4993    9030.2745    164.74204   -637.54751    721.21418    78.326909 
   24900    278.95758   -122.52082   0.25240668   -122.26841     904.6983    4.2757288    4.2757288    4.2757288     904.6983   -6275.8706    5767.7008    3222.2646   -476.55356   -637.34185   -118.92652    78.168263 
   25000    124.42641   -122.38258   0.11258363   -122.26999    1625.0758    4.2806171    4.2806171    4.2806171    1625.0758   -15686.491     10285.37    10276.349   -290.11988    1241.9233    532.70048    78.436671 
   25100    139.11882   -122.39591   0.12587763   -122.27003   -305.57807    4.2781426    4.2781426    4.2781426   -305.57807   -10476.761    2843.6425     6716.384    -398.5883     1733.809    1512.4189    78.300723 
   25200    197.01067   -122.44755   0.17825939   -122.26929    1169.2266    4.2753463    4.2753463    4.2753463    1169.2266   -3778.6495    6755.9182    530.41122   -241.36401    596.08769    4144.6751    78.147288 
   25300    256.95747   -122.50082   0.23250052   -122.26832   -3007.3715    4.2815513    4.2815513    4.2815513   -3007.3715   -8752.6114   -7664.9617    7395.4585    194.73513   -1065.1412   -756.51898    78.488034 
   25400    210.81633   -122.45985   0.19075105    -122.2691   -2538.6409    4.2789266    4.2789266    4.2789266   -2538.6409   -10507.257    5855.8781   -2964.5434     757.3377    1569.6191     -669.945    78.343775 
   25500    150.58119   -122.40638   0.13624903   -122.27014   -364.27936    4.2753611    4.2753611    4.2753611   -364.27936   -6704.1011    8813.1435   -3201.8804    100.85165    1497.2031    228.44573    78.148098 
   25600    167.64812   -122.42173   0.15169154   -122.27004   -838.31323    4.2807546    4.2807546    4.2807546   -838.31323   -9124.9578    4793.3389    1816.6791   -212.69581    238.07294    3505.3483    78.444229 
   25700    261.47001   -122.50543   0.23658356   -122.26885    155.76037    4.2791778    4.2791778    4.2791778    155.76037   -5774.1736    2500.9676    3740.4871    556.31224   -1617.7094    1014.8571    78.357574 
   25800    247.22549   -122.49233   0.22369482   -122.26863    3338.0675    4.2758123    4.2758123    4.2758123    3338.0675   -4654.9424    7561.9708    7107.1741   -96.683769    361.01686    483.81207    78.172839 
   25900    186.53584   -122.43794   0.16878155   -122.26916   -1054.6616    4.2805307    4.2805307    4.2805307   -1054.6616   -14616.332    4537.9387     6914.408   -79.776159    2374.6812   -1602.8757    78.431918 
   26000    163.41159   -122.41735   0.14785824   -122.26949   -2663.4404    4.2789933    4.2789933    4.2789933   -2663.4404   -10920.302    1546.0258    1383.9548   -836.00206    1611.3301    700.02918     78.34744 
   26100      169.953   -122.42339   0.15377704   -122.26961    1499.2463     4.276309     4.276309     4.276309    1499.2463    -3825.231     7505.685    817.28483    379.31299    695.05248    3432.3688    78.200087 
   26200    239.77221   -122.48552   0.21695093   -122.26856   -1118.1205    4.2806506    4.2806506    4.2806506   -1118.1205   -8359.4326   -1054.8902    6059.9611    23.132085   -1076.6143    1039.7575    78.438509 
   26300    169.48634   -122.42256   0.15335481   -122.26921    1056.1892    4.2787228    4.2787228    4.2787228    1056.1892   -9160.6773    11028.624    1300.6212    396.05849    1988.9352    1605.0447    78.332587 
   26400    192.94754   -122.44405   0.17458299   -122.26947   -2731.1321    4.2763694    4.2763694    4.2763694   -2731.1321   -7602.7813    5339.6993   -5930.3144    1398.2176    1257.8137   -236.43337    78.203403 
   26500    174.12686   -122.42707   0.15755364   -122.26951   -777.42707    4.2805744    4.2805744    4.2805744   -777.42707   -7953.0524    1993.8775    3626.8937    5.4937098   -194.97936    1963.3495     78.43432 
   26600    269.30129   -122.51216   0.24366947   -122.26849   -1579.2821    4.2789864    4.2789864    4.2789864   -1579.2821   -4161.7894   -4204.2112    3628.1544   -469.01024    1143.9606   -914.69185    78.347062 
   26700    237.07778   -122.48309   0.21451296   -122.26858    2440.7841    4.2759975    4.2759975    4.2759975    2440.7841   -5292.3697    9683.5073    2931.2147   -1857.6426    660.54838   -398.85081    78.182998 
   26800    176.09945   -122.42851   0.15933848   -122.26917    1545.3394    4.2800168    4.2800168    4.2800168    1545.3394   -12030.467     7086.922    9579.5629    247.83219    1808.8346    1230.4963    78.403677 
   26900    159.41533   -122.41369   0.14424234   -122.26945   -1005.1263    4.2788286    4.2788286    4.2788286   -1005.1263   -10151.278    6751.2465    384.65249    403.21717    -953.1812    2034.6517    78.338395 
   27000    161.16905   -122.41507   0.14582914   -122.26924     539.7569     4.276766     4.276766     4.276766     539.7569   -2845.6122    3916.3225    548.56037    835.26993   -1054.5467    3609.7326    78.225162 
   27100    239.12755   -122.48505   0.21636764   -122.26869   -1922.5449    4.2800145    4.2800145    4.2800145   -1922.5449   -6458.6367   -4486.9643    5177.9662    382.53304   -161.84116   -2006.3827     78.40355 
   27200    208.92757   -122.45812   0.18904206   -122.26907   -593.50442      4.27832      4.27832      4.27832   -593.50442    -8783.471    5616.3132    1386.6445   -704.12817    2086.0237   -1200.8912    78.310462 
   27300    190.87523     -122.442   0.17270792   -122.26929   -1957.8809    4.2774686    4.2774686    4.2774686   -1957.8809   -7295.1497    4688.1639   -3266.6571   -959.42592    3136.7969    1389.6295    78.263718 
   27400    168.12696   -122.42167   0.15212481   -122.26954    963.76625    4.2802953    4.2802953    4.2802953    963.76625   -8372.4894    7427.2587    3836.5294   -2457.8976   -1169.2806    3300.3388    78.418981 
   27500    233.08106   -122.47971   0.21089664   -122.26881     1254.084    4.2774488    4.2774488    4.2774488     1254.084   -2240.8005    737.95696    5265.0956   -246.23992   -364.54042    1603.7735    78.262635 
   27600    217.99571   -122.46605    0.1972471    -122.2688    911.35541    4.2773792    4.2773792    4.2773792    911.35541   -6625.1799    9038.8312    320.41495    586.78071    1215.5619   -2363.3931    78.258812 
   27700    238.97202   -122.48507    0.2162269   -122.26884   -3296.9073    4.2812348    4.2812348    4.2812348   -3296.9073   -13131.548    114.49206    3126.3342    777.24819    1103.6308   -595.04207     78.47063 
   27800    163.75188   -122.41756   0.14816614    -122.2694    126.48504    4.2776856    4.2776856    4.2776856    126.48504   -7698.9489    6810.9783    1267.4257    449.25806   -604.03256    1020.0082    78.275633 
   27900    181.10254   -122.43292   0.16386538   -122.26905   -1610.6091    4.2766657    4.2766657    4.2766657   -1610.6091   -3501.5778    2517.4362   -3847.6855   -1031.2696   -1270.8503    3812.0673    78.219656 
   28000    173.38049   -122.42587   0.15687831   -122.26899    65.566797    4.2810715    4.2810715    4.2810715    65.566797   -7611.7362    2223.9345    5584.5021   -573.89715    1439.9806    15.879577     78.46165 
   28100    202.66455   -122.45202   0.18337514   -122.26864    721.39539    4.2781443    4.2781443    4.2781443    721.39539   -7248.4083    6645.0696    2767.5249   -2369.1994    1244.2875   -217.05368    78.300817 
   28200    214.40479   -122.46284   0.19399796   -122.26884   -514.84371    4.2766329    4.2766329    4.2766329   -514.84371   -4848.8603    5007.1939   -1702.8647     1055.852   -506.87194    1165.3973    78.217857 
   28300    183.31757   -122.43508   0.16586959   -122.26921    583.03295    4.2804798    4.2804798    4.2804798    583.03295   -5890.7313     673.3003    6966.5298    420.08077   -1093.6717    1482.5788    78.429125 
   28400    253.46973   -122.49799   0.22934474   -122.26865   -1535.6772    4.2780055    4.2780055    4.2780055   -1535.6772   -1380.3378   -4006.0431    779.34938    710.13747    593.84233   -1954.9981    78.293197 
   28500    186.82157   -122.43798   0.16904008   -122.26894    2420.3437      4.27689      4.27689      4.27689    2420.3437   -4696.8514    10445.792    1512.0903    312.13028    1057.8874   -2597.3681    78.231966 
   28600    239.47382   -122.48536   0.21668094   -122.26868   -3144.7175     4.281379     4.281379     4.281379   -3144.7175   -12542.261    2753.2401    354.86865   -981.30672   -463.83831    1172.3268    78.478559 
   28700    152.01523   -122.40663   0.13754658   -122.26908    2125.4816    4.2773321    4.2773321    4.2773321    2125.4816   -6976.1591    9435.9074    3916.6964    1126.9608   -1397.5421    2992.7142    78.256229 
   28800    186.42256   -122.43762   0.16867905   -122.26894   -1720.4312    4.2763191    4.2763191    4.2763191   -1720.4312   -2147.2837   -1445.3921    -1568.618   -1239.4038   -1063.1017    2476.9352    78.200642 
   28900    197.27348   -122.44736   0.17849719   -122.26886   -3893.2359    4.2817666    4.2817666    4.2817666   -3893.2359   -8805.4514   -2970.2565     96.00008    894.11833    1434.5726   -3852.3891    78.499874 
   29000    201.79507   -122.45123   0.18258842   -122.26864   -296.53789    4.2785172    4.2785172    4.2785172   -296.53789   -7011.3194    2162.7909    3958.9148    606.60441   -492.55853   -721.30652    78.321292 
   29100    224.05123   -122.47152   0.20272626   -122.26879    1556.0214    4.2760931    4.2760931    4.2760931    1556.0214   -4251.0769    10987.343   -2068.2017    681.44676   -1415.3626    1702.3141    78.188241 
   29200    161.69112   -122.41582   0.14630152   -122.26952    3495.1837    4.2801484    4.2801484    4.2801484    3495.1837   -4673.7273    5254.6425    9904.6358    909.83493   -1315.8412    3673.0859     78.41091 
   29300    219.11474   -122.46739   0.19825962   -122.26913   -865.51943     4.278934     4.278934     4.278934   -865.51943   -1428.2508   -1941.6637    773.35628    -627.3754   -1433.8649   -1278.0695    78.344187 
   29400    206.68953   -122.45578   0.18701703   -122.26876    1439.1128    4.2767046    4.2767046    4.2767046    1439.1128   -3417.9358      5721.04    2014.2343    1560.2848    452.39577   -3490.3435    78.221791 
   29500    240.76163   -122.48635   0.21784618    -122.2685   -2336.0207     4.280853     4.280853     4.280853   -2336.0207    -10374.32    657.89502    2708.3628    -1047.848   -324.61013    246.55907     78.44964 
   29600    202.08816   -122.45156   0.18285361    -122.2687   -1502.1815    4.2784617    4.2784617    4.2784617   -1502.1815   -7516.0979    5740.0051   -2730.4518    263.54958    -86.85722    860.91893    78.318246 
   29700    158.22474   -122.41219   0.14316507   -122.26902   -139.08433    4.2759832    4.2759832    4.2759832   -139.08433   -863.71203    2737.1785   -2290.7195   -28.892797    299.17756    2847.3007    78.182213 
   29800    171.97336   -122.42482   0.15560511   -122.26922   -2815.5701    4.2808957    4.2808957    4.2808957   -2815.5701   -8902.1527    2271.1866   -1815.7442   -92.982881    327.08796   -3095.8643    78.451987 
   29900    199.41113   -122.44948   0.18043138   -122.26905   -430.27458    4.2793499    4.2793499    4.2793499   -430.27458   -5671.5163   -2205.2392    6585.9318    1126.4342    -819.5419   -96.452313    78.367031 
   30000    224.75126   -122.47215   0.20335967   -122.26879    3133.1902    4.2755812    4.2755812    4.2755812    3133.1902   -2305.5836    7576.2957    4128.8585    269.44144   -3386.4579    1481.4675    78.160164 
   30100    218.25108   -122.46646   0.19747817   -122.26898    964.85533    4.2793585    4.2793585    4.2793585    964.85533   -2974.5307   -2274.7424    8143.8391    1622.8296   -1258.4447    646.39784    78.367502 
   30200    185.18194   -122.43684   0.16755651   -122.26928   -105.56799    4.2792736    4.2792736    4.2792736   -105.56799    520.19494   -111.54786   -725.35105    -1670.996    1528.9038   -3800.4925    78.362842 
   30300    217.97921   -122.46614   0.19723217   -122.26891   -1209.2341    4.2777485    4.2777485    4.2777485   -1209.2341   -4272.4903     4054.265   -3409.4769   -1090.7744    100.85152   -3877.1776    78.279084 
   30400    206.35423   -122.45533   0.18671364   -122.26862    975.87067    4.2793024    4.2793024    4.2793024    975.87067   -8809.6725    8729.3909    3007.8935   -1040.9944   -1212.9001    2730.2899     78.36442 
   30500    212.84661   -122.46105   0.19258808   -122.26846   -863.90275    4.2780684    4.2780684    4.2780684   -863.90275   -6435.0463    3032.9914    810.34669    830.17999   -1380.4191    1576.1248    78.296649 
   30600    171.27489   -122.42398   0.15497312   -122.26901    -2046.234    4.2776742    4.2776742    4.2776742    -2046.234   -2823.6197    -1322.662   -1992.4203    783.57851   -564.99949    1652.4975    78.275007 
   30700    159.22502   -122.41339   0.14407015   -122.26932   -2354.7905    4.2807446    4.2807446    4.2807446   -2354.7905   -8790.9929    311.33197    1415.2895   -461.66316   -259.69741   -4960.2364    78.443679 
   30800    217.53902   -122.46545   0.19683387   -122.26862   -796.29448    4.2787264    4.2787264    4.2787264   -796.29448   -5570.1702    676.84392    2504.4429   -204.01847   -1570.6814   -1281.1166    78.332783 
   30900    212.29885   -122.46065   0.19209246   -122.26856    3469.2723    4.2767562    4.2767562    4.2767562    3469.2723   -3248.3981    12034.441     1621.774    -2558.878   -333.92295    2255.3586    78.224626 
   31000    233.37358   -122.47996   0.21116132    -122.2688    106.72794    4.2795929    4.2795929    4.2795929    106.72794     -3085.87   -2565.9497    5972.0035   -1665.5819     598.7775    1313.2251    78.380381 
   31100    170.71133   -122.42379    0.1544632   -122.26933    726.88395    4.2791318    4.2791318    4.2791318    726.88395    737.91127   -1124.7756    2567.5162   -394.53748   -55.905611   -3044.7922    78.355047 
   31200    214.05269   -122.46254   0.19367937   -122.26886   -2074.5775     4.278038     4.278038     4.278038   -2074.5775    -3598.957   -3817.2277    1192.4522    1604.7617   -683.90115   -4795.0961    78.294977 
   31300    203.64544   -122.45317   0.18426267   -122.26891    1177.2984    4.2791111    4.2791111    4.2791111    1177.2984   -8783.7695    11680.063    635.60123    598.71102   -2234.4186    1360.4333    78.353914 
   31400     229.8178   -122.47672   0.20794397   -122.26878   -829.38543    4.2772614    4.2772614    4.2772614   -829.38543   -5197.1062    1610.8827    1098.0672   -579.75972    149.12531   -411.77098    78.252346 
   31500     155.2162    -122.4098   0.14044288   -122.26936   -2135.1282    4.2781367    4.2781367    4.2781367   -2135.1282   -2574.2041    3794.6467   -7625.8272    -358.6886    678.88379    1855.0752      78.3004 
   31600    181.26666    -122.4333   0.16401388   -122.26929   -4416.7778    4.2808755    4.2808755    4.2808755   -4416.7778   -8677.2007   -2576.5024   -1996.6303   -2348.6161   -522.18231   -4955.5671    78.450874 
   31700    188.07634   -122.43955   0.17017542   -122.26938    2635.0607    4.2769418    4.2769418    4.2769418    2635.0607   -2558.6517    274.41959    10189.414   -449.64965   -23.455113    756.97327    78.234806 
   31800    232.83146   -122.47934    0.2106708   -122.26867    2973.0487    4.2768291    4.2768291    4.2768291    2973.0487   -1880.6822    6750.8612     4048.967    1084.7021   -1608.1083     1052.886    78.228621 
   31900    221.33341     -122.469   0.20026712   -122.26873    401.77684    4.2802933    4.2802933    4.2802933    401.77684    -2944.772   -6013.3709    10163.473    2384.7388    910.54333   -696.04665    78.418872 
   32000    171.66009   -122.42482   0.15532165    -122.2695    451.29329    4.2779258    4.2779258    4.2779258    451.29329    2544.2926    1460.1978   -2650.6105    98.197692    1405.7684   -6517.3875    78.288817 
   32100    218.29871   -122.46687   0.19752126   -122.26935   -3056.7189    4.2777461    4.2777461    4.2777461   -3056.7189   -2781.3009   -4521.9978    -1866.858   -1796.9127   -1287.9536   -3785.4875    78.278952 
   32200    192.13347   -122.44285    0.1738464   -122.26901    1033.8137    4.2799942    4.2799942    4.2799942    1033.8137   -8768.9904    12023.475   -153.04321   -608.89104   -1857.5083    3707.6447    78.402434 
   32300     251.4754   -122.49573   0.22754023   -122.26819   -1855.3294    4.2774433    4.2774433    4.2774433   -1855.3294   -6079.8212   -3211.2055    3725.0384   -336.39658   -1882.5977   -555.68356    78.262334 
   32400    126.65691   -122.38401   0.11460183   -122.26941    786.30287    4.2780591    4.2780591    4.2780591    786.30287   -3471.4452    3853.6138      1976.74    81.906331    795.65428   -688.61309    78.296137 
   32500    182.86273    -122.4348   0.16545804   -122.26934   -3768.1044    4.2815834    4.2815834    4.2815834   -3768.1044   -8823.6414   -2604.8072    124.13532    358.36601   -248.47096   -6610.8936      78.4898 
   32600    185.00532   -122.43618    0.1673967   -122.26879    3523.8244    4.2768682    4.2768682    4.2768682    3523.8244   -3748.6276     4107.582    10212.519    1538.4825   -657.24769    982.32412    78.230771 
   32700    257.05783   -122.50063   0.23259133   -122.26804    1494.5374    4.2767296    4.2767296    4.2767296    1494.5374   -2667.3967    8291.6908   -1140.6819    161.50122    1925.2505     1413.187    78.223166 
   32800    230.43608   -122.47717   0.20850341   -122.26867   -1713.8278    4.2815565    4.2815565    4.2815565   -1713.8278   -5166.2871   -6673.4371    6698.2408   -1388.9102   -749.54211    -577.2616     78.48832 
   32900    157.92575   -122.41222   0.14289453   -122.26933    966.56752    4.2775808    4.2775808    4.2775808    966.56752    1804.0903   -2867.7654    3963.3777   -97.163439   -1470.3874   -6244.5716    78.269881 
   33000    206.60463   -122.45596   0.18694021   -122.26902   -2143.9326    4.2770751    4.2770751    4.2770751   -2143.9326    -2808.202   -5045.7187    1422.1228    598.65197   -1683.9438   -4910.8875    78.242126 
   33100    193.05899   -122.44334   0.17468383   -122.26866   -177.43816     4.280726     4.280726     4.280726   -177.43816   -10244.262    8020.5902    1691.3578    685.32624   -579.93205    2788.0612    78.442658 
   33200    241.81417   -122.48724   0.21879854   -122.26844   -2649.7482    4.2772657    4.2772657    4.2772657   -2649.7482     -4953.45   -2477.2548      -518.54   -398.49448    1753.4317   -3137.0645    78.252584 
   33300    154.75501   -122.40913   0.14002559   -122.26911   -1106.4228    4.2773222    4.2773222    4.2773222   -1106.4228   -3712.5291    3922.8533   -3529.5926    -55.73155    538.33373   -1718.4279    78.255684 
   33400    179.16715   -122.43124    0.1621142   -122.26912   -3469.6047    4.2817805    4.2817805    4.2817805   -3469.6047   -8485.4477   -3327.3674    1404.0011   -407.14785   -402.53232   -4741.5003    78.500638 
   33500    189.24793   -122.44038    0.1712355   -122.26914    3455.4913    4.2764364    4.2764364    4.2764364    3455.4913   -5001.2433    4362.8631    11004.854    363.53011   -2803.6904    1419.3612    78.207079 
   33600    249.04531   -122.49395   0.22534143   -122.26861    3190.4777     4.276008     4.276008     4.276008    3190.4777   -3456.3139    5740.8566    7286.8904    810.87021   -1930.0998    514.25216    78.183573 
   33700    205.30027   -122.45484      0.18576   -122.26908    597.01756    4.2815375    4.2815375    4.2815375    597.01756   -4711.4577   -2807.9041    9310.4145    27.152471    1245.0699   -3285.2302    78.487274 
   33800    205.74431   -122.45541   0.18616177   -122.26925   -2367.7844    4.2779192    4.2779192    4.2779192   -2367.7844   -971.92591   -2624.5649   -3506.8625    -135.6695    555.87606   -5949.9855    78.288456 
   33900    178.79477   -122.43138   0.16177726   -122.26961    16.392747    4.2764491    4.2764491    4.2764491    16.392747   -2265.3371    1087.3636    1227.1518   -1924.9335    215.75199   -2412.6701    78.207775 
   34000    219.95364   -122.46775   0.19901868   -122.26873   -2545.2304    4.2814064    4.2814064    4.2814064   -2545.2304   -12028.856    4396.2483   -3.0836805    583.83418   -403.52482    3179.8822    78.480069 
   34100    206.95458   -122.45588   0.18725686   -122.26862   -1350.4932    4.2780215    4.2780215    4.2780215   -1350.4932   -6524.2319   -5523.6149    7996.3672   -163.20166    124.20054   -2318.6199    78.294072 
   34200     149.9504   -122.40481   0.13567828   -122.26913    522.20162    4.2769651    4.2769651    4.2769651    522.20162   -4314.5168    3439.0654    2442.0563   -527.18115    39.712448   -4920.2642    78.236084 
   34300    203.48721   -122.45289    0.1841195   -122.26878   -3664.5526    4.2815138    4.2815138    4.2815138   -3664.5526   -8940.5645   -6255.9129    4202.8195    94.119615   -1824.8859   -4358.9811    78.485975 
   34400    173.22772   -122.42562   0.15674008   -122.26888    3160.9541    4.2775296    4.2775296    4.2775296    3160.9541   -7004.5725    9441.3969    7046.0379    -169.3667    -1137.108    986.83568     78.26707 
   34500    266.67952   -122.50964   0.24129723   -122.26834    214.56097    4.2768148    4.2768148    4.2768148    214.56097    -5302.794    4997.1518    949.32514    120.89622    659.68597    628.38621    78.227841 
   34600     177.4172   -122.42979   0.16053081   -122.26926    2990.2913    4.2805149    4.2805149    4.2805149    2990.2913   -4524.5949    1470.3537    12025.115   -2046.5568    904.50295    -1873.948    78.431054 
   34700    205.05869   -122.45488   0.18554141   -122.26933   -1276.7769    4.2780731    4.2780731    4.2780731   -1276.7769   -987.70034   -2817.8077    -24.82279    176.35055   -764.67238   -5975.5241    78.296908 
   34800    198.45787   -122.44876   0.17956885   -122.26919   -966.78197    4.2774904    4.2774904    4.2774904   -966.78197   -4448.0308   -2034.0258    3581.7107    581.54945   -665.48864   -1303.1036    78.264917 
   34900    204.85883     -122.454   0.18536057   -122.26864   -1405.5954    4.2806446    4.2806446    4.2806446   -1405.5954   -11816.609    8542.4381   -942.61548    660.74621    1527.7379    1110.1466     78.43818 
   35000    226.46751   -122.47346   0.20491256   -122.26855    -3375.498    4.2774001    4.2774001    4.2774001    -3375.498   -6486.5813   -2926.4731   -713.43945    303.95331    1662.8702   -2593.9755     78.25996 
   35100    144.16348   -122.39962   0.13044215   -122.26917   -370.74261     4.277812     4.277812     4.277812   -370.74261   -7301.7063    5848.2682    341.21027   -2299.9615   -149.85535   -3837.1039    78.282572 
   35200    201.68668   -122.45153   0.18249035   -122.26904   -2993.1682    4.2809125    4.2809125    4.2809125   -2993.1682   -8900.1516   -7068.0521    6988.6992    111.93601   -528.45365   -2488.6085     78.45291 
   35300    173.21888     -122.426   0.15673208   -122.26926    3118.2792    4.2766938    4.2766938    4.2766938    3118.2792   -7804.1248    7796.1401    9362.8221     143.8295   -142.08917    2143.8896      78.2212 
   35400    242.18173   -122.48786   0.21913112   -122.26873    72.811072     4.277102     4.277102     4.277102    72.811072   -6022.7233    850.70034    5390.4562    720.71748    653.40097   -440.93429      78.2436 
   35500    211.59528   -122.46057   0.19145586   -122.26912    457.00683    4.2808944    4.2808944    4.2808944    457.00683   -4757.5125     1819.906     4308.627   -206.68832     1658.137   -2937.0623    78.451915 
   35600    209.56865   -122.45882   0.18962212    -122.2692   -25.924793    4.2776785    4.2776785    4.2776785   -25.924793   -770.61928    2198.5121   -1505.6672   -244.10588    375.76483   -5319.0067    78.275244 
   35700    200.24799   -122.45044   0.18118859   -122.26925   -422.69736    4.2774381    4.2774381    4.2774381   -422.69736   -3436.8634    634.88911    1533.8822    395.52653   -2186.0062    647.92288    78.262048 
   35800     184.9257   -122.43627   0.16732466   -122.26894   -79.242647    4.2806553    4.2806553    4.2806553   -79.242647   -12542.914      9270.95    3034.2365    56.300928   -575.01805    2440.3005    78.438768 
   35900    206.06422   -122.45508   0.18645124   -122.26863   -1359.2276     4.277438     4.277438     4.277438   -1359.2276   -6890.3781   -3011.7299    5824.4253   -397.36273    1029.3504   -2425.5057    78.262043 
   36000    170.09209   -122.42281    0.1539029   -122.26891   -1186.1068    4.2779603    4.2779603    4.2779603   -1186.1068     -8966.59    4742.0897    666.17974   -2171.8816    189.93829   -4798.0465    78.290715 
   36100    209.12431   -122.45818   0.18922007   -122.26896   -2948.1588    4.2806489    4.2806489    4.2806489   -2948.1588   -10089.395   -6084.7086    7329.6268    100.47812    262.94717   -2768.0462    78.438419 
   36200    176.26858   -122.42882   0.15949152   -122.26933    2498.4529    4.2769364    4.2769364    4.2769364    2498.4529   -7653.3193    11016.393    4132.2846    941.76815    1193.4769    2051.4077    78.234511 
   36300    220.52799   -122.46852   0.19953836   -122.26898    437.54941    4.2772489    4.2772489    4.2772489    437.54941   -8074.7192     1418.614    7968.7534    169.31433    2387.0141    1523.4977     78.25166 
   36400    190.14679   -122.44118   0.17204882   -122.26913     1502.683    4.2803614    4.2803614    4.2803614     1502.683   -5006.3709    1493.8675    8020.5523   -752.68614   -1125.7867   -2406.4937    78.422614 
   36500    222.48119   -122.47009   0.20130565   -122.26878   -231.71748    4.2776192    4.2776192    4.2776192   -231.71748    -877.5905    52.133632    130.30443    528.42423   -2446.0488   -4219.4598    78.271986 
   36600    212.28128   -122.46086   0.19207657   -122.26878   -987.62909    4.2778753    4.2778753    4.2778753   -987.62909    -3976.475   -824.29138    1837.8791    624.35129    559.45128    718.76705    78.286046 
   36700    198.87812   -122.44882    0.1799491   -122.26887   -955.13295    4.2796686    4.2796686    4.2796686   -955.13295   -9996.7885    11991.005   -4859.6156   -493.60297     1357.896    988.52366    78.384543 
   36800    206.77234   -122.45596   0.18709196   -122.26887   -1507.6059    4.2770732    4.2770732    4.2770732   -1507.6059    -6459.346    252.54276    1683.9856   -617.96098    2946.5618    -1747.852    78.242019 
   36900    163.22214   -122.41677   0.14768682   -122.26909   -78.356174    4.2778903    4.2778903    4.2778903   -78.356174   -8409.3235     5270.743    2903.5119   -1920.9054    -301.7851   -4175.5498    78.286872 
   37000    206.18801   -122.45578   0.18656325   -122.26921   -2531.0543     4.280314     4.280314     4.280314   -2531.0543   -9796.8998   -6868.8315    9072.5684    487.78457   -961.46277   -188.01463     78.42001 
   37100     171.6207   -122.42467   0.15528601   -122.26939    1877.3357    4.2771564    4.2771564    4.2771564    1877.3357   -8300.8079    6729.8107    7203.0044    1939.8885      668.942    525.47001    78.246583 
   37200    216.85991   -122.46516    0.1962194   -122.26894   -160.65873    4.2768815    4.2768815    4.2768815   -160.65873   -7491.2362     517.2668    6491.9932   -230.82602    133.59483     954.2382    78.231497 
   37300    223.42148   -122.47092   0.20215645   -122.26877   -1584.1122    4.2802737    4.2802737    4.2802737   -1584.1122   -7291.2058    883.10212    1655.7671    -754.4009    2301.3744   -3461.8422    78.417795 
   37400    210.81162   -122.45959   0.19074679   -122.26884   -753.51334    4.2788088    4.2788088    4.2788088   -753.51334   -2378.2973    681.42031   -563.66301   -1742.2848    223.12634   -3634.8895    78.337309 
   37500    217.45366   -122.46564   0.19675664   -122.26888   -966.42074    4.2777366    4.2777366    4.2777366   -966.42074   -3787.1435    976.35217   -88.470928    564.25288    1273.2798    3472.0501    78.278434 
   37600    163.11932   -122.41691   0.14759379   -122.26931    2086.4246    4.2784443    4.2784443    4.2784443    2086.4246    -8944.727    10958.547    4245.4535     1092.968    1132.5794    804.94214     78.31729 
   37700    207.46405   -122.45655   0.18771783   -122.26884   -1033.1114    4.2780574    4.2780574    4.2780574   -1033.1114   -5854.4928    592.47804    2162.6805   -513.80828   -553.47404    341.83348    78.296045 
   37800    195.58722   -122.44547   0.17697143    -122.2685   -328.84417    4.2786078    4.2786078    4.2786078   -328.84417   -8658.6111    3565.1385    4106.9401   -816.11116    365.93502   -5296.7868    78.326266 
   37900    208.10101   -122.45685   0.18829417   -122.26855   -806.94111    4.2793098    4.2793098    4.2793098   -806.94111   -7567.9331   -3050.6521    8197.7619   -435.21762   -998.40518   -744.00516     78.36483 
   38000    186.39862    -122.4374   0.16865739   -122.26874    1345.7272    4.2772678    4.2772678    4.2772678    1345.7272   -8423.0348    7878.6506    4581.5658      1500.03    1807.4161    2235.5143    78.252699 
   38100    177.98438   -122.42989   0.16104401   -122.26884    1426.6431    4.2777677    4.2777677    4.2777677    1426.6431   -9329.5716   -177.73808    13787.239    -1362.924    1447.3972    1065.4821    78.280141 
   38200    212.93109   -122.46146   0.19266452   -122.26879   -1388.6827    4.2794755    4.2794755    4.2794755   -1388.6827   -6475.4612   -581.69424    2891.1072   -1255.8642   -585.68478   -1066.9597    78.373932 
   38300    218.85774   -122.46678   0.19802708   -122.26875   -1361.4843    4.2788796    4.2788796    4.2788796   -1361.4843   -3883.7756   -2848.9997    2648.3224     1497.338    -178.1342    -4852.402    78.341197 
   38400    215.17878   -122.46371   0.19469828   -122.26901   -1335.5772    4.2779346    4.2779346    4.2779346   -1335.5772    -2645.195    1934.0101   -3295.5467    987.81413    1745.2447    3264.2059    78.289303 
   38500     194.0614   -122.44497   0.17559083   -122.26938   -626.72978    4.2777458    4.2777458    4.2777458   -626.72978   -7764.7176    8470.7606   -2586.2323    336.71228    2853.1801    694.70086    78.278938 
   38600    199.01085   -122.44925    0.1800692   -122.26918   -306.03532    4.2784036    4.2784036    4.2784036   -306.03532   -6945.9266    3535.3422    2492.4783   -1756.2954   -306.08839   -271.99589    78.315053 
   38700     191.2082   -122.44191    0.1730092    -122.2689    1395.1635    4.2788528    4.2788528    4.2788528    1395.1635   -7432.6931    5407.4074    6210.7764   -635.77333   -1197.5681   -2149.8034    78.339727 
   38800    212.19211   -122.46124   0.19199588   -122.26925      799.739    4.2779019    4.2779019    4.2779019      799.739   -6080.1971   -2573.9396    11053.354    711.84885   -119.52259   -625.04949    78.287507 
   38900     148.4582   -122.40424    0.1343281   -122.26991    3337.2582    4.2774339    4.2774339    4.2774339    3337.2582   -6891.6495    8956.4647    7946.9593    1437.7979    1078.6187    1252.4022    78.261814 
   39000    219.92928   -122.46826   0.19899663   -122.26926   -3905.4206    4.2789275    4.2789275    4.2789275   -3905.4206   -10444.509   -4158.0627    2886.3098    466.87898    1187.8507    1009.1553    78.343825 
   39100    210.02147   -122.45909   0.19003184   -122.26906    -2263.437    4.2793859    4.2793859    4.2793859    -2263.437   -5983.4923    2196.6543    -3003.473   -1453.5783      1202.31    -2666.522     78.36901 
   39200    239.83907   -122.48555   0.21701143   -122.26854   -1769.4758    4.2787228    4.2787228    4.2787228   -1769.4758   -2724.5047   -3767.9502    1184.0277   -765.89673   -143.10103   -2195.1668    78.332582 
   39300    189.44344    -122.4403    0.1714124   -122.26888   -631.63443      4.27806      4.27806      4.27806   -631.63443   -3917.2061    2844.6239   -822.32111    267.81623   -569.09988    4100.6046    78.296185 
   39400    149.70841   -122.40479   0.13545931   -122.26933      175.237    4.2779307    4.2779307    4.2779307      175.237   -7200.1577    5490.7034    2235.1653    1284.4679    396.24082    1409.1335     78.28909 
   39500    229.31964   -122.47616   0.20749323   -122.26867   -2392.4181    4.2792452    4.2792452    4.2792452   -2392.4181   -9959.3502    2211.5746    570.52148   -560.45968   -647.60187     23.38376    78.361279 
   39600    201.09033   -122.45025   0.18195075    -122.2683    2257.6236    4.2790264    4.2790264    4.2790264    2257.6236   -7238.8179    6672.0231    7339.6655   -1117.4186    630.49835   -3600.5982     78.34926 
   39700    250.41862   -122.49499   0.22658403   -122.26841   -479.02959    4.2774354    4.2774354    4.2774354   -479.02959   -5073.6307   -1490.1156    5126.6575   -231.71925    1584.3909    1133.4753    78.261897 
   39800    127.68965   -122.38518   0.11553628   -122.26965    4096.5975    4.2782984    4.2782984    4.2782984    4096.5975   -7883.4598    12229.741    7943.5117   -161.45571    1309.1553    818.83699    78.309276 
   39900    189.90815   -122.44116   0.17183288   -122.26933   -2041.1333    4.2792595    4.2792595    4.2792595   -2041.1333   -10453.146   -2130.7882    6460.5342   -1516.8043   -584.43597    2249.0567    78.362065 
   40000    201.14305   -122.45099   0.18199846     -122.269    277.67289      4.27816      4.27816      4.27816    277.67289   -5159.2327     4860.766    1131.4853   -846.42796   -2383.7151   -3172.7083    78.301677 
   40100    252.18565   -122.49671   0.22818288   -122.26853   -873.61627    4.2787175    4.2787175    4.2787175   -873.61627   -1937.2525   -4177.9926    3494.3962    2291.9464   -499.44338   -2222.3447    78.332291 
   40200    209.03396   -122.45857   0.18913832   -122.26943   -3195.7215    4.2784175    4.2784175    4.2784175   -3195.7215   -4509.7902     2547.578   -7624.9523     1005.899    1293.6492    3987.1005    78.315819 
   40300    160.57275    -122.4156   0.14528959   -122.27031   -2451.2829    4.2776558    4.2776558    4.2776558   -2451.2829   -6981.0285    2950.6482   -3323.4684   -1383.5471    1638.9206    826.42006    78.273996 
   40400    212.07397   -122.46177   0.19188899   -122.26988   -1426.2828    4.2794852    4.2794852    4.2794852   -1426.2828   -10420.647    3200.4196    2941.3788   -3482.8801   -0.2639248     1139.833    78.374465 
   40500     192.4646   -122.44313   0.17414601   -122.26898    4919.9401    4.2779235    4.2779235    4.2779235    4919.9401   -7167.5036     8168.846    13758.478   -1301.7007   -7.9414547   -3054.2645    78.288695 
   40600    246.19812   -122.49147   0.22276523   -122.26871   -68.334561    4.2773688    4.2773688    4.2773688   -68.334561   -5819.7465   -1470.2556    7084.9984    1138.2375    780.57122    3068.3966    78.258243 
   40700    115.52877   -122.37449   0.10453286   -122.26995    3150.0563    4.2789436    4.2789436    4.2789436    3150.0563   -8505.0153    12548.191    5406.9929    430.77061    438.07193    95.122155     78.34471 
   40800    216.85692   -122.46521    0.1962167   -122.26899   -3351.9675    4.2789351    4.2789351    4.2789351   -3351.9675   -11066.844    718.10085    292.84051    333.13878   -807.65808    1070.0479    78.344246 
   40900    211.34099   -122.46005   0.19122577   -122.26883    1393.9738    4.2774288    4.2774288    4.2774288    1393.9738   -4589.3549    9596.2003   -824.92393   -1332.5275    -706.3374   -2606.3992    78.261537 
   41000    256.91369    -122.5008   0.23246091   -122.26834   -892.71502    4.2792294    4.2792294    4.2792294   -892.71502   -2794.4811   -2239.1091    2355.4451   -1806.8095    772.49973   -2127.2598    78.360411 
   41100    175.41532   -122.42785   0.15871947   -122.26913   -1001.0959    4.2787653    4.2787653    4.2787653   -1001.0959   -4327.6357    2294.9777   -970.62976   -1241.1464   -88.669079    5377.9303    78.334919 
   41200     142.4428   -122.39882   0.12888524   -122.26994   -1650.3524    4.2778425    4.2778425    4.2778425   -1650.3524   -6552.2585    1619.4951   -18.293796   -220.44177     1109.436     1016.276    78.284244 
   41300    229.44593   -122.47685    0.2076075   -122.26924   -2879.4311    4.2794944    4.2794944    4.2794944   -2879.4311   -9968.3376   -1523.7737    2853.8181   -540.29689   -667.53743   -297.71141     78.37497 
   41400     224.8415   -122.47182   0.20344131   -122.26838    2478.2347    4.2782906    4.2782906    4.2782906    2478.2347   -6499.5085    5830.7372    8103.4753   -511.73321   -388.98818   -2352.1822    78.308851 
   41500    257.51092   -122.50145   0.23300129   -122.26845    -1802.994     4.277689     4.277689     4.277689    -1802.994   -7275.0766    816.06839    1050.0263    736.36204    593.73624    1332.0722    78.275819 
   41600    99.842902    -122.3606  0.090339956   -122.27026    2603.6711    4.2794923    4.2794923    4.2794923    2603.6711   -9616.6442    9601.1573    7826.5001   -1152.4705    -396.0467    3173.7522    78.374852 
   41700    184.74258   -122.43704   0.16715897   -122.26988   -685.05798    4.2782661    4.2782661    4.2782661   -685.05798   -11647.825    6077.6713    3514.9802   -2441.1248   -300.46159    862.08876    78.307501 
   41800     214.6038   -122.46348   0.19417803    -122.2693     2709.665     4.276751     4.276751     4.276751     2709.665     -4497.54    6710.2731    5916.2618   -1656.0972   -2309.7632   -1445.2097    78.224337 
   41900    272.83533   -122.51538   0.24686714   -122.26851   -2363.0583    4.2802028    4.2802028    4.2802028   -2363.0583   -3888.4079   -1101.2976   -2099.4695    1705.5259     2016.339   -778.88419    78.413898 
   42000    194.34838   -122.44527    0.1758505   -122.26941   -2170.2556    4.2787849    4.2787849    4.2787849   -2170.2556   -5385.1369    3699.3061   -4824.9359    1836.5215    139.09419    2225.6298    78.335997 
   42100    140.42474   -122.39735   0.12705925   -122.27029   -1261.6749    4.2767096    4.2767096    4.2767096   -1261.6749     -5668.53    3618.1234   -1734.6182   -626.97637    -2762.888    1552.8094    78.222065 
   42200    212.17524   -122.46162   0.19198062   -122.26964   -2363.3937    4.2796251    4.2796251    4.2796251   -2363.3937   -11559.621    554.19112    3915.2491   -2430.9395   -1617.6503   -221.87352    78.382154 
   42300    225.69413    -122.4726   0.20421279   -122.26838    2552.3716    4.2789348    4.2789348    4.2789348    2552.3716   -6631.6182    1078.0402    13210.693   -1181.9391   -1566.0797    320.81804    78.344229 
   42400    245.05052   -122.49015   0.22172686   -122.26843   -87.738771    4.2767135    4.2767135    4.2767135   -87.738771    -5708.976    3339.4321    2106.3276    706.26136    1923.7753     2924.065    78.222282 
   42500    109.19058   -122.36859   0.09879793   -122.26979    2645.8196    4.2786788    4.2786788    4.2786788    2645.8196   -8442.5454    8169.5331    8210.4709   -1023.7266   -296.91983    156.92538    78.330166 
   42600    188.64893   -122.44009   0.17069351    -122.2694    -1122.616    4.2787288    4.2787288    4.2787288    -1122.616   -10735.865    7438.6888   -70.671957   -340.67677    8.6466579    434.65259    78.332911 
   42700    223.02032   -122.47075   0.20179347   -122.26896    2175.0344    4.2772673    4.2772673    4.2772673    2175.0344   -6572.4494    9878.5753    3218.9774   -392.05172   -1034.5638   -2976.8461     78.25267 
   42800    260.26363   -122.50403   0.23549201   -122.26854    -246.5973    4.2793677    4.2793677    4.2793677    -246.5973   -2843.1602    57.155475    2046.2128    9.1190555    -1345.329    1874.0095    78.368008 
   42900    170.99008   -122.42403   0.15471542   -122.26932   -110.45097    4.2787616    4.2787616    4.2787616   -110.45097   -7052.7746    5040.5204    1680.9013   -75.453457   -540.27036    3927.6942    78.334714 
   43000    147.95423   -122.40381    0.1338721   -122.26994   -2329.6794    4.2769618    4.2769618    4.2769618   -2329.6794   -6809.1662    1336.9339   -1516.8059   -1493.1497   -3621.7936    1785.6025    78.235907 
   43100    216.59131   -122.46543   0.19597637   -122.26946   -3607.3141    4.2797737    4.2797737    4.2797737   -3607.3141   -11730.294    -2707.621    3615.9726   -696.35288   -209.51347   -499.90959    78.390314 
   43200    259.62987   -122.50326   0.23491856   -122.26834    -1008.023    4.2797427    4.2797427    4.2797427    -1008.023   -8808.9978    116.38821    5668.5405   -392.04237   -227.07835   -3054.0759    78.388613 
   43300      234.906   -122.48114   0.21254789   -122.26859   -305.16207    4.2765904    4.2765904    4.2765904   -305.16207   -3930.3511    2475.7383    539.12654    847.33823    246.57393    5721.5381    78.215524 
   43400    100.31047   -122.36078  0.090763021   -122.27002    3452.5263    4.2781455    4.2781455    4.2781455    3452.5263   -9463.2808     8530.882    11289.978    -470.4021   -1248.7293    2294.3141    78.300884 
   43500    173.97922   -122.42728   0.15742005   -122.26986   -1198.1358    4.2794648    4.2794648    4.2794648   -1198.1358   -10691.293    5930.4593    1166.4267   -1680.7459   -1946.1774    1968.3389    78.373343 
   43600     218.2188   -122.46644   0.19744895   -122.26899    1889.8784    4.2779312    4.2779312    4.2779312    1889.8784    -6102.813    6489.6442     5282.804    -483.9931    327.76545   -2518.9465    78.289114 
   43700    277.96819   -122.51992   0.25151146   -122.26841    147.92169    4.2788516    4.2788516    4.2788516    147.92169   -2194.9531    3410.4318   -771.71365    633.61539    37.614468   -535.28017    78.339657 
   43800    180.86937   -122.43296   0.16365441    -122.2693   -481.25611    4.2784139    4.2784139    4.2784139   -481.25611   -4606.0878      2919.74    242.57948    1300.7482    1336.1467    2996.8072    78.315618 
   43900    160.29617   -122.41466   0.14503934   -122.26962   -4045.2775    4.2778807    4.2778807    4.2778807   -4045.2775   -9039.0652    3671.3296   -6768.0968   -2240.7186   -2734.9468    275.74565    78.286342 
   44000     203.7847   -122.45391   0.18438868   -122.26952   -2349.6868     4.279826     4.279826     4.279826   -2349.6868   -11332.494   -1910.3881     6193.822   -2645.7739   -213.04414    1674.5205    78.393188 
   44100    247.49395   -122.49233   0.22393773   -122.26839    290.46793    4.2786989    4.2786989    4.2786989    290.46793   -8326.1025   -768.58092    9966.0872     606.0689    1069.3681   -584.17064    78.331273 
   44200    213.75331   -122.46215   0.19340848   -122.26874   -419.89627    4.2772996    4.2772996    4.2772996   -419.89627   -5232.1266    2028.7851    1943.6527    740.74748   -826.84021    4082.2717    78.254446 
   44300    128.03161   -122.38554   0.11584569   -122.26969    427.55409    4.2784951    4.2784951    4.2784951    427.55409   -8992.3189    3492.9196    6782.0615   -562.93772   -1274.0902     983.5715    78.320079 
   44400    193.00376   -122.44411   0.17463386   -122.26947   -2773.1634    4.2794284    4.2794284    4.2794284   -2773.1634   -11789.547    6855.5701   -3385.5131   -1251.7917   -1643.4485   -455.70276    78.371346 
   44500    216.98039    -122.4652   0.19632842   -122.26887    2077.4172    4.2785122    4.2785122    4.2785122    2077.4172   -5413.2362    6904.4898     4740.998    269.35065    1974.5332   -43.029207    78.321018 
   44600    252.51805   -122.49699   0.22848364   -122.26851    3124.8701     4.278226     4.278226     4.278226    3124.8701   -2524.9156    7629.9311    4269.5948    249.04432   -574.22693    2016.3879      78.3053 
   44700    148.22938    -122.4035   0.13412106   -122.26938    3668.1476    4.2777309    4.2777309    4.2777309    3668.1476   -4210.9256    4904.2457    10311.123    -1515.112     1083.183    3081.5587    78.278119 
   44800    187.70943   -122.43935   0.16984344    -122.2695   -4254.3322    4.2790611    4.2790611    4.2790611   -4254.3322   -8795.6862    381.48686   -4348.7972   -1869.8902    791.91169    1800.6736    78.351166 
   44900    204.38777   -122.45434   0.18493435   -122.26941    -1493.954    4.2799497    4.2799497    4.2799497    -1493.954   -11229.303   -2407.9103    9155.3511   -248.51971   -1034.2454   -933.09886    78.399988 
   45000    287.47877   -122.52832   0.26011683   -122.26821    -1928.759    4.2777278    4.2777278    4.2777278    -1928.759    -5596.325   -4304.7651    4114.8132    2366.3392    160.36543    104.05721    78.277947 
   45100    195.42462   -122.44617    0.1768243   -122.26934    32.681641    4.2775303    4.2775303    4.2775303    32.681641   -5292.1584    798.18909    4592.0142    455.79262   -1813.1786    4635.1386    78.267106 
   45200    125.22195   -122.38331   0.11330346      -122.27   -1311.3387    4.2800641    4.2800641    4.2800641   -1311.3387   -11281.918    1420.0396    5927.8621   -1830.0084   -806.72865    1733.1827    78.406274 
   45300    160.65461   -122.41498   0.14536367   -122.26962   -287.82379    4.2786461    4.2786461    4.2786461   -287.82379   -10320.268    4978.0892    4478.7071   -1987.5726   -1562.6838    1603.4466    78.328372 
   45400    197.25414   -122.44703   0.17847969   -122.26855    3981.6773    4.2778305    4.2778305    4.2778305    3981.6773   -5186.8961     9053.298    8078.6301   -211.38385    2163.1032   -1046.4456    78.283586 
   45500    279.67245   -122.52123   0.25305351   -122.26817   -459.34832    4.2791393    4.2791393    4.2791393   -459.34832   -919.85422   -743.33424    285.14349    1355.2538    1171.2927    2844.6776    78.355461 
   45600    175.39744   -122.42799   0.15870329   -122.26928    2557.3435    4.2779307    4.2779307    4.2779307    2557.3435   -4351.8122    4994.7127    7029.1299    887.13167   -2036.1462    1536.1304     78.28909 
   45700    219.92772   -122.46798   0.19899522   -122.26899   -3732.0926    4.2789931    4.2789931    4.2789931   -3732.0926   -7054.9116    368.71027   -4510.0766   -539.52873   -1669.5746   -216.51927    78.347431 
   45800    167.73034   -122.42128   0.15176593   -122.26951    1121.3432     4.279557     4.279557     4.279557    1121.3432   -10146.726    -1866.803    15377.559    -794.4344   -661.44228    652.41761    78.378409 
   45900    255.26038   -122.49964   0.23096495   -122.26868   -479.85667    4.2773524    4.2773524    4.2773524   -479.85667    -6116.064   -810.25783    5486.7519     1260.092    1862.0208   -531.84818     78.25734 
   46000    183.55623   -122.43507   0.16608554   -122.26899    -505.9436    4.2781706    4.2781706    4.2781706    -505.9436   -2414.7948   -3383.5251    4280.4891   -87.128348    482.05329    8411.9298    78.302258 
   46100    167.14908   -122.42037      0.15124   -122.26913   -6004.7223    4.2805362    4.2805362    4.2805362   -6004.7223   -12886.965   -486.26819   -4640.9341   -2135.0115   -259.13551    785.34646    78.432221 
   46200    167.19842   -122.42044   0.15128465   -122.26915   -1900.8252      4.27832      4.27832      4.27832   -1900.8252   -8792.4313    527.11019    2562.8454   -1083.9961   -2150.2032   -488.18862    78.310463 
   46300    198.11752    -122.4479   0.17926089   -122.26864    2657.3935    4.2777312    4.2777312    4.2777312    2657.3935   -5267.2334    7326.8767    5912.5372    1242.8165   -1141.7818   -41.254357    78.278137 
   46400    250.66053   -122.49531   0.22680291   -122.26851    135.57442    4.2792768    4.2792768    4.2792768    135.57442    -3912.118   -1225.0271    5543.8684    2640.7907   -2099.9723    338.21786    78.363018 
   46500    191.53497   -122.44243   0.17330486   -122.26912    3371.1518    4.2781188    4.2781188    4.2781188    3371.1518   -3832.8537    6565.8149    7380.4943   -339.18104   -1515.4519    5328.7596    78.299415 
   46600    215.67086   -122.46437   0.19514353   -122.26923   -319.63365    4.2784682    4.2784682    4.2784682   -319.63365   -8768.1685    8124.1735   -314.90599   -1530.3049    1433.2039   -655.81382    78.318602 
   46700    179.20689   -122.43152   0.16215016   -122.26937    160.26805    4.2788333    4.2788333    4.2788333    160.26805   -7954.6407   -112.10002    8547.5449    514.05374    919.18049    1590.7096    78.338651 
   46800    252.73704   -122.49711   0.22868179   -122.26843   -2767.0276    4.2781349    4.2781349    4.2781349   -2767.0276   -8477.3847    1.7767889    174.52509    2546.7284    258.42359   -1100.6863      78.3003 
   46900    187.81662   -122.43889   0.16994042   -122.26895   -773.05971    4.2785261    4.2785261    4.2785261   -773.05971   -2722.5154   -2600.4678    3003.8041    415.63994   -1684.1603    3766.0419    78.321781 
   47000    179.49046   -122.43146   0.16240674   -122.26905   -4208.7135    4.2794237    4.2794237    4.2794237   -4208.7135   -10122.206   -217.10938   -2286.8255   -1957.9795   -862.00875    2534.0005    78.371083 
   47100    156.12736   -122.41038   0.14126732   -122.26912    -484.1324    4.2782752    4.2782752    4.2782752    -484.1324   -10143.222     4682.362    4008.4633    330.64712   -884.33836   -816.37048    78.308004 
   47200    157.49003   -122.41146   0.14250029   -122.26896    3435.6661    4.2778961    4.2778961    4.2778961    3435.6661   -3085.2776    10497.642    2894.6344    1877.5908    464.52573    3515.9224    78.287187 
   47300    257.75928   -122.50155   0.23322601   -122.26832   -462.17107    4.2789529    4.2789529    4.2789529   -462.17107   -4438.4759    3159.6421   -107.67942    1286.1425    1025.7466    1171.7639    78.345222 
   47400    196.36431   -122.44624   0.17767455   -122.26856    4680.8853    4.2784081    4.2784081    4.2784081    4680.8853   -2837.9506    12166.412    4714.1944   -112.87991   -2109.9442    1936.3756    78.315303 
   47500    261.62072   -122.50492   0.23671992    -122.2682   -1632.6002    4.2783462    4.2783462    4.2783462   -1632.6002   -7873.6549    5494.9152   -2519.0608   -101.74381   -1211.7406   -1174.6421    78.311901 
   47600    168.64139   -122.42163   0.15259027   -122.26904     746.3405    4.2784105    4.2784105    4.2784105     746.3405   -8735.4798    2831.6588    8142.8425    1010.4457    877.34102   -888.92621    78.315434 
   47700    227.94042   -122.47475   0.20624529   -122.26851   -3489.7536    4.2789975    4.2789975    4.2789975   -3489.7536    -8216.105   -2893.2945    640.13877    2220.1251    1479.0671    2657.2827    78.347673 
   47800    184.57544   -122.43616   0.16700774   -122.26915    -36.40655    4.2785956    4.2785956    4.2785956    -36.40655   -5187.3293    5650.0743   -571.96467    150.55893   -414.35071    4910.9223    78.325599 
   47900    164.00843   -122.41783   0.14839828   -122.26943    401.50445    4.2782434    4.2782434    4.2782434    401.50445   -5297.9113    8526.6768   -2024.2522    37.360193   -38.099059    1773.2146    78.306257 
   48000    189.39774   -122.44065   0.17137106   -122.26928   -3074.1103    4.2789605    4.2789605    4.2789605   -3074.1103   -10932.612    7339.5586   -5629.2776    1021.5102    1670.0099   -772.15142    78.345641 
   48100    142.28741     -122.398   0.12874464   -122.26925    523.59448    4.2793406    4.2793406    4.2793406    523.59448   -4829.5203    5797.3497    602.95403    2814.8252   -96.022646    1198.8033    78.366519 
   48200     272.8214   -122.51519   0.24685453   -122.26834   -2818.5862    4.2788137    4.2788137    4.2788137   -2818.5862    -2020.501   -1849.2991   -4585.9585    1608.0658   -609.05269    2689.6349    78.337576 
   48300    220.26593   -122.46803   0.19930124   -122.26873    3404.7112    4.2786558    4.2786558    4.2786558    3404.7112    -4570.013    10383.939    4400.2079   -2004.4931   -1195.2678    2131.4579    78.328904 
   48400    230.03656   -122.47677   0.20814191   -122.26862    842.64948    4.2783502    4.2783502    4.2783502    842.64948   -4987.0223    6781.4258    733.54499    -992.8436    768.43681   -827.03773    78.312123 
   48500    178.81032   -122.43073   0.16179134   -122.26893    311.27993    4.2786816    4.2786816    4.2786816    311.27993   -9633.8456    6602.6793    3965.0061    1908.7224    1557.4336    1001.8034    78.330321 
   48600    173.12539   -122.42568   0.15664749   -122.26903   -199.41982     4.279183     4.279183     4.279183   -199.41982   -4786.8592   -1544.3928    5732.9925    4400.4226    -468.1753    190.61589    78.357864 
   48700    224.54274   -122.47181   0.20317099   -122.26864   -1681.6406    4.2785361    4.2785361    4.2785361   -1681.6406   -3971.7667    3392.8395   -4465.9945    620.69433   -1303.6849    4740.2775     78.32233 
   48800    200.27015   -122.44979   0.18120864   -122.26858   -250.06767    4.2779937    4.2779937    4.2779937   -250.06767   -4653.9344     1459.549    2444.1823   -983.27382   -450.29791   -65.250756    78.292545 
   48900    182.13879   -122.43359     0.164803   -122.26879   -2644.0855     4.279463     4.279463     4.279463   -2644.0855   -8236.3637     6366.303   -6062.1958    614.57804    1969.7423   -1784.4539    78.373247 
   49000    151.88978   -122.40637   0.13743307   -122.26894   -803.80348    4.2791561    4.2791561    4.2791561   -803.80348   -8905.3888    5279.4623    1214.5161     1050.848     585.7237    3289.5153    78.356383 
   49100    191.18736   -122.44166   0.17299034   -122.26867    1664.5756    4.2776907    4.2776907    4.2776907    1664.5756   -512.85813    5296.3607    210.22409    997.39011    1574.3999     2135.796    78.275914 
   49200    263.08873   -122.50629   0.23804821   -122.26824    165.66808    4.2785963    4.2785963    4.2785963    165.66808   -5736.4183    6426.7016   -193.27911   -923.13141    968.12045    4150.3276    78.325638 
   49300    226.14854   -122.47343   0.20462396   -122.26881    505.60064     4.278733     4.278733     4.278733    505.60064   -4910.1694    2201.8312    4225.1401     1337.621   -1477.2267   -3086.4812    78.333142 
   49400    207.18277   -122.45685   0.18746332   -122.26938   -2343.3385     4.278362     4.278362     4.278362   -2343.3385    -6593.603   -2277.3121    1840.8997    2520.1865   -711.89697    515.25972     78.31277 
   49500     179.7152   -122.43222   0.16261009   -122.26961    -369.2834    4.2787401    4.2787401    4.2787401    -369.2834   -4602.9409   -4803.1931    8298.2837    1621.8657   -642.14628    96.870928    78.333532 
   49600    177.05956   -122.42942   0.16020721   -122.26921    3532.5847    4.2778878    4.2778878    4.2778878    3532.5847   -1542.0127    11737.523     402.2442   -694.02213    1090.8372    2701.9171    78.286734 
   49700    213.79335   -122.46193   0.19344472   -122.26849    572.88771    4.2781429    4.2781429    4.2781429    572.88771   -6897.9997         4621    3995.6628   -1624.8999    259.45036    2156.5187    78.300739 
   49800    162.09583   -122.41562   0.14666771   -122.26895   -159.86214    4.2795827    4.2795827    4.2795827   -159.86214   -8779.5771    9923.6059   -1623.6152    1437.2356     2539.391   -1996.6227     78.37982 
   49900    182.35622   -122.43388   0.16499974   -122.26888   -2245.0019    4.2782782    4.2782782    4.2782782   -2245.0019   -8767.8053    2516.7164   -483.91672    3017.5188    1814.2037    3739.2676    78.308166 
   50000    205.88384    -122.4549   0.18628803   -122.26861   -1993.5156    4.2780187    4.2780187    4.2780187   -1993.5156   -4030.7658   -1346.7814   -602.99937    2156.3556   -1718.5215    1637.6773    78.293919 
   50100    241.35718   -122.48676   0.21838505   -122.26838   -1638.4892    4.2793507    4.2793507    4.2793507   -1638.4892   -4409.6282    5121.2346    -5627.074   -1417.9121    141.40219    1745.7659    78.367077 
   50200    251.18792   -122.49564   0.22728011   -122.26836   -1382.4225     4.278801     4.278801     4.278801   -1382.4225   -7786.9661     2871.223    768.47556     493.8745   -770.39129   -1412.6388    78.336881 
   50300     167.2566   -122.42037   0.15133728   -122.26904    1514.1924    4.2780984    4.2780984    4.2780984    1514.1924   -5002.4831    6566.8409    2978.2195    2167.3777    2407.7244    17.421513    78.298293 
   50400    173.90993   -122.42645   0.15735736   -122.26909    214.27421    4.2788048    4.2788048    4.2788048    214.27421   -4309.9641   -2586.3539    7539.1406    987.93967    792.13603    3832.2283     78.33709 
   50500    191.09861   -122.44142   0.17291004   -122.26851    2119.0058     4.278044     4.278044     4.278044    2119.0058    -3124.764    5736.3474    3745.4339   -613.72271   -364.79441    1898.8467    78.295309 
   50600    213.95668   -122.46181    0.1935925   -122.26822    858.76525    4.2786241    4.2786241    4.2786241    858.76525     -5147.16    2669.4472    5054.0085   -574.90725    556.30054   -122.90299    78.327164 
   50700    226.84166   -122.47383    0.2052511   -122.26858   -2306.2255    4.2794173    4.2794173    4.2794173   -2306.2255   -10497.131    3902.7764   -324.32171    2304.2086   -1024.5164   -2445.5391    78.370732 
   50800    141.24632   -122.39713   0.12780264   -122.26933    1456.3469    4.2778274    4.2778274    4.2778274    1456.3469   -5825.7934    9956.4698    238.36436    1983.1789    1686.1756    2124.6956    78.283415 
   50900    185.64269   -122.43734    0.1679734   -122.26937   -2060.5379     4.277754     4.277754     4.277754   -2060.5379   -5132.2308    600.83151   -1650.2143    1409.9993   -813.49049    6113.1058    78.279387 
   51000    232.14957   -122.47907   0.21005381   -122.26902   -3431.8072    4.2798315    4.2798315    4.2798315   -3431.8072   -6185.4285    2297.0298   -6407.0229   -1220.6102    3276.4175    1893.2026    78.393492 
   51100    233.72933    -122.4803   0.21148321   -122.26881   -1421.5907    4.2792076    4.2792076    4.2792076   -1421.5907   -6041.1686    1429.8584    346.53793    238.70462    2303.1819   -1823.9244    78.359213 
   51200    240.87512   -122.48678   0.21794887   -122.26883   -2386.1246    4.2775002    4.2775002    4.2775002   -2386.1246   -7283.4968   -4121.7674    4246.8903    1978.9902   -859.59551     542.3428    78.265457 
   51300     145.5909   -122.40119    0.1317337   -122.26946    1586.3602    4.2785297    4.2785297    4.2785297    1586.3602   -771.20454   -1012.9217    6543.2067    592.42379    1151.3039    2063.7937    78.321982 
   51400    188.10357   -122.43911   0.17020006   -122.26891    115.65486    4.2791474    4.2791474    4.2791474    115.65486   -6480.9993     7250.103   -422.13905     539.2351   -1321.7634    3516.9162    78.355907 
   51500    192.38929   -122.44252   0.17407787   -122.26845     4061.385    4.2782174    4.2782174    4.2782174     4061.385   -5010.4483    9898.9998    7295.6036    266.32949    1748.6508   -249.41745    78.304831 
   51600    203.99793   -122.45286   0.18458161   -122.26828    3559.9338    4.2781211    4.2781211    4.2781211    3559.9338   -6321.1785    13158.498    3842.4814    1752.3715   -485.20923   -604.45238     78.29954 
   51700    204.39124   -122.45375   0.18493749   -122.26882   -2248.7167    4.2784921    4.2784921    4.2784921   -2248.7167   -9224.1611    1022.4524    1455.5587    1204.0951    1408.5768    2222.4795    78.319913 
   51800    151.94935   -122.40696   0.13748697   -122.26947   -1743.3673    4.2784459    4.2784459    4.2784459   -1743.3673   -2919.2983   -1397.5056   -913.29804   -675.93169     802.2165    4326.8442    78.317379 
   51900    250.78571   -122.49559   0.22691618   -122.26867   -5572.0799    4.2801879    4.2801879    4.2801879   -5572.0799   -8304.7028   -121.94522   -8289.5917    -1104.388   -1526.4071    2433.0146    78.413081 
   52000    217.79003   -122.46569   0.19706099   -122.26863    92.889202    4.2786621    4.2786621    4.2786621    92.889202   -4777.2861    9254.9088   -4198.9551    1560.2188     2999.542   -2947.0523    78.329249 
   52100    220.61194   -122.46842   0.19961432   -122.26881    -22.13113    4.2778758    4.2778758    4.2778758    -22.13113   -5078.6102    5949.4081    -937.1913    3846.9601   -711.47254    1189.6288    78.286073 
   52200    166.98187   -122.42057   0.15108871   -122.26948   -240.74284    4.2791868    4.2791868    4.2791868   -240.74284   -4879.8301     1551.281    2606.3206    1327.7002    1907.2077    3853.1097    78.358069 
   52300    158.37859   -122.41255   0.14330427   -122.26924   -414.48809    4.2794445    4.2794445    4.2794445   -414.48809   -3138.4841    4295.5831   -2400.5632   -1103.7253    128.80793     3003.706    78.372226 
   52400     242.2222   -122.48753   0.21916774   -122.26836    448.79875    4.2783568    4.2783568    4.2783568    448.79875   -8331.4102    2250.6049    7427.2015   -1048.3411   -98.980753   -334.05508    78.312485 
   52500    209.19247   -122.45778   0.18928174    -122.2685    5073.9121    4.2776625    4.2776625    4.2776625    5073.9121   -2785.6456    11995.064    6012.3185     461.6467    1174.6824   -2020.0487    78.274366 
   52600    183.23779   -122.43507   0.16579741   -122.26927     49.92285    4.2782388    4.2782388    4.2782388     49.92285   -7914.4354    6406.6514    1657.5525    197.22049   -2039.6932    3700.7258    78.306006 
   52700     146.9814   -122.40297   0.13299186   -122.26997   -2577.0379    4.2795705    4.2795705    4.2795705   -2577.0379   -6429.7525    406.16576   -1707.5271   -301.39126     1641.902    4259.8348    78.379151 
   52800    207.69712   -122.45732   0.18792872    -122.2694   -2821.4143    4.2793553    4.2793553    4.2793553   -2821.4143   -1595.6167   -235.31926   -6633.3068    153.88251   -1023.8824    2295.1034    78.367328 
   52900    257.82368   -122.50161   0.23328429   -122.26833   -1298.0794    4.2777839    4.2777839    4.2777839   -1298.0794   -5615.3038    2775.2844   -1054.2186    994.24324     2425.785   -2610.2127    78.281027 
   53000    250.64172   -122.49516    0.2267859   -122.26837   -2415.1741    4.2786881    4.2786881    4.2786881   -2415.1741   -1694.1186   -3083.0589   -2468.3447    602.28421   -387.35464    1151.6602     78.33068 
   53100    158.54468   -122.41272   0.14345456   -122.26927   -1327.4341    4.2794442    4.2794442    4.2794442   -1327.4341   -6292.6687    1252.7044     1057.662    -1538.206    -1878.879    5191.5108    78.372214 
   53200    163.70681   -122.41756   0.14812536   -122.26944   -1280.1118    4.2785867    4.2785867    4.2785867   -1280.1118   -4407.0164    5299.3924   -4732.7114   -1392.7194    1842.4428    1086.8185    78.325111 
   53300    174.76903   -122.42713   0.15813469     -122.269    4970.3467     4.277626     4.277626     4.277626    4970.3467    -5749.677    11649.515    9011.2021   -899.06315   -683.46387   -1083.6365    78.272359 
   53400    251.27799   -122.49549    0.2273616   -122.26812    2024.8738    4.2781733    4.2781733    4.2781733    2024.8738   -7462.5386    7533.3994    6003.7606    1295.9789    1884.4177   -2003.7983    78.302408 
   53500    196.12453   -122.44637    0.1774576   -122.26891   -959.20984    4.2785567    4.2785567    4.2785567   -959.20984   -5396.1277   -1522.1536    4040.6517    769.25601     -1866.79    3106.5068    78.323463 
   53600    151.76646   -122.40698   0.13732148   -122.26966    -2460.856    4.2791219    4.2791219    4.2791219    -2460.856   -9032.2064   -2001.9481    3651.5865   -2063.3987    484.02318     4958.628    78.354508 
   53700    217.96871    -122.4666   0.19722267   -122.26938   -3059.8676    4.2791823    4.2791823    4.2791823   -3059.8676   -2407.0728    452.81689   -7225.3469   -990.79671   -592.84527    676.84328    78.357825 
   53800    198.73488   -122.44872    0.1798195   -122.26891    3613.4551    4.2775734    4.2775734    4.2775734    3613.4551    -3629.364    14056.049    413.68009   -440.04207   -1936.3033   -2894.5129    78.269471 
   53900    283.73949   -122.52507   0.25673345   -122.26834   -3313.2975    4.2789525    4.2789525    4.2789525   -3313.2975   -4263.8684     525.2536   -6201.2777    344.31249    952.99417    587.60116    78.345201 
   54000    139.09567    -122.3955   0.12585668   -122.26964    107.89167    4.2792182    4.2792182    4.2792182    107.89167    -2944.776    3878.1898   -609.73884   -927.83293   -1742.5165    6281.4849    78.359795 
   54100    185.64181    -122.4375   0.16797261   -122.26953   -3625.7571    4.2783347    4.2783347    4.2783347   -3625.7571   -5351.4563   -1027.1835   -4498.6314   -1392.0323    2380.6662    1790.1114    78.311273 
   54200     192.4762   -122.44335   0.17415651    -122.2692    1520.0017     4.278241     4.278241     4.278241    1520.0017   -5105.2361    4538.0458    5127.1953     535.8594   -511.31808   -3027.3574    78.306126 
   54300    224.48937   -122.47144    0.2031227   -122.26832    2687.2163    4.2784331    4.2784331    4.2784331    2687.2163   -7379.6832    9209.6554    6231.6766    517.65522   -447.94654   -2302.2553    78.316676 
   54400    212.46049   -122.46095   0.19223871   -122.26871   -581.97704    4.2785845    4.2785845    4.2785845   -581.97704   -7799.9286    3183.9771    2870.0204    130.33594   -372.41656    3043.6822    78.324989 
   54500    112.68261   -122.37202    0.1019576   -122.27006    1417.5856    4.2790308    4.2790308    4.2790308    1417.5856   -6246.5235    5171.1716    5328.1088   -2571.2951    -2004.023    4083.1458    78.349501 
   54600    223.27056   -122.47123   0.20201989   -122.26921   -2987.5631    4.2782994    4.2782994    4.2782994   -2987.5631   -4027.8582   -306.93872   -4627.8924   -1171.8297    2446.9266   -85.783086    78.309333 
   54700    224.11419   -122.47149   0.20278323   -122.26871    1312.1292     4.277972     4.277972     4.277972    1312.1292   -654.42192     3539.178    1051.6315    129.26718   -798.48339   -3434.1965    78.291354 
   54800     282.5856   -122.52392   0.25568939   -122.26824   -3594.1969    4.2797875    4.2797875    4.2797875   -3594.1969   -3850.0319   -1250.4913   -5682.0674   -563.63969    1188.6906    696.23242    78.391077 
   54900    174.90659   -122.42749   0.15825915   -122.26923     -961.688    4.2786149    4.2786149    4.2786149     -961.688   -4447.3169    4201.0053   -2638.7525   -347.26708   -1679.3804    5096.0125    78.326656 
   55000    134.72751   -122.39161   0.12190428    -122.2697   -282.31898    4.2774537    4.2774537    4.2774537   -282.31898   -1853.7538    5043.9255   -4037.1286   -951.24636   -1463.3794    1090.3051    78.262904 
   55100    180.80741   -122.43301   0.16359835   -122.26941   -597.05406    4.2788887    4.2788887    4.2788887   -597.05406    -7341.202    5493.3757    56.664067    653.76626    1178.7424    -3429.056    78.341695 
   55200    243.24582   -122.48852   0.22009393   -122.26842    73.165928    4.2789771    4.2789771    4.2789771    73.165928   -6247.9707    2333.2763    4134.1922   -263.11539   -1973.4891   -1766.2481     78.34655 
   55300    215.70514    -122.4641   0.19517455   -122.26892    528.43134    4.2780823    4.2780823    4.2780823    528.43134    -6603.495    2146.6487    6042.1403   -1215.0938    1452.2509     2722.381    78.297414 
   55400    163.13685   -122.41713   0.14760965   -122.26952   -698.23826    4.2787756    4.2787756    4.2787756   -698.23826   -5688.4643    -2163.673    5757.4225   -1783.8012   -589.93901    2806.9324    78.335483 
   55500    163.96527   -122.41794   0.14835922   -122.26958    677.43995    4.2782578    4.2782578    4.2782578    677.43995   -1815.8909    6229.9876   -2381.7768   -370.64568    1670.3541    -546.3372    78.307047 
   55600    227.13279   -122.47448   0.20551453   -122.26897    1577.5837    4.2779809    4.2779809    4.2779809    1577.5837   -2935.0198     5894.289     1773.482    1758.6146   -697.13841   -3762.6395    78.291847 
   55700    275.19361   -122.51723   0.24900097   -122.26822   -1505.1629    4.2796969    4.2796969    4.2796969   -1505.1629   -1202.3936    1840.4677   -5153.5628    871.42984   -2463.3416    1006.8801    78.386095 
   55800    184.57805    -122.4361   0.16701009   -122.26909   -925.96732    4.2782293    4.2782293    4.2782293   -925.96732   -4650.4708    3996.6411   -2124.0723    -624.1961    1541.9873    6302.5045    78.305484 
   55900    168.18664   -122.42168    0.1521788    -122.2695    -4742.757    4.2777131    4.2777131    4.2777131    -4742.757   -3427.9935   -6410.9309   -4389.3468   -2426.7754   -838.85405   -423.54743    78.277143 
   56000    153.65221   -122.40848   0.13902775   -122.26945   -1626.9195    4.2800667    4.2800667    4.2800667   -1626.9195   -4847.0312    2121.2093   -2154.9366   -516.68642    1920.0901   -4991.8714    78.406419 
   56100    249.81675   -122.49416   0.22603944   -122.26812   -398.53821    4.2787354    4.2787354    4.2787354   -398.53821   -7918.3981     5606.602    1116.1815    120.03314   -739.28157   -2967.6816    78.333278 
   56200    199.98681   -122.44941   0.18095227   -122.26845     3774.626    4.2772249    4.2772249    4.2772249     3774.626   -3014.1162    6868.3899    7469.6043   -965.81897   -398.25939    3582.7828    78.250344 
   56300    157.93827   -122.41232   0.14290587   -122.26942     1309.299    4.2791877    4.2791877    4.2791877     1309.299   -6101.9007    4992.6249    5037.1728   -11.373694   -12.119445    2935.4163    78.358121 
   56400    184.33894   -122.43619   0.16679375   -122.26939   -813.44545    4.2785314    4.2785314    4.2785314   -813.44545    -877.2134   -830.08117   -733.04177    331.03532   -508.70099   -1640.2756    78.322074 
   56500    211.59167   -122.46047   0.19145259   -122.26902    1706.1595    4.2781385    4.2781385    4.2781385    1706.1595   -1308.6996    1258.1531     5169.025    581.72306    2651.7049   -3161.4211      78.3005 
   56600    307.66627   -122.54668    0.2783829    -122.2683   -2169.5586    4.2792007    4.2792007    4.2792007   -2169.5586   -2057.2065   -523.56462   -3927.9046   -1637.6414   -314.68801   -1023.8481    78.358835 
   56700    172.49467   -122.42562    0.1560768   -122.26954    1281.7666    4.2777534    4.2777534    4.2777534    1281.7666   -947.05295    6743.3443   -1950.9916   -2411.2644    1424.8515    5742.7943    78.279357 
   56800    157.39211   -122.41231   0.14241169    -122.2699   -5425.5375    4.2792216    4.2792216    4.2792216   -5425.5375   -8398.6763    957.10416   -8835.0403   -1271.5952   -175.97471   -767.56126    78.359985 
   56900    141.10036   -122.39748   0.12767057   -122.26981   -1377.8467    4.2798326    4.2798326    4.2798326   -1377.8467   -1881.8964    334.55834   -2586.2019    298.58689    294.57525   -4022.1643    78.393551 
   57000    238.76566   -122.48422   0.21604018   -122.26818    1038.5053    4.2775429    4.2775429    4.2775429    1038.5053   -4497.9516    5423.9342    2189.5334    1698.0006    116.23255   -2058.3456    78.267801 
   57100     235.6249   -122.48139   0.21319836   -122.26819    996.09022    4.2779154    4.2779154    4.2779154    996.09022   -6226.4139   -109.33684    9324.0214   -697.31693   -1192.5964    1698.4893     78.28825 
   57200    159.01281   -122.41332   0.14387813   -122.26944    533.56352    4.2800587    4.2800587    4.2800587    533.56352   -4082.2637    1208.2221    4474.7322   -1863.6988    1790.8876    1565.3091    78.405975 
   57300    182.78391   -122.43486   0.16538673   -122.26947   -482.92282    4.2783709    4.2783709    4.2783709   -482.92282   -2888.4703    2373.6509   -933.94912   -876.84748    1200.9795   -3435.7698    78.313257 
   57400     196.0141   -122.44667   0.17735767   -122.26931    3562.9737     4.277192     4.277192     4.277192    3562.9737    625.20495    2301.0714    7762.6447    29.627609    984.40149   -1461.9885    78.248538 
   57500     288.9536   -122.52978   0.26145129   -122.26833   -790.04363    4.2793021    4.2793021    4.2793021   -790.04363   -4299.3073    4567.1785   -2638.0021     833.1395   -2058.8546   -272.96635    78.364403 
   57600    187.04666   -122.43828   0.16924375   -122.26903   -720.17927     4.279022     4.279022     4.279022   -720.17927   -2378.7216   -1874.7851    2092.9689   -154.31263    1374.6616    6642.4046    78.349019 
   57700    163.41587   -122.41723   0.14786211   -122.26936   -6251.7502    4.2787904    4.2787904    4.2787904   -6251.7502    -5279.389   -6895.5972   -6580.2645    -610.4414    3308.9875   -1008.3801    78.336297 
   57800    153.37474   -122.40822   0.13877668   -122.26945   -2804.9721    4.2794318    4.2794318    4.2794318   -2804.9721   -4124.6291   -5185.0319    894.74478    349.16783    1196.0473   -6592.4919    78.371528 
   57900    234.06932   -122.48007   0.21179084   -122.26828    803.56706    4.2779402    4.2779402    4.2779402    803.56706   -699.94816    5404.8655   -2294.2162    225.28428    432.89933   -1453.1462    78.289611 
   58000    227.90274   -122.47491   0.20621119    -122.2687    2444.2735    4.2777914    4.2777914    4.2777914    2444.2735   -6869.2013    4792.4532    9409.5686   -1585.7291   -1040.6892    1948.6741     78.28144 
   58100    175.45694   -122.42859   0.15875713   -122.26984    701.70401    4.2795781    4.2795781    4.2795781    701.70401   -3698.2782    4858.6948    944.69549   -901.55038   -227.05575    2457.3124    78.379571 
   58200    153.20439   -122.40873   0.13862255    -122.2701    1173.8681    4.2784251    4.2784251    4.2784251    1173.8681   -878.18983    1385.3212     3014.473    818.94254   -479.88342    -2964.157    78.316235 
   58300    206.22149    -122.4562   0.18659353   -122.26961    2159.9245    4.2769318    4.2769318    4.2769318    2159.9245    -847.8792   -3420.5836    10748.236    2038.3669     2401.365   -2266.7924    78.234257 
   58400    296.27433    -122.5366   0.26807524   -122.26853   -3332.1094     4.279361     4.279361     4.279361   -3332.1094   -3599.2157   -1201.0877   -5196.0248   -877.38763    67.942275   -1484.1972    78.367638 
   58500    200.64542   -122.45052   0.18154819   -122.26897   -3273.1603    4.2800356    4.2800356    4.2800356   -3273.1603   -5046.3778    -3449.986   -1323.1172   -1475.3015   -305.93644    5271.7445    78.404708 
   58600    184.64523   -122.43621   0.16707088   -122.26914   -5878.6599    4.2786714    4.2786714    4.2786714   -5878.6599   -3995.3177   -5180.6119   -8460.0499    1211.5286    456.31616    -1847.113    78.329759 
   58700    109.88074   -122.36925  0.099422402   -122.26983    2034.1652    4.2779637    4.2779637    4.2779637    2034.1652   -3268.0278     3785.584    5584.9394     1074.967   -384.17454   -3759.3174    78.290901 
   58800    221.05883   -122.46859   0.20001867   -122.26858    635.27839    4.2787411    4.2787411    4.2787411    635.27839   -3284.6681    5671.2327   -480.72945    1215.6925   -45.171229   -925.22403    78.333588 
   58900    217.99159   -122.46559   0.19724337   -122.26835    3230.3986    4.2786183    4.2786183    4.2786183    3230.3986   -5149.9994    1647.0615    13194.134   -878.12002   -909.46083    2154.1689    78.326845 
   59000    195.89229   -122.44671   0.17724746   -122.26946    1030.5962    4.2790132    4.2790132    4.2790132    1030.5962   -4498.5171    8521.9853   -931.67975   -1503.5539    1891.1524    1471.9689    78.348536 
   59100     197.7696   -122.44846   0.17894609   -122.26952   -1146.5712    4.2788825    4.2788825    4.2788825   -1146.5712   -853.27336   -684.90224   -1901.5379    186.51851    1396.8562   -4026.5635    78.341353 
   59200    201.07274   -122.45103   0.18193484    -122.2691    2089.5698    4.2777064    4.2777064    4.2777064    2089.5698   -1409.7814    1871.0254    5807.4653    346.91923   -359.23224   -1294.4844    78.276775 
   59300    273.04886   -122.51531   0.24706035   -122.26825   -2359.5843    4.2792986    4.2792986    4.2792986   -2359.5843   -6135.7925    2123.4604   -3066.4209    2321.1109   -3195.9697   -1575.8321    78.364215 
   59400    188.17991   -122.43909   0.17026914   -122.26882   -1626.4491    4.2805304    4.2805304    4.2805304   -1626.4491   -6999.7806    307.32668    1813.1065    24.997944   -802.19392    6588.9029    78.431902 
   59500    150.45075   -122.40558     0.136131   -122.26945   -2095.7546    4.2782788    4.2782788    4.2782788   -2095.7546     -3935.78   -2501.0314    149.54753    399.09493    2047.8931   -2046.1853    78.308202 
   59600    150.72474   -122.40577   0.13637891   -122.26939   -1325.8138    4.2774747    4.2774747    4.2774747   -1325.8138   -4378.0134    -1266.629    1667.2009    1987.6271     1450.596   -4455.0254    78.264057 
   59700    216.08468   -122.46407   0.19551796   -122.26855    -1394.299    4.2799219    4.2799219    4.2799219    -1394.299   -7043.2359    7919.9558   -5059.6169   -159.40063   -121.82169   -874.72648     78.39846 
   59800    271.96131   -122.51417   0.24607631   -122.26809   -421.10229    4.2793166    4.2793166    4.2793166   -421.10229   -4895.0858   -950.27466    4582.0536    485.63392   -956.89792   -167.02568    78.365204 
   59900    171.86228   -122.42484    0.1555046   -122.26934    4592.4706    4.2775893    4.2775893    4.2775893    4592.4706   -3357.6418    17777.825   -642.77103   -880.87848    725.82187    2519.2901    78.270348 
   60000     162.9687   -122.41727    0.1474575   -122.26981     2341.025    4.2778813    4.2778813    4.2778813     2341.025   -601.05203    5326.0869      2298.04    2226.6569   -19.293725   -4360.2999    78.286375 
   60100    176.63293   -122.42959   0.15982118   -122.26977    1659.5556    4.2783166    4.2783166    4.2783166    1659.5556    69.315521   -1624.2291    6533.5805    2235.8905    146.21123    358.28981    78.310275 
   60200    257.03275   -122.50117   0.23256863   -122.26861    -3224.167     4.279829     4.279829     4.279829    -3224.167   -6547.5443     542.6511   -3667.6078   -1402.0189   -827.53603   -2393.2171    78.393354 
   60300    251.30005   -122.49588   0.22738157    -122.2685   -3671.1025    4.2794954    4.2794954    4.2794954   -3671.1025   -4844.5291   -2456.6534   -3712.1249    -859.4278   -623.37284    4040.1814    78.375025 
   60400    169.58695   -122.42275   0.15344584    -122.2693   -1466.7065    4.2773126    4.2773126    4.2773126   -1466.7065   -2048.6249    580.89239    -2932.387     241.4978    1312.6025   -2752.0581    78.255157 
   60500     161.4834   -122.41586   0.14611358   -122.26974   -3922.7427    4.2784571    4.2784571    4.2784571   -3922.7427   -5873.9832   -3374.1086   -2520.1362    4121.1485   -97.027523   -5484.5413     78.31799 
   60600    178.42032   -122.43052   0.16143845   -122.26908   -748.66096    4.2803121    4.2803121    4.2803121   -748.66096   -10235.108    10704.325   -2715.2002    1620.0849   -865.85676    701.82833    78.419904 
   60700    233.75586   -122.47975   0.21150721   -122.26825    2501.4212    4.2787336    4.2787336    4.2787336    2501.4212   -5162.5099    3031.4204    9635.3532   -868.44632   -1590.9119     1022.258     78.33318 
   60800    187.22848   -122.43827   0.16940827   -122.26887    5066.7601      4.27665      4.27665      4.27665    5066.7601   -2348.4475    16893.601    655.12673    1032.9376    1721.9776    2977.2175    78.218796 
   60900    180.15736   -122.43225   0.16301017   -122.26924     282.3375    4.2786314    4.2786314    4.2786314     282.3375   -4377.8042    4844.2053    380.61145   -731.74533    2121.1988    -4634.892    78.327566 
   61000    198.57487   -122.44875   0.17967471   -122.26907   -2351.8104    4.2799405    4.2799405    4.2799405   -2351.8104    531.35386   -4232.7474   -3354.0376    1056.8266   -1131.1748    -3234.026    78.399481 
   61100     259.9133   -122.50352   0.23517502   -122.26835   -2996.4308    4.2790968    4.2790968    4.2790968   -2996.4308   -6606.5056    4334.4358   -6717.2227    1242.7995   -1187.4892    -1331.875    78.353129 
   61200    235.09569   -122.48118   0.21271952   -122.26846   -238.28945    4.2782552    4.2782552    4.2782552   -238.28945   -2948.6776    4270.9528   -2037.1436    302.70066   -11.219051    3345.0386    78.306905 
   61300    158.23969   -122.41243    0.1431786   -122.26925    223.65253    4.2779819    4.2779819    4.2779819    223.65253   -1216.8609   -1143.0243    3030.8428     1067.627    2246.1263    167.09706    78.291899 
   61400    149.36288   -122.40468   0.13514667   -122.26953   -2613.0251    4.2790064    4.2790064    4.2790064   -2613.0251   -7240.0956    -2356.059    1757.0794    1490.1793   -77.217705   -4089.3876    78.348163 
   61500    162.20267   -122.41597   0.14676438    -122.2692    817.55428    4.2799568    4.2799568    4.2799568    817.55428   -8737.5646    10072.123    1118.1046    1794.7929    -1696.737   -1283.7529    78.400376 
   61600    273.07209   -122.51505   0.24708136   -122.26797    926.31447    4.2779088    4.2779088    4.2779088    926.31447   -7257.0079    4177.8905    5858.0608   -798.00735   -819.07203   -5.2239505    78.287887 
   61700    189.95089   -122.44073   0.17187155   -122.26886    4851.1916    4.2767839    4.2767839    4.2767839    4851.1916   -1472.3714    19921.343   -3895.3971    199.77742    1389.2761      32.2702    78.226141 
   61800    211.14351    -122.4605   0.19104709   -122.26946   -4305.2118    4.2799856    4.2799856    4.2799856   -4305.2118   -8967.5914    724.04912    -4672.093    3288.5518    1872.2312   -2216.1282    78.401959 
   61900    160.70838   -122.41554   0.14541232   -122.27012   -2090.8633    4.2799638    4.2799638    4.2799638   -2090.8633   -2626.8918   -3879.4865    233.78847    1590.1148   -464.69337   -1622.4423    78.400761 
   62000     226.6164   -122.47418   0.20504729   -122.26913    693.63382    4.2777176    4.2777176    4.2777176    693.63382   -2695.8456    2834.6563    1942.0908   -1175.9962   -561.41043   -1234.4504    78.277391 
   62100    251.73373   -122.49609   0.22777396   -122.26832    728.51239    4.2780822    4.2780822    4.2780822    728.51239   -5964.3828    3717.3139     4432.606   -1940.5463    273.97535    2681.3253    78.297406 
   62200    148.09417   -122.40326   0.13399872   -122.26926    308.01328    4.2789829    4.2789829    4.2789829    308.01328     1184.884   -1820.4381    1559.5939    372.75338     782.4103   -3967.9046    78.346872 
   62300    198.92587   -122.44909   0.17999231   -122.26909    -5985.023    4.2794459    4.2794459    4.2794459    -5985.023   -6663.7071   -5604.8663   -5686.4956    2240.7694   -766.06572   -3963.3833    78.372303 
   62400    151.13791   -122.40598   0.13675276   -122.26923    2516.0677    4.2789958    4.2789958    4.2789958    2516.0677   -7459.5748    14772.059    235.71896    2061.8495   -1302.1306   -920.12243    78.347577 
   62500    262.78067   -122.50575   0.23776947   -122.26798    1578.3954    4.2777701    4.2777701    4.2777701    1578.3954   -5449.0492    1286.9451    8897.2902    96.219559   -67.765789     1412.462    78.280273 
   62600    209.23305   -122.45786   0.18931846   -122.26855    3130.8534    4.2779783    4.2779783    4.2779783    3130.8534   -5893.9794    13797.321    1489.2183     9.702598    2287.8935    2272.0677    78.291702 
   62700    152.73427    -122.4076   0.13819717    -122.2694    -30.97334    4.2798778    4.2798778    4.2798778    -30.97334   -7138.6652    508.19073    6537.5545    1417.2529    2310.3034   -5186.5814    78.396037 
   62800     199.1996   -122.44955   0.18023999   -122.26931   -4218.5724    4.2792274    4.2792274    4.2792274   -4218.5724   -7025.2082   -6225.5936    595.08461    636.36626   -2818.0608   -1850.9946    78.360301 
   62900    196.25801   -122.44659   0.17757838   -122.26901    612.81361    4.2778112    4.2778112    4.2778112    612.81361   -2892.6408     8381.495   -3650.4134     623.5017   -1229.5785   -3232.9446    78.282529 
   63000    296.78058    -122.5364   0.26853331   -122.26787   -4437.2255    4.2792341    4.2792341    4.2792341   -4437.2255   -7074.6004   -1931.2945   -4305.7816    1044.8488    924.96133    2778.7375     78.36067 
   63100    164.36743   -122.41786    0.1487231   -122.26914   -22.052541    4.2787477    4.2787477    4.2787477   -22.052541   -2511.5648   -1243.6965    3689.1037    1065.8143    2224.0747   -1531.6983     78.33395 
   63200     167.3054   -122.42099   0.15138144   -122.26961    -1808.965    4.2790201    4.2790201    4.2790201    -1808.965   -1294.6588   -4985.5908    853.35471    553.30192   -252.71731   -3954.3123    78.348916 
   63300    160.19495   -122.41443   0.14494776   -122.26948    3643.1647    4.2786919    4.2786919    4.2786919    3643.1647   -9616.6332    9576.1385    10969.989   -607.98532   -1787.9531    41.583916    78.330888 
   63400    211.17526    -122.4599   0.19107582   -122.26882    4509.2632    4.2770779    4.2770779    4.2770779    4509.2632    -2235.789    6029.0018    9734.5767   -424.94189    210.14948   -2034.0462    78.242276 
   63500    250.45346   -122.49543   0.22661555   -122.26881   -1143.2427    4.2788965    4.2788965    4.2788965   -1143.2427   -5954.1375    8024.2322   -5499.8227    235.78146    330.48779    876.32806    78.342124 
   63600     171.0432   -122.42436   0.15476349    -122.2696    -1060.038    4.2805777    4.2805777    4.2805777    -1060.038   -8063.4237    5257.7571   -374.44744    3188.3216    1848.0005   -2694.1794    78.434504 
   63700    206.30122   -122.45595   0.18666568   -122.26929   -3009.7435    4.2776446    4.2776446    4.2776446   -3009.7435   -3660.2281   -4877.3177   -491.68475    2420.4468   -2271.6837   -787.00643    78.273381 
   63800    193.15824   -122.44392   0.17477364   -122.26915   -193.79246    4.2781019    4.2781019    4.2781019   -193.79246   -6930.8575     5030.758    1318.7222   -1828.8242    73.819252   -513.01486     78.29849 
   63900    239.49935   -122.48512   0.21670405   -122.26842   -2786.4198    4.2807147    4.2807147    4.2807147   -2786.4198   -6910.9797   -4251.4378    2803.1582   -1282.5594    1108.3635    139.00774    78.442034 
   64000     183.8839   -122.43524   0.16638202   -122.26886    414.53189    4.2781364    4.2781364    4.2781364    414.53189   -4709.4824   -1573.3807    7526.4588    283.17081    456.12734   -2945.3399     78.30038 
   64100    172.74076   -122.42544   0.15629947   -122.26914   -534.68109    4.2780918    4.2780918    4.2780918   -534.68109    437.33411    932.56705   -2973.9444    1687.2408   -307.91706   -5183.6606    78.297932 
   64200    180.41239   -122.43234   0.16324092    -122.2691    377.97553    4.2801511    4.2801511    4.2801511    377.97553   -9026.5844    5201.8591    4958.6519    50.492857   -2412.4587   -490.48595    78.411057 
   64300    230.99996   -122.47743   0.20901362   -122.26841    1710.8295    4.2780705    4.2780705    4.2780705    1710.8295   -6302.8878    4778.5828    6656.7935    -602.5937    431.90919    1887.4733    78.296763 
   64400    221.01417   -122.46853   0.19997826   -122.26855    1723.7803    4.2783588    4.2783588    4.2783588    1723.7803   -1014.4751    3526.2699    2659.5462    314.14481    774.56579    21.993707    78.312592 
   64500     179.9632   -122.43193   0.16283448    -122.2691   -173.69697    4.2806486    4.2806486    4.2806486   -173.69697   -9232.7594    3348.2883    5363.3802    168.34073    1911.2606   -2977.4375    78.438401 
   64600    178.47789   -122.43047   0.16149054   -122.26898   -883.87672    4.2775297    4.2775297    4.2775297   -883.87672   -4064.4511    77.634423    1335.1866    344.98598   -4016.7862   -3416.5312    78.267075 
   64700    200.92892   -122.45055   0.18180471   -122.26874   -2109.8476    4.2785017    4.2785017    4.2785017   -2109.8476   -7381.6181    5142.6986   -4090.6233   -451.31148    -1723.668    -1583.268    78.320439 
   64800    257.19548   -122.50082   0.23271588    -122.2681   -4355.4712    4.2815862    4.2815862    4.2815862   -4355.4712   -9281.9928    1371.0766   -5155.4973    227.64783    2048.6444     912.2896    78.489956 
   64900    178.89527   -122.43089    0.1618682   -122.26902    2943.4831      4.27705      4.27705      4.27705    2943.4831   -2623.5706    1572.5585    9881.4613    2124.1156    621.05936   -2246.3634    78.240744 
   65000    208.65036    -122.4581   0.18879123   -122.26931   -1405.6571    4.2768658    4.2768658    4.2768658   -1405.6571   -2791.7322   -947.99152   -477.24772    956.99709   -289.59242   -439.25284    78.230638 
   65100    132.80758   -122.38994   0.12016709   -122.26977    1590.3878    4.2815113    4.2815113    4.2815113    1590.3878   -8363.1995    1441.3052    11693.058    -1859.283   -3760.0118   -753.65197    78.485834 
   65200    241.62567    -122.4872   0.21862798   -122.26857    93.063246    4.2781836    4.2781836    4.2781836    93.063246   -8295.7263    5232.8478    3342.0683   -1329.9116    904.26002   -1247.4257    78.302972 
   65300    221.05328   -122.46871   0.20001365    -122.2687    3193.7048    4.2762856    4.2762856    4.2762856    3193.7048    524.26536    9527.1863    -470.3371   -1012.2802    133.59685   -1362.1618    78.198805 
   65400    181.79812    -122.4335   0.16449476   -122.26901    1182.9879    4.2804885    4.2804885    4.2804885    1182.9879   -5113.3343    8918.2135   -255.91552    1197.7478    978.55016   -2465.9338    78.429602 
   65500    209.99314   -122.45921    0.1900062    -122.2692    -4052.672     4.278241     4.278241     4.278241    -4052.672    -7879.183   -62.856736   -4215.9763    1000.1671   -3420.9571    1582.3976    78.306127 
   65600    141.46171    -122.3977   0.12799753    -122.2697   -111.96986      4.27785      4.27785      4.27785   -111.96986   -4395.8674    4569.8161   -509.85828   -1541.4711   -3340.8553   -559.93475    78.284655 
   65700    292.77728   -122.53313   0.26491104   -122.26822   -5650.4992    4.2814191    4.2814191    4.2814191   -5650.4992   -10187.152   -3865.7928   -2898.5524   -224.12075     2930.854    1203.2536    78.480766 
   65800    166.89961   -122.41986   0.15101427   -122.26885    4731.3442    4.2763027    4.2763027    4.2763027    4731.3442   -1066.4943    5553.8134    9706.7135   -999.65344   -1710.6476   -3839.8645    78.199744 
   65900    204.70099   -122.45411   0.18521775   -122.26889   -2828.0861    4.2772215    4.2772215    4.2772215   -2828.0861   -4767.0089    1372.2842   -5089.5337    452.09901   -905.71235    -5051.049    78.250156 
   66000    157.94119   -122.41222   0.14290851   -122.26931   -1387.0465    4.2825762    4.2825762    4.2825762   -1387.0465   -10093.308    1273.6116     4658.557   -1828.4126   -3508.5405    643.64047    78.544413 
   66100    192.52046   -122.44256   0.17419655   -122.26836    4056.9635    4.2775481    4.2775481    4.2775481    4056.9635   -4745.0508    9538.0958    7377.8456   -2353.2759     887.8875    780.08714    78.268085 
   66200    284.51278   -122.52523   0.25743314   -122.26779    1324.7906    4.2754476    4.2754476    4.2754476    1324.7906   -1395.1847    4051.7779    1317.7785      2397.72    2573.3644    2270.2401    78.152839 
   66300    151.14195    -122.4057   0.13675641   -122.26894    3439.3319    4.2809221    4.2809221    4.2809221    3439.3319   -1149.6024    7883.6124    3583.9858   -705.71932   -1227.5736   -2810.5798    78.453435 
   66400    220.30484   -122.46847   0.19933645   -122.26913   -7252.8027    4.2797887    4.2797887    4.2797887   -7252.8027   -9654.8017   -5682.2372   -6421.3693   -385.17213   -2438.5609   -2171.5631    78.391141 
   66500    138.00234   -122.39471   0.12486742   -122.26985    -97.32528    4.2769979    4.2769979    4.2769979    -97.32528   -4307.8194    6639.4124   -2623.5689   -2159.8347   -5143.7122   -258.61057    78.237884 
   66600    255.20376   -122.49924   0.23091372   -122.26833   -1106.5065    4.2801536    4.2801536    4.2801536   -1106.5065   -5223.6328    7407.8586   -5503.7454   -979.88638    2896.5768   -1114.7154    78.411194 
   66700    215.70283    -122.4638   0.19517245   -122.26863    685.92723    4.2778376    4.2778376    4.2778376    685.92723   -3800.0703    3366.4755    2491.3765    1351.6624   -892.32543    122.03126    78.283978 
   66800    160.96731   -122.41501   0.14564661   -122.26936   -1756.5532    4.2775732    4.2775732    4.2775732   -1756.5532   -3301.8846    3089.5618   -5057.3367   -1086.1698   -3259.0156   -922.14083    78.269461 
   66900    188.78612   -122.44061   0.17081765   -122.26979   -3154.1758    4.2821427    4.2821427    4.2821427   -3154.1758    -9070.302   -2422.9207    2030.6954    271.98595   -1547.8925    1352.4088    78.520566 
   67000    191.43594   -122.44246   0.17321526   -122.26925    5016.2268    4.2770647    4.2770647    4.2770647    5016.2268   -2112.8058    6238.6971    10922.789   -3043.4218     -382.643   -1110.6795    78.241553 
   67100    294.17044   -122.53452   0.26617159   -122.26835     1983.398    4.2752992    4.2752992    4.2752992     1983.398   -2288.3963    8356.9983   -118.40793   -448.54577    3169.6353   -3076.7139    78.144704 
   67200    157.94716   -122.41198   0.14291391   -122.26907     2447.625    4.2820795    4.2820795    4.2820795     2447.625   -2100.0128    8530.8868    912.00107    392.49656   -2858.1161   -837.69537    78.517086 
   67300     191.6487   -122.44237   0.17340777   -122.26897   -5102.3387    4.2800616    4.2800616    4.2800616   -5102.3387   -5544.2268   -3531.5721   -6231.2171   -1357.3967   -1851.8642    173.25272    78.406135 
   67400    139.34086   -122.39578   0.12607854    -122.2697    2803.8975    4.2751639    4.2751639    4.2751639    2803.8975   -1880.3944    9672.3706    619.71643   -312.83498   -2977.6155    2220.5326    78.137282 
   67500    244.49893   -122.48941   0.22122777   -122.26818   -1258.2174    4.2802911    4.2802911    4.2802911   -1258.2174   -1356.1601    1111.4056   -3529.8977   -1612.2772    1648.2813    653.05905    78.418751 
   67600    235.28353    -122.4815   0.21288948   -122.26861   -4283.2717    4.2799859    4.2799859    4.2799859   -4283.2717   -5394.5223   -4964.4853   -2490.8075     940.6129    587.22158   -2695.8637    78.401976 
   67700    152.54421   -122.40748   0.13802521   -122.26945   -1792.2527    4.2772668    4.2772668    4.2772668   -1792.2527   -3632.1449    2481.4042   -4226.0175    82.883654   -5737.5773    -1713.994    78.252646 
   67800    195.75239   -122.44649   0.17712088   -122.26937   -2472.8674     4.280833     4.280833     4.280833   -2472.8674   -8909.8773    6034.8612   -4543.5862   -2009.8323   -1135.8288   -1451.0635     78.44854 
   67900    187.32077    -122.4387   0.16949177   -122.26921    5252.4887    4.2778782    4.2778782    4.2778782    5252.4887   -5370.7396    9563.2852    11564.921   -399.91235   -924.59789    1962.5364    78.286205 
   68000    295.90783   -122.53573   0.26774362   -122.26799    1622.1941    4.2757828    4.2757828    4.2757828    1622.1941   -3195.7676     7789.855    272.49483   -224.80475     2382.751    381.17828    78.171225 
   68100    171.19454   -122.42397   0.15490042   -122.26907    1395.1922    4.2818817    4.2818817    4.2818817    1395.1922   -4205.8083    4568.7226    3822.6624    214.33829   -1506.1105   -1378.3769    78.506205 
   68200    176.82404   -122.42946   0.15999411   -122.26947      -2999.3    4.2800827    4.2800827    4.2800827      -2999.3   -1792.3424   -6607.7101   -597.84756   -2201.5551   -2304.3323   -248.86976    78.407298 
   68300     153.5647    -122.4087   0.13894857   -122.26975    3520.8302    4.2744125    4.2744125    4.2744125    3520.8302   -2636.2379    11673.796    1524.9329    -1572.006   -179.39755   -969.03831    78.096093 
   68400    216.08676   -122.46432   0.19551984    -122.2688   -990.90161    4.2799841    4.2799841    4.2799841   -990.90161   -2909.5117    2315.8943   -2379.0874    1684.1681   -323.99961    829.05171    78.401878 
   68500    245.15374   -122.49041   0.22182025   -122.26859   -6466.4508    4.2821199    4.2821199    4.2821199   -6466.4508   -7834.7337    -2526.077   -9038.5418    169.49138    534.41709   -3463.9013    78.519308 
   68600    148.35005   -122.40391   0.13423025   -122.26967    776.87395    4.2766694    4.2766694    4.2766694    776.87395   -5711.9776    6970.5561    1072.0434   -1122.2805   -6178.6422    482.78149    78.219859 
   68700    214.86269   -122.46366   0.19441227   -122.26925   -1756.4507    4.2782351    4.2782351    4.2782351   -1756.4507    -5507.252     2976.097    -2738.197     -1383.74   -967.23347    2893.8913    78.305801 
   68800    195.28805   -122.44597   0.17670073   -122.26927     1673.606    4.2798555    4.2798555    4.2798555     1673.606   -10270.056    4256.2606    11034.614   -225.13299    691.19666    243.36072     78.39481 
   68900    278.44545   -122.51976    0.2519433   -122.26781   -1309.8864    4.2782643    4.2782643    4.2782643   -1309.8864   -5653.4016    3925.0099   -2201.2674    1195.0135    360.51403   -1221.3862    78.307404 
   69000     187.0464   -122.43789   0.16924352   -122.26865    2885.7863    4.2794696    4.2794696    4.2794696    2885.7863   -5447.7256    12292.046    1813.0388    29.512357   -327.46009   -3817.4188     78.37361 
   69100    149.64492   -122.40456   0.13540187   -122.26916    2400.8405    4.2784651    4.2784651    4.2784651    2400.8405   -11.881579    1896.6805    5317.7225    -1190.665   -3394.7777    1464.0485    78.318431 
   69200    168.18729   -122.42118    0.1521794     -122.269    279.43527    4.2764817    4.2764817    4.2764817    279.43527   -3573.6376    3959.3226    452.62081   -1429.7475    2133.0139    1526.4869     78.20956 
   69300    202.22139   -122.45148   0.18297416   -122.26851   -1836.2326    4.2805727    4.2805727    4.2805727   -1836.2326   -7377.0227   -3028.2999    4896.6248   -722.74832   -458.58306    680.05008    78.434228 
   69400    251.06095   -122.49529   0.22716522   -122.26812   -4238.0434    4.2811045    4.2811045    4.2811045   -4238.0434   -527.87961   -4320.8069   -7865.4438    680.87928    250.25146   -513.68253    78.463466 
   69500    181.70068    -122.4334   0.16440659   -122.26899    1055.0343    4.2756252    4.2756252    4.2756252    1055.0343   -4409.9858    6235.0125    1340.0762     386.6043   -3067.7321   -2783.8119     78.16258 
   69600    179.79007   -122.43199   0.16267783   -122.26931    434.35322    4.2782253    4.2782253    4.2782253    434.35322   -2841.4275    9707.4103   -5562.9232   -640.29738   -1584.3461    23.599349    78.305265 
   69700    206.70814    -122.4563   0.18703387   -122.26926    -1171.356    4.2811894    4.2811894    4.2811894    -1171.356   -10669.579    4168.6303     2986.881   -213.89885    2521.7151   -271.91379    78.468136 
   69800    235.35101   -122.48133   0.21295054   -122.26838   -200.24871     4.278353     4.278353     4.278353   -200.24871   -6894.2532    4490.1769    1803.3302    587.68965   -2479.8723     697.7571    78.312275 
   69900    224.69483   -122.47178    0.2033086   -122.26847    2442.1125    4.2777066    4.2777066    4.2777066    2442.1125   -2396.8044    7376.3655    2346.7765   -250.67441    405.12789    1190.2627    78.276785 
   70000    177.01514   -122.42925   0.16016702   -122.26908    1497.9918    4.2783799    4.2783799    4.2783799    1497.9918   -4246.9311   -158.06288    8898.9693   -1178.9163   -2852.8047   -683.59561    78.313754 
   70100    144.14853   -122.39996   0.13042862   -122.26953   -2643.1564    4.2786484    4.2786484    4.2786484   -2643.1564   -3701.7644    -1112.972   -3114.7326   -841.89361    3192.0132    837.72705      78.3285 
   70200    205.90096   -122.45536   0.18630352   -122.26906   -3718.1962    4.2805047    4.2805047    4.2805047   -3718.1962   -12420.179    179.28937    1086.3008    1492.1114    2511.8413   -1131.9043    78.430491 
   70300    218.29119   -122.46602   0.19751446    -122.2685    2278.6383    4.2786185    4.2786185    4.2786185    2278.6383    3664.2606    7663.4193   -4491.7652    1385.4045   -1498.8176   -2892.4415    78.326857 
   70400     217.7876   -122.46563   0.19705879   -122.26857    1302.4326    4.2762371    4.2762371    4.2762371    1302.4326   -1127.8671    3997.0367    1038.1281   -2342.6992    289.15305    858.25112    78.196142 
   70500     202.0298   -122.45172    0.1828008   -122.26892   -3280.0739    4.2798104    4.2798104    4.2798104   -3280.0739   -7146.0205    1717.4291   -4411.6301   -1610.2186   -2537.6479    2118.9426    78.392332 
   70600    171.75745   -122.42457   0.15540975   -122.26916   -1396.4376    4.2809067    4.2809067    4.2809067   -1396.4376   -5093.4118   -1856.9471    2761.0461    1081.9617    3408.0948    2103.3203    78.452592 
   70700     249.4249   -122.49389   0.22568489    -122.2682    61.947765    4.2773273    4.2773273    4.2773273    61.947765   -8283.2722     4156.623    4312.4925    2702.4873   -2212.0351   -2622.1604    78.255967 
   70800    203.43193   -122.45233   0.18406948   -122.26826    5491.3863    4.2771132    4.2771132    4.2771132    5491.3863   -318.20182    16277.912    514.44896    298.41859   -550.81729   -2845.2536    78.244217 
   70900    188.58476   -122.43936   0.17063546   -122.26872   -893.83071    4.2795882    4.2795882    4.2795882   -893.83071   -7897.7915   -2680.6265    7896.9259   -1743.3572    701.26769    2169.0768    78.380125 
   71000    149.35063   -122.40425   0.13513559   -122.26912   -4110.8501    4.2792107    4.2792107    4.2792107   -4110.8501   -7523.7925   -2932.3246   -1876.4331    584.75791    1232.9521    698.41517    78.359384 
   71100    171.51638   -122.42453   0.15519163   -122.26934   -1110.3126    4.2791326    4.2791326    4.2791326   -1110.3126   -10582.066    1600.7623    5650.3662    325.18643    4480.8218    2490.1115    78.355093 
   71200     274.8577   -122.51677   0.24869703   -122.26808   -676.10482    4.2781261    4.2781261    4.2781261   -676.10482   -1979.6556    859.47219    -908.1311    560.37668   -3050.7965   -1622.6838    78.299814 
   71300    209.13192   -122.45802   0.18922695    -122.2688    2626.4285    4.2772156    4.2772156    4.2772156    2626.4285    2088.5836    3375.5561    2415.1457   -645.90498    1529.0496   -29.549988    78.249837 
   71400    201.03078   -122.45121   0.18189687   -122.26931   -3792.4379    4.2802145    4.2802145    4.2802145   -3792.4379   -11383.356    5420.0848    -5414.043   -891.10457    726.42193    374.32534    78.414539 
   71500     138.6806    -122.3956   0.12548112   -122.27012    115.41339    4.2799513    4.2799513    4.2799513    115.41339   -4416.9084    4093.7021    669.44643    2311.8483    2287.9061   -1052.7569    78.400074 
   71600    210.31415   -122.45925   0.19029666   -122.26895    4290.0762     4.276629     4.276629     4.276629    4290.0762   -3680.3013      8873.26    7677.2699    603.11327    503.42277    2178.7317    78.217644 
   71700    285.73294   -122.52636   0.25853717   -122.26782    1155.0802    4.2774484    4.2774484    4.2774484    1155.0802    -3246.963    6537.2718    174.93189   -211.65668   -2487.3157   -1208.3524     78.26261 
   71800    159.30548   -122.41357   0.14414294   -122.26943   -395.61846      4.28009      4.28009      4.28009   -395.61846   -4514.8228   -5895.5311    9223.4986   -1068.4722    1709.1624    2404.3764    78.407696 
   71900    177.78152   -122.43075   0.16086046   -122.26989   -5640.8176    4.2800924    4.2800924    4.2800924   -5640.8176   -11437.771   -5380.3939   -104.28801    641.82258    21.932392   -825.85304    78.407828 
   72000    131.21371   -122.38873   0.11872492      -122.27    3527.5544    4.2771943    4.2771943    4.2771943    3527.5544   -8162.0996    11496.448    7248.3145    3323.4263       4436.3    248.93879    78.248667 
   72100    257.35821   -122.50107   0.23286312   -122.26821    1034.9655    4.2776662    4.2776662    4.2776662    1034.9655   -5247.0662    7315.4992    1036.4635    374.16424   -137.75416   -1256.3763    78.274568 
   72200    256.74859   -122.50049   0.23231152   -122.26818   -1385.9071    4.2804415    4.2804415    4.2804415   -1385.9071   -6266.7649    3177.7524   -1068.7089   -398.36336    422.17296   -974.42217    78.427019 
   72300     158.9641   -122.41316   0.14383406   -122.26932   -1656.3821    4.2795579    4.2795579    4.2795579   -1656.3821   -10635.384    7539.7304   -1873.4921   -601.17634    3930.8758    3073.6051    78.378458 
   72400    184.29741   -122.43609   0.16675617   -122.26933   -3962.8961    4.2780135    4.2780135    4.2780135   -3962.8961   -10210.778   -5213.1345    3535.2241    896.32132   -6.6113903     898.8313    78.293634 
   72500    186.47414   -122.43776   0.16872572   -122.26903    3039.2176     4.278471     4.278471     4.278471    3039.2176   -2848.2052     5461.145     6504.713    2439.4882    1287.7386    295.11073    78.318757 
   72600    287.37683     -122.528   0.26002459   -122.26798   -807.14663    4.2790923    4.2790923    4.2790923   -807.14663   -5014.1308    5097.8615   -2505.1706   -997.67816     -1620.53   -1610.2432     78.35288 
   72700    170.83837   -122.42378   0.15457814    -122.2692    934.69668     4.278886     4.278886     4.278886    934.69668   -4765.9581    1404.4784    6165.5697    407.69874    2190.6604    1455.5717    78.341548 
   72800    117.95924     -122.377     0.106732   -122.27027    668.62858    4.2793635    4.2793635    4.2793635    668.62858   -4984.1865    3900.0229    3090.0493    1719.9812    2093.9019    1073.1505     78.36778 
   72900    185.49111   -122.43746   0.16783625   -122.26962    15.699624    4.2777325    4.2777325    4.2777325    15.699624    -9076.332   -67.251863    9190.6827    2669.6924    407.82121    408.33617    78.278208 
   73000    258.64764   -122.50234   0.23402982   -122.26831    681.46399    4.2786044    4.2786044    4.2786044    681.46399   -3152.6868    2312.5562    2884.5226    667.79175    184.73844   -95.362586    78.326079 
   73100    282.83662   -122.52402   0.25591652    -122.2681   -2225.3975    4.2809638    4.2809638    4.2809638   -2225.3975   -7005.3499   -357.70261    686.85995   -1769.1516    -1243.065    1076.3255    78.455729 
   73200    155.34954   -122.41023   0.14056353   -122.26967   -1257.6822    4.2786124    4.2786124    4.2786124   -1257.6822   -11099.947    9330.1159   -2003.2156    1064.7373    4911.7374   -277.90293    78.326524 
   73300    117.21834   -122.37663   0.10606162   -122.27057    82.977024    4.2764943    4.2764943    4.2764943    82.977024   -8991.1977    4296.5203    4943.6085    2375.2419    812.82109    815.45041    78.210253 
   73400    232.34534    -122.4797   0.21023095   -122.26947   -2870.6774     4.280438     4.280438     4.280438   -2870.6774   -9413.5947    367.59377     433.9686    2285.5994    449.84728     341.7416    78.426825 
   73500    268.28235   -122.51095   0.24274751    -122.2682   -2117.1114    4.2805276    4.2805276    4.2805276   -2117.1114   -3742.8645    162.45224   -2770.9218   -942.95575     96.24816    852.68047     78.43175 
   73600    187.22014    -122.4388   0.16940072    -122.2694    1664.9653    4.2762363    4.2762363    4.2762363    1664.9653   -5144.9693    -365.0876    10504.953   -724.38614    107.51493    3968.8904    78.196098 
   73700    147.95611   -122.40414   0.13387379   -122.27027   -1014.9569    4.2787443    4.2787443    4.2787443   -1014.9569   -3955.2869   -123.32892     1033.745    2730.5158    1601.5178   -1511.8483    78.333766 
   73800    127.74976   -122.38579   0.11559066    -122.2702    2038.1592    4.2803058    4.2803058    4.2803058    2038.1592   -6329.6387    3984.2797    8459.8365    1871.4666   -847.12649    1147.8348     78.41956 
   73900    309.26393   -122.54764    0.2798285   -122.26782   -11.287914    4.2777553    4.2777553    4.2777553   -11.287914   -4055.1394    6546.5461   -2525.2705    80.398599    1803.7715   -2490.4981    78.279457 
   74000    216.96076   -122.46479   0.19631066   -122.26848    6300.7004    4.2783466    4.2783466    4.2783466    6300.7004    1986.3552      10243.5    6672.2464   -716.61775   -474.06684    1351.8805    78.311926 
   74100     194.1078   -122.44534   0.17563281   -122.26971   -2560.3995    4.2793091    4.2793091    4.2793091   -2560.3995   -12050.907    1960.0082       2409.7    3163.2053    2358.3824    2473.4939     78.36479 
   74200    132.43256   -122.39005   0.11982777   -122.27023   -2117.7276    4.2768811    4.2768811    4.2768811   -2117.7276   -9462.1135   -4094.6653     7203.596    2857.2404    102.43196    716.97832    78.231479 
   74300    200.41289   -122.45072   0.18133779   -122.26938   -2588.2721    4.2807391    4.2807391    4.2807391   -2588.2721   -8876.1118   -4634.7981    5746.0936   -463.51721   -1118.1553    1594.4787    78.443379 
   74400    308.54864   -122.54712   0.27918129   -122.26794   -4968.9021    4.2805908    4.2805908    4.2805908   -4968.9021   -7931.4259   -247.35299   -6727.9272    -675.6592    584.31719   -4984.5705    78.435223 
   74500    123.00306   -122.38078   0.11129575   -122.26949    5785.2455    4.2748805    4.2748805    4.2748805    5785.2455    -2977.219    9567.2922    10765.663    223.58241    304.13753    3245.0695    78.121744 
   74600    189.30506   -122.44103   0.17128719   -122.26974   -5409.0191    4.2798454    4.2798454    4.2798454   -5409.0191   -12517.623   -1168.7575   -2540.6764     3080.905    2964.3019    815.54219    78.394256 
   74700     132.8119    -122.3903     0.120171   -122.27013    484.09871    4.2819382    4.2819382    4.2819382    484.09871   -5539.8295     1348.889    5643.2366    853.49337   -1290.7596    2004.2401    78.509313 
   74800     294.3328   -122.53437    0.2663185   -122.26805    1525.7052    4.2765783    4.2765783    4.2765783    1525.7052   -2752.7789    4671.8678    2658.0266    74.247624   -1070.9141    160.98762    78.214863 
   74900    235.39911   -122.48122   0.21299406   -122.26823    5248.6863    4.2776881    4.2776881    4.2776881    5248.6863    480.42108    6086.9628     9178.675    1057.0861   -546.06215   -2529.0311     78.27577 
   75000    155.96334   -122.41064   0.14111891   -122.26952    484.16682    4.2802221    4.2802221    4.2802221    484.16682   -6068.7061    2585.0921    4936.1145     1480.271    1321.3652    601.98014    78.414956 
   75100    174.29515   -122.42753   0.15770591   -122.26983   -4296.0144    4.2783381    4.2783381    4.2783381   -4296.0144   -12373.807   -5880.1304    5365.8942    2252.5586    804.71352    -843.7832    78.311455 
   75200    194.29344   -122.44521   0.17580079   -122.26941    4.1753429    4.2796004    4.2796004    4.2796004    4.1753429   -1801.0133    -1563.948    3377.4873   -1071.1487   -680.17457    2977.0899    78.380796 
   75300    277.80004    -122.5191   0.25135932   -122.26774   -1758.7113    4.2797448    4.2797448    4.2797448   -1758.7113   -6825.9651    1614.6084   -64.777444    91.871008    736.03121   -224.55007    78.388729 
   75400    151.50093   -122.40588   0.13708123    -122.2688    1496.9217    4.2759836    4.2759836    4.2759836    1496.9217   -6025.0205    601.99802    9913.7875     2340.608   -232.58206    1400.3794    78.182235 
   75500    174.37723   -122.42689   0.15778018   -122.26911     -6064.04    4.2807432    4.2807432    4.2807432     -6064.04   -13123.495    -6393.812    1325.1873    2198.1394    2155.4419    394.32417    78.443604 
   75600    181.87072    -122.4336   0.16456045   -122.26904     -1866.48    4.2818396    4.2818396    4.2818396     -1866.48   -9379.7795    1448.6294    2331.7101    1398.1122   -1876.7158   -2716.8501    78.503893 
   75700     249.3736   -122.49361   0.22563847   -122.26797    3225.1095     4.275684     4.275684     4.275684    3225.1095    1314.7829    9389.2988   -1028.7533   -2040.3159    1269.9031   -2384.8583    78.165804 
   75800    226.65618   -122.47322   0.20508328   -122.26814    3122.8862    4.2775169    4.2775169    4.2775169    3122.8862   -5583.7392    8299.5829     6652.815   -320.92375    1666.0928    401.86324    78.266372 
   75900    184.98153    -122.4363   0.16737518   -122.26892   -2010.2059    4.2816651    4.2816651    4.2816651   -2010.2059   -6292.6898   -690.41536    952.48754    2596.1455    723.90825     2169.412    78.494291 
   76000    150.06531   -122.40532   0.13578225   -122.26954   -329.69044    4.2779926    4.2779926    4.2779926   -329.69044   -8372.5802   -4755.0885    12138.597    1648.1802    776.72596    1190.5138    78.292487 
   76100    238.39316   -122.48494   0.21570314   -122.26923   -486.89964    4.2782475    4.2782475    4.2782475   -486.89964   -2383.2731   -5157.6551    6080.2293    524.84503   -1331.4637    -4439.386    78.306481 
   76200    208.16487   -122.45725   0.18835195    -122.2689     2449.949    4.2790572    4.2790572    4.2790572     2449.949    810.34493    3591.9621      2947.54   -254.68556    1320.6547   -3016.5262    78.350952 
   76300    200.18932   -122.45013    0.1811355   -122.26899   -2170.9821    4.2774251    4.2774251    4.2774251   -2170.9821   -8193.5596    -2041.048    3721.6612     2193.769   -288.32809    1057.0655    78.261334 
   76400    183.51637   -122.43527   0.16604947   -122.26922   -4137.3428    4.2807741    4.2807741    4.2807741   -4137.3428   -10008.211   -1999.5154   -404.30211    1532.1491    3311.2363    1784.0986    78.445303 
   76500    178.50371   -122.43091   0.16151391    -122.2694    1645.4897    4.2803815    4.2803815    4.2803815    1645.4897   -5761.3443    8623.9326    2073.8808   -1460.8138   -589.73351    291.14971    78.423722 
   76600    231.04597   -122.47761   0.20905525   -122.26856    3823.5363    4.2751096    4.2751096    4.2751096    3823.5363   -995.01769    4340.3953    8125.2312   -227.67353    20.165132   -3458.0521    78.134305 
   76700    163.84719   -122.41707   0.14825238   -122.26882    2957.5673    4.2787104    4.2787104    4.2787104    2957.5673   -6092.1155    6223.3053     8741.512    1241.1471     2412.561   -597.07123    78.331901 
   76800    248.61504   -122.49344   0.22495211   -122.26848   -7545.7182    4.2831671    4.2831671    4.2831671   -7545.7182   -14558.044   -6148.9194   -1930.1916    2982.2497   -536.58307   -1148.3069    78.576927 
   76900     165.2926   -122.41856   0.14956022     -122.269    1876.8259    4.2772969    4.2772969    4.2772969    1876.8259   -3449.2031   -166.60415     9246.285    890.80419    3038.9431    706.34648    78.254297 
   77000    246.85548   -122.49176   0.22336003    -122.2684   -191.84547    4.2770623    4.2770623    4.2770623   -191.84547   -2953.0662    1495.1925    882.33721   -2162.3516   -2096.3795   -698.01654    78.241422 
   77100    175.38125   -122.42765   0.15868864   -122.26897    695.79718    4.2805264    4.2805264    4.2805264    695.79718   -3722.6798    1685.3215    4124.7498    960.92056    1074.6101   -1671.0806    78.431683 
   77200    173.54602   -122.42566   0.15702808   -122.26863   -1665.8572    4.2793966    4.2793966    4.2793966   -1665.8572   -3687.9852   -5346.9926    4037.4061    2403.0661    -94.63029    1319.7621    78.369595 
   77300    209.01851   -122.45748   0.18912434   -122.26836   -1240.7278    4.2791242    4.2791242    4.2791242   -1240.7278   -10736.071   -2799.4139    9813.3011    1212.7027    139.91463   -449.37175    78.354633 
   77400    181.97437   -122.43309   0.16465424   -122.26843    3480.1547    4.2792148    4.2792148    4.2792148    3480.1547    2599.0527    8435.1855   -593.77412   -830.61223    1372.2897   -2157.1261    78.359609 
   77500    238.19545   -122.48387   0.21552425   -122.26835   -782.13756    4.2768854    4.2768854    4.2768854   -782.13756   -570.44683   -2541.0415    765.07563   -273.13672   -400.81057   -5315.6406    78.231713 
   77600    179.79298   -122.43148   0.16268047    -122.2688   -961.40203    4.2796078    4.2796078    4.2796078   -961.40203   -6918.5222    4507.2901   -472.97399    2632.6854    3715.5243    -658.0264    78.381201 
   77700    210.80244   -122.45949   0.19073848   -122.26875   -3192.1911    4.2818742    4.2818742    4.2818742   -3192.1911   -10480.017   -284.29781    1187.7414    1219.0076   -1808.4374     2735.758    78.505796 
   77800    194.21376   -122.44448   0.17572869   -122.26875    2359.2326    4.2768701    4.2768701    4.2768701    2359.2326   -5296.6421   -1591.1249    13965.465   -1028.3449    613.58032   -359.84756    78.230874 
   77900    197.44885   -122.44752   0.17865587   -122.26887    2079.7573    4.2762115    4.2762115    4.2762115    2079.7573    860.45005    3822.9132    1555.9087   -1041.0058   -2171.6016   -3599.8511     78.19474 
   78000    206.49597   -122.45591   0.18684189   -122.26907   -5407.8652    4.2816301    4.2816301    4.2816301   -5407.8652   -11133.263   -4801.1433    -289.1896    1472.6088   -261.67563   -4640.9162    78.492368 
   78100    195.31518   -122.44548   0.17672528   -122.26875   -4659.7532     4.280551     4.280551     4.280551   -4659.7532   -4477.5466   -7669.7854   -1831.9276    2971.3786    853.39335    858.50431    78.433037 
   78200    215.85887   -122.46385   0.19531364   -122.26853    1841.5977    4.2772431    4.2772431    4.2772431    1841.5977   -6011.9741    1454.4831    10082.284   -333.91205   -783.11475    1311.1713    78.251341 
   78300    205.14999   -122.45417   0.18562402   -122.26854     3498.224    4.2776423    4.2776423    4.2776423     3498.224    178.40649    7423.3552    2892.9103   -770.90717    738.19443   -1079.9863    78.273257 
   78400    148.35084   -122.40341   0.13423096   -122.26918    1015.3834    4.2793848    4.2793848    4.2793848    1015.3834    1745.4976   -3493.4866    4794.1394    441.78603   -2702.4499   -3100.9743    78.368948 
   78500    205.32574   -122.45455   0.18578304   -122.26877   -2384.2627    4.2802722    4.2802722    4.2802722   -2384.2627   -8677.3149    47.080372    1477.4465     1679.791    1364.0044   -1616.9723    78.417714 
   78600    208.47659   -122.45719     0.188634   -122.26855    1718.4052    4.2788855    4.2788855    4.2788855    1718.4052   -5229.9583    3686.9142    6698.2598    770.27476   -2446.6077    94.550444    78.341522 
   78700    239.66623   -122.48499   0.21685505   -122.26813     171.5846    4.2769844    4.2769844    4.2769844     171.5846   -3150.0449   -2655.8917    6320.6904   -1184.7142    521.74276   -163.50815    78.237145 
   78800    215.24775   -122.46325   0.19476068   -122.26849   -2317.6899    4.2792267    4.2792267    4.2792267   -2317.6899   -3941.6291   -1722.9931   -1288.4475    152.57754   -154.64632   -2493.8164    78.360262 
   78900    150.44706   -122.40512   0.13612766   -122.26899    -2110.842    4.2808676    4.2808676    4.2808676    -2110.842   -9969.6097   -684.82079    4321.9045    1524.4043   -1713.3129    -1737.883     78.45044 
   79000     219.6991    -122.4672   0.19878836   -122.26841   -3629.8191    4.2789587    4.2789587    4.2789587   -3629.8191   -9458.2874    -5228.503     3797.333    1179.5666    1880.5509    246.37688    78.345539 
   79100    175.89575   -122.42748   0.15915417   -122.26833    4916.0053    4.2775285    4.2775285    4.2775285    4916.0053     -3546.15    6019.9821    12274.184   -1052.5424   -4138.3561    349.59605    78.267009 
   79200    236.29696   -122.48219   0.21380646   -122.26838    -1417.641    4.2786186    4.2786186    4.2786186    -1417.641   -3686.8388    3928.9553   -4495.0395   -1714.5872    537.33975   -3224.2796    78.326863 
   79300    149.51994   -122.40456   0.13528878   -122.26928   -1786.5774    4.2797082    4.2797082    4.2797082   -1786.5774    161.86539   -4757.2289   -764.36864    1054.5233   -872.67301   -5605.6216    78.386716 
   79400    203.94155   -122.45365    0.1845306   -122.26912   -1794.6595    4.2802142    4.2802142    4.2802142   -1794.6595   -2284.4793   -632.51523   -2466.9839    2219.0848    1832.2764    662.42786    78.414522 
   79500    227.50468   -122.47455   0.20585101    -122.2687    3822.2137    4.2772727    4.2772727    4.2772727    3822.2137    -4224.198    3419.3524    12271.487    1539.6934    461.27148    1874.5734     78.25297 
   79600    198.43365   -122.44861   0.17954694   -122.26906    3936.8727    4.2768875    4.2768875    4.2768875    3936.8727    2064.6926    2498.3736    7247.5518   -2403.3916   -1810.8744    14.540124     78.23183 
   79700    228.62121   -122.47613   0.20686128   -122.26927   -5699.7746    4.2816543    4.2816543    4.2816543   -5699.7746    -7302.038   -4923.8149    -4873.471   -1460.0758    820.18375   -5489.1585    78.493701 
   79800    146.23575   -122.40189   0.13231718   -122.26958   -1637.4096     4.280018     4.280018     4.280018   -1637.4096    -9881.876    2876.9152    2092.7319    1742.8502   -3315.6316   -2345.3645    78.403741 
   79900    239.99743    -122.4857   0.21715472   -122.26854   -1748.4479    4.2768184    4.2768184    4.2768184   -1748.4479   -7486.8344   -703.81008    2945.3007    833.45962    2316.2785    1547.4275    78.228036 
   80000    201.00132   -122.45044   0.18187022   -122.26857     1810.138    4.2792031    4.2792031    4.2792031     1810.138   -6468.5146    2302.0402    9596.8885    317.79528   -1617.4241    458.95618    78.358964 
   80100    184.93685   -122.43619   0.16733475   -122.26885   -1961.0681    4.2800934    4.2800934    4.2800934   -1961.0681   -3233.3207    2242.1189   -4892.0025   -709.25582    874.24639   -1489.1704    78.407886 
   80200     158.5546   -122.41263   0.14346353   -122.26917    -1061.952    4.2783196    4.2783196    4.2783196    -1061.952   -2873.3351   -3836.1393    3523.6184    1590.7108    1941.2627    -5002.455    78.310442 
   80300    174.85182   -122.42716    0.1582096   -122.26895    2078.9748    4.2794784    4.2794784    4.2794784    2078.9748   -156.61616    7087.9884    -694.4478    877.19985   -593.89025    180.10744    78.374092 
   80400    252.59182   -122.49654   0.22855039   -122.26799     951.6319    4.2784303    4.2784303    4.2784303     951.6319   -5688.5267    1741.7532    6801.6692   -2769.4472    1255.0879    -24.74429     78.31652 
   80500    228.51213   -122.47498   0.20676257   -122.26822    1373.1195    4.2776966    4.2776966    4.2776966    1373.1195   -914.85543    1744.2726    3289.9413   -1109.4465   -1857.9169    -836.5278    78.276234 
   80600    195.17491   -122.44538   0.17659836   -122.26878   -1982.0105    4.2810517    4.2810517    4.2810517   -1982.0105   -2754.7791   -5601.7704     2410.518    595.04134    855.47988   -2537.2676    78.460562 
   80700    184.70752    -122.4361   0.16712725   -122.26898   -1861.8936    4.2795846    4.2795846    4.2795846   -1861.8936   -10003.223   -1014.1862    5431.7287    3936.8763   -496.74775   -2714.1695    78.379928 
   80800    203.15917   -122.45239   0.18382268   -122.26857     2605.255    4.2762452    4.2762452    4.2762452     2605.255   -4082.6823     4865.803    7032.6441    777.91722    1650.0197    1707.1992    78.196588 
   80900    236.37297   -122.48205   0.21387523   -122.26817   -772.39322     4.279603     4.279603     4.279603   -772.39322   -5909.7562   -71.939828    3664.5163   -3019.9316    463.31556   -1232.7619    78.380937 
   81000    164.19954   -122.41776    0.1485712   -122.26918   -2805.2444    4.2808004    4.2808004    4.2808004   -2805.2444   -3596.9251    3828.8001   -8647.6083    -900.4963   -718.32634   -2469.7377    78.446749 
   81100    142.54605   -122.39892   0.12897866   -122.26994    12.405645    4.2777565    4.2777565    4.2777565    12.405645   -2175.7585   -301.45238    2514.4278   -338.68068    2524.5391   -4944.3878    78.279524 
   81200    200.14319   -122.45036   0.18109376   -122.26927    884.60366    4.2784403    4.2784403    4.2784403    884.60366   -2301.8369    2909.0772    2046.5707     1420.772   -1048.8801    1496.1653    78.317068 
   81300    225.20168   -122.47243   0.20376721   -122.26866   -52.251635    4.2796584    4.2796584    4.2796584   -52.251635   -4664.6877   -3033.9673    7541.9001    408.74063     674.1681     1790.619    78.383983 
   81400    260.23954   -122.50396   0.23547021   -122.26849   -2609.9085    4.2793642    4.2793642    4.2793642   -2609.9085   -4785.5565   -2414.5408   -629.62802   -262.90933   -393.69556   -2218.7271    78.367815 
   81500    188.13647    -122.4395   0.17022984   -122.26927    409.72647    4.2798076    4.2798076    4.2798076    409.72647    351.34242   -912.43612    1790.2731    1023.6406    1981.6461   -3591.6925     78.39218 
   81600    183.75166   -122.43539   0.16626236   -122.26913    693.84482    4.2785108    4.2785108    4.2785108    693.84482   -4019.0377    3631.1671     2469.405    171.70795     1006.589   -1835.5946    78.320941 
   81700    210.77653   -122.45924   0.19071503   -122.26853    1144.2229    4.2779063    4.2779063    4.2779063    1144.2229   -5079.9382    2661.4064    5851.2004   -779.81698   -372.93138     2167.029    78.287749 
   81800    206.88936   -122.45555   0.18719784   -122.26836   -81.551825    4.2804018    4.2804018    4.2804018   -81.551825   -1363.9206   -2152.9563    3272.2214   -1799.9261   -13.546198   -786.77492    78.424834 
   81900    191.21723   -122.44181   0.17301737   -122.26879   -2525.3206    4.2793148    4.2793148    4.2793148   -2525.3206     -3172.26     1011.055   -5414.7569    125.76941   -896.91768   -2302.0372    78.365105 
   82000    146.88223   -122.40218   0.13290213   -122.26928   -1166.9779    4.2778627    4.2778627    4.2778627   -1166.9779   -4022.5145    1545.2502   -1023.6694    3041.7837     3784.144   -4085.2408    78.285355 
   82100    204.16339   -122.45359   0.18473133   -122.26885   -2897.8715    4.2800797    4.2800797    4.2800797   -2897.8715   -6704.4065   -368.62971   -1620.5784    462.38514   -328.84572    1636.3746     78.40713 
   82200    221.92685   -122.46915   0.20080408   -122.26834   -46.511541    4.2791301    4.2791301    4.2791301   -46.511541   -4923.3079     1624.314    3159.4593   -934.53042    2173.3255     258.7416    78.354955 
   82300    226.66462   -122.47322   0.20509091   -122.26813    386.42342    4.2784937    4.2784937    4.2784937    386.42342   -3080.7151    2903.0398    1336.9455   -1587.2065    1410.4639   -1357.1571    78.320001 
   82400    205.08467   -122.45439   0.18556492   -122.26882    247.28884    4.2797108    4.2797108    4.2797108    247.28884    -1258.544    -2878.702    4879.1126   -496.21207   -234.23616    -2720.751     78.38686 
   82500    161.92635   -122.41592   0.14651436    -122.2694    4145.0281    4.2774014    4.2774014    4.2774014    4145.0281    3308.8791    5196.5074     3929.698     2468.801     688.9472   -856.24873    78.260031 
   82600    247.68304   -122.49285   0.22410882   -122.26874    -1564.032    4.2785424    4.2785424    4.2785424    -1564.032   -5519.7793   -4352.5057     5180.189   -1315.8811   -1348.8523    1643.7624    78.322678 
   82700    212.61129   -122.46108   0.19237517    -122.2687   -157.92435    4.2808674    4.2808674    4.2808674   -157.92435   -479.81321    487.44011   -481.39995   -305.32487    2079.1398   -702.26474    78.450428 
   82800    173.80509   -122.42613   0.15726249   -122.26886    1853.0484    4.2775203    4.2775203    4.2775203    1853.0484   -63.197409    6171.4871   -549.14436    1065.3402    118.20773    -1972.644    78.266557 
   82900    165.11385   -122.41866   0.14939848   -122.26926   -2510.5832    4.2775994    4.2775994    4.2775994   -2510.5832    -6030.898   -48.823519   -1452.0281    853.26254    2823.3977   -5994.3507    78.270902 
   83000    140.33911   -122.39639   0.12698178   -122.26941   -2488.5095    4.2812937    4.2812937    4.2812937   -2488.5095   -5169.5844    -1720.812   -575.13194    497.29794    109.33605    3463.0015    78.473869 
   83100    264.18148   -122.50718   0.23903696   -122.26814   -3316.7899    4.2791995    4.2791995    4.2791995   -3316.7899   -5955.6442   -5555.5529    1560.8272   -3642.2862   -927.45901    506.25035    78.358766 
   83200    220.70559   -122.46819   0.19969906   -122.26849    2195.5074    4.2770905    4.2770905    4.2770905    2195.5074    2357.1685    4379.3768   -150.02318    715.71124    930.22496    -1102.428    78.242968 
   83300    221.41228   -122.46933   0.20033849   -122.26899   -916.64599    4.2796858    4.2796858    4.2796858   -916.64599   -3582.1449   -3527.1026    4359.3095     2265.631    491.69525   -2776.8305    78.385488 
   83400    178.71118    -122.4312   0.16170163    -122.2695    1759.5297    4.2788782    4.2788782    4.2788782    1759.5297    1609.6097    5635.4732    -1966.494    1982.0479     2555.154   -1400.7387    78.341119 
   83500    185.57264   -122.43697   0.16791002   -122.26906    2852.9089    4.2781508    4.2781508    4.2781508    2852.9089   -2228.1078   -656.56697    11443.401    408.01378   -487.49439    2801.1874    78.301173 
   83600    248.38942   -122.49315   0.22474797    -122.2684   -273.02226    4.2795298    4.2795298    4.2795298   -273.02226   -1455.3975   -105.10641    741.43714   -3513.0682    430.95429   -1578.6628    78.376912 
   83700    164.40936   -122.41726   0.14876105    -122.2685    2782.7491    4.2781068    4.2781068    4.2781068    2782.7491    4095.7821    5245.8441   -993.37905    1198.0984    21.962774   -825.33481    78.298757 
   83800    195.18272   -122.44522   0.17660543   -122.26862   -5950.3774    4.2786205    4.2786205    4.2786205   -5950.3774   -6986.8017   -7553.3302   -3311.0002    1317.6992    1006.0126   -4128.0808    78.326967 
   83900     146.4935   -122.40173    0.1325504   -122.26918   -4155.3723    4.2808886    4.2808886    4.2808886   -4155.3723   -2835.2714    -3976.048   -5654.7975   -63.649945    279.48529    3720.5984    78.451597 
   84000    226.31164   -122.47325   0.20477153   -122.26848   -1609.4774    4.2789924    4.2789924    4.2789924   -1609.4774   -4474.5471   -732.66258     378.7774   -485.04865    19.816692    1238.1686    78.347394 
   84100    235.63983   -122.48154   0.21321187   -122.26833    2054.7307    4.2766619    4.2766619    4.2766619    2054.7307    1030.5843    8107.8262   -2974.2185   -996.72375    2632.2763   -2456.7443     78.21945 
   84200    186.64268   -122.43798   0.16887822    -122.2691    2039.1971    4.2797524    4.2797524    4.2797524    2039.1971   -3985.8345    2114.5496    7988.8762    2011.9874    1356.3268   -2156.3486    78.389146 
   84300    201.99472   -122.45203   0.18276907   -122.26926   -1214.0247    4.2804414    4.2804414    4.2804414   -1214.0247   -4239.2299    3450.5343   -2853.3785   -41.542203   -192.46938   -884.21947    78.427012 
   84400    197.00262   -122.44714   0.17825211   -122.26889    2562.6467     4.277431     4.277431     4.277431    2562.6467    973.69441   -2557.0326    9271.2784    -1263.492   -1344.0284    3008.9627    78.261655 
   84500    260.88096   -122.50408   0.23605057   -122.26803    464.12418     4.278619     4.278619     4.278619    464.12418   -2762.4481    1923.6782    2231.1424   -548.87181    389.20465    200.57592    78.326885 
   84600    194.49313   -122.44444   0.17598147   -122.26846   -2.1358533    4.2797081    4.2797081    4.2797081   -2.1358533    2614.4139    4447.7063   -7068.5278    1527.4919    409.72103   -715.50659    78.386714 
   84700    159.14201   -122.41292   0.14399504   -122.26893   -3541.2529    4.2789128    4.2789128    4.2789128   -3541.2529   -4733.3341    -5124.042   -766.38242    3057.3839    1876.9563   -4726.8022    78.343022 
   84800    146.59155   -122.40211   0.13263912   -122.26947   -2471.0456    4.2796475    4.2796475    4.2796475   -2471.0456   -3685.1222   -98.177171   -3629.8373   -662.96248    480.93141    2559.9153    78.383383 
   84900    180.40819   -122.43217   0.16323712   -122.26893      633.485     4.279187     4.279187     4.279187      633.485   -2945.2018    2013.7624    2831.8944    -2687.914   -189.41281    398.62631    78.358079 
   85000    254.52423    -122.4985   0.23029887    -122.2682   -447.30263    4.2774411    4.2774411    4.2774411   -447.30263   -2714.6758    4607.1811   -3234.4131   -604.82457    560.04691   -1470.4591    78.262214 
   85100    227.49817   -122.47443   0.20584513   -122.26859   -648.66791    4.2800769    4.2800769    4.2800769   -648.66791   -4735.9619    289.10286    2500.8553    972.74231    235.38023    -1110.703     78.40698 
   85200    185.87135   -122.43737    0.1681803   -122.26919   -566.94676    4.2809165    4.2809165    4.2809165   -566.94676   -7816.6339    10035.938   -3920.1447    1586.7125     1174.981    143.25147     78.45313 
   85300    218.19258   -122.46656   0.19742523   -122.26913    1388.4376    4.2769671    4.2769671    4.2769671    1388.4376    1132.9549    1550.3108     1482.047   -1568.5496   -861.86306    3853.6204    78.236196 
   85400    196.97951   -122.44707    0.1782312   -122.26884    4749.5392    4.2778257    4.2778257    4.2778257    4749.5392   -1743.4046    9687.7846    6304.2378   -1884.1015    263.26097   -1648.4803    78.283326 
   85500    237.90606   -122.48361   0.21526241   -122.26834   -3897.3754    4.2814941    4.2814941    4.2814941   -3897.3754   -3072.0032   -2994.4574   -5625.6655    1925.1077     558.0942   -133.41699    78.484889 
   85600    150.31449   -122.40521   0.13600771    -122.2692   -605.84568    4.2787494    4.2787494    4.2787494   -605.84568   -710.52158   -5548.5271    4441.5116    1263.5166    735.56284   -4384.7535    78.334043 
   85700     145.3762   -122.40093   0.13153944   -122.26939    979.08116    4.2776892    4.2776892    4.2776892    979.08116   -4260.1211    4526.8354    2670.5291   -1213.1925    51.124852    4171.0867    78.275832 
   85800    183.32651   -122.43502   0.16587768   -122.26914   -1371.6207    4.2790972    4.2790972    4.2790972   -1371.6207   -787.31709   -294.00834   -3033.5367   -3028.8716   -695.81204    2502.1025    78.353151 
   85900    234.76428   -122.48076   0.21241965   -122.26834    -1970.036    4.2797014    4.2797014    4.2797014    -1970.036   -5308.5725     6652.601   -7254.1366    374.97651    1375.0258   -2229.1295    78.386341 
   86000    267.20284   -122.51006   0.24177075   -122.26829   -1584.2067    4.2797853    4.2797853    4.2797853   -1584.2067   -4512.7679    2147.5491   -2387.4013    3009.9841    911.85294   -567.59896    78.390956 
   86100    177.06233   -122.42924   0.16020971   -122.26903    2199.5874    4.2780828    4.2780828    4.2780828    2199.5874   -4625.1732     9801.892    1422.0434   -1062.4966    35.015985   -2537.9714     78.29744 
   86200    205.75132   -122.45512   0.18616812   -122.26895   -882.39499    4.2776632    4.2776632    4.2776632   -882.39499   -2478.5794   -2810.8742    2642.2686   -3062.2215   -803.58016    4917.1248    78.274401 
   86300    169.01479    -122.4219   0.15292813   -122.26897    1874.7417    4.2798696    4.2798696    4.2798696    1874.7417   -3081.9383    1963.9888    6742.1746   -1844.9459    705.21124   -34.208629    78.395587 
   86400    243.98996   -122.48882   0.22076724   -122.26805   -2966.5019      4.28034      4.28034      4.28034   -2966.5019   -5649.6356   -474.50695   -2775.3631    2001.3719    1849.0007    458.71096    78.421438 
   86500    168.33989   -122.42095   0.15231747   -122.26863    1722.4434    4.2774762    4.2774762    4.2774762    1722.4434     3909.195   -1115.6395    2373.7746    2036.6883    341.89757   -2229.4525    78.264139 
   86600    176.74949   -122.42897   0.15992665   -122.26904   -818.80286    4.2779132    4.2779132    4.2779132   -818.80286   -5493.6695    1893.4756    1143.7853    -818.9244   -612.81242    1277.1747    78.288127 
   86700    182.56205   -122.43472   0.16518598   -122.26954   -2839.0319    4.2801295    4.2801295    4.2801295   -2839.0319   -112.65964   -1101.4962   -7302.9399   -2234.9263   -191.79968    2911.7446    78.409869 
   86800    227.04339   -122.47408   0.20543363   -122.26865    -1101.802    4.2800806    4.2800806    4.2800806    -1101.802   -2373.6529     4125.961   -5057.7141   -960.44669    352.63922   -2325.6367     78.40718 
   86900    243.77012   -122.48902   0.22056833   -122.26845    2023.6787    4.2785439    4.2785439    4.2785439    2023.6787   -4157.7996    6598.4421    3630.3935    291.01084     722.0849    6.6573757    78.322761 
   87000    164.59906   -122.41827   0.14893269   -122.26934    4210.2359    4.2770601    4.2770601    4.2770601    4210.2359   -1114.5552    7319.8383    6425.4245   -567.48965    1525.9014    257.23774      78.2413 
   87100    206.87987   -122.45645   0.18718925   -122.26926   -3585.5626    4.2791515    4.2791515    4.2791515   -3585.5626     -6813.35    -5554.898    1611.5601   -692.00058   -638.60806    3825.4311    78.356133 
   87200    167.56001   -122.42083   0.15161182   -122.26922   -2189.7498    4.2814873    4.2814873    4.2814873   -2189.7498   -3839.0126   -1420.8143   -1309.4225   -1454.6559    1642.5858    88.005584    78.484516 
   87300    284.56091   -122.52561   0.25747669   -122.26813   -3632.7212    4.2788796    4.2788796    4.2788796   -3632.7212   -6354.0949   -795.67572    -3748.393    2253.8289    417.82225   -891.94121    78.341194 
   87400    167.26455   -122.42019   0.15134448   -122.26885    5180.2625    4.2762705    4.2762705    4.2762705    5180.2625     6027.835    6673.5718    2839.3806    377.60585   -276.96804   -1647.6397    78.197976 
   87500    156.83831   -122.41107    0.1419106   -122.26916    -1700.366    4.2801207    4.2801207    4.2801207    -1700.366   -7132.7083   -1331.9331    3363.5434    -3337.941    20.101742    2854.5002    78.409387 
   87600    180.63827   -122.43228    0.1634453   -122.26884   -2530.5895     4.280926     4.280926     4.280926   -2530.5895     -2447.95   -991.18043   -4152.6381   -2995.7314   -743.95244    3262.6222    78.453649 
   87700     192.5274    -122.4427   0.17420284   -122.26849    5170.4508    4.2781112    4.2781112    4.2781112    5170.4508    4525.3243    8767.4284    2218.5997    514.39693    3013.3914   -822.80221    78.298998 
   87800    285.51292   -122.52613   0.25833809   -122.26779    302.05654    4.2781078    4.2781078    4.2781078    302.05654    -5310.879    3699.6249    2517.4237    4438.7171    730.00387   -608.02489    78.298809 
   87900    153.51507   -122.40802   0.13890367   -122.26911    1919.5524    4.2787537    4.2787537    4.2787537    1919.5524   -157.29579    6252.2541   -336.30109   -2003.3665    986.99823   -2125.0765    78.334282 
   88000    210.44411   -122.45934   0.19041425   -122.26893   -6827.2688    4.2798252    4.2798252    4.2798252   -6827.2688   -7924.6637   -7576.2212   -4980.9216   -3838.8224   -1056.2337    4239.7439    78.393145 
   88100    182.69794   -122.43444   0.16530894   -122.26913   -3196.1485    4.2807075    4.2807075    4.2807075   -3196.1485   -4731.6373    1276.7688    -6133.577   -1462.8974    389.07715     433.2255     78.44164 
   88200    243.56775   -122.48847   0.22038522   -122.26809    21.156954    4.2781656    4.2781656    4.2781656    21.156954   -3341.5582    2355.8131     1049.216    1496.4479    2209.6026    970.79395    78.301983 
   88300    199.17555   -122.44869   0.18021822   -122.26847    2073.5771    4.2765919    4.2765919    4.2765919    2073.5771    2415.5575    1086.2039    2718.9699    2219.4906   -1113.6415    -47.68252     78.21561 
   88400     131.7281   -122.38833   0.11919035   -122.26914   -638.06339    4.2806647    4.2806647    4.2806647   -638.06339     -4722.14   -2982.5635    5790.5133   -2396.4364    973.71349    1084.8955    78.439284 
   88500    197.28672   -122.44766   0.17850917   -122.26915   -1642.1306    4.2806938    4.2806938    4.2806938   -1642.1306   -1692.1666    2198.4362   -5432.6615   -1338.1574     445.5979    2940.4705    78.440888 
   88600    205.26833   -122.45481    0.1857311   -122.26908    6765.6565    4.2763996    4.2763996    4.2763996    6765.6565    6944.7852    12600.625    751.55928   -605.17183    1598.4269   -2799.5922    78.205058 
   88700    264.96168    -122.5081   0.23974289   -122.26836    1858.2186    4.2775581    4.2775581    4.2775581    1858.2186   -2639.0405    7433.1078    780.58868   -581.23608   -111.79744    1304.3803    78.268634 
   88800    205.20942   -122.45492    0.1856778   -122.26924   -4123.0024    4.2803597    4.2803597    4.2803597   -4123.0024    -4267.093   -2636.5711   -5465.3433   -1210.9483   -1103.6312   -1139.9416     78.42252 
   88900    171.36156   -122.42472   0.15505154   -122.26967    -6618.526    4.2800476    4.2800476    4.2800476    -6618.526   -5917.5084   -9279.8479   -4658.2216   -2313.2598    158.27478     5771.076    78.405367 
   89000    204.30887   -122.45401   0.18486296   -122.26915    -2417.406    4.2787576    4.2787576    4.2787576    -2417.406   -1812.9141    1011.5351    -6450.839    276.38205    969.35345    1794.8118    78.334496 
   89100      202.944   -122.45207   0.18362799   -122.26844    2406.8331    4.2776507    4.2776507    4.2776507    2406.8331   -1274.0558    3243.2073    5251.3478    2431.9416     2020.524   -2407.2117    78.273717 
   89200    178.00021   -122.42971   0.16105833   -122.26865    88.935696    4.2788288    4.2788288    4.2788288    88.935696   -936.21121    1998.8179   -795.79965   -149.60581    990.79043    546.39073    78.338407 
   89300    166.75858   -122.41994   0.15088667   -122.26905   -321.52926    4.2805404    4.2805404    4.2805404   -321.52926   -6127.5488    1306.0943    3856.8667   -2675.4378    161.41126   -288.70751    78.432454 
   89400    186.11776   -122.43737   0.16840326   -122.26897    3555.8238    4.2787311    4.2787311    4.2787311    3555.8238     1983.632    9498.5655   -814.72617   -2394.8456   -351.38557    4468.9565     78.33304 
   89500    268.90523   -122.51158   0.24331111   -122.26826    2180.2859    4.2770304    4.2770304    4.2770304    2180.2859    2164.3789    6366.5204   -1990.0417    1759.4237    16.135173   -108.60303    78.239669 
   89600    227.71488    -122.4745   0.20604121   -122.26846    2230.0369     4.279222     4.279222     4.279222    2230.0369    -2261.581    6616.8296    2334.8621    2604.4776   -14.509133    664.18439    78.360005 
   89700    198.93661   -122.44866   0.18000203   -122.26866   -3730.4966      4.28053      4.28053      4.28053   -3730.4966   -5876.5576   -1918.5052   -3396.4271   -4804.0656      1275.25   -639.35281    78.431884 
   89800    158.90287   -122.41291   0.14377865   -122.26913   -3791.2176    4.2792381    4.2792381    4.2792381   -3791.2176   -6626.0441   -4381.5583   -366.05049   -2637.2197   -54.614815    2667.6815    78.360887 
   89900     183.7572   -122.43483   0.16626737   -122.26856   -126.22429    4.2785827    4.2785827    4.2785827   -126.22429   -88.235228    5015.8119   -5306.2496   -762.77918    2116.5399    1823.3096     78.32489 
   90000    218.35724   -122.46576   0.19757422   -122.26818    -1887.866    4.2788386    4.2788386    4.2788386    -1887.866   -6237.7819     -1709.39    2283.5737    2091.6404    1131.8761   -1917.8154    78.338945 
   90100    181.14075   -122.43233   0.16389996   -122.26843   -3290.5732    4.2798139    4.2798139    4.2798139   -3290.5732   -2327.4894   -4510.8533    -3033.377    404.18063   -1111.5256    1519.0201    78.392523 
   90200    199.99887   -122.44957   0.18096318   -122.26861   -1144.4581    4.2803701    4.2803701    4.2803701   -1144.4581   -5616.3669     3442.398   -1259.4055     -4179.85    386.89564    1780.9355    78.423091 
   90300    197.63366   -122.44768   0.17882309   -122.26886    4985.0173    4.2774036    4.2774036    4.2774036    4985.0173    2227.5117    9613.1098    3114.4303    735.14896    11.436151    2555.2565     78.26015 
   90400     234.5082   -122.48071   0.21218795   -122.26852    3585.0688    4.2773366    4.2773366    4.2773366    3585.0688    2338.0089    9618.0788   -1200.8814   -861.48983    2269.7731   -1565.8955    78.256476 
   90500    207.04741   -122.45615   0.18734085   -122.26881    1217.9734    4.2804801    4.2804801    4.2804801    1217.9734   -5036.9619    4214.5327    4476.3495    1426.6238    -760.6509   -429.60813    78.429139 
   90600    203.24608    -122.4529   0.18390132     -122.269   -3277.3294    4.2793347    4.2793347    4.2793347   -3277.3294   -5404.2426   -6189.0132    1761.2677   -4228.6195    14.175547    -261.6439    78.366194 
   90700    175.68381   -122.42823    0.1589624   -122.26927   -2191.4471    4.2777216    4.2777216    4.2777216   -2191.4471   -5901.6112   -337.85958   -334.87055   -3069.4124    89.729756    5386.6019    78.277609 
   90800    219.41074   -122.46729   0.19852745   -122.26876   -3858.9734    4.2803994    4.2803994    4.2803994   -3858.9734   -2707.3362   -321.62286    -8547.961    1380.3451   -40.911329     2448.666    78.424705 
   90900    186.40454   -122.43745   0.16866274   -122.26879   -1456.6247    4.2787964    4.2787964    4.2787964   -1456.6247   -8254.8676    5321.0806   -1436.0872   -1064.4824     1590.633   -1319.7314    78.336629 
   91000    181.08662   -122.43264   0.16385098   -122.26879   -1609.1592    4.2784242    4.2784242    4.2784242   -1609.1592   -3924.3851    1980.5532   -2883.6456   -544.04744   -841.86133    382.46299    78.316186 
   91100    177.51379   -122.42927   0.16061821   -122.26865    565.76444    4.2805227    4.2805227    4.2805227    565.76444   -4867.1726     10410.92   -3846.4538   -4159.9846    1857.0239    31.747906    78.431483 
   91200    221.53045   -122.46873   0.20044541   -122.26828    3083.3253    4.2779803    4.2779803    4.2779803    3083.3253   -792.81056    6418.8901    3623.8965    504.71541    116.07195    2858.0782    78.291809 
   91300    244.93465   -122.48983   0.22162202   -122.26821    2954.5605    4.2777245    4.2777245    4.2777245    2954.5605    1306.8124    8788.0162   -1231.1471    1201.0338   -1059.5464   -922.84535    78.277767 
   91400    185.70419   -122.43681   0.16802905   -122.26878    1937.9364    4.2807017    4.2807017    4.2807017    1937.9364   -5526.6258    10287.241    1053.1938   -534.92077    409.28658    98.511471    78.441321 
   91500    186.49195   -122.43759   0.16874183   -122.26885   -1378.2224    4.2789746    4.2789746    4.2789746   -1378.2224   -7491.4601    828.87979    2527.9129   -4329.6985    124.07631   -73.677216    78.346412 
   91600    181.19098   -122.43266   0.16394541   -122.26871   -490.93447    4.2782565    4.2782565    4.2782565   -490.93447    -5963.383    7384.9312   -2894.3517   -4454.3168     842.0021    1838.1324    78.306975 
   91700    226.77093   -122.47367   0.20518711   -122.26848   -3779.8099    4.2806062    4.2806062    4.2806062   -3779.8099   -5975.8393    14.076207   -5377.6665    1986.3189   -710.49699    1102.7477    78.436072 
   91800    209.45432   -122.45822   0.18951867    -122.2687   -3038.7259    4.2786702    4.2786702    4.2786702   -3038.7259   -7954.7944   -1608.6694    447.28609   -2204.6934     277.5375   -2312.0291    78.329694 
   91900    161.25627   -122.41492   0.14590807   -122.26902    139.27013    4.2779538    4.2779538    4.2779538    139.27013   -6394.7672    6541.3932     271.1844   -1580.9153    192.53806    675.78364    78.290356 
   92000    158.57726   -122.41299   0.14348403   -122.26951    665.46862    4.2797139    4.2797139    4.2797139    665.46862   -5588.3279    12253.504   -4668.7701   -3208.3337   -133.93431    1126.5657    78.387032 
   92100    238.17499   -122.48455   0.21550573   -122.26904    88.690715    4.2789008    4.2789008    4.2789008    88.690715   -2199.6464    3111.1659   -645.44739    579.08271    593.33101     2495.765     78.34236 
   92200    217.58595   -122.46581   0.19687634   -122.26893    4113.0749    4.2778604    4.2778604    4.2778604    4113.0749    546.82616    14136.962    -2344.563     271.9777    243.39602    -3013.686    78.285231 
   92300    235.04497   -122.48163   0.21267363   -122.26896   -2133.0208    4.2788623    4.2788623    4.2788623   -2133.0208    -1176.085   -4167.3522    -1055.625   -1211.1377    935.98637    -3289.808    78.340247 
   92400    164.80193   -122.41834   0.14911625   -122.26922   -2895.4339    4.2800824    4.2800824    4.2800824   -2895.4339   -8596.2044   -2452.1006    2362.0034   -1623.3958    29.005594     592.4415    78.407279 
   92500    214.88045   -122.46294   0.19442835   -122.26851   -2559.0299    4.2800348    4.2800348    4.2800348   -2559.0299   -4635.5011    733.57663   -3775.1652   -3010.9688   -989.05309    2001.0607    78.404663 
   92600    192.09538     -122.442   0.17381194   -122.26819    3577.4927     4.277512     4.277512     4.277512    3577.4927   -857.98527    10802.182    788.28117     4230.193   -1107.5428    1308.2898    78.266101 
   92700    194.71005    -122.4447   0.17617774   -122.26852    48.332837    4.2780763    4.2780763    4.2780763    48.332837   -6630.7502    4770.9168    2004.8319    -1916.796     674.3705   -1929.1455    78.297082 
   92800    169.28913   -122.42209   0.15317636   -122.26891    -2938.178      4.28078      4.28078      4.28078    -2938.178   -8490.4996    1173.9517   -1497.9862   -3323.2064   -156.50749   -1442.3239    78.445623 
   92900    186.71828    -122.4378   0.16894662   -122.26885    -867.8598    4.2793246    4.2793246    4.2793246    -867.8598   -5734.9174    8106.2209   -4974.8828   -1966.2337    807.97383    149.15685    78.365641 
   93000     250.4829   -122.49522   0.22664219   -122.26858     935.1703    4.2779365    4.2779365    4.2779365     935.1703   -1111.3689     6049.966   -2133.0862    775.84675    1643.7555    444.49674    78.289409 
   93100    209.84129   -122.45859   0.18986881   -122.26872     2982.545    4.2791576    4.2791576    4.2791576     2982.545    -1423.222    14406.053   -4035.1965     2567.781   -348.80562   -1532.6261    78.356468 
   93200    194.76076   -122.44557   0.17622363   -122.26934   -2381.0154    4.2788719    4.2788719    4.2788719   -2381.0154   -3917.2902   -97.589892   -3128.1661   -2194.8527    735.68613   -912.73063    78.340772 
   93300    149.36791    -122.4047   0.13515123   -122.26955   -2752.3561    4.2797519    4.2797519    4.2797519   -2752.3561   -7909.4179   -1891.2515    1543.6011   -1744.9878    -314.0305   -55.342215    78.389117 
   93400    256.69647   -122.50066   0.23226436    -122.2684   -3244.4237    4.2807214    4.2807214    4.2807214   -3244.4237     -4618.79   -2135.3675   -2979.1137   -1237.8606    854.45096    821.29722    78.442405 
   93500    197.17003   -122.44691   0.17840358    -122.2685    6509.2218    4.2759019    4.2759019    4.2759019    6509.2218     1941.945    13197.635     4388.085    2665.8159   -157.89208   -1454.9294    78.177753 
   93600    224.20378   -122.47177   0.20286429   -122.26891    -2013.298    4.2777419    4.2777419    4.2777419    -2013.298   -5515.0114   -1612.7451    1087.8625   -160.69509   -594.61202   -2429.0692    78.278725 
   93700    97.758845   -122.35835  0.088454257    -122.2699   -437.06262    4.2831602    4.2831602    4.2831602   -437.06262   -9797.1674    10506.627   -2020.6472   -2786.3428    1510.0764   -1009.7408    78.576548 
   93800    206.40849   -122.45559   0.18676274   -122.26883    1110.1395    4.2775566    4.2775566    4.2775566    1110.1395    -1810.667    6741.0473   -1599.9618   -2699.2735   -919.38271    1042.2728    78.268552 
   93900    252.23241   -122.49645   0.22822519   -122.26822    3381.4102    4.2755646    4.2755646    4.2755646    3381.4102    302.56936    9444.9761    396.68499    1162.0842    1749.3504    3187.1904    78.159256 
   94000    222.47843   -122.46969   0.20130316   -122.26839   -1794.6506    4.2818332    4.2818332    4.2818332   -1794.6506   -1821.1119    2166.4849   -5729.3248    1502.4528   -1190.4619   -3772.4512    78.503538 
   94100     209.4727   -122.45851    0.1895353   -122.26897   -6794.7342    4.2799667    4.2799667    4.2799667   -6794.7342   -8455.9393   -5827.8088   -6100.4544   -2606.5889   -318.35937   -3403.2814    78.400922 
   94200    133.41765   -122.39051   0.12071909   -122.26979   -407.01266    4.2781773    4.2781773    4.2781773   -407.01266   -5451.3233    3992.6155    237.66985   -3313.9889    2662.6597   -228.37134    78.302626 
   94300    262.61912   -122.50592    0.2376233   -122.26829   -1440.9762    4.2806059    4.2806059    4.2806059   -1440.9762   -2843.9852    2937.8331   -4416.7765   -1948.7303   -279.57692    1242.5759    78.436051 
   94400    198.08318   -122.44773   0.17922983    -122.2685     4996.105    4.2763307    4.2763307    4.2763307     4996.105     1221.546    11900.113    1866.6564    4074.3278    2240.0959    -155.7504    78.201278 
   94500    183.45779   -122.43508   0.16599646   -122.26908   -3530.6639    4.2793514    4.2793514    4.2793514   -3530.6639    -2359.655   -6373.9182   -1858.4185   -1099.6011   -728.77288   -2972.0908    78.367113 
   94600    140.33044   -122.39674   0.12697393   -122.26977    -2213.808    4.2837227    4.2837227    4.2837227    -2213.808   -9233.7156    5210.4936    -2618.202   -1830.0088    388.99767    -800.1435    78.607511 
   94700    206.26819    -122.4555   0.18663579   -122.26886     6398.102    4.2749607    4.2749607    4.2749607     6398.102    4803.9332    10586.585    3803.7874   -3307.4056   -28.773473    230.60631    78.126143 
   94800    253.59635   -122.49793   0.22945931   -122.26847    4845.7895    4.2754602    4.2754602    4.2754602    4845.7895    238.67191    13488.591     810.1052    90.487797   -414.70132   -777.78542    78.153531 
   94900    216.88397   -122.46533   0.19624117   -122.26909   -4259.5822     4.284548     4.284548     4.284548   -4259.5822   -6874.6395    1615.2988    -7519.406    634.66126    2082.7165   -2019.1297    78.652953 
   95000    173.70969   -122.42655   0.15717618   -122.26937    -5477.886    4.2790635    4.2790635    4.2790635    -5477.886   -8363.2258   -3818.0322   -4252.4002   -6071.1176   -886.00552   -1302.9543    78.351297 
   95100    186.16326   -122.43783   0.16844443   -122.26938   -977.33958     4.275511     4.275511     4.275511   -977.33958   -3714.8456   -343.38593    1126.2128   -743.59975    2902.2365    365.94489    78.156318 
   95200    249.84127   -122.49425   0.22606163   -122.26819   -834.36986    4.2815559    4.2815559    4.2815559   -834.36986   -1768.8519    6146.7824   -6881.0402   -1070.8683    646.07176     681.1395    78.488288 
   95300    203.02876   -122.45209   0.18370469   -122.26839   -23.760377    4.2784037    4.2784037    4.2784037   -23.760377   -2838.9017    6666.1998   -3898.5793    2483.6357   -839.05968   -2791.4523    78.315059 
   95400    149.71898   -122.40453   0.13546888   -122.26906   -1742.2058    4.2779243    4.2779243    4.2779243   -1742.2058   -1691.6377    380.61625    -3915.596   -2433.5661    1073.8549   -3772.2275    78.288738 
   95500     129.0625   -122.38624   0.11677846   -122.26946    1306.8222    4.2823388    4.2823388    4.2823388    1306.8222   -7503.8966    14643.979   -3219.6162   -5242.5481   -471.91547   -511.14618    78.531352 
   95600    252.32177   -122.49642   0.22830604   -122.26812    3257.8024    4.2762317    4.2762317    4.2762317    3257.8024    2908.7358    3467.3166    3397.3549   -1376.1028    2422.3975    932.39123    78.195846 
   95700    251.11713   -122.49534   0.22721606   -122.26813    4307.8367     4.276129     4.276129     4.276129    4307.8367   -359.92181    12903.181    380.25058    665.05884     215.7832    453.14597    78.190211 
   95800    230.67139   -122.47763   0.20871632   -122.26891   -4825.8825    4.2843866    4.2843866    4.2843866   -4825.8825   -8253.0085    352.98502    -6577.624    1189.6837   -479.54138   -3594.4333    78.644067 
   95900    128.78625   -122.38647    0.1165285   -122.26994   -1486.7519    4.2787553    4.2787553    4.2787553   -1486.7519   -6516.2037    2998.0483   -942.10014   -6954.1659    192.36201   -1082.5333     78.33437 
   96000    199.58337    -122.4502   0.18058723   -122.26962    1430.0884    4.2749298    4.2749298    4.2749298    1430.0884   -3216.3377    6491.8435    1014.7595   -5145.2151    752.58251   -1016.6232    78.124447 
   96100    252.05336   -122.49668   0.22806317   -122.26861   -879.66225      4.28156      4.28156      4.28156   -879.66225   -2075.2426    4972.6618    -5536.406   -412.09876    2071.3185    604.63994    78.488516 
   96200    221.83831   -122.46963   0.20072397   -122.26891   -4693.3196    4.2798331    4.2798331    4.2798331   -4693.3196   -5644.7766   -1190.4255   -7244.7567    1551.5614   -642.30918   -1654.1326    78.393581 
   96300    128.87732    -122.3865   0.11661091   -122.26989    22.394608    4.2775681    4.2775681    4.2775681    22.394608   -4777.3014    7545.4544   -2700.9692   -2138.1038    819.85549   -4198.5614    78.269181 
   96400    143.71846   -122.39985   0.13003948   -122.26981     2235.426    4.2801315    4.2801315    4.2801315     2235.426   -5782.9656    15748.927   -3259.6829   -4050.8865    1327.4589    1227.9055     78.40998 
   96500    240.96568   -122.48694   0.21803081   -122.26891    1381.6448     4.277322     4.277322     4.277322    1381.6448    376.20642    2914.5842    854.14373   -2263.6147    500.97671    -1641.106    78.255671 
   96600    255.41135   -122.49946   0.23110156   -122.26836    2345.3242    4.2783463    4.2783463    4.2783463    2345.3242   -1031.0119    10655.692   -2588.7074   -634.00063   -316.62817   -394.61249    78.311906 
   96700    242.31362   -122.48807   0.21925045   -122.26882   -3760.7581    4.2819612    4.2819612    4.2819612   -3760.7581   -3036.3242   -1500.8715   -6745.0787   -125.16431   -528.19966   -2065.1503    78.510578 
   96800    99.303874   -122.35995  0.089852232   -122.27009     575.1231    4.2773995    4.2773995    4.2773995     575.1231   -3566.0449   -1174.3603    6465.7745   -7046.6944    981.23977   -1124.3185     78.25993 
   96900    234.56187   -122.48147   0.21223651   -122.26924   -2900.4713    4.2775594    4.2775594    4.2775594   -2900.4713    -5643.822    388.78266   -3446.3747   -2583.2537    2227.3552     1681.119    78.268706 
   97000    221.24286   -122.46855   0.20018519   -122.26837    1913.6473    4.2812477    4.2812477    4.2812477    1913.6473   -3414.2979    11251.638   -2096.3986    1105.2795    641.52819   -1255.4955    78.471338 
   97100     238.9655   -122.48457   0.21622101   -122.26835   -3176.1115    4.2786532    4.2786532    4.2786532   -3176.1115   -5959.1118   -890.12668   -2679.0961   -1861.4602   -1045.9021   -947.76875     78.32876 
   97200    148.52512   -122.40357   0.13438865   -122.26919   -1907.8055    4.2784503    4.2784503    4.2784503   -1907.8055   -9362.5939    7690.8107   -4051.6335   -3199.1516    1016.6348    -3138.438    78.317619 
   97300    114.27864   -122.37307   0.10340171   -122.26967    3039.4319     4.280218     4.280218     4.280218    3039.4319   -2739.2245    12777.697   -920.17725   -5847.2414    831.81244     166.5694    78.414731 
   97400    269.78549   -122.51283   0.24410758   -122.26873    193.81209    4.2771852    4.2771852    4.2771852    193.81209    600.10724    2455.7715   -2474.4425    2441.9072    1150.9025    1330.9942    78.248167 
   97500    204.26641   -122.45355   0.18482454   -122.26873    4879.4606    4.2786858    4.2786858    4.2786858    4879.4606    1167.3772    15068.529   -1597.5248    1173.8614   -714.27838   -1248.4561    78.330552 
   97600    242.21261   -122.48865   0.21915906   -122.26949   -5580.2985    4.2815954    4.2815954    4.2815954   -5580.2985   -1966.6225   -5940.7538   -8833.5193    -2306.228    533.32773   -1168.8666    78.490461 
   97700    125.94435   -122.38466    0.1139571    -122.2707   -1514.4519    4.2768561    4.2768561    4.2768561   -1514.4519   -7279.0172   -4163.8362    6899.4975   -7936.9363    956.48324   -701.43447    78.230106 
   97800    227.11252   -122.47513   0.20549618   -122.26963   -3234.1712    4.2787399    4.2787399    4.2787399   -3234.1712   -4577.2684   -3676.8326   -1448.4127   -4604.3704   -97.005738    693.81948    78.333525 
   97900    267.08211   -122.51044   0.24166151   -122.26877   -1097.8579    4.2812786    4.2812786    4.2812786   -1097.8579   -7020.8493    9652.5408   -5925.2652     3346.547    1232.5014    753.26444    78.473036 
   98000    195.42088   -122.44584   0.17682092   -122.26902    2525.0842    4.2774729    4.2774729    4.2774729    2525.0842   -1429.7064    4749.9104    4255.0486   -1950.9431   -1478.8643   -500.64246    78.263959 
   98100    141.08102    -122.3973   0.12765308   -122.26964      122.377    4.2792264    4.2792264    4.2792264      122.377   -6681.4898    10832.375   -3783.7542   -2899.3278    2354.3851   -962.91541    78.360249 
   98200    125.29054   -122.38308   0.11336551   -122.26971     1811.426    4.2804384    4.2804384    4.2804384     1811.426   -2426.9995    7972.9548   -111.67741   -4661.2862    1705.0366   -33.691541    78.426844 
   98300    256.58098   -122.50048   0.23215986   -122.26832    1162.6427    4.2769969    4.2769969    4.2769969    1162.6427    1695.1862     1598.466     194.2759    612.85021   -275.54543   -91.374264    78.237832 
   98400    251.85603     -122.496   0.22788463   -122.26812    334.27271    4.2798728    4.2798728    4.2798728    334.27271   -4802.8885    9728.1087   -3922.4021    403.00197    1268.4523    1170.4517    78.395762 
   98500    195.22667    -122.4458   0.17664519   -122.26915   -3940.5173    4.2816801    4.2816801    4.2816801   -3940.5173   -2195.3085   -3057.4055    -6568.838    -2283.436    -1036.946   -1234.1394    78.495121 
   98600    147.00919   -122.40284     0.133017   -122.26983   -1609.7967    4.2772847    4.2772847    4.2772847   -1609.7967   -7280.9817    241.91925    2209.6723    -5116.281    1415.2862   -593.21003    78.253625 
   98700     212.9735   -122.46188    0.1927029   -122.26918    -602.9656    4.2792191    4.2792191    4.2792191    -602.9656   -15.551414   -2054.5223    261.17697   -1773.2857   -160.87568    1861.2126    78.359844 
   98800    256.86253    -122.5008   0.23241461   -122.26839   -558.99612    4.2809703    4.2809703    4.2809703   -558.99612   -2447.2351    8962.6292   -8192.3825    2458.9771   -43.450386    703.55641    78.456085 
   98900    230.06721    -122.4766   0.20816964   -122.26843    -925.4972    4.2784173    4.2784173    4.2784173    -925.4972   -2601.6294   -3011.9271    2837.0649   -2842.3341    343.50982    226.41752    78.315808 
   99000    110.77677   -122.36986   0.10023315   -122.26963    3017.9076    4.2794217    4.2794217    4.2794217    3017.9076   -4554.3856      13849.7    -241.5912    -4387.463    160.88063   -1254.4007    78.370975 
   99100    168.65765   -122.42214   0.15260498   -122.26954    374.56723     4.278792     4.278792     4.278792    374.56723    -7463.357     9941.863   -1354.8043   -4159.0755    2516.4991     467.3868    78.336384 
   99200    208.74128   -122.45779   0.18887349   -122.26891    2192.5728    4.2770667    4.2770667    4.2770667    2192.5728    810.73938    3214.9154    2552.0636     3884.823   -851.59591     1777.262    78.241665 
   99300    269.90027   -122.51261   0.24421144    -122.2684   -2822.7173     4.281441     4.281441     4.281441   -2822.7173   -6697.0832    4464.6015   -6235.6701   -453.87963    181.67117   -409.52976    78.481969 
   99400    187.75703   -122.43937   0.16988651   -122.26948   -1764.6265    4.2797609    4.2797609    4.2797609   -1764.6265    3246.8039   -6709.5245    -1831.159   -1718.1512    471.95964   -1133.4285    78.389615 
   99500    152.05438    -122.4076     0.137582   -122.27002     428.7435    4.2757773    4.2757773    4.2757773     428.7435   -904.41622   -795.30694    2985.9537   -5065.7632    954.24947    81.580121    78.170919 
   99600    210.79012   -122.46007   0.19072733   -122.26934   -1080.5385    4.2806115    4.2806115    4.2806115   -1080.5385   -2683.1176   -130.71484   -427.78302   -1920.0572    871.53569    1326.3794     78.43636 
   99700    226.82045   -122.47341   0.20523191   -122.26818     688.1308    4.2809515    4.2809515    4.2809515     688.1308    29.732174    9722.2167   -7687.5565    2870.6809   -1059.4898    1934.8964    78.455053 
   99800    257.97814   -122.50152   0.23342404   -122.26809   -1266.8967    4.2772819    4.2772819    4.2772819   -1266.8967   -5249.6867   -3.2039795    1452.2006   -4772.6357   -225.76642   -766.58477    78.253473 
   99900    126.10646   -122.38342   0.11410377   -122.26931    2828.9801    4.2793143    4.2793143    4.2793143    2828.9801   -4709.1324    9379.8228    3816.2499   -2027.8348    578.41828   -432.56086    78.365077 
  100000    196.61321     -122.447   0.17789976    -122.2691   -3573.2906    4.2796277    4.2796277    4.2796277   -3573.2906   -7839.1331    2635.1503   -5515.8892   -3148.6618    1424.4813    757.44211    78.382293 
Loop time of 22.2357 on 1 procs for 100000 steps with 8 atoms

Pair  time (%) = 7.12927 (32.0623)
Kspce time (%) = 5.30282 (23.8482)
Neigh time (%) = 0 (0)
Comm  time (%) = 1.06726 (4.79977)
Outpt time (%) = 0.0273206 (0.122868)
Other time (%) = 8.70903 (39.1669)

Nlocal:    8 ave 8 max 8 min
Histogram: 1 0 0 0 0 0 0 0 0 0
Nghost:    2189 ave 2189 max 2189 min
Histogram: 1 0 0 0 0 0 0 0 0 0
Neighs:    2344 ave 2344 max 2344 min
Histogram: 1 0 0 0 0 0 0 0 0 0

Total # of neighbors = 2344
Ave neighs/atom = 293
Neighbor list builds = 0
Dangerous builds = 0
unfix 20
unfix 21
print "seeds:1751014"
seeds:1751014
