LAMMPS (10 Feb 2015)
# ---- initialize simulations
clear
units metal
dimension 3
boundary p p p
atom_style charge
atom_modify map array
# ---- create atoms
read_data /Users/eugeneragasa/pyflamestk_git/pypospack/tests/tests_integration/workflow/WorkflowLammpsThermalExpansion/MgO_NaCl_unit.npt.T400/lammps.structure
  triclinic box = (0 0 0) to (4.2565 4.2565 4.2565) with tilt (0 0 0)
  1 by 1 by 1 MPI processor grid
  reading atoms ...
  8 atoms
# ---- define interatomic potential
include potential.mod
mass 1 24.305
mass 2 15.999

group Mg type 1
4 atoms in group Mg
group O type 2
4 atoms in group O

set group Mg charge 1.7
  4 settings made for charge
set group O charge -1.7
  4 settings made for charge

variable R_cut equal 10.0

pair_style buck/coul/long ${R_cut}
pair_style buck/coul/long 10
pair_coeff 1 1 0.0 0.5 0.0 ${R_cut}
pair_coeff 1 1 0.0 0.5 0.0 10
pair_coeff 1 2 929.69 0.29909 0.0 ${R_cut}
pair_coeff 1 2 929.69 0.29909 0.0 10
pair_coeff 2 2 4870 0.2679 77 ${R_cut}
pair_coeff 2 2 4870 0.2679 77 10

kspace_style pppm 1.0e-5

neighbor 1.0 bin
neigh_modify every 1 delay 0 check yes
# ---- define settings
compute eng all pe/atom
compute eatoms all reduce sum c_eng
# ---- run minimization
reset_timestep 0
fix 1 all box/relax iso 0.0 vmax 0.001
thermo 10
thermo_style custom step pe lx ly lz xy xz yz press pxx pyy pzz pxy pxz pyz c_eatoms
min_style cg
minimize 1e-25 1e-25 5000 10000
PPPM initialization ...
  G vector (1/distance) = 0.353152
  grid = 8 8 8
  stencil order = 5
  estimated absolute RMS force accuracy = 4.10333e-05
  estimated relative force accuracy = 2.84961e-06
  using double precision FFTs
  3d grid and FFT values/proc = 3375 512
Neighbor list info ...
  1 neighbor list requests
  update every 1 steps, delay 0 steps, check yes
  master list distance cutoff = 11
Memory usage per processor = 4.06549 Mbytes
Step PotEng Lx Ly Lz Xy Xz Yz Press Pxx Pyy Pzz Pxy Pxz Pyz eatoms 
       0   -119.82944       4.2565       4.2565       4.2565            0            0            0   -43102.631   -43102.631   -43102.631   -43102.631 -1.1410716e-10 2.0651384e-11 1.0044018e-10   -119.82944 
       9    -119.8549     4.222448     4.222448     4.222448            0            0            0   -490.28356   -490.28356   -490.28356   -490.28356 -3.7927136e-11 -7.2182599e-11 3.2130495e-11    -119.8549 
Loop time of 0.068505 on 1 procs for 9 steps with 8 atoms

Minimization stats:
  Stopping criterion = linesearch alpha is zero
  Energy initial, next-to-last, final = 
        -119.829437963     -119.854898204     -119.854898204
  Force two-norm initial, final = 6.22404 0.0696885
  Force max component initial, final = 6.22404 0.069669
  Final line search alpha, max atom move = 1.75215e-06 1.2207e-07
  Iterations, force evaluations = 9 35

Pair  time (%) = 0.0307183 (44.841)
Kspce time (%) = 0.00962925 (14.0563)
Neigh time (%) = 0 (0)
Comm  time (%) = 0.00578022 (8.43766)
Outpt time (%) = 0 (0)
Other time (%) = 0.0223773 (32.6651)

Nlocal:    8 ave 8 max 8 min
Histogram: 1 0 0 0 0 0 0 0 0 0
Nghost:    2189 ave 2189 max 2189 min
Histogram: 1 0 0 0 0 0 0 0 0 0
Neighs:    2344 ave 2344 max 2344 min
Histogram: 1 0 0 0 0 0 0 0 0 0

Total # of neighbors = 2344
Ave neighs/atom = 293
Neighbor list builds = 0
Dangerous builds = 0
unfix 1
# ---- define output variables ----
variable natoms equal "count(all)"
variable tot_energy equal "c_eatoms"
variable length_x equal "lx"
variable length_y equal "ly"
variable length_z equal "lz"
variable tilt_xy equal "xy"
variable tilt_xz equal "xz"
variable tilt_yz equal "yz"
variable tot_press equal "press"
variable press_xx equal "pxx"
variable press_yy equal "pyy"
variable press_zz equal "pzz"
variable press_xy equal "pxy"
variable press_xz equal "pxz"
variable press_yz equal "pyz"

# ---- output ----
print "pypospack:output_section:begin"
pypospack:output_section:begin
print "tot_energy = ${tot_energy}"
tot_energy = -119.854898204259
print "num_atoms = ${natoms}"
num_atoms = 8
print "xx = ${length_x}"
xx = 4.222448
print "yy = ${length_y}"
yy = 4.222448
print "zz = ${length_z}"
zz = 4.222448
print "xy = ${tilt_xy}"
xy = 0
print "xz = ${tilt_xz}"
xz = 0
print "yz = ${tilt_yz}"
yz = 0
print "tot_press = ${tot_press}"
tot_press = -490.283556338482
print "pxx = ${press_xx}"
pxx = -490.283556338668
print "pyy = ${press_yy}"
pyy = -490.283556338614
print "pzz = ${press_zz}"
pzz = -490.283556338163
print "pxy = ${press_xy}"
pxy = -3.79271362347293e-11
print "pxz = ${press_xz}"
pxz = -7.2182599384956e-11
print "pyz = ${press_yz}"
pyz = 3.21304951944417e-11
print "pypospack:output_section:done"
pypospack:output_section:done
print "pypospack:lammps_sim:done"
pypospack:lammps_sim:done
#------------------------------------------------------------------------------
# RUN THERMOSTAT
# running using an NPT Nose-Hoover style thermostat
#------------------------------------------------------------------------------
variable tempdamp equal 0.1
variable pressdamp equal 1.0
# set initial velocities
velocity all create 400 4338993 mom yes dist gaussian loop all
# fix for Nose-Hoover style thermostat
fix 20 all npt temp 400 400 0.1 aniso 0.0 0.0 1.0 drag 1.0 couple xyz
variable boxx equal lx
variable boxy equal ly
variable boxz equal lz
variable boxp equal press
variable boxt equal temp
# calculate averages every 10000 steps
reset_timestep 0
fix 21 all ave/time 10 10 100 v_boxx v_boxy v_boxz v_boxp v_boxt file lattice.out
thermo_style custom step temp pe ke etotal press lx ly lz press pxx pyy pzz pxy pxz pyz vol
thermo_modify flush yes
thermo 100
run 100000
PPPM initialization ...
  G vector (1/distance) = 0.353501
  grid = 8 8 8
  stencil order = 5
  estimated absolute RMS force accuracy = 4.03791e-05
  estimated relative force accuracy = 2.80417e-06
  using double precision FFTs
  3d grid and FFT values/proc = 3375 512
Memory usage per processor = 3.06549 Mbytes
Step Temp PotEng KinEng TotEng Press Lx Ly Lz Press Pxx Pyy Pzz Pxy Pxz Pyz Volume 
       0          400    -119.8549   0.36192841   -119.49297    4645.2398     4.222448     4.222448     4.222448    4645.2398    158.60337    7320.0313    6457.0846    33.992798    1348.8343   -4472.8753    75.282309 
     100    52.994111    -119.4863  0.047950185   -119.43835     -3087.07    4.2428865    4.2428865    4.2428865     -3087.07   -18078.643     13025.26   -4207.8272   -1653.5291   -3042.6138    139.48492    76.380805 
     200    428.54828   -119.73351   0.38775949   -119.34575    1611.9396    4.2260754    4.2260754    4.2260754    1611.9396   -2475.6142    2738.4659    4572.9671   -652.69052   -150.58938   -4057.1657    75.476497 
     300    186.66413   -119.42984   0.16889763   -119.26094   -1446.8389    4.2508101    4.2508101    4.2508101   -1446.8389    -23559.12    5234.2039      13984.4   -819.53794   -1379.8301     3981.174    76.809529 
     400    545.97795   -119.68566   0.49401232   -119.19165    1003.2497    4.2341884    4.2341884    4.2341884    1003.2497   -8732.1014    5488.8365     6253.014   -2570.6668    183.52216   -1491.0362    75.912015 
     500    251.95495   -119.37738   0.22797413   -119.14941   -1333.7998    4.2453336    4.2453336    4.2453336   -1333.7998   -16514.453   -438.57316    12951.626    1403.3931    1702.8605    7939.8479     76.51304 
     600    461.49495   -119.54486   0.41757033   -119.12729   -2410.5958    4.2453826    4.2453826    4.2453826   -2410.5958   -14582.309     13684.54   -6334.0183   -856.82451   -2196.0796    4386.8696    76.515689 
     700    473.27934   -119.55202   0.42823309   -119.12379   -7653.3942    4.2445237    4.2445237    4.2445237   -7653.3942   -18843.967   -1101.0261   -3015.1901    881.15036    407.29744    3206.3438    76.469262 
     800     289.9809   -119.38855   0.26238081   -119.12617    7468.0012    4.2391128    4.2391128    4.2391128    7468.0012   -5972.1655     32090.99   -3714.8206    1318.0704   -1821.7486    6556.5201    76.177185 
     900    473.11131   -119.55699   0.42808105   -119.12891   -12070.437    4.2497839    4.2497839    4.2497839   -12070.437   -21091.778   -13176.181   -1943.3515    1252.3027    1776.5012    180.32712    76.753916 
    1000    326.25829   -119.42553   0.29520536   -119.13033    13095.287    4.2373219    4.2373219    4.2373219    13095.287   -2800.1439    33241.839    8844.1644     2195.479   -1935.5326    6560.6964    76.080677 
    1100     520.6978   -119.60328   0.47113831   -119.13214   -5028.0877    4.2434249    4.2434249    4.2434249   -5028.0877   -21218.167   -5375.6419    11509.546    454.38598     184.1069   -1170.6843    76.409886 
    1200    294.65135   -119.39845   0.26660674   -119.13185     1989.395    4.2466306    4.2466306    4.2466306     1989.395   -11834.387    9617.2825    8185.2898    2145.6218    554.06724    3114.3819    76.583191 
    1300    433.43065   -119.52252   0.39217716   -119.13034    4784.5486    4.2359676    4.2359676    4.2359676    4784.5486   -13134.901    23001.116    4487.4313     146.0329    2868.3238   -4398.6415    76.007754 
    1400    460.91881   -119.54717   0.41704903   -119.13013   -8119.1372    4.2457828    4.2457828    4.2457828   -8119.1372   -19563.276    6408.3236   -11202.459    1208.7993    3159.6889    6635.5638    76.537332 
    1500    360.33773   -119.45653   0.32604115   -119.13049    2511.3389    4.2427638    4.2427638    4.2427638    2511.3389   -21837.391    21396.723    7974.6846   -1132.8443   -2284.6388   -3302.1286     76.37418 
    1600    368.59584   -119.46469   0.33351326   -119.13118   -6669.9159    4.2408894    4.2408894    4.2408894   -6669.9159   -11066.957    6471.5211   -15414.312   -446.46698    4166.4166    11565.395    76.273003 
    1700    532.01116   -119.61485   0.48137487   -119.13348   -7463.4872    4.2446623    4.2446623    4.2446623   -7463.4872   -27111.219     12902.28   -8181.5228   -2.4813797   -1056.7884   -2931.6682    76.476751 
    1800     253.6299   -119.36436   0.22948967   -119.13487    7101.3074    4.2441429    4.2441429    4.2441429    7101.3074   -6244.5374    21992.062    5556.3971    -1380.309      3024.14    10224.544    76.448681 
    1900    540.90084   -119.62024   0.48941845   -119.13082   -6484.1597    4.2408164    4.2408164    4.2408164   -6484.1597   -16850.097    6826.4828   -9428.8646   -828.10603   -1524.9297   -2960.8494    76.269064 
    2000    223.45419   -119.33302   0.20218605   -119.13084    13023.226    4.2430256    4.2430256    4.2430256    13023.226   -6556.4132    45979.068   -352.97827   -2227.7999    615.61995    2039.1656    76.388319 
    2100    541.68642   -119.61953   0.49012926    -119.1294   -1177.1816    4.2425461    4.2425461    4.2425461   -1177.1816   -12694.263     7491.628    1671.0899   -808.50968    2765.2174   -2062.5155    76.362423 
    2200    340.01251   -119.43691   0.30765047   -119.12926    5755.3401    4.2427436    4.2427436    4.2427436    5755.3401   -13384.521    37821.317   -7170.7752   -1789.0017    -149.1396   -8427.2258    76.373089 
    2300    371.75659   -119.46599   0.33637317   -119.12962   -934.53455      4.24034      4.24034      4.24034   -934.53455    -12770.84    12800.196   -2832.9597   -1081.0554    2414.0381   -712.82761    76.243362 
    2400    429.96189   -119.51987   0.38903855   -119.13084   -8292.4114    4.2478801    4.2478801    4.2478801   -8292.4114   -18171.332    13248.027   -19953.929     1023.357   -2390.7683   -10527.599    76.650808 
    2500    374.62573   -119.46992   0.33896923   -119.13095   -4560.4579    4.2412593    4.2412593    4.2412593   -4560.4579   -16989.552    7313.7102   -4005.5317    -266.3443    3729.6763     7493.103     76.29296 
    2600    423.80122   -119.51385   0.38346425   -119.13038   -8334.8762    4.2440425    4.2440425    4.2440425   -8334.8762   -15002.513    5282.4942    -15284.61    1780.8573   -852.74979    -6296.976    76.443253 
    2700    387.21337   -119.47895    0.3503588   -119.12859    140.58708    4.2455233    4.2455233    4.2455233    140.58708   -20627.417    18445.022    2604.1563    2443.2562   -1743.0919    6531.1144    76.523298 
    2800    424.35778   -119.51271   0.38396784   -119.12874    3759.2978    4.2400094    4.2400094    4.2400094    3759.2978   -11772.271    28602.783   -5552.6187   -615.18635    362.89005   -2168.2126     76.22553 
    2900    420.14931   -119.51166   0.38015993    -119.1315    4288.3591    4.2419025    4.2419025    4.2419025    4288.3591   -20885.488    20704.511    13046.054    3513.4615   -3475.1915    2780.4567    76.327677 
    3000    378.01217   -119.47267   0.34203335   -119.13064    2136.6765    4.2440703    4.2440703    4.2440703    2136.6765   -16315.267    21789.012    936.28419   -477.67586    2022.0331   -264.67654    76.444759 
    3100    418.98837   -119.50902   0.37910948   -119.12991    2078.9681    4.2392596    4.2392596    4.2392596    2078.9681   -19193.114    19410.692    6019.3266    3765.2983    -6487.093    2292.3094      76.1851 
    3200    413.19828   -119.50527   0.37387049    -119.1314   -5632.8703    4.2450992    4.2450992    4.2450992   -5632.8703   -22344.025    10200.587    -4755.173   -529.38599   -691.18624    2282.2591    76.500367 
    3300    366.45896   -119.46439   0.33157977   -119.13281   -4359.6834    4.2424099    4.2424099    4.2424099   -4359.6834   -23538.991    6694.9758    3764.9646     1068.693    -306.1872    2366.9879    76.355073 
    3400    427.07229   -119.51828   0.38642398   -119.13185   -6070.9484    4.2394538    4.2394538    4.2394538   -6070.9484   -16514.233    13341.969   -15040.582    342.50245   -2363.8075    1779.2803    76.195567 
    3500    331.42979   -119.43244   0.29988464   -119.13255    1121.5083    4.2474979    4.2474979    4.2474979    1121.5083   -26504.282    10588.222    19280.585   -2501.0882    320.63581   -6222.6524    76.630124 
    3600    591.60146   -119.66555   0.53529343   -119.13025    582.42812    4.2371385    4.2371385    4.2371385    582.42812   -9054.5319    9296.4365    1505.3798   -23.289319   -3961.7087   -1186.3575      76.0708 
    3700    128.43412    -119.2501   0.11620989   -119.13389    12448.747    4.2442021    4.2442021    4.2442021    12448.747   -14576.813    33068.824    18854.231   -2508.2065    3125.5086   -12413.848    76.451878 
    3800      629.592    -119.7026   0.56966808   -119.13293   -12719.541     4.243474     4.243474     4.243474   -12719.541   -22358.877   -11413.402   -4386.3459    705.79821   -2837.7364    2416.3942     76.41254 
    3900    176.86715    -119.2951   0.16003312   -119.13507    13498.422    4.2373305    4.2373305    4.2373305    13498.422   -7711.7436    20336.921    27870.089   -1490.9453    3002.0599   -12148.697    76.081141 
    4000    625.13953   -119.69848   0.56563938   -119.13284   -19981.681    4.2473419    4.2473419    4.2473419   -19981.681   -26621.548   -13001.499   -20321.997    1398.7185   -2892.1707    8159.6404     76.62168 
    4100    163.38752   -119.28304   0.14783646   -119.13521    9641.3704    4.2410905    4.2410905    4.2410905    9641.3704   -13017.145    20705.627    21235.629   -1461.1595    4999.7219   -6888.8845    76.283854 
    4200    617.10165   -119.69188   0.55836654   -119.13352   -4445.6987     4.239269     4.239269     4.239269   -4445.6987   -15997.236    1379.5289    1280.6113    160.96393   -66.761201    9148.4581    76.185607 
    4300    262.55579   -119.36979     0.237566   -119.13223    2677.6008    4.2483814    4.2483814    4.2483814    2677.6008    -24086.91    12047.985    20071.728    96.553012    155.31285   -4885.7917    76.677952 
    4400    446.84825    -119.5343   0.40431769   -119.12998    159.18064    4.2377399    4.2377399    4.2377399    159.18064    -14154.76    14179.029    453.27328    -1759.883   -433.94644   -585.01947    76.103193 
    4500    373.50242   -119.46926   0.33795284    -119.1313   -2898.1102     4.243518     4.243518     4.243518   -2898.1102   -23165.613   -338.83764     14810.12    659.33946   -1336.1898   -5274.0689    76.414916 
    4600     453.5795   -119.54034   0.41040826   -119.12993   -3098.2586     4.245379     4.245379     4.245379   -3098.2586   -18740.657    19312.331   -9866.4488   -2104.1402    593.02192   -5761.1364    76.515495 
    4700     317.7338     -119.418   0.28749222   -119.13051    988.91393    4.2385517    4.2385517    4.2385517    988.91393    -18700.14    17194.838    4472.0438    25.512574   -6544.7892   -1677.1399    76.146938 
    4800    422.22349   -119.51198   0.38203668   -119.12994   -1266.2112    4.2449714    4.2449714    4.2449714   -1266.2112   -16691.271    19629.788   -6737.1503   -790.33753    1120.2223   -6170.8041    76.493462 
    4900    382.11127   -119.47482   0.34574231   -119.12908   -1285.5282    4.2443123    4.2443123    4.2443123   -1285.5282   -24067.617    16390.079    3820.9535    -1269.856    -2367.504    3144.6891    76.457835 
    5000    426.64499   -119.51529   0.38603736   -119.12925      1860.95    4.2400307    4.2400307    4.2400307      1860.95   -12361.432    10596.919    7347.3623    375.16527   -731.34183   -1075.0431    76.226677 
    5100    345.40145   -119.44386   0.31252649   -119.13133    2275.9343     4.246525     4.246525     4.246525    2275.9343   -22541.257    24888.024    4481.0353   -755.10333   -1512.2565    8325.0459     76.57748 
    5200    453.09631   -119.54245   0.40997106   -119.13247   -4927.1332    4.2403683    4.2403683    4.2403683   -4927.1332   -13957.102   -2060.2536    1235.9561   -1290.3313   -1479.3061    2105.0131    76.244887 
    5300    322.41668   -119.42568   0.29172939   -119.13395    7712.9689    4.2383868    4.2383868    4.2383868    7712.9689   -15621.512    19702.043    19058.375    -3361.355    1610.7943    6822.6846    76.138054 
    5400    499.06579   -119.58429   0.45156521   -119.13272   -14109.293    4.2492331    4.2492331    4.2492331   -14109.293   -28725.161    8524.6093   -22127.328   -1310.8155   -932.23768   -3231.9828    76.724078 
    5500    346.97565   -119.44576   0.31395086   -119.13181    6046.8613    4.2370578    4.2370578    4.2370578    6046.8613   -6707.2979    22966.545    1881.3371   -1469.3034    381.92017    2506.1139    76.066454 
    5600    391.50721   -119.48516   0.35424396   -119.13092   -6826.4463     4.244678     4.244678     4.244678   -6826.4463   -19998.524    3254.8854   -3735.7009   -404.65057   -580.47222   -1583.5373    76.477599 
    5700    452.17756   -119.53772   0.40913976   -119.12858   -6001.1043    4.2481899    4.2481899    4.2481899   -6001.1043   -24416.267     11143.52   -4730.5656    1015.0333    595.29419    1023.3833    76.667584 
    5800    375.10375   -119.46795   0.33940175   -119.12855    6297.3556    4.2374995    4.2374995    4.2374995    6297.3556   -4332.7062    14895.671    8329.1018    1333.7146   -1478.7761    1287.4456    76.090243 
    5900     447.0504   -119.53296    0.4045006   -119.12845   -5412.2517    4.2448434    4.2448434    4.2448434   -5412.2517   -22114.649   -270.10664    6148.0007    1226.1705   -426.81903    876.43648    76.486539 
    6000    276.15538    -119.3779   0.24987119   -119.12803    11997.163    4.2452153    4.2452153    4.2452153    11997.163    -9657.829    25107.004    20542.313    4146.6437   -2719.5677    5232.9603    76.506643 
    6100    573.91685   -119.64562   0.51929203   -119.12633   -1945.0153    4.2367907    4.2367907    4.2367907   -1945.0153   -18364.317    12475.405    53.866859   -1133.8738   -876.89221    2855.6326    76.052071 
    6200    324.60928   -119.42081    0.2937133    -119.1271     9560.598     4.245103     4.245103     4.245103     9560.598   -11052.781    18806.211    20928.364    3607.0606   -642.64195     3766.829    76.500574 
    6300    321.27944   -119.41877   0.29070039   -119.12807   -6222.5521    4.2474709    4.2474709    4.2474709   -6222.5521   -26614.496    12168.979   -4222.1396    1197.9105    413.84563   -825.91787    76.628662 
    6400    511.66987   -119.59156   0.46296965   -119.12859   -4221.2221    4.2373285    4.2373285    4.2373285   -4221.2221   -6943.0093   -1826.0446   -3894.6123    872.50162   -1114.9683   -5988.3313    76.081033 
    6500     320.6504   -119.42088   0.29013122   -119.13075    181.20775    4.2469353    4.2469353    4.2469353    181.20775   -24241.688    25109.263   -323.95229    2876.1903    1038.8931   -7042.5076    76.599677 
    6600    498.24564   -119.57874   0.45082312   -119.12792   -17039.002    4.2470393    4.2470393    4.2470393   -17039.002   -23369.409   -15175.562   -12572.036   -1570.5664    709.35136   -1710.8981    76.605303 
    6700    222.37077   -119.33141   0.20120574    -119.1302    13599.519    4.2342821    4.2342821    4.2342821    13599.519    -4622.739    29314.577    16106.719    2950.8222   -639.12446    -11425.77     75.91706 
    6800    522.07487   -119.60466   0.47238431   -119.13227   -7406.4384    4.2484479    4.2484479    4.2484479   -7406.4384   -18233.105    14184.678   -18170.888  -0.29328177      2556.57    2611.6077     76.68155 
    6900    384.93306   -119.48117   0.34829552   -119.13287    2521.1035    4.2426079    4.2426079    4.2426079    2521.1035   -13279.204    9205.8848    11636.629    1627.0105   -982.93504   -8141.7559    76.365759 
    7000    322.04713   -119.42242   0.29139501   -119.13103    6139.5004    4.2355961    4.2355961    4.2355961    6139.5004    5284.9215    14967.258   -1833.6785   -2414.7391    3123.4154    11855.561    75.987758 
    7100    530.07579   -119.61027   0.47962371   -119.13064   -11485.798    4.2511002    4.2511002    4.2511002   -11485.798   -25005.999   -1989.8984   -7461.4972   -477.61014    1095.0145    -3987.139    76.825257 
    7200    319.82153   -119.42022   0.28938124   -119.13084    4688.5825    4.2397337    4.2397337    4.2397337    4688.5825   -3248.5443    9840.4159     7473.876   -2922.9634    1802.7561    10937.159    76.210663 
    7300    424.68928   -119.51373   0.38426779   -119.12946   -2289.9404    4.2424106    4.2424106    4.2424106   -2289.9404   -10688.116    6453.2187   -2634.9242   -4334.5635    3772.3745   -2982.4441     76.35511 
    7400    391.25971   -119.48193   0.35402001   -119.12791    5101.2738    4.2441365    4.2441365    4.2441365    5101.2738   -11095.753    24674.357    1725.2181   -2036.3696    346.72301    10361.337    76.448337 
    7500    428.29611   -119.51452   0.38753133   -119.12699    2453.2078    4.2426379    4.2426379    4.2426379    2453.2078    -15882.08    19673.992     3567.712   -4107.2582    4132.2678    1029.7063    76.367382 
    7600    452.45831   -119.53537   0.40939379   -119.12598    2130.4551    4.2396003    4.2396003    4.2396003    2130.4551    -7292.384     17180.54   -3496.7902   -565.73741   -661.50426    493.77496    76.203466 
    7700    227.08946   -119.33366   0.20547532   -119.12819    116.47291    4.2469345    4.2469345    4.2469345    116.47291   -11489.736    14581.888   -2742.7332    158.23674    2698.4961    6513.2969    76.599631 
    7800    620.78332   -119.69053   0.56169779   -119.12884   -14779.948    4.2430664    4.2430664    4.2430664   -14779.948   -21720.011   -9795.6618   -12824.172   -744.56604   -1441.1691   -3327.4374    76.390525 
    7900    210.34833   -119.32267   0.19032759   -119.13234    5997.4677    4.2394275    4.2394275    4.2394275    5997.4677    5753.1601     14307.05   -2067.8068    2812.8844    150.95863     17569.23    76.194153 
    8000    604.27034   -119.67658    0.5467565   -119.12982   -17642.073    4.2479949    4.2479949    4.2479949   -17642.073   -22932.886   -17400.188   -12593.146    3127.4159   -2687.9664   -6054.8817    76.657024 
    8100    193.98862   -119.30667   0.17552498   -119.13115    10608.917    4.2396635    4.2396635    4.2396635    10608.917    3957.1192    20440.404    7429.2286    1093.9408    62.559943    16413.964    76.206875 
    8200    545.52166   -119.62261   0.49359946   -119.12901   -2395.0362    4.2399738    4.2399738    4.2399738   -2395.0362   -10006.583    5757.5338   -2936.0598    1715.2137   -142.34443    1045.9317    76.223611 
    8300    323.76697   -119.42206   0.29295115   -119.12911      5710.48    4.2470043    4.2470043    4.2470043      5710.48   -10094.334    32185.755   -4959.9809   -481.93311    1714.8186    8610.1018    76.603412 
    8400    394.45919   -119.48456   0.35691497   -119.12765    1929.0535    4.2412266    4.2412266    4.2412266    1929.0535   -9841.9803    4267.7716    11361.369   -495.55154    174.50679    1734.1621    76.291195 
    8500    478.13037     -119.559   0.43262241   -119.12638    1457.1301    4.2419979    4.2419979    4.2419979    1457.1301   -9584.3265    22699.359   -8743.6426    -4610.431    1549.0827    2667.1313    76.332825 
    8600    284.10434   -119.38519   0.25706357   -119.12813   -1189.1969    4.2479013    4.2479013    4.2479013   -1189.1969    -13109.16    10880.647   -1339.0774   -1806.7589    2590.5086     3753.562    76.651959 
    8700    487.29657   -119.56817   0.44091618   -119.12726   -9604.5216    4.2408546    4.2408546    4.2408546   -9604.5216   -8401.7138   -10283.196   -10128.655   -4743.8441    2396.1518   -5597.4736    76.271125 
    8800    253.01238   -119.35874   0.22893092   -119.12981    5983.5429    4.2419507    4.2419507    4.2419507    5983.5429   -774.11863    14598.949    4125.7979   -3172.9606    2694.3525    13776.686    76.330282 
    8900    594.53252    -119.6654   0.53794552   -119.12746   -16499.369    4.2477414    4.2477414    4.2477414   -16499.369   -24752.128   -7563.3508   -17182.629    -168.9289    558.69347   -9693.8651    76.643305 
    9000    275.04054   -119.37735   0.24886246   -119.12849    13762.564    4.2371312    4.2371312    4.2371312    13762.564    6590.4623    18186.915    16510.313   -2306.8279    2025.1965    13530.747    76.070405 
    9100    433.57247   -119.52116   0.39230549   -119.12885   -6326.5528    4.2447832    4.2447832    4.2447832   -6326.5528   -13583.546    15.267404   -5411.3795    2092.6751     148.3979   -4778.8791    76.483284 
    9200    374.75066   -119.46876   0.33908228   -119.12967    6601.0502    4.2453794    4.2453794    4.2453794    6601.0502    -11015.68    23570.552    7248.2778    1495.2632   -1152.9623    6942.1223     76.51552 
    9300    447.52895    -119.5333    0.4049336   -119.12836    2615.1696    4.2383695    4.2383695    4.2383695    2615.1696   -4749.3001    1525.5063    11069.302   -2449.9434   -2357.9123   -2263.0734    76.137119 
    9400    429.05966   -119.51737    0.3882222   -119.12915   -7503.4204    4.2475479    4.2475479    4.2475479   -7503.4204   -14694.938   -7675.5225   -139.80043       4282.2    -2813.202     1520.728    76.632828 
    9500    322.62753   -119.42172   0.29192017    -119.1298    4939.5523     4.241233     4.241233     4.241233    4939.5523   -8690.7245    16277.148    7232.2335   -4836.2007   -2976.2858   -5943.8758    76.291542 
    9600    479.57957   -119.56311   0.43393367   -119.12917   -6168.5335    4.2415425    4.2415425    4.2415425   -6168.5335   -10215.978   -5996.2121     -2293.41    1259.6454   -3616.8446   -2631.9505    76.308247 
    9700    344.46054   -119.43941   0.31167513   -119.12773     2146.905    4.2464346    4.2464346    4.2464346     2146.905   -12877.464    15545.182    3772.9967   -4128.2227   -3009.7823    503.07771    76.572589 
    9800    426.49422   -119.51265   0.38590093   -119.12675    -3531.644    4.2419468    4.2419468    4.2419468    -3531.644   -10243.912   -2642.2719    2291.2521   -2029.9128      -2460.8   -3834.5257    76.330068 
    9900    460.79989   -119.54445   0.41694143   -119.12751    949.03053    4.2417219    4.2417219    4.2417219    949.03053   -13082.004    12984.175    2944.9207   -1677.6979    1756.9065    1781.5332    76.317931 
   10000    350.15549   -119.44421   0.31682804   -119.12738    -1722.185    4.2473955    4.2473955    4.2473955    -1722.185   -9839.7053   -2659.4944    7332.6446    -3698.201   -1141.6909    702.06359    76.624581 
   10100    415.46497   -119.50381   0.37592144   -119.12789   -6803.9697    4.2424306    4.2424306    4.2424306   -6803.9697   -15540.697   -8299.1773    3427.9651    108.00113    3460.3665    5723.2784    76.356186 
   10200    423.49334   -119.51317   0.38318568   -119.12998     4159.136    4.2408345    4.2408345    4.2408345     4159.136   -9782.6287    6986.7196    15273.317   -4753.7838    -187.0579    -233.6113    76.270041 
   10300    474.10169   -119.55799   0.42897717   -119.12901    -8122.752    4.2478665    4.2478665    4.2478665    -8122.752    -22560.95    -3159.582    1352.2757    2512.4831    3995.7334    3159.1627    76.650076 
   10400    317.33901   -119.41477   0.28713501   -119.12764    3537.3334    4.2396897    4.2396897    4.2396897    3537.3334   -4450.8492    8538.0402    6524.8094   -5006.8208    30.029644   -6349.8393    76.208292 
   10500    451.80946   -119.53717    0.4088067   -119.12836   -250.26282    4.2410017    4.2410017    4.2410017   -250.26282    -15723.87    7034.9561    7938.1255    419.14386    1305.3051   -789.09105    76.279063 
   10600    382.57846   -119.47684   0.34616503   -119.13067    702.76939    4.2478426    4.2478426    4.2478426    702.76939   -14226.466    22747.443    -6412.669   -3354.3335    1339.4327   -5751.6952     76.64878 
   10700    458.52917   -119.54425   0.41488683   -119.12937    1180.0102    4.2354082    4.2354082    4.2354082    1180.0102   -6746.2049    235.43926    10050.796   -769.03742   -4222.8303   -3400.1525    75.977644 
   10800    298.76843   -119.40135   0.27033196   -119.13101   -1518.0581    4.2454796    4.2454796    4.2454796   -1518.0581   -15504.027    3597.6775    7352.1753   -1383.3375    1030.3281   -7357.9909    76.520934 
   10900    472.92313    -119.5582   0.42791078   -119.13029   -5496.1251    4.2454747    4.2454747    4.2454747   -5496.1251   -12796.314   -12183.286    8491.2245    2228.2159    -8412.917    3327.2286    76.520672 
   11000    406.61229   -119.49859   0.36791134   -119.13067    3817.1746    4.2359156    4.2359156    4.2359156    3817.1746    -6491.605    40.665566    17902.463    1296.2405   -1631.9234   -3297.9898    76.004955 
   11100    353.72066   -119.44934   0.32005389   -119.12929   -3862.2244    4.2489648    4.2489648    4.2489648   -3862.2244   -13087.896   -16642.264    18143.487     5446.717    -4092.801    2681.1776    76.709544 
   11200    408.48421   -119.49731    0.3696051    -119.1277    4863.0179    4.2397769    4.2397769    4.2397769    4863.0179    -10506.49    19977.069    5118.4743    3876.0709   -1199.4824   -4405.9653    76.212992 
   11300    438.84543   -119.52483   0.39707657   -119.12775     1119.601    4.2421771    4.2421771    4.2421771     1119.601   -2822.9505    1848.3849    4333.3686    3301.5184   -1389.8917   -152.15819    76.342501 
   11400     333.5301   -119.42979   0.30178504   -119.12801    1267.5802    4.2467521    4.2467521    4.2467521    1267.5802   -13840.662    16726.667    916.73561    4444.5225     2600.795   -3876.9314    76.589762 
   11500    377.93603   -119.46817   0.34196446    -119.1262   -6354.4505    4.2430843    4.2430843    4.2430843   -6354.4505   -10314.441    -9798.652    1049.7413    1030.7914   -1745.7962    1817.1676    76.391492 
   11600    414.01987   -119.50106   0.37461388   -119.12645    3306.5046    4.2423975    4.2423975    4.2423975    3306.5046   -2110.1856    9698.4354     2331.264   -840.38853    3159.3939     378.0867    76.354399 
   11700    436.35823   -119.52075   0.39482609   -119.12592   -7820.2938    4.2485133    4.2485133    4.2485133   -7820.2938   -17187.907   -11646.319    5373.3452   -966.78693   -586.09002   -1072.8454    76.685094 
   11800    327.07634   -119.42134   0.29594555   -119.12539   -568.09589    4.2414412    4.2414412    4.2414412   -568.09589   -770.04626   -15577.088    14642.847   -4033.5977      1024.01    4797.2191    76.302778 
   11900    444.29155    -119.5283   0.40200433    -119.1263    1935.5721    4.2414814    4.2414814    4.2414814    1935.5721   -4611.7137    2862.2084    7556.2215   -4526.2151     1257.211   -2673.9992    76.304948 
   12000    435.04704   -119.52072    0.3936397   -119.12708   -3736.0949    4.2472642    4.2472642    4.2472642   -3736.0949   -13364.192   -10284.982    12440.889   -1567.5269    37.619184    8148.0157    76.617476 
   12100    359.58718    -119.4527   0.32536203   -119.12734    6450.3135    4.2390888    4.2390888    4.2390888    6450.3135    1758.6472     15131.95     2460.343   -6936.8212    1882.1948   -5313.8382     76.17589 
   12200    407.08688   -119.49562   0.36834076   -119.12728    -58.03825    4.2418581    4.2418581    4.2418581    -58.03825   -3362.0241   -5145.4569    8333.3663   -1165.2622   -2411.1208    5744.3899    76.325281 
   12300    414.48627   -119.50361   0.37503589   -119.12858    1943.6072    4.2462603    4.2462603    4.2462603    1943.6072   -10769.732    18183.874   -1583.3198   -1870.8312    494.43684   -993.25893    76.563157 
   12400    484.54074   -119.56617   0.43842264   -119.12774   -4120.5724    4.2404962    4.2404962    4.2404962   -4120.5724   -7484.4082   -10550.233    5672.9244    1053.9942   -3230.1297    6254.6227     76.25179 
   12500    259.28725   -119.36318   0.23460856   -119.12857    2424.6376    4.2420443    4.2420443    4.2420443    2424.6376   -3581.4169    2896.0628    7959.2668    454.45469    1294.7102     3905.883    76.335332 
   12600    542.34901   -119.61873   0.49072878     -119.128   -13040.921    4.2491912    4.2491912    4.2491912   -13040.921   -18150.471   -24869.594     3897.304    2664.4735   -2353.9038   -2049.2505    76.721807 
   12700    317.56432   -119.41723   0.28733887   -119.12989    6086.7087    4.2362029    4.2362029    4.2362029    6086.7087    4084.2631    7057.0926    7118.7703    -456.3491    1484.3352    11030.508     76.02042 
   12800    479.88053   -119.56382   0.43420599   -119.12962   -6236.3617    4.2449541    4.2449541    4.2449541   -6236.3617   -14022.413   -13829.578    9142.9061    3986.7775     1404.374   -3168.4494    76.492524 
   12900    282.06395   -119.38398   0.25521739   -119.12876    4818.6846    4.2458999    4.2458999    4.2458999    4818.6846    -3306.766    12855.124    4907.6957   -2315.1463    4237.5717    11804.406    76.543664 
   13000    523.93598   -119.60272   0.47406828   -119.12865    374.14083    4.2364314    4.2364314    4.2364314    374.14083     -9115.69    2366.2177    7871.8948   -2457.8553    2516.0988   -7258.7207    76.032722 
   13100    372.54378    -119.4669   0.33708544   -119.12981    3946.3485    4.2457085    4.2457085    4.2457085    3946.3485   -7071.8393    17272.703    1638.1816   -3451.5252    6231.9256    8792.1865    76.533314 
   13200    373.47188   -119.46617   0.33792521   -119.12824   -3589.5517    4.2453788    4.2453788    4.2453788   -3589.5517   -18138.445   -3069.9358    10439.726   -1291.9385    1896.5384   -3847.0828    76.515483 
   13300    455.43943   -119.53944   0.41209117   -119.12735   -529.84485    4.2373775    4.2373775    4.2373775   -529.84485   -2564.8282   -5387.7143     6363.008   -5695.3842    3329.9088    4418.0891    76.083675 
   13400    324.20394   -119.42304   0.29334654    -119.1297   -349.53723    4.2479943    4.2479943    4.2479943   -349.53723   -19651.428    14398.502    4204.3142   -1918.2831   -479.27908   -418.33428    76.656991 
   13500    510.55882   -119.59012   0.46196435   -119.12816   -11444.876    4.2450522    4.2450522    4.2450522   -11444.876   -13923.833   -21410.791    999.99477   -3195.0704   -845.32363    5514.3349    76.497826 
   13600    265.08565   -119.36864   0.23985507   -119.12878    8726.8145    4.2375372    4.2375372    4.2375372    8726.8145   -340.53332    21628.244    4892.7324   -1987.2901    951.07207    6174.5913    76.092276 
   13700    480.40995   -119.56167   0.43468502   -119.12698   -7301.2841    4.2477145    4.2477145    4.2477145   -7301.2841   -23772.083   -7888.6708     9756.902    595.59569   -3328.6078    888.15477    76.641846 
   13800    382.13777   -119.47212   0.34576628   -119.12636    4167.8515     4.243111     4.243111     4.243111    4167.8515   -11369.302    13414.995    10457.862   -2694.9799   -135.51643    8275.9904    76.392929 
   13900    392.64228   -119.48122   0.35527099   -119.12595    4445.6114     4.237748     4.237748     4.237748    4445.6114   -2251.7458   -7939.9595     23528.54    405.23144   -43.372864   -7216.4872    76.103635 
   14000    409.40592   -119.49912   0.37043908   -119.12868   -7969.6193    4.2488415    4.2488415    4.2488415   -7969.6193   -22558.738   -1833.6209    483.50143    2140.4469    1872.6044    7720.2525    76.702864 
   14100    375.83251   -119.47106   0.34006115     -119.131    234.54142    4.2419154    4.2419154    4.2419154    234.54142     -15190.9     885.1187    15009.405    1500.8707    144.16874   -7487.0943    76.328373 
   14200    428.81041   -119.51825   0.38799667   -119.13026   -375.87955    4.2388637    4.2388637    4.2388637   -375.87955   -11188.859   -7933.5345    17994.755   -521.80206     2810.094    3592.1533    76.163756 
   14300    415.04612   -119.50404   0.37554245    -119.1285    -8272.417    4.2495718    4.2495718    4.2495718    -8272.417   -25490.094   -5707.1444    6379.9875    3423.3548    1706.0445   -8589.5546    76.742426 
   14400    375.31282   -119.46822   0.33959093   -119.12863    8667.1528    4.2384765    4.2384765    4.2384765    8667.1528   -9278.9467    16826.608    18453.797    1557.6389    840.88065    2835.4277    76.142885 
   14500    451.72593   -119.53776   0.40873112   -119.12903   -4092.2926    4.2415085    4.2415085    4.2415085   -4092.2926   -19247.917    2526.4052     4444.634    1317.2698    3748.8752   -961.18072    76.306409 
   14600    314.58258   -119.41449   0.28464093   -119.12985    7651.5882    4.2453115    4.2453115    4.2453115    7651.5882   -11953.635    14559.034    20349.365    459.26344   -3649.8609    1539.7429    76.511848 
   14700      494.607   -119.57605   0.44753081   -119.12852   -3741.6793    4.2399593    4.2399593    4.2399593   -3741.6793   -15908.272   -242.51446    4925.7489   -1859.1942    2813.1073    4160.1354     76.22283 
   14800    381.47995   -119.47443   0.34517107   -119.12925   -336.67874     4.243267     4.243267     4.243267   -336.67874   -11806.954    6228.6731    4568.2443     2794.676   -2459.5883    -116.3893    76.401358 
   14900    361.18762   -119.45592   0.32681015   -119.12911   -10076.552    4.2466215    4.2466215    4.2466215   -10076.552   -27785.278   -17711.283    15266.906   -1753.6945   -74.156446    4201.5306    76.582699 
   15000    410.37986   -119.49912   0.37132032    -119.1278   -4980.0923    4.2411015    4.2411015    4.2411015   -4980.0923   -9482.3794    -3256.876   -2201.0215    410.26155   -801.45414    320.36367    76.284447 
   15100    360.90333   -119.45523   0.32655292   -119.12867     2176.231    4.2449353    4.2449353    4.2449353     2176.231    -23031.59    5918.5984    23641.684   -1668.7264   -1261.1451   -3694.3277    76.491507 
   15200    511.98715   -119.59186   0.46325673    -119.1286   -7140.3446    4.2429905    4.2429905    4.2429905   -7140.3446   -15179.937   -4886.4803   -1354.6162    1248.9926    1032.6125    60.436813    76.386426 
   15300    191.46007   -119.30337   0.17323709   -119.13014    17275.338    4.2398254    4.2398254    4.2398254    17275.338   -14281.081    33222.881    32884.215    -1227.734    -3572.697   -5618.3372    76.215605 
   15400    632.24396    -119.7002   0.57206763   -119.12813   -9246.2917    4.2434648    4.2434648    4.2434648   -9246.2917   -21045.703   -1611.4862    -5081.686   -1622.9436    2664.8227   -5503.4405    76.412045 
   15500     170.7117   -119.28567   0.15446353    -119.1312    16638.882    4.2418401    4.2418401    4.2418401    16638.882   -18229.958    23199.489    44947.115   -2226.8209   -4401.7027   -5856.9749    76.324311 
   15600    599.35279   -119.67199     0.542307   -119.12969   -9528.8385    4.2425194    4.2425194    4.2425194   -9528.8385   -14463.101   -10791.116   -3332.2986   -2218.5844    1744.3542   -5156.7903    76.360984 
   15700    193.04469   -119.30615   0.17467089   -119.13148     6729.471    4.2427691    4.2427691    4.2427691     6729.471   -20538.022    9616.5896    31109.845   -695.00736   -1487.7898    422.10691    76.374465 
   15800    556.18978   -119.63184    0.5032522   -119.12859   -7953.0277    4.2436575    4.2436575    4.2436575   -7953.0277     -16377.4    -12257.83    4776.1477   -4477.2986   -618.61366   -1206.8691    76.422456 
   15900    280.21676   -119.38278   0.25354602   -119.12923   -2862.7309    4.2440238    4.2440238    4.2440238   -2862.7309   -23901.164   -4807.6868    20120.658   -662.46395    1959.5838    1629.5374    76.442246 
   16000    491.02854   -119.57245   0.44429294   -119.12816   -2597.6319    4.2412171    4.2412171    4.2412171   -2597.6319   -9056.9824   -10580.267    11844.353    1317.6106   -1667.3707   -1158.5023    76.290686 
   16100     323.8881   -119.42308   0.29306076   -119.13002   -1680.4833    4.2463493    4.2463493    4.2463493   -1680.4833   -26684.333    12346.801     9296.082    1051.7821    3281.8549    258.43818     76.56797 
   16200    461.74642   -119.54639   0.41779786   -119.12859   -3991.7445     4.240746     4.240746     4.240746   -3991.7445   -14143.216   -1646.6634    3814.6462   -1531.1059   -2168.4552   -133.09442    76.265265 
   16300    345.54237   -119.44123   0.31265399   -119.12857    8691.7362    4.2414919    4.2414919    4.2414919    8691.7362   -17714.067    14734.847    29054.429    2844.2344    3913.2304    -3612.651    76.305516 
   16400    469.35395   -119.55199   0.42468132   -119.12731   -8402.9033     4.246591     4.246591     4.246591   -8402.9033   -16599.619    359.22602   -8968.3166    1493.9569    -458.7943   -6256.9045    76.581046 
   16500    347.65585   -119.44326   0.31456632   -119.12869    9076.7714    4.2374503    4.2374503    4.2374503    9076.7714   -14770.141    21835.355      20165.1    1842.6785    863.86829   -8318.6873    76.087593 
   16600    438.14294   -119.52672   0.39644094   -119.13028   -2584.7949     4.244381     4.244381     4.244381   -2584.7949   -12356.979     2394.945    2207.6487    1338.3899     4056.379   -7993.1763    76.461547 
   16700    434.29122   -119.52205   0.39295582    -119.1291   -4137.3545    4.2449597    4.2449597    4.2449597   -4137.3545   -21621.379    16244.689    -7035.374    1013.5141   -3122.7969   -6007.9415    76.492827 
   16800    288.37612   -119.39032   0.26092877   -119.12939    6599.8865    4.2365664    4.2365664    4.2365664    6599.8865   -4953.3316    21129.418    3623.5727      2449.78    6511.2901   -633.91456    76.039989 
   16900    580.42684   -119.65553    0.5251824   -119.13035   -17651.004     4.249027     4.249027     4.249027   -17651.004   -20518.375   -17129.938   -15304.697     1626.938   -2035.7982    377.62259    76.712913 
   17000    240.44354   -119.34987   0.21755837   -119.13231    10070.779    4.2393149    4.2393149    4.2393149    10070.779   -15001.616    32677.424    12536.529   -3186.7591    6383.0087    8089.5043    76.188082 
   17100    501.14587   -119.58425   0.45344732    -119.1308   -7212.6692    4.2410418    4.2410418    4.2410418   -7212.6692    -8380.937   -1078.0257   -12179.045    691.89967    94.825116    240.55831    76.281222 
   17200    288.97766   -119.39202   0.26147306   -119.13055    8721.7819    4.2449132    4.2449132    4.2449132    8721.7819   -18908.979    31553.436    13520.888    1572.8299    2609.0109    6423.5424    76.490315 
   17300    454.56084    -119.5413    0.4112962   -119.13001    2541.4634    4.2405035    4.2405035    4.2405035    2541.4634   -8717.8425    9722.8845    6619.3483    1206.9853    2015.0928   -540.30045    76.252182 
   17400    446.57733   -119.53372   0.40407256   -119.12965   -2842.7273    4.2432863    4.2432863    4.2432863   -2842.7273   -18663.748    10258.327   -122.76006    61.800923   -2185.3451     3802.279      76.4024 
   17500    293.96203   -119.39544   0.26598303   -119.12946     -4.55226     4.244131     4.244131     4.244131     -4.55226   -9450.2722   -2052.3087    11488.924    185.89333    2694.4517     -1089.79    76.448039 
   17600    462.30801   -119.54536     0.418306   -119.12705   -12039.204    4.2429333    4.2429333    4.2429333   -12039.204   -21857.682    -4932.514   -9327.4168    1060.3668   -7197.6685    4356.0715    76.383332 
   17700    313.43931    -119.4119   0.28360648   -119.12829    7549.0752    4.2406355    4.2406355    4.2406355    7549.0752   -4163.5686     26430.99    379.80436    636.10954    2209.8703   -6617.0803    76.259303 
   17800    519.96044   -119.59821   0.47047113   -119.12774   -13120.641    4.2472067    4.2472067    4.2472067   -13120.641   -18129.162   -3547.6087   -17685.152   -306.35466   -2184.9385    1515.8358     76.61436 
   17900    186.30305   -119.29861   0.16857091   -119.13004    12936.386    4.2399155    4.2399155    4.2399155    12936.386   -2797.8973    44403.873   -2796.8171   -295.35662   -1696.3301   -5961.1327    76.220469 
   18000    626.11923   -119.69457   0.56652584   -119.12805     -6853.57    4.2411212    4.2411212    4.2411212     -6853.57   -17359.243    2947.6941   -6149.1615    1660.1626    1596.7799    -3408.231    76.285509 
   18100    257.57009    -119.3628   0.23305483   -119.12974    8962.1533    4.2470201    4.2470201    4.2470201    8962.1533   -11197.365    31781.741    6302.0844    1286.5276   -2411.0011   -1169.6474    76.604266 
   18200    470.13809   -119.55435   0.42539083   -119.12896   -5650.2937    4.2415104    4.2415104    4.2415104   -5650.2937   -8436.9702   -7918.3006   -595.61013   -755.91988    2647.2192   -4963.1452    76.306512 
   18300    327.45853   -119.42548   0.29629136   -119.12919    4702.6885    4.2408743    4.2408743    4.2408743    4702.6885   -3905.0304    4806.4141    13206.682    535.60779   -2987.3692    10453.388    76.272185 
   18400    467.95995   -119.55037      0.42342   -119.12695   -5345.5496     4.248702     4.248702     4.248702   -5345.5496   -19760.208    736.80666    2986.7525   -509.98188    919.64263   -1597.8791    76.695311 
   18500     343.9832    -119.4367   0.31124323   -119.12546   -676.32005    4.2411113    4.2411113    4.2411113   -676.32005   -5042.9773    2320.1175    693.89972    2661.9586   -2907.3723    10456.737    76.284978 
   18600     376.3876   -119.46661   0.34056341   -119.12604    1134.0371    4.2410817    4.2410817    4.2410817    1134.0371   -10094.529    17812.107   -4315.4672    2659.9561   -1149.0724    5810.7221    76.283376 
   18700    535.53465    -119.6099   0.48456301   -119.12534   -8815.4771    4.2478875    4.2478875    4.2478875   -8815.4771   -18610.654   -1225.9575   -6609.8199    971.69299   -2342.8832     3767.845    76.651213 
   18800    314.41057   -119.41081   0.28448529   -119.12633    5827.7974    4.2400533    4.2400533    4.2400533    5827.7974   -5017.7608    28455.427   -5954.2745    3269.4696   -5168.2006    5220.9471    76.227898 
   18900    450.32584   -119.53434   0.40746429   -119.12687    -6387.051    4.2407354    4.2407354    4.2407354    -6387.051   -6356.8896    -6825.505   -5978.7586    3249.5368   -218.03961    704.74274    76.264694 
   19000     239.3624   -119.34544   0.21658013   -119.12886    5794.0446    4.2491235    4.2491235    4.2491235    5794.0446   -5907.7675    13438.632    9851.2692     1733.223   -3129.3689    4273.5871    76.718142 
   19100     653.3528   -119.71803   0.59116734   -119.12686   -4599.0662    4.2379062    4.2379062    4.2379062   -4599.0662   -5579.8144   -3545.8324   -4671.5517    708.15958    1588.7582   -2794.8449    76.112153 
   19200    194.41759   -119.30626   0.17591312   -119.13035    9302.2403    4.2437804    4.2437804    4.2437804    9302.2403    3784.5339    10142.344    13979.843   -174.73925   -4599.5988    8271.8796    76.429091 
   19300    519.38791   -119.59814    0.4699531   -119.12819   -9127.4612    4.2466073    4.2466073    4.2466073   -9127.4612   -19366.717    1787.6168   -9803.2835    783.31068    1931.5265   -2986.5043    76.581931 
   19400    261.89453    -119.3664   0.23696767   -119.12944    7562.8307    4.2380731    4.2380731    4.2380731    7562.8307    4721.1083    10847.702    7119.6815    1179.1687   -4981.8827    15599.204    76.121149 
   19500    561.33877   -119.63517   0.50791112   -119.12726   -8666.3808    4.2452551    4.2452551    4.2452551   -8666.3808   -12317.817    1078.1081   -14759.434   -421.07275    2941.8408   -1491.4856    76.508796 
   19600    269.88193   -119.37087   0.24419484   -119.12667    1114.6532    4.2443679    4.2443679    4.2443679    1114.6532   -2406.1652    10073.052   -4322.9275    1796.4706   -6100.0642    10641.027    76.460842 
   19700    404.16037    -119.4927    0.3656928   -119.12701   -190.66086    4.2407587    4.2407587    4.2407587   -190.66086   -3774.6895    11566.645   -8363.9377    676.09328    760.03737     849.4087    76.265948 
   19800    409.19279   -119.49871   0.37024624   -119.12847    1752.7794    4.2454936    4.2454936    4.2454936    1752.7794   -8015.6892    3386.0916    9887.9359    2257.5374   -1348.1474    2459.6253    76.521692 
   19900    368.88955   -119.46121   0.33377901   -119.12743     3359.124     4.242221     4.242221     4.242221     3359.124   -2766.7001    19557.224   -6713.1517   -1063.5777      372.704    4961.9574    76.344874 
   20000    462.37803   -119.54454   0.41836935   -119.12617    4310.6557    4.2402458    4.2402458    4.2402458    4310.6557    6905.9117   -644.88298    6670.9383    2609.9362   -1934.8817   -6549.4313    76.238281 
   20100    317.02002   -119.41497   0.28684637   -119.12812    3592.7653    4.2439999    4.2439999    4.2439999    3592.7653   -8525.1045    24724.986   -5421.5855   -347.48979     1226.952    6605.2768    76.440951 
   20200    490.06071   -119.57211   0.44341722   -119.12869   -2426.4757     4.242071     4.242071     4.242071   -2426.4757    -6121.002   -2388.9501    1230.5248     650.5953   -766.88517   -3578.5043    76.336776 
   20300    310.00671   -119.40893   0.28050059   -119.12843   -692.68433     4.241474     4.241474     4.241474   -692.68433    7011.1553    12240.264   -21329.472   -1650.6802   -2045.5767    9303.9494     76.30455 
   20400    410.33918    -119.4986   0.37128351   -119.12732   -12458.917    4.2448855    4.2448855    4.2448855   -12458.917   -18974.716   -5624.3611   -12777.674   -4239.9308    1829.8364    -1202.545    76.488816 
   20500    451.13015   -119.53654   0.40819204   -119.12835   -5855.9327    4.2445288    4.2445288    4.2445288   -5855.9327   -11490.531    10032.604   -16109.872   -2332.8958   -8613.0914   -188.69729    76.469534 
   20600    366.06901    -119.4603   0.33122693   -119.12907   -1928.5886    4.2414144    4.2414144    4.2414144   -1928.5886   -5545.7817    7444.3849    -7684.369   -3448.8708    5480.0798    1396.7816    76.301335 
   20700    384.36015   -119.47577   0.34777714   -119.12799   -2734.3833    4.2446338    4.2446338    4.2446338   -2734.3833    -14630.33    9535.9123   -3108.7326   -3511.2986   -823.76134    380.34259    76.475211 
   20800    378.96336   -119.47129   0.34289401   -119.12839    10016.473    4.2406584    4.2406584    4.2406584    10016.473   -2571.2761    14666.067    17954.628    333.10339    579.02709    3300.5751    76.260536 
   20900    499.84666    -119.5808   0.45227176   -119.12853      1755.62    4.2415936    4.2415936    4.2415936      1755.62   -6660.5835    4311.2029    7616.2407   -2190.5376   -216.37361    3655.6631    76.311003 
   21000      286.145   -119.38743   0.25891001   -119.12852    9738.3203    4.2439466    4.2439466    4.2439466    9738.3203   -1690.8919      18798.6    12107.253    1754.1862   -2093.2169    6979.2892    76.438074 
   21100    474.21066   -119.55726   0.42907577   -119.12818   -7251.7267    4.2413941    4.2413941    4.2413941   -7251.7267   -12668.899   -4517.8441   -4568.4376    3955.9981    1707.8276    2200.9196    76.300238 
   21200    308.52821    -119.4089    0.2791628   -119.12974    3757.7308    4.2423395    4.2423395    4.2423395    3757.7308    2883.3405    9204.5384   -814.68656     2756.546   -3548.9905    10039.372    76.351268 
   21300    509.16506   -119.58919   0.46070324   -119.12849   -13565.335    4.2473513    4.2473513    4.2473513   -13565.335   -16720.978   -11709.434   -12265.593    5329.7899    315.23237   -3840.3264    76.622188 
   21400    281.31291   -119.38277   0.25453783   -119.12823    364.32143    4.2407143    4.2407143    4.2407143    364.32143   -6037.3597    13381.866   -6251.5423    567.36272   -5379.2583     3854.557    76.263556 
   21500    447.49813   -119.53354   0.40490572   -119.12863   -3163.5141    4.2431505    4.2431505    4.2431505   -3163.5141   -13464.203     -4994.99     8968.651    -782.0778    5265.7541    994.45548    76.395066 
   21600    405.24449   -119.49379   0.36667373   -119.12712   -2946.9079    4.2460503    4.2460503    4.2460503   -2946.9079   -6579.5837    4754.6314   -7015.7713   -577.78589   -2224.9262    2240.5303    76.551799 
   21700    344.52363   -119.43811   0.31173222   -119.12637    9238.8056    4.2398267    4.2398267    4.2398267    9238.8056   -6260.0211    10162.996    23813.442   -7257.7426    1373.9484    1732.8093    76.215679 
   21800    474.85623   -119.55544   0.42965989   -119.12578   -2180.5606    4.2428948    4.2428948    4.2428948   -2180.5606   -8453.3422    6485.9618   -4574.3015   -1678.7422    2639.6532    4721.1103    76.381253 
   21900    323.31139   -119.41949   0.29253894   -119.12695     8841.591     4.244573     4.244573     4.244573     8841.591   -7884.2868    19109.776    15299.284   -8055.8794    369.47779    1883.3033    76.471924 
   22000     514.3347   -119.59257   0.46538085   -119.12719   -5160.4612    4.2397588    4.2397588    4.2397588   -5160.4612    695.36589   -1041.8983   -15134.851    -4757.276    3872.2962     8058.626    76.212018 
   22100    224.49801   -119.33136   0.20313052   -119.12823    5048.9193    4.2430973    4.2430973    4.2430973    5048.9193    3929.2092    12464.289   -1246.7398   -5206.5186   -69.220303    3539.2653     76.39219 
   22200    574.50835   -119.64634   0.51982723   -119.12651   -16903.116    4.2472276    4.2472276    4.2472276   -16903.116    -24938.81   -11267.155   -14503.384   -3202.2005    612.38177   -3438.9201    76.615494 
   22300    261.84741   -119.36639   0.23692504   -119.12946    9641.1655    4.2386642    4.2386642    4.2386642    9641.1655    14146.668    7493.3148    7283.5133   -1340.5573   -1357.8096    4855.4785    76.153002 
   22400    511.17327   -119.59298   0.46252032   -119.13046   -12822.212    4.2471796    4.2471796    4.2471796   -12822.212   -20358.418   -11117.657   -6990.5608    2198.6504   -1433.5572   -3985.6952    76.612896 
   22500    182.42547   -119.29377    0.1650624   -119.12871    7047.4922    4.2440718    4.2440718    4.2440718    7047.4922   -11636.832    15468.831    17310.478    74.302261   -3419.9161    5240.9716    76.444838 
   22600     621.7675   -119.68871    0.5625883   -119.12612    -4058.801    4.2393843    4.2393843    4.2393843    -4058.801   -3527.6525   -6661.3969   -1987.3538    2254.9157    1227.7949   -5836.6048    76.191821 
   22700    289.78303   -119.39085   0.26220178   -119.12865    6109.2777    4.2460195    4.2460195    4.2460195    6109.2777   -7193.9952    19329.239    6192.5897    1559.3114   -130.53098    5038.2705    76.550133 
   22800    416.11628   -119.50359   0.37651076   -119.12708   -5361.3461    4.2447965    4.2447965    4.2447965   -5361.3461   -10481.386    8328.1036   -13930.756    1510.3683    1412.1259    -1327.104    76.484004 
   22900    380.25161   -119.46946   0.34405965    -119.1254    9470.9362    4.2376339    4.2376339    4.2376339    9470.9362    15963.617    9984.4573     2464.734   -2124.6423    3910.2912    4968.4486    76.097486 
   23000    493.24133   -119.57111   0.44629512   -119.12482   -6256.5866    4.2482064    4.2482064    4.2482064   -6256.5866   -10823.865    8465.0319   -16410.927   -1748.7908     1654.427   -1016.9284    76.668477 
   23100    372.30931   -119.46227   0.33687329   -119.12539    -1522.715    4.2431469    4.2431469    4.2431469    -1522.715    9594.1253   -5831.6597   -8330.6107   -4860.3274    3060.1682    3846.3941    76.394869 
   23200    281.04901   -119.38034   0.25429905   -119.12604    1264.2545    4.2388516    4.2388516    4.2388516    1264.2545    1622.9276    6058.1678   -3888.3318   -3746.8174    1723.9099     7148.054    76.163105 
   23300    528.28942   -119.60366   0.47800737   -119.12565   -8104.0929    4.2477366    4.2477366    4.2477366   -8104.0929   -7458.8411    -13381.41   -3472.0271   -4308.4026   -46.416548   -1762.1635    76.643044 
   23400    358.74498   -119.45131       0.3246   -119.12671    3323.5839    4.2427141    4.2427141    4.2427141    3323.5839    -1707.863    14596.998   -2918.3835   -4431.0825   -624.69624    7755.4453    76.371499 
   23500    412.60826   -119.49998   0.37333662   -119.12665     -707.566      4.23938      4.23938      4.23938     -707.566    -10159.15    432.34497    7604.1067    1392.1855   -748.72518   -3221.9837     76.19159 
   23600    331.95941    -119.4282   0.30036385   -119.12783    1761.3453    4.2476715    4.2476715    4.2476715    1761.3453   -10601.189    24835.474   -8950.2489    3338.2227   -5676.7919    8062.4923    76.639517 
   23700    484.57098   -119.56507   0.43845001   -119.12662   -996.38539    4.2435503    4.2435503    4.2435503   -996.38539   -6910.8295    3286.8169    634.85646    4038.0539   -2010.8581     147.2434    76.416661 
   23800    360.79008   -119.45401   0.32645044   -119.12756    2132.3398    4.2390424    4.2390424    4.2390424    2132.3398   -6121.4079    14730.697   -2212.2698    7449.9972   -5505.0657    5702.8559    76.173389 
   23900    378.89732   -119.47135   0.34283426   -119.12852   -2340.0636    4.2479808    4.2479808    4.2479808   -2340.0636   -2553.5758    11002.253   -15468.868    6423.6841   -4426.0833    2510.8562    76.656263 
   24000    486.41296   -119.56721   0.44011666   -119.12709   -3859.1473    4.2419159    4.2419159    4.2419159   -3859.1473   -3710.6484   -7107.5557   -759.23778    5819.0459   -1666.6654    5045.4056    76.328401 
   24100    294.66032   -119.39476   0.26661485   -119.12815    6656.5419      4.23799      4.23799      4.23799    6656.5419    20273.378    9389.6029   -9693.3549    8790.9846   -1080.5373    9104.3985    76.116669 
   24200    492.01364   -119.57224   0.44518428   -119.12705   -9904.0847    4.2483308    4.2483308    4.2483308   -9904.0847   -21181.888   -4998.8103   -3531.5561    262.84373   -29.907856   -2446.1921    76.675208 
   24300    295.09208   -119.39565   0.26700552   -119.12865    8753.0702    4.2409465    4.2409465    4.2409465    8753.0702    11012.636    23869.704   -8623.1299    1194.6084   -331.24723    5637.6696    76.276082 
   24400    583.84192   -119.65589   0.52827244   -119.12762   -6763.4687    4.2406138    4.2406138    4.2406138   -6763.4687   -11498.651   -3660.1854   -5131.5698   -897.90922   -856.19384   -1456.3006    76.258133 
   24500    127.40286   -119.24464   0.11527678   -119.12936    7758.8994    4.2474657    4.2474657    4.2474657    7758.8994   -14068.677    46116.987   -8771.6122   -2561.6678   -1200.8925    5573.2821    76.628378 
   24600    604.86697   -119.67491   0.54729635   -119.12762   -13021.997    4.2422956    4.2422956    4.2422956   -13021.997   -17955.264   -6581.3589   -14529.369   -2028.4761    2123.9593   -3944.6234    76.348901 
   24700    272.65942   -119.37576   0.24670798   -119.12905    10279.063    4.2382568    4.2382568    4.2382568    10279.063    6215.6212    33121.829   -8500.2611   -948.25007   -3960.8818   -228.46542    76.131049 
   24800    500.88733   -119.58093   0.45321339   -119.12772   -17814.052    4.2508632    4.2508632    4.2508632   -17814.052   -30192.248   -10119.766   -13130.141   -455.64046    2042.9807    2850.5439     76.81241 
   24900    269.47655    -119.3717   0.24382805   -119.12787    7542.2222    4.2385001    4.2385001    4.2385001    7542.2222    19964.185     14921.86   -12259.379    5510.1762    -938.3303   -1907.5304    76.144161 
   25000    496.20957   -119.57663   0.44898084   -119.12765   -4128.5763    4.2414635    4.2414635    4.2414635   -4128.5763   -7509.0143    -74.46498   -4802.2497    4956.7108     -264.073    3043.6884    76.303984 
   25100    321.39474   -119.41788   0.29080472   -119.12707    3788.7056     4.248086     4.248086     4.248086    3788.7056    7940.4637     16570.69   -13145.037    6785.9444    381.78633   -4175.3305    76.661956 
   25200     470.6894   -119.55132   0.42588966   -119.12543     2700.141    4.2374623    4.2374623    4.2374623     2700.141    800.34426    8524.4669   -1224.3881    6461.5322   -3008.8519    4464.0185    76.088243 
   25300    328.81913   -119.42558   0.29752246   -119.12806     6670.025    4.2415327    4.2415327    4.2415327     6670.025    6405.3567    22694.142   -9089.4239    5109.8486    2827.1643   -2341.3341    76.307718 
   25400    462.33364   -119.54623   0.41832919    -119.1279   -6561.8295    4.2480668    4.2480668    4.2480668   -6561.8295   -13531.045    9827.3161    -15981.76    2645.2193   -5848.5916    5333.1573    76.660919 
   25500    310.73393   -119.41038   0.28115859   -119.12922    3493.9507    4.2357247    4.2357247    4.2357247    3493.9507    2383.0332    9591.5267   -1492.7079   -643.91725    5309.8354   -5307.7885    75.994678 
   25600    513.15533   -119.59382   0.46431373   -119.12951   -9824.2167     4.244765     4.244765     4.244765   -9824.2167   -14200.939    5572.2993   -20844.011   -4752.6689   -5758.9677    6128.3475    76.482301 
   25700    246.75069   -119.35336   0.22326521   -119.13009    368.17017     4.246675     4.246675     4.246675    368.17017    16340.235   -1169.9039    -14065.82   -2492.0641    7397.6297    1353.7961    76.585591 
   25800    566.10307    -119.6404   0.51222195   -119.12817   -566.00831    4.2343021    4.2343021    4.2343021   -566.00831    4957.8108    2905.6085   -9561.4442   -3565.7615   -3091.4251     3140.271    75.918133 
   25900     262.1012   -119.36777   0.23715467   -119.13061     6790.086    4.2483278    4.2483278    4.2483278     6790.086    18649.115    13385.277   -11664.134   -2875.2999    7829.7093    311.62252    76.675048 
   26000    465.13425   -119.54863   0.42086325   -119.12777   -5156.2339    4.2414163    4.2414163    4.2414163   -5156.2339    2346.5844   -2305.6376   -15509.648   -792.24912   -317.74597   -225.05673    76.301436 
   26100    332.40584   -119.42959   0.30076779   -119.12882    12614.326    4.2364683    4.2364683    4.2364683    12614.326     21265.04    11259.094    5318.8458   -1645.8041    2558.5837    -1859.205    76.034707 
   26200    509.76756   -119.58909    0.4612484   -119.12784   -11810.258    4.2506626    4.2506626    4.2506626   -11810.258   -13104.714    1082.7198   -23408.781    3994.0345    760.08449   -2834.4867    76.801536 
   26300    339.41301   -119.43424   0.30710803   -119.12714    2814.9192    4.2397678    4.2397678    4.2397678    2814.9192    14646.972   -5897.2716   -304.94254    1556.1774    151.76811   -5786.9175    76.212503 
   26400    383.82928   -119.47375   0.34729679   -119.12646   -1657.5822    4.2388378    4.2388378    4.2388378   -1657.5822    6061.9731   -2454.2016    -8580.518   -521.96028    1113.1271   -7996.5314    76.162363 
   26500    470.43842   -119.55218   0.42566257   -119.12652   -9615.1537    4.2520208    4.2520208    4.2520208   -9615.1537    -2251.406   -7195.2562   -19398.799   -1360.5149   -364.68458   -1409.2959    76.875181 
   26600    381.16846   -119.47071   0.34488923   -119.12582    6278.2339    4.2378186    4.2378186    4.2378186    6278.2339    21364.233     2565.692   -5095.2232    2943.9904    2981.1592   -8096.6619    76.107437 
   26700    415.28527   -119.50275   0.37575884   -119.12699   -3835.7892    4.2409871    4.2409871    4.2409871   -3835.7892    5160.7506   -5076.6993   -11591.419   -4754.9807   -4943.5151   -1915.4987    76.278276 
   26800    307.43085   -119.40612    0.2781699   -119.12795    3485.6601    4.2498585    4.2498585    4.2498585    3485.6601    12312.655    14619.406   -16475.081   -451.18626    1631.3044   -868.39508    76.757958 
   26900    542.72959   -119.61706   0.49107314   -119.12599   -1729.0775    4.2382067    4.2382067    4.2382067   -1729.0775     184.6353    386.80916   -5758.6768   -11199.679   -7221.6128   -1869.4789    76.128346 
   27000    218.45381   -119.32715    0.1976616   -119.12949    9019.0834    4.2394894    4.2394894    4.2394894    9019.0834    29505.785    8692.4644   -11140.999   -1870.4692   -1769.1838    2605.3252    76.197491 
   27100    513.62969   -119.59474   0.46474294      -119.13   -13236.313    4.2504893    4.2504893    4.2504893   -13236.313   -12758.564   -9828.8549   -17121.521   -4421.9547    502.85874    133.35082    76.792141 
   27200    338.32248   -119.43736   0.30612129   -119.13124    4642.2799    4.2358952    4.2358952    4.2358952    4642.2799    15387.102    3332.3208   -4792.5826    5787.5264   -3623.5396    1652.3734    76.003854 
   27300    387.67235   -119.48257   0.35077408    -119.1318   -1786.3221    4.2396085    4.2396085    4.2396085   -1786.3221    12330.261   -14803.603   -2885.6244   -5395.4651    5529.6698    342.91942    76.203913 
   27400    454.91087   -119.54283   0.41161292   -119.13122    -9322.744    4.2496984    4.2496984    4.2496984    -9322.744    3819.0193   -15973.857   -15813.394      7673.85   -3066.8783    1275.8871    76.749282 
   27500    329.74536    -119.4306   0.29836053   -119.13224    10927.052    4.2363607    4.2363607    4.2363607    10927.052    29198.617    2683.3935    899.14447   -6266.6173    3655.3753   -894.57823    76.028914 
   27600    572.75787   -119.64884   0.51824335    -119.1306   -6733.7584    4.2410123    4.2410123    4.2410123   -6733.7584    1955.8247   -13186.327   -8970.7732    3432.1224   -6097.6319    1878.1628    76.279634 
   27700    198.57853   -119.30954   0.17967802   -119.12986    4457.1272    4.2481836    4.2481836    4.2481836    4457.1272    21279.334      2533.92   -10441.872   -6290.8232    908.39651    550.14435    76.667239 
   27800    491.13756   -119.57142   0.44439159   -119.12703   -7027.7248    4.2415712    4.2415712    4.2415712   -7027.7248   -779.85009   -1835.8399   -18467.484    1549.8928   -2134.6094    759.25336    76.309796 
   27900    442.08637   -119.52707   0.40000904   -119.12706    4724.2511    4.2396772    4.2396772    4.2396772    4724.2511    18252.562    1460.0614   -5539.8697   -2324.3692   -491.02496    4955.7155    76.207618 
   28000    381.37146   -119.47188   0.34507292   -119.12681   -6934.0095    4.2499825    4.2499825    4.2499825   -6934.0095   -6914.4408    2527.2379   -16414.826   -3864.5717     2345.994    -2048.898    76.764679 
   28100     331.2119   -119.42538   0.29968749   -119.12569    1201.0146    4.2396797    4.2396797    4.2396797    1201.0146    16580.178   -4139.4353   -8837.6993    1637.1218   -2991.6499    4946.7718     76.20775 
   28200    371.64986   -119.46304    0.3362766   -119.12677    5335.2787    4.2399576    4.2399576    4.2399576    5335.2787    12961.534    1962.8568    1081.4455   -4381.2633    4276.1895    4128.0289    76.222738 
   28300    502.21691   -119.58003   0.45441641   -119.12561   -5201.1045    4.2477334    4.2477334    4.2477334   -5201.1045    891.14464   -4496.1578     -11998.3    4635.7183   -514.05858    1574.6509    76.642871 
   28400    282.25753   -119.38048   0.25539254   -119.12509    9202.1387    4.2398815    4.2398815    4.2398815    9202.1387    13544.512     7958.948    6102.9558   -2333.3675    3264.2022    2998.8288    76.218636 
   28500    489.54476   -119.56882   0.44295038   -119.12587   -2400.9917    4.2403105    4.2403105    4.2403105   -2400.9917    6565.2055   -5309.7255    -8458.455     2109.779   -674.31399   -1047.8375     76.24177 
   28600    294.43776   -119.39487   0.26641347   -119.12846    4353.5554    4.2477522    4.2477522    4.2477522    4353.5554    3208.0396    15268.074   -5415.4479    -3724.615    4838.9109    5171.7315    76.643886 
   28700     549.6757   -119.62334   0.49735813   -119.12598   -4846.6463    4.2391507    4.2391507    4.2391507   -4846.6463    3475.8646   -7450.9138    -10564.89    2576.0751   -1445.1671    21.677878    76.179227 
   28800    191.51743     -119.302   0.17328899   -119.12871    4040.0482    4.2419798    4.2419798    4.2419798    4040.0482    24732.978   -1447.4548   -11165.379   -7132.5587    2943.4001    7376.8465    76.331849 
   28900    619.50612   -119.68863   0.56054216   -119.12809   -15452.004    4.2476971    4.2476971    4.2476971   -15452.004   -17301.463   -11331.005   -17723.542    804.10213   -2324.2223   -3686.7761    76.640902 
   29000    270.78584   -119.37498   0.24501272   -119.12997    6133.1196    4.2379606    4.2379606    4.2379606    6133.1196     30094.33   -6064.2269   -5630.7445   -5795.0887    6094.5639    10401.178    76.115088 
   29100     483.0391   -119.56619   0.43706393   -119.12913   -12512.673    4.2425381    4.2425381    4.2425381   -12512.673   -741.17714   -18910.067   -17886.775    4923.2349    2412.2697    2130.5262     76.36199 
   29200    327.16932    -119.4257   0.29602968   -119.12967    3634.3915    4.2448881    4.2448881    4.2448881    3634.3915    11516.055    163.23905   -776.11983    320.64951    5855.1958    2332.2239    76.488958 
   29300    483.52515   -119.56739   0.43750371   -119.12989    453.88898    4.2389897    4.2389897    4.2389897    453.88898    15072.015   -1645.0843   -12065.264    3592.7819     2726.305    6437.0136     76.17055 
   29400    423.46152   -119.51367   0.38315688   -119.13051    6334.7087    4.2401923    4.2401923    4.2401923    6334.7087    11842.032    1462.0264    5700.0676   -512.13754   -708.70007   -1089.1151    76.235397 
   29500    251.50297   -119.35778   0.22756517   -119.13022    5117.3674    4.2466974    4.2466974    4.2466974    5117.3674    11791.429    15533.674   -11973.001    175.87821    616.73058    7961.4506    76.586803 
   29600    580.13071   -119.65378   0.52491446   -119.12887   -2178.3336    4.2384812    4.2384812    4.2384812   -2178.3336    4695.7482   -4221.3916   -7009.3573   -1660.9733   -4342.6526    -3719.988     76.14314 
   29700    294.23732    -119.3968   0.26623211   -119.13056     3855.295    4.2434387    4.2434387    4.2434387     3855.295    8255.6512    12974.841   -9664.6072   -265.30812   -1.9928259    1817.3105    76.410635 
   29800    421.02097   -119.50959   0.38094862   -119.12865   -11446.257     4.245589     4.245589     4.245589   -11446.257   -11578.859   -19087.384    -3672.527   -6875.7656    856.12008   -900.91308    76.526854 
   29900    290.03015   -119.39102   0.26242537   -119.12859    175.46718    4.2393541    4.2393541    4.2393541    175.46718    19297.662    3524.8622   -22296.123    6880.9063    1216.9965    3363.0467    76.190192 
   30000    502.59517   -119.58287   0.45475867   -119.12811    -3283.534    4.2422246    4.2422246    4.2422246    -3283.534    704.28984   -10650.272    95.380378   -906.59288     4048.252    1911.3197    76.345063 
   30100    360.77125   -119.45441   0.32643341   -119.12797   -1548.7564    4.2460899    4.2460899    4.2460899   -1548.7564    5709.0731      8860.17   -19215.512    5195.2044    3730.5234   -2160.2759     76.55394 
   30200    355.34984   -119.44911   0.32152801   -119.12758    5935.7471    4.2377965    4.2377965    4.2377965    5935.7471    20974.187   -3929.8094    762.86376    1174.5836    5749.7607    7968.6535    76.106244 
   30300    412.92602   -119.50205   0.37362414   -119.12843    4360.9624    4.2437366    4.2437366    4.2437366    4360.9624    4417.6635    24346.704    -15681.48    790.94462    4252.9638   -960.15826    76.426727 
   30400    427.38298   -119.51556    0.3867051   -119.12886    95.064117    4.2443903    4.2443903    4.2443903    95.064117    5909.3742   -3575.0464   -2049.1355   -524.60413    3388.2538    7136.8348    76.462052 
   30500    379.91914   -119.47159   0.34375882   -119.12783    48.088773    4.2384977    4.2384977    4.2384977    48.088773    9216.9954    845.02845   -9917.7576   -2005.2829      1053.11   -5463.1612    76.144029 
   30600    388.22424    -119.4796   0.35127345   -119.12833   -5559.5404    4.2436367    4.2436367    4.2436367   -5559.5404    1215.4711    -8669.253   -9224.8392   -2010.5288    290.72373     4719.994    76.421332 
   30700    489.02128   -119.57082   0.44247673   -119.12834   -9326.9341    4.2455205    4.2455205    4.2455205   -9326.9341   -9298.1123   -7975.2253   -10707.465   -6187.1985   -1996.8244    314.09887    76.523149 
   30800    326.81894   -119.42418   0.29571265   -119.12847    665.15054    4.2385499    4.2385499    4.2385499    665.15054    23245.102   -11709.975    -9539.675     3521.138   -973.34745    -760.0424    76.146844 
   30900    432.43487   -119.52021   0.39127616   -119.12893   -7328.9006    4.2454343    4.2454343    4.2454343   -7328.9006   -4665.1187    3586.4224   -20908.005   -3006.2377   -1883.6361   -4095.4347    76.518486 
   31000    389.05365   -119.48213   0.35202392    -119.1301    7869.6743    4.2435644    4.2435644    4.2435644    7869.6743    21339.748    7842.5665   -5573.2922    6983.2785    1805.1215   -3179.3791    76.417424 
   31100    500.03181   -119.58203   0.45243929   -119.12959    2039.2749    4.2373908    4.2373908    4.2373908    2039.2749    14920.106    3157.2173   -11959.499   -2730.3969   -816.57739   -2520.7253    76.084391 
   31200    328.66364   -119.42693   0.29738177   -119.12955    2034.1076     4.244373     4.244373     4.244373    2034.1076    7760.3123    8204.5206     -9862.51    9245.0553    4661.5223   -4002.2036    76.461116 
   31300    392.03879   -119.48383   0.35472494    -119.1291   -4478.0882    4.2433631    4.2433631    4.2433631   -4478.0882    10835.538    -10901.28   -13368.522   -2395.0577    2924.0719   -1639.0737    76.406549 
   31400    443.50144   -119.53014   0.40128942   -119.12885    -6107.276    4.2390971    4.2390971    4.2390971    -6107.276    847.98245   -7680.8445   -11488.966    8620.3953    2327.0807   -6316.6796    76.176339 
   31500    336.69456   -119.43456   0.30464831   -119.12991   -442.96692    4.2442865    4.2442865    4.2442865   -442.96692    14743.565   -8494.4952   -7577.9702    1680.0764    5404.6527    3831.1013    76.456442 
   31600    432.68716   -119.52043   0.39150444   -119.12892   -5926.3748    4.2432191    4.2432191    4.2432191   -5926.3748    14032.022   -8445.8176   -23365.328   -2104.8571   -751.67055   -3393.2312    76.398771 
   31700    337.51433   -119.43514   0.30539006   -119.12975    9216.1654    4.2381549    4.2381549    4.2381549    9216.1654    21712.832    13385.352   -7449.6877     2998.956    3829.8262    883.47064    76.125558 
   31800    462.12222   -119.54794    0.4181379    -119.1298   -1444.3052    4.2447546    4.2447546    4.2447546   -1444.3052    4361.6769    9131.4329   -17826.025   -5372.1544   -1119.3251   -3204.4112    76.481742 
   31900    379.46184   -119.47162   0.34334504   -119.12828    4539.6634    4.2414579    4.2414579    4.2414579    4539.6634    20261.801   -1216.3919    -5426.419    6003.2177    2013.7338    4267.5433     76.30368 
   32000    377.12493   -119.47028   0.34123056   -119.12905   -432.66787    4.2417269    4.2417269    4.2417269   -432.66787    2799.6789    13853.597    -17951.28   -2351.3152   -861.78849   -2116.8095    76.318199 
   32100    404.67167   -119.49526   0.36615543   -119.12911   -4541.7004     4.245596     4.245596     4.245596   -4541.7004     3147.182   -10971.578    -5800.705    5711.9086    3029.4091    857.80243    76.527231 
   32200    437.57467   -119.52482   0.39592675    -119.1289   -1420.2092    4.2395014    4.2395014    4.2395014   -1420.2092    15461.255   -2347.9562   -17373.927    1364.8541      1802.91   -1657.1764    76.198136 
   32300    404.14831    -119.4942   0.36568189   -119.12852    -5080.636    4.2436234    4.2436234    4.2436234    -5080.636    2494.1152   -11642.203   -6093.8198     8835.212    3394.1247   -1920.7895    76.420609 
   32400      368.497   -119.46142   0.33342383     -119.128    4353.1987    4.2410235    4.2410235    4.2410235    4353.1987    14520.728     13045.93   -14507.062    2386.3739    1903.7947     1207.201    76.280235 
   32500    458.18176   -119.54424   0.41457248   -119.12967    59.020305    4.2420987    4.2420987    4.2420987    59.020305    19256.766   -10270.442   -8809.2638    4848.2099   -50.266829   -5533.3674    76.338268 
   32600    416.91817   -119.50815   0.37723632   -119.13092    868.65553    4.2424931    4.2424931    4.2424931    868.65553   -750.19479    19733.749   -16377.588   -150.45241   -34.653434    35.159982    76.359562 
   32700    347.21166   -119.44542   0.31416441   -119.13125   -4296.7821     4.241848     4.241848     4.241848   -4296.7821    9751.0405     -10140.2   -12501.187    287.20924   -2753.1474   -3826.1978    76.324734 
   32800    412.40283   -119.50332   0.37315074   -119.13017   -5145.3628    4.2448177    4.2448177    4.2448177   -5145.3628   -12093.614    7831.4949   -11173.969   -2375.6632   -1531.9257    3874.2903    76.485149 
   32900    467.28775   -119.55245   0.42281177   -119.12964    -3493.172    4.2405769    4.2405769    4.2405769    -3493.172    13631.129   -11100.606   -13010.039   -6589.5192    1557.4056   -3506.5402     76.25614 
   33000     329.6488   -119.42823   0.29827316   -119.12996    705.24303    4.2420285    4.2420285    4.2420285    705.24303   -354.62141    17815.388   -15345.037     624.3068    2021.3431    4706.8089    76.334477 
   33100    391.96517   -119.48281   0.35465832   -119.12815    4454.8494    4.2438835    4.2438835    4.2438835    4454.8494    12966.088    2789.1091   -2390.6485   -2676.6441    3649.9562   -1128.2083    76.434662 
   33200    432.59892   -119.51909   0.39142459   -119.12766    4612.5812    4.2407614    4.2407614    4.2407614    4612.5812   -480.97547    26528.338   -12209.619    6376.8281    4532.8567    1764.1261    76.266098 
   33300    416.52626   -119.50486   0.37688172   -119.12798    7227.1138    4.2407751    4.2407751    4.2407751    7227.1138    14098.834    9873.7578   -2291.2508   -380.46964    4781.7302   -829.70532    76.266836 
   33400    266.38643   -119.36903   0.24103204     -119.128   -406.11702    4.2467686    4.2467686    4.2467686   -406.11702   -13089.163      22936.2   -11065.388    8174.7127    3685.9016   -5301.8277    76.590658 
   33500    493.33333    -119.5748   0.44637837   -119.12842   -5111.5861    4.2406252    4.2406252    4.2406252   -5111.5861   -2334.1651    896.35861   -13896.952    2551.1594    1715.2218   -794.17774    76.258747 
   33600    358.74103   -119.45324   0.32459642   -119.12864   -1749.0015     4.243247     4.243247     4.243247   -1749.0015    136.30998    7283.2365   -12666.551     31.02374    -1392.749   -10287.339    76.400278 
   33700    405.33703   -119.49412   0.36675747   -119.12737   -11757.364    4.2462755    4.2462755    4.2462755   -11757.364   -10387.597   -5974.0941     -18910.4    -585.2459    1608.6444    3306.1885     76.56398 
   33800    338.83984   -119.43409    0.3065894    -119.1275    3008.0461    4.2405646    4.2405646    4.2405646    3008.0461    10690.515    13016.825   -14683.201   -1310.3358   -3435.7481   -10744.815    76.255481 
   33900    418.37607   -119.50651   0.37855546   -119.12795     2339.881    4.2425957    4.2425957    4.2425957     2339.881    8597.7798    7059.4301   -8637.5669   -3883.4813   -5198.4557      1929.83    76.365103 
   34000    404.91807   -119.49297   0.36637838   -119.12659   -2372.3475    4.2447958    4.2447958    4.2447958   -2372.3475    6607.5896    8973.4433   -22698.075   -256.46875   -5243.2941   -1071.6616    76.483967 
   34100    382.59632    -119.4736   0.34618119   -119.12742    7335.2302    4.2395171    4.2395171    4.2395171    7335.2302    17422.095    7836.3286   -3252.7329   -4118.0258    -8237.699     229.3152    76.198981 
   34200    397.67286   -119.48964   0.35982276   -119.12982   -1304.0147    4.2433549    4.2433549    4.2433549   -1304.0147    10655.055    2583.2926   -17150.392    471.44932   -3989.6982    4876.8761    76.406104 
   34300    392.33512    -119.4842   0.35499306   -119.12921   -2724.5573    4.2423258    4.2423258    4.2423258   -2724.5573   -78.876242   -6574.2627   -1520.5329    232.00526   -5057.9446    -3354.793    76.350529 
   34400    287.49174   -119.38898   0.26012857   -119.12885    1738.8308     4.239555     4.239555     4.239555    1738.8308    12075.574    11851.924   -18711.006    -1582.685   -1883.6332    7965.7619    76.201024 
   34500    623.78499   -119.69374   0.56441376   -119.12932     -12665.2    4.2455404    4.2455404    4.2455404     -12665.2   -11316.017   -9490.3558   -17189.227    4776.6672    1030.8744   -4218.1644    76.524224 
   34600    215.27365   -119.32705   0.19478412   -119.13227    10210.028    4.2410249    4.2410249    4.2410249    10210.028    35091.617    2352.6062   -6814.1382    4418.8141    1370.1101      3827.49    76.280315 
   34700    529.49619    -119.6096   0.47909928    -119.1305   -5166.5213    4.2397459    4.2397459    4.2397459   -5166.5213    -2288.019    4295.7859   -17507.331    5718.1835   -2896.9742   -2091.1725    76.211322 
   34800    290.93655   -119.39341    0.2632455   -119.13016     6003.921    4.2450234    4.2450234    4.2450234     6003.921    37271.834    3537.9742   -22798.045    1626.8719    1371.7891   -353.48427    76.496271 
   34900    514.70489   -119.59459   0.46571581   -119.12888    749.32958    4.2402038    4.2402038    4.2402038    749.32958    11854.935   -8378.3729   -1228.5738   -1207.6228    -3752.617    3656.7689    76.236014 
   35000     404.6781   -119.49617   0.36616125   -119.13001   -2204.2719     4.243068     4.243068     4.243068   -2204.2719    10311.878    7623.6154   -24548.309   -1098.5277    5683.2419   -3818.3438    76.390611 
   35100    319.99628   -119.41899   0.28953936   -119.12945   -2107.5954    4.2445862    4.2445862    4.2445862   -2107.5954    8382.8167   -1615.8684   -13089.734   -3411.1297   -803.02255    3871.1455    76.472636 
   35200    446.29388   -119.53101   0.40381608    -119.1272   -2368.6294    4.2395659    4.2395659    4.2395659   -2368.6294    8530.7369    12.633473   -15649.259   -2639.8117    3106.9762    393.61952    76.201613 
   35300     393.3896   -119.48384   0.35594718   -119.12789   -5704.9838    4.2447302    4.2447302    4.2447302   -5704.9838    778.30629    -9278.535   -8614.7227   -79.781668    3506.9988     3477.816    76.480424 
   35400    343.03959   -119.43941   0.31038943   -119.12902   -286.30799     4.243347     4.243347     4.243347   -286.30799    24704.578   -6052.9037   -19510.598   -3847.7819     -75.3526    871.66537    76.405677 
   35500    492.98558   -119.57697   0.44606372   -119.13091   -2623.8069    4.2372605    4.2372605    4.2372605   -2623.8069     7968.836   -15606.132   -234.12512    5193.3436    3170.5696    3110.2724    76.077369 
   35600     278.7157   -119.38464   0.25218782   -119.13245    8371.8901    4.2461945    4.2461945    4.2461945    8371.8901    34494.513    821.86744    -10200.71    1379.9804    -4052.733    3572.7835    76.559598 
   35700    561.79117   -119.63755   0.50832045   -119.12923   -6522.9143    4.2408215    4.2408215    4.2408215   -6522.9143    440.08872   -7917.0481   -12091.784    9721.2019    2115.3858    3040.9723     76.26934 
   35800    265.80015   -119.36988   0.24050156   -119.12937    8424.8016    4.2379864    4.2379864    4.2379864    8424.8016    25133.904    8727.3331   -8586.8319    4458.7754   -4091.5919    2236.8039    76.116476 
   35900    457.00706   -119.54168   0.41350959   -119.12817   -6637.6296    4.2480197    4.2480197    4.2480197   -6637.6296   -3952.9552   -3649.4561   -12310.478    6443.8823    1985.4626    7.9802094    76.658369 
   36000    375.12472   -119.46708   0.33942073   -119.12766   -1036.4238    4.2424786    4.2424786    4.2424786   -1036.4238    10329.962    4390.3259   -17829.559    2099.0982   -2530.5303    1093.7787    76.358783 
   36100    411.67933   -119.50007   0.37249611   -119.12757     6482.944    4.2375841    4.2375841    4.2375841     6482.944    24276.464   -1659.0495   -3168.5825    2099.1058   -3782.6024   -1686.6159      76.0948 
   36200    412.58424   -119.50227   0.37331489   -119.12896   -6693.8689    4.2490883    4.2490883    4.2490883   -6693.8689    5996.0771   -683.82487   -25393.859   -709.95078   -875.00937   -3593.2589    76.716232 
   36300    359.54683   -119.45522   0.32532553   -119.12989    2787.4735     4.238928     4.238928     4.238928    2787.4735    21570.752   -5806.8284   -7401.5034   -89.303448   -9666.0729   -3942.1264    76.167222 
   36400    398.38334   -119.49016   0.36046562    -119.1297    1912.9581    4.2373524    4.2373524    4.2373524    1912.9581    14991.627   -116.14684   -9136.6058   -171.27278    1665.5725   -7090.6145     76.08232 
   36500    413.22721   -119.50219   0.37389667   -119.12829   -9016.0848    4.2496379    4.2496379    4.2496379   -9016.0848    9067.9505   -17135.996   -18980.209    293.97543   -8015.4682   -820.80524    76.746005 
   36600    390.49101   -119.48377   0.35332447   -119.13044    2591.3654    4.2383092    4.2383092    4.2383092    2591.3654     15851.62    2523.2871   -10600.811    2476.8555    7754.6672   -4480.2623     76.13387 
   36700    486.05809   -119.57126   0.43979557   -119.13147   -5009.7646    4.2399271    4.2399271    4.2399271   -5009.7646   -1292.7985   -7947.8829   -5788.6123     5532.218   -356.45459   -1404.3491    76.221094 
   36800    299.76242   -119.40242   0.27123134   -119.13119    3198.1526    4.2463613    4.2463613    4.2463613    3198.1526    15328.858   -1347.4115   -4386.9883    8036.9428    8297.0496   -1065.4162    76.568621 
   36900    520.97408    -119.5995   0.47138829   -119.12811   -4552.5852    4.2405677    4.2405677    4.2405677   -4552.5852    1848.8326    4467.3003   -19973.888    4832.9613   -4.3073423    1520.9825    76.255647 
   37000    354.67178   -119.45114   0.32091448   -119.13023    10485.161    4.2389459    4.2389459    4.2389459    10485.161     27550.94   -1179.4811    5084.0253    6723.7152    4567.0178   -1762.7424    76.168185 
   37100    442.46639   -119.53065   0.40035289   -119.13029   -8395.7951    4.2485701    4.2485701    4.2485701   -8395.7951   -8370.1709    1272.2636   -18089.478   -37.424401   -527.48092    3464.2102     76.68817 
   37200    327.39926   -119.42423   0.29623773   -119.12799    4215.5095    4.2388633    4.2388633    4.2388633    4215.5095    15704.828    8003.4393   -11061.739      7541.64     17.13954   -2563.3282    76.163736 
   37300    450.61715   -119.53512   0.40772786    -119.1274   -5693.7226    4.2421758    4.2421758    4.2421758   -5693.7226     5583.614   -9473.8612   -13190.921   -7492.3657   -1729.4036    -620.6239    76.342429 
   37400    425.27663   -119.51137   0.38479923   -119.12657    -9225.663    4.2463656    4.2463656    4.2463656    -9225.663   -12797.678   -1086.0754   -13793.236    8139.9922   -1809.8889    2104.5058    76.568854 
   37500    356.44262   -119.45005   0.32251677   -119.12754    3630.3541    4.2409339    4.2409339    4.2409339    3630.3541    20681.455    2915.5922   -12705.985   -6154.7173    4189.9369   -2441.9709      76.2754 
   37600    418.04099   -119.50688   0.37825227   -119.12863   -491.92526    4.2397835    4.2397835    4.2397835   -491.92526    14380.046   -9073.1175   -6782.7041    5586.9293   -2142.2217    308.92521    76.213349 
   37700    437.71592   -119.52624   0.39605456   -119.13019   -2247.4926    4.2444514    4.2444514    4.2444514   -2247.4926    5778.7377   -7814.5388   -4706.6767   -3550.8608    3162.2565   -2009.9781    76.465353 
   37800    390.70638   -119.48295   0.35351935   -119.12943    1032.0195     4.239607     4.239607     4.239607    1032.0195    10756.863    -6821.541   -839.26314     3681.607   -1917.3975   -1176.9994    76.203829 
   37900     498.3345   -119.57904   0.45090352   -119.12814   -9092.0517     4.243238     4.243238     4.243238   -9092.0517   -6442.9157   -9145.1226   -11688.117    3255.0592    1978.6404   -1379.0495    76.399794 
   38000    259.02257   -119.36553   0.23436907   -119.13116    3596.1437    4.2428644    4.2428644    4.2428644    3596.1437     16774.25   -12270.414    6284.5946   -4828.0114   -375.32493   -2889.6332    76.379614 
   38100    500.62109   -119.58286   0.45297249   -119.12989   -4837.9376    4.2430766    4.2430766    4.2430766   -4837.9376   -12453.917    8422.1728   -10482.069    4410.1318    950.46916   -1735.0169    76.391075 
   38200    273.29926   -119.37691   0.24728691   -119.12962    11922.215    4.2403893    4.2403893    4.2403893    11922.215    40806.163   -2743.2118   -2296.3052    -5995.127   -2246.1658   -1165.7545    76.246021 
   38300    606.99221   -119.67809    0.5492193   -119.12888   -5943.7004     4.242638     4.242638     4.242638   -5943.7004   -1507.1468   -8297.9894   -8025.9651    7172.0962    1839.3888    725.40801     76.36739 
   38400    228.44061    -119.3384   0.20669787    -119.1317    9714.1147    4.2427074    4.2427074    4.2427074    9714.1147    22938.937    9799.9625    -3596.556   -5367.3842    1888.4929   -2985.3251    76.371135 
   38500    497.61901    -119.5795   0.45025613   -119.12925   -10119.757    4.2423327    4.2423327    4.2423327   -10119.757   -6626.1582   -8329.8877   -15403.226     4815.367    4272.5284    2036.3029    76.350903 
   38600    331.58807   -119.42791   0.30002786   -119.12788    5141.2224    4.2405661    4.2405661    4.2405661    5141.2224    17803.774    -3835.281     1455.174    -4692.454    6814.4213    203.10664    76.255562 
   38700    480.81115   -119.56305   0.43504803     -119.128   -8129.9647    4.2446015    4.2446015    4.2446015   -8129.9647   -4628.8727   -4690.6734   -15070.348    548.10127    1717.9407     2930.928    76.473464 
   38800    409.39779   -119.49884   0.37043173   -119.12841    -4160.536    4.2430921    4.2430921    4.2430921    -4160.536    3120.4918   -7447.0725   -8155.0272   -2073.9898    4553.1766    2271.9876    76.391913 
   38900     284.6066   -119.38549   0.25751803   -119.12797    6333.3688    4.2395996    4.2395996    4.2395996    6333.3688    18973.816   -4299.0679    4325.3586   -4091.6421    -1776.046    2810.3948    76.203429 
   39000     479.8116   -119.56065   0.43414361   -119.12651   -6607.6281    4.2450603    4.2450603    4.2450603   -6607.6281     12603.81   -15631.649   -16795.045    1156.7999   -1914.2745    4487.0059    76.498266 
   39100    459.02084   -119.54248    0.4153317   -119.12714    1103.0173    4.2424439    4.2424439    4.2424439    1103.0173    8273.8467    -2686.126    -2278.669   -3236.0818   -7902.7713    712.56521    76.356906 
   39200    289.89533   -119.39057   0.26230339   -119.12827    542.27992    4.2396074    4.2396074    4.2396074    542.27992    10465.695   -4361.6144   -4477.2405    9353.8204    -3252.305    1126.2121    76.203852 
   39300    455.53379   -119.53979   0.41217655   -119.12761   -7470.9363    4.2452873    4.2452873    4.2452873   -7470.9363    1397.0431   -6713.9889   -17095.863   -3038.6826   -6194.4875     -3668.14    76.510538 
   39400    263.84593   -119.36747   0.23873334   -119.12874    9672.8495    4.2422116    4.2422116    4.2422116    9672.8495    25513.791    8993.8767   -5489.1192    11991.272    3524.7312   -1105.7181    76.344365 
   39500    631.89188   -119.70081   0.57174906   -119.12906     -9623.83     4.239687     4.239687     4.239687     -9623.83   -2363.7446   -11289.547   -15218.198   -1452.4611    1742.3776   -3124.5292    76.208146 
   39600     175.1649   -119.29065   0.15849288   -119.13216    13375.574    4.2420678    4.2420678    4.2420678    13375.574    33837.883    16894.721   -10605.883     10800.63    7046.8872   -6631.2771    76.336602 
   39700    543.43973   -119.62181   0.49171569    -119.1301   -8348.9847    4.2438465    4.2438465    4.2438465   -8348.9847   -8338.7335    2235.6397    -18943.86   -4135.2346    3037.6707   -2031.5295    76.432663 
   39800     340.9219   -119.43849    0.3084733   -119.13002    6680.6236    4.2387791    4.2387791    4.2387791    6680.6236    21054.241   -2143.8623    1131.4918     8627.766    2402.9423   -4654.2428    76.159196 
   39900    421.34875   -119.51142    0.3812452   -119.13017   -5039.6896    4.2433074    4.2433074    4.2433074   -5039.6896   -3182.8555    316.04473   -12252.258   -10710.392   -688.19677    141.90008    76.403538 
   40000     403.5669   -119.49491   0.36515581   -119.12975   -4354.4255    4.2435301    4.2435301    4.2435301   -4354.4255    7514.2203   -7333.4286   -13244.068    6415.8359   -3105.5775   -2657.5806    76.415573 
   40100    323.03603   -119.42338   0.29228979   -119.13109    117.63257    4.2414779    4.2414779    4.2414779    117.63257    9357.7611   -15209.897    6205.0333   -7111.0245   -1984.8091    482.00942    76.304762 
   40200    449.80175   -119.53733   0.40699007   -119.13034   -4040.9317     4.242008     4.242008     4.242008   -4040.9317    9335.9527   -7222.2404   -14236.507    -1339.709     119.4702   -610.30503    76.333374 
   40300    404.31701   -119.49582   0.36583452   -119.12999   -160.28171    4.2424903    4.2424903    4.2424903   -160.28171    13980.633   -5564.9512   -8896.5271   -867.07518     659.8109      3091.49    76.359413 
   40400    418.97596   -119.50691   0.37909825   -119.12782   -1160.7518    4.2425414    4.2425414    4.2425414   -1160.7518    1795.0358   -370.12772   -4907.1635   -6023.4958    4134.0994    808.00271    76.362172 
   40500    428.78448   -119.51639    0.3879732   -119.12842    3697.2705    4.2377826    4.2377826    4.2377826    3697.2705    18598.624    1253.1798   -8759.9922    2425.2972   -3828.1722    2262.9353    76.105494 
   40600    259.73331   -119.36458   0.23501216   -119.12957    1097.2481    4.2475455    4.2475455    4.2475455    1097.2481   -8402.7165     23034.15   -11339.689   -2799.9068    2997.4932    5303.3543    76.632696 
   40700    548.30854   -119.62259   0.49612109   -119.12647   -363.68913    4.2390069    4.2390069    4.2390069   -363.68913     13369.41    -2920.691   -11539.787    5492.6623   -3049.7981     1105.921    76.171476 
   40800    310.44257   -119.40907   0.28089496   -119.12818    3963.7578    4.2430436    4.2430436    4.2430436    3963.7578    8718.5945    8615.7077   -5443.0288   -7075.0004    -457.8071    6006.0954     76.38929 
   40900    476.98898   -119.56012   0.43158965   -119.12853   -11298.402    4.2447271    4.2447271    4.2447271   -11298.402   -11444.091   -4244.5304   -18206.585    3876.2139   -849.14352   -5404.6608    76.480255 
   41000    265.39778   -119.36879   0.24013749   -119.12865    1991.2436    4.2402022    4.2402022    4.2402022    1991.2436     14809.99   -4102.3039   -4733.9556   -9160.5918   -3041.4319    3326.8322    76.235931 
   41100    564.54357   -119.63815   0.51081089   -119.12733   -9316.0083    4.2427686    4.2427686    4.2427686   -9316.0083   -8463.7223   -7845.4113   -11638.891    5681.3791   -664.62558   -4087.1207    76.374438 
   41200    319.63218    -119.4185   0.28920992   -119.12929    5781.1916    4.2426531    4.2426531    4.2426531    5781.1916    8544.4028    9995.9253   -1196.7533   -3555.8797   -638.38937   -614.44265    76.368205 
   41300    424.32767    -119.5123   0.38394059   -119.12836   -204.17041    4.2401721    4.2401721    4.2401721   -204.17041    2517.8489    3286.5604   -6416.9206    665.55207    4345.9196     -2676.31    76.234307 
   41400    347.33079   -119.44315    0.3142722   -119.12888    6302.7402    4.2428602    4.2428602    4.2428602    6302.7402    17848.719    15090.442    -14030.94   -1687.9372   -1171.5084   -1218.4259    76.379389 
   41500     500.8698   -119.58169   0.45319752   -119.12849   -1473.7406    4.2425683    4.2425683    4.2425683   -1473.7406   -8510.1382    11486.027   -7397.1105    5190.5651    6839.7908   -1661.8888    76.363621 
   41600    340.84504    -119.4381   0.30840375    -119.1297   -1253.4108    4.2419107    4.2419107    4.2419107   -1253.4108    15096.732    1673.6959    -20530.66    797.32534   -4413.7066    1969.1581    76.328122 
   41700    409.93249   -119.50018   0.37091553   -119.12927   -4707.7594    4.2416793    4.2416793    4.2416793   -4707.7594   -3141.8426    10160.184    -21141.62    4786.7615    6413.7177    2941.0531    76.315631 
   41800    396.05557   -119.48833    0.3583594   -119.12997   -3999.9704    4.2423556    4.2423556    4.2423556   -3999.9704    7580.0898    1806.1181   -21386.119   -804.90468   -841.47043    -255.2046    76.352138 
   41900     429.4058   -119.51959   0.38853539   -119.13105   -1066.0852    4.2415238    4.2415238    4.2415238   -1066.0852    8793.7586   -7845.0223    -4146.992    7063.6567   -1034.6413    2839.3776    76.307234 
   42000    373.61575   -119.46949   0.33805538   -119.13143   -135.86928    4.2403971    4.2403971    4.2403971   -135.86928    16841.896    3489.9487   -20739.452    2142.3345    2295.5478   -2737.4245    76.246444 
   42100    394.92498   -119.48785   0.35733642   -119.13052    1375.1889    4.2416071    4.2416071    4.2416071    1375.1889    21505.355   -6161.0436   -11218.744    3111.5094   -654.56813    1614.5708     76.31173 
   42200    476.73244    -119.5613   0.43135753   -119.12995   -5679.5414    4.2440616    4.2440616    4.2440616   -5679.5414    -2355.313   -10059.784   -4623.5275   -3945.6746    7289.9251   -2219.2795    76.444287 
   42300    338.26548   -119.43623   0.30606972   -119.13016    1118.6137    4.2403188    4.2403188    4.2403188    1118.6137    8314.7101    1341.4518   -6300.3208   -861.38615    964.22568   -2328.3579    76.242218 
   42400    434.72631    -119.5227    0.3933495   -119.12935   -5308.3315    4.2444509    4.2444509    4.2444509   -5308.3315   -1931.2579     4194.804   -18188.541    1986.1359    5387.8639     596.7416    76.465328 
   42500    370.84899   -119.46399   0.33555196   -119.12844    4233.5729    4.2429952    4.2429952    4.2429952    4233.5729    7619.2189   -2275.7658    7357.2656   -544.65019   -4901.2878   -1280.8343    76.386678 
   42600    494.08259   -119.57395   0.44705631   -119.12689   -500.05284    4.2397937    4.2397937    4.2397937   -500.05284    7689.3153    2316.7599   -11506.234    5795.3066    1502.4321   -544.84343    76.213899 
   42700    269.58499   -119.37188   0.24392617   -119.12796    7971.9285    4.2429226    4.2429226    4.2429226    7971.9285    24025.838    5655.8317   -5765.8839   -1112.2244   -4594.4757    199.71001    76.382756 
   42800    494.00081   -119.57353   0.44698232   -119.12655   -3349.1129    4.2433791    4.2433791    4.2433791   -3349.1129    13478.777    -13564.01   -9962.1066    6929.9212   -5107.0261    1337.8298    76.407414 
   42900    376.19894   -119.46814   0.34039271   -119.12775    2772.2505    4.2396186    4.2396186    4.2396186    2772.2505    18411.574   -2679.5459   -7415.2762   -1683.8045   -4037.2072    169.36737    76.204458 
   43000    425.42418   -119.51232   0.38493274   -119.12739   -7804.6097     4.243908     4.243908     4.243908   -7804.6097    6944.0714   -12104.685   -18253.215    2620.6241   -3852.1505    1848.2916     76.43599 
   43100    330.07452   -119.42855   0.29865836   -119.12989   -5678.6303    4.2445254    4.2445254    4.2445254   -5678.6303    7825.3448   -13491.279   -11369.957   -7950.6109    5164.6772    -487.0451    76.469353 
   43200    458.73363   -119.54362   0.41507183   -119.12855   -2171.2887    4.2390783    4.2390783    4.2390783   -2171.2887     6600.685   -8741.5188   -4373.0322    82.434266    595.95586    4025.0316    76.175327 
   43300    389.62562   -119.48182   0.35254145   -119.12928    -1022.721     4.244836     4.244836     4.244836    -1022.721    16925.446   -10921.159     -9072.45   -2935.9394    2394.3445    1205.8803     76.48614 
   43400    385.81181   -119.47894   0.34909063   -119.12985    -2608.076    4.2416638    4.2416638    4.2416638    -2608.076     6226.639   -9788.8696   -4261.9975   -4116.6736   -1116.7526    66.837975    76.314792 
   43500    365.67742   -119.46214   0.33087261   -119.13127    8397.0111    4.2377943    4.2377943    4.2377943    8397.0111    25297.648   -826.38396    719.76918    5503.6577    1806.0842    1689.9698    76.106127 
   43600    537.53767   -119.61631   0.48637538   -119.12994    -7452.583    4.2465014    4.2465014    4.2465014    -7452.583   -7826.2318   -3429.6692   -11101.848    -3296.432   -5691.7633   -1821.6299      76.5762 
   43700    259.56089   -119.36554   0.23485614   -119.13069    6841.5158    4.2385373    4.2385373    4.2385373    6841.5158    22202.906    4907.8792   -6586.2378    6319.2734   -1770.6465    150.00573    76.146162 
   43800    428.11217   -119.51773   0.38736489   -119.13036   -448.34232    4.2401797    4.2401797    4.2401797   -448.34232    7515.6876    4134.8521   -12995.567   -1605.9278    -6265.383   -5288.4514    76.234715 
   43900    363.00536   -119.45867   0.32845488   -119.13021    1373.7427    4.2463205    4.2463205    4.2463205    1373.7427    24975.921   -3291.4831    -17563.21    3676.9486    3822.9591    -3016.326    76.566417 
   44000    519.38368   -119.59813   0.46994927   -119.12818     996.7073    4.2373012    4.2373012    4.2373012     996.7073     7249.467   -3511.8658   -747.47933    891.01416    2005.0256   -4675.0341    76.079564 
   44100    238.19423   -119.34539   0.21552315   -119.12987    383.20629    4.2433877    4.2433877    4.2433877    383.20629    34890.378   -5376.7168   -28364.042    7465.0883    4188.2868   -2089.9767    76.407877 
   44200    456.21566   -119.54233   0.41279352   -119.12954   -9032.3057     4.245669     4.245669     4.245669   -9032.3057   -1313.1311   -7315.5267   -18468.259    -1093.654   -448.91702   -4749.7131    76.531175 
   44300    371.86849   -119.46472   0.33647442   -119.12824     1600.154    4.2382415    4.2382415    4.2382415     1600.154    10489.561   -478.74752   -5210.3512    9903.7425   -2665.1209   -330.64962    76.130225 
   44400    443.82179   -119.52942   0.40157928   -119.12784   -11212.516    4.2447179    4.2447179    4.2447179   -11212.516    682.58211   -13338.938   -20981.193    976.84466    1533.1958    958.96708    76.479759 
   44500    315.48087   -119.41337   0.28545372   -119.12791   -9.4499145    4.2453194    4.2453194    4.2453194   -9.4499145    13904.398   -88.165515   -13844.582    5550.9654   -10598.168   -1051.1223    76.512276 
   44600    480.36189   -119.56246   0.43464154   -119.12782    3603.3846    4.2370618    4.2370618    4.2370618    3603.3846    9323.1719   -3159.4148    4646.3966    -1043.346   -93.815513    4166.5431    76.066667 
   44700    361.65982   -119.45467    0.3272374   -119.12743    2824.5159    4.2454102    4.2454102    4.2454102    2824.5159    25016.349   -4260.2616    -12282.54    913.92868   -8234.0567    1115.1557    76.517182 
   44800    424.22211   -119.51134   0.38384508    -119.1275    432.02211    4.2412083    4.2412083    4.2412083    432.02211    4993.5891    1028.5621   -4726.0849    845.55018    4051.6191    4717.6483    76.290208 
   44900    340.33389   -119.43716   0.30794125   -119.12922    4950.5899    4.2370787    4.2370787    4.2370787    4950.5899    21859.277   -5370.2046    -1637.303     4091.893    318.47156    546.19079    76.067577 
   45000    460.07279   -119.54529   0.41628353     -119.129   -2710.8972    4.2459014    4.2459014    4.2459014   -2710.8972    7396.3331    -11130.44   -4398.5852   -3721.4567    1688.5781   -1806.7362    76.543745 
   45100    303.98625   -119.40388   0.27505314   -119.12882     596.2014    4.2421128    4.2421128    4.2421128     596.2014    25020.154   -4863.2732   -18368.276   -2041.4072    2210.2377    3120.1627    76.339028 
   45200    445.07779   -119.53222   0.40271574    -119.1295   -102.47813    4.2389883    4.2389883    4.2389883   -102.47813    8512.3608   -5879.3461   -2940.4491   -1426.2416   -1445.1369    -2688.757    76.170472 
   45300    407.50239    -119.4991   0.36871672   -119.13039    -1773.311    4.2479892    4.2479892    4.2479892    -1773.311    25183.025   -23509.947   -6993.0111   -1730.3679   -2550.2762   -1136.2722    76.656718 
   45400    438.21022   -119.52527   0.39650182   -119.12877   -2829.1703    4.2390636    4.2390636    4.2390636   -2829.1703    958.37844   -6886.2606   -2559.6288    2276.0025   -6878.5007   -2625.0637    76.174533 
   45500    339.72516   -119.43597   0.30739047   -119.12858    404.97712     4.240834     4.240834     4.240834    404.97712    13601.265   -14987.798    2601.4637   -5260.5208   -5125.0166   -2148.0609    76.270012 
   45600     480.5373   -119.56445   0.43480025   -119.12965   -3079.7583    4.2447984    4.2447984    4.2447984   -3079.7583    1376.6894   -8579.2407   -2036.7235    2963.9444   -1494.1794   -3158.0742    76.484106 
   45700    385.52124   -119.47831   0.34882772   -119.12949   -323.95974     4.240349     4.240349     4.240349   -323.95974   -2036.1342   -8083.2861    9147.5412   -2847.7908    384.60347   -3806.5375    76.243847 
   45800    351.67921   -119.44658   0.31820674   -119.12837    4139.4324    4.2384167    4.2384167    4.2384167    4139.4324    15978.052    236.24287   -3795.9973     903.5898   -281.31563   -5042.7704    76.139666 
   45900    371.75786   -119.46438   0.33637433     -119.128     -3506.28    4.2473042    4.2473042    4.2473042     -3506.28    14942.787   -16426.567     -9035.06    -5873.811     4747.606   -4754.5842    76.619639 
   46000    519.16161   -119.59676   0.46974833   -119.12701    4906.1139    4.2386481    4.2386481    4.2386481    4906.1139    7407.8533    4991.3829    2319.1054    609.56722     1257.517    1651.0459    76.152133 
   46100    322.11407   -119.41897   0.29145558   -119.12751   -1608.5225    4.2425744    4.2425744    4.2425744   -1608.5225    20283.171   -20460.994   -4647.7442    -2737.897    3817.1239    -6401.897    76.363951 
   46200    421.10546   -119.50821   0.38102507   -119.12719   -7653.7288    4.2457555    4.2457555    4.2457555   -7653.7288   -4800.7474   -12389.664   -5770.7753    -79.84287    379.68797    4415.2855    76.535857 
   46300    381.24591   -119.47256   0.34495931    -119.1276    1319.1698      4.23956      4.23956      4.23956    1319.1698    1221.3694    -20062.15     22798.29   -5953.5924   -65.255027   -1588.4729    76.201296 
   46400    481.99306   -119.56374   0.43611745   -119.12762   -5518.8287    4.2419017    4.2419017    4.2419017   -5518.8287   -6595.0946    -8666.387   -1295.0045   0.54066948   -2594.5134    2689.1418    76.327632 
   46500    297.70809   -119.39726   0.26937253   -119.12789    2413.4193    4.2454886    4.2454886    4.2454886    2413.4193    7403.5852   -19991.394    19828.066    1084.9249   -5527.1037    680.30985    76.521422 
   46600    437.88153   -119.52464   0.39620441   -119.12844    103.72263      4.23772      4.23772      4.23772    103.72263   -6102.1992    6206.0591    207.30802   -810.82903   -3468.0617   -2110.1237    76.102124 
   46700    321.75599   -119.42107   0.29113158   -119.12994    5076.1407    4.2435364    4.2435364    4.2435364    5076.1407    27240.323   -20946.052    8934.1511   -436.15411    -6566.038    1588.1367    76.415913 
   46800    462.22561    -119.5472   0.41823145   -119.12897   -2287.0099    4.2435852    4.2435852    4.2435852   -2287.0099    -6735.654    5342.3752   -5467.7509    -1350.683   -2422.5163   -4846.5044    76.418547 
   46900    362.93233   -119.45724    0.3283888   -119.12885     5686.574    4.2374534    4.2374534    4.2374534     5686.574    21861.258   -8951.2308    4149.6946    3139.2711    -3362.537   -2220.8774     76.08776 
   47000    432.15038   -119.52109   0.39101875   -119.13007   -2789.8036    4.2449466    4.2449466    4.2449466   -2789.8036   -12015.404   -6558.1944    10204.187   -2191.3385    2650.8255   -5255.8052    76.492121 
   47100    346.68306   -119.44394   0.31368612   -119.13025   -1432.4216    4.2408045    4.2408045    4.2408045   -1432.4216   -6846.7545   -15119.076    17668.566    671.29113    2045.5667    -543.1286    76.268424 
   47200    466.85195    -119.5513   0.42241745   -119.12888    1446.8874    4.2377216    4.2377216    4.2377216    1446.8874   -5337.5844    -7353.606    17031.853   -8679.1886    9135.9819    506.21494     76.10221 
   47300    387.21102   -119.47959   0.35035667   -119.12924   -8029.6891    4.2476037    4.2476037    4.2476037   -8029.6891    -2708.033   -21707.506    326.47162    6349.3834   -2042.7733    2023.8079    76.635849 
   47400     371.2163   -119.46526   0.33588431   -119.12937    1761.5168    4.2382875    4.2382875    4.2382875    1761.5168   -4276.4653   -9262.3591    18823.375   -5595.0499     4594.792   -287.61038    76.132702 
   47500    427.43822   -119.51542   0.38675509   -119.12866   -1616.2011    4.2410171    4.2410171    4.2410171   -1616.2011    13174.962   -12034.816   -5988.7494    3301.6066   -6233.1488    2620.9164    76.279894 
   47600    409.50143   -119.49782    0.3705255   -119.12729    -2837.722    4.2477981    4.2477981    4.2477981    -2837.722    2859.4729    -16169.33     4796.691   -772.36619    1733.6301    792.16949    76.646373 
   47700    395.98728   -119.48448   0.35829761   -119.12618    2240.9876    4.2378798    4.2378798    4.2378798    2240.9876   -1302.7195    2502.6342    5523.0481    2081.0874   -6060.0996    2125.3568    76.110734 
   47800    368.89203   -119.46109   0.33378127   -119.12731   -176.34951    4.2432998    4.2432998    4.2432998   -176.34951     5683.805   -7232.9493    1020.0958    5090.6944    911.01284   -2389.0051    76.403127 
   47900    531.60285   -119.60716   0.48100543   -119.12615   -6435.9566    4.2463343    4.2463343    4.2463343   -6435.9566   -1117.4426   -14653.033   -3537.3942   -1008.6859   -4861.8441   -3022.5753    76.567161 
   48000    285.00474   -119.38391   0.25787828   -119.12603    7647.4176    4.2383828    4.2383828    4.2383828    7647.4176   -898.40014    3830.5915    20010.061    2973.4676    5775.1578   -1371.4279    76.137837 
   48100    509.85714   -119.58748   0.46132945   -119.12615   -8064.2049    4.2435931    4.2435931    4.2435931   -8064.2049    -2581.822   -12315.966   -9294.8272   -1997.4234    437.95431   -2953.9476    76.418975 
   48200    283.07484   -119.38423   0.25613206    -119.1281    7763.4844    4.2457709    4.2457709    4.2457709    7763.4844    21660.105   -10794.599    12424.948    5191.2153       5142.3    -4496.705    76.536686 
   48300    554.68442   -119.62767   0.50189012   -119.12578    -6610.025      4.23708      4.23708      4.23708    -6610.025   -9048.2837    -3440.185   -7341.6063   -4167.6953    2981.2508   -5681.0023    76.067646 
   48400    215.91336   -119.32316   0.19536295    -119.1278    6051.5577    4.2449105    4.2449105    4.2449105    6051.5577    13388.957   -8663.8332    13429.549    4012.0149    -1182.836   -2751.1584    76.490169 
   48500    570.75758   -119.64303   0.51643346    -119.1266   -12837.851    4.2445596    4.2445596    4.2445596   -12837.851   -10804.302   -21433.134   -6276.1156   -4045.8793    3526.5122    -2552.607    76.471201 
   48600    331.31731   -119.42911   0.29978286   -119.12932    4362.4777    4.2372835    4.2372835    4.2372835    4362.4777    5265.8741    2242.7816    5578.7774    1156.7456   -7041.7888     588.9755     76.07861 
   48700     435.7129   -119.52267   0.39424219   -119.12843   -7451.8714    4.2442608    4.2442608    4.2442608   -7451.8714   -12324.493   -11189.579     1158.458    1522.7653   -451.79469   -1949.9797     76.45505 
   48800    296.04584   -119.39632    0.2678685   -119.12845    1616.5672    4.2461533    4.2461533    4.2461533    1616.5672    16008.684   -13236.906    2077.9229   -1403.8846   -7984.1274    2367.5605     76.55737 
   48900    576.91625    -119.6493   0.52200594   -119.12729    5494.1688    4.2341374    4.2341374    4.2341374    5494.1688     6066.342    2059.3044    8356.8601    4770.0257   -1299.0276   -175.15339    75.909273 
   49000     287.8556   -119.39083    0.2604578   -119.13037    2698.1118    4.2472057    4.2472057    4.2472057    2698.1118    16755.769   -6255.3204   -2406.1126   -2588.1062    -2314.325    67.121784    76.614306 
   49100    408.65334    -119.4985   0.36975813   -119.12874   -1543.1291    4.2432465    4.2432465    4.2432465   -1543.1291    13727.741   -12549.351   -5807.7775    2607.1624     3759.483   -432.60089     76.40025 
   49200    445.34167   -119.53107    0.4029545   -119.12811    3720.0091    4.2339033    4.2339033    4.2339033    3720.0091    9703.5186   -4984.2616    6440.7704   -4410.9047    4751.2704    -3681.503    75.896687 
   49300    436.22782   -119.52329    0.3947081   -119.12858   -3851.3125    4.2481189    4.2481189    4.2481189   -3851.3125    2184.1624   -13319.552   -418.54751    1741.7561     6146.299    2444.5516    76.663738 
   49400    430.26184   -119.51696   0.38930995   -119.12765    -8626.785    4.2430143    4.2430143    4.2430143    -8626.785   -1143.6079   -21572.809   -3163.9378   -3671.3254    6004.0886   -5856.1616     76.38771 
   49500      289.432   -119.39003   0.26188416   -119.12814     5587.056    4.2349473    4.2349473    4.2349473     5587.056   -2556.7596    4309.7091    15008.219    1023.0707    1635.3164    338.20188    75.952845 
   49600    523.05951   -119.60104   0.47327524   -119.12776   -12405.024    4.2495883    4.2495883    4.2495883   -12405.024   -9408.3559   -22740.011   -5066.7051   -65.061411   -1602.1595   -2707.8631     76.74332 
   49700    331.08677   -119.42667   0.29957427   -119.12709    648.64556     4.242515     4.242515     4.242515    648.64556   -2574.5409    1769.3993    2751.0783    315.75064     656.6021     7.967103    76.360748 
   49800    454.08618   -119.53688   0.41086672   -119.12601   -538.19131    4.2377842    4.2377842    4.2377842   -538.19131   -3771.1474   -8113.1205    10269.694    2794.8321   -5025.2475   -527.68295    76.105583 
   49900    407.64537   -119.49635    0.3688461    -119.1275   -3272.8018    4.2478862    4.2478862    4.2478862   -3272.8018    3202.5211   -6203.0163   -6817.9102   -1174.7549   -4102.6083   -945.06207    76.651142 
   50000    341.12323   -119.43435   0.30865547    -119.1257    2526.8084    4.2428123    4.2428123    4.2428123    2526.8084    21859.781   -13135.308   -1144.0475     3863.031   -2638.6578   -206.53569    76.376797 
   50100    533.46153    -119.6075   0.48268721   -119.12481    3382.6769    4.2368101    4.2368101    4.2368101    3382.6769    -2139.748   -2353.9812     14641.76    314.07091   -3942.0132   -970.71154    76.053115 
   50200    320.19839   -119.41776   0.28972223   -119.12803    4450.1513    4.2466656    4.2466656    4.2466656    4450.1513    13985.507   -14253.379    13618.325    2377.4259   -1267.4026    5650.5888    76.585084 
   50300    487.52087   -119.56883   0.44111913   -119.12771   -822.46512     4.241192     4.241192     4.241192   -822.46512    3403.3595    -8739.095    2868.3402     -247.778    2335.3055   -1346.9909    76.289333 
   50400    289.74051   -119.39029    0.2621633   -119.12812    5424.0127    4.2375791    4.2375791    4.2375791    5424.0127   -2871.0356   -2421.5528    21564.627    1434.0024    238.62036    7758.3507    76.094531 
   50500    475.66374   -119.55809   0.43039055    -119.1277   -11148.777    4.2473594    4.2473594    4.2473594   -11148.777   -18759.796   -8682.5814   -6003.9523   -1921.2499    5714.3059   -2424.3324    76.622624 
   50600    352.15382    -119.4473   0.31863617   -119.12867   -2765.1107    4.2407735    4.2407735    4.2407735   -2765.1107    2524.5386    -12116.67    1296.7993     100.3831   -598.87909    5734.8739     76.26675 
   50700    446.64598   -119.53232   0.40413467   -119.12819   -6907.8617    4.2413836    4.2413836    4.2413836   -6907.8617   -12422.989     3469.929   -11770.525   -3020.1844    3576.1319    -870.3207    76.299667 
   50800    386.46315   -119.47813   0.34967998   -119.12845    526.30279    4.2429424    4.2429424    4.2429424    526.30279   -422.06542   -4073.8743    6074.8481   -4623.6161   -2059.5086    102.55644    76.383826 
   50900     427.1283   -119.51295   0.38647467   -119.12648   -3517.0967    4.2431974    4.2431974    4.2431974   -3517.0967    9301.2892   -4524.4822   -15328.097    24.212947   -3919.3444    1261.8907    76.397599 
   51000    361.10389   -119.45368   0.32673439   -119.12695    11623.045    4.2379295    4.2379295    4.2379295    11623.045    9325.7282   -3635.1221    29178.529   -6179.8282   -1579.7354   -1739.8683    76.113413 
   51100    512.67143   -119.59136   0.46387589   -119.12748   -2850.2638    4.2452922    4.2452922    4.2452922   -2850.2638    1578.8781      688.725   -10818.395    1263.2826   -4385.2693    6586.2126    76.510802 
   51200    374.01137   -119.46566   0.33841335   -119.12724     5907.456    4.2403084    4.2403084    4.2403084     5907.456    7351.0671   -5923.9599    16295.261   -5362.1509   -1993.2891   -5159.7698    76.241657 
   51300    368.95524   -119.46035   0.33383846   -119.12651   -5193.4591    4.2417571    4.2417571    4.2417571   -5193.4591   -898.66562   -7877.8175   -6803.8941    887.10166   -3064.4693    3723.1784     76.31983 
   51400    423.72798   -119.51013   0.38339798   -119.12673   -6364.8016    4.2458016    4.2458016    4.2458016   -6364.8016    -13425.08    3073.8285   -8743.1532    3450.6078    111.12655   -4136.8283    76.538347 
   51500    467.82164   -119.54906   0.42329486   -119.12576   -5812.0691    4.2421052    4.2421052    4.2421052   -5812.0691   -4386.9111   -5836.8707   -7212.4256    251.93902    836.33919    5584.2902     76.33862 
   51600    327.73836   -119.42295   0.29654456    -119.1264   -4414.0019    4.2424177    4.2424177    4.2424177   -4414.0019   -14153.009    10169.756   -9258.7531    4642.0686    4805.5924   -2697.8083    76.355491 
   51700    401.54067   -119.48978   0.36332244   -119.12646   -5836.3645     4.244983     4.244983     4.244983   -5836.3645   -4929.1856   -1296.9776    -11282.93    -776.4223      1848.85    3150.0289    76.494086 
   51800    385.88866   -119.47592   0.34916017   -119.12676    6342.7352    4.2398027    4.2398027    4.2398027    6342.7352   -1713.4987    13493.546    7248.1579    7359.9654    6402.0943   -1326.6219    76.214383 
   51900    470.98354   -119.55237   0.42615581   -119.12621   -720.84287    4.2416314    4.2416314    4.2416314   -720.84287   -2264.7135   -7297.6629    7399.8478    -1305.561    6824.7303   -86.564234    76.313044 
   52000    231.93387   -119.33724   0.20985864   -119.12738     10129.65     4.244001     4.244001     4.244001     10129.65     11301.89     16109.73    2977.3286    1458.6731    3887.8205    2166.6728    76.441014 
   52100    529.05975   -119.60548   0.47870438   -119.12678    158.71507    4.2394812    4.2394812    4.2394812    158.71507   -3182.0103    4285.1676   -627.01215   -3419.0932    5489.7349   -4027.0722    76.197046 
   52200    321.32783   -119.41831   0.29074417   -119.12757    7815.0297    4.2424544    4.2424544    4.2424544    7815.0297    5563.7901    10429.898    7451.4012   -924.15938   -172.15426     4564.011    76.357471 
   52300    404.68174   -119.49309   0.36616454   -119.12693   -5145.0508    4.2446859    4.2446859    4.2446859   -5145.0508    -5893.217   -1619.4386   -7922.4969   -1949.2776    2889.5672    -7397.738     76.47803 
   52400    332.90245   -119.42883   0.30121713   -119.12761   -1928.6154    4.2417191    4.2417191    4.2417191   -1928.6154   -776.35403    6140.4107   -11149.903   -943.88526   -1893.4227    10212.286    76.317776 
   52500    412.70748   -119.50191    0.3734264   -119.12848   -497.47567    4.2416455    4.2416455    4.2416455   -497.47567   -12255.537    4146.4503    6616.6596    306.46926    -2548.422   -6480.6935    76.313807 
   52600    452.38663   -119.53586   0.40932893   -119.12653   -7562.4195     4.244274     4.244274     4.244274   -7562.4195   -11964.636    2102.0452   -12824.668   -730.70701   -3238.4041    6741.0766    76.455767 
   52700    259.06275    -119.3613   0.23440542   -119.12689    7028.8568    4.2401126    4.2401126    4.2401126    7028.8568   -3406.3039    9654.3601    14838.514    5319.8716   -5577.8364   -3640.3874    76.231095 
   52800    532.87743    -119.6101    0.4821587   -119.12794   -8480.4427    4.2430031    4.2430031    4.2430031   -8480.4427   -17175.964   -6508.9139   -1756.4498   -1131.1092   -1121.4405   -154.54507    76.387107 
   52900    317.61936   -119.41712   0.28738868   -119.12974    9399.1874    4.2407983    4.2407983    4.2407983    9399.1874    507.38349    20114.577    7575.6022    5556.7714   -7721.0694   -3744.3782    76.268086 
   53000     455.2944   -119.53864   0.41195994   -119.12668   -6808.1917    4.2451039    4.2451039    4.2451039   -6808.1917   -4224.2905   -17938.693    1738.4085    -645.6885   -591.67295   -1759.2461    76.500625 
   53100    314.50914   -119.41111   0.28457448   -119.12653    3766.2169    4.2403358    4.2403358    4.2403358    3766.2169   -594.44589    9522.3574    2370.7392    4908.5912   -1681.4334   -875.94707    76.243135 
   53200     513.2624   -119.59103   0.46441061   -119.12662   -5447.4674    4.2455738    4.2455738    4.2455738   -5447.4674    1431.1162   -15177.303   -2596.2153   -345.66888    3699.0023    2208.0522    76.526028 
   53300    380.94056   -119.47078   0.34468302    -119.1261    833.88998     4.242971     4.242971     4.242971    833.88998   -3747.8184    657.47009    5592.0183    951.73528    145.70388    8055.4592    76.385368 
   53400    368.91184    -119.4589   0.33379919    -119.1251   -2358.8753    4.2414411    4.2414411    4.2414411   -2358.8753   -2591.9466   -12058.034    7573.3545   -385.02863    6477.2456   -1673.5121    76.302772 
   53500    414.66896   -119.50178   0.37520119   -119.12658    3225.6921    4.2420338    4.2420338    4.2420338    3225.6921   -5728.0025    2524.0246    12881.054   -5717.9406    3178.0921    10130.377    76.334768 
   53600    467.23213   -119.54883   0.42276145   -119.12607   -4917.0867    4.2442716    4.2442716    4.2442716   -4917.0867   -13815.012   -4928.4495    3992.2019    2373.9357    5011.8842   -1046.0896    76.455633 
   53700    301.78092   -119.39915   0.27305771   -119.12609    6856.7386    4.2389801    4.2389801    4.2389801    6856.7386   -4591.6742    4634.9478    20526.942   -8628.3839    4161.7642    7588.3337    76.170029 
   53800    348.30111   -119.44133   0.31515016   -119.12618   -1928.1168    4.2434763    4.2434763    4.2434763   -1928.1168   -13229.016    10852.765   -3408.0998    -337.7388   -3014.1107   -2093.1409    76.412664 
   53900    500.52391   -119.58024   0.45288455   -119.12735   -3177.4088    4.2446532    4.2446532    4.2446532   -3177.4088   -14566.719     7152.778   -2118.2857   -3725.0237    3517.9787   -1042.7371    76.476261 
   54000    349.72352   -119.44434   0.31643719    -119.1279    5737.7355    4.2395791    4.2395791    4.2395791    5737.7355   -10705.343    15492.036    12426.513    850.75308   -1042.3335   -8385.2893    76.202328 
   54100    407.35899   -119.49628   0.36858698   -119.12769   -7220.5822     4.242405     4.242405     4.242405   -7220.5822   -7076.0618    688.69406   -15274.379   -251.07439   -2258.5763   -2598.5607    76.354806 
   54200    257.61255   -119.36171   0.23309325   -119.12862    4310.9038    4.2444159    4.2444159    4.2444159    4310.9038   -4985.2114   -3753.5356    21671.458   -1463.9985    -1742.787   -5649.9318    76.463433 
   54300     619.2297   -119.68756   0.56029204   -119.12726   -6750.0551    4.2384912    4.2384912    4.2384912   -6750.0551   -6951.0756    -4176.761   -9122.3286    1063.5859   -2799.0465   -2987.3321    76.143679 
   54400    213.03968    -119.3229   0.19276278   -119.13014     7262.751    4.2413024    4.2413024    4.2413024     7262.751    -2640.767     5925.009    18504.011   -4443.6554    1144.7907   -1492.2947    76.295286 
   54500     432.4381   -119.52104   0.39127909   -119.12976   -5384.0066    4.2443874    4.2443874    4.2443874   -5384.0066   -8475.1299    10740.844   -18417.734    5961.3006   -1880.5526    1289.3152    76.461896 
   54600    380.83758   -119.47592   0.34458985   -119.13133    7020.5726    4.2373545    4.2373545    4.2373545    7020.5726   -10968.191    20654.448     11375.46    -4763.506   -3199.5217    2637.0267    76.082433 
   54700    488.29523   -119.57202   0.44181978    -119.1302   -2951.9868    4.2442738    4.2442738    4.2442738   -2951.9868   -11971.489    17855.866   -14740.338    2314.8093     1638.597   -1099.4943    76.455754 
   54800    331.49846   -119.42813   0.29994678   -119.12818   -1863.2296    4.2428318    4.2428318    4.2428318   -1863.2296   -12436.998    8611.3545   -1764.0448   -5529.9005    1412.2322   -247.19807    76.377851 
   54900    352.52625   -119.44699   0.31897316   -119.12801   -1168.0122    4.2397101    4.2397101    4.2397101   -1168.0122   -6761.8227    11567.022   -8309.2356    2721.7165    2279.7046   -5970.3778    76.209391 
   55000    480.35217   -119.56351   0.43463274   -119.12888   -4656.6238    4.2457342    4.2457342    4.2457342   -4656.6238   -13624.964   -1020.5085    675.60153   -1289.3822    3928.4104   -888.12115    76.534706 
   55100     371.8363   -119.46313    0.3364453   -119.12668   -2631.1462    4.2428565    4.2428565    4.2428565   -2631.1462   -4061.9974     2742.979   -6574.4203    487.75267     2650.711   -10242.516    76.379186 
   55200     380.6199   -119.46996   0.34439289   -119.12556    5668.5194    4.2374669    4.2374669    4.2374669    5668.5194    2585.6125     6962.145    7457.8007    2694.2425    5469.5764    1784.4112    76.088487 
   55300    383.60954   -119.47488   0.34709797   -119.12778    1480.9841    4.2460101    4.2460101    4.2460101    1480.9841   -6886.0572     19055.44     -7726.43    1406.1211    2458.3354   -5951.9875    76.549626 
   55400     412.4899   -119.50121   0.37322953   -119.12798      5614.21    4.2416726    4.2416726    4.2416726      5614.21    3633.1832    14572.443   -1362.9968    3513.0991    1924.4638    5925.8448    76.315267 
   55500    396.45122   -119.48575    0.3587174   -119.12703    4749.2813    4.2364877    4.2364877    4.2364877    4749.2813   -3117.9716    17947.567   -581.75203   -2021.7059   -459.98544    816.79768    76.035755 
   55600    372.82486   -119.46504   0.33733977    -119.1277   -4334.5446    4.2486134    4.2486134    4.2486134   -4334.5446    480.81686    6528.1581   -20012.609    329.13711     495.1459    2644.5216    76.690511 
   55700    531.20843   -119.60757   0.48064855   -119.12692   -7667.8718    4.2424021    4.2424021    4.2424021   -7667.8718   -13841.596    610.63016   -9772.6497    179.70592   -4498.9123    5750.0745    76.354648 
   55800    253.89958    -119.3578   0.22973368   -119.12807    33.236166    4.2373521    4.2373521    4.2373521    33.236166   -1556.8109    12032.993   -10376.473     1794.873   -5922.5094   -4160.2004    76.082302 
   55900    481.50332   -119.56372   0.43567433   -119.12805   -14002.509    4.2509281    4.2509281    4.2509281   -14002.509   -18305.484   -4629.3837    -19072.66   -1816.7792   -1961.6123    453.43274    76.815925 
   56000    403.31599   -119.49305   0.36492879   -119.12812     7457.599    4.2361469    4.2361469    4.2361469     7457.599    3699.6463    21680.287   -3007.1361    384.53149   -7301.4817   -11094.713    76.017407 
   56100    448.42733   -119.53457   0.40574647   -119.12882    1546.8526    4.2377663    4.2377663    4.2377663    1546.8526   -4731.5172     8173.075    1199.0001    -8355.113   -1970.0411   -3194.4611    76.104618 
   56200    272.82239   -119.37538   0.24685543   -119.12853    339.02615    4.2491324    4.2491324    4.2491324    339.02615    2963.2471     8607.153   -10553.322    624.59519   -6179.0414   -9576.8826    76.718622 
   56300    474.07833   -119.55779   0.42895604   -119.12884     1454.578    4.2346913    4.2346913    4.2346913     1454.578   -583.04372    4258.1478    688.63005   -6822.0545    18.843274    -2517.077    75.939072 
   56400    395.58889   -119.48784   0.35793714    -119.1299    472.24756     4.242074     4.242074     4.242074    472.24756     686.3844    422.27122    308.08706   -3969.6414   -2691.9651   -2502.5401    76.336936 
   56500    380.85348   -119.47344   0.34460423   -119.12884   -12361.979     4.249307     4.249307     4.249307   -12361.979   -11779.937   -990.35991    -24315.64   -1322.7588    88.518302     2155.018     76.72808 
   56600    314.62276   -119.41286   0.28467729   -119.12818    10022.253    4.2358366    4.2358366    4.2358366    10022.253    10611.543    26184.558    -6729.342   -5543.3585   -2124.1612   -458.88992    76.000698 
   56700    522.11864   -119.60072   0.47242392   -119.12829   -6362.6642     4.245954     4.245954     4.245954   -6362.6642    -21668.58      15231.1   -12650.513    6946.9216    1512.1957    1623.9841     76.54659 
   56800    301.90418   -119.40016   0.27316925     -119.127    3754.0628    4.2444528    4.2444528    4.2444528    3754.0628   -2820.8593    25058.083   -10975.036   -8965.2171    1578.0972   -478.94429    76.465429 
   56900    411.14339   -119.49744   0.37201118   -119.12543    2530.8409    4.2378421    4.2378421    4.2378421    2530.8409   -690.82615     15483.61   -7200.2616    12929.078   -1502.8024   -1579.4341      76.1087 
   57000    403.22164   -119.49181   0.36484342   -119.12697    1686.0681    4.2427182    4.2427182    4.2427182    1686.0681   -9432.7454    22332.688   -7841.7383   -8012.1816   -613.83807   -2646.8232    76.371719 
   57100    456.50712   -119.54103   0.41305724   -119.12798   -10081.496    4.2472976    4.2472976    4.2472976   -10081.496   -882.18759   -15195.662    -14166.64    11774.793    178.96421   -2775.1893    76.619281 
   57200    310.03079   -119.40924   0.28052238   -119.12872    5312.0269    4.2332319    4.2332319    4.2332319    5312.0269   -2794.6231    9030.5976    9700.1062   -6268.7965    1486.7981   -5879.3959    75.860583 
   57300    457.84344    -119.5431   0.41426637   -119.12883   -7075.5631    4.2471086    4.2471086    4.2471086   -7075.5631   -944.51517   -9446.3864   -10835.788   -2807.3105   -3047.0766   -3697.6592    76.609054 
   57400    345.47077   -119.44101   0.31258922   -119.12842    6890.7553      4.24335      4.24335      4.24335    6890.7553   -13170.355    29876.164    3966.4562   -571.16001    -1225.528   -597.30612    76.405839 
   57500    431.80984    -119.5193   0.39071062   -119.12859    3861.4766    4.2357627    4.2357627    4.2357627    3861.4766    7057.0862     9680.932   -5153.5884   -4798.1173    -3105.366   -3035.2274    75.996725 
   57600    245.71973   -119.35178   0.22233238   -119.12945    3604.4652    4.2462686    4.2462686    4.2462686    3604.4652    -10891.89    25216.603   -3511.3176    5836.1742    371.85695     2220.389    76.563605 
   57700    587.48784   -119.65857   0.53157134     -119.127   -10262.945    4.2433293    4.2433293    4.2433293   -10262.945   -17179.329     4013.413   -17622.918   -6620.1164   -3187.0804    -939.1783    76.404721 
   57800    296.81152   -119.39648    0.2685613   -119.12792    4368.1708    4.2379382    4.2379382    4.2379382    4368.1708   -521.22212     19517.73   -5891.9953    9919.8099   -6700.9313    963.72548    76.113879 
   57900    432.25452    -119.5196   0.39111297   -119.12848   -14812.522     4.248619     4.248619     4.248619   -14812.522   -11792.247   -10070.285   -22575.034   -2832.1058    168.57959   -266.23886    76.690818 
   58000    385.06314    -119.4761   0.34841322   -119.12769    1310.4576    4.2409315    4.2409315    4.2409315    1310.4576   -6064.7311    7153.8547    2842.2491     6190.481   -1493.3047   -4097.5434    76.275273 
   58100    457.91122   -119.54282   0.41432769   -119.12849    2750.1648    4.2376448    4.2376448    4.2376448    2750.1648    5746.7362     6269.089   -3765.3307   -296.47422     -643.237   -751.04246    76.098071 
   58200    352.06656   -119.44492   0.31855723   -119.12636   -623.09207    4.2487617    4.2487617    4.2487617   -623.09207   -11273.774    16184.914   -6780.4165    50.751214    -870.1859   -3695.5052    76.698544 
   58300    350.78599    -119.4422   0.31739854    -119.1248    11734.341    4.2361658    4.2361658    4.2361658    11734.341    10443.114    16560.848    8199.0602    3694.4707    1891.8778   -1138.5161    76.018423 
   58400    495.91973   -119.57355   0.44871859   -119.12483   -195.43227    4.2414753    4.2414753    4.2414753   -195.43227    -7026.678    16720.801    -10280.42   -4165.3751    3668.2244   -2509.1175    76.304619 
   58500    475.70124    -119.5575   0.43042448   -119.12707   -8119.9824    4.2475925    4.2475925    4.2475925   -8119.9824   -12623.113   -1117.5503   -10619.284    564.61703    1881.7567    2985.6454    76.635241 
   58600    220.94197   -119.32911   0.19991294    -119.1292    662.04797    4.2378827    4.2378827    4.2378827    662.04797   -2396.5196    6815.8343   -2433.1707    -11812.06    1338.0922   -1462.1123     76.11089 
   58700    605.29229    -119.6759   0.54768119   -119.12822   -9227.7207    4.2410552    4.2410552    4.2410552   -9227.7207   -12130.561   -874.03772   -14678.563    3044.3618    -737.9691    2928.7186    76.281949 
   58800    244.49105   -119.34988   0.22122064   -119.12866     4596.473     4.249273     4.249273     4.249273     4596.473   -2659.4475    23717.096   -7268.2296   -7898.5351    1471.7483   -1738.3013    76.726236 
   58900    524.35461   -119.60208   0.47444707   -119.12764    122.56506    4.2355768    4.2355768    4.2355768    122.56506   -2892.1316    8152.8316   -4893.0049    581.82994   -1922.6913   -16.384722    75.986717 
   59000    264.05481   -119.36918   0.23892234   -119.13026    6275.2747    4.2436919    4.2436919    4.2436919    6275.2747     12694.51    14916.615   -8785.3008   -8001.5359    -5271.178   -3302.8117    76.424314 
   59100    521.73208   -119.59902   0.47207415   -119.12694   -3950.2387    4.2448365    4.2448365    4.2448365   -3950.2387    7089.9135   -4668.9519   -14271.678    5170.9522   -2041.0098   -1651.8134    76.486167 
   59200    429.64489   -119.51458   0.38875173   -119.12583     321.1603    4.2387085    4.2387085    4.2387085     321.1603    2251.6823    11408.017   -12696.218    -6460.046   -3408.5923   -5639.5431    76.155388 
   59300    248.83849   -119.35365    0.2251543    -119.1285   -1871.9685    4.2439582    4.2439582    4.2439582   -1871.9685    11890.831   -10251.354   -7255.3824     6736.854   -1078.4913    2276.8187      76.4387 
   59400    553.72316   -119.62828   0.50102035   -119.12726   -13483.484    4.2465324    4.2465324    4.2465324   -13483.484   -15824.288   -6527.4559   -18098.708    -3578.502   -5286.7306   -1224.3422    76.577878 
   59500    278.54176   -119.37948   0.25203044   -119.12745    6720.4201    4.2381083    4.2381083    4.2381083    6720.4201    862.27184    8897.2375    10401.751   -911.77378   -505.42154    353.47711    76.123042 
   59600    456.67672   -119.53918   0.41321069   -119.12597   -8270.8349    4.2445923    4.2445923    4.2445923   -8270.8349   -12579.333    2269.8571   -14503.028    5077.9722   -184.81539    1113.3828    76.472968 
   59700    347.69745   -119.44036   0.31460396   -119.12576    7587.7175    4.2443784    4.2443784    4.2443784    7587.7175    4774.5764    19623.112   -1634.5363   -99.161209   -887.08637    289.66826    76.461408 
   59800    478.48496   -119.55771   0.43294325   -119.12477    74.178241    4.2387601    4.2387601    4.2387601    74.178241   -5449.0564    4525.4571     1146.134    3265.8296     637.6701    3340.3402    76.158173 
   59900    469.35733   -119.54984   0.42468438   -119.12515    61.294125    4.2439618    4.2439618    4.2439618    61.294125    1963.5152    12141.296   -13920.929   -337.10449    276.01209   -670.44746    76.438892 
   60000    270.18059   -119.37179   0.24446507   -119.12732    1527.1251    4.2442572    4.2442572    4.2442572    1527.1251    13095.701   -6926.9369   -1587.3885    8522.5765    2437.3192   -1312.9934    76.454857 
   60100    551.33425   -119.62521   0.49885882   -119.12635   -6099.9101    4.2379106    4.2379106    4.2379106   -6099.9101   -4852.0451   -4639.0466   -8808.6387   -3075.0149    3437.6591   -3044.9918    76.112392 
   60200     331.6423   -119.42866   0.30007692   -119.12858    3207.7336     4.244908     4.244908     4.244908    3207.7336   -3784.3552    16224.582   -2817.0259    11159.221    4571.7707     780.7962     76.49003 
   60300    490.40347   -119.57163   0.44372737    -119.1279    -9467.032    4.2427145    4.2427145    4.2427145    -9467.032   -5027.0371   -9254.3361   -14119.723   -3120.5705   -2155.2133   -1651.8469    76.371517 
   60400    254.81689   -119.36126   0.23056367    -119.1307    7604.6931    4.2394087    4.2394087    4.2394087    7604.6931   -11271.822    32417.564    1668.3373    9994.1936    5741.9163    -680.5246    76.193138 
   60500     509.5917    -119.5912   0.46108928   -119.13011   -10475.956    4.2440512    4.2440512    4.2440512   -10475.956   -9761.9607   -7000.0397   -14665.867    355.56721    658.10143   -1541.2769    76.443723 
   60600    343.07308   -119.43943   0.31041973   -119.12901    2633.1131    4.2405287    4.2405287    4.2405287    2633.1131    -7083.034    22204.981   -7222.6078    1175.9776    783.83392     1603.566    76.253543 
   60700     453.2675   -119.53763   0.41012596   -119.12751   -9468.4101    4.2424512    4.2424512    4.2424512   -9468.4101   -2855.4138   -17892.997   -7656.8193    8177.0191    -2338.824    -1074.318    76.357298 
   60800    351.96661   -119.44834   0.31846678   -119.12987    3215.8853    4.2411392    4.2411392    4.2411392    3215.8853   -939.05522    16347.274   -5760.5633   -5309.6957   -3798.0676   -300.79638    76.286483 
   60900    447.38363   -119.53424   0.40480211   -119.12944    1001.1076    4.2434878    4.2434878    4.2434878    1001.1076    6052.6157    2849.5747   -5898.8675    6250.4067   -1152.5956   -1154.5378    76.413285 
   61000    331.13819   -119.42817    0.2996208   -119.12855    5963.4175    4.2403971    4.2403971    4.2403971    5963.4175    3839.9129    16528.538    -2478.198   -11317.382   -3141.4193    -2180.248    76.246444 
   61100    412.36359   -119.50064   0.37311525   -119.12752    5054.5765    4.2417188    4.2417188    4.2417188    5054.5765    5143.5396    15670.844   -5650.6544   -1639.8544   -2232.4673    1802.1804     76.31776 
   61200    411.51336   -119.49947   0.37234593   -119.12713   -1491.3708     4.242372     4.242372     4.242372   -1491.3708   -1987.3037    5218.4791   -7705.2878   -5611.6832   -4992.0604   -2037.5939    76.353024 
   61300     408.2784   -119.49615   0.36941888   -119.12673   -1535.6629    4.2419578    4.2419578    4.2419578   -1535.6629   -14209.927    19313.083   -9710.1445   -2951.7947    3613.9004    86.454324    76.330664 
   61400    389.27507   -119.47954   0.35222426   -119.12731   -3354.2031    4.2409493    4.2409493    4.2409493   -3354.2031    2900.7707   -1405.1857   -11558.194   -3217.7636    894.25497    -47.32865    76.276233 
   61500    418.45061   -119.50629    0.3786229   -119.12767   -7925.3395    4.2458648    4.2458648    4.2458648   -7925.3395   -16220.748    6622.0975   -14177.368   -1618.8884    573.99276    763.59593    76.541765 
   61600    473.04569   -119.55507   0.42802168   -119.12705   -600.94751     4.239774     4.239774     4.239774   -600.94751    -7407.366     9654.937   -4050.4136    2265.5652    1898.9314   -815.11082    76.212834 
   61700     304.2802   -119.40333   0.27531912   -119.12801    45.692175    4.2435464    4.2435464    4.2435464    45.692175   -551.48811    7515.1826   -6826.6179   -3075.9013    1248.3809    306.86821    76.416453 
   61800    465.95246    -119.5495   0.42160358   -119.12789     961.0694    4.2423483    4.2423483    4.2423483     961.0694   -4737.4962    6907.3269    713.37743     2408.342    4007.1971   -4220.3828    76.351747 
   61900    375.07039   -119.46927   0.33937157    -119.1299    2296.2298    4.2418668    4.2418668    4.2418668    2296.2298   -2489.5296    8504.1244    874.09456   -9087.3473   -1367.4785    484.16477    76.325751 
   62000     451.6518   -119.53763   0.40866404   -119.12897     2068.846    4.2371446    4.2371446    4.2371446     2068.846    2261.3584    5178.6582   -1233.4785    4629.1291    798.10746   -9075.6237     76.07113 
   62100    358.07345   -119.45205   0.32399239   -119.12806   -1427.5561    4.2445129    4.2445129    4.2445129   -1427.5561    6820.9009   -7892.0151   -3211.5542   -9672.5336   -3220.4682   -2384.4362    76.468679 
   62200    385.22601   -119.47761   0.34856059   -119.12905   -3632.5123    4.2418992    4.2418992    4.2418992   -3632.5123   -1963.9002   -2214.7851   -6718.8516   -683.30973     2064.923   -3971.1848      76.3275 
   62300    465.51867   -119.54941   0.42121108    -119.1282   -3316.8638    4.2388154    4.2388154    4.2388154   -3316.8638    4272.2341   -4243.0062   -9979.8191    -7581.314   -3387.8318   -4443.2009    76.161151 
   62400    363.29993     -119.457   0.32872141   -119.12828   -3921.7068     4.246981     4.246981     4.246981   -3921.7068    5057.3168   -6917.7559   -9904.6813   -111.37252   -831.05848    1271.1419    76.602149 
   62500    483.56551   -119.56319   0.43754024   -119.12565   -3619.6185    4.2414248    4.2414248    4.2414248   -3619.6185   -7776.8052   -2082.9769   -999.07326    3088.9067   -1827.8813   -2531.8581    76.301894 
   62600    283.89479   -119.38415   0.25687397   -119.12727    6163.2751     4.241549     4.241549     4.241549    6163.2751    2335.0756    14063.642    2091.1081    5118.9906    2693.6762    3164.6926    76.308597 
   62700    504.31649   -119.58186   0.45631616   -119.12555   -7514.5791    4.2448298    4.2448298    4.2448298   -7514.5791   -12571.114   -7385.9241    -2586.699    5008.7349    -1163.518   -656.32496    76.485807 
   62800    315.43183   -119.41118   0.28540935   -119.12577    9999.9491    4.2407954    4.2407954    4.2407954    9999.9491    5128.1645    14192.384    10679.299    3547.4346    2172.2158    4149.5861    76.267931 
   62900    476.09594   -119.55564   0.43078161   -119.12486   -6285.7038    4.2407996    4.2407996    4.2407996   -6285.7038   -11373.951   -8463.5964    980.43621    9411.3222    2533.6789   -5352.3883    76.268159 
   63000    271.29944   -119.37196   0.24547743   -119.12648    5523.3755    4.2447227    4.2447227    4.2447227    5523.3755   -932.44386    8444.4167    9058.1537    3865.3171    2807.3056    2093.1412    76.480017 
   63100    537.48512   -119.61122   0.48632783   -119.12489   -9131.6785    4.2409244    4.2409244    4.2409244   -9131.6785   -5578.3505   -16500.172    -5316.513   -241.73613    5524.8509   -3662.8453    76.274891 
   63200    290.70216   -119.38927   0.26303342   -119.12624    767.65393    4.2435025    4.2435025    4.2435025    767.65393    5056.1542   -2871.8486    118.65616    772.71098   -126.45626   -3464.6583    76.414078 
   63300    537.21459   -119.61038   0.48608305    -119.1243   -12797.454    4.2459957    4.2459957    4.2459957   -12797.454   -9821.7897   -7424.1224    -21146.45   -572.89058    5538.3226    1108.8496    76.548845 
   63400    315.43186   -119.41099   0.28540937   -119.12558    4946.3199    4.2404206    4.2404206    4.2404206    4946.3199    9106.7084    6300.5583   -568.30709   -694.37077   -1585.1621   -6108.1373    76.247712 
   63500    527.35587   -119.60253   0.47716268   -119.12537   -7068.3233    4.2442765    4.2442765    4.2442765   -7068.3233   -2034.0969   -6493.1015   -12677.771    -4796.059   -1542.7236    3615.0858    76.455899 
   63600     292.7893   -119.39186   0.26492191   -119.12694    5993.9849    4.2437853    4.2437853    4.2437853    5993.9849    -2757.551    23948.821   -3209.3155    -2482.268   -4994.6423   -4985.5608    76.429355 
   63700    476.43373   -119.55691   0.43108725   -119.12582    2571.0297    4.2374054    4.2374054    4.2374054    2571.0297     8609.143    112.22448   -1008.2782   -1854.5364   -6547.4625    4655.5036    76.085174 
   63800    360.40221   -119.45352    0.3260995   -119.12742    6951.0589    4.2436591    4.2436591    4.2436591    6951.0589   -6613.5533    16410.176    11056.554     1670.017   -3100.4423   -5145.2515     76.42254 
   63900    361.79261   -119.45515   0.32735756   -119.12779   -1218.4907    4.2424704    4.2424704    4.2424704   -1218.4907   -3231.9484   -5400.3658    4976.8421   -2387.0349   -1108.2755   -1102.2135    76.358339 
   64000    377.26596   -119.46818   0.34135817   -119.12682    2085.6132    4.2390103    4.2390103    4.2390103    2085.6132   -5041.4923    4571.2387    6727.0933    996.58748    -1599.727   -3025.1521     76.17166 
   64100     417.1943   -119.50405   0.37748617   -119.12657   -7701.5825     4.246652     4.246652     4.246652   -7701.5825     1286.056   -19882.087    -4508.716    4227.8682   -2074.5832   -3631.5407     76.58435 
   64200    378.17135   -119.46818   0.34217739     -119.126    -3637.505    4.2413378    4.2413378    4.2413378    -3637.505   -8651.3251    1172.0321   -3433.2218    4606.2105    6076.7732     1951.561    76.297197 
   64300    395.94929   -119.48456   0.35826324    -119.1263   -4706.4267    4.2413899    4.2413899    4.2413899   -4706.4267   -4334.0307    886.83345   -10672.083   -440.43294   -3333.8612    -3353.402    76.300011 
   64400    380.52726   -119.47148   0.34430906   -119.12717   -2825.8982    4.2459212    4.2459212    4.2459212   -2825.8982    2241.0781    7950.4037   -18669.176    -2390.714    4928.0776    688.25615    76.544816 
   64500    457.43557   -119.54155   0.41389732   -119.12766    1964.8298    4.2386409    4.2386409    4.2386409    1964.8298   -5868.6426    1698.2708    10064.861   -921.11397   -2477.1655   -1450.5278    76.151745 
   64600    356.02008   -119.45113   0.32213445   -119.12899    7540.8588    4.2395273    4.2395273    4.2395273    7540.8588    8723.5117    22882.087   -8983.0224   -4024.8186    2004.6378    1375.6819    76.199534 
   64700    460.39784   -119.54428   0.41657764    -119.1277    -3341.373    4.2456415    4.2456415    4.2456415    -3341.373   -10904.045   -6570.8042      7450.73   -5451.1147   -714.58691   -3715.6508    76.529691 
   64800    387.65945     -119.478   0.35076241   -119.12724    8555.5221    4.2357733    4.2357733    4.2357733    8555.5221     14111.63     12345.67     -790.734   -11921.748   -2683.4887    1707.0509    75.997293 
   64900    393.45386    -119.4843   0.35600532    -119.1283   -6058.4214    4.2449432    4.2449432    4.2449432   -6058.4214    430.44357   -16198.519   -2407.1887   -1684.4577   -145.66056   -6553.8586    76.491938 
   65000    364.77527   -119.45696   0.33005633   -119.12691    286.14716    4.2435137    4.2435137    4.2435137    286.14716    3751.7138    1903.8655   -4797.1378    -5462.127    -6146.637    263.86917    76.414684 
   65100    459.37117   -119.54118   0.41564869   -119.12553    -3469.811    4.2398751    4.2398751    4.2398751    -3469.811    -3721.624   -9421.0909    2733.2819     634.4192    4763.4183   -957.69702    76.218288 
   65200    315.66033   -119.41318    0.2856161   -119.12756   -1352.8469    4.2449204    4.2449204    4.2449204   -1352.8469    6182.5579     -9532.38    -708.7188   -3093.5707   -2286.0309   -3124.5747    76.490703 
   65300    420.14229   -119.50638   0.38015357   -119.12623   -6207.4017     4.246158     4.246158     4.246158   -6207.4017   -13193.688   -2891.9582   -2536.5586     3278.717    5355.9521    470.38276    76.557626 
   65400    380.28276   -119.47004   0.34408783   -119.12595    6128.1691    4.2357793    4.2357793    4.2357793    6128.1691    2828.8526   -379.76165    15935.416    3627.9765    1987.0457   -1083.4524    75.997616 
   65500    466.51628   -119.54896   0.42211373   -119.12684   -6146.8565    4.2469558    4.2469558    4.2469558   -6146.8565   -8939.2111   -8322.6908   -1178.6676    3883.1808     6116.641   -3831.4031    76.600788 
   65600    330.35143   -119.42512   0.29890892   -119.12621    4023.0899     4.242889     4.242889     4.242889    4023.0899    -5929.449    4566.5617    13432.157   -1368.1055    2734.2694   -178.50007    76.380943 
   65700     454.8768   -119.53704   0.41158209   -119.12546    166.23734    4.2350714    4.2350714    4.2350714    166.23734    313.99126   -3513.5667    3698.2875    -2936.594    5473.0987   -4465.9188    75.959518 
   65800     404.2903   -119.49235   0.36581036   -119.12654   -779.92741    4.2473974    4.2473974    4.2473974   -779.92741    4096.2119   -1334.3921    -5101.602    3485.0038    1976.3971   -4335.5193    76.624682 
   65900    426.82903   -119.51192   0.38620388   -119.12571    -6092.127      4.24268      4.24268      4.24268    -6092.127   -626.79229   -16297.944   -1351.6444    -4961.322    2630.5278     3538.397    76.369654 
   66000    368.03967   -119.45893   0.33301003   -119.12592    3581.8725    4.2363089    4.2363089    4.2363089    3581.8725    2268.1508    11843.334    -3365.867    603.53517    3541.0582   -6712.9799    76.026125 
   66100     411.8806   -119.49988   0.37267822    -119.1272   -5433.5192    4.2502026    4.2502026    4.2502026   -5433.5192    8252.9288   -12098.807    -12454.68   -5001.5107   -2778.9337    3278.8075    76.776606 
   66200    305.38357   -119.40302   0.27631747    -119.1267    2460.4969    4.2413876    4.2413876    4.2413876    2460.4969   -1412.5046   -726.39438    9520.3899    3050.4186    3684.3602     -2383.31    76.299887 
   66300    507.33706    -119.5847   0.45904923   -119.12565    7026.3473    4.2354529    4.2354529    4.2354529    7026.3473    7819.3624     9802.402    3457.2775   -671.57661   -1429.5307   -361.49643    75.980051 
   66400    347.80703   -119.44303   0.31470311   -119.12833   -2763.3741    4.2501429    4.2501429    4.2501429   -2763.3741   -11105.378    177.51077    2637.7448   -647.75627    1077.3015   -2048.9182    76.773367 
   66500    397.90413   -119.48897   0.36003202   -119.12894    1179.8212    4.2353634    4.2353634    4.2353634    1179.8212     177.3479   -475.99128    3838.1071   -2421.7727   -2137.5252   -2213.2352    75.975233 
   66600    295.85648   -119.39722   0.26769716   -119.12952    3658.4116    4.2374988    4.2374988    4.2374988    3658.4116   -215.56849     5523.368    5667.4354   -4568.0425      1605.11   -10251.368    76.090208 
   66700    522.06202   -119.59938   0.47237269     -119.127   -13771.893    4.2493724    4.2493724    4.2493724   -13771.893   -20179.331    -1044.963   -20091.386    3796.6458    1222.1166    372.27652    76.731624 
   66800    395.99296   -119.48561   0.35830275   -119.12731    4492.5923    4.2360382    4.2360382    4.2360382    4492.5923    1840.5484    5335.8994    6301.3291   -4637.2182   -1074.7325   -7664.3037    76.011554 
   66900    307.85861   -119.40744   0.27855694   -119.12888   -5619.5146    4.2444294    4.2444294    4.2444294   -5619.5146   -4660.9643    2806.1096   -15003.689    2706.1588   -253.17796    1359.9437    76.464164 
   67000    443.38574   -119.52783   0.40118473   -119.12664   -2942.6516    4.2466269    4.2466269    4.2466269   -2942.6516   -1388.6488    476.86844   -7916.1745   -3869.0485    -3654.752   -3723.3609    76.582991 
   67100    421.14549   -119.50599   0.38106129   -119.12493    6288.5812    4.2382701    4.2382701    4.2382701    6288.5812    9514.3265    5108.8274    4242.5898    3770.3575    919.94621     2789.404    76.131761 
   67200    501.80866   -119.58132   0.45404702   -119.12727   -5860.6489    4.2430614    4.2430614    4.2430614   -5860.6489    584.29936   -11840.771   -6325.4746   -2420.7852   -3471.2485    2391.2942    76.390255 
   67300    209.95091   -119.31803   0.18996799   -119.12806    9718.8472     4.244918     4.244918     4.244918    9718.8472    17492.838    3490.9858    8172.7176    563.04381   -194.79027    6398.4317    76.490575 
   67400     545.7708    -119.6195   0.49382488   -119.12568   -3945.6533    4.2349232    4.2349232    4.2349232   -3945.6533   -8226.8349   -2585.9962   -1024.1288   -4039.0144   -2032.6143   -3493.8206    75.951545 
   67500    255.30845    -119.3591   0.23100845   -119.12809     9481.494    4.2438045    4.2438045    4.2438045     9481.494    12185.201    16660.633   -401.35224   -1648.7225    1521.1511    5056.2441    76.430393 
   67600    584.70677   -119.65579   0.52905497   -119.12673   -9957.1682    4.2421965    4.2421965    4.2421965   -9957.1682   -10962.737   -10098.679   -8810.0887   -3001.2169     2438.364   -149.30461    76.343548 
   67700    242.86469   -119.34798   0.21974907   -119.12824    4432.0057    4.2402131    4.2402131    4.2402131    4432.0057   -3529.3716    8798.1133    8027.2753   -7093.1098   -823.50771    5392.8387    76.236515 
   67800    555.48244   -119.62979   0.50261218   -119.12718   -10698.351    4.2431388    4.2431388    4.2431388   -10698.351   -9074.5312    -4919.028   -18101.494   -3369.5108    1880.9051   -2788.3446    76.394435 
   67900    262.63943   -119.36603   0.23764167   -119.12839   -3999.7945    4.2449111    4.2449111    4.2449111   -3999.7945    2553.3926   -19675.482    5122.7059   -180.89124   -1185.8405    571.89194    76.490202 
   68000    525.02902   -119.59984   0.47505729   -119.12478   -7057.3741    4.2398767    4.2398767    4.2398767   -7057.3741   -6289.8681   -13853.225   -1029.0296    3746.0828    1641.9582   -1368.3786    76.218374 
   68100    391.26868   -119.48169   0.35402812   -119.12766    2838.1964    4.2430188    4.2430188    4.2430188    2838.1964    2366.8436    7064.6294   -916.88379   -597.97475   -2443.0612    3213.7279     76.38795 
   68200    399.60242   -119.48859   0.36156867   -119.12702   -4677.6314    4.2421948    4.2421948    4.2421948   -4677.6314    6004.5437   -21087.448    1050.0095    6769.0349    97.521456    1620.5545    76.343459 
   68300    329.09043   -119.42471   0.29776793   -119.12694    9670.4799    4.2371249    4.2371249    4.2371249    9670.4799     4037.863    20409.187    4564.3892    2810.1669   -2488.6369   -5937.3843    76.070068 
   68400    431.36305   -119.51711   0.39030635    -119.1268   -2577.7007    4.2438374    4.2438374    4.2438374   -2577.7007    2465.8311   -8107.3734   -2091.5598     4046.286   -17.612518    22.377695    76.432173 
   68500    449.45022     -119.533     0.406672   -119.12633    4309.2921    4.2420753    4.2420753    4.2420753    4309.2921   -6434.6425    15934.736    3427.7831    2411.8175   -874.42633   -42.098038    76.337007 
   68600     360.3105   -119.45261   0.32601651    -119.1266    3398.6405    4.2394965    4.2394965    4.2394965    3398.6405   -1982.5746   -2724.4126    14902.909    -1677.992   -450.49019    7879.3307    76.197871 
   68700    332.09162   -119.42816   0.30048347   -119.12768   -2936.4039    4.2461563    4.2461563    4.2461563   -2936.4039   -8934.1652    4429.6536      -4304.7    1763.3403    30.140844   -2897.3633    76.557534 
   68800    448.40005   -119.53227   0.40572178   -119.12655   -1826.9726    4.2421882    4.2421882    4.2421882   -1826.9726   -10137.686   -11599.727    16256.495     230.8916    1533.0534    6727.0642    76.343099 
   68900    366.43253   -119.45844   0.33155585   -119.12689   -2091.2793    4.2405783    4.2405783    4.2405783   -2091.2793   -4702.5942   -3064.2845    1493.0407    182.22178   -568.37823   -733.15808    76.256216 
   69000    435.35228   -119.52096   0.39391589   -119.12705      -8578.3    4.2440502    4.2440502    4.2440502      -8578.3   -8352.3539   -14091.992   -3290.5537   -3503.1721     236.3254    7166.2143    76.443674 
   69100    366.92691   -119.46004   0.33200318   -119.12804    4361.5922    4.2378693    4.2378693    4.2378693    4361.5922    5087.6546    5838.9836    2158.1385     2601.215   -1670.7076    3636.3379    76.110168 
   69200     481.0045   -119.56323   0.43522298   -119.12801   -4395.4397    4.2418808    4.2418808    4.2418808   -4395.4397    -8477.525    5153.4127    -9862.207   -3107.9911   -1540.4232   -3846.9807    76.326507 
   69300    370.46465   -119.46395    0.3352042   -119.12875    3467.2254     4.241586     4.241586     4.241586    3467.2254    5165.8987    13539.671   -8303.8931    5507.3335    621.81347    614.57588    76.310594 
   69400     388.3902   -119.48045   0.35142362   -119.12902     1172.876    4.2391159    4.2391159    4.2391159     1172.876    2062.3818   -6498.1023    7954.3487   -6749.0944   -1010.6687    1576.0945    76.177354 
   69500    501.69017   -119.58214   0.45393981    -119.1282    -6888.526    4.2475465    4.2475465    4.2475465    -6888.526   -15490.927     1337.278    -6511.929    5550.2168   -473.93536    2769.1117    76.632752 
   69600    335.85546    -119.4322   0.30388908   -119.12831    5780.4344    4.2365084    4.2365084    4.2365084    5780.4344    12117.078   -2670.1435    7894.3683   -4767.0917    1655.4733   -2570.9043    76.036865 
   69700    360.69522   -119.45572   0.32636462   -119.12936   -8925.2359    4.2461255    4.2461255    4.2461255   -8925.2359   -11413.711   -27411.109    12049.113    1044.6898    561.16114    860.56537    76.555866 
   69800    345.86359   -119.44122   0.31294464   -119.12827    7187.8659    4.2425486    4.2425486    4.2425486    7187.8659   -2630.2512    18734.351    5459.4978   -5577.5144     2504.406    8.2684363    76.362562 
   69900    539.05244   -119.61549   0.48774598   -119.12775    1146.4845    4.2346303    4.2346303    4.2346303    1146.4845    2910.8145   -6285.7453    6814.3842   -6235.9822    630.86964    8805.0216    75.935786 
   70000    281.86466    -119.3833   0.25503707   -119.12827    4991.4173    4.2471047    4.2471047    4.2471047    4991.4173    -7062.171    25871.613   -3835.1901   -5775.3724    2501.9594   -243.41583    76.608844 
   70100    381.71273   -119.47364    0.3453817   -119.12826   -5821.4966    4.2391954    4.2391954    4.2391954   -5821.4966   -3133.7854   -12038.901   -2291.8034    -2247.424    2233.2169   -3438.2194    76.181635 
   70200    400.35108   -119.49063   0.36224607   -119.12838    3031.1467    4.2370432    4.2370432    4.2370432    3031.1467    2926.5341    14872.733   -8705.8274   -1501.6119    3162.9438   -1812.8487    76.065665 
   70300    510.60415   -119.58854   0.46200536   -119.12653   -16970.135    4.2513351    4.2513351    4.2513351   -16970.135   -7237.3957   -26577.173   -17095.835   -1811.4997    2726.7154     1028.263    76.837993 
   70400    291.59878   -119.39091   0.26384471   -119.12707   -705.92941    4.2366231    4.2366231    4.2366231   -705.92941    7505.5178   -7088.6773   -2534.6287    2388.5881    71.738375   -3405.9869    76.043042 
   70500    504.93527   -119.58499   0.45687605   -119.12812   -1926.2763    4.2418259    4.2418259    4.2418259   -1926.2763    9545.9185   -6195.2504   -9129.4971   -171.42446    246.87148   -427.33589     76.32354 
   70600    299.32222   -119.39889   0.27083303   -119.12806     5328.827    4.2474957    4.2474957    4.2474957     5328.827     5353.121    10776.128   -142.76743    5208.9435    653.70301   -5834.1739    76.630003 
   70700    462.47696   -119.54429   0.41845887   -119.12583    5855.2864    4.2352984    4.2352984    4.2352984    5855.2864    5637.5529    6060.5085    5867.7977   -672.11947   -816.72155    2839.5921    75.971736 
   70800    320.29854   -119.41773   0.28981285   -119.12791    13326.988    4.2409327    4.2409327    4.2409327    13326.988    6792.6145    28583.517     4604.833   -490.87348   -122.67968   -1910.5713    76.275339 
   70900    539.24643   -119.61474   0.48792151   -119.12682   -8142.1639    4.2453806    4.2453806    4.2453806   -8142.1639    -9897.119    -1104.085   -13425.288    116.01625     -553.057   -2913.7544    76.515584 
   71000    258.38766   -119.36068   0.23379458   -119.12688    6808.9649    4.2371068    4.2371068    4.2371068    6808.9649    3057.2433    14884.133    2485.5188   -454.48247     -3196.31   -5552.6175    76.069093 
   71100    417.15709   -119.50392    0.3774525   -119.12646   -15809.675    4.2428076    4.2428076    4.2428076   -15809.675   -16477.682   -16186.728   -14764.614    4586.3281    3077.3864   -443.51035    76.376545 
   71200    480.95758    -119.5615   0.43518053   -119.12632   -11280.855    4.2475877    4.2475877    4.2475877   -11280.855   -6107.7752   -10532.636   -17202.155   -6893.0316   -3106.9025    3.0417143    76.634982 
   71300    391.80896   -119.48087   0.35451698   -119.12635   -1613.6162    4.2386027    4.2386027    4.2386027   -1613.6162   -4769.1222    1325.7524   -1397.4788    8869.5046    262.38375    188.29999    76.149687 
   71400    409.63923    -119.4987   0.37065018   -119.12805   -4690.2043    4.2415833    4.2415833    4.2415833   -4690.2043    1928.0923   -13688.661   -2310.0439    -1743.524   -1217.6302    -4195.088    76.310446 
   71500    238.48566   -119.34413   0.21578683   -119.12834    14100.953    4.2466248    4.2466248    4.2466248    14100.953    16069.288    16666.199    9567.3707    8810.1988    341.28406    666.62163    76.582874 
   71600    635.57847   -119.70147   0.57508476   -119.12639    912.95834    4.2353118    4.2353118    4.2353118    912.95834    -3774.216    8988.0924   -2475.0014    -3160.937    1562.0825   -418.01092    75.972457 
   71700    212.60131   -119.32182   0.19236613   -119.12945    20518.187    4.2394458    4.2394458    4.2394458    20518.187    19275.991    31647.477    10631.094    7121.4269    1389.3997   -3541.5105    76.195137 
   71800    489.27085   -119.56991   0.44270254   -119.12721   -11803.748    4.2478959    4.2478959    4.2478959   -11803.748   -5899.9515   -11508.239   -18003.055     721.4078    1077.3257   -4654.1997    76.651666 
   71900    318.48915   -119.41643   0.28817567   -119.12825     5412.928    4.2355036    4.2355036    4.2355036     5412.928   -1448.3765    16951.804    735.35691    5816.4428    4366.6332   -4860.3539    75.982776 
   72000    553.64193    -119.6276   0.50094685   -119.12665   -13034.929    4.2435148    4.2435148    4.2435148   -13034.929   -12281.304   -11338.164    -15485.32    1815.3995    2854.5703    -823.6286    76.414745 
   72100    327.93786    -119.4234   0.29672507   -119.12667   -11853.469    4.2494463    4.2494463    4.2494463   -11853.469   -16682.563   -8360.8366   -10517.008   -1213.0888     4096.879    232.18724    76.735624 
   72200    411.68758   -119.49736   0.37250358   -119.12486   -5282.1743    4.2367212    4.2367212    4.2367212   -5282.1743   -7209.3285   -9986.5556    1349.3611    10630.026    1625.7445   -5588.0704    76.048324 
   72300    331.85275   -119.42821   0.30026734   -119.12795    3109.2748    4.2422359    4.2422359    4.2422359    3109.2748   -7968.2699    14018.306    3277.7883   -2663.3645    999.42621    1158.4105    76.345677 
   72400    496.24361   -119.57371   0.44901165    -119.1247   -7393.1209    4.2482204    4.2482204    4.2482204   -7393.1209   -11579.624   -14459.067    3859.3279    2602.0019    3823.9386    1452.0629    76.669231 
   72500    257.26486   -119.35823   0.23277865   -119.12545    21436.791     4.233448     4.233448     4.233448    21436.791    11923.868     34706.21    17680.296   -427.96103    944.16392    2718.2497    75.872204 
   72600    511.41709    -119.5889   0.46274093   -119.12615   -3511.7717    4.2417647    4.2417647    4.2417647   -3511.7717   -7333.5837   -855.09761   -2346.6337   -2380.7639    368.15087    2613.3896    76.320241 
   72700    282.42221   -119.38171   0.25554155   -119.12617    8102.2424    4.2477978    4.2477978    4.2477978    8102.2424    12838.697      17788.3   -6320.2699     4388.682   -1492.3717   -488.50232    76.646354 
   72800    535.11962   -119.60846   0.48418747   -119.12428    -6574.711    4.2353289    4.2353289    4.2353289    -6574.711   -7515.1956    -6301.597   -5907.3403   -3548.9939    1288.8048   -1153.7052    75.973374 
   72900    304.96128   -119.40256   0.27593537   -119.12663   -4136.4271     4.245387     4.245387     4.245387   -4136.4271    3907.1512      242.617   -16559.049    3767.6849    2330.7156    4165.1483    76.515929 
   73000    512.60418    -119.5887   0.46381504   -119.12489   -13068.626    4.2479658    4.2479658    4.2479658   -13068.626   -3799.6629    -17532.02   -17874.195   -245.76665   -3286.4141   -4715.8575    76.655452 
   73100     354.2707   -119.44584   0.32055157   -119.12529    1043.7643    4.2364203    4.2364203    4.2364203    1043.7643   -3961.2623    2622.0726    4470.4827    5924.3766   -904.19991   -3083.5586    76.032124 
   73200    367.33202    -119.4589   0.33236973   -119.12653   -92.956126    4.2448766    4.2448766    4.2448766   -92.956126    2650.1205   -3210.7879     281.7991   -4319.0326    -485.1697   -2566.6964    76.488335 
   73300    378.49976   -119.46785   0.34247454   -119.12538    3918.1601    4.2443822    4.2443822    4.2443822    3918.1601     -2992.68    13456.309    1290.8518    1847.2806    1558.3004   -502.68418    76.461613 
   73400    414.87577    -119.5014   0.37538831   -119.12602    11136.788    4.2349671    4.2349671    4.2349671    11136.788    10314.629    9777.2371    13318.497   -8765.3402   -26.853431    900.94344    75.953907 
   73500    438.35189    -119.5237      0.39663   -119.12707   -1020.2438    4.2453063    4.2453063    4.2453063   -1020.2438   -10093.981    12766.605   -5733.3555    555.40998    1599.0115   -682.30638    76.511566 
   73600    354.14393   -119.44805   0.32043687   -119.12761    -2448.285    4.2409498    4.2409498    4.2409498    -2448.285    14183.667   -10323.054   -11205.468   -6063.9668    2645.8738    220.75516    76.276259 
   73700    475.20356   -119.55687   0.42997416    -119.1269   -8843.2868     4.241063     4.241063     4.241063   -8843.2868   -14216.394    526.99396    -12840.46   -5691.0867    6845.5908    3413.5807    76.282367 
   73800    373.96528   -119.46696   0.33837165   -119.12858   -8633.8665    4.2439374    4.2439374    4.2439374   -8633.8665    -8421.069   -1091.6395   -16388.891    2710.7795    5870.6421    1367.7177    76.437577 
   73900    421.35379   -119.50947   0.38124977   -119.12822   -5229.4855    4.2420169    4.2420169    4.2420169   -5229.4855    8539.2497   -17429.757   -6797.9497    -4087.546    1198.6505   -121.97656    76.333853 
   74000    334.67791    -119.4312    0.3028236   -119.12838    4079.8057    4.2423213    4.2423213    4.2423213    4079.8057   -8216.8941    34555.886   -14099.575    4445.9599    7553.0799   -432.59938    76.350286 
   74100    413.89536   -119.50197   0.37450122   -119.12747    2677.6773    4.2391752    4.2391752    4.2391752    2677.6773    8628.2983   -1033.6281    438.36166   -1268.7772     5599.896   -2355.2381    76.180547 
   74200    354.50314   -119.44775   0.32076189   -119.12699    7796.5071    4.2430059    4.2430059    4.2430059    7796.5071    9284.9605    22744.853   -8640.2928    217.88234    2215.2319    2033.7294    76.387257 
   74300    488.21306   -119.56833   0.44174544   -119.12658   -4714.9103    4.2413924    4.2413924    4.2413924   -4714.9103    4129.6564    -9493.391   -8780.9963    2150.5469   -2217.0386   -5780.5144    76.300144 
   74400     375.2738   -119.46699   0.33955562   -119.12743     5218.109    4.2385271    4.2385271    4.2385271     5218.109    11699.431    9005.8591    -5050.963    572.71084   -4108.3896   -587.15782    76.145617 
   74500    464.37253   -119.54683   0.42017402   -119.12666   -12462.753    4.2457454    4.2457454    4.2457454   -12462.753    -7278.024   -18831.763   -11278.472   -6090.3237    516.56876   -1538.4245    76.535308 
   74600    224.74852   -119.33148   0.20335718   -119.12812    2483.2794    4.2413717    4.2413717    4.2413717    2483.2794    4725.9933     2498.928     224.9168    2156.8353   -2691.6588   -600.93804    76.299028 
   74700    603.12385   -119.67262   0.54571914    -119.1269   -6526.4609     4.240099     4.240099     4.240099   -6526.4609   -7364.7852   -4635.7966    -7578.801   -5722.8764   -2304.6055    2559.7696    76.230362 
   74800    227.99957   -119.33367    0.2062988   -119.12737    6442.0987    4.2465575    4.2465575    4.2465575    6442.0987    7585.0453    7039.7309    4701.5199    4790.7896   -2878.3607   -166.74357    76.579233 
   74900    525.02403   -119.60008   0.47505277   -119.12503    -4530.398    4.2392054    4.2392054    4.2392054    -4530.398   -8883.9081    1922.5957   -6629.8815   -469.82604    3342.7071    -630.9865    76.182178 
   75000    217.05673    -119.3233   0.19639749    -119.1269    13165.085    4.2401889    4.2401889    4.2401889    13165.085    20880.356     22007.24   -3392.3425    2263.3188    6314.7462    5000.6128    76.235214 
   75100    573.74236   -119.64355   0.51913415   -119.12442   -9454.7777    4.2450729    4.2450729    4.2450729   -9454.7777    -491.6416    -9215.469   -18657.223    2594.7656    3075.6338   -1607.4896    76.498946 
   75200    372.09245   -119.46172   0.33667707   -119.12504    7429.6716    4.2397815    4.2397815    4.2397815    7429.6716     2280.516    19667.256    341.24332    4632.2661    1124.5721    3062.4783     76.21324 
   75300    428.69857   -119.51246   0.38789548   -119.12456     -5881.33    4.2404865    4.2404865    4.2404865     -5881.33    9399.5633   -14789.055   -12254.498   -311.32127    6092.4608    1801.0837    76.251267 
   75400    373.35864   -119.46361   0.33782274   -119.12579   -3693.5289    4.2456029    4.2456029    4.2456029   -3693.5289   -12221.415    3395.5018   -2254.6737    2166.2296    5437.8638   -1483.2803    76.527601 
   75500    346.16863   -119.43927   0.31322065   -119.12605    -2455.842    4.2417262    4.2417262    4.2417262    -2455.842   -3289.0416    -7936.562    3858.0775   -5264.1773    2315.7219    4504.7899    76.318163 
   75600    431.02432   -119.51661   0.38999987   -119.12661   -3550.7644     4.240681     4.240681     4.240681   -3550.7644   -3673.7001   -3500.4454   -3478.1477   -1421.7923   -1940.3136   -5604.4933    76.261756 
   75700    406.76981   -119.49478   0.36805387   -119.12673   -566.77958     4.244698     4.244698     4.244698   -566.77958    4022.4615    324.29071    -6047.091    367.07555   -2598.2249    946.67848    76.478683 
   75800    400.06892   -119.48858   0.36199076   -119.12659   -359.34147    4.2410048    4.2410048    4.2410048   -359.34147   -7052.3791    14088.878   -8114.5237   -6157.3539     779.5673   -3336.4925    76.279228 
   75900    413.86331   -119.50263   0.37447222   -119.12816    3600.3961    4.2386281    4.2386281    4.2386281    3600.3961    12870.982    11084.543   -13154.337    4177.2348   -2192.9054     417.6932    76.151058 
   76000    403.90972   -119.49279   0.36546601   -119.12732   -346.91322    4.2448666    4.2448666    4.2448666   -346.91322    10697.778    4564.8365   -16303.354   -14.277142   -4967.6745   -802.57017    76.487794 
   76100    475.69252   -119.55752   0.43041659   -119.12711   -334.80481    4.2397905    4.2397905    4.2397905   -334.80481   -1907.5152    1525.1421   -622.04142    5889.3011   -3558.6758   -457.49806    76.213724 
   76200    319.36142   -119.41645   0.28896493   -119.12748    4543.7847    4.2402226    4.2402226    4.2402226    4543.7847    10493.147    4433.8629   -1295.6554    5280.3598    1439.9661   -156.77395    76.237029 
   76300    404.07213   -119.49264   0.36561295   -119.12703   -5438.3283    4.2464798    4.2464798    4.2464798   -5438.3283   -4071.1949   -4604.6363   -7639.1537    -124.8134    2200.9145     2489.252    76.575032 
   76400    388.96672   -119.47781   0.35194526   -119.12586   -156.39335    4.2403262    4.2403262    4.2403262   -156.39335    505.86484   -5870.3176    4895.2727    1543.4452    1470.8659    642.04438    76.242619 
   76500     379.2257   -119.46882   0.34313138   -119.12569   -1220.9495    4.2417518    4.2417518    4.2417518   -1220.9495   -10192.323    11054.276   -4524.8012    1115.0333    1760.2258    527.77117    76.319541 
   76600    485.67279   -119.56431   0.43944695   -119.12486   -8714.6209    4.2454831    4.2454831    4.2454831   -8714.6209   -5235.2621   -8896.0095   -12012.591    -5439.251    7408.0913    5983.5037    76.521126 
   76700    340.94813   -119.43343   0.30849704   -119.12493    4046.9739     4.240079     4.240079     4.240079    4046.9739    4262.8047    9214.3326   -1336.2156   -9809.4654    5268.0325   -1169.9279    76.229283 
   76800    486.48115   -119.56464   0.44017837   -119.12446    -5567.129    4.2402891    4.2402891    4.2402891    -5567.129   -3242.9956    636.93833    -14095.33   -566.19487    3235.6274    6821.3537    76.240618 
   76900    258.51124   -119.36011    0.2339064   -119.12621    6468.4813    4.2456304    4.2456304    4.2456304    6468.4813    11629.779    7223.3781    552.28623   -10768.397    1108.0558   -249.61808    76.529091 
   77000    546.38984   -119.61965   0.49438501   -119.12527    -2978.456    4.2403763    4.2403763    4.2403763    -2978.456    -2894.846   -6783.0008    742.47875    1461.4138    113.12437    1004.8357    76.245319 
   77100    269.94526   -119.37083   0.24425214   -119.12658     10919.16    4.2392644    4.2392644    4.2392644     10919.16    18242.844    10291.445    4223.1908   -6256.4524    1694.9666    4419.4599     76.18536 
   77200    417.30717   -119.50383    0.3775883   -119.12624   -7950.5902    4.2475577    4.2475577    4.2475577   -7950.5902   -5953.3193    -16077.65   -1820.8015    1255.6152   -2860.6541   -2308.3505    76.633359 
   77300    352.36152   -119.44584   0.31882411   -119.12702    2378.7123    4.2399144    4.2399144    4.2399144    2378.7123     1996.017    6850.3838   -1710.2639    1174.2428   -5228.5881    1286.0499    76.220405 
   77400    515.23041   -119.59288    0.4661913   -119.12669   -5778.5003     4.240091     4.240091     4.240091   -5778.5003    4886.9538   -15436.783   -6785.6712    5361.3911   -4581.0219    -2163.929     76.22993 
   77500    380.44607    -119.4707    0.3442356   -119.12647    -8027.149    4.2466206    4.2466206    4.2466206    -8027.149   -13871.084    4224.4823   -14434.846   -1064.6649    -1777.519    3305.3073     76.58265 
   77600    390.06461   -119.47907   0.35293866   -119.12613   -1304.0355    4.2387606    4.2387606    4.2387606   -1304.0355    7143.6788   -12520.906    1465.1204    1826.2178   -3637.3661   -604.40251    76.158198 
   77700    412.17645   -119.50044   0.37294592   -119.12749    1493.3936    4.2398409    4.2398409    4.2398409    1493.3936    2483.7069    15216.038   -13219.564    28.072547   -3139.9703    3517.2955    76.216445 
   77800    363.91488   -119.45673   0.32927783   -119.12745    2938.4307    4.2451278    4.2451278    4.2451278    2938.4307    23369.773   -14910.873    356.39205    2398.6519   -1670.9071   -633.69775    76.501917 
   77900    399.73606   -119.48831   0.36168959   -119.12662    5639.9546     4.237907     4.237907     4.237907    5639.9546   -5630.0787    14311.238    8238.7044   -1192.0471    2643.4698    2686.4464    76.112201 
   78000    418.96186   -119.50607   0.37908549   -119.12698    1429.3674    4.2415097    4.2415097    4.2415097    1429.3674    21322.153   -10734.825   -6299.2257   -5292.3133    3350.0713   -269.52954    76.306478 
   78100    396.68602    -119.4866   0.35892985   -119.12767   -5381.7579    4.2464061    4.2464061    4.2464061   -5381.7579   -3217.9689   -3946.4292   -8980.8756    3175.1092    3476.9543   -2785.1353    76.571045 
   78200    358.77357   -119.45165   0.32462587   -119.12702   -7106.1614    4.2392651    4.2392651    4.2392651   -7106.1614   -12341.126   -7740.1585   -1237.1999   -1544.4916    -1332.504    2139.3068    76.185396 
   78300    419.40268   -119.50606   0.37948436   -119.12657   -2809.3717    4.2417103    4.2417103    4.2417103   -2809.3717   -776.43999   -926.28847   -6725.3866    3866.9283     887.8403   -5585.8321    76.317302 
   78400    549.41369   -119.62158   0.49712105   -119.12446   -9655.0575    4.2454093    4.2454093    4.2454093   -9655.0575   -6143.2678   -11903.823   -10918.082   -2142.9684    955.34061    4736.4188    76.517137 
   78500     280.9574   -119.38016   0.25421616   -119.12594    7466.7874     4.237832     4.237832     4.237832    7466.7874    4301.1709    11672.483     6426.708    865.85132   -1484.2534   -3674.7041    76.108155 
   78600    392.57469     -119.482   0.35520983   -119.12679   -402.07655    4.2409737    4.2409737    4.2409737   -402.07655    911.18519    5458.2381   -7575.6529     2700.938   -5626.8648     2659.349    76.277553 
   78700    327.31308   -119.42374   0.29615976   -119.12758     7130.049    4.2460939    4.2460939    4.2460939     7130.049    17287.307    9674.2669   -5571.4264    5991.3943   -4985.2062    2180.7965     76.55416 
   78800    523.03555   -119.59829   0.47325356   -119.12503    3972.0646     4.236287     4.236287     4.236287    3972.0646    1428.1527    1917.4923    8570.5487   -1212.3139    2269.5161   -108.15792    76.024948 
   78900    281.91158   -119.38122   0.25507952   -119.12614    3360.8246    4.2445617    4.2445617    4.2445617    3360.8246    12742.536     2604.717   -5264.7789    4025.1658   -661.05643    2850.0108    76.471316 
   79000    454.11112    -119.5375   0.41088929   -119.12661   -5651.9095    4.2446552    4.2446552    4.2446552   -5651.9095   -2873.7601   -7914.1401   -6167.8282    3169.6641    1778.5001    381.28556    76.476366 
   79100    389.34214   -119.47964   0.35228495   -119.12736   -2377.7788    4.2385846    4.2385846    4.2385846   -2377.7788   -280.25481   -6688.6693   -164.41219   -144.30415   -793.08175    2621.4945    76.148714 
   79200    400.76168   -119.48923   0.36261759   -119.12662   -5946.4221    4.2425734    4.2425734    4.2425734   -5946.4221   -4977.8496   -6790.3576    -6071.059    5363.3134    2668.0655    2431.2154    76.363901 
   79300    416.98883   -119.50339   0.37730025   -119.12609   -5943.3968    4.2447556    4.2447556    4.2447556   -5943.3968   -13099.305    1320.5538   -6051.4395    -9460.183    5336.8927    5938.1867    76.481797 
   79400    440.84546   -119.52582   0.39888624   -119.12693    794.92741    4.2370152    4.2370152    4.2370152    794.92741    594.02402   -3310.2747     5101.033    3400.6952   -672.76826    1124.1096    76.064158 
   79500    314.69005   -119.41354   0.28473817    -119.1288    3361.2613    4.2427376    4.2427376    4.2427376    3361.2613    2338.5423    11325.047   -3579.8052   -1531.1138   -307.48138    7676.3611    76.372767 
   79600    418.09093   -119.50632   0.37829746   -119.12802   -2090.6737    4.2428227    4.2428227    4.2428227   -2090.6737   -10162.766   -341.99116     4232.736   -2947.3767    -4621.915    748.91655    76.377364 
   79700    375.20128   -119.46706      0.33949   -119.12757    11060.201     4.238313     4.238313     4.238313    11060.201   -458.55434    13441.767    20197.389    654.41643    2775.9115    4207.6095    76.134075 
   79800    472.90392   -119.55638    0.4278934   -119.12848   -3823.7285    4.2437506    4.2437506    4.2437506   -3823.7285    1717.1584   -11340.167   -1848.1773    1535.7874   -2549.3351     2436.635    76.427486 
   79900    240.29284   -119.34492   0.21742201   -119.12749    1072.7856    4.2444778    4.2444778    4.2444778    1072.7856   -4301.9399    1538.1914    5982.1052     2229.167    3080.3697    560.87031    76.466779 
   80000    505.57145   -119.58334   0.45745167   -119.12589   -4145.2807    4.2383738    4.2383738    4.2383738   -4145.2807   -10949.513     1897.199   -3383.5279    4429.4902   -4894.4788   -761.00645    76.137355 
   80100    412.66515   -119.49974    0.3733881   -119.12635   -6352.9541    4.2450434    4.2450434    4.2450434   -6352.9541    5364.3354   -12761.897   -11661.301    4156.7207    5447.1852    983.75104    76.497354 
   80200    436.72699   -119.52025   0.39515976    -119.1251   -4682.1336    4.2437444    4.2437444    4.2437444   -4682.1336    808.01672   -1259.5548   -13594.863    2073.0837    3982.6171   -1582.2773    76.427147 
   80300    353.07157   -119.44545   0.31946657   -119.12599    2885.8439    4.2375492    4.2375492    4.2375492    2885.8439   -8059.1667    5983.8516    10732.847    12065.396    3644.6365    2603.6853    76.092922 
   80400    468.47737   -119.54972   0.42388817   -119.12583    -1837.177    4.2441653    4.2441653    4.2441653    -1837.177    6646.0667   -397.08127   -11760.517   -1034.7282    4025.5357   -585.30103    76.449891 
   80500    433.98599   -119.51775   0.39267964   -119.12507    3437.0919    4.2412421    4.2412421    4.2412421    3437.0919   -6775.8497    5132.4739    11954.651    4257.2747   -759.82299    66.006773    76.292032 
   80600    348.07497   -119.44149   0.31494554   -119.12655   -624.74686    4.2384048    4.2384048    4.2384048   -624.74686   -4084.1226   -9244.6669    11454.549    2794.1764    4689.7556    880.14539    76.139022 
   80700    380.00625   -119.47204   0.34383764    -119.1282   -1010.5617    4.2445828    4.2445828    4.2445828   -1010.5617      1106.49    -1638.676   -2499.4991    -3105.981   -2029.1385    2827.2249    76.472452 
   80800    369.99989   -119.46176   0.33478367   -119.12697   -620.03531    4.2413868    4.2413868    4.2413868   -620.03531    9545.5791   -13195.796    1790.1107    4002.0253    3532.5886    1175.7621    76.299841 
   80900    424.92531   -119.51062   0.38448135   -119.12614   -1012.9438    4.2394528    4.2394528    4.2394528   -1012.9438    -865.1737   -11730.021    9556.3638   -3808.1254   -5957.4999    -703.9448    76.195515 
   81000    363.85908   -119.45673   0.32922735   -119.12751    1600.1359    4.2463348    4.2463348    4.2463348    1600.1359    19163.854   -11298.879   -3064.5681    3877.1451   -1469.5502   -467.17919    76.567186 
   81100    415.43523   -119.50302   0.37589453   -119.12713   -686.55221    4.2405212    4.2405212    4.2405212   -686.55221    1805.6824   -11031.787    7166.4481    1670.0478   -3188.8579   -2316.9276    76.253137 
   81200    376.82971   -119.46722   0.34096344   -119.12626    1287.3107    4.2403742    4.2403742    4.2403742    1287.3107      9566.09   -12536.328    6832.1702    7791.8487   -2066.8304    1650.3422    76.245208 
   81300    453.14619   -119.53529   0.41001619   -119.12528   -3805.2973     4.244434     4.244434     4.244434   -3805.2973   -5641.3614    1362.0187   -7136.5493    1893.8436   -2256.3765   -458.24053    76.464412 
   81400    443.14532   -119.52785   0.40096719   -119.12688    -5620.019    4.2397268    4.2397268    4.2397268    -5620.019   -5442.5584    -17184.89    5767.3913     6119.319    3059.2978    2228.6611    76.210289 
   81500    319.93211   -119.41781   0.28948129   -119.12833    4595.5561    4.2392049    4.2392049    4.2392049    4595.5561    682.17966    3749.7252    9354.7635     7741.457   -679.28353    450.55149    76.182152 
   81600    395.52653   -119.48536   0.35788072   -119.12748   -8515.9854     4.244724     4.244724     4.244724   -8515.9854    11840.754   -26401.826   -10986.884   -1837.5469    2425.3831    4247.3174    76.480088 
   81700    420.41528   -119.50781   0.38040058   -119.12741    7445.3775     4.238222     4.238222     4.238222    7445.3775    7239.8542    6901.0628    8195.2154    631.25073    2863.4601    2530.5789    76.129169 
   81800    460.06229   -119.54384   0.41627403   -119.12756   -3460.0074    4.2447218    4.2447218    4.2447218   -3460.0074    12643.929    -22698.38   -325.57118   -4637.5057    79.811295    2402.9782    76.479967 
   81900     221.5691   -119.32845   0.20048038   -119.12797     2597.072    4.2418794    4.2418794    4.2418794     2597.072    18270.037   -10110.452   -368.36949    3642.8746    6427.0179    107.13167     76.32643 
   82000     428.8177   -119.51537   0.38800327   -119.12737   -2055.6994    4.2412506    4.2412506    4.2412506   -2055.6994   -4461.8636   -14312.513    12607.279   -4497.3366   -4407.4157    2111.6445    76.292491 
   82100    440.38479   -119.52537   0.39846941    -119.1269   -2234.3412    4.2436713    4.2436713    4.2436713   -2234.3412   -1956.0553     -377.496   -4369.4724    5332.0557    -179.5885   -262.26559    76.423197 
   82200    447.63843   -119.53065   0.40503266   -119.12561   -7562.5577    4.2410356    4.2410356    4.2410356   -7562.5577   -7292.1425   -13653.996   -1741.5346   -1382.0305   -2681.7131   -3477.4676    76.280888 
   82300    267.12451   -119.36872   0.24169987   -119.12702    9052.7348    4.2388697    4.2388697    4.2388697    9052.7348   -1320.6417    10192.696     18286.15    4537.1319   -2975.5527    1288.9513    76.164082 
   82400    510.86225   -119.58908    0.4622389   -119.12684   -7659.0292       4.2462       4.2462       4.2462   -7659.0292   -6378.2789   -15711.083   -887.72603    4305.3481   -2752.2042   -5551.2798    76.559899 
   82500    384.13857    -119.4746   0.34757665   -119.12703    14495.598    4.2363912    4.2363912    4.2363912    14495.598    22429.323    11954.467    9103.0031    522.06035   -1479.5033   -27.808724    76.030557 
   82600    489.79089   -119.56946   0.44317309   -119.12629   -3679.0585    4.2413315    4.2413315    4.2413315   -3679.0585   -6826.7718   -10609.115     6398.711    1375.3699    776.22285   -4500.0956    76.296858 
   82700    301.99603    -119.4009   0.27325235   -119.12765    1367.2145    4.2449315    4.2449315    4.2449315    1367.2145    19182.516   -15103.009    22.135954    571.73227    2943.0972   -1284.4858    76.491303 
   82800    512.74032   -119.59036   0.46393822   -119.12642    -8117.921    4.2393636    4.2393636    4.2393636    -8117.921   -11934.059   -6823.9474   -5595.7569    599.33331    2905.6713   -210.25389    76.190709 
   82900    289.17974   -119.39023   0.26165591   -119.12858   -4832.7968    4.2433738    4.2433738    4.2433738   -4832.7968   -271.22235   -16335.464    2108.2957   -5889.6876    1916.6663    1646.8759    76.407126 
   83000    538.40643   -119.61371   0.48716145   -119.12655   -16126.518    4.2445273    4.2445273    4.2445273   -16126.518     -17735.9   -17790.266   -12853.386    1383.0947    8941.9854    876.75071    76.469455 
   83100    320.77665   -119.41798   0.29024546   -119.12773    6047.1728    4.2372249    4.2372249    4.2372249    6047.1728   -1132.7887    8932.1415    10342.166   -5425.0802    1338.8372     6180.172    76.075452 
   83200    435.88423   -119.52214   0.39439721   -119.12775   -7343.4844    4.2440182    4.2440182    4.2440182   -7343.4844   -5951.3965   -15925.252   -153.80467    2600.0099     5287.027    4898.6963    76.441944 
   83300     268.9008   -119.37058    0.2433071   -119.12728    9753.3109    4.2425666    4.2425666    4.2425666    9753.3109    14377.493    4780.8108    10101.629    1171.6802   -2608.0044     4667.907    76.363531 
   83400     545.2435   -119.61912   0.49334778   -119.12577    7759.9372    4.2362541    4.2362541    4.2362541    7759.9372    14084.391      4458.92    4736.5001    617.40569     1950.292      3717.64    76.023173 
   83500    321.74183   -119.41872   0.29111877    -119.1276    8405.3812    4.2460074    4.2460074    4.2460074    8405.3812    5882.1262    2888.4603    16445.557    3182.2244    2012.5878   -204.99483    76.549478 
   83600    320.15925   -119.41585   0.28968682   -119.12616    5543.9093    4.2417979    4.2417979    4.2417979    5543.9093    20018.388    614.50414   -4001.1638     3675.366   -717.67474    -345.2137    76.322031 
   83700    374.84261   -119.46475   0.33916547   -119.12559   -205.04041    4.2383369    4.2383369    4.2383369   -205.04041   -5687.1207   -8054.4621    13126.462    4588.6814    3878.8792   -1391.9725    76.135364 
   83800    492.52357   -119.57147   0.44564567   -119.12582   -6990.4288    4.2463942    4.2463942    4.2463942   -6990.4288   -5228.1429   -8060.3452   -7682.7984   -129.84876   -2787.0946   -5450.0411    76.570404 
   83900    437.09941   -119.52099   0.39549673    -119.1255   -14951.182     4.245061     4.245061     4.245061   -14951.182   -17484.234   -10091.434    -17277.88    1803.6542    7081.6843    90.231603    76.498303 
   84000    281.57659   -119.38043   0.25477642   -119.12565   -5296.6896    4.2364257    4.2364257    4.2364257   -5296.6896   -5127.8252   -15923.145    5160.9014   -3255.5145    2120.4715   -941.58129    76.032417 
   84100    507.86966   -119.58573   0.45953114   -119.12619   -11402.726    4.2486167    4.2486167    4.2486167   -11402.726   -18581.777   -11866.188   -3760.2134    1838.7891    1758.4625    425.59755    76.690694 
   84200    426.24132   -119.51143    0.3856721   -119.12576    500.72298    4.2413507    4.2413507    4.2413507    500.72298    3339.4128    -1528.457   -308.78688   -4011.3947    2211.3571    5618.1576    76.297895 
   84300    437.71256   -119.52121   0.39605152   -119.12516     3685.427    4.2359058    4.2359058    4.2359058     3685.427     4492.437   -2053.4144    8617.2584   -3520.0013    3260.0447    7001.0542    76.004425 
   84400    323.08043    -119.4193   0.29232996   -119.12697    10099.048    4.2456499    4.2456499    4.2456499    10099.048    10267.631     2870.265    17159.247   -377.27915    3397.2874    4200.8053    76.530147 
   84500    441.24375   -119.52545   0.39924661    -119.1262    2695.5459    4.2420229    4.2420229    4.2420229    2695.5459    20503.022   -8916.8859   -3499.4988   -3316.7992    778.67777    6213.9894    76.334175 
   84600    399.17406   -119.48645   0.36118108   -119.12527    13479.308    4.2351266    4.2351266    4.2351266    13479.308    6769.8818    17526.795    16141.246    706.61871    -748.5848    2468.4111    75.962487 
   84700    372.61299   -119.46293   0.33714806   -119.12578    -5768.991     4.247948     4.247948     4.247948    -5768.991     4756.339   -27008.424    4945.1125   -681.29714   -1170.5828    1865.6462    76.654488 
   84800    372.63406   -119.46427   0.33716713    -119.1271   -4623.1033    4.2417312    4.2417312    4.2417312   -4623.1033   -9288.2179    2492.7501    -7073.842   -1191.9674     5186.037    1716.7776    76.318429 
   84900    391.74638   -119.48143   0.35446036   -119.12697   -2876.6899    4.2377583    4.2377583    4.2377583   -2876.6899   -8445.1288   -9729.3646    9544.4237   -202.93822   -3299.6124   -6976.6349    76.104187 
   85000    332.72437   -119.42726     0.301056    -119.1262   -11892.424    4.2478061    4.2478061    4.2478061   -11892.424   -10691.981   -21131.918   -3853.3734    2408.8644   -2071.7561   -328.83117    76.646802 
   85100    497.71211   -119.57508   0.45034038   -119.12474   -5392.8732    4.2412184    4.2412184    4.2412184   -5392.8732   -412.09044   -5611.8495    -10154.68   -1653.0179   -1058.2692   -3147.1194    76.290757 
   85200     396.0291   -119.48581   0.35833545   -119.12747    8023.3573    4.2364811    4.2364811    4.2364811    8023.3573    7290.9029     12689.51    4089.6593    4792.4809   -1581.2825    1874.9419    76.035396 
   85300    437.69586   -119.52377   0.39603641   -119.12773   -4357.1014    4.2469268    4.2469268    4.2469268   -4357.1014    3032.2761   -6746.6867   -9356.8936    3061.0503    3215.9411   -2408.0608    76.599219 
   85400    260.77357   -119.36271   0.23595341   -119.12675    15830.212    4.2381112    4.2381112    4.2381112    15830.212    27813.989    16284.186    3392.4611    -1959.872   -3312.0464    3371.2747      76.1232 
   85500    533.17931   -119.60818   0.48243185   -119.12575   -1372.5465    4.2380667    4.2380667    4.2380667   -1372.5465    -3309.242   -1223.4051    415.00747    3461.9838    1835.5728    1540.0904    76.120802 
   85600    356.41428   -119.44942   0.32249113   -119.12693    4410.3834    4.2468461    4.2468461    4.2468461    4410.3834    6379.0461    4752.6546    2099.4496   -7165.4285    1460.6814    5779.0704    76.594848 
   85700    353.15941   -119.44595   0.31954606    -119.1264   -6829.8392    4.2411732    4.2411732    4.2411732   -6829.8392   -5256.2683   -11489.013   -3744.2363    1922.1341    6696.8627   -3042.9733    76.288314 
   85800    347.99649    -119.4414   0.31487454   -119.12653   -4453.3118    4.2392053    4.2392053    4.2392053   -4453.3118    -6907.179   -12652.924    6200.1678   -2560.9613     2386.012    1216.5135    76.182172 
   85900    493.07069   -119.57179   0.44614072   -119.12565    -8468.815    4.2477024    4.2477024    4.2477024    -8468.815   -5262.8642   -10801.703   -9341.8776   -777.43745    35.787527    1715.0823    76.641193 
   86000    394.62996   -119.48187   0.35706948    -119.1248   -6950.7358     4.240698     4.240698     4.240698   -6950.7358    2174.3134   -6941.8332   -16084.687    327.19652    4604.8296   -2876.6979    76.262675 
   86100    375.93515   -119.46613   0.34015402   -119.12598    5162.6857    4.2374241    4.2374241    4.2374241    5162.6857    10710.285    289.95534     4487.817     5146.688    2009.8063    2300.1349    76.086182 
   86200     441.7963   -119.52703   0.39974658   -119.12729    710.59027    4.2464784    4.2464784    4.2464784    710.59027    16979.215    366.47632   -15213.921    4041.0999    3977.1185   -4457.2467    76.574957 
   86300    449.88403   -119.53297   0.40706453    -119.1259    5397.7023    4.2379629    4.2379629    4.2379629    5397.7023    20004.028    2782.9055   -6593.8265    6547.9624   -4151.0653   -634.62911     76.11521 
   86400    342.53694   -119.43672   0.30993462   -119.12678     8787.984    4.2380477    4.2380477    4.2380477     8787.984    6985.4212    17131.061    2247.4694    4272.1735   -296.40953    2398.9437    76.119777 
   86500    393.25655   -119.48284   0.35582679   -119.12701    -5271.103    4.2471636    4.2471636    4.2471636    -5271.103    767.18829   -17906.271    1325.7736    2031.8118    3165.6875   -1826.6468    76.612029 
   86600    421.96893   -119.50831   0.38180636   -119.12651    2742.0247    4.2392939    4.2392939    4.2392939    2742.0247    2594.4797    18125.635   -12494.041    7161.8636    4357.5767    1778.4929    76.186947 
   86700    362.85037   -119.45436   0.32831464   -119.12604   -4823.8751    4.2397821    4.2397821    4.2397821   -4823.8751   -7867.9142   -12451.583    5847.8715   -3078.5762    1798.7447    2530.8643    76.213274 
   86800    317.70643   -119.41367   0.28746745    -119.1262   -9363.5097    4.2489611    4.2489611    4.2489611   -9363.5097    2961.4077   -15026.231   -16025.705    1316.6763   -1491.7357   -2389.0294    76.709346 
   86900    526.15938   -119.60158   0.47608006    -119.1255   -261.27539    4.2381155    4.2381155    4.2381155   -261.27539    2870.5697    7945.8705   -11600.266   -3400.5387     7373.022    2651.9686     76.12343 
   87000    360.13868   -119.45369   0.32586105   -119.12783    2227.2009     4.239774     4.239774     4.239774    2227.2009    21573.276   -4076.0031   -10815.671   -2588.0486   -834.38658   -1577.7876    76.212834 
   87100    397.76603   -119.48616   0.35990706   -119.12625   -5051.0147    4.2479018    4.2479018    4.2479018   -5051.0147    10852.229   -8058.5395   -17946.734   -2576.3602    455.05301   -1706.8971    76.651984 
   87200    331.84673   -119.42657    0.3002619    -119.1263    11091.606    4.2348481    4.2348481    4.2348481    11091.606     15572.02    20475.381   -2772.5812    644.20573   -10444.723    4996.8894    75.947505 
   87300    509.64848   -119.58793   0.46114066   -119.12679   -3993.7424    4.2407662    4.2407662    4.2407662   -3993.7424   -2377.2002    5057.9492   -14661.976   -2326.0181   -4104.3069    -1703.293    76.266356 
   87400    298.99243   -119.39676   0.27053463   -119.12622    1745.7125    4.2463643    4.2463643    4.2463643    1745.7125    10639.963   -97.111745   -5305.7141    6202.6042    354.70227    2693.7534    76.568783 
   87500    444.78054   -119.52804   0.40244678    -119.1256   -6537.4673    4.2375924    4.2375924    4.2375924   -6537.4673    479.37786   -7664.9238   -12426.856    3652.6991   -6103.7295    2520.0768    76.095251 
   87600    401.66117   -119.49013   0.36343147    -119.1267    970.11711    4.2418921    4.2418921    4.2418921    970.11711    11009.683   -2234.6144   -5864.7175    5943.0651   -3810.7058   -627.60896    76.327115 
   87700    479.63792   -119.55956   0.43398647   -119.12558   -9980.0248    4.2477035    4.2477035    4.2477035   -9980.0248    1617.6162    -18610.73   -12946.961    4296.8462   -2363.9893    2538.9557    76.641249 
   87800    269.37552   -119.36897   0.24373663   -119.12524     3626.248    4.2382458    4.2382458    4.2382458     3626.248    18236.582   -18137.274    10779.436    1074.6625    5308.1358   -1737.9984    76.130452 
   87900    514.54064   -119.59175   0.46556719   -119.12618    -1480.451    4.2426433    4.2426433    4.2426433    -1480.451    7107.2741   -7395.6744   -4152.9526   -3362.5429    195.46301   -4843.2074    76.367676 
   88000    326.13688   -119.42269    0.2950955   -119.12759    4000.7922    4.2452638    4.2452638    4.2452638    4000.7922    12740.287   -3941.0313    3203.1207    2227.1987     176.0099    24.904179    76.509266 
   88100    359.45261   -119.45158   0.32524028   -119.12634    941.73298    4.2379107    4.2379107    4.2379107    941.73298    9160.7462   -4815.5793    -1519.968   -3771.1477   -3030.7722   -4185.4289    76.112397 
   88200     361.2675   -119.45381   0.32688243   -119.12692    6393.1362    4.2415444    4.2415444    4.2415444    6393.1362    15068.215    8635.8438   -4524.6504    460.86329    2299.3206   -5046.6404    76.308348 
   88300    507.16877   -119.58498   0.45889696   -119.12609   -3395.0716    4.2437731    4.2437731    4.2437731   -3395.0716    20153.222   -18359.185   -11979.252    2435.4006    886.43964    642.16963    76.428701 
   88400    455.11972   -119.53769   0.41180189   -119.12589    1815.6403    4.2383919    4.2383919    4.2383919    1815.6403    4639.2036    10628.765   -9821.0481   -290.34332   -5944.1021    -3262.748    76.138329 
   88500    278.00452   -119.37865   0.25154433    -119.1271   -1540.0359    4.2420923    4.2420923    4.2420923   -1540.0359    21793.645   -22463.237   -3950.5161    901.72102   -8185.3098   -193.07705    76.337923 
   88600    459.95403   -119.54369   0.41617607   -119.12751   -11386.704    4.2445443    4.2445443    4.2445443   -11386.704   -8875.9516   -13982.903   -11301.257    1867.2469   -3236.8456   -2191.3337    76.470376 
   88700    402.50883   -119.49067   0.36419845   -119.12648    1189.5707    4.2394389    4.2394389    4.2394389    1189.5707    12531.166    -17651.94    8689.4859   -6558.5164   -886.39149   -5797.0261    76.194765 
   88800    384.88713   -119.47497   0.34825396   -119.12671   -10391.262    4.2438349    4.2438349    4.2438349   -10391.262   -8222.7966   -11586.182   -11364.806   -30.183118    -5422.243    1002.3234    76.432036 
   88900    294.44733   -119.39364   0.26642213   -119.12722    336.78246      4.24274      4.24274      4.24274    336.78246    24087.237   -22429.171   -647.71855    -1504.406   -5830.6781   -1060.5183    76.372896 
   89000    493.24009   -119.57369     0.446294    -119.1274    4381.0581    4.2405405    4.2405405    4.2405405    4381.0581     12574.08    8852.3287   -8283.2339   -1585.3564   -2398.9253   -3390.8083    76.254176 
   89100    419.61889   -119.50673   0.37967999   -119.12705    4646.6331    4.2401538    4.2401538    4.2401538    4646.6331     37512.46   -16810.567   -6761.9943    5105.5449    2111.8388    3999.1222    76.233318 
   89200    372.49932   -119.46497   0.33704522   -119.12793    3732.0744    4.2429836    4.2429836    4.2429836    3732.0744    11893.585    5552.3948   -6249.7564    4970.0796    906.61287    2008.0349    76.386052 
   89300    385.42233   -119.47658   0.34873823   -119.12784    794.83855    4.2386364    4.2386364    4.2386364    794.83855    11348.938   -12608.164    3643.7415      8044.23   -1994.8823    128.59244    76.151507 
   89400    420.49805   -119.50922   0.38047548   -119.12875   -1181.9702    4.2410567    4.2410567    4.2410567   -1181.9702   -158.03212    9370.5444   -12758.423    5687.6355      -5478.2    1834.3983    76.282028 
   89500    386.81713   -119.47836   0.35000027   -119.12836   -4352.5325    4.2434742    4.2434742    4.2434742   -4352.5325    417.41131   -14751.829    1276.8198    2334.8214    511.23846   -2759.4922    76.412552 
   89600    389.08891   -119.48047   0.35205582   -119.12842   -3133.3684    4.2389301    4.2389301    4.2389301   -3133.3684    5275.6335   -11182.748   -3492.9908   -3372.8261   -2289.3098    1828.7775    76.167334 
   89700    457.57693   -119.54297   0.41402522   -119.12894   -1309.3774    4.2429664    4.2429664    4.2429664   -1309.3774    17753.812   -11016.773   -10665.171    294.05435    -4056.705    18.538767     76.38512 
   89800    348.46155   -119.44406   0.31529533   -119.12876    1444.1616    4.2423575    4.2423575    4.2423575    1444.1616    24643.753   -9115.3606   -11195.907   -2544.4004   -2203.7699    -5461.762    76.352239 
   89900     444.0978   -119.52926   0.40182903   -119.12743   -5165.0819    4.2394613    4.2394613    4.2394613   -5165.0819     15246.97   -21057.403   -9684.8125   -848.72043   -3136.4236    77.288098    76.195974 
   90000    356.14866   -119.44972   0.32225079   -119.12747    4552.1165    4.2417841    4.2417841    4.2417841    4552.1165    17627.184    5375.0688   -9345.9038    3143.0606    5575.5843    2421.5286    76.321288 
   90100    509.33708    -119.5876   0.46085889   -119.12674   -8017.4088    4.2418156    4.2418156    4.2418156   -8017.4088   -7110.2659   -7867.6339   -9074.3266    679.55074     440.6725   -3562.2622    76.322988 
   90200    189.06297   -119.30003   0.17106815   -119.12896    9361.4516    4.2390697    4.2390697    4.2390697    9361.4516    11615.816    11352.284    5116.2546    6349.2612   -1480.4551    2166.2437    76.174863 
   90300    556.91924   -119.63221   0.50391224    -119.1283   -6635.8542    4.2427272    4.2427272    4.2427272   -6635.8542   -3160.2388   -6814.0593   -9933.2644    2711.4232   -129.43717   -3867.6538    76.372202 
   90400    306.28341   -119.40635   0.27713166   -119.12922    8142.3406    4.2413334    4.2413334    4.2413334    8142.3406    25695.195   -4480.8677    3212.6941    5758.5096    710.31596    2444.8402    76.296959 
   90500    546.07077   -119.62076    0.4940963   -119.12666   -4368.4697    4.2400504    4.2400504    4.2400504   -4368.4697   -8608.2745    5944.4952    -10441.63    382.08794    1689.6705   -310.84879     76.22774 
   90600    208.25746   -119.31766   0.18843573   -119.12922     3644.527    4.2451161    4.2451161    4.2451161     3644.527    30427.837   -20065.012    570.75593    6754.2193   -2363.4208   -3048.6847    76.501281 
   90700    596.31731   -119.66731   0.53956043   -119.12774   -12880.897     4.241537     4.241537     4.241537   -12880.897    -6964.749    -14555.91   -17122.032   -5104.4417   -3763.5646    1198.9637     76.30795 
   90800    299.51463   -119.39965   0.27100713   -119.12864    6269.9855    4.2380462    4.2380462    4.2380462    6269.9855    12887.413    4158.5493    1763.9938    8136.4469    3302.8983    2430.5363    76.119699 
   90900     456.3004   -119.54039   0.41287019   -119.12752   -15533.231    4.2462044    4.2462044    4.2462044   -15533.231    -7768.246   -16952.489   -21878.957    684.53128    2403.8621    59.180572    76.560137 
   91000    277.29547   -119.37967   0.25090277   -119.12876    10577.524    4.2381182    4.2381182    4.2381182    10577.524        23570     9524.194   -1361.6205    6872.9672   -1577.7665    2619.0618     76.12358 
   91100    550.70228   -119.62692   0.49828699   -119.12863   -1784.3854    4.2388546    4.2388546    4.2388546   -1784.3854    3190.0135   -109.63411   -8433.5357    5766.8197   -2611.4373   -947.95007    76.163265 
   91200    341.32171   -119.43674   0.30883506   -119.12791    4699.4751    4.2450433    4.2450433    4.2450433    4699.4751    17956.882    7961.5224   -11819.979    2362.3936   -172.80308    1014.2033    76.497346 
   91300    424.71642   -119.51055   0.38429234   -119.12626    2249.3958    4.2369233    4.2369233    4.2369233    2249.3958    3161.8409    7285.5532   -3699.2068    1375.6512    6646.9145    2839.7148    76.059207 
   91400    338.74664   -119.43392   0.30650507   -119.12742    -95.39852    4.2407526    4.2407526    4.2407526    -95.39852    1676.8064    5393.1303   -7356.1323    1156.4717   -99.214271   -5301.6896    76.265619 
   91500    505.15162   -119.58431    0.4570718   -119.12723   -5496.8244    4.2449658    4.2449658    4.2449658   -5496.8244    1773.4872   -9795.6961   -8468.2642   -3313.1081    624.06463    -492.7018    76.493159 
   91600    287.64731   -119.38856   0.26026933   -119.12829    1755.3806    4.2375953    4.2375953    4.2375953    1755.3806    11766.821   -1784.1422   -4716.5374    -783.7838   -3642.2636    -1726.522    76.095408 
   91700    474.11609   -119.55838    0.4289902   -119.12939   -8946.2852    4.2435733    4.2435733    4.2435733   -8946.2852    1597.1408   -19485.168   -8950.8285    3410.1418    5681.3552   -1191.5271    76.417907 
   91800    298.25961   -119.39957   0.26987157   -119.12969    6601.3248    4.2433386    4.2433386    4.2433386    6601.3248    30515.342    8369.4785   -19080.847    2679.3251   -2499.9621   -324.78303    76.405224 
   91900    506.06078   -119.58515   0.45789443   -119.12726   -5057.2302    4.2374047    4.2374047    4.2374047   -5057.2302    3510.2225   -9078.5354   -9603.3779    6231.4608    1186.5052   -1716.7564    76.085136 
   92000    253.69793   -119.35814   0.22955121   -119.12859    7833.2195    4.2435729    4.2435729    4.2435729    7833.2195    30894.772    12937.084   -20332.198    7020.5376   -2446.9513    1963.4518    76.417881 
   92100    613.38804   -119.68215   0.55500639   -119.12714   -10894.209    4.2421634    4.2421634    4.2421634   -10894.209   -5683.8293   -7611.6275   -19387.171    4443.3049    3246.1438    4857.2459    76.341763 
   92200    275.17078   -119.37817    0.2489803   -119.12919      8378.93    4.2356482    4.2356482    4.2356482      8378.93    11198.643    31296.112   -17357.965    7525.7651    7483.4782    2298.1318    75.990561 
   92300    459.87749   -119.54364   0.41610682   -119.12754   -12474.768     4.245481     4.245481     4.245481   -12474.768   -9660.8816   -18202.211   -9561.2115    -411.6483   -1863.6536   -977.05283    76.521012 
   92400    252.92646   -119.35805   0.22885317   -119.12919    4615.1177    4.2403423    4.2403423    4.2403423    4615.1177    20756.775    2217.8998   -9129.3214   -2077.2498    1284.5516     1816.931    76.243485 
   92500    635.35826   -119.70325   0.57488551   -119.12836   -3798.3318    4.2388108    4.2388108    4.2388108   -3798.3318   -5392.2199   -2577.4395   -3425.3358   -1541.8635    -158.3286   -1979.8188    76.160903 
   92600    180.78742    -119.2945   0.16358026   -119.13092    6985.1423    4.2436899    4.2436899    4.2436899    6985.1423    33257.501    -3712.626   -8589.4484   -3268.8129    2575.4864   -174.40335    76.424202 
   92700    445.85696   -119.53315   0.40342075   -119.12973   -3021.3483    4.2396368    4.2396368    4.2396368   -3021.3483    7734.9323   -11530.823   -5268.1539   -2170.5025   -1965.2151   -5023.2878    76.205437 
   92800    345.29287   -119.44251   0.31242825   -119.13008    10112.285    4.2385736    4.2385736    4.2385736    10112.285    16735.009    30774.997   -17173.152   -994.43625    1534.3264   -464.88927    76.148121 
   92900    595.16128   -119.66642   0.53851444   -119.12791    -7408.185    4.2418996    4.2418996    4.2418996    -7408.185   -1865.4022   -8361.6695   -11997.483   -4854.7839   -2214.4044    328.12231    76.327518 
   93000    206.17913   -119.31541   0.18655521   -119.12885    5460.4682    4.2415721    4.2415721    4.2415721    5460.4682    4814.9951    28656.022   -17089.613    2719.0186    8555.3004   -819.77281    76.309842 
   93100    442.85896   -119.52948   0.40070809   -119.12878   -9233.6585     4.239396     4.239396     4.239396   -9233.6585   -7648.8567   -4162.5924   -15889.526    1964.8495    4907.7307   -911.68178    76.192456 
   93200    342.32629   -119.43914   0.30974402    -119.1294    1005.7245    4.2442258    4.2442258    4.2442258    1005.7245    16894.268    4642.1318   -18519.226    1270.4076    124.36223   -6149.5116    76.453159 
   93300    552.20576   -119.62634   0.49964738   -119.12669   -10035.551    4.2415168    4.2415168    4.2415168   -10035.551   -7733.2924   -8849.5319   -13523.827    5381.1309    5378.5642    2471.1041    76.306858 
   93400    245.48994   -119.34993   0.22212446    -119.1278    1260.0429     4.240283     4.240283     4.240283    1260.0429    20340.136   -2441.5705   -14118.437   -4196.1526   -709.28956   -4667.4751    76.240288 
   93500    524.28979   -119.60192   0.47438842   -119.12753   -5967.5655    4.2435332    4.2435332    4.2435332   -5967.5655   -220.48916    -5057.152   -12625.055      4488.53    3622.8006    -4189.505    76.415741 
   93600    346.14023   -119.44164   0.31319496   -119.12844    4165.2474    4.2403645    4.2403645    4.2403645    4165.2474    1549.0183    12102.642   -1155.9182    -3474.475   -4784.3616   -3009.6803    76.244685 
   93700     494.7862   -119.57447   0.44769296   -119.12678    1161.6023    4.2391095    4.2391095    4.2391095    1161.6023    2191.5884    6240.4207   -4947.2022    2674.5994   -592.05639    2031.9941    76.177006 
   93800     356.9938   -119.45123   0.32301549   -119.12822    4595.9054    4.2422925    4.2422925    4.2422925    4595.9054     4702.758    4866.5617    4218.3965   -1874.2896   -1728.2396    1238.1895    76.348734 
   93900    437.35545   -119.52374   0.39572841   -119.12801    1195.3215    4.2396171    4.2396171    4.2396171    1195.3215    3294.5973    7906.4395   -7615.0723    3601.5999    1270.9568    1789.8302    76.204376 
   94000    374.52356   -119.46657   0.33887679    -119.1277    2686.2028    4.2417157    4.2417157    4.2417157    2686.2028    22903.493   -5556.2673   -9288.6167    -773.1548   -510.74761   -2813.8459    76.317596 
   94100    321.79831   -119.41846   0.29116987   -119.12729   -5526.1671    4.2418903    4.2418903    4.2418903   -5526.1671    12401.696   -15497.666   -13482.531    3973.5272     377.0576   -671.21344    76.327019 
   94200    522.89236   -119.60006   0.47312399   -119.12693   -8067.1461    4.2413144    4.2413144    4.2413144   -8067.1461    572.69643   -6641.1274   -18133.007   -2941.4321    -2368.562    4994.8533    76.295934 
   94300    377.96635   -119.47076    0.3419919   -119.12877   -4208.5575    4.2425155    4.2425155    4.2425155   -4208.5575    6568.2922   -1424.4902   -17769.474   -5855.9853    5956.3121    -4617.537     76.36077 
   94400    384.03427   -119.47757   0.34748228   -119.13009   -4467.2239    4.2381381    4.2381381    4.2381381   -4467.2239    3206.5478   -7843.1164   -8765.1032   -937.59121    1749.5162     105.6046     76.12465 
   94500    320.78715   -119.42081   0.29025495   -119.13056    7770.7302    4.2405897    4.2405897    4.2405897    7770.7302   -5991.2832    32672.987   -3369.5128   -6513.8784    2435.4285   -1863.5801     76.25683 
   94600    532.08512   -119.61203    0.4814418   -119.13059   -906.74944    4.2397142    4.2397142    4.2397142   -906.74944    10913.507   -2547.7887   -11085.967    6188.2255    2026.2301    3217.2423    76.209609 
   94700    245.76705    -119.3544   0.22237519   -119.13203    11410.793    4.2374507    4.2374507    4.2374507    11410.793    9648.8062    11757.252    12826.322   -2472.6022   -1134.4918    2562.0945    76.087614 
   94800    429.62353   -119.51943    0.3887324    -119.1307    -9729.996    4.2450717    4.2450717    4.2450717    -9729.996    2559.3272   -16043.371   -15705.944    3314.9062    2378.4454   -1183.2216    76.498884 
   94900    383.58754   -119.47793   0.34707807   -119.13085     6548.893    4.2374097    4.2374097    4.2374097     6548.893     7360.116    15022.526   -2735.9625   -6486.2686   -3902.7805   -4838.8887    76.085406 
   95000     490.9975   -119.57451   0.44426485   -119.13024   -7335.9825    4.2418894    4.2418894    4.2418894   -7335.9825   -15.024736   -9756.1933    -12236.73    1786.0222   -575.53872     1385.344    76.326968 
   95100    198.65439   -119.30858   0.17974667   -119.12883   -1297.1187    4.2449168    4.2449168    4.2449168   -1297.1187   -7262.8288    19391.154   -16019.681   -3015.1073   -3603.0375   -430.42909    76.490506 
   95200    481.22734   -119.56284   0.43542461   -119.12742    18.856195    4.2368639    4.2368639    4.2368639    18.856195    5329.6538    7253.5314   -12526.617    785.68023    1177.3771    5096.8971    76.056012 
   95300    492.10347   -119.57337   0.44526556    -119.1281   -4095.8728    4.2434213    4.2434213    4.2434213   -4095.8728   -10263.307    12079.926   -14104.238   -4771.0126   -1183.4239   -387.56628    76.409692 
   95400    417.33526   -119.50425   0.37761372   -119.12664    -2355.501    4.2431825    4.2431825    4.2431825    -2355.501   -4566.4887    7532.5555    -10032.57   -903.89261   -568.71543    5217.0933    76.396794 
   95500    289.47756   -119.38919   0.26192538   -119.12727    2136.1289    4.2362817    4.2362817    4.2362817    2136.1289    5773.4203    3894.9599   -3259.9935    1746.6023   -115.09062    8461.0543    76.024659 
   95600    449.29631   -119.53431   0.40653274   -119.12778   -845.58882    4.2442505    4.2442505    4.2442505   -845.58882   -2810.1808    199.25758    74.156716   -4022.7785   -366.64161    4915.6565    76.454494 
   95700    476.67703   -119.55769   0.43130739   -119.12638   -9.7893086    4.2437348    4.2437348    4.2437348   -9.7893086    3137.2005    14750.456   -17917.025    2553.0816    797.18782    1971.6372    76.426629 
   95800    387.47155    -119.4774    0.3505924   -119.12681    2610.7284      4.23612      4.23612      4.23612    2610.7284    5613.8768    -63.91098    2282.2194   -7057.6397    477.36587   -85.923133    76.015957 
   95900    313.22272   -119.41283    0.2834105   -119.12942    1770.7942    4.2466262    4.2466262    4.2466262    1770.7942    2782.4338    16545.842   -14015.894    3890.1543    2821.8932     179.1571     76.58295 
   96000    492.95972   -119.57457   0.44604031   -119.12853   -4417.5408    4.2420747    4.2420747    4.2420747   -4417.5408    -4107.234    694.85873   -9840.2472   -3178.9566    1461.2955    1598.6199    76.336971 
   96100    252.03286   -119.35649   0.22804463   -119.12845    8015.6437    4.2342395    4.2342395    4.2342395    8015.6437    11980.536    16700.286   -4633.8916    5159.7924    5951.3856   -370.29627    75.914768 
   96200    530.02822   -119.60711   0.47958068   -119.12753   -13741.952    4.2476948    4.2476948    4.2476948   -13741.952   -14418.747   -8817.9147   -17989.193   -2082.9374    783.05465   -3590.2783    76.640782 
   96300    283.54589   -119.38739   0.25655828   -119.13084    2909.0984    4.2403477    4.2403477    4.2403477    2909.0984    9807.9438     18346.09   -19426.739    5484.2039    749.39465    4404.2172    76.243779 
   96400    575.31668   -119.64916   0.52055863    -119.1286   -4047.0111    4.2340446    4.2340446    4.2340446   -4047.0111   -969.02475   -1176.0124   -9995.9962    3107.4717   -588.11478    2389.6931    75.904285 
   96500     217.0731   -119.32576    0.1964123   -119.12935   -2193.3987    4.2508928    4.2508928    4.2508928   -2193.3987   -3902.7254    25230.215   -27907.685    6037.1919   -2258.7094    742.21868    76.814015 
   96600    557.69099   -119.63238   0.50461053   -119.12777   -4936.9597    4.2381871    4.2381871    4.2381871   -4936.9597     -4871.91   -2739.8407   -7199.1286   -1056.4722     278.1629   -434.17076     76.12729 
   96700    352.95638   -119.44951   0.31936235   -119.13014    8163.4441    4.2358162    4.2358162    4.2358162    8163.4441     8561.916    25304.713   -9376.2967    784.89316     -3667.36     -2885.27    75.999601 
   96800    420.40266   -119.50874   0.38038916   -119.12835   -11563.094    4.2506763    4.2506763    4.2506763   -11563.094   -8830.1237   -12879.043   -12980.116   -2840.9756   -760.91641    1119.9057    76.802279 
   96900    266.07906   -119.36833   0.24075393   -119.12758     9269.094    4.2344626    4.2344626    4.2344626     9269.094    5213.7635    17890.599    4702.9191    4286.9208    1619.0761   -2120.1704    75.926764 
   97000    523.19576   -119.60181   0.47339852   -119.12841    92.385733    4.2375234    4.2375234    4.2375234    92.385733    2887.5622    5370.1143   -7980.5192   -2646.8743    1362.5022   -2241.6659    76.091532 
   97100    343.30896   -119.44008   0.31063316   -119.12944    3271.2554    4.2489071    4.2489071    4.2489071    3271.2554    3334.2857    17542.648   -11063.167   -1365.6472   -2323.7197   -3250.0871    76.706416 
   97200    376.53916   -119.46869   0.34070054   -119.12799    4967.6818    4.2352334    4.2352334    4.2352334    4967.6818    16016.793   -2100.7463    986.99915   -468.08221     17.91619    1201.3769    75.968236 
   97300    360.81015   -119.45486   0.32646861   -119.12839    3402.0162    4.2397894    4.2397894    4.2397894    3402.0162    1192.1867    18856.352   -9842.4904   -4434.5804   -2160.3567   -1451.1281    76.213666 
   97400     502.6364   -119.58318   0.45479598   -119.12839   -9501.0522    4.2497224    4.2497224    4.2497224   -9501.0522    491.98131   -7697.3953   -21297.743     2144.276    3032.8727    62.745094    76.750581 
   97500     308.3601   -119.40624    0.2790107   -119.12723   -3687.7746    4.2342777    4.2342777    4.2342777   -3687.7746   -2326.4456   -3992.0348   -4744.8435   -11098.614   -1499.7185   -4850.4367     75.91682 
   97600    359.21107   -119.45297   0.32502173   -119.12795   -3749.8648    4.2403378    4.2403378    4.2403378   -3749.8648   -5878.4472    11843.616   -17214.763   -4649.0311    -5712.741   -3813.8814    76.243246 
   97700    470.60823   -119.55265   0.42581622   -119.12683   -6304.3927    4.2483983    4.2483983    4.2483983   -6304.3927   -1883.7586    1271.6825   -18301.102   -6676.0489    3480.2334    125.36361    76.678863 
   97800    518.72459   -119.59591   0.46935291   -119.12656    7601.3095     4.230631     4.230631     4.230631    7601.3095    6326.1304    19039.156   -2561.3576   -2611.2782   -3147.8566   -3436.0986    75.720841 
   97900    289.80196   -119.39048    0.2622189   -119.12826    3554.3705    4.2441914    4.2441914    4.2441914    3554.3705    2406.4307      18732.3   -10475.619   -6821.8194   -1103.0432   -4480.6752    76.451304 
   98000    417.85094   -119.50603   0.37808031   -119.12795   -5425.4036    4.2456187    4.2456187    4.2456187   -5425.4036    425.27602   -4982.2442   -11719.243   -2042.1779   -4719.1562   -5158.8089     76.52846 
   98100    460.50679   -119.54354   0.41667622   -119.12686     7495.026    4.2315744    4.2315744    4.2315744     7495.026    9319.3327    9457.8627    3707.8825   -6329.0343   -1107.5629   -2550.1438     75.77151 
   98200    411.73667   -119.50047   0.37254799   -119.12793   -11658.412    4.2477223    4.2477223    4.2477223   -11658.412   -4038.9197   -14309.527   -16626.788    3474.4364   -1657.2091      1680.27    76.642266 
   98300    359.76208   -119.45432   0.32552029    -119.1288   -5953.6174    4.2420674    4.2420674    4.2420674   -5953.6174   -6498.8018   -614.92238   -10747.128   -1121.7598    -1954.719   -909.60763    76.336582 
   98400    391.82686   -119.48483   0.35453318    -119.1303    6091.4863    4.2333953    4.2333953    4.2333953    6091.4863    10722.282    2651.0391    4901.1378   -5405.5081   -3442.6516   -3377.1685    75.869366 
   98500    441.45075   -119.52892   0.39943392   -119.12949   -2763.7345    4.2462292    4.2462292    4.2462292   -2763.7345   -6052.8199    23232.261   -25470.645   -661.36707    -714.5724    4765.9633    76.561473 
   98600    263.86912   -119.36617   0.23875433   -119.12741    10511.605    4.2401452    4.2401452    4.2401452    10511.605    34769.741    1401.9425   -4636.8691   -6023.5309    2577.1218    2728.7859    76.232856 
   98700    512.84749   -119.59295   0.46403518   -119.12891    612.75459    4.2360913    4.2360913    4.2360913    612.75459     7288.076    6481.1233   -11930.936    608.52366   -993.40884    1394.6831    76.014411 
   98800     346.5835   -119.44423   0.31359603   -119.13063    -1920.898     4.247976     4.247976     4.247976    -1920.898      19511.5   -5318.0391   -19956.155   -4833.2335    929.78482   -1286.7925    76.656002 
   98900    430.04108   -119.51727    0.3891102   -119.12816   -9971.0782    4.2377477    4.2377477    4.2377477   -9971.0782    3720.1078   -15012.651   -18620.692   -195.82199   -905.96628   -2411.9561    76.103614 
   99000    300.54462   -119.40092   0.27193909   -119.12898   -3248.4703    4.2400829    4.2400829    4.2400829   -3248.4703    14196.736   -19346.131   -4596.0154   -4987.1531   -2028.1275    5386.3342    76.229493 
   99100    513.09517   -119.59358   0.46425929   -119.12932   -5601.0611     4.244637     4.244637     4.244637   -5601.0611    3687.7716   -868.89776   -19622.057   -1153.6861   -2778.5844   -2148.9819    76.475386 
   99200    392.08868    -119.4836   0.35477008   -119.12883    1380.9185    4.2365371    4.2365371    4.2365371    1380.9185    13023.328   -9138.7732    258.20082   -2268.5298   -4300.9508   -4201.9192    76.038414 
   99300     303.1849    -119.4024   0.27432807   -119.12807    11169.959    4.2381907    4.2381907    4.2381907    11169.959      15726.4    15871.367    1912.1097   -5630.3018   -3959.3896   -1964.9132    76.127484 
   99400    421.60902   -119.50903    0.3814807   -119.12755    1310.0564    4.2438905    4.2438905    4.2438905    1310.0564    13379.061    3397.2855   -12846.177    -2442.718    361.89952    2367.7363    76.435044 
   99500    450.20905    -119.5347   0.40735861   -119.12734    13717.342     4.236622     4.236622     4.236622    13717.342    26722.525    8788.8343    5640.6671   -70.041121   -2316.0038    545.65254    76.042984 
   99600    366.85821   -119.45964   0.33194102    -119.1277   -1180.2496    4.2426454    4.2426454    4.2426454   -1180.2496     4728.075    1911.2365    -10180.06   -905.86572   -1510.9282   -706.00855    76.367786 
   99700    331.71718   -119.42845   0.30014467   -119.12831   -10326.344    4.2451497    4.2451497    4.2451497   -10326.344   -5833.3155    -9112.314   -16033.403    4702.4617   -2453.9338   -647.41867    76.503097 
   99800    415.83232   -119.50477   0.37625382   -119.12851   -2899.3818    4.2362923    4.2362923    4.2362923   -2899.3818    9392.1475   -6635.5239   -11454.769   -5811.2679    -5311.943     3523.329    76.025233 
   99900    433.16038   -119.52008   0.39193261   -119.12815   -13364.792    4.2439488    4.2439488    4.2439488   -13364.792    -7541.086    -14645.74   -17907.551    1775.5241    999.44712    5308.9517    76.438191 
  100000     283.6617   -119.38345   0.25666306   -119.12678    -1276.114     4.242924     4.242924     4.242924    -1276.114    14449.341    578.15638   -18855.839    1144.0862   -6531.0454   -6019.2828    76.382833 
Loop time of 223.359 on 1 procs for 100000 steps with 8 atoms

Pair  time (%) = 76.0079 (34.0295)
Kspce time (%) = 56.0678 (25.1021)
Neigh time (%) = 0 (0)
Comm  time (%) = 10.7805 (4.82654)
Outpt time (%) = 0.346721 (0.155231)
Other time (%) = 80.1557 (35.8865)

Nlocal:    8 ave 8 max 8 min
Histogram: 1 0 0 0 0 0 0 0 0 0
Nghost:    2189 ave 2189 max 2189 min
Histogram: 1 0 0 0 0 0 0 0 0 0
Neighs:    2472 ave 2472 max 2472 min
Histogram: 1 0 0 0 0 0 0 0 0 0

Total # of neighbors = 2472
Ave neighs/atom = 309
Neighbor list builds = 0
Dangerous builds = 0
unfix 20
unfix 21
print "seeds:4338993"
seeds:4338993
