LAMMPS (16 Mar 2018)
# ---- initialize simulations
clear
units metal
dimension 3
boundary p p p
atom_style charge
atom_modify map array
# ---- create atoms
read_data /home/manuelesp/repos/pypospack/dev/MgO_iterative_sampler/rank_7/MgO_NaCl_fr_c.lmps_min_pos/lammps.structure
  triclinic box = (0 0 0) to (12.7919 12.7919 12.7919) with tilt (0 0 0)
  1 by 1 by 1 MPI processor grid
  reading atoms ...
  216 atoms
# ---- define interatomic potential
include potential.mod
mass 1 24.305
mass 2 15.999

group Mg type 1
108 atoms in group Mg
group O type 2
108 atoms in group O

set group Mg charge 1.9179406879711596
  108 settings made for charge
set group O charge -1.9179406879711596
  108 settings made for charge

variable R_cut equal 10.0

pair_style buck/coul/long ${R_cut}
pair_style buck/coul/long 10
pair_coeff 1 1 0.0 0.5 0.0 ${R_cut}
pair_coeff 1 1 0.0 0.5 0.0 10
pair_coeff 1 2 810.4136342137181 0.29896087357084233 0.0 ${R_cut}
pair_coeff 1 2 810.4136342137181 0.29896087357084233 0.0 10
pair_coeff 2 2 4888.921747208894 0.3126294278687661 51.00665792627922 ${R_cut}
pair_coeff 2 2 4888.921747208894 0.3126294278687661 51.00665792627922 10

kspace_style pppm 1.0e-5

neighbor 1.0 bin
neigh_modify every 1 delay 0 check yes
# ---- define settings
compute eng all pe/atom
compute eatoms all reduce sum c_eng

# ---- run minimization
reset_timestep 0
thermo 1
thermo_style custom step pe lx ly lz xy xz yz press pxx pyy pzz pxy pxz pyz c_eatoms
min_style cg
minimize 1e-20 1e-20 1000 100000
PPPM initialization ...
  using 12-bit tables for long-range coulomb (../kspace.cpp:321)
  G vector (1/distance) = 0.345002
  grid = 20 20 20
  stencil order = 5
  estimated absolute RMS force accuracy = 0.000102911
  estimated relative force accuracy = 7.14674e-06
  using double precision FFTs
  3d grid and FFT values/proc = 19683 8000
Neighbor list info ...
  update every 1 steps, delay 0 steps, check yes
  max neighbors/atom: 2000, page size: 100000
  master list distance cutoff = 11
  ghost atom cutoff = 11
  binsize = 5.5, bins = 3 3 3
  1 neighbor lists, perpetual/occasional/extra = 1 0 0
  (1) pair buck/coul/long, perpetual
      attributes: half, newton on
      pair build: half/bin/newton/tri
      stencil: half/bin/3d/newton/tri
      bin: standard
Per MPI rank memory allocation (min/avg/max) = 7.318 | 7.318 | 7.318 Mbytes
Step PotEng Lx Ly Lz Xy Xz Yz Press Pxx Pyy Pzz Pxy Pxz Pyz c_eatoms 
       0   -4074.2375      12.7919      12.7919      12.7919            0            0            0    23508.226    21653.291    24435.693    24435.693   -579.79075   -579.79075   -669.83662   -4074.2375 
       1   -4097.2124      12.7919      12.7919      12.7919            0            0            0    24761.534     24666.94    24808.831    24808.831   -47.087827   -47.087827    53.626523   -4097.2124 
       2    -4102.725      12.7919      12.7919      12.7919            0            0            0    32007.609    32404.331    31809.248    31809.248    157.61674    157.61674    452.87442    -4102.725 
       3   -4105.0596      12.7919      12.7919      12.7919            0            0            0    29670.926     29856.46    29578.159    29578.159    210.92566    210.92566    493.96558   -4105.0596 
       4   -4105.8401      12.7919      12.7919      12.7919            0            0            0    30340.274    30517.973    30251.424    30251.424      115.212      115.212    443.65239   -4105.8401 
       5   -4106.5644      12.7919      12.7919      12.7919            0            0            0    33509.985    33648.031    33440.963    33440.963   -66.669801   -66.669801     593.1706   -4106.5644 
       6   -4106.9462      12.7919      12.7919      12.7919            0            0            0    35690.945    35936.294     35568.27     35568.27   -62.760544   -62.760544    830.40445   -4106.9462 
       7   -4107.1943      12.7919      12.7919      12.7919            0            0            0    37668.054    38140.285    37431.939    37431.939   -76.101158   -76.101158     874.1396   -4107.1943 
       8   -4107.3268      12.7919      12.7919      12.7919            0            0            0     38393.64    38775.359    38202.781    38202.781    -132.1494    -132.1494    977.50711   -4107.3268 
       9    -4107.391      12.7919      12.7919      12.7919            0            0            0    39096.023    39490.751    38898.659    38898.659   -147.42503   -147.42503    1188.9065    -4107.391 
      10   -4107.4432      12.7919      12.7919      12.7919            0            0            0    39832.152    40059.701    39718.378    39718.378    -169.8184    -169.8184    1339.8827   -4107.4432 
      11   -4107.4869      12.7919      12.7919      12.7919            0            0            0    40522.094    40476.574    40544.854    40544.854    -138.6031    -138.6031    1355.0914   -4107.4869 
      12   -4107.5272      12.7919      12.7919      12.7919            0            0            0     41418.77    41056.641    41599.835    41599.835   -122.58587   -122.58587    1534.8215   -4107.5272 
      13   -4107.5816      12.7919      12.7919      12.7919            0            0            0    43027.161    42186.572    43447.456    43447.456    -125.3378    -125.3378    1891.4272   -4107.5816 
      14    -4107.625      12.7919      12.7919      12.7919            0            0            0    44576.851    43484.178    45123.188    45123.188   -33.257811   -33.257811    2043.0005    -4107.625 
      15   -4107.6814      12.7919      12.7919      12.7919            0            0            0    47092.747    45730.167    47774.037    47774.037    55.281927    55.281927    2320.7282   -4107.6814 
      16   -4107.7242      12.7919      12.7919      12.7919            0            0            0    49117.525    47675.798    49838.388    49838.388    126.97156    126.97156    2675.4039   -4107.7242 
      17   -4107.7795      12.7919      12.7919      12.7919            0            0            0    51528.494    50112.393    52236.545    52236.545    237.49787    237.49787    3090.5242   -4107.7795 
      18   -4107.8363      12.7919      12.7919      12.7919            0            0            0    54228.444    52735.965    54974.683    54974.683    314.86617    314.86616    3496.3009   -4107.8363 
      19   -4107.9224      12.7919      12.7919      12.7919            0            0            0     58443.33    56435.389    59447.301    59447.301    360.79025    360.78973    4294.4575   -4107.9224 
      20   -4108.0193      12.7919      12.7919      12.7919            0            0            0    63890.094    60854.578    65407.852    65407.852    463.84805     463.8481    5201.6751   -4108.0193 
      21   -4108.1237      12.7919      12.7919      12.7919            0            0            0    69040.468    64603.425    71258.987    71258.992    481.62661     481.6273    6016.6042   -4108.1237 
      22   -4108.2547      12.7919      12.7919      12.7919            0            0            0    74417.977    68614.255    77319.838    77319.838    398.51699    398.52158    7184.5184   -4108.2547 
      23   -4108.3605      12.7919      12.7919      12.7919            0            0            0    78140.596    71077.666    81672.054    81672.067    148.40311    148.40384    8039.9733   -4108.3605 
      24   -4108.4945      12.7919      12.7919      12.7919            0            0            0    82750.833    74488.683    86881.912    86881.905    205.68978    205.68816    9369.6103   -4108.4945 
      25   -4108.6202      12.7919      12.7919      12.7919            0            0            0    86848.273     77458.72    91543.044    91543.054   -167.97492   -167.96629    10561.671   -4108.6202 
      26   -4108.7298      12.7919      12.7919      12.7919            0            0            0    90657.669    80627.365    95672.833     95672.81   -279.83235   -279.82201    11882.405   -4108.7298 
      27   -4108.8555      12.7919      12.7919      12.7919            0            0            0    94252.618    83506.035    99625.904    99625.915   -375.26576   -375.25139    13104.476   -4108.8555 
      28   -4108.9719      12.7919      12.7919      12.7919            0            0            0    97414.364    86259.499     102991.8     102991.8   -143.17594   -143.18083    14084.636   -4108.9719 
      29   -4109.1335      12.7919      12.7919      12.7919            0            0            0    101674.69      89987.9    107518.05     107518.1    94.625832    94.630552    15193.598   -4109.1335 
      30   -4109.3187      12.7919      12.7919      12.7919            0            0            0     106267.6    94135.999     112333.4    112333.41    698.32426    698.32777    16313.173   -4109.3187 
      31    -4109.518      12.7919      12.7919      12.7919            0            0            0    112128.39    99799.553     118292.8    118292.82    1485.5201    1485.5244    17213.935    -4109.518 
      32   -4109.7729      12.7919      12.7919      12.7919            0            0            0     118816.4    106277.99    125085.61     125085.6    2698.8834    2698.8974    18231.627   -4109.7729 
      33   -4110.0259      12.7919      12.7919      12.7919            0            0            0    126260.64    113382.22    132699.84    132699.85    3671.8112    3671.8099    19091.669   -4110.0259 
      34    -4110.408      12.7919      12.7919      12.7919            0            0            0    136391.67    120860.97    144157.03    144157.02     4139.292     4139.309    20196.313    -4110.408 
      35     -4110.75      12.7919      12.7919      12.7919            0            0            0    147174.64     128145.6    156689.15    156689.17    4319.2405    4319.2333    21133.354     -4110.75 
      36   -4111.2869      12.7919      12.7919      12.7919            0            0            0    155249.25    131467.03    167140.37    167140.34     4493.148    4493.1836    22379.548   -4111.2869 
      37   -4111.6076      12.7919      12.7919      12.7919            0            0            0    159938.05     133466.1       173174    173174.05    4225.1052    4225.0808    23353.223   -4111.6076 
      38   -4111.8853      12.7919      12.7919      12.7919            0            0            0    162683.93    134542.96    176754.44     176754.4    3979.3144    3979.3401    24096.851   -4111.8853 
      39   -4112.1403      12.7919      12.7919      12.7919            0            0            0     164747.7    136246.74    178998.17    178998.19    3566.3051    3566.2894    24886.705   -4112.1403 
      40   -4112.3242      12.7919      12.7919      12.7919            0            0            0    165674.65    137518.07    179752.95    179752.94    3582.8948    3582.9247    25112.046   -4112.3242 
      41   -4112.5208      12.7919      12.7919      12.7919            0            0            0    166143.02    138967.72    179730.66    179730.69    3302.2116    3302.1868    25549.663   -4112.5208 
      42   -4112.7016      12.7919      12.7919      12.7919            0            0            0    166292.14    139882.21     179497.1    179497.09    3178.3268    3178.3661    25725.083   -4112.7016 
      43   -4112.8672      12.7919      12.7919      12.7919            0            0            0    166329.06    139999.74    179493.73    179493.71    2918.5023    2918.4883    26283.769   -4112.8672 
      44   -4113.0367      12.7919      12.7919      12.7919            0            0            0    166310.14    139524.46    179702.98    179702.97    2922.4449    2922.4784    26615.408   -4113.0367 
      45   -4113.1859      12.7919      12.7919      12.7919            0            0            0    166617.96    138419.39    180717.25    180717.26    2711.5463    2711.5299    27212.265   -4113.1859 
      46   -4113.3403      12.7919      12.7919      12.7919            0            0            0    167620.42     138099.6    182380.83    182380.84    2627.2594    2627.2894    27783.716   -4113.3403 
      47   -4113.5044      12.7919      12.7919      12.7919            0            0            0    169929.89    138133.12    185828.25    185828.29    2228.1561    2228.1367    28702.191   -4113.5044 
      48   -4113.6431      12.7919      12.7919      12.7919            0            0            0     172622.1    139398.92    189233.67    189233.72    2214.1946    2214.2136     29403.14   -4113.6431 
      49   -4113.7809      12.7919      12.7919      12.7919            0            0            0    175848.33    140812.96    193365.97    193366.07    1708.8365    1708.8214    30421.153   -4113.7809 
      50   -4113.8902      12.7919      12.7919      12.7919            0            0            0    178058.75    142077.17    196049.51    196049.57    1523.3515    1523.3633    30891.626   -4113.8902 
      51   -4113.9844      12.7919      12.7919      12.7919            0            0            0    180101.23    143345.08    198479.26    198479.35    1083.0635    1083.0585    31485.069   -4113.9844 
      52   -4114.0828      12.7919      12.7919      12.7919            0            0            0    181916.62    144636.46    200556.67    200556.72    858.85136    858.88721    31812.184   -4114.0828 
      53   -4114.1821      12.7919      12.7919      12.7919            0            0            0    183949.84     146187.9    202830.78    202830.85    261.40798    261.42263    32199.744   -4114.1821 
      54   -4114.2849      12.7919      12.7919      12.7919            0            0            0    185760.08    147676.71    204801.75    204801.78   -282.91394   -282.87341    32409.238   -4114.2849 
      55   -4114.3821      12.7919      12.7919      12.7919            0            0            0     187328.5    149003.02    206491.21    206491.27    -1130.065   -1130.0439    32847.178   -4114.3821 
      56   -4114.4717      12.7919      12.7919      12.7919            0            0            0    188387.21    149910.29    207625.66    207625.69   -1725.5436   -1725.5127    33009.074   -4114.4717 
      57   -4114.5748      12.7919      12.7919      12.7919            0            0            0    189609.82    151236.94    208796.24    208796.29    -2991.769   -2991.7402    33405.009   -4114.5748 
      58   -4114.6676      12.7919      12.7919      12.7919            0            0            0    190335.85     152647.3    209180.12    209180.14   -4008.9125   -4008.8726    33667.904   -4114.6676 
      59   -4114.7563      12.7919      12.7919      12.7919            0            0            0    191061.98    154352.85    209416.53    209416.57   -5296.0379    -5295.994    34099.725   -4114.7563 
      60   -4114.8461      12.7919      12.7919      12.7919            0            0            0    191657.95    156483.53    209245.14    209245.19   -6324.4824   -6324.4157    34235.458   -4114.8461 
      61   -4114.9263      12.7919      12.7919      12.7919            0            0            0    192562.15    158632.36    209527.02    209527.06   -7621.2307   -7621.1623    34643.707   -4114.9263 
      62   -4115.0151      12.7919      12.7919      12.7919            0            0            0    194095.35     161657.4    210314.33    210314.32   -8862.0839   -8861.9978    34986.623   -4115.0151 
      63   -4115.0903      12.7919      12.7919      12.7919            0            0            0    196023.73    164513.47    211778.85    211778.86    -10100.82   -10100.738    35636.195   -4115.0903 
      64     -4115.17      12.7919      12.7919      12.7919            0            0            0    198865.69    168530.33    214033.38    214033.36   -11207.972   -11207.873    36270.886     -4115.17 
      65   -4115.2844      12.7919      12.7919      12.7919            0            0            0    203664.45    174420.35    218286.49    218286.53   -13030.873    -13030.77    37420.635   -4115.2844 
      66   -4115.3925      12.7919      12.7919      12.7919            0            0            0    208771.87    180950.78    222682.41    222682.43   -14494.735   -14494.619    38431.308   -4115.3925 
      67   -4115.5807      12.7919      12.7919      12.7919            0            0            0    215912.26    189079.02    229328.88    229328.88   -16782.798    -16782.69    40133.363   -4115.5807 
      68   -4115.7626      12.7919      12.7919      12.7919            0            0            0    223332.54    197545.75    236225.98    236225.87   -18773.991   -18773.885    41620.791   -4115.7626 
      69   -4116.0778      12.7919      12.7919      12.7919            0            0            0    236531.41    211245.52    249174.47    249174.24   -22832.662   -22832.547    44360.541   -4116.0778 
      70   -4116.4281      12.7919      12.7919      12.7919            0            0            0    250622.84    225814.79    263027.02    263026.71   -26008.877   -26008.782    46607.874   -4116.4281 
      71   -4117.0036      12.7919      12.7919      12.7919            0            0            0     265946.4    240272.45    278783.46    278783.29    -29229.29   -29229.231    48008.787   -4117.0036 
      72   -4117.8787      12.7919      12.7919      12.7919            0            0            0     283420.8    257335.84    296463.35    296463.22   -31255.447   -31255.494    47730.485   -4117.8787 
      73   -4119.0265      12.7919      12.7919      12.7919            0            0            0    300646.95     274970.4    313485.28    313485.17    -32954.64   -32954.742    46479.327   -4119.0265 
      74   -4121.3771      12.7919      12.7919      12.7919            0            0            0    315122.86    291203.94    327082.41    327082.23   -34881.052   -34881.018    44869.416   -4121.3771 
      75   -4124.0648      12.7919      12.7919      12.7919            0            0            0     328754.8    309983.56    338140.53    338140.32   -34110.922   -34110.861     43150.82   -4124.0648 
      76   -4128.5522      12.7919      12.7919      12.7919            0            0            0     337991.8    324727.23    344624.14    344624.04   -34371.234   -34371.164    40957.028   -4128.5522 
      77   -4132.0298      12.7919      12.7919      12.7919            0            0            0    345510.02    336108.93    350210.56    350210.57   -34331.793   -34331.551    37924.426   -4132.0298 
      78   -4136.1748      12.7919      12.7919      12.7919            0            0            0    353335.27    350188.07    354908.73    354909.02   -32315.286   -32315.142    34546.287   -4136.1748 
      79    -4139.827      12.7919      12.7919      12.7919            0            0            0    355657.09    353762.57    356604.16    356604.54   -31442.301   -31442.232    30322.023    -4139.827 
      80   -4144.3768      12.7919      12.7919      12.7919            0            0            0     358986.8     359328.6    358815.88    358815.91   -29047.292   -29047.213    25775.585   -4144.3768 
      81   -4147.7562      12.7919      12.7919      12.7919            0            0            0    358153.87     359890.9    357285.41    357285.31    -26148.62   -26148.586     23677.91   -4147.7562 
      82     -4152.08      12.7919      12.7919      12.7919            0            0            0    357865.73    362722.49    355437.35    355437.35   -19878.063   -19877.968    21325.352     -4152.08 
      83   -4156.0502      12.7919      12.7919      12.7919            0            0            0    355518.26    360689.73    352932.59    352932.45   -16104.974   -16104.891    17500.255   -4156.0502 
      84   -4160.7109      12.7919      12.7919      12.7919            0            0            0    350461.98    353142.94    349121.51    349121.49   -10008.352   -10008.385    12307.826   -4160.7109 
      85   -4165.6926      12.7919      12.7919      12.7919            0            0            0    340747.96    342841.95    339700.97    339700.97   -5895.8645   -5895.7921    8815.4752   -4165.6926 
      86   -4169.7385      12.7919      12.7919      12.7919            0            0            0     331677.8    333118.55    330957.43    330957.41   -1204.1488   -1204.0871    5033.8049   -4169.7385 
      87   -4172.6203      12.7919      12.7919      12.7919            0            0            0    325914.15     327550.9    325095.79    325095.77   -53.300312   -53.312012    3056.8735   -4172.6203 
      88   -4174.0411      12.7919      12.7919      12.7919            0            0            0    321611.77    322516.24     321159.5    321159.58    32.067207    32.119762    1975.8043   -4174.0411 
      89   -4174.7485      12.7919      12.7919      12.7919            0            0            0    319738.21     320173.5    319520.55    319520.58    183.40949    183.44792    1872.6689   -4174.7485 
      90   -4175.0475      12.7919      12.7919      12.7919            0            0            0    318749.55    318578.27    318835.18    318835.19     300.9987    301.00254    1641.8067   -4175.0475 
      91    -4175.213      12.7919      12.7919      12.7919            0            0            0    317982.75    317630.04    318159.11    318159.09     473.0626    473.06572    1373.6625    -4175.213 
      92   -4175.3413      12.7919      12.7919      12.7919            0            0            0    317306.42    316536.34    317691.47    317691.45    599.72263    599.73476    792.07522   -4175.3413 
      93   -4175.4156      12.7919      12.7919      12.7919            0            0            0    316863.59    316089.44    317250.67    317250.66    583.28837    583.31584    512.10235   -4175.4156 
      94   -4175.4782      12.7919      12.7919      12.7919            0            0            0    316473.08    315551.96    316933.65    316933.63    466.21928    466.23831    411.43041   -4175.4782 
      95   -4175.5137      12.7919      12.7919      12.7919            0            0            0    316226.62    315365.56    316657.15    316657.14    356.56595    356.59398    403.60459   -4175.5137 
      96   -4175.5291      12.7919      12.7919      12.7919            0            0            0    316152.15    315277.08     316589.7    316589.67    321.61394    321.64205     361.8139   -4175.5291 
      97   -4175.5374      12.7919      12.7919      12.7919            0            0            0    316104.61    315281.03    316516.41    316516.39    285.44492    285.47123    400.98747   -4175.5374 
      98   -4175.5414      12.7919      12.7919      12.7919            0            0            0    316116.62    315332.01    316508.93    316508.91    274.59712    274.62502    388.66564   -4175.5414 
      99   -4175.5436      12.7919      12.7919      12.7919            0            0            0    316144.86    315460.67    316486.97    316486.93    250.48734    250.50989    332.04801   -4175.5436 
     100   -4175.5462      12.7919      12.7919      12.7919            0            0            0    316201.31    315582.74    316510.61    316510.58    214.56737    214.58617     283.2597   -4175.5462 
     101   -4175.5478      12.7919      12.7919      12.7919            0            0            0    316257.92     315716.6    316528.59    316528.57     194.0778    194.10641    239.51882   -4175.5478 
     102   -4175.5487      12.7919      12.7919      12.7919            0            0            0    316300.19    315836.06    316532.26    316532.25    170.48245     170.5005    203.45351   -4175.5487 
     103   -4175.5497      12.7919      12.7919      12.7919            0            0            0    316325.02     315943.2    316515.94    316515.92    140.62621    140.65249    167.54629   -4175.5497 
     104   -4175.5504      12.7919      12.7919      12.7919            0            0            0    316347.86    316038.43    316502.58    316502.56    107.87271    107.90156    121.49809   -4175.5504 
     105   -4175.5509      12.7919      12.7919      12.7919            0            0            0    316330.08     316084.8    316452.74    316452.71    83.847536    83.854158    91.327811   -4175.5509 
     106   -4175.5514      12.7919      12.7919      12.7919            0            0            0     316330.9    316147.73    316422.49    316422.48    68.796658    68.814065    57.988776   -4175.5514 
     107   -4175.5519      12.7919      12.7919      12.7919            0            0            0     316311.6    316182.55    316376.13    316376.11    57.062269    57.068654    27.585906   -4175.5519 
     108    -4175.552      12.7919      12.7919      12.7919            0            0            0    316293.69    316210.51     316335.3    316335.27    53.737901    53.749766   -2.3080756    -4175.552 
     109   -4175.5523      12.7919      12.7919      12.7919            0            0            0    316287.01    316229.68    316315.68    316315.66     54.56328    54.561753   -16.825344   -4175.5523 
     110   -4175.5523      12.7919      12.7919      12.7919            0            0            0    316282.15     316241.5    316302.47    316302.47    53.222301    53.229009   -23.360436   -4175.5523 
     111   -4175.5523      12.7919      12.7919      12.7919            0            0            0    316279.42    316249.95    316294.16    316294.15    49.240978    49.247616   -27.894737   -4175.5523 
     112   -4175.5523      12.7919      12.7919      12.7919            0            0            0    316281.58    316262.99    316290.88    316290.88    46.015954    46.028975   -31.474052   -4175.5523 
     113   -4175.5525      12.7919      12.7919      12.7919            0            0            0    316283.88    316270.36    316290.64    316290.64     43.87714    43.883323   -32.801469   -4175.5525 
     114   -4175.5526      12.7919      12.7919      12.7919            0            0            0    316287.99    316278.52    316292.72    316292.73    42.984971    42.986547   -35.045305   -4175.5526 
     115   -4175.5526      12.7919      12.7919      12.7919            0            0            0    316288.07     316280.4     316291.9    316291.91    42.173223    42.177321   -36.542958   -4175.5526 
     116   -4175.5526      12.7919      12.7919      12.7919            0            0            0    316287.95    316283.18    316290.33    316290.34    41.477323    41.475257   -37.887291   -4175.5526 
     117   -4175.5526      12.7919      12.7919      12.7919            0            0            0    316287.95    316283.18    316290.33    316290.34    41.477323    41.475257   -37.887291   -4175.5526 
Loop time of 2.62057 on 1 procs for 117 steps with 216 atoms

65.7% CPU use with 1 MPI tasks x no OpenMP threads

Minimization stats:
  Stopping criterion = linesearch alpha is zero
  Energy initial, next-to-last, final = 
        -4074.23752978     -4175.55261558     -4175.55261558
  Force two-norm initial, final = 57.3024 0.00806536
  Force max component initial, final = 10.0044 0.0012421
  Final line search alpha, max atom move = 0.00012207 1.51624e-07
  Iterations, force evaluations = 117 241

MPI task timing breakdown:
Section |  min time  |  avg time  |  max time  |%varavg| %total
---------------------------------------------------------------
Pair    | 1.6431     | 1.6431     | 1.6431     |   0.0 | 62.70
Kspace  | 0.90412    | 0.90412    | 0.90412    |   0.0 | 34.50
Neigh   | 0.049757   | 0.049757   | 0.049757   |   0.0 |  1.90
Comm    | 0.006587   | 0.006587   | 0.006587   |   0.0 |  0.25
Output  | 0.0033634  | 0.0033634  | 0.0033634  |   0.0 |  0.13
Modify  | 0          | 0          | 0          |   0.0 |  0.00
Other   |            | 0.01362    |            |       |  0.52

Nlocal:    216 ave 216 max 216 min
Histogram: 1 0 0 0 0 0 0 0 0 0
Nghost:    3880 ave 3880 max 3880 min
Histogram: 1 0 0 0 0 0 0 0 0 0
Neighs:    64911 ave 64911 max 64911 min
Histogram: 1 0 0 0 0 0 0 0 0 0

Total # of neighbors = 64911
Ave neighs/atom = 300.514
Neighbor list builds = 11
Dangerous builds = 0

# ---- define output variables ----
variable natoms equal "count(all)"
variable tot_energy equal "c_eatoms"
variable a11 equal "xhi-xlo"
variable a22 equal "yhi-ylo"
variable a33 equal "zhi-zlo"
variable tilt_xy equal "xy"
variable tilt_xz equal "xz"
variable tilt_yz equal "yz"
variable tot_press equal "press"
variable press_xx equal "pxx"
variable press_yy equal "pyy"
variable press_zz equal "pzz"
variable press_xy equal "pxy"
variable press_xz equal "pxz"
variable press_yz equal "pyz"

# ---- output ----
print "pypospack:output_section:begin"
pypospack:output_section:begin
print "tot_energy = ${tot_energy}"
tot_energy = -4175.5526155769
print "num_atoms = ${natoms}"
num_atoms = 216
print "a11 = ${a11}"
a11 = 12.7919
print "a22 = ${a22}"
a22 = 12.7919
print "a33 = ${a33}"
a33 = 12.7919
print "a12 = ${tilt_xy}"
a12 = 0
print "a13 = ${tilt_xz}"
a13 = 0
print "a23 = ${tilt_yz}"
a23 = 0
print "tot_press = ${tot_press}"
tot_press = 316287.950834883
print "pxx = ${press_xx}"
pxx = 316283.176652932
print "pyy = ${press_yy}"
pyy = 316290.334538804
print "pzz = ${press_zz}"
pzz = 316290.341312913
print "pxy = ${press_xy}"
pxy = 41.477322638888
print "pxz = ${press_xz}"
pxz = 41.475257480753
print "pyz = ${press_yz}"
pyz = -37.8872914603007
print "pypospack:output_section:done"
pypospack:output_section:done
print "pypospack:lammps_sim:done"
pypospack:lammps_sim:done
Total wall time: 0:00:02
