LAMMPS (10 Feb 2015)
# ---- initialize simulations
clear
units metal
dimension 3
boundary p p p
atom_style charge
atom_modify map array
# ---- create atoms
read_data /Users/eugeneragasa/pyflamestk_git/pypospack/tests/tests_integration/workflow/WorkflowLammpsThermalExpansion/param_6993/MgO_NaCl_unit.npt.T1800/lammps.structure
  triclinic box = (0 0 0) to (4.2565 4.2565 4.2565) with tilt (0 0 0)
  1 by 1 by 1 MPI processor grid
  reading atoms ...
  8 atoms
# ---- define interatomic potential
include potential.mod
mass 1 24.305
mass 2 15.999

group Mg type 1
4 atoms in group Mg
group O type 2
4 atoms in group O

set group Mg charge 1.61814101446
  4 settings made for charge
set group O charge -1.61814101446
  4 settings made for charge

variable R_cut equal 10.0

pair_style buck/coul/long ${R_cut}
pair_style buck/coul/long 10
pair_coeff 1 1 0.0 0.5 0.0 ${R_cut}
pair_coeff 1 1 0.0 0.5 0.0 10
pair_coeff 1 2 1169.10574889 0.285525631363 0.0 ${R_cut}
pair_coeff 1 2 1169.10574889 0.285525631363 0.0 10
pair_coeff 2 2 5328.19415446 0.197938803692 16.6059399876 ${R_cut}
pair_coeff 2 2 5328.19415446 0.197938803692 16.6059399876 10

kspace_style pppm 1.0e-5

neighbor 1.0 bin
neigh_modify every 1 delay 0 check yes
# ---- define settings
compute eng all pe/atom
compute eatoms all reduce sum c_eng
# ---- run minimization
reset_timestep 0
fix 1 all box/relax iso 0.0 vmax 0.001
thermo 10
thermo_style custom step pe lx ly lz xy xz yz press pxx pyy pzz pxy pxz pyz c_eatoms
min_style cg
minimize 1e-25 1e-25 5000 10000
PPPM initialization ...
  G vector (1/distance) = 0.352506
  grid = 8 8 8
  stencil order = 5
  estimated absolute RMS force accuracy = 3.81426e-05
  estimated relative force accuracy = 2.64886e-06
  using double precision FFTs
  3d grid and FFT values/proc = 3375 512
Neighbor list info ...
  1 neighbor list requests
  update every 1 steps, delay 0 steps, check yes
  master list distance cutoff = 11
Memory usage per processor = 4.06549 Mbytes
Step PotEng Lx Ly Lz Xy Xz Yz Press Pxx Pyy Pzz Pxy Pxz Pyz eatoms 
       0   -108.09373       4.2565       4.2565       4.2565            0            0            0    -32837.55    -32837.55    -32837.55    -32837.55 6.8800808e-12 1.9793426e-10 1.5308399e-10   -108.09373 
       9   -108.11055     4.226584     4.226584     4.226584            0            0            0    13.792758    13.792758    13.792758    13.792758 -4.4920118e-11 -8.154534e-11 2.0970287e-11   -108.11055 
Loop time of 0.010561 on 1 procs for 9 steps with 8 atoms

Minimization stats:
  Stopping criterion = linesearch alpha is zero
  Energy initial, next-to-last, final = 
         -108.09372829     -108.110551709     -108.110551709
  Force two-norm initial, final = 4.74176 0.0024943
  Force max component initial, final = 4.74176 0.00196378
  Final line search alpha, max atom move = 0.00390625 7.67103e-06
  Iterations, force evaluations = 9 28

Pair  time (%) = 0.00286579 (27.1356)
Kspce time (%) = 0.00164223 (15.5499)
Neigh time (%) = 0 (0)
Comm  time (%) = 0.000314951 (2.98221)
Outpt time (%) = 0 (0)
Other time (%) = 0.00573802 (54.3322)

Nlocal:    8 ave 8 max 8 min
Histogram: 1 0 0 0 0 0 0 0 0 0
Nghost:    2189 ave 2189 max 2189 min
Histogram: 1 0 0 0 0 0 0 0 0 0
Neighs:    2344 ave 2344 max 2344 min
Histogram: 1 0 0 0 0 0 0 0 0 0

Total # of neighbors = 2344
Ave neighs/atom = 293
Neighbor list builds = 0
Dangerous builds = 0
unfix 1
# ---- define output variables ----
variable natoms equal "count(all)"
variable tot_energy equal "c_eatoms"
variable length_x equal "lx"
variable length_y equal "ly"
variable length_z equal "lz"
variable tilt_xy equal "xy"
variable tilt_xz equal "xz"
variable tilt_yz equal "yz"
variable tot_press equal "press"
variable press_xx equal "pxx"
variable press_yy equal "pyy"
variable press_zz equal "pzz"
variable press_xy equal "pxy"
variable press_xz equal "pxz"
variable press_yz equal "pyz"

# ---- output ----
print "pypospack:output_section:begin"
pypospack:output_section:begin
print "tot_energy = ${tot_energy}"
tot_energy = -108.110551708828
print "num_atoms = ${natoms}"
num_atoms = 8
print "xx = ${length_x}"
xx = 4.22658398474032
print "yy = ${length_y}"
yy = 4.22658398474032
print "zz = ${length_z}"
zz = 4.22658398474032
print "xy = ${tilt_xy}"
xy = 0
print "xz = ${tilt_xz}"
xz = 0
print "yz = ${tilt_yz}"
yz = 0
print "tot_press = ${tot_press}"
tot_press = 13.7927584127517
print "pxx = ${press_xx}"
pxx = 13.7927584125475
print "pyy = ${press_yy}"
pyy = 13.7927584121258
print "pzz = ${press_zz}"
pzz = 13.7927584135819
print "pxy = ${press_xy}"
pxy = -4.49201179574407e-11
print "pxz = ${press_xz}"
pxz = -8.15453399591787e-11
print "pyz = ${press_yz}"
pyz = 2.09702873442201e-11
print "pypospack:output_section:done"
pypospack:output_section:done
print "pypospack:lammps_sim:done"
pypospack:lammps_sim:done
#------------------------------------------------------------------------------
# RUN THERMOSTAT
# running using an NPT Nose-Hoover style thermostat
#------------------------------------------------------------------------------
variable tempdamp equal 0.1
variable pressdamp equal 1.0
# set initial velocities
velocity all create 1800 2198581 mom yes dist gaussian loop all
# fix for Nose-Hoover style thermostat
fix 20 all npt temp 1800 1800 0.1 aniso 0.0 0.0 1.0 drag 1.0 couple xyz
variable boxx equal lx
variable boxy equal ly
variable boxz equal lz
variable boxp equal press
variable boxt equal temp
# calculate averages every 10000 steps
reset_timestep 0
fix 21 all ave/time 10 10 100 v_boxx v_boxy v_boxz v_boxp v_boxt file lattice.out
thermo_style custom step temp pe ke etotal press lx ly lz press pxx pyy pzz pxy pxz pyz vol
thermo_modify flush yes
thermo 100
run 100000
PPPM initialization ...
  G vector (1/distance) = 0.352801
  grid = 8 8 8
  stencil order = 5
  estimated absolute RMS force accuracy = 3.76353e-05
  estimated relative force accuracy = 2.61363e-06
  using double precision FFTs
  3d grid and FFT values/proc = 3375 512
Memory usage per processor = 3.06549 Mbytes
Step Temp PotEng KinEng TotEng Press Lx Ly Lz Press Pxx Pyy Pzz Pxy Pxz Pyz Volume 
       0         1800   -108.11055    1.6286778   -106.48187    23054.297     4.226584     4.226584     4.226584    23054.297    6332.4725    17396.937    45433.482   -1038.9579   -703.54009     22270.67    75.503748 
     100    1231.2404   -107.39639    1.1140522   -106.28234   -9733.9142    4.2605302    4.2605302    4.2605302   -9733.9142    -11485.12   -38101.031    20384.408   -2271.8903    1268.5073   -24888.801    77.337645 
     200    1711.5575   -107.38227    1.5486532   -105.83362   -54124.672    4.3092962    4.3092962    4.3092962   -54124.672    -51056.92    -81011.63   -30305.466   -8547.1253   -1930.1455   -21823.877    80.023777 
     300    2096.7585   -107.34834    1.8971912   -105.45115   -38293.412    4.3133901    4.3133901    4.3133901   -38293.412    -73722.95   -34926.637   -6230.6485    11478.037   -2715.5081    11353.597    80.252062 
     400    2369.0548   -107.29302    2.1435705   -105.14945   -21502.317    4.2972987    4.2972987    4.2972987   -21502.317    -58972.29   -10075.637    4540.9756    7796.7788   -7435.9671   -8576.4929    79.357252 
     500    2959.5856   -107.64581    2.6778953   -104.96792   -29633.095    4.2994133    4.2994133    4.2994133   -29633.095   -61718.746   -17913.594   -9266.9442    13011.971    167.58334   -22524.831    79.474463 
     600    2399.6716   -107.07618    2.1712733    -104.9049   -49688.923    4.3195591    4.3195591    4.3195591   -49688.923   -103296.98   -45351.169   -418.62498   -1334.3007   -6763.6035   -12238.488    80.596884 
     700    2765.1756   -107.35783     2.501989   -104.85584   -43534.158    4.3231288    4.3231288    4.3231288   -43534.158   -66490.632   -66088.071    1976.2302   -1650.1378    7707.5913    25927.974    80.796869 
     800    1828.0335   -106.51666    1.6540431   -104.86262   -35537.655    4.3120055    4.3120055    4.3120055   -35537.655   -80931.348   -69443.245    43761.629   -17399.526   -3367.6614   -2055.3264    80.174809 
     900    2714.9517   -107.31918    2.4565453   -104.86264   -6556.0049    4.2973212    4.2973212    4.2973212   -6556.0049   -41455.429    10379.442    11407.972    403.32576    4099.1351   -31656.456    79.358501 
    1000    1443.2225   -106.20551    1.3058581   -104.89965     7393.699    4.2988101    4.2988101    4.2988101     7393.699   -35230.194    42906.555    14504.735    11707.297    5076.2228    2963.9183    79.441015 
    1100    1574.5963   -106.31926    1.4247278   -104.89453   -26825.977    4.3184998    4.3184998    4.3184998   -26825.977   -59930.178   -72532.148    51984.394   -12692.487   -5225.8106     -3706.28    80.537605 
    1200    1804.2551   -106.47832    1.6325279    -104.8458    7679.2809     4.322675     4.322675     4.322675    7679.2809   -66253.027   -2675.2529    91966.123   -1887.5635   -1341.6579    16104.514    80.771429 
    1300    1708.2565   -106.38193    1.5456663   -104.83626    8532.0725    4.3061635    4.3061635    4.3061635    8532.0725   -83519.011    48451.208    60664.021   -34571.252    748.43112    149.68214    79.849379 
    1400    2552.7374   -107.14593    2.3097704   -104.83616   -16958.797    4.2973362    4.2973362    4.2973362   -16958.797   -62123.788    22699.492   -11452.095   -7188.4388   -17099.799    7089.8399     79.35933 
    1500     2076.392   -106.75666    1.8787631    -104.8779   -25791.845    4.3203439    4.3203439    4.3203439   -25791.845    -73171.51    5026.6767   -9230.7011   -10725.735   -1050.4205    12488.999    80.640825 
    1600     2114.563   -106.77314     1.913301   -104.85984   -32853.111    4.3414792    4.3414792    4.3414792   -32853.111   -68041.186   -15475.441   -15042.708   -2313.5015   -10355.036    18112.684    81.830117 
    1700    1698.2078   -106.37439    1.5365741   -104.83781    -49999.39    4.3379026    4.3379026    4.3379026    -49999.39   -85343.729    -26451.04   -38203.402   -158.51716    16916.561   -18978.634    81.628046 
    1800    1598.4289    -106.2699    1.4462921   -104.82361    21903.618    4.2917252    4.2917252    4.2917252    21903.618   -49388.382   -26525.397    141624.63     3834.564   -3117.8526   -14412.623    79.048878 
    1900    1954.2393   -106.63355    1.7682368   -104.86531    32139.876     4.277384     4.277384     4.277384    32139.876    -22958.98    6527.1585    112851.45   -2837.4433    2842.9696    30397.747    78.259076 
    2000     1098.326   -105.92458   0.99378842   -104.93079     5886.344    4.3248052    4.3248052    4.3248052     5886.344   -58259.912    22257.934    53661.011   -6531.5675    11349.466    -5291.385    80.890899 
    2100      1615.25   -106.31986    1.4615121   -104.85835    -2380.671     4.345549     4.345549     4.345549    -2380.671   -91107.305    10720.259    73245.033   -3377.4724   -10042.578    40.730653    82.060463 
    2200    1999.2943   -106.62779    1.8090035   -104.81878   -34583.449    4.3232611    4.3232611    4.3232611   -34583.449   -77940.224   -23253.041   -2557.0811    1828.9865     14921.43   -13150.828    80.804285 
    2300    1024.5364   -105.71872   0.92702208    -104.7917    814.94298    4.2948508    4.2948508    4.2948508    814.94298   -52211.123   -60874.469    115530.42    14597.251    5068.2013    17296.188    79.221718 
    2400    1551.7609   -106.19735    1.4040659   -104.79328    64263.816    4.2857487    4.2857487    4.2857487    64263.816    -11493.03    124756.45    79528.031   -9754.2296    7866.8632   -1404.7941    78.719096 
    2500    2266.3147    -106.9059    2.0506092   -104.85529    -34194.45    4.3164952    4.3164952    4.3164952    -34194.45   -74107.282    2099.9864   -30576.055    5884.3655    5809.3619    26980.339    80.425502 
    2600    1486.7636   -106.17249     1.345255   -104.82724   -33532.313    4.3319233    4.3319233    4.3319233   -33532.313   -66180.454   -14016.396    -20400.09   -6500.2607   -4231.3754   -31158.459    81.290962 
    2700    1825.8588   -106.44644    1.6520754   -104.79437    -13037.35    4.3111299    4.3111299    4.3111299    -13037.35   -27852.233   -7640.3365   -3619.4804   -10562.939    2041.2729     3080.902    80.125975 
    2800    1459.0958    -106.1212    1.3202206   -104.80098    10702.552    4.2786227    4.2786227    4.2786227    10702.552   -11729.357   -10004.616    53841.629    7631.2786   -3089.0549    2521.1368    78.327085 
    2900    1372.5409   -106.08543    1.2419039   -104.84353    49098.925    4.2718266    4.2718266    4.2718266    49098.925   -34321.237     93531.64    88086.372   -20642.698   -3022.2185    -24466.11     77.95444 
    3000    2302.8609   -106.96396    2.0836769   -104.88028   -38318.558    4.3200099    4.3200099    4.3200099   -38318.558   -41256.171   -23433.079   -50266.422   -12589.015    1743.6945   -1443.0092    80.622122 
    3100    1575.2079   -106.23713    1.4252812   -104.81185    24356.728    4.3371758    4.3371758    4.3371758    24356.728   -27648.443    55287.733    45430.894     -10478.6    -11076.91    8712.8669    81.587024 
    3200    2042.1591   -106.60376    1.8477885   -104.75597   -22684.194    4.3267796    4.3267796    4.3267796   -22684.194   -35451.097   -23826.562   -8774.9229    4322.4932   -5021.3751   -17371.339    81.001733 
    3300    1320.0422   -105.96376    1.1944019   -104.76936   -17805.558    4.3280076    4.3280076    4.3280076   -17805.558   -24502.792   -14462.553   -14451.329    16305.753    2340.3536    28101.377    81.070725 
    3400    2025.4098   -106.59346    1.8326333   -104.76082    10044.811    4.3273888    4.3273888    4.3273888    10044.811   -49998.601    80912.472   -779.43738    21879.226    9725.3455   -10482.846    81.035952 
    3500    1240.9508   -105.89696    1.1228384   -104.77412    39892.565    4.3273022    4.3273022    4.3273022    39892.565   -39652.749    163467.86   -4137.4124   -2632.2582   -8495.0596   -21559.165    81.031088 
    3600    1795.0929   -106.39138    1.6242378   -104.76714    1313.7617    4.3351038    4.3351038    4.3351038    1313.7617    12013.717    43546.624   -51619.056    10938.508   -1205.1025    5835.8336    81.470145 
    3700    1335.4213   -105.97065    1.2083172   -104.76233   -15017.872    4.3453829    4.3453829    4.3453829   -15017.872   -25489.658     18483.37   -38047.327    23969.279   -11120.526    10296.922    82.051053 
    3800    2108.0678   -106.64847    1.9074241   -104.74105   -26741.903    4.3249682    4.3249682    4.3249682   -26741.903   -34082.153   -44467.457   -1676.0987   -6814.8828    -9843.627    45690.286    80.900043 
    3900    2150.1622   -106.71416     1.945512   -104.76864    24145.067    4.3076795    4.3076795    4.3076795    24145.067   -57429.085    159607.18   -29742.899   -16013.354   -9895.2824   -19155.634    79.933742 
    4000    2568.6745    -107.1401    2.3241907   -104.81591   -25689.288    4.3167615    4.3167615    4.3167615   -25689.288   -21620.035   -24490.559   -30957.269   -9895.4529     4791.868   -16623.326    80.440391 
    4100    1123.1725   -105.85341    1.0162701   -104.83714    43489.395    4.3325862    4.3325862    4.3325862    43489.395    18030.939    157267.67   -44830.425   -8192.3084    808.64769    10495.283    81.328289 
    4200    1978.9594   -106.59641     1.790604   -104.80581   -31454.961    4.3626365    4.3626365    4.3626365   -31454.961   -79321.413    20329.443   -35372.914   -1023.6963    1449.4577    11844.253    83.032306 
    4300    1872.7541   -106.44304    1.6945073   -104.74853   -21619.445    4.3505205    4.3505205    4.3505205   -21619.445    19369.405   -35622.971   -48604.768    17795.936   -22826.157    32251.006    82.342428 
    4400    1926.9504   -106.43775    1.7435452   -104.69421    32222.781    4.3148676    4.3148676    4.3148676    32222.781    81401.427    68843.991   -53577.075   -9890.4546     -15247.3    -831.4952    80.334561 
    4500    1298.4088   -105.92556    1.1748276   -104.75073    27107.721     4.317847     4.317847     4.317847    27107.721   -5736.9234    31319.365    55740.721   -13487.663    4923.4693    10754.874     80.50109 
    4600    1968.6755   -106.57095     1.781299   -104.78965   -11149.173     4.336918     4.336918     4.336918   -11149.173   -59580.837    59214.336   -33081.018    12216.112   -9.8390622    26944.347    81.572475 
    4700    1897.3713   -106.51763    1.7167815   -104.80085   -32719.138    4.3492658    4.3492658    4.3492658   -32719.138    -11792.34   -64993.421   -21371.652    1980.7621   -415.67055   -24602.748    82.271204 
    4800    1909.0302   -106.50602    1.7273306   -104.77869    3475.4268    4.3206431    4.3206431    4.3206431    3475.4268    40511.299    29495.965   -59580.984    5566.0011    837.07568   -29215.809    80.657579 
    4900    1696.1452   -106.30253    1.5347078   -104.76782    46474.308    4.2982812    4.2982812    4.2982812    46474.308    42097.712    23318.772     74006.44     17318.33    1549.4364    12059.713    79.411696 
    5000    1735.8694   -106.38724    1.5706511   -104.81659    5431.2002    4.3195789    4.3195789    4.3195789    5431.2002   -3706.2207     19140.93    858.89091   -8050.7732     3843.812     -30772.1    80.597997 
    5100    2213.1743   -106.80287    2.0025267   -104.80034    -40370.48     4.349316     4.349316     4.349316    -40370.48   -68812.928   -30521.719   -21776.793    17686.777   -13926.485   -1990.4658    82.274053 
    5200    1838.4863   -106.40912     1.663501   -104.74562   -9550.1374    4.3589769    4.3589769    4.3589769   -9550.1374    1259.1095   -23282.604   -6626.9174    10074.386     11582.49   -8479.8347    82.823525 
    5300    1240.3395   -105.81033    1.1222852   -104.68805   -6166.9921    4.3456717    4.3456717    4.3456717   -6166.9921    81466.267   -34842.832   -65124.411   -27681.164    3737.1319     -10879.9    82.067411 
    5400    2168.1898   -106.61806    1.9618237   -104.65624   -14583.532    4.3215446    4.3215446    4.3215446   -14583.532    10512.438   -24629.087   -29633.949   -16116.508   -7575.8949    6477.5652    80.708077 
    5500     1450.405   -106.00817    1.3123569   -104.69581    34845.793    4.2985324    4.2985324    4.2985324    34845.793    60429.478    37288.628    6819.2733   -33894.973   -4440.7354   -3599.9004    79.425618 
    5600    1540.1445   -106.18603    1.3935551   -104.79247    56565.657    4.3124914    4.3124914    4.3124914    56565.657    30525.185     61405.27    77766.516   -23352.677    9925.3906    974.79643     80.20191 
    5700    2059.4951    -106.6572    1.8634744   -104.79372   -32283.014    4.3442753    4.3442753    4.3442753   -32283.014   -66629.958   -2468.5895   -27750.496    4544.3047   -8644.8028   -8390.1921    81.988324 
    5800    1510.2678   -106.11224     1.366522   -104.74571   -13568.744    4.3238907    4.3238907    4.3238907   -13568.744   -36325.476    31863.776   -36244.531    2876.2232    8904.3144   -21963.295    80.839594 
    5900    2127.1165   -106.65348    1.9246597   -104.72882     25764.32    4.2932106    4.2932106    4.2932106     25764.32    27121.766    20105.877    30065.318   -3912.8424     4173.645   -22376.861    79.130986 
    6000     1312.806   -106.01071    1.1878544   -104.82285    12467.642     4.318444     4.318444     4.318444    12467.642   -32558.192    55339.205    14621.913    4943.0225   -25326.188   -905.73378    80.534482 
    6100    1677.9201    -106.3245    1.5182173   -104.80628    -9921.998    4.3576907    4.3576907    4.3576907    -9921.998   -18175.596    81310.344   -92900.742    16500.222    6070.3475   -25219.934    82.750228 
    6200    1605.1934   -106.19247    1.4524127   -104.74006   -2023.5967    4.3680113    4.3680113    4.3680113   -2023.5967   -12747.292    86744.417   -80067.915    40796.314   -14192.051    1120.1551    83.339569 
    6300    1513.0421   -106.06883    1.3690323    -104.6998    14618.828    4.3357859    4.3357859    4.3357859    14618.828     19347.79    80857.311   -56348.616    14338.522    4842.1964    3749.7304    81.508609 
    6400    2435.4842   -106.90701    2.2036773   -104.70333   -25625.507    4.3120767    4.3120767    4.3120767   -25625.507   -33640.116      4046.22   -47282.626    17403.959   -5228.1282    12490.828    80.178776 
    6500    1757.6352   -106.37924    1.5903453    -104.7889    11784.685    4.3161035    4.3161035    4.3161035    11784.685   -36000.309    133393.54   -62039.173    23372.294   -1302.5126      1143.32     80.40361 
    6600    2175.5658   -106.79793    1.9684977   -104.82943   -42884.812    4.3422417    4.3422417    4.3422417   -42884.812   -54080.216    988.25119   -75562.473   -7820.6131    841.24222     7904.536    81.873243 
    6700    1551.6201    -106.1971    1.4039385   -104.79316    592.57322    4.3351941    4.3351941    4.3351941    592.57322   -42301.542    61908.978   -17829.716    4467.9091     -994.969    10200.872    81.475241 
    6800    1951.9637   -106.51006    1.7661777   -104.74388    13540.386    4.3045055    4.3045055    4.3045055    13540.386    14115.826     9916.846    16588.486    18007.224   -2871.4687    2808.8459     79.75718 
    6900    1792.0214   -106.40141    1.6214587   -104.77995    6939.0339    4.3056945    4.3056945    4.3056945    6939.0339   -4834.3164    12897.859    12753.559   -6174.2598   -12259.672     7840.213    79.823294 
    7000    2403.0717   -106.96776    2.1743498   -104.79341   -35796.809    4.3324603    4.3324603    4.3324603   -35796.809   -30535.368     -34103.7   -42751.358    10230.588    3145.0723   -1337.7704    81.321197 
    7100    1863.6335   -106.45484    1.6862548   -104.76859   -36046.847    4.3428832    4.3428832    4.3428832   -36046.847   -2321.9417   -35311.285   -70507.314    23778.174   -12802.122    3133.6851     81.90953 
    7200    1274.0516   -105.91827    1.1527887   -104.76548    9262.2061    4.3343106    4.3343106    4.3343106    9262.2061    105392.69   -27912.155   -49693.915    22377.956    3508.3637    4246.2782    81.425438 
    7300    2078.6881   -106.65446    1.8808407   -104.77362   -12960.395    4.3129149    4.3129149    4.3129149   -12960.395     20681.97   -13377.213   -46185.942    16740.399    -12499.24   -3926.4163    80.225541 
    7400    2456.1271   -107.01986    2.2223554    -104.7975   -31133.404     4.299477     4.299477     4.299477   -31133.404   -5019.9206   -48368.628   -40011.663    8351.4794    4352.8591    4912.6841    79.477995 
    7500    1887.6695   -106.55294     1.708003   -104.84494   -11691.255    4.3170423    4.3170423    4.3170423   -11691.255    24349.848   -43072.691   -16350.921   -30148.341   -1674.0635    3001.5008    80.456089 
    7600     1250.669   -105.95206    1.1316316   -104.82043   -46655.265    4.3459266    4.3459266    4.3459266   -46655.265   -4819.1977   -96910.873   -38235.723    24933.002   -9150.4995    -7379.876    82.081855 
    7700    2413.1999   -106.96072     2.183514    -104.7772   -36395.652    4.3261193    4.3261193    4.3261193   -36395.652   -37740.216   -35478.405   -35968.333   -6412.6451   -23492.018    16760.763    80.964658 
    7800    1556.8259    -106.1709    1.4086488   -104.76225    9999.1458    4.2879785    4.2879785    4.2879785    9999.1458     27010.23   -19226.103     22213.31   -27499.878    -3480.716   -4712.6229    78.842032 
    7900    1612.9282   -106.24871    1.4594113    -104.7893    16558.628     4.289646     4.289646     4.289646    16558.628    29690.563    9350.9344    10634.387    36869.559    429.57291    2891.1553    78.934047 
    8000    1626.7388   -106.27876    1.4719075   -104.80686   -6421.0385    4.3362482    4.3362482    4.3362482   -6421.0385    15974.527   -4647.2816   -30590.361   -20662.269   -3908.0925    3273.6957    81.534685 
    8100    1300.5295   -105.92376    1.1767464   -104.74701   -51369.104    4.3554953    4.3554953    4.3554953   -51369.104   -36605.788   -107274.33   -10227.195   -8471.4286    -9164.733    2489.4916    82.625223 
    8200    2253.3116   -106.76004    2.0388437   -104.72119   -843.40627    4.3114444    4.3114444    4.3114444   -843.40627    46048.038    -31781.07   -16797.188    12143.816     10323.74   -6942.4569    80.143514 
    8300     1406.351   -105.99406     1.272496   -104.72156    50847.669    4.2715889    4.2715889    4.2715889    50847.669    141268.59    30179.095   -18904.679   -36329.479    12856.335   -22535.586    77.941427 
    8400    1366.2403   -106.04366    1.2362029   -104.80746    9920.0173    4.2856305    4.2856305    4.2856305    9920.0173    53505.167   -24018.269    273.15398   -1206.0644   -4984.2201    4488.2724    78.712582 
    8500     2214.274   -106.82868    2.0035216   -104.82515    -21295.59    4.3252966    4.3252966    4.3252966    -21295.59   -28450.953    -28463.75   -6972.0664     9704.352    2575.8412    1725.1218    80.918474 
    8600     2297.653   -106.86306    2.0789647    -104.7841   -43589.486    4.3344214    4.3344214    4.3344214   -43589.486   -58461.007   -56461.913   -15845.537   -30070.717   -2975.2855    1723.1301    81.431682 
    8700    1430.0301   -106.04647    1.2939213   -104.75255    3956.7248     4.305098     4.305098     4.305098    3956.7248   -5090.6142   -50347.282     67308.07     4101.537   -8370.2638    1207.1777    79.790119 
    8800    2255.1563   -106.77698    2.0405129   -104.73647    10922.561    4.2856272    4.2856272    4.2856272    10922.561    27883.809    5061.1332   -177.25788    1817.5761    26012.323   -2162.3058    78.712402 
    8900    2038.9664   -106.63187    1.8448997   -104.78697   -6939.0602    4.2874156    4.2874156    4.2874156   -6939.0602   -25404.754   -20857.225    25444.798    8893.3233    -6005.226    11050.604    78.810986 
    9000    1355.3716   -106.05381    1.2263687   -104.82744    12324.908    4.3127174    4.3127174    4.3127174    12324.908   -30633.281   -15515.733    83123.737   -2244.3879   -7961.0205   -8768.8354    80.214521 
    9100    1786.5395   -106.41307    1.6164984   -104.79657   -53593.961    4.3303339    4.3303339    4.3303339   -53593.961    -53413.97   -84891.159   -22476.756     1188.941    9224.2812    20758.854    81.201521 
    9200    1760.3766   -106.36279    1.5928258   -104.76997    3611.4113    4.2995851    4.2995851    4.2995851    3611.4113    10691.022   -51569.448    51712.659    3684.5252     31914.36   -15005.747    79.483985 
    9300    2639.7504   -107.13731    2.3885017   -104.74881    20984.993    4.2734868    4.2734868    4.2734868    20984.993    18038.522    96.857333    44819.599    6813.6208   -11305.375    9277.3529    78.045362 
    9400    1003.6732   -105.73367   0.90814457   -104.82553    8928.8647    4.3041816    4.3041816    4.3041816    8928.8647    31063.334   -36685.434    32408.694    13662.287    24595.125    27097.547    79.739181 
    9500    2004.2715   -106.60523     1.813507   -104.79172   -36527.589     4.331082     4.331082     4.331082   -36527.589   -44652.714    -40770.81   -24159.242    3198.1444   -18887.987    6609.9189    81.243614 
    9600    1709.3791   -106.30013    1.5466821   -104.75345   -11835.648    4.3200838    4.3200838    4.3200838   -11835.648    20950.549   -29372.202    -27085.29    9057.9174    13730.853    15269.131     80.62626 
    9700    2002.8753   -106.55592    1.8122436   -104.74368   -21725.306    4.2886774    4.2886774    4.2886774   -21725.306   -31498.613   -30461.924   -3215.3811   -11388.445    3138.1014    4223.7977    78.880587 
    9800    1822.7731   -106.42049    1.6492834   -104.77121    49374.694    4.2689507    4.2689507    4.2689507    49374.694    76232.552    3281.7412    68609.789    2307.7105   -2963.0112   -4461.3157    77.797102 
    9900    1554.9013   -106.25841    1.4069074   -104.85151    11499.849    4.3011377    4.3011377    4.3011377    11499.849     66027.37   -35828.639    4300.8165   -4895.6902    15063.992    18424.059    79.570126 
   10000    1951.1666   -106.57369    1.7654566   -104.80823   -48672.974    4.3431376    4.3431376    4.3431376   -48672.974   -81871.978   -76840.518    12693.574    -20131.45    4590.4466   -2384.4572    81.923929 
   10100    1802.5009   -106.37074    1.6309407    -104.7398   -45112.273    4.3352323    4.3352323    4.3352323   -45112.273    14280.266   -58310.948   -91306.137    16142.601    4903.2407   -997.58489    81.477391 
   10200    2184.7783   -106.66861    1.9768333   -104.69177   -21851.599    4.3070035    4.3070035    4.3070035   -21851.599   -12003.754    340.36396   -53891.406   -5266.9073   -4066.8153    11913.419    79.896117 
   10300    1902.7612   -106.47526    1.7216583   -104.75361   -19126.644      4.31306      4.31306      4.31306   -19126.644   -11490.501    23709.744   -69599.176   -11232.165    2169.8077     -13292.3    80.233643 
   10400    2168.1707   -106.73921    1.9618064   -104.77741   -40693.079    4.3294051    4.3294051    4.3294051   -40693.079   -32861.369    -19235.19   -69982.679   -1957.6468   -3089.6874    -16904.46    81.149279 
   10500    1932.1844    -106.5095     1.748281   -104.76122   -983.01923    4.3203887    4.3203887    4.3203887   -983.01923   -9409.0058    24484.019   -18024.071   -17114.715   -3914.1249   -6209.9229    80.643335 
   10600    1719.9508   -106.32816    1.5562476   -104.77191    27314.633    4.3156853    4.3156853    4.3156853    27314.633   -34377.724    127975.17   -11653.548   -2167.1593    12695.071    21537.885    80.380242 
   10700    1582.3718    -106.2363    1.4317633   -104.80454   -12854.241    4.3426908    4.3426908    4.3426908   -12854.241   -77636.073    42457.706   -3384.3546   -13809.588    28970.784   -7972.3257    81.898644 
   10800    1223.0334   -105.88072    1.1066263    -104.7741   -14383.326    4.3545615    4.3545615    4.3545615   -14383.326   -34704.567    7820.3264   -16265.736    -13001.03    54205.057      16086.6     82.57209 
   10900    2118.8844   -106.63289    1.9172112   -104.71567    3374.5017    4.3367127    4.3367127    4.3367127    3374.5017     28175.75    24130.328   -42182.573    -9845.696    192.59641    7162.5729    81.560891 
   11000    1337.4686   -105.94609    1.2101697   -104.73592   -7036.1178     4.337968     4.337968     4.337968   -7036.1178    13723.157    18503.043   -53334.553    -34377.78    24347.068   -3130.3097    81.631737 
   11100    1889.9346   -106.43327    1.7100526   -104.72321   -1814.5545    4.3326225    4.3326225    4.3326225   -1814.5545    40554.917    4721.7882   -50720.368    -23437.59   -2394.5234   -8086.8758    81.330332 
   11200    1781.8951   -106.35658    1.6122962   -104.74429     7906.257     4.321354     4.321354     4.321354     7906.257    26143.421    13106.324   -15530.974     -16260.3    31731.692   -6609.5308    80.697398 
   11300    1992.7609   -106.57347     1.803092   -104.77038   -14439.023    4.3247036    4.3247036    4.3247036   -14439.023   -2426.3216    12712.681   -53603.427    3538.9574   -16527.279    21966.718    80.885198 
   11400    1464.8871   -106.11519    1.3254606   -104.78973   -1277.6694    4.3246094    4.3246094    4.3246094   -1277.6694    35356.105    57450.032   -96639.146   -13723.155    18652.336   -4698.3642    80.879914 
   11500    2137.0538   -106.70393    1.9336511   -104.77027    2201.4944    4.3233246    4.3233246    4.3233246    2201.4944   -10785.258    59034.166   -41644.425    14499.542    8604.1439    9899.6139    80.807849 
   11600    2028.5384   -106.59649    1.8354642   -104.76103   -37524.211    4.3190254    4.3190254    4.3190254   -37524.211    -4948.894   -52473.348   -55150.391   -14671.494    -1968.213    21213.913    80.567012 
   11700    1894.1349   -106.48345     1.713853   -104.76959    11312.938    4.3146326    4.3146326    4.3146326    11312.938     6890.837    57152.217   -30104.241   -3357.6297    35717.604   -10309.676    80.321433 
   11800    1745.4732   -106.36296    1.5793409   -104.78362    13086.271    4.3179163    4.3179163    4.3179163    13086.271     78707.42    27276.877   -66725.485   -9976.9086   -11268.196   -10320.864    80.504965 
   11900    1748.9249   -106.36151     1.582464   -104.77905   -59539.665    4.3314486    4.3314486    4.3314486   -59539.665   -3647.0531    -84480.92    -90491.02   -5293.4467    19114.113    712.49336    81.264245 
   12000    2286.4446   -106.81971    2.0688231   -104.75088   -42639.805     4.325865     4.325865     4.325865   -42639.805   -36553.638   -42783.598   -48582.178    10454.205    25781.633    -7936.078     80.95038 
   12100     1515.809   -106.13396    1.3715359   -104.76243    12583.656     4.309311     4.309311     4.309311    12583.656    82831.564    -34266.23   -10814.366     1449.298   -7500.7472   -2479.0636    80.024599 
   12200    2230.3831   -106.79182    2.0180975   -104.77372    7956.0397    4.3132463    4.3132463    4.3132463    7956.0397    49288.994   -11335.527   -14085.348   -2834.4432    11404.909   -12790.878    80.244039 
   12300    1421.1615   -106.06955    1.2858968   -104.78366     1419.619    4.3175836    4.3175836    4.3175836     1419.619    -1107.871    19938.376   -14571.648   -4264.9941    9450.7372    97.650274    80.486354 
   12400    1933.8952   -106.52988     1.749829   -104.78005   -20897.161    4.3246629    4.3246629    4.3246629   -20897.161    7543.9625   -32059.718   -38175.726    19077.794   -544.80966    15964.256    80.882914 
   12500    2607.9007   -107.11871    2.3596833   -104.75902   -34950.564    4.3281157    4.3281157    4.3281157   -34950.564   -18891.723   -39536.622   -46423.347    -1158.689    752.25194   -19838.713    81.076797 
   12600    1091.8429   -105.75822   0.98792238    -104.7703    31541.883    4.3150443    4.3150443    4.3150443    31541.883    39047.509    54167.655    1410.4857   -10693.177    4100.9725    12844.922     80.34443 
   12700    2012.4957   -106.58382    1.8209484   -104.76288   -2068.3589    4.3096366    4.3096366    4.3096366   -2068.3589   -45877.176    89265.744   -49593.644    4605.5298    4125.4977   -2583.5635    80.042738 
   12800    1913.2503   -106.49948    1.7311491   -104.76834    23339.412    4.3176262    4.3176262    4.3176262    23339.412    21783.158    54041.861    -5806.783   -2016.7418    6581.2495    -339.7187    80.488737 
   12900    2120.3398    -106.6878     1.918528   -104.76927   -31970.405    4.3397692    4.3397692    4.3397692   -31970.405   -58196.739    12210.137   -49924.611    21875.203    -1311.595   -8787.6734    81.733465 
   13000    1699.2526   -106.28712    1.5375195    -104.7496   -2186.3919    4.3480193    4.3480193    4.3480193   -2186.3919   -70878.975    104232.34   -39912.537    5299.5363    2429.1841   -12454.353    82.200488 
   13100    1803.0359   -106.37422    1.6314248    -104.7428   -27220.224    4.3211961    4.3211961    4.3211961   -27220.224    18547.255   -57406.041   -42801.885    1454.2293   -16085.779   -10961.072    80.688551 
   13200    1258.3987   -105.87765    1.1386256   -104.73903    50899.851    4.2726119    4.2726119    4.2726119    50899.851      89372.4    23870.421    39456.731    2787.0896    20503.517   -3501.8808     77.99744 
   13300    2071.2561   -106.68496     1.874116   -104.81085    35973.104    4.2797853    4.2797853    4.2797853    35973.104    48641.511    66649.179   -7371.3766   -8992.6759    6605.0721    -338.5399    78.390955 
   13400    2569.2067   -107.15012    2.3246722   -104.82545    -53466.01    4.3234902    4.3234902    4.3234902    -53466.01   -15740.632   -62030.244   -82627.156   -2291.2411   -10808.469   -36687.274     80.81713 
   13500    1195.8934   -105.88948    1.0820695   -104.80741    5570.0068    4.3186621    4.3186621    4.3186621    5570.0068    79082.342   -27571.914   -34800.407   -7783.3541   -2284.3145    -13701.38    80.546687 
   13600    1610.4244   -106.24306    1.4571458   -104.78592    38633.307    4.3026991    4.3026991    4.3026991    38633.307    96085.159    13331.138    6483.6255    -11934.93    1067.7173    767.92451    79.656813 
   13700    2160.3183   -106.74988    1.9547014   -104.79517    13136.083    4.3109126    4.3109126    4.3109126    13136.083    67105.596    1892.9605   -29590.307    33816.201   -6903.1569    11174.182    80.113861 
   13800    1136.1741    -105.8274    1.0280342   -104.79937    18470.428    4.3237077    4.3237077    4.3237077    18470.428    85731.472    15165.414   -45485.601   -7608.9073   -24806.306    17412.839    80.829332 
   13900     1678.267   -106.28806    1.5185312   -104.76953    -16683.08    4.3265533    4.3265533    4.3265533    -16683.08   -22977.916   -25413.425   -1657.8977    34831.077   -10674.778   -7122.1314    80.989024 
   14000    1881.2141   -106.45631    1.7021621   -104.75415    22123.117    4.3031147    4.3031147    4.3031147    22123.117    52493.671    5798.2761    8077.4049    38246.521   -12314.506    12539.285    79.679895 
   14100    2251.2621   -106.81345    2.0369892   -104.77646   -4681.6484    4.2952829    4.2952829    4.2952829   -4681.6484    21951.495   -30416.031   -5580.4093   -31045.342   -2014.9758    2878.4895    79.245632 
   14200    1498.2189   -106.17073    1.3556199   -104.81511   -15514.605    4.3083985    4.3083985    4.3083985   -15514.605   -28930.711   -22757.468    5144.3637    29517.876   -14923.142   -6372.8834    79.973777 
   14300    1781.5571   -106.41585    1.6119903   -104.80386   -7630.5957    4.3149761    4.3149761    4.3149761   -7630.5957     30357.95   -26282.702   -26967.035    8920.6912      3111.55    11797.423    80.340621 
   14400     1491.149   -106.14408    1.3492229   -104.79485    9997.1698    4.3238678    4.3238678    4.3238678    9997.1698    69033.261   -35769.334   -3272.4172   -9139.0225   -23899.455   -8175.2593    80.838311 
   14500    1476.9903   -106.11788    1.3364119   -104.78147   -4268.1073    4.3228992    4.3228992    4.3228992   -4268.1073    74074.978   -75229.419   -11649.881     37701.39    -9293.551     12651.31    80.783996 
   14600    2467.3466   -107.00919     2.232507   -104.77669   -3616.2767    4.3155682    4.3155682    4.3155682   -3616.2767    64469.487   -61241.631   -14076.686    6582.1453    6008.7352    13076.613    80.373697 
   14700    1727.8927   -106.37252    1.5634336   -104.80908    3088.1499    4.3050099    4.3050099    4.3050099    3088.1499    60950.689   -20620.483   -31065.756   -5065.5327   -22760.536   -2369.2562    79.785223 
   14800     1321.831   -106.03182    1.1960205    -104.8358     20101.18    4.2974791    4.2974791    4.2974791     20101.18    155954.94   -47728.909   -47922.487    27380.132    24658.313    20550.426    79.367246 
   14900    2268.5012   -106.89154    2.0525876   -104.83895   -35890.883    4.3169332    4.3169332    4.3169332   -35890.883    263.15785   -79033.355   -28902.453   -4489.4592    -7470.482   -677.07395    80.449987 
   15000    1707.5738   -106.34989    1.5450487   -104.80484    14400.925    4.3215501    4.3215501    4.3215501    14400.925    103966.41   -31925.562   -28838.069    2078.6389     16440.89    23531.258    80.708385 
   15100    1908.9485   -106.51239    1.7272567   -104.78514   -16951.559     4.322097     4.322097     4.322097   -16951.559    20025.214   -62117.147   -8762.7444    4634.0634    12939.455   -581.71982    80.739028 
   15200    1602.7671   -106.22742    1.4502173   -104.77721   -24843.309    4.3115898    4.3115898    4.3115898   -24843.309    28921.777   -106353.25     2901.548   -16627.381   -6333.6257    21465.935    80.151622 
   15300    2223.4565   -106.77299    2.0118302   -104.76116    753.47587    4.2948193    4.2948193    4.2948193    753.47587    29090.682   -21721.198   -5109.0559    15897.664    3574.3201    2538.9801    79.219973 
   15400    908.77692   -105.63197   0.82228045   -104.80969   -3321.5502    4.3006826    4.3006826    4.3006826   -3321.5502    33377.349   -100192.06    56850.057   -16016.364   -19964.424    17645.969    79.544872 
   15500    2053.7047   -106.68328    1.8582351   -104.82504   -21846.573    4.3121434    4.3121434    4.3121434   -21846.573   -40913.921   -60042.466    35416.669    5317.1077   -3257.5632    1260.7042    80.182501 
   15600     2143.222   -106.75019    1.9392323   -104.81096    13716.857    4.3155625    4.3155625    4.3155625    13716.857    71635.743   -25677.008   -4808.1656    14166.207    13456.379   -7431.1382    80.373382 
   15700    981.75586   -105.69272   0.88831333   -104.80441    17932.599    4.3060268    4.3060268    4.3060268    17932.599    56743.542   -18409.728    15463.985    28005.389    5702.5972   -482.51359    79.841777 
   15800    1075.5721   -105.76024   0.97320021   -104.78704    20741.862    4.2974684    4.2974684    4.2974684    20741.862    25997.602   -13531.472    49759.456     37639.35    15440.028   -13638.071    79.366657 
   15900    2147.6842   -106.70507    1.9432698    -104.7618     34325.79    4.3110466    4.3110466    4.3110466     34325.79    77241.756   -14328.529    40064.144    6450.3857    20734.291    4514.9232    80.121331 
   16000    1790.5358   -106.39258    1.6201145   -104.77247   -19329.042    4.3371015    4.3371015    4.3371015   -19329.042    5054.2125   -70495.473    7454.1351   -584.92303     13276.41    8932.3009    81.582827 
   16100    1547.5923   -106.12735     1.400294   -104.72706   -51266.991    4.3478264    4.3478264    4.3478264   -51266.991   -65128.167   -83732.797   -4940.0102     21181.45   -13900.784   -9489.3192    82.189545 
   16200    2292.7021   -106.78048     2.074485     -104.706    8291.8931    4.3088783    4.3088783    4.3088783    8291.8931    36160.928   -42829.262    31544.014   -4991.1354    3702.9677    -128.6301    80.000497 
   16300    1856.0566    -106.3982     1.679399    -104.7188    14200.322    4.2650454    4.2650454    4.2650454    14200.322    37004.573   -27587.061    33183.453   -3073.2097    10192.657   -18801.275    77.583788 
   16400    1031.4065    -105.7562   0.93323827   -104.82296    33154.862     4.276771     4.276771     4.276771    33154.862   -84.772774    -17380.01    116929.37    5116.7586   -20168.299    7203.8312    78.225437 
   16500    2147.2161   -106.77497    1.9428462   -104.83212   -34620.485    4.3094472    4.3094472    4.3094472   -34620.485   -15421.357   -75990.682   -12449.416   -2015.0672   -14953.365   -7599.6368    80.032189 
   16600    1024.8844   -105.74595   0.92733693   -104.81861    6629.1777    4.3256757    4.3256757    4.3256757    6629.1777    21227.948   -81510.278    80169.863    16872.335   -1574.4271    9763.1445     80.93975 
   16700    1854.5006   -106.45177    1.6779911   -104.77378    -2520.051    4.3258033    4.3258033    4.3258033    -2520.051   -6421.9932   -73337.621    72199.461   -537.46776   -18280.697    7067.4661    80.946913 
   16800    1992.2843   -106.55138    1.8026607   -104.74871   -169.56099    4.3146332    4.3146332    4.3146332   -169.56099    27655.678   -65219.893    37055.532   -6583.6056   -28562.294   -18569.876    80.321468 
   16900    1345.5008   -105.98337    1.2174374   -104.76593   -9261.0946    4.3177121    4.3177121    4.3177121   -9261.0946   -9067.5603   -31816.424    13100.701   -13789.826    13201.532   -8202.8978    80.493542 
   17000    1811.0279   -106.39275    1.6386561   -104.75409   -40271.129    4.3160604    4.3160604    4.3160604   -40271.129   -50524.361   -54736.888   -15552.139    7520.8614   -2223.2082   -8982.0773    80.401202 
   17100    1824.8297   -106.39672    1.6511443   -104.74558   -12746.188    4.3045821    4.3045821    4.3045821   -12746.188    41547.838   -66207.269   -13579.134    9026.8694   -3815.7391    7814.3152     79.76144 
   17200    2294.3698   -106.84697     2.075994   -104.77097    11511.874    4.3116349    4.3116349    4.3116349    11511.874    7789.8881    767.80975    25977.924    6812.8496   -6841.4623   -11054.703    80.154135 
   17300     932.1901    -105.6195   0.84346519   -104.77603   -25214.054    4.3325817    4.3325817    4.3325817   -25214.054    20525.852   -61338.986   -34829.028   -3311.6971    7102.5316    42942.334    81.328033 
   17400    1407.7124    -106.0045    1.2737277   -104.73077    11162.196    4.3073832    4.3073832    4.3073832    11162.196    84986.624   -5688.4714   -45811.564   -6172.1081    3384.6118    39693.478    79.917252 
   17500    2030.9526   -106.56571    1.8376486   -104.72806    28026.021    4.2891826    4.2891826    4.2891826    28026.021    23731.052    71559.603   -11212.592    10362.377    817.85761   -8780.7172    78.908465 
   17600    1735.2817   -106.36479    1.5701194   -104.79467   -26332.015    4.3272225    4.3272225    4.3272225   -26332.015    9974.7276   -17990.644    -70980.13    1443.1158   -11511.823     34211.32    81.026614 
   17700    2129.2204   -106.66481    1.9265633   -104.73825   -2797.4868      4.33227      4.33227      4.33227   -2797.4868   -2595.0651   -17211.296      11413.9    6577.1403    16086.345   -6574.4341    81.310483 
   17800    1313.4857   -105.91095    1.1884695   -104.72248     29708.88     4.300298     4.300298     4.300298     29708.88    5693.2297    21008.567    62424.844    1497.9791    2522.4569    41907.243    79.523533 
   17900    2089.2928   -106.63232     1.890436   -104.74188    25331.433    4.3003195    4.3003195    4.3003195    25331.433   -12477.244    54729.805    33741.738    -2937.962   -6135.0393    1093.2097    79.524722 
   18000    1702.5361   -106.30065    1.5404904   -104.76016    12292.989    4.3093884    4.3093884    4.3093884    12292.989    6254.4393   -24541.905    55166.432    3474.2584    19238.596   -1763.7818    80.028913 
   18100    1345.6968   -105.98699    1.2176147   -104.76937   -3920.8726    4.2965162    4.2965162    4.2965162   -3920.8726   -1778.0809   -9910.7785   -73.758297    8657.2185   -9291.5548    30390.243    79.313912 
   18200    2381.6736   -106.92596    2.1549883   -104.77097    10717.727    4.2906849    4.2906849    4.2906849    10717.727    41030.186    7747.8458   -16624.852     24008.18   -23147.473   -3985.2502    78.991411 
   18300    1947.5034   -106.55847     1.762142   -104.79632    3804.2877     4.296654     4.296654     4.296654    3804.2877    49513.184    -31917.88   -6182.4406   -3151.3114    11681.601    44218.533    79.321543 
   18400    1033.9298    -105.7449   0.93552141   -104.80937    20586.255     4.305397     4.305397     4.305397    20586.255    70701.682   -14244.141     5301.223   -5647.2646    -11218.08    15944.126     79.80675 
   18500    1787.0637   -106.40266    1.6169728   -104.78569   -11406.227    4.3167688    4.3167688    4.3167688   -11406.227    25371.618    -28765.32    -30824.98    7398.0686   -12353.547   -10118.435    80.440795 
   18600    2208.0391   -106.76509    1.9978802   -104.76721    3813.7222    4.3068589    4.3068589    4.3068589    3813.7222    13919.128    22559.473   -25037.435   -13340.065    4993.5893    534.37193     79.88807 
   18700     1534.982   -106.17819     1.388884    -104.7893    34053.693     4.296717     4.296717     4.296717    34053.693    84600.198    25491.399   -7930.5183   -3267.4685   -17874.971   -5244.0956    79.325029 
   18800    2089.6821   -106.71996    1.8907882   -104.82917   -4755.5832    4.3223727    4.3223727    4.3223727   -4755.5832   -31033.204   -9266.9521    26033.406   -2024.9636   -6363.8211   -22349.495    80.754479 
   18900    1892.2717     -106.502    1.7121672   -104.78983   -13680.874    4.3364298    4.3364298    4.3364298   -13680.874    311.34751   -71338.201    29984.233    4895.8273   -21144.269    -8851.374    81.544932 
   19000    1435.5799    -106.0499    1.2989429   -104.75096   -9191.1417    4.3237378    4.3237378    4.3237378   -9191.1417   -22650.939    34257.376   -39179.863    20484.852   -28249.211   -6153.6807    80.831016 
   19100    2622.1717   -107.11242     2.372596   -104.73982   -36667.124     4.310977     4.310977     4.310977   -36667.124   -21845.614   -24331.758   -63824.001    1481.2493   -965.37711   -20562.684    80.117451 
   19200    2278.2791   -106.82491    2.0614348   -104.76348   -1469.3173    4.3060204    4.3060204    4.3060204   -1469.3173   -357.45967    37873.301   -41923.793    26548.612   -29061.616    5368.8266    79.841417 
   19300    1316.9112   -105.98206    1.1915689   -104.79049   -5702.4412    4.3155611    4.3155611    4.3155611   -5702.4412   -22887.895    32828.234   -27047.663    1278.9808   -2929.1225    6863.4516    80.373302 
   19400    2007.3719   -106.58694    1.8163123   -104.77063     -5652.17    4.3272783    4.3272783    4.3272783     -5652.17    27495.284    -18460.53   -25991.264   -20409.521    1681.4625   -10754.422    81.029744 
   19500    1860.6358   -106.43733    1.6835424   -104.75379   -5777.6088    4.3179995    4.3179995    4.3179995   -5777.6088    34408.898    11690.739   -63432.463    5117.0941   -8327.2566   -11046.096    80.509617 
   19600    1817.0973   -106.38807    1.6441479   -104.74393    19756.348    4.2995559    4.2995559    4.2995559    19756.348    44250.841    52061.889   -37043.687   -20509.875    36375.959   -12351.363    79.482369 
   19700    2092.9258   -106.66528    1.8937233   -104.77155    19848.264    4.3011188    4.3011188    4.3011188    19848.264    106857.92   -35946.078   -11367.044   -28307.671    15026.876    3007.9733    79.569074 
   19800    2122.2067   -106.70605    1.9202172   -104.78583   -32523.136    4.3133602    4.3133602    4.3133602   -32523.136   -40751.195    18099.238    -74917.45   -7121.3504     14859.03    10307.711    80.250394 
   19900    1837.8785   -106.43071    1.6629511   -104.76776   -36077.462    4.3108985    4.3108985    4.3108985   -36077.462   -18022.789   -37376.378   -52833.218   -12238.138    10726.545    14258.013    80.113071 
   20000    1931.0809   -106.50476    1.7472826   -104.75747   -25392.196    4.2989541    4.2989541    4.2989541   -25392.196    19238.619   -71378.512   -24036.694   -12897.295   -1280.2845    14970.547    79.448996 
   20100    2299.4679   -106.85067    2.0806069   -104.77006   -18789.452    4.3064361    4.3064361    4.3064361   -18789.452   -13019.319    26869.908   -70218.944    834.79887   -3779.3418   -26651.468    79.864544 
   20200    2386.2431   -106.91973    2.1591229   -104.76061   -29479.175    4.3127395    4.3127395    4.3127395   -29479.175    -41413.78   -15573.022   -31450.723   -20086.567   -12359.226   -6047.8256    80.215753 
   20300    1592.5697   -106.20277    1.4409905   -104.76178   -169.35923    4.2969046    4.2969046    4.2969046   -169.35923   -52974.701    78055.432   -25588.808   -12540.617    9731.9614   -9812.5892    79.335423 
   20400    1838.7134   -106.43717    1.6637065   -104.77347   -6172.5591     4.296015     4.296015     4.296015   -6172.5591    21618.913    5732.5367   -45869.127   -4890.9149   -22758.106   -15722.342    79.286158 
   20500    2440.7852    -106.9818    2.2084738   -104.77333   -1309.6789    4.2962089    4.2962089    4.2962089   -1309.6789   -1665.6524    31188.543   -33451.927   -27429.612    2039.8046    9593.0373    79.296893 
   20600    1452.0581   -106.11078    1.3138527   -104.79693    18208.737    4.2983649    4.2983649    4.2983649    18208.737   -34188.379    127238.46   -38423.868   -3114.7296   -6197.2075   -10477.548    79.416333 
   20700    1519.1734    -106.1731    1.3745801   -104.79852   -46923.971    4.3062573    4.3062573    4.3062573   -46923.971   -34480.663   -51832.331   -54458.918   -9171.3544   -11965.583   -1254.8601    79.854599 
   20800    2308.7878   -106.87895    2.0890397   -104.78991    20780.142     4.277678     4.277678     4.277678    20780.142    1370.6818    65692.787   -4723.0417    1467.5073    12358.024    15498.811    78.275214 
   20900    1962.9841    -106.5953    1.7761492   -104.81915    36236.458     4.272573     4.272573     4.272573    36236.458    52515.105    63885.059   -7690.7892    27784.965    3565.7025   -24054.272    77.995306 
   21000    1376.7326   -106.08336    1.2456966   -104.83767   -23211.568    4.3019979    4.3019979    4.3019979   -23211.568    42480.807   -26079.433   -86036.078    -5526.488    6386.8345    3897.5299    79.617876 
   21100    1700.2773   -106.33351    1.5384466   -104.79507    3534.2656    4.3219693    4.3219693    4.3219693    3534.2656   -63036.724    136144.75   -62505.232    22300.673    11605.801   -3129.5713    80.731872 
   21200    1756.4793   -106.37088    1.5892994   -104.78158   -25747.603     4.317226     4.317226     4.317226   -25747.603   -65407.094    70753.007   -82588.721     34932.64   -11020.524     14640.23    80.466359 
   21300    1608.0949   -106.23901    1.4550381   -104.78397    -11345.26    4.2942369    4.2942369    4.2942369    -11345.26    64648.316    1102.2064   -99786.302    96.877923    4333.1539    32042.857    79.187749 
   21400    1984.6396   -106.57391    1.7957436   -104.77817    34674.352    4.2826048    4.2826048    4.2826048    34674.352    54342.164    55281.971   -5601.0785    49122.901   -1194.4937   -14050.746    78.545988 
   21500    1424.5147   -106.07892    1.2889308   -104.78999    14634.009    4.2827421    4.2827421    4.2827421    14634.009    108910.04   -26749.589   -38258.418    30018.442    6457.6843    15063.395    78.553543 
   21600    1381.3881   -106.07529     1.249909   -104.82538    24970.508    4.3051848    4.3051848    4.3051848    24970.508    95317.242    45085.835   -65491.554      19836.6     16347.83   -22481.823    79.794949 
   21700    1539.0265     -106.196    1.3925435   -104.80345    933.56018    4.3294235    4.3294235    4.3294235    933.56018    77387.689    -468.6274   -74118.381    4728.2417    12328.924    20161.519    81.150315 
   21800    970.80515   -105.63416   0.87840491   -104.75576    14250.266    4.3207652    4.3207652    4.3207652    14250.266    118643.94   -6945.2256    -68947.92    31196.145    8231.2624    20862.703    80.664418 
   21900    1651.6392   -106.21523    1.4944379   -104.72079    48864.032     4.304118     4.304118     4.304118    48864.032    23895.109    142713.72   -20016.731    21526.367   -20307.351    8632.5869    79.735644 
   22000    1513.8157   -106.10768    1.3697323   -104.73795    36419.616     4.310522     4.310522     4.310522    36419.616    28482.935    92620.351   -11844.439    20389.364   -500.05143    29200.779    80.092084 
   22100    1693.1574    -106.2828    1.5320044    -104.7508    10335.927    4.3256882    4.3256882    4.3256882    10335.927    45293.739    34562.145   -48848.104    20594.411    3195.5062   -1893.0312    80.940452 
   22200    1716.2401   -106.29712    1.5528901   -104.74423   -17260.906    4.3167965    4.3167965    4.3167965   -17260.906   -27589.247   -17081.908   -7111.5645    1130.2011   -1629.4719    -1754.741    80.442348 
   22300    1536.2006   -106.13976    1.3899866   -104.74977   -3790.0323    4.2864304    4.2864304    4.2864304   -3790.0323    16315.357    804.43864   -28489.893   -4312.2189    20637.513   -268.33868    78.756669 
   22400    2482.3303   -107.02594    2.2460646   -104.77987    33073.668    4.2896839    4.2896839    4.2896839    33073.668    61668.833    40562.653   -3010.4819    14983.632      4084.55   -16431.467    78.936139 
   22500    1484.5122   -106.15416    1.3432178   -104.81095   -13883.952    4.3114984    4.3114984    4.3114984   -13883.952   -9111.7088   -20587.729   -11952.418   -1485.5414    135.45127    2284.0094    80.146524 
   22600    1706.2491   -106.32859    1.5438501   -104.78474   -19194.102    4.3241247    4.3241247    4.3241247   -19194.102    8781.4632   -35616.794   -30746.976    1541.5747    10010.559   -999.36431    80.852719 
   22700    1881.6084   -106.46084    1.7025189   -104.75832   -2366.9661    4.3234156    4.3234156    4.3234156   -2366.9661    60896.677   -26322.389   -41675.186    5740.2354    2104.0667    2186.2295     80.81295 
   22800    1531.3517    -106.1396    1.3855992   -104.75401   -5557.3849    4.3154527    4.3154527    4.3154527   -5557.3849    49241.047   -30298.082    -35615.12   -30285.886    14363.713    7534.5494    80.367247 
   22900    2407.4219   -106.91494    2.1782859   -104.73665    292.05142    4.3042219    4.3042219    4.3042219    292.05142   -17658.998    47713.192   -29178.039    16661.073   -23212.164   -4576.7044    79.741421 
   23000    1511.5203   -106.13095    1.3676553   -104.76329   -34220.135    4.3058978    4.3058978    4.3058978   -34220.135   -25288.906   -7924.7908   -69446.709   -25719.668    -19477.07    10036.489    79.834601 
   23100    2229.7664   -106.78106    2.0175395   -104.76352    4206.8011    4.3018984    4.3018984    4.3018984    4206.8011   -11085.089    28449.991   -4744.4984   -4633.7232    2907.8789    2850.3099     79.61235 
   23200    1876.3257   -106.48961    1.6977389   -104.79187    8683.6894    4.2866478    4.2866478    4.2866478    8683.6894    13235.587    41575.221    -28759.74    1157.5166   -15703.958    24504.815    78.768653 
   23300     1432.892   -106.13277    1.2965108   -104.83626    10202.606     4.295198     4.295198     4.295198    10202.606    19086.398    30853.931    -19332.51   -8244.8546   -3056.1066     13073.62    79.240933 
   23400    2276.6867   -106.86321     2.059994   -104.80321    827.63827    4.3177721    4.3177721    4.3177721    827.63827    4110.6469    40682.279   -42310.011     4892.331    4301.8562    491.31742    80.496899 
   23500    1667.6484   -106.29128    1.5089233   -104.78236   -6207.9811    4.3064496    4.3064496    4.3064496   -6207.9811    3701.4978    14389.931   -36715.372   -22651.985   -13679.333    14844.054    79.865295 
   23600     1767.401   -106.38745    1.5991816   -104.78827   -29381.374    4.2960668    4.2960668    4.2960668   -29381.374     13042.22   -54211.949   -46974.392    -1751.485     25870.07    1433.3326    79.289025 
   23700    2001.8344   -106.61854    1.8113019   -104.80724   -7372.1873    4.3045647    4.3045647    4.3045647   -7372.1873   -27675.955    31847.648   -26288.255    16096.748    11901.581   -1843.4585    79.760474 
   23800    1436.6824     -106.108    1.2999404   -104.80806   -28559.089    4.3178707    4.3178707    4.3178707   -28559.089   -31024.975   -26924.035   -27728.257   -32981.434    4996.3639    16136.534    80.502414 
   23900    2601.0164   -107.11988    2.3534543   -104.76643   -23056.679    4.3197293    4.3197293    4.3197293   -23056.679   -8533.6154   -32335.104   -28301.316    13928.255    18874.241    840.68924    80.606411 
   24000    1187.8986   -105.83536    1.0748356   -104.76053   -25276.819    4.3213407    4.3213407    4.3213407   -25276.819   -74769.162    19288.524   -20349.819    2432.6342   -22401.135    1436.0284    80.696653 
   24100    1545.6562   -106.16196    1.3985422   -104.76342   -19873.758    4.3016513    4.3016513    4.3016513   -19873.758   -29632.769   -4764.0993   -25224.406   -16037.577   -4902.5025    5785.0694    79.598631 
   24200    2146.3046   -106.71019    1.9420215   -104.76817    66962.082    4.2827855    4.2827855    4.2827855    66962.082    46447.878    109263.22    45175.144    19300.631    8306.1169   -674.01648    78.555927 
   24300    1304.2729   -106.02552    1.1801335   -104.84539   -37028.817    4.3180304    4.3180304    4.3180304   -37028.817   -65607.787   -49015.719    3537.0542   -24463.711   -10006.697     28305.79    80.511348 
   24400    2423.1514   -106.96076    2.1925183   -104.76824   -25305.039    4.3299017    4.3299017    4.3299017   -25305.039   -43715.219    30273.912    -62473.81    4615.1866    18806.046     19719.79    81.177209 
   24500    1564.0711   -106.16657    1.4152044   -104.75136   -5227.4842    4.3087212    4.3087212    4.3087212   -5227.4842    56095.885   -47159.664   -24618.674    258.77591   -852.78879   -13972.418    79.991745 
   24600    2215.5164   -106.75375    2.0046458   -104.74911    -9088.834    4.3004085    4.3004085    4.3004085    -9088.834   -11317.106    17672.673   -33622.069   -23912.981   -7192.0924   -4252.7537    79.529661 
   24700    1917.0425   -106.51362    1.7345803   -104.77904    17709.674    4.3025845    4.3025845    4.3025845    17709.674   -3094.6625    19175.877    37047.808   -6974.6287    11552.202     2063.338    79.650446 
   24800    1448.5113   -106.11758    1.3106435   -104.80694    9966.5407    4.3243184    4.3243184    4.3243184    9966.5407    51222.771   -64084.121    42760.972   -5234.6772   -16968.423   -6358.6386    80.863587 
   24900     1625.797   -106.23197    1.4710553   -104.76092   -7388.2927    4.3347787    4.3347787    4.3347787   -7388.2927   -35569.666    2007.8894    11396.898    1727.4421    34783.855   -23756.056    81.451818 
   25000     1491.894   -106.06769    1.3498971    -104.7178    15313.448    4.3139706    4.3139706    4.3139706    15313.448   -27112.882   -8411.4687    81464.696    16258.325    29508.797   -23835.579    80.284467 
   25100    2539.6389   -106.99979    2.2979187   -104.70188   -10680.706    4.3053638    4.3053638    4.3053638   -10680.706   -18830.317   -44008.414    30796.612   -22592.547    1073.5652   -6893.3958    79.804902 
   25200    1726.1027   -106.28909     1.561814   -104.72727    -41378.52    4.3214604    4.3214604    4.3214604    -41378.52   -52045.739   -57788.762    -14301.06    805.25624    18624.454   -6465.5502    80.703358 
   25300    1927.9271   -106.46602    1.7444289   -104.72159   -13402.032    4.3227074    4.3227074    4.3227074   -13402.032   -11382.723    2962.7996   -31786.171    1832.0333   -15702.284   -1678.0052    80.773243 
   25400    2080.8432   -106.60361    1.8827907   -104.72082   -22554.619    4.3114931    4.3114931    4.3114931   -22554.619   -28435.441    32599.608   -71828.024   -29319.048    33142.219    2553.9645    80.146229 
   25500    1711.2834   -106.28446    1.5484052   -104.73605    11667.728     4.319907     4.319907     4.319907    11667.728    67136.519    4410.1774   -36543.512    23191.862   -14926.696   -7595.3872    80.616363 
   25600     1829.369   -106.39528    1.6552515   -104.74002   -8450.0815    4.3299794    4.3299794    4.3299794   -8450.0815    -21840.69    46584.446       -50094    8832.4801    14989.046    11014.013    81.181581 
   25700    1264.8996   -105.88729    1.1445077   -104.74278    30294.557    4.3250959    4.3250959    4.3250959    30294.557    78145.732     36326.91   -23588.972    8447.9475    13368.019   -21836.383    80.907211 
   25800    2340.3423   -106.86472    2.1175909   -104.74713   -23546.309    4.3037129    4.3037129    4.3037129   -23546.309   -46984.723    18866.667   -42520.871    25312.659    10881.154   -1468.9853    79.713132 
   25900    1183.9726    -105.8479    1.0712833   -104.77662    22773.687    4.2780953    4.2780953    4.2780953    22773.687    21274.177    87445.309   -40398.426    3517.4879    40428.594   -6436.0209    78.298126 
   26000    2033.5002    -106.6596    1.8399538   -104.81965    19496.133    4.2816338    4.2816338    4.2816338    19496.133    82243.416   -12062.441   -11692.577   -14311.936   -13195.818   -38946.408     78.49257 
   26100     1617.104   -106.31718    1.4631897   -104.85399   -18099.148     4.317171     4.317171     4.317171   -18099.148   -52682.488    24960.953   -26575.908    30198.493    38092.281    7568.9557    80.463283 
   26200    1622.9732    -106.2409    1.4685002    -104.7724    -13728.52    4.3368621    4.3368621    4.3368621    -13728.52   -36468.066    10575.319   -15292.814   -5310.6627    12610.367   -21495.056    81.569322 
   26300    1893.7909   -106.44506    1.7135418   -104.73152    46023.505    4.2995037    4.2995037    4.2995037    46023.505    47839.787    62747.385    27483.345   -8475.0405    14334.416   -15563.892    79.479472 
   26400    1540.8361   -106.13853    1.3941809   -104.74435    1307.9816    4.2728283    4.2728283    4.2728283    1307.9816    46372.769   -2776.1321   -39672.692    39972.618    35319.816   -16290.153    78.009288 
   26500    2398.0278   -106.94888     2.169786   -104.77909    22057.795    4.2735521    4.2735521    4.2735521    22057.795    38848.633    40957.188   -13632.437    7064.0499    -20778.14    -14907.26    78.048941 
   26600    1341.2977   -106.05765    1.2136343   -104.84401    46770.945    4.2998577    4.2998577    4.2998577    46770.945    129325.83    41526.407   -30539.399    18695.914    51459.032    6601.6478    79.499109 
   26700     1906.117    -106.5387    1.7246947   -104.81401   -36886.816    4.3452868    4.3452868    4.3452868   -36886.816   -44174.745   -19735.625   -46750.079     35282.84    4348.7327   -2060.5762    82.045608 
   26800    2201.3414   -106.72688      1.99182   -104.73506   -24209.795    4.3379854    4.3379854    4.3379854   -24209.795    17440.752   -18799.634   -71270.503   -1638.0599    6745.4125    20323.125    81.632717 
   26900    1387.5276   -105.96904    1.2554642   -104.71358     16052.74    4.2926361    4.2926361    4.2926361     16052.74    38284.923    61765.007   -51891.708    32890.538    14925.743   -14598.597    79.099222 
   27000    2346.2397   -106.86286     2.122927   -104.73993    15617.487    4.2728718    4.2728718    4.2728718    15617.487    17728.584    24555.909    4567.9672    45949.961   -26915.269    -3093.649    78.011671 
   27100    1843.3815   -106.48905    1.6679303   -104.82112     10309.87    4.3018978    4.3018978    4.3018978     10309.87    26277.594    7000.2437   -2348.2282   -12406.635    34512.923    1793.4675    79.612316 
   27200    1509.4534   -106.16171    1.3657852   -104.79592    -17361.65    4.3342505    4.3342505    4.3342505    -17361.65   -51210.229   -2338.4046    1463.6839    17914.192   -10274.136   -2926.9108    81.422051 
   27300    1676.7591   -106.27175    1.5171669   -104.75458    -3307.983    4.3110915    4.3110915    4.3110915    -3307.983   -30579.788    9719.1254    10936.713    7796.3831    13768.805     24165.44    80.123831 
   27400    1664.2919    -106.2472    1.5058863   -104.74131    23447.938    4.2928452    4.2928452    4.2928452    23447.938    37546.405    23063.327    9734.0831   -12898.994    23020.865    5341.1985    79.110785 
   27500    1644.6105   -106.24754    1.4880781   -104.75946    6252.0501    4.3083797    4.3083797    4.3083797    6252.0501   -34357.289    49546.399    3567.0401    8355.0273   -14708.059    8469.2442    79.972728 
   27600    1375.3718   -105.99999    1.2444653   -104.75552   -25795.528    4.3181859    4.3181859    4.3181859   -25795.528    -55561.98    6069.7698   -27894.373   -14552.817    22886.028    24737.795    80.520043 
   27700    2438.1289   -106.94089    2.2060703   -104.73482   -30117.612    4.3184846    4.3184846    4.3184846   -30117.612   -36425.514   -40233.671   -13693.651    20148.347   -9484.9945   -4561.2637    80.536753 
   27800    1912.7914   -106.47437    1.7307338   -104.74364   -30261.408    4.3079477    4.3079477    4.3079477   -30261.408   -52680.205    1678.4417   -39782.462    22558.876    10922.941   -1343.1428    79.948672 
   27900    1663.3016   -106.26067    1.5049902   -104.75568     13052.62    4.2816633    4.2816633    4.2816633     13052.62   -2173.6758     66198.03   -24866.495   -22671.124    7725.8135    19424.833    78.494195 
   28000    1838.3507   -106.43946    1.6633783   -104.77609    66629.446    4.2840595    4.2840595    4.2840595    66629.446    43603.841    81219.144    75065.354    4991.7678   -9596.8211   -5726.4812    78.626052 
   28100    1604.9345    -106.2585    1.4521785   -104.80632   -35446.058    4.3241308    4.3241308    4.3241308   -35446.058   -55664.366   -12031.688    -38642.12   -12641.464    23145.822    4233.7591    80.853061 
   28200    1768.2431    -106.3752    1.5999436   -104.77526   -38524.076    4.3248701    4.3248701    4.3248701   -38524.076   -43166.744    -66400.16   -6005.3233   -22072.141     15839.49    6222.9238     80.89454 
   28300    2291.4019   -106.82789    2.0733086   -104.75458   -7283.5974    4.2910506    4.2910506    4.2910506   -7283.5974   -14912.838    1350.3623   -8288.3162   -1063.8447    3774.4966    -5018.726    79.011607 
   28400    939.29925   -105.63528    0.8498977   -104.78538    23000.593    4.2725477    4.2725477    4.2725477    23000.593   -68396.931    26684.846    110713.86   -15357.342    6035.1246   -15530.949    77.993921 
   28500    1873.4824   -106.51156    1.6951662    -104.8164   -2886.2137    4.2809935    4.2809935    4.2809935   -2886.2137   -36862.516    -12458.29    40662.165   -21373.629    6128.1827    14733.741    78.457365 
   28600    2687.6006   -107.25366    2.4317975   -104.82186    -15209.83    4.3050169    4.3050169    4.3050169    -15209.83   -5625.2131   -42187.604     2183.327    9485.2932    14159.811      8220.87     79.78561 
   28700     870.3033   -105.61222   0.78746871   -104.82475   -4111.5503    4.3201568    4.3201568    4.3201568   -4111.5503   -55739.092   -50798.802    94203.243   -27796.131    5318.8624    -5834.606    80.630347 
   28800    1663.2706    -106.2892    1.5049622   -104.78424   -5529.4223    4.3052662    4.3052662    4.3052662   -5529.4223   -8584.9985   -9460.0804    1456.8119    18794.171   -7831.6036    1891.4414    79.799472 
   28900    2383.1868   -106.91485    2.1563575   -104.75849    36555.825    4.2852359    4.2852359    4.2852359    36555.825    11807.492   -1147.2724    99007.255   -14066.913   -10075.355     5063.156    78.690846 
   29000    1575.2465   -106.23721    1.4253162    -104.8119   -5254.7894    4.2799027    4.2799027    4.2799027   -5254.7894   -16226.379   -52940.423    53402.433    15860.445    10739.701   -17000.389    78.397402 
   29100    1241.0847   -105.96667    1.1229595   -104.84371    10298.086    4.2832214    4.2832214    4.2832214    10298.086     59373.83   -36057.374    7577.8004    31276.282    3904.3176   -4879.8886    78.579917 
   29200    2407.6587   -107.01126    2.1785002   -104.83276   -13293.292    4.3055881    4.3055881    4.3055881   -13293.292    3478.9883   -43111.648   -247.21596   -11790.553    8647.5682     10352.66    79.817377 
   29300    2254.5723   -106.86224    2.0399844   -104.82226   -25694.603    4.3058288    4.3058288    4.3058288   -25694.603   -14479.129   -74911.317    12306.638    18097.969   -2069.2932   -4037.7486    79.830759 
   29400    1139.9455    -105.8593    1.0314467   -104.82786   -3615.8347    4.2771033    4.2771033    4.2771033   -3615.8347   -7582.7369    12781.003   -16045.771    5091.6543    -9712.471   -17343.526    78.243672 
   29500    2070.9564   -106.71606    1.8738449   -104.84222    22984.079     4.273779     4.273779     4.273779    22984.079    56379.587    9436.6223    3136.0283   -8643.5235    20093.792    1693.8096    78.061374 
   29600     2283.109   -106.90712     2.065805   -104.84132    27908.891    4.3010761    4.3010761    4.3010761    27908.891    15881.073    21126.739    46718.859   -786.78475    1173.9347   -10164.314    79.566704 
   29700    901.24547   -105.64568   0.81546584   -104.83021    9991.5105     4.318296     4.318296     4.318296    9991.5105   -24814.684    77945.556    -23156.34    13186.727    6207.1486   -27298.114    80.526203 
   29800    1968.7836   -106.53188    1.7813968   -104.75049    13090.477    4.3295288    4.3295288    4.3295288    13090.477    17579.252    17556.828     4135.351    2215.6982   -2782.3136     -19062.1    81.156236 
   29900    1621.7274   -106.17386     1.467373   -104.70649   -25705.058    4.3316668    4.3316668    4.3316668   -25705.058    10998.519    419.58961   -88533.281    10154.644    15183.621   -12677.306    81.276528 
   30000    1918.1016   -106.44618    1.7355386   -104.71064   -7237.6419    4.3156255    4.3156255    4.3156255   -7237.6419   -19843.949      33218.5   -35087.476   -9736.2757   -9442.4657    4933.5078    80.376901 
   30100    2116.5908   -106.63643    1.9151358   -104.72129    718.92924    4.2950359    4.2950359    4.2950359    718.92924   -11013.932    22251.624   -9080.9038    20572.752    28122.947   -3636.1742    79.231961 
   30200    1677.9266   -106.27606    1.5182232   -104.75784    15392.211    4.2819454    4.2819454    4.2819454    15392.211    1514.9426    117885.91   -73224.222    8911.9164    648.10648    6539.3241    78.509711 
   30300    2056.8003   -106.65313    1.8610361   -104.79209   -29907.737    4.3113882    4.3113882    4.3113882   -29907.737   -17163.659   -24997.877   -47561.674    19979.183   -7161.2479    10397.474    80.140376 
   30400    1730.3684   -106.32342    1.5656737   -104.75774   -38226.254    4.3274673    4.3274673    4.3274673   -38226.254   -48307.393   -8893.6431   -57477.727   -7236.5954    8167.3002   -4831.0235    81.040363 
   30500    1680.5896   -106.24576    1.5206328   -104.72512    3755.2049    4.3073222    4.3073222    4.3073222    3755.2049   -36674.047    36856.601     11083.06   -6758.8163    -27822.67   -10896.802    79.913855 
   30600    1872.5665   -106.41713    1.6943375    -104.7228    24697.648    4.2978126    4.2978126    4.2978126    24697.648   -2579.5252    52341.777    24330.694    7625.2662    10117.609   -9454.3348    79.385727 
   30700    1290.0128   -105.94259    1.1672307   -104.77536   -24156.039    4.3130706    4.3130706    4.3130706   -24156.039   -59529.704    80090.112   -93028.525   -12993.334    -3224.247    4227.5203    80.234232 
   30800    2459.5018    -106.9605     2.225409   -104.73509   -10558.106    4.3184797    4.3184797    4.3184797   -10558.106   -25816.929    48058.488   -53915.876    5102.1462   -9925.8622    5307.1997    80.536481 
   30900    1596.2164   -106.18273    1.4442901   -104.73844    17714.375     4.308451     4.308451     4.308451    17714.375   -14037.094    148673.22   -81492.999     6907.161   -11085.215   -1074.6175    79.976699 
   31000    1150.0994   -105.79598    1.0406341   -104.75534    2884.6944    4.3108477    4.3108477    4.3108477    2884.6944   -18053.974    81991.468   -55283.411    12890.695   -15830.813   -14589.928    80.110241 
   31100    2516.6819   -107.01183    2.2771467   -104.73468    14349.629    4.2975629    4.2975629    4.2975629    14349.629     32216.45   -5165.5173    15997.955   -14413.276   -2667.6004   -17058.173    79.371889 
   31200    1323.4134     -105.975    1.1974522   -104.77754    23142.672    4.2903761    4.2903761    4.2903761    23142.672    30851.748    100971.08   -62394.815   -8769.3219   -26830.239   -4495.5907    78.974357 
   31300    2224.7181   -106.79135    2.0129717   -104.77838   -603.06411    4.2937057    4.2937057    4.2937057   -603.06411    31539.105    35170.484   -68518.781    2039.4681    17591.607   -11798.768    79.158364 
   31400    1851.1323   -106.45301    1.6749434   -104.77807    20010.326    4.2837606    4.2837606    4.2837606    20010.326    19696.577     102499.4       -62165   -88.982061   -29905.626   -8464.8036    78.609596 
   31500    1372.1091   -106.03775    1.2415132   -104.79623    15450.054    4.2990389    4.2990389    4.2990389    15450.054    21279.434    88278.021   -63207.293    12352.349     25966.96   -5281.9744      79.4537 
   31600    1998.8619   -106.57345    1.8086123   -104.76484   -30643.301    4.3143589    4.3143589    4.3143589   -30643.301    16492.541   -47196.783   -61225.662   -1002.9254   -2869.3418   -43201.949    80.306152 
   31700    1401.4927    -106.0259    1.2681001    -104.7578    8850.3722    4.2964469    4.2964469    4.2964469    8850.3722    52857.086    26809.176   -53115.145    8108.3509    -9820.677    6183.5645    79.310073 
   31800    2436.9612   -106.97281    2.2050137    -104.7678   -32527.062    4.2872815    4.2872815    4.2872815   -32527.062   -17090.628   -7789.2327   -72701.326   -4050.5173    33446.278    12155.111     78.80359 
   31900    1997.0104   -106.59024    1.8069369    -104.7833    18298.222    4.2781738    4.2781738    4.2781738    18298.222    47268.595    24561.187   -16935.114   -22693.739   -18628.752   -11446.785    78.302438 
   32000    1115.0525     -105.819    1.0089229   -104.81008    4570.8734    4.2859047    4.2859047    4.2859047    4570.8734    41218.283    58799.998    -86305.66    5473.4718    18935.823   -9585.4087    78.727693 
   32100    2302.6246    -106.8641    2.0834631   -104.78064     1764.323    4.3026548    4.3026548    4.3026548     1764.323    21702.786   -7683.9483   -8725.8685   -16573.644   -2477.5878    1311.2484    79.654351 
   32200    1768.6377   -106.36763    1.6003006   -104.76733    1421.6676    4.3002813    4.3002813    4.3002813    1421.6676   -24113.238    54046.913   -25668.673    3391.4333   -562.81796   -7575.2028    79.522607 
   32300    1751.5858   -106.33875    1.5848716   -104.75388    8584.9997    4.2902672    4.2902672    4.2902672    8584.9997    9749.1065    83762.595   -67756.702    -16806.76    12129.517    9226.2627    78.968344 
   32400    1860.7851   -106.44844    1.6836775   -104.76476    -24610.36    4.2766274    4.2766274    4.2766274    -24610.36   -28051.767   -24637.029   -21142.284    15111.613   -18303.261    3642.3988    78.217555 
   32500    1117.7983   -105.80067    1.0114074   -104.78927    24314.435    4.2619464    4.2619464    4.2619464    24314.435   -41918.279    177788.58       -62927   -3485.1675   -17343.573   -2713.5594    77.414791 
   32600    2846.2974   -107.37824    2.5753897   -104.80285   -10824.101    4.2845716    4.2845716    4.2845716   -10824.101    8044.5086   -4664.2872   -35852.526    8583.6964    10884.648   -219.50157    78.654251 
   32700    841.36127   -105.57575   0.76128136   -104.81447   -23681.538    4.2986518    4.2986518    4.2986518   -23681.538   -94284.206    80683.457   -57443.865    16495.502   -16470.363    12743.704     79.43224 
   32800    2759.9021   -107.27655    2.4972174   -104.77933    1492.8901    4.2825082    4.2825082    4.2825082    1492.8901    -10392.22    44482.126   -29611.235   -1129.5031    7387.4847   -3661.9114     78.54067 
   32900     1297.688   -105.97931    1.1741754   -104.80514   -2948.0659    4.2791472    4.2791472    4.2791472   -2948.0659   -39219.123    71988.372   -41613.446    5625.9729    -15193.83   -7593.3495    78.355898 
   33000     1313.691   -105.99879    1.1886552   -104.81014   -9623.8744    4.2896972    4.2896972    4.2896972   -9623.8744   -13615.528    10822.122   -26078.217    -3916.625   -11850.843    14374.825    78.936871 
   33100    2866.3375    -107.3561    2.5935224   -104.76258   -12479.479    4.2916055    4.2916055    4.2916055   -12479.479   -27285.139    41936.946   -52090.244   -20357.665    5924.2812    1653.4348    79.042266 
   33200    1115.0505   -105.79555    1.0089211   -104.78663   -23534.238    4.2975744    4.2975744    4.2975744   -23534.238   -81521.009    45850.132   -34931.836    9017.0412   -19750.496   -5450.0173    79.372528 
   33300    2789.4458   -107.27103    2.5239492   -104.74708   -15449.732    4.2934296    4.2934296    4.2934296   -15449.732    11153.416   -5263.2615   -52239.351     -29337.8     2858.655   -9330.8406    79.143098 
   33400      766.518   -105.46926   0.69356159    -104.7757   -8863.1492     4.289706     4.289706     4.289706   -8863.1492   -16280.891    79812.564    -90121.12    13724.528   -16129.621    1092.8053    78.937358 
   33500     2832.135     -107.319    2.5625753   -104.75643   -2620.2221     4.290693     4.290693     4.290693   -2620.2221   -297.36655    3660.8075   -11224.107   -3799.6258    5170.1533     3623.081    78.991856 
   33600    1344.6046   -105.99266    1.2166265   -104.77603    13699.971    4.2967648    4.2967648    4.2967648    13699.971    9926.3007    46145.879   -14972.268    1112.8486    3836.8563   -10730.049     79.32768 
   33700    1680.5543   -106.28867    1.5206009   -104.76807   -20284.138    4.2902772    4.2902772    4.2902772   -20284.138   -44771.269   -1001.2721   -15079.872    1633.3416    4293.4082    -1885.377    78.968893 
   33800    2029.0806   -106.59001    1.8359548   -104.75406    14649.662    4.2822571    4.2822571    4.2822571    14649.662    95262.803   -3588.7275   -47725.089   -7604.7272   -2494.7361    2397.8775    78.526855 
   33900    1168.1372   -105.83446    1.0569551    -104.7775   -31954.073    4.2879367    4.2879367    4.2879367   -31954.073    -38305.84    36604.646   -94161.024    1559.0903    11559.913    1259.1747    78.839722 
   34000    2132.2057   -106.69528    1.9292645   -104.76601   -1315.9163    4.2964883    4.2964883    4.2964883   -1315.9163     71920.13   -31311.085   -44556.794   -7643.6437    3171.4822   -16134.907    79.312365 
   34100     1598.498   -106.22587    1.4463546   -104.77951   -5597.3915    4.2862456    4.2862456    4.2862456   -5597.3915    26988.317   -11473.541   -32306.951   -20428.934    8748.1785   -22009.915    78.746483 
   34200    1725.0018   -106.33869    1.5608179   -104.77787    42447.263    4.2775261    4.2775261    4.2775261    42447.263    98606.262    33015.553   -4280.0253   -7341.9553     894.0144    18770.534    78.266877 
   34300    1966.1741   -106.57024    1.7790356    -104.7912    -15446.23    4.3048416    4.3048416    4.3048416    -15446.23    20090.378   -22613.047   -43816.021    -11712.44   -1443.7555   -658.98605    79.775864 
   34400    1505.5891   -106.13024    1.3622886   -104.76795    9387.6755    4.3036183    4.3036183    4.3036183    9387.6755    50295.235    45522.944   -67655.153   -16539.874    6072.7196   -6494.4492    79.707874 
   34500     2137.811   -106.68557    1.9343363   -104.75124    23379.922    4.2797826    4.2797826    4.2797826    23379.922    30421.888    50870.516   -11152.637     13544.99   -9666.8867    2226.1982    78.390804 
   34600     1671.866   -106.28166    1.5127395   -104.76892     27728.63     4.290052     4.290052     4.290052     27728.63    39886.105    5473.5887    37826.196    3588.1409   -7730.3367   -10307.247    78.956458 
   34700    1488.4101   -106.11885    1.3467447    -104.7721   -31681.215    4.3095105    4.3095105    4.3095105   -31681.215   -38927.866    30886.641   -87002.419   -9118.1501   -3286.8448    14449.392    80.035715 
   34800    2063.3281   -106.61842    1.8669426   -104.75148   -27839.676    4.2966614    4.2966614    4.2966614   -27839.676   -672.12027   -53617.387   -29229.521    23105.284   -410.27365   -364.79543    79.321953 
   34900    1796.4748    -106.3767    1.6254881   -104.75121    9438.6122     4.284211     4.284211     4.284211    9438.6122    17887.811    42467.579   -32039.554   -411.15312   -4386.8622   -5696.5719    78.634395 
   35000    2240.8971   -106.77611    2.0276108    -104.7485    1776.6048    4.2842309    4.2842309    4.2842309    1776.6048     20367.31    25722.255   -40759.751    1253.1557    3599.5765    15900.057    78.635492 
   35100    1516.0333   -106.13553    1.3717388   -104.76379    28965.279    4.2865424    4.2865424    4.2865424    28965.279    4298.1775     80943.04    1654.6206    17378.306    2826.1694    5587.3122    78.762841 
   35200    1854.6355   -106.45043    1.6781132   -104.77232    2004.9166    4.2984839    4.2984839    4.2984839    2004.9166    25026.656    31833.119   -50845.025   -4586.3873    13200.844    4351.2233    79.422929 
   35300    1575.0396   -106.19712     1.425129   -104.77199    24748.712     4.294571     4.294571     4.294571    24748.712    36727.596    43073.501   -5554.9601   -17707.906   -3948.7008    2095.6004    79.206235 
   35400    1719.9769   -106.32525    1.5562713   -104.76898   -225.89015    4.2898607    4.2898607    4.2898607   -225.89015   -60508.522    86187.747   -26356.895    12188.424    14516.045   -532.18285      78.9459 
   35500    2364.8794   -106.89519    2.1397926   -104.75539    7383.3027    4.2852861    4.2852861    4.2852861    7383.3027    30111.741    2258.6276    -10220.46   -21315.596    8335.6516    9222.9023    78.693612 
   35600    1510.0913   -106.13797    1.3663623    -104.7716    16731.369    4.2752207    4.2752207    4.2752207    16731.369    2933.4417    16612.792    30647.874   -11120.907   -4993.0211    9912.2746    78.140399 
   35700    1889.2145   -106.49206     1.709401   -104.78266    4101.1724    4.2948472    4.2948472    4.2948472    4101.1724    -29038.49    59534.381   -18192.373    5070.5702    10422.277    3190.0642    79.221514 
   35800    1231.0039   -105.89838    1.1138382   -104.78455   -22537.538    4.2989184    4.2989184    4.2989184   -22537.538    -83367.29   -38353.125      54107.8    -66994.37   -16285.892   -17872.917     79.44702 
   35900    2385.1263   -106.91458    2.1581124   -104.75647    7465.0784    4.2809057    4.2809057    4.2809057    7465.0784   -11825.129    24335.339    9885.0243    16181.149    33707.965     22745.64    78.452536 
   36000    1394.5846    -106.0414    1.2618494   -104.77955   -24121.554    4.2912056    4.2912056    4.2912056   -24121.554   -39757.957   -21233.763   -11372.943   -49377.238   -19084.022    5026.5189    79.020174 
   36100    1444.4137   -106.08551    1.3069359   -104.77858   -16267.299    4.2852737    4.2852737    4.2852737   -16267.299    -63950.18   -3085.9489    18234.233   -39552.218   -11708.057   -5419.6622    78.692927 
   36200    2643.5218   -107.14639    2.3919141   -104.75447   -3086.9051    4.2819342    4.2819342    4.2819342   -3086.9051    2674.6622   -9371.8187   -2563.5588    10196.634    14218.748    1317.4868    78.509092 
   36300    677.43612   -105.40188   0.61295844   -104.78893   -53273.545    4.3102872    4.3102872    4.3102872   -53273.545   -42659.245     -69560.2   -47601.191   -37580.542   -40722.946   -18704.059    80.078997 
   36400     2548.797   -107.04741    2.3062051   -104.74121   -20794.794    4.3037291    4.3037291    4.3037291   -20794.794   -8136.0539   -22790.837   -31457.491    13315.537    884.52487    11374.629    79.714035 
   36500    1635.0202   -106.23875    1.4794007   -104.75935    42749.265    4.2698469    4.2698469    4.2698469    42749.265    32958.464    13048.589    82240.742   -20441.657    3275.5034   -16936.849    77.846106 
   36600    1909.0936   -106.52294     1.727388   -104.79555   -2934.8154    4.2665821    4.2665821    4.2665821   -2934.8154   -25399.448    14963.188    1631.8138   -20037.157   -42373.952   -9143.6478    77.667679 
   36700    2201.0019   -106.79772    1.9915127   -104.80621    26052.325    4.2867525    4.2867525    4.2867525    26052.325   -6488.5787    34936.473    49709.079    17703.314    10921.316   -10865.521    78.774422 
   36800    1023.0762   -105.74739   0.92570084   -104.82169    -5446.481    4.3187804    4.3187804    4.3187804    -5446.481    -38602.53    12745.775    9517.3121   -28221.082   -8499.9248   -885.85563    80.553303 
   36900    2331.5254    -106.8555    2.1096131   -104.74588   -25923.808    4.3254403    4.3254403    4.3254403   -25923.808   -6305.7282   -21950.084   -49515.612    5964.9125    -7942.446   -9338.9212    80.926537 
   37000      1248.61   -105.87535    1.1297686   -104.74558   -12473.073    4.2857142    4.2857142    4.2857142   -12473.073   -32720.803   -31862.097    27163.682     -55467.2    22602.666   -3110.9846    78.717195 
   37100    2206.5396   -106.74572    1.9965234    -104.7492    38576.943    4.2645786    4.2645786    4.2645786    38576.943   -2588.5698    41086.726    77232.671    18595.906     3749.501   -6392.3885    77.558313 
   37200    2007.8486   -106.61201    1.8167436   -104.79527    4728.9698    4.2793682    4.2793682    4.2793682    4728.9698   -13551.716   -2924.4247    30663.051   -31407.949   -9687.7995   -11532.538    78.368034 
   37300    1137.3494   -105.84639    1.0290976   -104.81729    2632.8603    4.2875665    4.2875665    4.2875665    2632.8603   -20554.331   -25517.707     53970.62   -24140.524    27621.176    13053.663    78.819304 
   37400    2110.6896   -106.70443    1.9097963   -104.79464    10159.971    4.2999154    4.2999154    4.2999154    10159.971   -30603.869    49844.893    11238.889    34208.856   -11445.462   -10661.028    79.502309 
   37500    1663.3977   -106.27925    1.5050772   -104.77418   -23549.114     4.309116     4.309116     4.309116   -23549.114   -64979.201    7264.0385    -12932.18    -39330.15   -10018.642   -12901.484    80.013738 
   37600    1479.6483   -106.09899    1.3388169   -104.76017    557.51165    4.2959773    4.2959773    4.2959773    557.51165   -20415.686   -16460.144    38548.365    31810.732   -5148.0357    7870.3233     79.28407 
   37700    1783.2622   -106.38829    1.6135331   -104.77476    24394.263    4.2738784    4.2738784    4.2738784    24394.263    5738.0367    94409.957   -26965.204    23669.938   -52940.698   -7912.7985    78.066821 
   37800     2124.358   -106.70625    1.9221638   -104.78409    24812.821    4.2799092    4.2799092    4.2799092    24812.821     24111.62    39864.926    10461.917    7457.3856     21209.42    8926.8079     78.39776 
   37900    1041.9079   -105.75044   0.94274016    -104.8077     -23656.2    4.3111517    4.3111517    4.3111517     -23656.2   -33318.181    18238.664   -55889.084    27255.542   -35634.731     3341.362    80.127188 
   38000     1931.691   -106.52441    1.7478346   -104.77658   -32629.149    4.3123953    4.3123953    4.3123953   -32629.149    -24378.35    6196.1515    -79705.25   -394.98323   -23152.375   -7038.6674    80.196553 
   38100     2456.688   -106.96264    2.2228629   -104.73978   -4980.3481     4.294999     4.294999     4.294999   -4980.3481   -6838.9778    1225.7911   -9327.8575    6174.5603   -213.28136    5986.3327    79.229918 
   38200    1467.8046   -106.08545    1.3281004   -104.75735   -54181.365    4.2989251    4.2989251    4.2989251   -54181.365   -105441.44   -12445.547   -44657.107    12920.629    -34933.17    501.43179    79.447389 
   38300    1713.9031     -106.327    1.5507755   -104.77622   -9598.8297    4.3032831    4.3032831    4.3032831   -9598.8297   -6683.3896    43555.798   -65668.898   -14705.547    30963.266    602.76017    79.689253 
   38400    2602.6063   -107.13408    2.3548929   -104.77919   -7122.7025    4.2944088    4.2944088    4.2944088   -7122.7025   -7804.3685   -6563.1064   -7000.6327    1978.5436   -26111.231    22622.182    79.197262 
   38500    1547.5601   -106.19206    1.4002649   -104.79179   -4455.7606    4.2835467    4.2835467    4.2835467   -4455.7606   -39766.739    15987.453    10412.004    29928.052    19247.706   -479.21203    78.597823 
   38600    1378.2356   -106.04938    1.2470565   -104.80232    901.23636    4.2911595    4.2911595    4.2911595    901.23636    54833.598   -6001.8365   -46128.052   -25058.149    25843.749     1490.621    79.017627 
   38700    2269.2446   -106.84469    2.0532602   -104.79143   -707.04049    4.3137779    4.3137779    4.3137779   -707.04049    21543.161   -19187.334   -4476.9492    10219.774   -11200.773   -9947.8684     80.27371 
   38800    1348.7322   -105.97256    1.2203612    -104.7522   -8206.2826    4.3368028    4.3368028    4.3368028   -8206.2826    22913.557   -5546.6825   -41985.723    28616.022    20252.233    -9499.567    81.565974 
   38900     1730.696    -106.2581    1.5659701   -104.69213   -6302.4194    4.3299701    4.3299701    4.3299701   -6302.4194    20651.065   -11871.741   -27686.582    -4523.512   -22880.434    8843.1128    81.181055 
   39000     1053.872   -105.65576   0.95356555   -104.70219   -2245.5337    4.2953314    4.2953314    4.2953314   -2245.5337    51703.178   -28089.469    -30350.31    52587.613    37147.925   -5329.4266    79.248315 
   39100    1894.3435   -106.45203    1.7140418   -104.73799    42501.973    4.2736917    4.2736917    4.2736917    42501.973    103835.04    50993.819   -27322.938    562.69947    19848.288    14256.429    78.056589 
   39200    1829.6997   -106.43639    1.6555507   -104.78084    52048.587    4.2802948    4.2802948    4.2802948    52048.587    140775.64    37655.482   -22285.363    25106.759     2368.705   -11670.497    78.418953 
   39300    928.84406   -105.67849   0.84043762   -104.83805   -14427.705    4.3212698    4.3212698    4.3212698   -14427.705   -10239.356    35212.205   -68255.963    26579.396    33703.915   -3675.1071    80.692681 
   39400     2516.431   -107.00262    2.2769196    -104.7257   -55817.608    4.3368234    4.3368234    4.3368234   -55817.608    898.19701   -94941.506   -73409.515    2686.9977   -23565.364    3532.4313    81.567135 
   39500    1182.9144   -105.78906    1.0703258   -104.71873   -25300.863    4.2970457    4.2970457    4.2970457   -25300.863    9242.7912   -44107.722   -41037.658     48083.83    36750.366   -22770.735    79.343236 
   39600    2374.8994   -106.86268    2.1488589   -104.71382    25080.925     4.259699     4.259699     4.259699    25080.925   -5446.7539    39691.159     40998.37   -26884.957   -4849.5277    24187.092    77.292391 
   39700    1666.5077   -106.28744    1.5078912   -104.77955    15319.139    4.2654616    4.2654616    4.2654616    15319.139    36420.223   -25049.219    34586.414    9070.4103   -1492.4445   -12918.908    77.606504 
   39800    1255.5004   -105.96444    1.1360031   -104.82844   -27654.392    4.2994406    4.2994406    4.2994406   -27654.392   -47403.715   -50861.785    15302.325    71634.927    30737.065   -12966.228    79.475973 
   39900     2717.783   -107.23438    2.4591072   -104.77527   -32654.552    4.3182577    4.3182577    4.3182577   -32654.552   -68495.367   -16336.604   -13131.684   -19329.793   -19483.884    4917.1718    80.524061 
   40000    1254.5382   -105.91992    1.1351326   -104.78479   -36478.367    4.3097987    4.3097987    4.3097987   -36478.367   -55859.195    -10727.84   -42848.067    29881.617    21968.843    -3807.197    80.051773 
   40100    1671.0859   -106.28642    1.5120336   -104.77438   -8709.4078    4.2803815    4.2803815    4.2803815   -8709.4078    -50259.56    -8859.649    32990.986     65557.18    10692.352   -9757.1139     78.42372 
   40200    2633.0086   -107.15658    2.3824015   -104.77417    44797.691    4.2693213    4.2693213    4.2693213    44797.691    68836.338    45095.269    20461.467   -14203.099   -19966.854   -828.60673    77.817367 
   40300    1327.2789    -106.0336    1.2009498   -104.83265   -4707.4123    4.2989412    4.2989412    4.2989412   -4707.4123   -52195.119    321.45492    37751.427    35630.771    37886.323   -12950.071    79.448283 
   40400    2235.6928   -106.78874    2.0229018   -104.76584   -51166.213    4.3304527    4.3304527    4.3304527   -51166.213    -88689.33   -61200.912   -3608.3983    17109.887   -20911.006    13390.294    81.208205 
   40500    1972.1195   -106.49415    1.7844152   -104.70973   -42031.158    4.3156077    4.3156077    4.3156077   -42031.158    -60270.75    14260.859   -80083.582    9665.0077    47028.777   -9422.4037    80.375903 
   40600    1943.7376   -106.44925    1.7587347   -104.69052   -2121.4139    4.2865376    4.2865376    4.2865376   -2121.4139   -4248.8075   -33206.997    31091.563    51058.687   -21103.897   -2610.8289    78.762576 
   40700    1711.6248   -106.26375    1.5487141   -104.71503   -160.87512     4.274811     4.274811     4.274811   -160.87512   -1528.6293    3436.6907   -2390.6868     -27123.6    20146.523    32327.632    78.117934 
   40800     1244.624   -105.89071     1.126162   -104.76455    20042.315    4.2725066    4.2725066    4.2725066    20042.315   -15258.259    48217.143    27168.062    33653.589    38079.167   -2006.6933     77.99167 
   40900    2685.4948   -107.21951    2.4298921   -104.78961    860.94096    4.2924977    4.2924977    4.2924977    860.94096    9991.8245    3777.5018   -11186.503    5727.2023    -27762.47    746.26033    79.091574 
   41000    1564.5245    -106.2042    1.4156147   -104.78859   -66313.911    4.3240699    4.3240699    4.3240699   -66313.911   -48856.767   -48649.307   -101435.66   -351.77461    45048.535    7044.1671    80.849644 
   41100    1941.9734    -106.5284    1.7571384   -104.77127   -40698.667    4.2952449    4.2952449    4.2952449   -40698.667   -64203.609   -58582.978    690.58621    42036.657   -21283.668   -1393.1686    79.243526 
   41200    1932.3245   -106.47966    1.7484078   -104.73126    74638.706    4.2394386    4.2394386    4.2394386    74638.706    90227.617    86391.008    47297.492   -23548.273    20961.365    -20460.89    76.194748 
   41300    1657.5155   -106.29226    1.4997548    -104.7925    22741.092    4.2534918    4.2534918    4.2534918    22741.092    1686.9126    8161.3938    58374.971    37938.603    31404.626   -19318.583    76.954992 
   41400    1501.2994   -106.17667    1.3584073   -104.81826   -10027.347    4.2966187    4.2966187    4.2966187   -10027.347   -31084.338   -41146.766    42149.062    1492.5349   -35364.871   -10303.445    79.319586 
   41500    2400.3973   -106.93415    2.1719299   -104.76222   -36483.486    4.3271588    4.3271588    4.3271588   -36483.486   -54176.331   -63103.352     7829.225   -5614.0385   -3001.8117   -13597.925    81.023034 
   41600    1675.1582   -106.26641    1.5157183   -104.75069   -43477.282    4.3138439    4.3138439    4.3138439   -43477.282   -95246.767   -87067.081    51882.002    35329.413    12439.172    1425.0171    80.277396 
   41700    1950.6892   -106.50979    1.7650246   -104.74477    17065.049     4.250613     4.250613     4.250613    17065.049   -4942.5751    22226.469    33911.252   -51894.174   -45364.584    -596.1468    76.798848 
   41800    1949.9087   -106.51382    1.7643184    -104.7495    55000.796    4.2308409    4.2308409    4.2308409    55000.796    38639.148    68025.608    58337.633    31135.992   -23683.525    3433.6524    75.732113 
   41900    2135.3636   -106.73337    1.9321219   -104.80125   -15976.546    4.2723349    4.2723349    4.2723349   -15976.546   -42652.422   -24839.751    19562.534   -11763.232    26971.717    8478.9867    77.982272 
   42000    1303.2841   -105.99265    1.1792389   -104.81341   -19564.501    4.2954331    4.2954331    4.2954331   -19564.501   -37607.864    1858.4271   -22944.066    -15119.84   -56529.242   -5393.3597    79.253943 
   42100    2683.1447   -107.20492    2.4277657   -104.77716   -30967.663    4.3081482    4.3081482    4.3081482   -30967.663     -19502.2   -24066.422   -49334.366    11937.393   -982.25871    -697.1916    79.959837 
   42200    1428.3349   -106.07265    1.2923874   -104.78026   -36383.258    4.2955303    4.2955303    4.2955303   -36383.258   -58812.765    12222.029   -62559.039   -32713.845   -21370.574   -8902.7749    79.259323 
   42300    1491.5922   -106.11047     1.349624   -104.76084    29287.775    4.2571527    4.2571527    4.2571527    29287.775    5363.0901    80824.563     1675.673    22274.303   -45308.778   -7138.0101    77.153863 
   42400    2385.2439   -106.92581    2.1582188   -104.76759    27438.167    4.2614081    4.2614081    4.2614081    27438.167    24830.601    34556.778    22927.123     36344.63     7695.763   -14504.394    77.385465 
   42500    1728.0315   -106.35374    1.5635592   -104.79018   -27056.675    4.2973237    4.2973237    4.2973237   -27056.675   -35680.043    11905.792   -57395.772   -31748.622   -54687.646   -517.66786    79.358638 
   42600    1644.5386    -106.2502    1.4880131   -104.76219   -15111.758    4.3019515    4.3019515    4.3019515   -15111.758   -26862.169   -50673.331    32200.225    47571.066     12143.34   -13288.651      79.6153 
   42700    2181.7146   -106.71342    1.9740613   -104.73935   -1784.1969    4.2821338    4.2821338    4.2821338   -1784.1969   -5433.9451    25602.869   -25521.514    6282.0648   -27199.082    3333.8652    78.520072 
   42800    1765.4495   -106.35129    1.5974158   -104.75387   -16802.387    4.2714103    4.2714103    4.2714103   -16802.387   -48451.395   -5586.0165    3630.2507    9193.2354   -43457.563    16295.493     77.93165 
   42900    1406.2906   -106.05824    1.2724413    -104.7858    9480.2959    4.2625515    4.2625515    4.2625515    9480.2959   -45084.097   -38909.744    112434.73    54442.857    12289.004    6110.1451    77.447771 
   43000    2207.5074     -106.793    1.9973991    -104.7956    36455.247    4.2709059    4.2709059    4.2709059    36455.247    6235.1769    54395.369    48735.194   -7628.3119    11171.562    7089.9229    77.904044 
   43100    1532.4787   -106.18573    1.3866189   -104.79911   -2734.0009     4.300818     4.300818     4.300818   -2734.0009   -18341.019    -7041.882    17180.898    48426.625   -18728.782     22039.51    79.552384 
   43200    1881.7787   -106.46888    1.7026729   -104.76621   -16511.154    4.2947539    4.2947539    4.2947539   -16511.154   -66828.501    3089.3055    14205.732     9690.794    27121.399   -6528.2886    79.216355 
   43300    2035.1725   -106.58899    1.8414668   -104.74752    20211.431    4.2625377    4.2625377    4.2625377    20211.431    13631.406    18104.521    28898.367    11773.664    7113.4796   -4199.8197    77.447019 
   43400    1619.0258   -106.23315    1.4649286   -104.76822    13639.669    4.2596766    4.2596766    4.2596766    13639.669   -2212.6798    1120.5953    42011.091    66209.313   -6891.5305    7604.6503    77.291171 
   43500    2202.5907   -106.77932    1.9929503   -104.78637   -2946.4961     4.274348     4.274348     4.274348   -2946.4961   -9586.9435    40844.865    -40097.41    -25772.08    61024.334   -20148.936    78.092553 
   43600    1604.5374   -106.24908    1.4518191   -104.79726   -9317.7108    4.2835326    4.2835326    4.2835326   -9317.7108    -33479.93   -12151.779    17678.577    39001.449     -12483.8    2306.9259    78.597047 
   43700    1472.3853   -106.13435    1.3322452    -104.8021   -29134.284     4.280622     4.280622     4.280622   -29134.284   -56633.078   -14367.266   -16402.509    37151.811    10209.214    16408.298    78.436938 
   43800    2468.4131   -107.01697    2.2334721    -104.7835    13857.825    4.2648968    4.2648968    4.2648968    13857.825   -4692.1162    67330.993   -21065.401   -12257.255    21105.161   -9814.4772    77.575676 
   43900    1412.3646   -106.08831    1.2779372   -104.81037   -13743.658    4.2641375    4.2641375    4.2641375   -13743.658   -83776.115    13159.021    29386.121    59429.467   -21947.375    7304.0797    77.534254 
   44000    2126.7509   -106.73112    1.9243289   -104.80679   -9437.9166    4.2814823    4.2814823    4.2814823   -9437.9166   -17789.428    18088.082   -28612.404    -18288.63   -5407.4541    19336.307    78.484238 
   44100    1814.7931   -106.42894     1.642063   -104.78687    7107.7728    4.2899308    4.2899308    4.2899308    7107.7728   -6276.7267    9048.7126    18551.332    43938.196    6418.8512    -10957.84    78.949766 
   44200    1276.3782   -105.93333    1.1548938   -104.77843    59.351665    4.2884975    4.2884975    4.2884975    59.351665   -81382.197    19793.775    61766.478   -14581.278   -28346.451    1453.8067    78.870661 
   44300    2347.8917   -106.87464    2.1244218   -104.75022    13380.982     4.279419     4.279419     4.279419    13380.982   -18945.757    52009.506    7079.1982   -17111.052    16165.247    -3413.258    78.370825 
   44400    1403.7874   -106.04395    1.2701763   -104.77377    9729.8046     4.266445     4.266445     4.266445    9729.8046   -50399.098    16763.682     62824.83    21908.084    9317.8578    278.84779    77.660189 
   44500    1790.6795   -106.40234    1.6202445   -104.78209    38278.833    4.2691367    4.2691367    4.2691367    38278.833   -29760.825    16385.608    128211.72   -37241.768   -28244.145    10330.541    77.807274 
   44600     1633.819   -106.26054    1.4783138   -104.78223   -16984.721     4.293039     4.293039     4.293039   -16984.721   -56242.736    9072.7795   -3784.2074    25375.289     43023.13    11002.213    79.121498 
   44700    1881.0359   -106.45838    1.7020008   -104.75638   -12864.309     4.293117     4.293117     4.293117   -12864.309   -57739.551   -2007.4235    21154.048     -9445.56   -274.28348   -15109.947    79.125812 
   44800    1857.6877   -106.41766    1.6808749   -104.73678    22135.879    4.2769985    4.2769985    4.2769985    22135.879    1613.2202     68426.44   -3632.0246   -8755.0446    33451.856    21121.558    78.237922 
   44900    1978.1715   -106.54623    1.7898912   -104.75634   -23303.221    4.2843149    4.2843149    4.2843149   -23303.221    -44351.02    369.68908   -25928.333    7046.3157      39378.6    3220.4764    78.640118 
   45000    2462.3802   -106.98122    2.2280134   -104.75321   -9163.2697    4.2877568    4.2877568    4.2877568   -9163.2697    22102.585    -26497.26   -23095.135    5926.4937   -5701.9093   -4096.2005    78.829801 
   45100    1434.8703   -106.07112    1.2983008   -104.77282   -14440.379    4.2837704    4.2837704    4.2837704   -14440.379   -7254.3623    23060.812   -59127.587   -23279.958    41978.943    29381.464    78.610138 
   45200    2177.8305   -106.73002    1.9705468   -104.75948   -12793.899    4.2768118    4.2768118    4.2768118   -12793.899   -23373.882   -45464.775    30456.961    66700.513   -22199.396   -15181.948    78.227673 
   45300    1680.6352   -106.29351     1.520674   -104.77284     3028.138    4.2806739    4.2806739    4.2806739     3028.138   -9844.4941    72148.168    -53219.26   -12210.553    40239.145    14387.204    78.439792 
   45400    1971.9597   -106.55756    1.7842706   -104.77329    -37770.21    4.2906719    4.2906719    4.2906719    -37770.21   -46350.047   -29466.742   -37493.839    30668.532    20132.206    23292.474    78.990692 
   45500    1728.1096   -106.35396    1.5636299   -104.79033   -4918.4201    4.2548075    4.2548075    4.2548075   -4918.4201   -16583.321   -45610.216    47438.277    80430.472   -2477.1529   -7474.7035    77.026428 
   45600    2030.2139    -106.6218    1.8369802   -104.78482    33224.362    4.2403275    4.2403275    4.2403275    33224.362    31034.196    83114.253   -14475.362   -34382.697    39128.031     -7576.17    76.242688 
   45700    1312.8001    -105.9961    1.1878491   -104.80825   -20410.214    4.2729511    4.2729511    4.2729511   -20410.214   -77036.098   -32758.449    48563.906    97560.002   -3128.4637    2079.3772    78.016015 
   45800    2476.7719   -107.01326    2.2410353   -104.77222    4848.0781    4.2839464    4.2839464    4.2839464    4848.0781    15462.384    13450.277   -14368.426   -12432.068    6702.2877     12808.88    78.619825 
   45900    1469.1067   -106.10974    1.3292786   -104.78046   -35464.973    4.2940573    4.2940573    4.2940573   -35464.973   -66171.272   -36922.781   -3300.8654     54208.37    26370.805   -15368.056    79.177815 
   46000    1528.1802   -106.16632    1.3827296   -104.78359   -38854.883    4.2771831    4.2771831    4.2771831   -38854.883   -59624.217    -77147.35     20206.92    66884.835   -12341.134    10498.464    78.248051 
   46100    2061.4872   -106.61871    1.8652769   -104.75344    10071.652    4.2490791    4.2490791    4.2490791    10071.652   -1760.0672    46571.638   -14596.615   -14460.926    4266.4146    8406.0211    76.715737 
   46200    1219.5401   -105.89482    1.1034655   -104.79135   -27488.606    4.2624382    4.2624382    4.2624382   -27488.606   -68517.016   -71719.162    57770.361    106111.06    25859.574   -2979.2327    77.441594 
   46300     2822.101   -107.32028    2.5534962   -104.76678    7630.6839    4.2732626    4.2732626    4.2732626    7630.6839    10263.359    11360.297    1268.3957    -26217.19   -14661.908    17993.939    78.033082 
   46400     920.5045   -105.63208   0.83289182   -104.79919   -10422.039    4.2791271    4.2791271    4.2791271   -10422.039   -48111.915    1365.2164    15480.582    98918.943    5256.6365   -4071.5174    78.354792 
   46500    2103.1187    -106.6875     1.902946   -104.78456   -21616.379    4.2845539    4.2845539    4.2845539   -21616.379   -47541.764    1479.1665   -18786.539   -4829.8832      19398.7    7651.5549    78.653277 
   46600    1862.7909   -106.45847    1.6854923   -104.77298    13471.974    4.2761957    4.2761957    4.2761957    13471.974    14680.106    4299.7872    21436.028    16568.852   -10419.006   -5118.7598    78.193869 
   46700     1566.448   -106.20928     1.417355   -104.79193   -9520.4942    4.2742054    4.2742054    4.2742054   -9520.4942   -28850.238    24727.372   -24438.617    77754.799    23206.255   -2010.0315    78.084739 
   46800    2258.6747   -106.82222    2.0436963   -104.77852    7713.4782    4.2674948    4.2674948    4.2674948    7713.4782    17689.876    39458.472   -34007.913   -34571.875     22726.95   -10997.782     77.71753 
   46900    1182.1912   -105.86852    1.0696714   -104.79885    17124.342    4.2554002    4.2554002    4.2554002    17124.342    436.98241   -27637.281    78573.325    54691.987   -13036.716   -5944.0647    77.058622 
   47000    2250.3897    -106.8404    2.0361999    -104.8042    4278.0891    4.2714922    4.2714922    4.2714922    4278.0891    33615.664   -2176.2599   -18605.137    25133.816    24713.025    -3585.658    77.936134 
   47100    1776.0969   -106.40513    1.6070498   -104.79808   -4381.3634    4.2815438    4.2815438    4.2815438   -4381.3634    36308.294   -24263.109   -25189.275     4152.433   -6442.7359   -18773.525    78.487623 
   47200    920.58946   -105.64033   0.83296869   -104.80736    13130.685    4.2741073    4.2741073    4.2741073    13130.685    25332.865   -27180.567    41239.756    34611.751   -10430.018    13776.086    78.079364 
   47300    2676.9588   -107.19502    2.4221686   -104.77285    6689.9167     4.273043     4.273043     4.273043    6689.9167    50058.628   -6767.5393   -23221.338   -15733.318    4566.7332    22594.947    78.021052 
   47400    1071.3516   -105.76472   0.96938147   -104.79534   -6369.8045    4.2675787    4.2675787    4.2675787   -6369.8045   -26215.548   -46101.324    53207.458    71961.766   -9951.7669   -7002.3873    77.722114 
   47500    1792.7556   -106.41538     1.622123   -104.79326   -891.66091      4.26927      4.26927      4.26927   -891.66091   -33910.613    5373.1931    25862.437   -15927.875    4805.1392   -14196.157    77.814559 
   47600    1586.0607    -106.2284    1.4351011    -104.7933    11936.549    4.2834075    4.2834075    4.2834075    11936.549    25132.388    47889.871   -37212.613    23570.932    6547.1203    26096.546    78.590164 
   47700     1842.987   -106.44043    1.6675733   -104.77286   -8082.0543    4.2981555    4.2981555    4.2981555   -8082.0543   -27498.993    9042.5193   -5789.6888    57153.168    -15070.35   -20207.166     79.40473 
   47800    2233.2431   -106.78365    2.0206853   -104.76297   -636.48756    4.2855625    4.2855625    4.2855625   -636.48756   -378.65163    25751.526   -27282.337    -20842.75    5210.2808    20362.542    78.708837 
   47900    837.38364   -105.55759   0.75768232   -104.79991   -25899.871    4.2528661    4.2528661    4.2528661   -25899.871    -63115.42   -35563.757    20979.564    92804.196    13005.728    29029.678    76.921036 
   48000    2134.0192   -106.74503    1.9309054   -104.81412    26328.736    4.2424555    4.2424555    4.2424555    26328.736    1046.3655    44771.977    33167.866    36396.799   -2324.1128   -13243.098    76.357533 
   48100    2241.1321    -106.8547    2.0278235   -104.82688    32278.493    4.2596848    4.2596848    4.2596848    32278.493    49969.089    14666.223    32200.167   -1607.2748   -6758.9921    6772.3755    77.291616 
   48200    939.13959   -105.68782   0.84975324   -104.83807    967.72921    4.2873572    4.2873572    4.2873572    967.72921   -48916.588    23225.711    28594.064    88574.064   -2652.4745     18892.21    78.807762 
   48300    2588.5701   -107.10659    2.3421926    -104.7644    6669.7752    4.2956563    4.2956563    4.2956563    6669.7752    54002.029   -22791.625   -11201.078   -50606.616   -2938.5347   -1254.8465    79.266299 
   48400    1096.1583   -105.76498   0.99182708   -104.77315    6508.5915    4.2733021    4.2733021    4.2733021    6508.5915    32391.693   -62540.095    49674.176    72705.329    6116.5478    26342.423    78.035244 
   48500    2384.5046   -106.90992    2.1575499   -104.75237    16669.861      4.25262      4.25262      4.25262    16669.861    39151.679    22999.495   -12141.591    6645.4552    8033.7711    6840.3881    76.907682 
   48600    1833.0975   -106.44007    1.6586251   -104.78145    9896.6384    4.2512088    4.2512088    4.2512088    9896.6384    14624.485   -35344.349    50409.779    39859.573    7750.3117   -17339.647    76.831144 
   48700    1662.2748    -106.3156    1.5040612   -104.81154   -3035.7823    4.2782389    4.2782389    4.2782389   -3035.7823   -24122.902   -35591.047    50606.602    42310.039    4172.3792     14518.14    78.306008 
   48800    2049.6761   -106.62423      1.85459   -104.76964   -53276.976    4.3034451    4.3034451    4.3034451   -53276.976   -23636.962   -83504.491   -52689.475      9619.36    10610.232   -27132.058    79.698255 
   48900    1183.1508   -105.83219    1.0705397   -104.76165   -33127.475    4.2776948    4.2776948    4.2776948   -33127.475   -66491.148     -78803.7    45912.424    91156.104   -1999.2176   -17354.448    78.276136 
   49000    2774.8034   -107.22318    2.5107004   -104.71248    16687.466    4.2592059    4.2592059    4.2592059    16687.466    27281.937    10592.142    12188.319   -47676.586    3430.2275    6607.4818    77.265548 
   49100    833.54229   -105.52243   0.75420658   -104.76822   -41558.403    4.2739555    4.2739555    4.2739555   -41558.403   -58038.991   -61236.249   -5399.9694    96942.303     16478.68       -37262    78.071042 
   49200    2441.3492   -106.98005    2.2089841   -104.77107   -10417.467    4.2715337    4.2715337    4.2715337   -10417.467   -7352.1581   -7752.0039    -16148.24   -7613.7918   -25635.101   -14721.343    77.938404 
   49300    1952.7576   -106.55951    1.7668961   -104.79261   -22634.127    4.2780321    4.2780321    4.2780321   -22634.127   -67544.065   -30447.538    30089.221    40766.811    5569.4977    11767.102    78.294654 
   49400    1015.4635   -105.72304   0.91881271   -104.80423   -34474.632    4.2702684    4.2702684    4.2702684   -34474.632   -44293.446   -53005.474   -6124.9742    63916.025    20275.602   -25445.405    77.869166 
   49500    2817.0408   -107.30544    2.5489177   -104.75652     18591.48    4.2629859    4.2629859    4.2629859     18591.48    23853.519    18581.801    13339.121   -8748.3499   -34648.625    15896.012    77.471449 
   49600     810.4694    -105.5146   0.73332975   -104.78127   -42910.813     4.298598     4.298598     4.298598   -42910.813    -76724.39   -28388.482   -23619.568    75843.975    29457.773   -35088.858    79.429259 
   49700    2683.7521    -107.1394    2.4283153   -104.71108   -17406.812    4.3060649    4.3060649    4.3060649   -17406.812   -1843.7916   -1322.8406   -49053.803   -19551.488    2431.2057   -8811.8481    79.843892 
   49800     1333.454   -105.92901    1.2065372   -104.72248    5056.4395    4.2816922    4.2816922    4.2816922    5056.4395   -1073.3114   -35761.926    52004.556    78346.207    3784.6672    -1151.171    78.495784 
   49900    2000.1107   -106.53121    1.8097422   -104.72147   -2976.3995    4.2649908    4.2649908    4.2649908   -2976.3995    33722.947   -7271.3257    -35380.82   -21476.139    40465.789   -54376.246    77.580806 
   50000    2092.2974   -106.63897    1.8931546   -104.74582    13101.229    4.2542877    4.2542877    4.2542877    13101.229   -23522.852   -10350.339    73176.878     41986.54   -23451.049   -120.59909    76.998202 
   50100    1568.4889   -106.20748    1.4192018   -104.78827    5774.0606    4.2625155    4.2625155    4.2625155    5774.0606    39082.157   -14358.686   -7401.2895    35609.067    15991.602   -10873.646    77.445806 
   50200    1609.7413   -106.25759    1.4565278   -104.80106   -31795.041    4.2819514    4.2819514    4.2819514   -31795.041   -12393.783   -13750.334   -69241.007   -23658.834    36577.991   -27112.945    78.510039 
   50300    1960.9894   -106.55619    1.7743444   -104.78185    12493.938    4.2760073    4.2760073    4.2760073    12493.938   -11385.716     14461.41     34406.12    35246.228   -26085.689   -143.12812    78.183536 
   50400    1920.3395   -106.51062    1.7375635   -104.77306    23914.833    4.2764991    4.2764991    4.2764991    23914.833    56814.001    42907.931   -27977.432    5785.1432    14046.827    616.53438    78.210515 
   50500    1545.4777   -106.17285    1.3983807   -104.77447   -22319.546    4.2825183    4.2825183    4.2825183   -22319.546   -28592.198   -36828.974   -1537.4655    19404.798    1222.3156     2556.847    78.541229 
   50600    1147.6874    -105.8284    1.0384516   -104.78995    -12359.13    4.2639924    4.2639924    4.2639924    -12359.13    -73216.99     23318.97     12820.63    13089.646   -63913.297   -2203.6992    77.526338 
   50700    2540.1675   -107.06486    2.2983969   -104.76646    13420.335    4.2705902    4.2705902    4.2705902    13420.335   -3593.0571    38163.218    5690.8434    10565.282     19338.37   -10164.288    77.886769 
   50800    1460.3431   -106.08981    1.3213491   -104.76846   -54771.798    4.2999466    4.2999466    4.2999466   -54771.798   -101073.42    -61438.75   -1803.2242    41832.782   -18707.045   -10782.138    79.504036 
   50900    2399.9184   -106.90652    2.1714966   -104.73503   -16051.973    4.2916349    4.2916349    4.2916349   -16051.973   -28542.136   -21292.733     1678.951   -28302.422   -17196.896    17076.285    79.043891 
   51000    1331.7189   -105.96073    1.2049673   -104.75576   -17927.917    4.2736212    4.2736212    4.2736212   -17927.917   -50961.075   -23889.517    21066.839    33515.793     37821.62    2585.9694    78.052727 
   51100     2076.771   -106.63914     1.879106   -104.76003    14510.441    4.2599983    4.2599983    4.2599983    14510.441     1707.678   -12073.327    53896.972    26115.341   -17504.946    -14894.08    77.308682 
   51200    1772.4308   -106.39043    1.6037327    -104.7867    33020.161    4.2700032    4.2700032    4.2700032    33020.161    21771.562    79826.828   -2537.9063    11745.545    4531.4908    44028.779    77.854657 
   51300    1097.7696   -105.78957   0.99328498   -104.79629   -35985.206    4.3039269    4.3039269    4.3039269   -35985.206   -37670.431    -19620.62   -50664.567    57949.858    35438.189   -18062.823    79.725022 
   51400    2859.0734   -107.33611    2.5869497   -104.74916     947.0874    4.2906983    4.2906983    4.2906983     947.0874    27336.579   -18481.151   -6014.1662   -24507.257   -3087.9194    3950.4495     78.99215 
   51500    1196.4473   -105.85039    1.0825707   -104.76782    19854.697    4.2479876    4.2479876    4.2479876    19854.697    14518.396    795.97238    44249.721    50326.844    14580.184    19416.274    76.656629 
   51600    1828.3945   -106.44081    1.6543698   -104.78644    13418.305    4.2517484    4.2517484    4.2517484    13418.305   -6745.5401    44087.547    2912.9094    11478.596    30588.514   -23009.217    76.860407 
   51700    2187.8598   -106.77024    1.9796215   -104.79062   -6836.6521    4.2753812    4.2753812    4.2753812   -6836.6521   -18595.575   -15327.587    13413.207     1756.472   -18494.723    18122.177    78.149199 
   51800    1157.9122   -105.85765    1.0477033   -104.80995   -6349.0947    4.2842699    4.2842699    4.2842699   -6349.0947    14029.968   -52032.898    18955.646    63686.084      25400.1    11186.114     78.63764 
   51900     2660.039   -107.17929    2.4068591   -104.77243   -24498.982    4.2873267    4.2873267    4.2873267   -24498.982   -31379.888    6700.8004   -48817.859   -25935.929   -26210.642   -6505.1018    78.806082 
   52000    949.37276   -105.64512   0.85901242    -104.7861   -40036.355    4.2793516    4.2793516    4.2793516   -40036.355   -64383.797   -35024.662   -20700.606    58595.801   -33697.354    12729.989    78.367125 
   52100    2291.1106   -106.84441     2.073045   -104.77137    20983.619    4.2629221    4.2629221    4.2629221    20983.619     55437.56    -3660.464     11173.76     15804.06    27196.673    7223.0472    77.467971 
   52200    1600.0882   -106.24369    1.4477934    -104.7959   -673.85602     4.259459     4.259459     4.259459   -673.85602   -14593.201    8394.2137    4177.4188    8477.9741   -28595.736   -17742.747    77.279324 
   52300     1664.956   -106.31866    1.5064872   -104.81217   -9269.0119    4.2764177    4.2764177    4.2764177   -9269.0119    18007.332   -45115.711   -698.65698    54544.336   -20022.183    8310.1548     78.20605 
   52400    2050.8627   -106.64089    1.8556636   -104.78522    5234.7591     4.283942     4.283942     4.283942    5234.7591    73907.657   -11172.847   -47030.533   -15885.732    40023.808   -22213.997    78.619587 
   52500    1342.7851   -105.99321    1.2149802   -104.77823    34370.651    4.2814262    4.2814262    4.2814262    34370.651    35487.499    8042.4113    59582.041    32750.949   -8803.0142    2775.0379    78.481154 
   52600     1939.172   -106.50821    1.7546036    -104.7536   -15805.025    4.3027873    4.3027873    4.3027873   -15805.025   -4650.1336   -25872.551   -16892.391   -18573.715    19018.613   -5663.7256    79.661713 
   52700     1198.387    -105.8273    1.0843257   -104.74298   -47763.313    4.2990174    4.2990174    4.2990174   -47763.313   -37827.304   -80343.347   -25119.288    27836.926    41416.133   -28977.042    79.452506 
   52800    2626.0389   -107.08292    2.3760952   -104.70682    12396.326     4.266337     4.266337     4.266337    12396.326   -18680.243   -25464.535    81333.757    28427.734    -9620.172    516.45592    77.654294 
   52900    893.74345   -105.56614   0.80867786   -104.75746   -13178.991    4.2645802    4.2645802    4.2645802   -13178.991   -18153.249   -37578.913    16195.188   -38244.934    38678.002   -7212.1384    77.558403 
   53000    2061.4328    -106.6484    1.8652277   -104.78317     5314.561    4.2705325    4.2705325    4.2705325     5314.561    50585.014   -34293.899   -347.43229    12168.613    4891.0316   -36100.546    77.883615 
   53100    1904.7298   -106.51319    1.7234396   -104.78975     10572.16    4.2852646    4.2852646    4.2852646     10572.16   -4707.2404    49650.564   -13226.844   -5699.8271   -14611.293    6467.8538    78.692428 
   53200     1643.464   -106.26174    1.4870407    -104.7747   -23273.789    4.3048609    4.3048609    4.3048609   -23273.789    40380.792   -30770.744   -79431.417   -5011.2363    27442.113   -47466.994    79.776941 
   53300    2086.4143   -106.64346    1.8878315   -104.75563   -18651.593     4.286706     4.286706     4.286706   -18651.593    9347.3178   -50249.072   -15053.026    17395.526   -37162.419     19113.27    78.771861 
   53400    1354.7777   -105.97872    1.2258314   -104.75288    10257.781     4.243319     4.243319     4.243319    10257.781    52323.857    6155.5972    -27706.11   -17395.468    4289.9185   -7081.7328    76.404169 
   53500    2403.1592   -106.93191     2.174429   -104.75749    22598.642    4.2520147    4.2520147    4.2520147    22598.642    49628.836   -24907.179     43074.27    36991.782    15859.037   -3131.9378    76.874847 
   53600    1018.9296    -105.7181   0.92194896   -104.79615   -38382.393    4.2879169    4.2879169    4.2879169   -38382.393   -27274.594   -56627.298   -31245.288    25378.996   -21081.557    26162.168    78.838631 
   53700    2848.0377   -107.32827    2.5769644    -104.7513    -20650.78    4.3026069    4.3026069    4.3026069    -20650.78    1535.6709   -16496.886   -46991.125   -6076.6068    1028.5952   -757.26368    79.651692 
   53800    1452.5005   -106.07662     1.314253   -104.76237   -31979.307    4.3041849    4.3041849    4.3041849   -31979.307   -63175.258   -18535.181   -14227.483    33878.209   -9163.5412   -7.4810628    79.739361 
   53900    1951.2783   -106.51156    1.7655576     -104.746    -31954.55    4.2807225    4.2807225    4.2807225    -31954.55   -53595.251    23506.449   -65774.849   -17973.363   -66812.349    29608.494    78.442462 
   54000    1684.8644   -106.27237    1.5245007   -104.74787    25483.076    4.2545835    4.2545835    4.2545835    25483.076    62114.846   -658.83371    14993.216    30552.761    26501.793   -27743.448    77.014263 
   54100    1664.1713   -106.29574    1.5057771   -104.78996    516.34749    4.2543668    4.2543668    4.2543668    516.34749   -24565.991   -6968.6047    33083.638    20006.151   -24947.537    19715.936    77.002493 
   54200     1974.889   -106.58891    1.7869211   -104.80199    30062.892    4.2762642    4.2762642    4.2762642    30062.892    81843.026    36702.944   -28357.293   -12455.761   -12937.901   -22421.666    78.197631 
   54300    1199.1402   -105.88308    1.0850072   -104.79807   -31325.589    4.3038986    4.3038986    4.3038986   -31325.589   -59365.934     -41687.6    7076.7679    58298.288    14066.764   -28249.292    79.723453 
   54400    2539.6887   -107.04829    2.2979637   -104.75033    15432.857    4.2857451    4.2857451    4.2857451    15432.857    42351.491   -2991.1399    6938.2187   -40512.908   -16040.986    25233.752    78.718901 
   54500    1191.1914   -105.82874     1.077815   -104.75093    12907.221    4.2619954    4.2619954    4.2619954    12907.221    41170.268   -42102.549    39653.944    69759.443    1592.1954   -46713.091     77.41746 
   54600    2074.1728   -106.63489    1.8767551   -104.75814     14169.57    4.2654743    4.2654743    4.2654743     14169.57    26453.144   -5216.7201    21272.287    13907.371   -3838.7825    35155.746    77.607198 
   54700    2058.9462   -106.64333    1.8629778   -104.78036    28048.737    4.2664522    4.2664522    4.2664522    28048.737    37950.349   -5377.0906    51572.953    6989.2139    285.51956    -15960.35    77.660586 
   54800    1172.0375    -105.8678    1.0604841   -104.80732   -11206.362    4.2756299    4.2756299    4.2756299   -11206.362   -43403.748   -36815.026    46599.689    78752.135    153.94469   -16079.192    78.162836 
   54900    2687.8194   -107.20322    2.4319954   -104.77122   -4821.3324    4.2771294    4.2771294    4.2771294   -4821.3324     30004.31   -11035.198   -33433.109   -22301.469   -3466.4884    21250.229    78.245103 
   55000    1080.4559   -105.76941   0.97761923   -104.79179   -17573.459    4.2716391    4.2716391    4.2716391   -17573.459   -42104.956   -959.44418   -9655.9766    73622.346   -1642.7798   -53966.152    77.944174 
   55100     2556.241   -107.08931    2.3129405   -104.77637   -16184.962    4.2715379    4.2715379    4.2715379   -16184.962   -28396.076   -10456.105   -9702.7047   -3066.6606    7166.1095    6426.8493    77.938635 
   55200    1637.1795   -106.25864    1.4813544   -104.77729    645.46789    4.2774061    4.2774061    4.2774061    645.46789   -20503.606    37985.273   -15545.263    35335.987   -3705.6067   -16313.835    78.260289 
   55300    1349.6785   -105.99118    1.2212174   -104.76997    -18902.64    4.2925099    4.2925099    4.2925099    -18902.64    3232.3735   -35953.757   -23986.535    51842.961   -7931.4828   -34684.211    79.092245 
   55400    2763.0075   -107.23967    2.5000273   -104.73965   -9010.4518    4.2888588    4.2888588    4.2888588   -9010.4518   -16681.604   -3498.4043   -6851.3475   -12617.144    5026.4584    27233.364      78.8906 
   55500    1022.9402   -105.70708   0.92557777    -104.7815   -35601.761     4.262118     4.262118     4.262118   -35601.761   -44538.689   -90853.109    28586.514    92053.375    7207.3008   -56855.938    77.424143 
   55600    2223.2634   -106.79389    2.0116555   -104.78224    35059.906     4.240325     4.240325     4.240325    35059.906    46618.775    34600.909    23960.034   -25804.035   -9402.4322   -13419.932    76.242556 
   55700     1679.679   -106.33324    1.5198088   -104.81343    37263.286    4.2599208    4.2599208    4.2599208    37263.286   -6216.4987    441.54157    117564.82    48659.801      943.313    19870.001    77.304463 
   55800    1309.7526   -105.98624    1.1850917   -104.80115   -30625.425    4.3002873    4.3002873    4.3002873   -30625.425   -9619.6951   -62270.647   -19985.932    22624.195    962.92891   -39074.264    79.522938 
   55900    2148.4443   -106.68069    1.9439575   -104.73673   -29665.246    4.3013739    4.3013739    4.3013739   -29665.246   -32629.018   -13478.962   -42887.757    20032.526   -13177.686    13889.285    79.583236 
   56000    1621.0434   -106.19212    1.4667541   -104.72537    12952.707    4.2665811    4.2665811    4.2665811    12952.707    10821.189   -10415.161    38452.093    83123.589    3980.7995   -17799.176    77.667624 
   56100    2273.9063   -106.77369    2.0574782   -104.71621    28495.818    4.2555163    4.2555163    4.2555163    28495.818    66524.741     10210.54    8752.1723   -18052.411    1682.6533   -38270.693    77.064928 
   56200    860.90899   -105.55603   0.77896854   -104.77706   -19886.635    4.2612133    4.2612133    4.2612133   -19886.635    -69447.68   -58399.823      68187.6    113721.45   -19681.493     22389.62    77.374852 
   56300     2644.178   -107.16642    2.3925078   -104.77391    25029.713    4.2687188    4.2687188    4.2687188    25029.713    48553.665    39190.505   -12655.031   -44982.837    6491.6552   -16697.938    77.784424 
   56400     1450.161   -106.11663    1.3121362    -104.8045   -50856.998    4.2831406    4.2831406    4.2831406   -50856.998   -85349.322   -79519.647    12297.975    117323.47    958.04862   -7516.5619    78.575469 
   56500    1982.4878   -106.58007    1.7937966   -104.78628    7966.1496    4.2625682    4.2625682    4.2625682    7966.1496   -14795.872    8294.2345    30400.086    36979.667   -14282.732    8583.7121    77.448681 
   56600    1841.4399   -106.43528    1.6661735    -104.7691    30898.684    4.2456529    4.2456529    4.2456529    30898.684    -25860.15    34682.599    83873.603    41896.977    6922.8604    3117.2624    76.530309 
   56700    1177.8323   -105.86428    1.0657274   -104.79856   -18971.418    4.2659245    4.2659245    4.2659245   -18971.418   -36230.179   -52954.899    32270.823    80105.125    -1229.384   -759.95618    77.631769 
   56800    2434.5325   -106.97064    2.2028162   -104.76782    1620.1221    4.2741847    4.2741847    4.2741847    1620.1221   -11399.331    48912.299   -32652.602   -14163.414   -11947.445   -7331.5671    78.083604 
   56900     1316.039   -105.97318    1.1907797    -104.7824   -15383.555    4.2771175    4.2771175    4.2771175   -15383.555   -97682.147   -6682.3902    58213.873    110033.55   -2033.4543    6205.9125    78.244449 
   57000    2416.8163   -106.93421    2.1867862   -104.74743   -11365.458    4.2776693    4.2776693    4.2776693   -11365.458    15411.418   -12679.646   -36828.148    -50256.28    9865.7829   -23463.354    78.274737 
   57100    975.90037   -105.64365   0.88301516   -104.76064    11104.253    4.2585593    4.2585593    4.2585593    11104.253   -19970.099    11187.545    42095.311    91193.877   -19093.146   -17245.371    77.230368 
   57200     2456.886   -106.97484    2.2230421    -104.7518    22307.619    4.2555185    4.2555185    4.2555185    22307.619    21590.692     28935.25    16396.916   -28647.759     4863.878    14875.126    77.065045 
   57300    1520.9927   -106.16229    1.3762262   -104.78606   -18242.075    4.2723695    4.2723695    4.2723695   -18242.075    3732.4237   -58146.707   -311.94322     22077.03   -5258.2011   -22857.262    77.984164 
   57400     2113.747   -106.68742    1.9125627   -104.77486    11636.793    4.2742081    4.2742081    4.2742081    11636.793    9527.6383    35382.003   -9999.2631    37323.809   -9526.6176   -3982.6715    78.084885 
   57500     1592.926   -106.21814    1.4413129   -104.77682   -15643.325    4.2692808    4.2692808    4.2692808   -15643.325    43027.864   -47740.986   -42216.852   -34862.835    12529.129    40103.688    77.815149 
   57600      1707.76   -106.32228    1.5452172   -104.77706   -17815.459    4.2587359    4.2587359    4.2587359   -17815.459   -9340.4874   -70949.439    26843.548     58918.06   -3912.3046   -42308.347    77.239973 
   57700    1977.0619   -106.56372    1.7888871   -104.77484    18243.778    4.2525793    4.2525793    4.2525793    18243.778    78207.465    2638.9524   -26115.083   -9634.7967    1568.7272     66871.94    76.905477 
   57800    1546.8936   -106.19105    1.3996618   -104.79139   -4840.1789    4.2700672    4.2700672    4.2700672   -4840.1789    32853.995   -26385.625   -20988.906   -7073.8782    -1331.969    11648.622    77.858156 
   57900    2258.9741    -106.8035    2.0439672   -104.75953   -1109.2502     4.282078     4.282078     4.282078   -1109.2502   -2657.1627   -21406.548     20735.96    12772.385     7268.236    11532.865    78.517003 
   58000    1425.8649   -106.05747    1.2901526   -104.76732   -11602.494    4.2812413    4.2812413    4.2812413   -11602.494    30374.308   -26084.161   -39097.628   -10910.391    3290.2162    86932.766     78.47099 
   58100    2353.5846    -106.8845    2.1295728   -104.75492    21969.734    4.2618643    4.2618643    4.2618643    21969.734    32766.558   -22960.899    56103.541   -8715.6202   -10610.458   -46836.761    77.410318 
   58200    1075.4322   -105.75398   0.97307366   -104.78091    25483.961    4.2421789    4.2421789    4.2421789    25483.961    87189.105   -39327.948    28590.725    7112.3868     7010.451    126988.78      76.3426 
   58300    2985.7261    -107.4732    2.7015477   -104.77165    26974.723    4.2586059    4.2586059    4.2586059    26974.723   -18510.416      15009.1    84425.484   -9683.6469   -7221.0692   -35478.711      77.2329 
   58400     1261.639   -105.93665    1.1415575   -104.79509   -31444.898    4.2745181    4.2745181    4.2745181   -31444.898     43315.95   -104096.62   -33554.028    -7550.845   -3449.6915     115105.1    78.101877 
   58500    1794.8508   -106.40891    1.6240187   -104.78489   -3528.0329    4.2774215    4.2774215    4.2774215   -3528.0329    17606.664   -47124.658    18933.895    8379.7869   -528.91398   -7649.8027    78.261135 
   58600    1753.6443   -106.35859    1.5867342   -104.77185   -30713.064    4.2720264    4.2720264    4.2720264   -30713.064    50573.696   -84484.253   -58228.635   -7902.6124   -5041.3214    54962.132     77.96538 
   58700    1506.5823   -106.12226    1.3631873   -104.75907    23198.347    4.2588862    4.2588862    4.2588862    23198.347    41765.144    31388.727   -3558.8294   -1266.5196   -4761.3304     70139.82    77.248152 
   58800    2311.4296   -106.85126    2.0914301   -104.75983    -8840.118    4.2681957    4.2681957    4.2681957    -8840.118    -1190.467   -1030.5607   -24299.326   -1177.9087   -3893.3122   -8746.9344    77.755831 
   58900    1388.0056   -106.02783    1.2558966   -104.77194   -21542.586    4.2760873    4.2760873    4.2760873   -21542.586    48203.637   -36622.195   -76209.201    1716.4947     -2248.69    92093.751    78.187923 
   59000    2506.7649   -107.01173    2.2681736   -104.74356    7247.1023    4.2729324    4.2729324    4.2729324    7247.1023   -19686.858     23415.71    18012.456   -31633.361    1080.1637   -21602.281    78.014993 
   59100    795.23836   -105.49788   0.71954838   -104.77833   -28863.749    4.2747459    4.2747459    4.2747459   -28863.749     85860.46   -93229.448   -79222.261   -6819.6405   -8422.3626    117933.24    78.114366 
   59200     3162.149   -107.60944    2.8611789   -104.74826     18648.36    4.2605876    4.2605876    4.2605876     18648.36    24512.203    21859.949    9572.9286   -423.38479     2422.509   -30534.392    77.340771 
   59300      1080.39   -105.78834    0.9775596   -104.81078   -6104.0056    4.2591278    4.2591278    4.2591278   -6104.0056    45626.295   -46508.201   -17430.112   -28007.175   -908.16267    88911.145    77.261298 
   59400    1589.7494   -106.25964    1.4384387    -104.8212    335.72545    4.2629054    4.2629054    4.2629054    335.72545    33119.828   -16309.506   -15803.146   -2691.4191   -2001.0383    34736.716    77.467063 
   59500    2156.2232   -106.75518     1.950996   -104.80418    16568.547    4.2639129    4.2639129    4.2639129    16568.547    29817.047    5687.6234    14200.972     252.2205    9041.5726    6983.5866    77.522001 
   59600    1333.4073   -106.01811     1.206495   -104.81161    -14856.52    4.2669166    4.2669166    4.2669166    -14856.52    55017.245    -75687.54   -23899.266   -15801.498   -13419.051    91437.611    77.685945 
   59700    2512.5951   -107.05382    2.2734489   -104.78037   -4649.8289    4.2725889    4.2725889    4.2725889   -4649.8289   -41757.421    8941.3758    18866.559   -15314.246    3902.2772   -29709.975    77.996176 
   59800    913.16099   -105.62562   0.82624725   -104.79937   -3880.9903    4.2778874    4.2778874    4.2778874   -3880.9903     62443.16   -12222.494   -61863.637    15838.275    11512.574    90220.835     78.28671 
   59900    2734.2622   -107.22479    2.4740179   -104.75078   -6257.6538    4.2887824    4.2887824    4.2887824   -6257.6538    9489.3441   -20880.363   -7381.9429   -19202.934    17645.558   -28879.164    78.886379 
   60000    1187.5643    -105.8364    1.0745332   -104.76187   -48502.091    4.2916294    4.2916294    4.2916294   -48502.091    46219.047   -125344.75   -66380.565    10909.546   -8215.1177    99754.081    79.043587 
   60100     2161.757   -106.70706    1.9560032   -104.75106    4355.7016    4.2698426    4.2698426    4.2698426    4355.7016    42928.673   -36758.639    6897.0705    7638.5803    18209.063    31683.874    77.845875 
   60200    2394.0777   -106.93047    2.1662118   -104.76426    14558.954    4.2561882    4.2561882    4.2561882    14558.954    80270.194    -36035.06   -558.27359   -14196.632    14876.192     35386.16    77.101439 
   60300    1352.9555   -106.01941    1.2241826   -104.79523   -8044.8523    4.2570589    4.2570589    4.2570589   -8044.8523     89379.52   -85808.784   -27705.293     11610.83   -8512.8237    81770.324    77.148764 
   60400    2108.2272   -106.69727    1.9075682    -104.7897    11979.396    4.2699804    4.2699804    4.2699804    11979.396   -19866.286   -31645.261    87449.735    4084.9943    12634.497   -23661.923    77.853414 
   60500    1386.9985   -106.05287    1.2549854   -104.79788   -27847.607    4.2895537    4.2895537    4.2895537   -27847.607    40113.675   -68226.607   -55429.889   -12123.736   -5412.6129    103929.02    78.928948 
   60600      2326.35   -106.87305    2.1049304   -104.76812   -1158.8101    4.2857753    4.2857753    4.2857753   -1158.8101   -8824.7681   -31747.882    37096.219    13711.062   -4204.4824   -40431.133    78.720562 
   60700     1151.573   -105.82523    1.0419674   -104.78326    3525.9889    4.2586663    4.2586663    4.2586663    3525.9889     31550.86   -44624.567    23651.673    1467.0778   -992.01816    69524.735     77.23619 
   60800    2012.3712    -106.6122    1.8208357   -104.79136    18643.679    4.2556908    4.2556908    4.2556908    18643.679    55708.747    36493.566   -36271.274   -2011.0307   -12375.713    34700.059    77.074408 
   60900    2566.1552   -107.11216    2.3219112   -104.79025   -8741.8946     4.277441     4.277441     4.277441   -8741.8946    8187.6215    -42769.13    8355.8252    11612.631   -2280.9688     -15522.3    78.262206 
   61000    1295.7745   -105.99275     1.172444    -104.8203   -36175.547    4.2736252    4.2736252    4.2736252   -36175.547    32144.362   -66947.053    -73723.95   -8861.7912   -7797.6652    81393.058    78.052944 
   61100    1976.0846    -106.5975    1.7880028    -104.8095    13643.972    4.2613157    4.2613157    4.2613157    13643.972    28122.354    30876.232    -18066.67   -9502.2382   -6902.6146   -13231.347    77.380429 
   61200    2088.7942   -106.69912    1.8899849   -104.80913   -10098.433    4.2779111    4.2779111    4.2779111   -10098.433    25614.202   -72288.436    16378.933    437.71664   -5796.7947    41829.072    78.288014 
   61300    1420.0551   -106.08316    1.2848957   -104.79826   -30505.028    4.2897587    4.2897587    4.2897587   -30505.028   -17144.098   -63843.478   -10527.506   -13475.807   -7592.7851    43130.189    78.940267 
   61400    1808.1454   -106.41557    1.6360479   -104.77952    14735.411    4.2694003    4.2694003    4.2694003    14735.411   -19808.413    23591.477    40423.168   -1623.0848   -2812.4176   -11735.886    77.821682 
   61500     1829.313   -106.43288    1.6552009   -104.77768    7156.1152    4.2558201    4.2558201    4.2558201    7156.1152    69251.174   -49414.868    1632.0397    14884.374    -3452.211    63273.782    77.081432 
   61600    2072.0309    -106.6667    1.8748171   -104.79188   -3903.0948    4.2595858    4.2595858    4.2595858   -3903.0948   -33491.642    28236.955   -6454.5971   -7061.1533   -8804.0074   -11365.262    77.286229 
   61700    1376.7251   -106.05494    1.2456898   -104.80925    8267.0718    4.2603329    4.2603329    4.2603329    8267.0718    3500.6016    18063.434    3237.1792    11144.316   -17836.465    32872.962      77.3269 
   61800    2111.4747   -106.71722    1.9105067   -104.80672   -9381.4663    4.2753718    4.2753718    4.2753718   -9381.4663    25745.921   -39540.475   -14349.845    1929.1772    4851.1725    46305.807    78.148681 
   61900    1951.4882   -106.55705    1.7657475   -104.79131   -28705.146    4.2922909    4.2922909    4.2922909   -28705.146   -35243.949     4000.878   -54872.366   -10710.078   -30404.607   -10847.204    79.080145 
   62000    1528.3528   -106.16278    1.3828857   -104.77989     -34709.8    4.2807196    4.2807196    4.2807196     -34709.8    29252.252   -53699.512   -79682.139   -615.92479    9063.6993    89402.497    78.442306 
   62100    2566.2198   -107.07634    2.3219696   -104.75437    12069.172    4.2546995    4.2546995    4.2546995    12069.172    9826.7801    28257.493   -1876.7576   -5286.2817   -29040.989   -9445.0695    77.020561 
   62200    1523.2918   -106.16535    1.3783064   -104.78704   -2507.6309    4.2593007    4.2593007    4.2593007   -2507.6309    17437.872    33507.422   -58468.186   -14668.443   -17727.523    53537.784    77.270712 
   62300    1916.1577   -106.52576    1.7337798   -104.79198   -17952.738    4.2811609    4.2811609    4.2811609   -17952.738    28492.939   -12553.393    -69797.76    3576.6693    27293.533    28373.039    78.466567 
   62400    2215.5963   -106.78235    2.0047181   -104.77763   -23278.961    4.2865157    4.2865157    4.2865157   -23278.961    1521.1237   -45297.105   -26060.903   -6265.0669   -12695.982   -58585.038    78.761367 
   62500    1642.4749   -106.26918    1.4861458   -104.78304   -8969.6673    4.2714601    4.2714601    4.2714601   -8969.6673    27694.087   -2284.8181    -52318.27   -24893.302    19552.952    70756.086    77.934375 
   62600     1025.472   -105.72912   0.92786862   -104.80125    6239.3295    4.2524086    4.2524086    4.2524086    6239.3295    115755.68    -17553.82   -79483.872    10967.745    27144.459   -70288.018    76.896215 
   62700    2459.7477   -107.02138    2.2256314   -104.79575    34792.574    4.2500606    4.2500606    4.2500606    34792.574    60982.004     52091.45   -8695.7314    -17971.91   -18368.347    -5657.438     76.76891 
   62800    1869.7263   -106.51065    1.6917677   -104.81888    1286.5925    4.2747804    4.2747804    4.2747804    1286.5925    50793.996    13419.372    -60353.59   -1543.9504    19077.703   -10374.243    78.116255 
   62900    1309.9521   -105.99373    1.1852721   -104.80846   -32803.608    4.2935697    4.2935697    4.2935697   -32803.608    54282.073    -44832.57   -107860.33    3160.8333    3601.3213   -54862.567    79.150847 
   63000    1978.6694   -106.56057    1.7903416   -104.77023   -11448.314    4.2795484    4.2795484    4.2795484   -11448.314   -1563.1233    7975.1878   -40757.005    14525.674   -20900.716    5826.8212    78.377938 
   63100    1378.4584   -106.02038    1.2472581   -104.77312    20663.345     4.256634     4.256634     4.256634    20663.345    96447.518    -42695.73    8238.2468    3108.7396    13174.896    -85441.05    77.125664 
   63200    2423.1557   -106.94986    2.1925222   -104.75734    38016.625    4.2618436    4.2618436    4.2618436    38016.625    50226.812    31126.843    32696.221    33837.577   -3652.3995    21076.784    77.409191 
   63300    900.31373   -105.59806   0.81462278   -104.78344   -4322.5429    4.2924126    4.2924126    4.2924126   -4322.5429    34685.525   -25905.558   -21747.595   -9005.5008   -24376.701   -103157.33    79.086868 
   63400    2761.6575   -107.22169    2.4988058   -104.72288   -37999.308    4.3138742    4.3138742    4.3138742   -37999.308   -41725.277   -62532.003    -9740.643    922.17949    1838.1612    41359.632    80.279086 
   63500    1093.1744   -105.70284   0.98912717   -104.71371   -15192.822    4.3025276    4.3025276    4.3025276   -15192.822    55684.559    -44510.45   -56752.575    9044.7988   -21510.567   -76106.081    79.647286 
   63600    1883.3594   -106.40534    1.7041032   -104.70124    15521.227     4.274954     4.274954     4.274954    15521.227    22053.383    24095.256    415.04298    13436.756   -19353.909   -5578.0438    78.125775 
   63700    1693.3269   -106.26033    1.5321578   -104.72817    31030.731    4.2536451    4.2536451    4.2536451    31030.731    64259.455    17874.305    10958.434    25994.725    15779.618   -51335.315    76.963311 
   63800    1569.9151   -106.19422    1.4204922   -104.77373    19969.362     4.263243     4.263243     4.263243    19969.362    56613.377    30525.757   -27231.048    18955.562   -33401.775   -39285.635    77.485468 
   63900    1896.2326   -106.48214    1.7157511   -104.76639    11013.538    4.2923074    4.2923074    4.2923074    11013.538    26849.464    29782.172   -23591.022    9113.7003    7511.8552   -1504.4008    79.081053 
   64000    1693.0627   -106.28113    1.5319187   -104.74921   -13259.637     4.299335     4.299335     4.299335   -13259.637    26389.382   -38733.856   -27434.437    -6987.267   -4292.7529   -62477.158    79.470116 
   64100    1846.2952   -106.42019    1.6705667   -104.74962    12986.709    4.2763021    4.2763021    4.2763021    12986.709   -17461.471    37032.046    19389.552    4152.2587   -63946.303    23871.956    78.199708 
   64200    2168.9744   -106.70666    1.9625336   -104.74413    30331.538    4.2566555    4.2566555    4.2566555    30331.538    68377.269    20563.272     2054.073    -18812.47    59109.332   -41368.626    77.126835 
   64300    1211.0012   -105.88013    1.0957394   -104.78439   -10712.142    4.2596654    4.2596654    4.2596654   -10712.142   -20678.431    25970.924   -37428.918    4902.4068   -78966.122   -12112.226    77.290561 
   64400    2556.9913   -107.08791    2.3136195   -104.77429    16181.333    4.2765167    4.2765167    4.2765167    16181.333    41465.664   -10727.713    17806.048    3548.8765    23337.132    5233.5647    78.211483 
   64500    1062.7433   -105.74654   0.96159245   -104.78495    10310.127    4.2922172    4.2922172    4.2922172    10310.127    45734.075    52194.149   -66997.843   -21499.242   -32132.493   -24171.479    79.076068 
   64600    2107.7129   -106.64274    1.9071029   -104.73564   -578.38074    4.3004594    4.3004594    4.3004594   -578.38074    771.26399    35163.976   -37670.382   -19933.842   -21049.753    10845.222    79.532484 
   64700    1635.0414   -106.20542    1.4794198     -104.726   -3731.2885    4.2818494    4.2818494    4.2818494   -3731.2885    3064.4199    15445.409   -29703.695    11293.202   -1349.7604    1032.5434    78.504428 
   64800    1688.6186   -106.25887    1.5278976   -104.73097    11688.154    4.2604932    4.2604932    4.2604932    11688.154   -3095.7078    100277.27   -62117.099   -9963.5727    -69143.03   -25514.011    77.335631 
   64900    2257.2135   -106.77897    2.0423742    -104.7366    14754.644    4.2615748    4.2615748    4.2615748    14754.644    45582.544   -1703.2101    384.59697    7561.9044    19840.765    24425.521    77.394545 
   65000    1329.5821   -105.98441    1.2030338   -104.78138   -16437.341    4.2715278    4.2715278    4.2715278   -16437.341    -33883.74    42606.223   -58034.506    30134.693    -79649.65    -6531.628     77.93808 
   65100    2832.6217   -107.32097    2.5630156   -104.75795    618.52061    4.2882781    4.2882781    4.2882781    618.52061    35249.425   -12934.721   -20459.142    -22456.02    13305.461   -12168.478    78.858559 
   65200    704.80365   -105.40426   0.63772115   -104.76654   -12415.732    4.2931256    4.2931256    4.2931256   -12415.732    7123.6026   -4737.3321   -39633.468    17493.798   -81141.969    27490.422    79.126285 
   65300    2772.9401   -107.20159    2.5090144   -104.69257    9096.8406    4.2900657    4.2900657    4.2900657    9096.8406   -17293.267    65396.161   -20812.372     9569.161    13413.416   -4819.3951    78.957219 
   65400    1172.9902   -105.78038    1.0613462   -104.71903   -48335.807    4.2907159    4.2907159    4.2907159   -48335.807   -40919.929   -40544.948   -63542.543    19269.792   -25395.987    58194.411    78.993124 
   65500    1946.3937   -106.48821    1.7611379   -104.72707    11272.748    4.2642518    4.2642518    4.2642518    11272.748   -27781.368    42662.626    18936.986    7966.4494   -39590.213   -18661.988    77.540489 
   65600     1959.135   -106.52474    1.7726665   -104.75207    41017.648    4.2522933    4.2522933    4.2522933    41017.648    45436.337    79983.714   -2367.1079   -6166.2649    16816.891   -35452.395    76.889959 
   65700    1733.4603    -106.3552    1.5684713   -104.78673   -3081.5788    4.2629669    4.2629669    4.2629669   -3081.5788   -20486.677    37593.203   -26351.262      2514.07   -51451.405    47321.841    77.470413 
   65800    1346.0768   -106.01482    1.2179586   -104.79686    3074.9493    4.2663202    4.2663202    4.2663202    3074.9493    18550.674    18554.049   -27879.874    20561.806    9509.8011   -71530.433    77.653373 
   65900    2070.4417   -106.66924    1.8733792   -104.79586    9044.3314    4.2747922    4.2747922    4.2747922    9044.3314   -27239.869    72047.158   -17674.294   -4846.6916   -16957.472   -12811.914    78.116904 
   66000    1841.7241   -106.45462    1.6664306   -104.78819   -9210.3695    4.2773939    4.2773939    4.2773939   -9210.3695   -9608.7049    21377.271   -39399.674   -7931.4222   -32080.689    -47629.79    78.259623 
   66100    1324.3558   -105.99097    1.1983049   -104.79266    12928.819    4.2622208    4.2622208    4.2622208    12928.819    38724.744   -32279.286    32340.998      19026.5      13251.6   -75795.076    77.429746 
   66200    2094.4572   -106.67361    1.8951089    -104.7785    30899.154    4.2643255    4.2643255    4.2643255    30899.154    1736.7574    18463.165    72497.538    -29802.19   -28350.193    26499.723    77.544507 
   66300    1257.5225   -105.92825    1.1378328   -104.79042   -8429.2994     4.286659     4.286659     4.286659   -8429.2994    33305.902    -51036.66   -7557.1399    15672.184    -12036.26   -63010.996     78.76927 
   66400    2017.9584   -106.58295    1.8258912   -104.75706   -22207.035    4.2948903    4.2948903    4.2948903   -22207.035   -55940.124    47.654023   -10728.637    22590.407    19047.632    3228.6349    79.223903 
   66500    2425.4908   -106.94258     2.194635   -104.74794   -5427.7463    4.2697515    4.2697515    4.2697515   -5427.7463    6330.9392   -16990.356   -5623.8221   -19172.116   -13952.006    15485.341    77.840891 
   66600    1301.8989   -105.94884    1.1779855   -104.77086   -15968.988    4.2469457    4.2469457    4.2469457   -15968.988   -3029.7824   -74589.016    29711.834    79819.069    5668.3807   -24928.066    76.600241 
   66700    2005.0403   -106.60744    1.8142026   -104.79324   -3214.4186    4.2530502    4.2530502    4.2530502   -3214.4186   -61370.817    50424.937    1302.6237   -2409.0661    53007.762    8517.4391    76.931024 
   66800    1871.8092   -106.49396    1.6936523   -104.80031    -19314.02    4.2713187    4.2713187    4.2713187    -19314.02    1977.4465   -61821.642    1902.1362    742.38604    1292.5369    -10114.24    77.926635 
   66900    1631.7034   -106.25826    1.4763996   -104.78186   -5376.2183    4.2821066    4.2821066    4.2821066   -5376.2183   -22074.075     -24946.7     30892.12    59431.026    23458.196   -21548.556    78.518577 
   67000    1792.9162   -106.37048    1.6222683   -104.74821   -13378.161    4.2923949    4.2923949    4.2923949   -13378.161   -69067.385    9420.6039    19512.297   -52751.744    23532.886   -33.429414    79.085889 
   67100    1885.1561   -106.44144    1.7057289   -104.73571    -36688.73    4.2876688    4.2876688    4.2876688    -36688.73   -21869.172   -75501.214   -12695.803    14804.852   -14049.858   -42880.174    78.824947 
   67200    2056.7841   -106.61092    1.8610215    -104.7499   -1562.2415    4.2549777    4.2549777    4.2549777   -1562.2415   -45565.467    34134.903    6743.8396    -3108.661    51516.357    8922.9672    77.035672 
   67300    1406.0756   -106.04216    1.2722468   -104.76991    30246.024    4.2405889    4.2405889    4.2405889    30246.024    35973.842   -15057.552    69821.782   -59457.926   -5640.6992   -8936.2059    76.256789 
   67400    2438.0018   -106.98808    2.2059553   -104.78212    2501.3541    4.2660862    4.2660862    4.2660862    2501.3541    11820.522    12067.312   -16383.772    32175.993    13698.611   -25906.564    77.640598 
   67500    1259.2151    -105.9214    1.1393643   -104.78204    -12643.46    4.2836673    4.2836673    4.2836673    -12643.46   -62400.369    34722.338   -10252.348   -27733.861    50304.115    31830.833    78.604459 
   67600    2142.5007   -106.67806    1.9385796   -104.73948    961.81372    4.2927567    4.2927567    4.2927567    961.81372    33403.382   -28261.371   -2256.5693    -10326.23   -30545.417    -16842.16    79.105892 
   67700    1100.1399   -105.73294   0.99542974   -104.73751   -25087.447    4.2918201    4.2918201    4.2918201   -25087.447   -850.77456    6581.2753   -80992.842    5592.7021    86140.918   -5669.4007    79.054123 
   67800    1998.8469   -106.53556    1.8085987   -104.72696    20787.497    4.2670691    4.2670691    4.2670691    20787.497    103074.06   -42224.701    1513.1316   -36123.068   -35645.842    22099.696    77.694275 
   67900    1663.0569   -106.25995    1.5047688   -104.75518   -10196.288    4.2570669    4.2570669    4.2570669   -10196.288   -37760.268    84555.844   -77384.439    -3021.959    97295.341   -8380.2212    77.149202 
   68000    2209.8074   -106.76604    1.9994802   -104.76656   -5299.5331    4.2615451    4.2615451    4.2615451   -5299.5331   -17468.378    28396.482   -26826.703   -15592.314    16915.789    4835.3091    77.392926 
   68100    1282.6992    -105.9546    1.1606132   -104.79399   -26329.723    4.2770629    4.2770629    4.2770629   -26329.723   -60063.198   -13543.837   -5382.1352   -31282.225    40360.555    27643.049    78.241456 
   68200    1604.6596   -106.24752    1.4519297   -104.79559   -15502.198    4.2854105    4.2854105    4.2854105   -15502.198   -86303.205    83054.225   -43257.614    2626.8336    64818.699   -5591.4025    78.700463 
   68300    2452.4125   -107.00298    2.2189944   -104.78398    503.66943    4.2632683    4.2632683    4.2632683    503.66943   -6578.0003   -11195.133    19284.141    7897.6433    -5902.495    13318.018    77.486847 
   68400    1242.6941    -105.9191    1.1244157   -104.79468    14057.065    4.2428125    4.2428125    4.2428125    14057.065    -9942.012    76662.513   -24549.306    -21131.22    103625.47    7630.0005    76.376809 
   68500    2368.2455   -106.94027    2.1428383   -104.79744    28693.508    4.2639609    4.2639609    4.2639609    28693.508    48977.524    13608.918     23494.08    15735.041   -25029.199    7001.4416    77.524622 
   68600    1258.4836   -105.93729    1.1387024   -104.79859   -14296.628    4.2907588    4.2907588    4.2907588   -14296.628   -6616.6175    17832.514   -54105.779    21563.669    80451.238    964.55511    78.995493 
   68700    2033.0554   -106.61307    1.8395513   -104.77352    -3289.515    4.2848961    4.2848961    4.2848961    -3289.515    29332.466   -18598.249   -20602.762   -13238.773    15784.426    16387.562    78.672126 
   68800    1659.7381   -106.28568    1.5017659   -104.78392   -12353.957    4.2592436    4.2592436    4.2592436   -12353.957   -41477.064    14814.904    -10399.71    14887.447    34175.455    2944.2553    77.267605 
   68900    1250.8819   -105.92403    1.1318243    -104.7922    13092.325    4.2445342    4.2445342    4.2445342    13092.325   -28039.252    79898.267   -12582.039    17694.935    80274.707    912.25778    76.469828 
   69000     2572.709   -107.11908    2.3278412   -104.79124    14196.699    4.2658479    4.2658479    4.2658479    14196.699   -6122.2655    24705.864    24006.499   -10838.939   -20232.436    23332.104    77.627589 
   69100    1086.4766   -105.77862   0.98306689   -104.79555   -13977.873    4.2902092    4.2902092    4.2902092   -13977.873   -69288.513    47031.266   -19676.371     20479.79    92565.055   -13782.744    78.965139 
   69200     2486.366    -106.9923    2.2497162   -104.74258   -20844.381    4.2886517    4.2886517    4.2886517   -20844.381   -18696.751   -38563.468   -5272.9233   -13999.004   -37803.003    6150.0575    78.879169 
   69300    1131.9964   -105.77613    1.0242541   -104.75187   -42514.218     4.270361     4.270361     4.270361   -42514.218   -68721.323      53412.6   -112233.93    3268.9468    76412.446    16075.179    77.874233 
   69400    2034.0462   -106.59663    1.8404477   -104.75618    4411.3635    4.2510454    4.2510454    4.2510454    4411.3635    23259.012    1979.7509   -12004.673     20564.75    11979.179   -12209.797    76.822289 
   69500    1767.8902   -106.38639    1.5996242   -104.78676    10585.389    4.2614243    4.2614243    4.2614243    10585.389    4993.8252    59008.898   -32246.555   -5786.5532    28446.862   -21338.374    77.386346 
   69600    1948.4208   -106.54841    1.7629721   -104.78543   -13152.886     4.274779     4.274779     4.274779   -13152.886   -60789.329    97811.491   -76480.819   -7434.1184    44529.511    17448.878    78.116182 
   69700    1335.7322   -105.99071    1.2085985   -104.78212    8296.2653    4.2816689    4.2816689    4.2816689    8296.2653    -15966.79    61935.189   -21079.603    20122.558   -21871.944   -45627.217    78.494505 
   69800    1751.4629   -106.35499    1.5847605   -104.77023   -13996.103    4.2880652    4.2880652    4.2880652   -13996.103   -61901.146    92247.262   -72334.425   -9560.1866    56447.985   -19112.737    78.846812 
   69900    2085.6801   -106.64522    1.8871672   -104.75805    26203.051    4.2661436    4.2661436    4.2661436    26203.051   -3754.3636    101594.58   -19231.065    1985.0131   -42333.736   -3236.1769    77.643734 
   70000    1123.7605   -105.80307    1.0168021   -104.78627    8466.4159    4.2535219    4.2535219    4.2535219    8466.4159    6568.6305    3964.7322    14865.885    36589.387    42935.568   -36553.565    76.956625 
   70100    2212.8117   -106.79464    2.0021986   -104.79244   -11706.656    4.2668803    4.2668803    4.2668803   -11706.656   -24392.976    31058.693   -41785.685   -26551.344     19879.15     -13153.6    77.683965 
   70200    1908.4549   -106.52987    1.7268101   -104.80306    15600.493    4.2755592    4.2755592    4.2755592    15600.493     35022.41   -11901.162    23680.233    9025.4362   -26124.632   -8007.3569    78.158958 
   70300    1225.9196   -105.91565    1.1092378   -104.80642   -23189.586    4.2905098    4.2905098    4.2905098   -23189.586   -12852.784   -59716.077    3000.1034    45486.239    44813.359   -39373.322    78.981742 
   70400    2691.5931   -107.20393      2.43541   -104.76852    8223.3224    4.2749074    4.2749074    4.2749074    8223.3224    14893.007     2499.059    7277.9008   -37148.414   -18846.254    12287.821     78.12322 
   70500    1255.5121   -105.92296    1.1360137   -104.78695    7958.1073    4.2546724    4.2546724    4.2546724    7958.1073    15931.158   -46853.496     54796.66    73603.595   -4645.7267    -25514.88    77.019089 
   70600    1281.3076   -105.97651     1.159354   -104.81715   -6301.3701    4.2556211    4.2556211    4.2556211   -6301.3701    55120.879    -25768.27   -48256.719    667.08972    32097.825   -26220.651     77.07062 
   70700    2115.0502   -106.72994    1.9137419    -104.8162     10010.66    4.2589739    4.2589739    4.2589739     10010.66    17693.798    6838.1652    5500.0179    14371.063   -26585.213     35173.78    77.252923 
   70800    1590.7686   -106.26591    1.4393609   -104.82655    5225.0144    4.2736892    4.2736892    4.2736892    5225.0144    19625.902    -18405.77    14454.911    61399.753   -3279.4754   -32895.832    78.056449 
   70900    2020.4427   -106.63247     1.828139   -104.80433   -43445.224     4.285722     4.285722     4.285722   -43445.224    14754.148   -58621.576   -86468.244   -26357.508    25486.596   -7242.5491    78.717629 
   71000    957.05127   -105.68699    0.8659601   -104.82103   -22758.408     4.259615     4.259615     4.259615   -22758.408   -31280.405   -24898.993   -12095.826    68482.463   -34495.095    27405.153    77.287818 
   71100    2245.8802   -106.84476    2.0321196   -104.81264    33441.339    4.2351933    4.2351933    4.2351933    33441.339    407.91658    41736.275    58179.826    16008.689   -13162.876   -18741.412    75.966078 
   71200    2228.3288   -106.84064    2.0162387    -104.8244     13247.02    4.2555033    4.2555033    4.2555033     13247.02    34439.236   -7409.1162    12710.939    13261.729    2238.9038    34733.726    77.064223 
   71300    707.25078   -105.49015   0.63993537   -104.85021   -3732.7572    4.2836801    4.2836801    4.2836801   -3732.7572   -30237.349   -7759.5787    26798.656    74168.721   -4492.6499    19099.863    78.605167 
   71400    2873.2905   -107.36674    2.5998136   -104.76692   -21666.609     4.301469     4.301469     4.301469   -21666.609    3724.7798   -53041.864   -15682.744   -20686.393     7675.561   -14758.273    79.588512 
   71500    1166.2533   -105.82737    1.0552505   -104.77212   -27631.438    4.2834829    4.2834829    4.2834829   -27631.438   -65529.029   -84343.968    66978.685    83589.532   -24553.496    37426.538     78.59431 
   71600    2411.8401   -106.89409    2.1822836   -104.71181    24163.069    4.2625043    4.2625043    4.2625043    24163.069    47184.766    15498.572    9805.8684   -28361.906   -18029.573   -15067.056    77.445199 
   71700    1268.8945   -105.88948    1.1481224   -104.74136   -44166.436     4.276655     4.276655     4.276655   -44166.436     -51361.7   -112803.59    31665.983    82949.519    8146.1752   -36693.452    78.219068 
   71800    2085.5538   -106.63535    1.8870529   -104.74829   -14909.823    4.2775714    4.2775714    4.2775714   -14909.823   -6638.0489   -41473.356    3381.9372    -12745.58   -16346.521    39865.285    78.269362 
   71900    1679.1877   -106.27995    1.5193643   -104.76058   -45204.424    4.2806823    4.2806823    4.2806823   -45204.424   -50629.449   -82220.299   -2763.5243    58194.195   -213.99183   -4572.7164    78.440253 
   72000    1905.5484   -106.49503    1.7241803   -104.77085   -41402.091    4.2812132    4.2812132    4.2812132   -41402.091   -8113.7989   -94198.136   -21894.339    35508.349    14015.334   -44910.708    78.469444 
   72100    2248.4459   -106.78747    2.0344411   -104.75303   -9353.9446    4.2762085    4.2762085    4.2762085   -9353.9446   -12965.057    14703.067   -29799.844    5186.7028   -25499.451    24336.689    78.194572 
   72200    1072.9305   -105.73611   0.97081003    -104.7653   -24589.157    4.2750253    4.2750253    4.2750253   -24589.157   -25564.445    -79512.58    31309.555    45226.158    5656.8241   -24043.313    78.129684 
   72300     2014.213   -106.59009    1.8225022   -104.76758    5695.1108     4.266256     4.266256     4.266256    5695.1108    59826.943     -22148.3   -20593.311   -19340.073   -99.055551   -45324.553    77.649871 
   72400    2229.4272    -106.7997    2.0172325   -104.78246    25872.491    4.2631236    4.2631236    4.2631236    25872.491   -9062.8579    68763.297    17917.033    45083.586   -15835.113    18632.657    77.478957 
   72500    1155.8489   -105.86796    1.0458364   -104.82213   -13796.937    4.2682085    4.2682085    4.2682085   -13796.937    5705.3159   -23184.615   -23911.511    38262.351   -5713.7901   -60713.341     77.75653 
   72600    2130.7647   -106.73969    1.9279606   -104.81173    26865.118    4.2662548    4.2662548    4.2662548    26865.118    52952.867    32112.053   -4469.5679   -31295.294    13523.125   -3127.6747    77.649806 
   72700    1792.3636   -106.43045    1.6217682   -104.80868    11840.573    4.2663761    4.2663761    4.2663761    11840.573    15460.759   -20173.981    40234.941    43738.514   -3499.5812   -689.18087    77.656426 
   72800    1362.8602   -106.04797    1.2331445   -104.81483   -8666.0219    4.2683817    4.2683817    4.2683817   -8666.0219    46936.843   -42637.556   -30297.353    29451.767   -7511.4962    -67538.49    77.765999 
   72900    2613.8285    -107.1533    2.3650469   -104.78825    16354.418    4.2674314    4.2674314    4.2674314    16354.418   -528.21109     88942.78   -39351.314   -8321.8286    17848.686    20965.942     77.71407 
   73000    1755.7772   -106.38641    1.5886641   -104.79775      1541.29    4.2669345    4.2669345    4.2669345      1541.29    49200.051   -10846.043   -33730.138    21679.576    419.48662   -73337.088    77.686925 
   73100    1662.7414   -106.29638    1.5044834   -104.79189   -18092.146    4.2691937    4.2691937    4.2691937   -18092.146    5764.9049    11558.058   -71599.401    13308.239    2368.1891    11177.026    77.810386 
   73200    1308.4635   -106.00015    1.1839252   -104.81623   -6006.6868    4.2661299    4.2661299    4.2661299   -6006.6868    34148.471    54738.725   -106907.26    2084.8802    21949.973    13422.711    77.642986 
   73300    2916.2992   -107.44094    2.6387288   -104.80221    35008.749    4.2553319    4.2553319    4.2553319    35008.749    90152.502    23535.435   -8661.6889    710.58823   -3135.5757   -16659.005    77.054912 
   73400    1371.4889   -106.07982     1.240952   -104.83887    9708.7853     4.256176     4.256176     4.256176    9708.7853    36729.257     69736.29   -77339.191    935.02471    1315.4342    38434.533    77.100776 
   73500    1505.9581   -106.18777    1.3626226   -104.82514   -23294.061    4.2699121    4.2699121    4.2699121   -23294.061   -31125.868    37938.992   -76695.306   -6558.2917    8819.8348     4020.908    77.849676 
   73600    2245.8889   -106.83514    2.0321275   -104.80301    2609.7072     4.260751     4.260751     4.260751    2609.7072    31248.389   -33998.243    10578.976     -41298.6    -5598.365   -33002.087    77.349668 
   73700    1899.2719   -106.52115    1.7185011   -104.80265    -12035.53     4.261496     4.261496     4.261496    -12035.53   -20591.561    21537.785   -37052.814    18382.759    23097.379    24382.112    77.390253 
   73800    1290.5058   -105.97546    1.1676768   -104.80778   -32809.539    4.2744662    4.2744662    4.2744662   -32809.539   -6144.6218   -5592.7355    -86691.26   -4765.1558   -4905.1243   -45163.268    78.099035 
   73900    2340.0604   -106.91785    2.1173359   -104.80052   -3053.1893    4.2668281    4.2668281    4.2668281   -3053.1893     40657.94   -18337.713   -31479.795   -12361.081   -5149.2323   -44397.528    77.681116 
   74000    2659.2225   -107.21124    2.4061204   -104.80512   -7609.2352      4.25909      4.25909      4.25909   -7609.2352   -6246.5324     31410.38   -47991.554    1935.4539     5673.168    11285.349    77.259243 
   74100    1144.3032   -105.87715    1.0353896   -104.84176   -26956.359    4.2557767    4.2557767    4.2557767   -26956.359    37717.522   -30462.008   -88124.591   -3135.3661   -15073.629   -105884.27    77.079074 
   74200    1583.9269    -106.2685    1.4331703   -104.83533    4088.3344    4.2533433    4.2533433    4.2533433    4088.3344    73315.388   -35054.422   -25995.962    -4663.505   -7538.0559    75626.187    76.946934 
   74300    2336.5347   -106.93313    2.1141457   -104.81898   -13424.613    4.2761652    4.2761652    4.2761652   -13424.613    15093.099   -21647.869   -33719.069    -24200.09   -678.50977    -11092.44    78.192199 
   74400    1711.5571   -106.35399    1.5486528   -104.80534   -24347.028    4.2828346    4.2828346    4.2828346   -24347.028    79538.667    -56233.81   -96345.941    6428.3077   -8909.5119    4750.3656    78.558633 
   74500    1065.4214   -105.75714   0.96401566   -104.79312    6958.5632     4.267605     4.267605     4.267605    6958.5632    77839.216   -987.52818   -55975.998    -8934.199    4346.0188    48865.327    77.723553 
   74600    2381.6834   -106.91621    2.1549972   -104.76121    11893.489     4.271074     4.271074     4.271074    11893.489    4192.9447    45398.232   -13910.711   -18766.584    15408.351   -9731.1832    77.913246 
   74700    1713.2797   -106.34524    1.5502114   -104.79503   -16547.909    4.2602954    4.2602954    4.2602954   -16547.909    50407.983   -51792.387   -48259.322    36417.703   -10518.989    85217.554    77.324859 
   74800    1506.6415   -106.17681    1.3632409   -104.81357    17460.411    4.2412115    4.2412115    4.2412115    17460.411    10574.911    38695.805    3110.5161   -743.63451   -4915.2938   -8993.2735    76.290381 
   74900    2077.4077   -106.70223    1.8796822   -104.82255   -2847.1314    4.2577858    4.2577858    4.2577858   -2847.1314    61931.616   -29547.916   -40925.095   -19419.888    9023.9486   -47445.966    77.188291 
   75000    1890.3528   -106.52827     1.710431   -104.81784   -8877.5659    4.2674706    4.2674706    4.2674706   -8877.5659    19758.153   -41242.642   -5148.2088    52383.676   -4961.5749    26205.649    77.716207 
   75100    1242.4653   -105.95079    1.1242087   -104.82658   -5293.7854    4.2659811    4.2659811    4.2659811   -5293.7854    20982.324    18042.694   -54906.374     14427.92   -1193.5556   -36360.007    77.634861 
   75200    1842.0907   -106.48503    1.6667624   -104.81827   -43299.633    4.2740612    4.2740612    4.2740612   -43299.633    8798.3444   -47675.764   -91021.479   -4082.7339   -1136.2256   -58110.502    78.076834 
   75300    2084.1795   -106.68538    1.8858094   -104.79957   -8632.3262    4.2617281    4.2617281    4.2617281   -8632.3262   -17006.859    -35379.52      26489.4    78892.947    1285.8566    17964.076    77.402897 
   75400    1885.3441   -106.50096    1.7058989   -104.79506    4352.3761     4.248006     4.248006     4.248006    4352.3761    33220.375   -5015.4807   -15147.766   -3713.5776    -6917.069    -65377.03    76.657627 
   75500     1424.243   -106.10496     1.288685   -104.81627   -7814.8051    4.2562308    4.2562308    4.2562308   -7814.8051   -4740.6359    5139.7542   -23843.534    17377.669   -8143.5963    7246.9622    77.103753 
   75600    1669.4326    -106.3384    1.5105377   -104.82786   -9823.1963    4.2657313    4.2657313    4.2657313   -9823.1963   -13192.112    -14145.32   -2132.1576     42723.63    2944.3634    45092.836    77.621225 
   75700    2486.0146   -107.05806    2.2493983   -104.80866    6702.5774    4.2784766    4.2784766    4.2784766    6702.5774   -9124.7317    73867.954    -44635.49   -24546.645   -17687.735   -31025.794    78.319064 
   75800    1171.3833   -105.87292    1.0598922   -104.81303   -32608.485    4.2850272    4.2850272    4.2850272   -32608.485   -25819.246   -21586.581   -50419.628    44204.333   -7110.4965    42672.452    78.679347 
   75900    1589.7414   -106.25223    1.4384314    -104.8138   -852.26134     4.259673     4.259673     4.259673   -852.26134    25028.399    406.39938   -27991.582    12369.037    4482.5324    43238.759    77.290973 
   76000    2330.0372   -106.89266    2.1082666    -104.7844    57667.476    4.2391178    4.2391178    4.2391178    57667.476    30339.165     94931.82    47731.444   -15356.237   -42383.905   -21511.812    76.177456 
   76100    1197.7612   -105.91054    1.0837595   -104.82678   -4680.9265    4.2604807    4.2604807    4.2604807   -4680.9265    13813.602     -28252.7    396.31905    49489.892    17986.928    63529.016    77.334948 
   76200     2325.385   -106.90458    2.1040572   -104.80052   -14187.029    4.2895602    4.2895602    4.2895602   -14187.029   -9516.0929   -33351.863    306.86782   -5568.9079    -8905.466      12827.7    78.929307 
   76300    2090.4414   -106.67687    1.8914753    -104.7854   -31827.546    4.2935634    4.2935634    4.2935634   -31827.546   -28368.532   -49589.539   -17524.566    12799.146   -35563.269    7696.3716    79.150498 
   76400    729.23836   -105.46713   0.65983019    -104.8073   -24123.873    4.2627074    4.2627074    4.2627074   -24123.873   -6603.0807   -54471.958   -11296.581    25889.159     31172.15    57601.136    77.456267 
   76500    2556.9775    -107.1011     2.313607   -104.78749     31874.61    4.2301825    4.2301825    4.2301825     31874.61    26904.569    51758.501     16960.76   -4819.9176    32049.901   -13165.869    75.696761 
   76600    2225.9509   -106.82918    2.0140871   -104.81509    37587.054    4.2411177    4.2411177    4.2411177    37587.054    77623.124    15546.248    19591.791    11114.517    -17527.25   -3753.3368    76.285321 
   76700    1118.9827   -105.85288    1.0124791    -104.8404   -19699.467    4.2767067    4.2767067    4.2767067   -19699.467   -34529.991    9960.2369   -34528.648    23062.258    53415.693    41439.985    78.221905 
   76800    2048.8242   -106.65569    1.8538192   -104.80187   -9228.8485    4.2870508    4.2870508    4.2870508   -9228.8485    13003.393   -9077.3332   -31612.605   -14373.073   -627.78919   -34448.037     78.79087 
   76900    2167.7739   -106.76809    1.9614474   -104.80664   -595.56047    4.2590527    4.2590527    4.2590527   -595.56047    35391.837   -6256.0014   -30922.517   -439.85808    9447.9943   -1199.0919    77.257215 
   77000    825.25003   -105.56985   0.74670357   -104.82315    14268.153    4.2298742    4.2298742    4.2298742    14268.153    19100.168    44176.986   -20472.695    27322.691    63227.503    45686.358    75.680213 
   77100    2465.3742   -107.05522    2.2307224    -104.8245    24336.372    4.2423704    4.2423704    4.2423704    24336.372    3739.2195    18494.659    50775.238   -8276.6591   -20847.304   -26157.415     76.35294 
   77200    1823.1036     -106.483    1.6495825   -104.83342     2134.389     4.269428     4.269428     4.269428     2134.389    8561.2158   -10068.199    7910.1496   -41973.946    13546.977    15252.516    77.823198 
   77300    1419.0194   -106.11267    1.2839586   -104.82871    -18227.79    4.2789946    4.2789946    4.2789946    -18227.79   -36132.029    -22073.17    3521.8281    48731.207    31949.379    25360.709    78.347511 
   77400    1927.3495   -106.56596    1.7439063   -104.82205   -5355.8843    4.2629747    4.2629747    4.2629747   -5355.8843   -37318.423   -45980.721    67231.491   -15823.369   -9077.5325   -10367.663     77.47084 
   77500    2258.0059   -106.86024    2.0430912   -104.81715    18808.515    4.2331668    4.2331668    4.2331668    18808.515    18776.928    13681.137     23967.48   -48043.203   -11075.667    7912.4789    75.857082 
   77600    1049.1832   -105.79425   0.94932301   -104.84493    13958.709    4.2314129    4.2314129    4.2314129    13958.709   -10718.812   -6109.6573    58704.597    76495.326    24063.162    24765.012    75.762833 
   77700      2179.38   -106.82489    1.9719488   -104.85294   -3086.5394    4.2592495    4.2592495    4.2592495   -3086.5394   -43240.392   -10229.436    44210.209    27347.194    5777.0059     7516.775    77.267927 
   77800    2487.1146   -107.08659    2.2503936    -104.8362    21982.207    4.2697642    4.2697642    4.2697642    21982.207    4210.9597     47458.39    14277.271   -6900.4399   -20911.042   -730.11234    77.841585 
   77900    733.47611   -105.50637    0.6636646   -104.84271   -6397.4128    4.2740763    4.2740763    4.2740763   -6397.4128   -38900.217   -33719.081    53427.059    74596.921    6684.1933    21852.728    78.077664 
   78000    2519.3151   -107.06541    2.2795293   -104.78588   -16576.268    4.2743377    4.2743377    4.2743377   -16576.268   -23372.131   -21502.554   -4854.1196   -55812.512    16480.697    4085.3665    78.091992 
   78100    1433.9215   -106.08291    1.2974424   -104.78547    3371.6636    4.2543842    4.2543842    4.2543842    3371.6636    -29801.66   -42106.924    82023.575        81204   -8266.5693   -8315.2094    77.003436 
   78200    2250.5018   -106.81396    2.0363013   -104.77766    17446.649    4.2533367    4.2533367    4.2533367    17446.649    53211.911   -20044.977    19173.013     19.80561   -20471.144    35238.912    76.946574 
   78300    1865.0416   -106.48008    1.6875288   -104.79255   -11915.899    4.2659957    4.2659957    4.2659957   -11915.899   -24496.695    -85536.77    74285.769    15165.768    20992.835    -3805.225    77.635659 
   78400    1247.9022   -105.92598    1.1291281   -104.79685    4757.6924    4.2653448    4.2653448    4.2653448    4757.6924   -4123.3247   -40646.564    59042.966    44308.167   -22826.987    5673.8847    77.600129 
   78500     2375.202   -106.93364    2.1491327   -104.78451    3816.9348    4.2625761    4.2625761    4.2625761    3816.9348    44127.444   -2000.4636   -30676.176   -9365.2603   -6700.9315    27066.376    77.449112 
   78600    1171.2438   -105.87564     1.059766   -104.81588   -20358.506    4.2549334    4.2549334    4.2549334   -20358.506   -36644.604   -72440.073    48009.157    56936.956    21354.906     3550.964    77.033264 
   78700    2069.8114   -106.68477    1.8728088   -104.81196    14291.286    4.2538842    4.2538842    4.2538842    14291.286    43946.313   -32604.512    31532.055   -59610.741   -5740.4909   -6336.3855    76.976295 
   78800    2408.3452   -106.97434    2.1791213   -104.79521   -14442.732    4.2724628    4.2724628    4.2724628   -14442.732    -16486.21   -60315.302    33473.317    68434.285    12510.047    9869.8547    77.989274 
   78900     884.7847   -105.59225   0.80057179   -104.79168   -20077.714    4.2725204    4.2725204    4.2725204   -20077.714   -62312.017   -94783.091    96861.967   -12501.342    15735.023   -5250.6163    77.992429 
   79000    2211.1625   -106.76877    2.0007063   -104.76806    26134.978    4.2633513    4.2633513    4.2633513    26134.978    65563.877   -9648.7502    22489.807   -32095.498    6434.0948   -18714.618    77.491375 
   79100    2075.0606   -106.66296    1.8775585    -104.7854   -6445.5904    4.2557689    4.2557689    4.2557689   -6445.5904    1013.3406   -50825.181    30475.069    27826.531   -22871.019   -4825.3228    77.078654 
   79200    1367.1501   -106.04377    1.2370261   -104.80674    3424.6466    4.2437074    4.2437074    4.2437074    3424.6466    15480.324   -69677.269    64470.885   -61589.454    20600.328    4482.6209    76.425149 
   79300    1997.8618   -106.62906    1.8077074   -104.82135   -14474.236    4.2534879    4.2534879    4.2534879   -14474.236     42699.62   -20602.654   -65519.674    14329.104   -34422.142   -46774.481    76.954781 
   79400    1759.2092   -106.42005    1.5917694   -104.82828   -24607.865        4.259        4.259        4.259   -24607.865   -24655.215    -54577.14    5408.7593   -49303.647   -22422.879   -8357.6987    77.254343 
   79500    2008.1537   -106.63228    1.8170196   -104.81526    8867.6069    4.2535867    4.2535867    4.2535867    8867.6069    230.88249   -39702.423    66074.362   -209.64313    19618.447    -3051.459    76.960145 
   79600    1054.2741   -105.78512   0.95392938   -104.83119   -30324.652    4.2663377    4.2663377    4.2663377   -30324.652    7372.5631   -35989.102   -62357.418    24052.345   -41078.346   -54066.204    77.654332 
   79700    2797.5792   -107.32454    2.5313084   -104.79323   -1037.5488    4.2705102    4.2705102    4.2705102   -1037.5488    -9549.082    -13248.53    19684.966   -11090.893   -1527.8694     5277.584    77.882393 
   79800    1409.4264   -106.08581    1.2752786   -104.81053    5023.6926    4.2624023    4.2624023    4.2624023    5023.6926    33311.921   -15095.478   -3145.3662    35199.975    6487.2214   -29902.974    77.439636 
   79900    1333.6859   -106.01553    1.2067471   -104.80879   -17931.661    4.2622058    4.2622058    4.2622058   -17931.661   -3157.1369   -12007.567   -38630.278    10703.949   -55565.488   -48306.867    77.428926 
   80000    2546.4285   -107.09568     2.304062   -104.79161    22791.859    4.2575627    4.2575627    4.2575627    22791.859    2697.7261     19638.44    46039.412   -29393.767    31379.593     17584.79     77.17616 
   80100     1616.628   -106.28497     1.462759   -104.82221   -26625.289    4.2545499    4.2545499    4.2545499   -26625.289   -24958.471   -16925.641   -37991.754    35755.197   -5313.8474   -46396.744    77.012436 
   80200      1248.31    -105.9661    1.1294971    -104.8366   -15580.945    4.2509847    4.2509847    4.2509847   -15580.945    -15645.41   -20402.183   -10695.242   -3821.6161   -35675.029   -36502.162    76.818995 
   80300    2717.8818   -107.27561    2.4591966   -104.81642    9448.9529    4.2562576    4.2562576    4.2562576    9448.9529    816.49621   -11365.265    38895.627   -54556.572    11936.089    15769.271     77.10521 
   80400    1478.2729   -106.17243    1.3375724   -104.83486   -18030.061    4.2648839    4.2648839    4.2648839   -18030.061    780.55026   -26619.273   -28251.459    52556.976   -23653.418   -33838.302    77.574974 
   80500    1377.8757   -106.07605    1.2467309   -104.82932   -1092.5046    4.2594641    4.2594641    4.2594641   -1092.5046    3843.4422   -438.87202    -6682.084    556.01231   -53742.367    -17283.82    77.279602 
   80600    2591.5294   -107.13485    2.3448703   -104.78998    -6308.916    4.2640718    4.2640718    4.2640718    -6308.916   -4374.3004     20368.43   -34920.877   -10887.446    42570.298     9472.563    77.530669 
   80700    1162.0293   -105.84649    1.0514285   -104.79506   -49335.278    4.2738296    4.2738296    4.2738296   -49335.278   -16958.673   -59177.126   -71870.034    30375.836   -28454.187   -50905.778    78.064145 
   80800    2192.5088   -106.74945     1.983828   -104.76563   -19888.096    4.2730235    4.2730235    4.2730235   -19888.096   -45221.505    28290.402   -42733.185    2128.9663    16501.399    14641.144     78.01998 
   80900    1586.1913   -106.19569    1.4352192   -104.76047   -31339.105    4.2738789    4.2738789    4.2738789   -31339.105    14289.464   -17374.993   -90931.785   -2407.6476      62718.8   -33322.091    78.066848 
   81000    1842.2936   -106.42124     1.666946    -104.7543   -210.96127    4.2603698    4.2603698    4.2603698   -210.96127    59128.126   -39378.525   -20382.485    22497.592   -24864.345   -26587.754    77.328912 
   81100     1532.033     -106.162    1.3862157   -104.77578   -16047.552     4.249744     4.249744     4.249744   -16047.552   -53347.423    73418.603   -68213.834    4685.4275    97015.712    17551.104    76.751756 
   81200    2329.8464   -106.88572     2.108094   -104.77762    18820.216    4.2519788    4.2519788    4.2519788    18820.216    75842.194    254.47194   -19636.018   -845.50557   -9114.1925   -37569.629    76.872899 
   81300    1079.7912    -105.7829   0.97701777   -104.80588    423.70092    4.2625912    4.2625912    4.2625912    423.70092    -14744.67    1892.5539    14123.219    32203.189    66001.597   -2323.0846    77.449935 
   81400    2105.5298   -106.69677    1.9051276   -104.79165   -4458.2473     4.278665     4.278665     4.278665   -4458.2473    5149.9703    5844.6509   -24369.363   -6866.2624     32015.06    14400.734     78.32941 
   81500    1992.1212   -106.57367    1.8025131   -104.77116   -22124.081     4.281993     4.281993     4.281993   -22124.081   -63628.674    28933.552    -31677.12    6993.3386    22478.738   -10547.663    78.512328 
   81600    1057.7363   -105.73353   0.95706204   -104.77647   -30755.773    4.2599845    4.2599845    4.2599845   -30755.773   -92450.766    36072.859   -35889.412    26564.472    87172.439    6902.4235    77.307931 
   81700    2792.2095   -107.27619    2.5264499   -104.74974    28873.593    4.2409776    4.2409776    4.2409776    28873.593    54403.849    34603.239   -2386.3077   -13898.313   -27065.636    44905.041    76.277759 
   81800    1352.2939   -106.01979    1.2235839    -104.7962   -26530.807     4.250554     4.250554     4.250554   -26530.807   -98503.749    90294.539   -71383.211    11585.498    115943.34   -9831.4521    76.795649 
   81900    2137.9893   -106.72318    1.9344976   -104.78868     21.86465    4.2607166    4.2607166    4.2607166     21.86465    2563.2242   -1483.2835   -1014.3468    24169.125   -2109.3333    22825.638    77.347796 
   82000    1451.3945   -106.11557    1.3132522   -104.80232   -3074.7343    4.2660191    4.2660191    4.2660191   -3074.7343   -6792.3408     18876.27   -21308.132   -17110.675    51983.976    31900.979    77.636934 
   82100    1367.7114    -106.0378     1.237534   -104.80026   -20961.777    4.2691453    4.2691453    4.2691453   -20961.777   -975.48947    2939.9278   -64849.768    19939.329    30573.111   -22922.718    77.807742 
   82200    2447.8836   -106.99072    2.2148965   -104.77583    8143.0398    4.2566837    4.2566837    4.2566837    8143.0398    15891.419    10607.272   -2069.5722     2583.667    7163.1553   -9275.8806    77.128365 
   82300    1671.6842   -106.30047     1.512575   -104.78789    7883.6562    4.2428231    4.2428231    4.2428231    7883.6562   -56009.878    81541.662   -1880.8162   -3142.1783     90982.71    8523.9285    76.377382 
   82400    1888.3844   -106.50045    1.7086498    -104.7918    2284.7449    4.2476298    4.2476298    4.2476298    2284.7449    37577.136   -16662.978   -14059.923   -465.45889   -57993.271   -11051.934    76.637262 
   82500     1314.479   -106.00729    1.1893682   -104.81792   -23799.705     4.262245     4.262245     4.262245   -23799.705   -37599.611    23902.096   -57701.602    4402.8695    74848.837   -24810.369    77.431062 
   82600     2458.553   -107.02468    2.2245504   -104.80013   -10627.963    4.2625838    4.2625838    4.2625838   -10627.963   -56424.449    62070.286   -37529.727   -1014.2137    1410.7215    15341.951    77.449532 
   82700    1590.6981   -106.25439    1.4392971   -104.81509   -3147.5584    4.2480519    4.2480519    4.2480519   -3147.5584     6922.227    31719.485   -48084.387   -1864.5677   -36584.928   -17948.279    76.660111 
   82800     1781.942   -106.42676    1.6123385   -104.81442    15321.299    4.2464347    4.2464347    4.2464347    15321.299   -1377.3523    55619.149   -8277.8998    8926.1494    46871.864   -10421.154    76.572591 
   82900    1718.3852   -106.36559     1.554831   -104.81076    -8280.343    4.2582665    4.2582665    4.2582665    -8280.343   -63878.517    52241.018    -13203.53   -16153.905   -51076.056   -4068.3179    77.214436 
   83000    1304.4332   -105.99878    1.1802786    -104.8185   -17239.414    4.2616023    4.2616023    4.2616023   -17239.414   -4566.7609    15899.917   -63051.397    4473.8628   -2504.2418   -32976.168    77.396042 
   83100    2879.4468   -107.38721     2.605384   -104.78182   -3410.8535    4.2701809    4.2701809    4.2701809   -3410.8535   -18973.923    25487.737   -16746.375    9068.3558   -7256.7568    17201.686    77.864381 
   83200    989.11326   -105.68897   0.89497046     -104.794   -26073.756    4.2771067    4.2771067    4.2771067   -26073.756   -40664.656    22220.733   -59777.344     -15905.1    -80257.14   -28431.755    78.243858 
   83300    2187.3934    -106.7407    1.9791995   -104.76151    6225.8384    4.2670138    4.2670138    4.2670138    6225.8384    43049.934   -20679.673   -3692.7454    21240.259    25495.094   -6846.2099    77.691258 
   83400    1462.1032   -106.09493    1.3229417   -104.77199    -12313.97    4.2643045    4.2643045    4.2643045    -12313.97   -46635.738    31493.765   -21799.938    19617.761   -84416.785     7258.741    77.543364 
   83500    1659.5047   -106.27586    1.5015547   -104.77431    2186.9592     4.264572     4.264572     4.264572    2186.9592    70484.587   -18897.069   -45026.641   -27140.037   -5579.9336    -54130.72    77.557956 
   83600    2140.1904   -106.70805    1.9364892   -104.77156    10634.224    4.2639567    4.2639567    4.2639567    10634.224    4424.9506    20110.519    7367.2031    7643.3561   -14220.688    8691.9999     77.52439 
   83700    1463.6947   -106.11354    1.3243817   -104.78916   -4408.4895    4.2663679    4.2663679    4.2663679   -4408.4895    18701.938   -1023.2583   -30904.148    10664.365   -45530.228   -36138.428    77.655982 
   83800    2084.3282    -106.6601     1.885944   -104.77416    8632.5211    4.2649669    4.2649669    4.2649669    8632.5211    92567.895   -31088.216   -35582.115   -22571.711    24302.282   -34859.971    77.579501 
   83900    1936.6406    -106.5259    1.7523131   -104.77359   -1769.9519     4.265786     4.265786     4.265786   -1769.9519    3697.6702     10640.15   -19647.676    6356.4487   -38202.076    15776.866    77.624209 
   84000    1178.8325   -105.86102    1.0666324   -104.79439   -43865.596    4.2720964    4.2720964    4.2720964   -43865.596    23146.223   -59796.517   -94946.494    5705.1107   -18612.252   -98580.119    77.969211 
   84100    2908.6518   -107.39641    2.6318092    -104.7646    17712.459    4.2598466    4.2598466    4.2598466    17712.459    24223.355    20275.424     8638.599   -10611.377    16254.192    15169.918    77.300425 
   84200    1018.9491   -105.72395   0.92196657   -104.80198    2123.3232    4.2663523    4.2663523    4.2663523    2123.3232    80327.105    280.27829   -74237.413   -168.38242   -47075.979   -58494.713    77.655129 
   84300    1951.9314   -106.53066    1.7661485   -104.76451   -27687.823    4.2839446    4.2839446    4.2839446   -27687.823   -17576.583     -18922.2   -46564.686    17508.327    17349.006    -9448.142    78.619731 
   84400    1845.2138   -106.45049    1.6695882    -104.7809   -3033.4038    4.2558366    4.2558366    4.2558366   -3033.4038   -12765.066     20735.13   -17070.275   -18773.535    35884.686   -19526.629    77.082331 
   84500    1767.0394   -106.38046    1.5988544   -104.78161    34053.177    4.2324998    4.2324998    4.2324998    34053.177    73194.304    36120.524   -7155.2955    -6890.833   -31715.741   -65720.465    75.821232 
   84600     2353.195   -106.91691    2.1292203   -104.78769   -5208.1463     4.249982     4.249982     4.249982   -5208.1463   -39513.293    10370.155    13518.699    43466.275    23825.294    23549.294     76.76465 
   84700    973.72831    -105.7016   0.88104984   -104.82055   -17474.909    4.2603059    4.2603059    4.2603059   -17474.909    10730.278   -19956.052   -43198.951   -19347.782    30121.619   -82179.763     77.32543 
   84800    2508.8698   -107.06158    2.2700781    -104.7915   -4955.8033    4.2788179    4.2788179    4.2788179   -4955.8033   -23740.836   -25390.933    34264.359   -292.48832   -14014.077    13118.568     78.33781 
   84900    1292.9273   -105.93996    1.1698678   -104.77009   -27306.985    4.2939116    4.2939116    4.2939116   -27306.985    18708.453   -47800.669    -52828.74    38778.043    31924.543   -60136.847    79.169752 
   85000    2227.7816   -106.72816    2.0157436   -104.71242   -11621.481    4.2731482    4.2731482    4.2731482   -11621.481   -8916.3178     13792.76   -39740.885   -36793.658   -11702.558    -27995.17    78.026814 
   85100    1424.1183   -106.00112    1.2885721   -104.71255   -4169.4615      4.25799      4.25799      4.25799   -4169.4615   -32431.224    5258.1206    14664.719    38879.671    20184.274   -19674.813    77.199398 
   85200    1392.3788   -106.00693    1.2598536   -104.74707   -6063.1139    4.2648842    4.2648842    4.2648842   -6063.1139    20607.079   -16930.573   -21865.848    1134.9989    18501.835   -46854.302    77.574989 
   85300    2757.2733   -107.23402    2.4948388   -104.73918    19566.545    4.2625965    4.2625965    4.2625965    19566.545    4347.3755    28626.959      25725.3     5118.379   -5663.4471    22912.019    77.450221 
   85400    797.26478   -105.51211   0.72138193   -104.79073    5468.8726    4.2742049    4.2742049    4.2742049    5468.8726    26485.043   -6403.0031   -3675.4223    34307.934    39314.493   -72630.584    78.084711 
   85500    3173.1531     -107.593    2.8711356   -104.72186   -19162.143    4.2882613    4.2882613    4.2882613   -19162.143   -24640.047    -27905.82   -4940.5631   -16627.562   -30193.776     22235.47    78.857632 
   85600    491.74297   -105.18655   0.44493937   -104.74161    1824.8622    4.2901917    4.2901917    4.2901917    1824.8622    44570.299   -35221.746   -3873.9671    41944.585    43479.508   -60524.522    78.964172 
   85700    2855.8892    -107.2675    2.5840686   -104.68343   -1734.5727    4.2859682    4.2859682    4.2859682   -1734.5727    28835.077   -37225.014    3186.2186   -35899.707   -18884.867    22015.499    78.731191 
   85800    1075.7339   -105.69942   0.97334665   -104.72607    13157.732    4.2615924    4.2615924    4.2615924    13157.732    7067.8401    56552.386   -24147.031    27853.801     33912.48   -47258.618    77.395503 
   85900    1713.6996    -106.3085    1.5505914   -104.75791    16813.913    4.2516044    4.2516044    4.2516044    16813.913    14967.336    32190.837    3283.5674    13445.999    4092.7156   -46204.361    76.852596 
   86000    2342.9368   -106.88413    2.1199384   -104.76419    23146.123    4.2668272    4.2668272    4.2668272    23146.123    7360.8351    54623.115     7454.418   -19619.984    6206.3826    8481.3775    77.681064 
   86100    685.56789   -105.40962   0.62031623    -104.7893   -15832.155    4.2921429    4.2921429    4.2921429   -15832.155    26622.068    -35987.08   -38131.452    37475.083    41220.504   -56991.269     79.07196 
   86200    3001.4752   -107.42068    2.7157978   -104.70488   -18370.662    4.3019293    4.3019293    4.3019293   -18370.662   -56063.222    15761.873   -14810.637   -25931.799   -7130.8958    30832.696    79.614069 
   86300    608.72645   -105.25295   0.55078849   -104.70216    8476.4035    4.2996813    4.2996813    4.2996813    8476.4035    12572.043    56205.696   -43348.529    32347.573    42639.959   -68077.155    79.489324 
   86400    3095.8567   -107.43541    2.8011962   -104.63421   -14976.409    4.2904775    4.2904775    4.2904775   -14976.409   -15004.414    679.52439   -30604.337   -18585.373   -23597.943    26561.175    78.979957 
   86500    622.62842   -105.26682   0.56336728   -104.70345   -36645.127    4.2688964    4.2688964    4.2688964   -36645.127   -16005.327   -38036.466   -55893.586    22134.037    73518.802   -81754.368    77.794132 
   86600    2639.9724   -107.11489    2.3887025   -104.72618    37543.984    4.2491405    4.2491405    4.2491405    37543.984    35181.989    56877.229    20572.734   -7730.7061   -25053.646    11497.433    76.719062 
   86700    1819.7271   -106.43041    1.6465273   -104.78388    9001.3635    4.2526998    4.2526998    4.2526998    9001.3635    17562.865    56445.663   -47004.437   -7117.3234    40090.611   -29715.951    76.912012 
   86800    1077.8877   -105.79944   0.97529543   -104.82415    11892.236    4.2643285    4.2643285    4.2643285    11892.236     47326.12    34715.464   -46364.876      19091.1    22883.911    -70011.01     77.54467 
   86900    2478.5887   -107.02945    2.2426792   -104.78677      4691.29    4.2887664    4.2887664    4.2887664      4691.29    18885.326    2043.1324   -6854.5884   -12364.099    -28542.46    20739.091    78.885498 
   87000    696.13531   -105.40354   0.62987785   -104.77366   -2540.5007    4.2945445    4.2945445    4.2945445   -2540.5007    80656.502    -10055.76   -78222.245   -12652.032     50169.82   -65272.231    79.204766 
   87100     2565.519    -107.0329    2.3213355   -104.71157    18676.077     4.282155     4.282155     4.282155    18676.077    23432.843     20500.86    12094.529   -3655.6551   -1395.3828     45883.69    78.521239 
   87200    1332.3404   -105.95008    1.2055296   -104.74455   -10161.061    4.2627464    4.2627464    4.2627464   -10161.061    31300.556    5975.3718    -67759.11    -11010.49     12286.02   -92085.648    77.458396 
   87300     2114.839   -106.65914    1.9135508   -104.74559    21797.404    4.2435846    4.2435846    4.2435846    21797.404   -5103.9944     78306.51   -7810.3051    -1237.507    45646.157    5401.8333    76.418516 
   87400    1640.3699   -106.26037    1.4842412   -104.77613   -6906.5774    4.2583526    4.2583526    4.2583526   -6906.5774      38418.4   -4686.1038   -54452.028    2007.6358   -17146.589   -31986.037    77.219124 
   87500    1542.0079   -106.18128    1.3952411   -104.78604   -33880.413    4.2715639    4.2715639    4.2715639   -33880.413    5118.3426   -14606.983   -92152.599   -2334.0783    40240.763   -55465.767    77.940059 
   87600    2297.0339   -106.84183    2.0784046   -104.76343    11400.709    4.2652834    4.2652834    4.2652834    11400.709   -8716.8811    52340.513   -9421.5052   -9116.8024     22852.92     160.7827    77.596775 
   87700    1352.3496    -106.0003    1.2236343   -104.77666   -32770.904    4.2722042    4.2722042    4.2722042   -32770.904    35405.155   -56913.177   -76804.689    17746.149   -4098.6217   -54644.511    77.975114 
   87800    2151.1321   -106.71223    1.9463895   -104.76584   -7423.7962    4.2609122    4.2609122    4.2609122   -7423.7962   -14110.418    35080.279    -43241.25   -11835.602    55677.343    27606.224    77.358447 
   87900    1272.3964   -105.93428     1.151291   -104.78299    23567.958    4.2388862    4.2388862    4.2388862    23567.958    36153.279    33737.293    813.30278   -42842.731    -13334.58   -51061.159    76.164971 
   88000     2131.659    -106.7222    1.9287699   -104.79343   -6143.0051    4.2539949    4.2539949    4.2539949   -6143.0051    27875.033   -14836.368    -31467.68    48332.293   -12111.321   -21850.354      76.9823 
   88100    1797.5615   -106.42375    1.6264714   -104.79727   -8391.2538    4.2630819    4.2630819    4.2630819   -8391.2538   -35253.379   -17398.713     27478.33   -69548.602    5185.6852    17218.953    77.476687 
   88200     2047.425   -106.64917    1.8525531   -104.79662    8852.1968    4.2668641    4.2668641    4.2668641    8852.1968    9427.1358    50259.056   -33129.602     -19542.1   -11571.624   -40818.089    77.683079 
   88300    1472.1613   -106.13678    1.3320425   -104.80474   -37112.969    4.2709977    4.2709977    4.2709977   -37112.969   -74474.508   -56471.256    19606.858    -35543.39   -7164.9172     1744.785    77.909071 
   88400    933.15679   -105.65762   0.84433988   -104.81328    1259.5315    4.2448528    4.2448528    4.2448528    1259.5315   -70375.793   -25154.944    99309.331   -67107.329    10026.403    24710.842    76.487049 
   88500    2809.6358   -107.31587    2.5422175   -104.77365    30183.235    4.2470098    4.2470098    4.2470098    30183.235    14750.802    58013.806    17785.096     5450.767   -3991.8995   -23650.922    76.603709 
   88600    1225.2176   -105.89693    1.1086027   -104.78833   -32542.822    4.2688351    4.2688351    4.2688351   -32542.822   -83697.603   -45379.396    31448.533   -113780.41   -2521.6408    9168.3943    77.790784 
   88700    2439.4731   -106.95947    2.2072865   -104.75218    6522.8873    4.2709927    4.2709927    4.2709927    6522.8873    12608.171     5455.137    1505.3538    47889.374   -5140.6953    28772.447    77.908797 
   88800    1264.3184   -105.91416    1.1439818   -104.77018   -26791.898     4.281106     4.281106     4.281106   -26791.898    -59699.46   -71909.907    51233.672   -87221.332   -2520.3795   -40179.247    78.463548 
   88900    2157.2524   -106.69407    1.9519273   -104.74214   -15194.747    4.2770877    4.2770877    4.2770877   -15194.747   -14108.268   -30632.098   -843.87462    18661.205     -18148.9    39791.517    78.242813 
   89000    1545.2333   -106.14236    1.3981596    -104.7442   -240.00652    4.2573114    4.2573114    4.2573114   -240.00652   -1153.2319   -40958.367    41391.579   -48566.224   -7341.7427   -8194.8677    77.162495 
   89100    2309.9036    -106.8344    2.0900493   -104.74435    6172.5297    4.2630068    4.2630068    4.2630068    6172.5297    3828.5764   -12045.829    26734.841   -16601.581   -18247.826   -3884.6253    77.472589 
   89200     1336.737   -105.95941    1.2095078    -104.7499   -54162.665     4.281712     4.281712     4.281712   -54162.665   -39823.201   -97902.744   -24762.049   -11223.532   -10135.494    45989.027    78.496873 
   89300    2140.6397    -106.6793    1.9368958    -104.7424   -15926.614    4.2723665    4.2723665    4.2723665   -15926.614   -33638.142   -39632.306    25490.607   -67907.555    -8195.463   -9380.6485    77.983997 
   89400    1904.0526   -106.46808    1.7228268   -104.74526   -22606.523    4.2720798    4.2720798    4.2720798   -22606.523   -28708.721   -46788.655    7677.8061     16580.32    3673.9057     25415.92    77.968303 
   89500    977.43037   -105.65684   0.88439954   -104.77244    -31665.11    4.2659936    4.2659936    4.2659936    -31665.11   -38444.387   -99574.231    43023.288   -89475.436   -12174.305    36050.314    77.635543 
   89600    2817.4769   -107.28874    2.5493123   -104.73943     32266.16    4.2548982    4.2548982    4.2548982     32266.16    65056.303    11394.846    20347.332    17326.188    3977.3839   -30380.048    77.031352 
   89700    835.96783   -105.54885   0.75640126   -104.79245   -18637.746    4.2659155    4.2659155    4.2659155   -18637.746   -5270.1919    -84241.42    33598.374   -71749.556    14932.687     23642.53    77.631277 
   89800    2744.7502   -107.23517    2.4835076   -104.75166    9367.7586    4.2664111    4.2664111    4.2664111    9367.7586    31964.832    2177.3491   -6038.9059    7671.4954   -14161.978   -6751.0443    77.658341 
   89900    1036.3008   -105.71426   0.93766672    -104.7766     8172.549    4.2605549    4.2605549    4.2605549     8172.549    53234.511   -48685.344     19968.48   -55553.599    6549.3076   -55319.876     77.33899 
   90000    2184.8841   -106.74486     1.976929   -104.76793   -13678.381    4.2748853    4.2748853    4.2748853   -13678.381    -19118.77   -17477.505   -4438.8671   -32917.215   -4289.3355    19968.539     78.12201 
   90100    1950.4237    -106.5427    1.7647844   -104.77792   -3872.4488    4.2647424    4.2647424    4.2647424   -3872.4488    46798.772   -722.87561   -57693.243    3003.6641   -30893.091   -42615.621    77.567253 
   90200    1253.1753    -105.9162    1.1338993    -104.7823    23163.228    4.2430702    4.2430702    4.2430702    23163.228    70672.246   -20664.732    19482.168   -75659.342   -4234.4673     -19523.3    76.390729 
   90300    3117.5564   -107.58755    2.8208305   -104.76672    25175.368    4.2571741    4.2571741    4.2571741    25175.368    29343.154    37490.744    8692.2079    23409.776   -11185.669    2527.4985    77.155029 
   90400    619.57155   -105.36419   0.56060136   -104.80359   -11550.469    4.2761787    4.2761787    4.2761787   -11550.469   -10184.644   -47383.778    22917.014   -61402.188   -24895.398   -59150.477    78.192938 
   90500    3013.8094   -107.45589    2.7269581   -104.72894   -1766.3609    4.2953135    4.2953135    4.2953135   -1766.3609     8531.795   -20598.999    6768.1212    14236.866    20892.506    22723.108    79.247325 
   90600    470.22972   -105.12624   0.42547373   -104.70076   -31177.252     4.325063     4.325063     4.325063   -31177.252   -20456.464   -78022.148    4946.8569   -60477.279   -26900.886   -45547.022    80.905364 
   90700    3100.4843   -107.37882    2.8053834   -104.57344   -35879.456    4.3147251    4.3147251    4.3147251   -35879.456   -44565.377   -17315.721    -45757.27    9445.5185    10542.499    26271.214    80.326601 
   90800    981.81232   -105.47877   0.88836442    -104.5904    11019.531    4.2763375    4.2763375    4.2763375    11019.531    1833.7428    40727.576   -9502.7252   -36893.663   -45070.942   -60599.463     78.20165 
   90900    3010.3948   -107.32923    2.7238685   -104.60536    45542.798    4.2551498    4.2551498    4.2551498    45542.798    5574.9779    57039.624    74013.794    2511.4047    18403.016     23523.65    77.045019 
   91000    913.57548   -105.55152   0.82662229    -104.7249   -5504.3528    4.2526902    4.2526902    4.2526902   -5504.3528   -49983.537    37485.253   -4014.7744    1183.1861   -73760.803   -30681.078    76.911494 
   91100    2425.9151   -106.95788     2.195019   -104.76286    1091.0498    4.2616259    4.2616259    4.2616259    1091.0498   -16404.493    12747.541    6930.1015   -17294.026    7085.8429   -22419.464    77.397331 
   91200    1159.6559   -105.84249     1.049281   -104.79321   -10797.159    4.2738099    4.2738099    4.2738099   -10797.159   -10633.219    22815.729   -44573.986    17148.661   -17882.062    33723.138    78.063066 
   91300    1765.2927   -106.37162    1.5972739   -104.77435    3505.7293    4.2746145    4.2746145    4.2746145    3505.7293    11542.145    16749.434   -17774.392    4217.8021   -26167.358   -42127.281    78.107162 
   91400    1927.5675   -106.49895    1.7441036   -104.75485   -8738.6066    4.2708979    4.2708979    4.2708979   -8738.6066   -45193.953    29748.393    -10770.26   -10455.797    6410.7607     14256.93     77.90361 
   91500    1377.5862   -106.00437     1.246469    -104.7579   -6088.4692    4.2655118    4.2655118    4.2655118   -6088.4692   -36402.051     58808.42   -40671.777    16338.746   -51784.009     9652.304    77.609242 
   91600    2639.6694   -107.12352    2.3884284   -104.73509    6832.1323    4.2585443    4.2585443    4.2585443    6832.1323    13642.833   -29121.318    35974.882   -23211.682    19161.169    -20695.37    77.229551 
   91700    959.71721   -105.64148    0.8683723   -104.77311   -22442.116    4.2609531    4.2609531    4.2609531   -22442.116    -27488.18    25853.715   -65691.884   -7286.1805   -49032.302    25501.056    77.360678 
   91800    2466.0424   -106.97995     2.231327   -104.74862    5751.9627    4.2596659    4.2596659    4.2596659    5751.9627   -3433.9809    9842.2392     10847.63    3169.1427   -1152.1149   -13538.282    77.290587 
   91900    784.16478   -105.48909   0.70952877   -104.77956   -5190.6781    4.2662723    4.2662723    4.2662723   -5190.6781    45930.255   -65969.941    4467.6519   -42428.565     3301.655   -32921.347    77.650762 
   92000    3042.8945   -107.49673    2.7532749   -104.74345    6786.1394    4.2761302    4.2761302    4.2761302    6786.1394    14568.484        31370   -25580.066     21012.22    14688.835    15009.693    78.190279 
   92100    1044.1572   -105.72534   0.94477538   -104.78056   -18669.182    4.2663509    4.2663509    4.2663509   -18669.182    14067.498   -72157.095    2082.0511   -33043.557   -2274.4894   -35240.638    77.655054 
   92200    2277.9507   -106.81452    2.0611377   -104.75338    33849.935    4.2529173    4.2529173    4.2529173    33849.935    67646.364    16269.713    17633.729   -7816.1613   -3359.3385   -1451.7797    76.923817 
   92300    1310.9376   -105.95654    1.1861639   -104.77037   -14617.738    4.2579476    4.2579476    4.2579476   -14617.738    17546.004   -13793.943   -47605.275     4088.556    13632.284    55954.429    77.197093 
   92400    1828.4817   -106.42158    1.6544487   -104.76713   -1176.6065    4.2614279    4.2614279    4.2614279   -1176.6065   -28870.163    7305.3877    18034.955   -41963.708    -11724.29   -42039.653    77.386541 
   92500    1591.0147   -106.20547    1.4395836   -104.76589    13468.251    4.2676546    4.2676546    4.2676546    13468.251    38057.559    1892.9089    454.28513     14937.59    916.08489    92863.668    77.726261 
   92600    2005.2486   -106.56223    1.8143911   -104.74783   -27004.272    4.2858905    4.2858905    4.2858905   -27004.272   -40902.573   -40349.773    239.52992   -20353.567   -68.425896    -27079.83    78.726914 
   92700    1643.2849   -106.24346    1.4868787   -104.75658   -19606.716    4.2661377    4.2661377    4.2661377   -19606.716    54445.269   -67542.464   -45722.954   -15717.406   -5724.4025     78298.28     77.64341 
   92800    2128.9957    -106.6627    1.9263601   -104.73634    30869.748    4.2393355    4.2393355    4.2393355    30869.748    55596.893   -21188.056    58200.408    6992.8021    7150.8003    46566.268    76.189191 
   92900    1715.2868    -106.3181    1.5520276   -104.76607   -6140.7111    4.2575377    4.2575377    4.2575377   -6140.7111    44245.601   -68859.843    6192.1088    6511.7404   -9679.6008    52281.601    77.174798 
   93000     1319.592   -105.96363    1.1939946   -104.76964   -31433.051    4.2766453    4.2766453    4.2766453   -31433.051    37171.033   -96941.738   -34528.448   -13612.325    3517.7801    64501.811    78.218537 
   93100    2098.2916   -106.62964    1.8985784   -104.73107   -6801.1405    4.2832196    4.2832196    4.2832196   -6801.1405    26416.929    -16813.87    -30006.48    5855.7537    8929.0632    13203.892    78.579817 
   93200    1362.6243   -105.95878    1.2329311   -104.72585   -30122.765    4.2885114    4.2885114    4.2885114   -30122.765    46652.189   -54864.463    -82156.02    -5289.701   -3967.7439    93492.988    78.871429 
   93300    2128.1204   -106.63651    1.9255681   -104.71095    31638.802    4.2579148    4.2579148    4.2579148    31638.802    18476.567    77795.967   -1356.1268   -7513.2079    2672.1829   -8877.2666     77.19531 
   93400    899.56795    -105.5626   0.81394799   -104.74865     18831.33    4.2445243    4.2445243    4.2445243     18831.33    87373.906    17540.208   -48420.124    13328.034    2641.7597     103517.4    76.469291 
   93500    2867.1515   -107.32127     2.594259   -104.72701    16247.865    4.2615168    4.2615168    4.2615168    16247.865    -15080.06    67040.134   -3216.4779   -9088.5483    2239.0022   -28361.268    77.391382 
   93600    1191.9837   -105.84424    1.0785319   -104.76571   -12658.456    4.2643757    4.2643757    4.2643757   -12658.456    49340.469   -28704.799   -58611.039   -8688.6924   -13583.353    132772.45    77.547247 
   93700    2560.1082   -107.05706    2.3164397   -104.74062    8768.7236     4.272853     4.272853     4.272853    8768.7236   -3494.1697    10433.197    19367.144    10921.133   -2610.7346   -65349.551    78.010641 
   93800     641.7961   -105.35137    0.5807106   -104.77066   -24518.954    4.2727228    4.2727228    4.2727228   -24518.954    94412.506   -85723.952   -82245.417    4479.8554    7155.9512    130421.19    78.003512 
   93900    2856.6366   -107.31152    2.5847448   -104.72678    16729.402    4.2620295    4.2620295    4.2620295    16729.402    464.32378    -6113.383    55837.266   -12988.652    6820.9865   -22879.728    77.419323 
   94000    939.48197   -105.61501   0.85006303   -104.76495   -20412.306    4.2633713    4.2633713    4.2633713   -20412.306     56739.35   -52380.573   -65595.693   -6371.7653    6453.0819    116714.54    77.492464 
   94100    2171.3645   -106.72293    1.9646962   -104.75823    3762.5554    4.2587177    4.2587177    4.2587177    3762.5554    12278.217   -25445.155    24454.604    1127.9964    1822.3028      1726.15    77.238983 
   94200     1605.124    -106.2318    1.4523499   -104.77945    3784.4491    4.2527731    4.2527731    4.2527731    3784.4491    25101.929   -29138.129    15389.548   -12567.584   -8622.1247    54081.592    76.915989 
   94300    1746.1129   -106.36635    1.5799196   -104.78643    1307.9045    4.2561465    4.2561465    4.2561465    1307.9045    41610.759   -14133.033   -23554.013   -931.10724     16955.98    78855.335    77.099171 
   94400    1862.3091   -106.46268    1.6850564   -104.77762    12902.715    4.2737692    4.2737692    4.2737692    12902.715   -9218.1855    830.75757    47095.573    7805.1609   -95.210157   -19520.192    78.060835 
   94500    1172.8523   -105.81984    1.0612214   -104.75862    -10867.39    4.2896187    4.2896187    4.2896187    -10867.39    20114.694   -37008.091   -15708.773   -30380.343    5606.7727    94882.949    78.932536 
   94600    2272.8572   -106.76909    2.0565289   -104.71256    15814.126    4.2811814    4.2811814    4.2811814    15814.126    19084.838   -13283.704    41641.244    31093.939    -9011.021   -26660.912    78.467693 
   94700    1231.3117   -105.84334    1.1141167   -104.72922   -6694.7316    4.2730902    4.2730902    4.2730902   -6694.7316      64482.4   -68840.745    -15725.85   -28213.152   -9709.3223    69114.858    78.023635 
   94800    2883.8748   -107.31012    2.6093905   -104.70073   -12880.101    4.2758217    4.2758217    4.2758217   -12880.101    6108.8984   -27960.603   -16788.598    50239.178   -14321.585    -19505.96    78.173356 
   94900    692.76313   -105.36319   0.62682664   -104.73636   -37013.815     4.281445     4.281445     4.281445   -37013.815    32568.928   -91275.924   -52334.448    12191.136    5500.2737    44691.398    78.482188 
   95000    2967.5875   -107.38983    2.6851356    -104.7047    8545.2954    4.2700686    4.2700686    4.2700686    8545.2954    42138.552    24190.262   -40692.928   -10619.517   -3658.4642   -3800.7936    77.858234 
   95100    649.23234    -105.3598   0.58743906   -104.77236   -44274.319    4.2595339    4.2595339    4.2595339   -44274.319    635.60624    -98765.59   -34692.972    29291.881   -2618.1311    14198.651    77.283404 
   95200    2619.3131   -107.13541    2.3700096    -104.7654    19451.094    4.2403527    4.2403527    4.2403527    19451.094    48475.473    7844.9728    2032.8349    5172.0502    6739.0147    17034.544    76.244048 
   95300    1614.3737   -106.25732    1.4607192    -104.7966   -6187.1625    4.2535949    4.2535949    4.2535949   -6187.1625    37550.734   -26589.877   -29522.345     -1189.75    4090.7024   -19375.021    76.960591 
   95400    1551.0406   -106.18352    1.4034141   -104.78011   -39020.935    4.2797837    4.2797837    4.2797837   -39020.935   -13833.983   -60665.875   -42562.947    36462.921   -1232.8894    26089.272    78.390864 
   95500    2252.1821   -106.78382    2.0378217     -104.746   -14395.081    4.2718856    4.2718856    4.2718856   -14395.081   -25804.136     24822.31   -42203.417   -13087.809    19403.519   -22348.834    77.957671 
   95600     1145.692    -105.7987    1.0366462   -104.76206   -11292.455     4.265575     4.265575     4.265575   -11292.455    891.52559   -29655.999     -5112.89   -2847.4657   -1857.6144   -6030.3136    77.612689 
   95700    2841.2839   -107.31136    2.5708534   -104.74051    1803.6759    4.2622651    4.2622651    4.2622651    1803.6759   -6664.4724    35156.185   -23080.685     21836.21    4982.8703    433.69133    77.432158 
   95800    918.55346   -105.61408   0.83112648   -104.78295   -16055.012     4.259657     4.259657     4.259657   -16055.012   -9273.1019   -2199.7721   -36692.161    -28763.87    26996.747    -48263.68    77.290106 
   95900    2811.7779   -107.30156    2.5441557   -104.75741    5460.6675    4.2723377    4.2723377    4.2723377    5460.6675   -2273.7067    13082.511    5573.1985     11824.67   -20898.614    7086.4869    77.982422 
   96000    1275.1644   -105.91678    1.1537956   -104.76298   -37168.497    4.2971105    4.2971105    4.2971105   -37168.497   -17199.861   -13929.681   -80375.949   -6644.2821   -16947.888   -29939.878    79.346828 
   96100    2028.6954   -106.54814    1.8356063   -104.71253   -6053.1138    4.2932421    4.2932421    4.2932421   -6053.1138    14374.029   -9763.5992   -22769.771   -29228.665    14365.141   -2836.5053    79.132729 
   96200    1233.6908   -105.83567    1.1162694    -104.7194    1687.0721    4.2736143    4.2736143    4.2736143    1687.0721    4593.1163    78860.804   -78392.704    94.049709   -86534.858    5654.2899    78.052346 
   96300    2407.1747   -106.89228    2.1780623   -104.71422    8332.2438    4.2636827    4.2636827    4.2636827    8332.2438    68669.938   -24245.382   -19427.825   -10457.271    35421.072   -39384.313    77.509447 
   96400    1401.2145   -106.02379    1.2678483   -104.75594   -5488.5513     4.261053     4.261053     4.261053   -5488.5513   -40299.794    60028.692   -36194.552   -22277.138    -104554.6      5207.23    77.366118 
   96500    2290.1503    -106.8331    2.0721761   -104.76092    19838.104    4.2674769    4.2674769    4.2674769    19838.104     48996.25    49317.439   -38799.376    1421.0425    2436.0697   -15807.754    77.716553 
   96600    1487.8485   -106.12726    1.3462366   -104.78102   -2206.4438    4.2761959    4.2761959    4.2761959   -2206.4438   -32191.468    72541.516   -46969.379   -4788.5972   -76080.387    -25151.55    78.193882 
   96700     2106.218   -106.65494    1.9057503   -104.74919    18504.604    4.2806746    4.2806746    4.2806746    18504.604    5132.2238    44890.787    5490.7998   -3958.6704   -12956.108    14236.578    78.439833 
   96800    1452.6383   -106.06421    1.3143777   -104.74983    -17669.91    4.2807081    4.2807081    4.2807081    -17669.91    -12313.63    42608.844   -83304.943    16680.972   -49120.703   -15703.491    78.441671 
   96900    2181.4401   -106.71275    1.9738128   -104.73893   -3452.6406     4.265977     4.265977     4.265977   -3452.6406   -40250.123    57095.537   -27203.335        12241   -57132.065    9084.8906    77.634635 
   97000     1566.556   -106.16418    1.4174528   -104.74673    5328.6051    4.2518729    4.2518729    4.2518729    5328.6051    23926.552    5489.8649   -13430.602   -11249.844    24624.597   -2950.7978    76.867158 
   97100    2025.8308   -106.59029    1.8330143   -104.75727    7759.3318    4.2664605    4.2664605    4.2664605    7759.3318    -10785.59    73697.255   -39633.669     7196.027    -61945.34   -18734.853    77.661035 
   97200    1090.2277   -105.75327   0.98646098   -104.76681   -31547.928    4.2789275    4.2789275    4.2789275   -31547.928   -69518.015   -45370.231    20244.461    25345.215    21504.522    21922.777     78.34383 
   97300    1666.7382   -106.28182    1.5080997   -104.77372     9087.668    4.2674668    4.2674668    4.2674668     9087.668    34039.916    26599.813   -33376.724   -17088.351    28067.774   -5235.9132    77.716001 
   97400    2219.8017   -106.78114    2.0085232   -104.77262    22527.858    4.2606874    4.2606874    4.2606874    22527.858    47744.308    26523.728   -6684.4613    35243.567   -34738.122   -261.47212    77.346208 
   97500    944.58035   -105.65061   0.85467615   -104.79593    19568.523    4.2619693    4.2619693    4.2619693    19568.523    36817.796    18739.544    3148.2299    24079.731    33061.515     21270.44    77.416042 
   97600    2401.0763   -106.94629    2.1725443   -104.77374    20609.128    4.2741759    4.2741759    4.2741759    20609.128    3479.1558    96952.328     -38604.1   -11294.181    -29528.82   -5470.8234    78.083124 
   97700    1082.2408   -105.75967   0.97923423   -104.78044   -25401.364    4.2895206    4.2895206    4.2895206   -25401.364   -68212.849    14166.994   -22158.237    60148.365   -14074.473   -3353.4541    78.927123 
   97800    2097.8423   -106.63431    1.8981718   -104.73613    10098.616    4.2761713    4.2761713    4.2761713    10098.616   -7417.7532    25132.787    12580.814    5835.2971   -10314.115    10027.536    78.192536 
   97900    1651.4017    -106.2375     1.494223   -104.74328    9926.0881    4.2666091    4.2666091    4.2666091    9926.0881   -37266.633    88666.238    -21621.34    9311.3591    -79674.36    3595.9489    77.669153 
   98000    2246.3667   -106.76268    2.0325598   -104.73012   -8675.2974    4.2695571    4.2695571    4.2695571   -8675.2974    5499.7667   -15599.152   -15926.507    29695.455   -1453.5207    12708.389    77.830258 
   98100    1266.2399    -105.9029    1.1457205   -104.75717    3657.6807    4.2668016    4.2668016    4.2668016    3657.6807    5031.8258     56198.53   -50257.314   -8577.1474   -82973.816    4989.0535    77.679663 
   98200    2337.9003   -106.85097    2.1153813   -104.73559   -37524.788    4.2966327    4.2966327    4.2966327   -37524.788   -52704.885    1769.9785   -61639.458     10256.92   -18142.663   -4198.4987    79.320362 
   98300    1273.9096   -105.87307    1.1526601   -104.72041   -63595.467    4.3041797    4.3041797    4.3041797   -63595.467   -101806.29    16336.058   -105316.17    13056.991   -110490.89    1908.8084    79.739076 
   98400    2639.3121   -107.07618    2.3881051   -104.68808    39546.249    4.2623851    4.2623851    4.2623851    39546.249    7056.8272    80662.755    30919.165    1547.3746    10848.436   -392.37151    77.438701 
   98500    1088.8226   -105.71458   0.98518958   -104.72939   -4550.4506    4.2521403    4.2521403    4.2521403   -4550.4506   -81054.621    72129.684   -4726.4153    20487.582   -102259.11   -5271.1817    76.881658 
   98600    2431.8153   -106.92753    2.2003576   -104.72717    22314.013    4.2604852    4.2604852    4.2604852    22314.013   -16226.593    50915.146    32253.484    15498.746    23869.747   -2705.3078    77.335197 
   98700    1503.0635   -106.11928    1.3600034   -104.75927    -916.0096    4.2807935    4.2807935    4.2807935    -916.0096   -61976.767    89397.775   -30169.037    5027.9044   -88080.726   -6397.0741    78.446366 
   98800    1932.7287   -106.48488    1.7487736   -104.73611   -23184.709    4.2986537    4.2986537    4.2986537   -23184.709   -72524.952   -44688.031    47658.855    62608.329    36920.845   -10503.029    79.432342 
   98900    1456.0954   -106.04594    1.3175057   -104.72843   -19766.277    4.2785127    4.2785127    4.2785127   -19766.277   -86380.709    52213.594   -25131.716   -13153.533   -101863.95    3832.7953    78.321044 
   99000     2255.888    -106.7326    2.0411749   -104.69142    17670.116    4.2600643    4.2600643    4.2600643    17670.116   -30667.447    36943.421    46734.374     17022.97    38316.957   -1897.3992    77.312276 
   99100    1498.9162   -106.08655    1.3562509    -104.7303   -43675.793     4.271474     4.271474     4.271474   -43675.793   -93322.075   -924.54686   -36780.756    5430.5556   -63130.515    3165.6463    77.935135 
   99200    2534.2051   -107.01576     2.293002   -104.72275   -7290.1019    4.2757885    4.2757885    4.2757885   -7290.1019   -13059.248    24207.146   -33018.204   -16265.991   -10922.271    13393.835    78.171534 
   99300    1496.7329   -106.09977    1.3542754    -104.7455   -51256.466    4.2882621    4.2882621    4.2882621   -51256.466   -106626.84    27100.074   -74242.626    15533.268     18074.81    2880.9933    78.857672 
   99400    1816.4421   -106.38284     1.643555   -104.73928    -27719.22    4.2769341    4.2769341    4.2769341    -27719.22   -39149.253    49614.834   -93623.241   -2745.1627   -93098.243   -1446.7244    78.234383 
   99500    2010.9328   -106.55399    1.8195343   -104.73445   -11396.858     4.255605     4.255605     4.255605   -11396.858   -22490.717    41467.864   -53167.722   -2022.1936    77698.441    7538.5671    77.069746 
   99600    1022.4459   -105.69814    0.9251305   -104.77301   -17811.592    4.2551806    4.2551806    4.2551806   -17811.592   -83917.862    63662.158   -33179.073    39695.943   -70674.863    4342.7318    77.046692 
   99700    2443.9782   -106.97227    2.2113628    -104.7609    43271.357    4.2573915    4.2573915    4.2573915    43271.357    68355.367    58306.244    3152.4584   -22892.072    19221.488   -2751.0996    77.166848 
   99800    1262.9367   -105.94251    1.1427317   -104.79978   -12520.282    4.2779702    4.2779702    4.2779702   -12520.282   -41023.553    82142.568   -78679.861    2206.0475   -24470.575    5847.6055    78.291257 
   99900    2375.9067   -106.90976    2.1497703   -104.75999   -12600.661    4.2803648    4.2803648    4.2803648   -12600.661   -17531.997   -3158.1546   -17111.833    15447.789   -28643.303   -2344.7911    78.422801 
  100000     1565.239   -106.17882    1.4162611   -104.76256    27936.982    4.2467478    4.2467478    4.2467478    27936.982    26640.389    28856.844    28313.714   -55472.768    7456.5565   -18768.976    76.589534 
Loop time of 23.491 on 1 procs for 100000 steps with 8 atoms

Pair  time (%) = 7.52736 (32.0436)
Kspce time (%) = 5.51123 (23.461)
Neigh time (%) = 0.273954 (1.16621)
Comm  time (%) = 1.22315 (5.2069)
Outpt time (%) = 0.0265713 (0.113113)
Other time (%) = 8.92873 (38.0092)

Nlocal:    8 ave 8 max 8 min
Histogram: 1 0 0 0 0 0 0 0 0 0
Nghost:    2189 ave 2189 max 2189 min
Histogram: 1 0 0 0 0 0 0 0 0 0
Neighs:    2316 ave 2316 max 2316 min
Histogram: 1 0 0 0 0 0 0 0 0 0

Total # of neighbors = 2316
Ave neighs/atom = 289.5
Neighbor list builds = 3114
Dangerous builds = 0
unfix 20
unfix 21
print "seeds:2198581"
seeds:2198581
