LAMMPS (10 Feb 2015)
# ---- initialize simulations
clear
units metal
dimension 3
boundary p p p
atom_style charge
atom_modify map array
# ---- create atoms
read_data /Users/eugeneragasa/pyflamestk_git/pypospack/tests/tests_integration/workflow/WorkflowLammpsThermalExpansion/param_6993/MgO_NaCl_unit.npt.T1000/lammps.structure
  triclinic box = (0 0 0) to (4.2565 4.2565 4.2565) with tilt (0 0 0)
  1 by 1 by 1 MPI processor grid
  reading atoms ...
  8 atoms
# ---- define interatomic potential
include potential.mod
mass 1 24.305
mass 2 15.999

group Mg type 1
4 atoms in group Mg
group O type 2
4 atoms in group O

set group Mg charge 1.61814101446
  4 settings made for charge
set group O charge -1.61814101446
  4 settings made for charge

variable R_cut equal 10.0

pair_style buck/coul/long ${R_cut}
pair_style buck/coul/long 10
pair_coeff 1 1 0.0 0.5 0.0 ${R_cut}
pair_coeff 1 1 0.0 0.5 0.0 10
pair_coeff 1 2 1169.10574889 0.285525631363 0.0 ${R_cut}
pair_coeff 1 2 1169.10574889 0.285525631363 0.0 10
pair_coeff 2 2 5328.19415446 0.197938803692 16.6059399876 ${R_cut}
pair_coeff 2 2 5328.19415446 0.197938803692 16.6059399876 10

kspace_style pppm 1.0e-5

neighbor 1.0 bin
neigh_modify every 1 delay 0 check yes
# ---- define settings
compute eng all pe/atom
compute eatoms all reduce sum c_eng
# ---- run minimization
reset_timestep 0
fix 1 all box/relax iso 0.0 vmax 0.001
thermo 10
thermo_style custom step pe lx ly lz xy xz yz press pxx pyy pzz pxy pxz pyz c_eatoms
min_style cg
minimize 1e-25 1e-25 5000 10000
PPPM initialization ...
  G vector (1/distance) = 0.352506
  grid = 8 8 8
  stencil order = 5
  estimated absolute RMS force accuracy = 3.81426e-05
  estimated relative force accuracy = 2.64886e-06
  using double precision FFTs
  3d grid and FFT values/proc = 3375 512
Neighbor list info ...
  1 neighbor list requests
  update every 1 steps, delay 0 steps, check yes
  master list distance cutoff = 11
Memory usage per processor = 4.06549 Mbytes
Step PotEng Lx Ly Lz Xy Xz Yz Press Pxx Pyy Pzz Pxy Pxz Pyz eatoms 
       0   -108.09373       4.2565       4.2565       4.2565            0            0            0    -32837.55    -32837.55    -32837.55    -32837.55 6.8800808e-12 1.9793426e-10 1.5308399e-10   -108.09373 
       9   -108.11055     4.226584     4.226584     4.226584            0            0            0    13.792758    13.792758    13.792758    13.792758 -4.4920118e-11 -8.154534e-11 2.0970287e-11   -108.11055 
Loop time of 0.00962901 on 1 procs for 9 steps with 8 atoms

Minimization stats:
  Stopping criterion = linesearch alpha is zero
  Energy initial, next-to-last, final = 
         -108.09372829     -108.110551709     -108.110551709
  Force two-norm initial, final = 4.74176 0.0024943
  Force max component initial, final = 4.74176 0.00196378
  Final line search alpha, max atom move = 0.00390625 7.67103e-06
  Iterations, force evaluations = 9 28

Pair  time (%) = 0.00270891 (28.1328)
Kspce time (%) = 0.00153112 (15.9012)
Neigh time (%) = 0 (0)
Comm  time (%) = 0.000296116 (3.07525)
Outpt time (%) = 0 (0)
Other time (%) = 0.00509286 (52.8908)

Nlocal:    8 ave 8 max 8 min
Histogram: 1 0 0 0 0 0 0 0 0 0
Nghost:    2189 ave 2189 max 2189 min
Histogram: 1 0 0 0 0 0 0 0 0 0
Neighs:    2344 ave 2344 max 2344 min
Histogram: 1 0 0 0 0 0 0 0 0 0

Total # of neighbors = 2344
Ave neighs/atom = 293
Neighbor list builds = 0
Dangerous builds = 0
unfix 1
# ---- define output variables ----
variable natoms equal "count(all)"
variable tot_energy equal "c_eatoms"
variable length_x equal "lx"
variable length_y equal "ly"
variable length_z equal "lz"
variable tilt_xy equal "xy"
variable tilt_xz equal "xz"
variable tilt_yz equal "yz"
variable tot_press equal "press"
variable press_xx equal "pxx"
variable press_yy equal "pyy"
variable press_zz equal "pzz"
variable press_xy equal "pxy"
variable press_xz equal "pxz"
variable press_yz equal "pyz"

# ---- output ----
print "pypospack:output_section:begin"
pypospack:output_section:begin
print "tot_energy = ${tot_energy}"
tot_energy = -108.110551708828
print "num_atoms = ${natoms}"
num_atoms = 8
print "xx = ${length_x}"
xx = 4.22658398474032
print "yy = ${length_y}"
yy = 4.22658398474032
print "zz = ${length_z}"
zz = 4.22658398474032
print "xy = ${tilt_xy}"
xy = 0
print "xz = ${tilt_xz}"
xz = 0
print "yz = ${tilt_yz}"
yz = 0
print "tot_press = ${tot_press}"
tot_press = 13.7927584127517
print "pxx = ${press_xx}"
pxx = 13.7927584125475
print "pyy = ${press_yy}"
pyy = 13.7927584121258
print "pzz = ${press_zz}"
pzz = 13.7927584135819
print "pxy = ${press_xy}"
pxy = -4.49201179574407e-11
print "pxz = ${press_xz}"
pxz = -8.15453399591787e-11
print "pyz = ${press_yz}"
pyz = 2.09702873442201e-11
print "pypospack:output_section:done"
pypospack:output_section:done
print "pypospack:lammps_sim:done"
pypospack:lammps_sim:done
#------------------------------------------------------------------------------
# RUN THERMOSTAT
# running using an NPT Nose-Hoover style thermostat
#------------------------------------------------------------------------------
variable tempdamp equal 0.1
variable pressdamp equal 1.0
# set initial velocities
velocity all create 1000 9219512 mom yes dist gaussian loop all
# fix for Nose-Hoover style thermostat
fix 20 all npt temp 1000 1000 0.1 aniso 0.0 0.0 1.0 drag 1.0 couple xyz
variable boxx equal lx
variable boxy equal ly
variable boxz equal lz
variable boxp equal press
variable boxt equal temp
# calculate averages every 10000 steps
reset_timestep 0
fix 21 all ave/time 10 10 100 v_boxx v_boxy v_boxz v_boxp v_boxt file lattice.out
thermo_style custom step temp pe ke etotal press lx ly lz press pxx pyy pzz pxy pxz pyz vol
thermo_modify flush yes
thermo 100
run 100000
PPPM initialization ...
  G vector (1/distance) = 0.352801
  grid = 8 8 8
  stencil order = 5
  estimated absolute RMS force accuracy = 3.76353e-05
  estimated relative force accuracy = 2.61363e-06
  using double precision FFTs
  3d grid and FFT values/proc = 3375 512
Memory usage per processor = 3.06549 Mbytes
Step Temp PotEng KinEng TotEng Press Lx Ly Lz Press Pxx Pyy Pzz Pxy Pxz Pyz Volume 
       0         1000   -108.11055   0.90482102   -107.20573    12814.219     4.226584     4.226584     4.226584    12814.219     3566.501    20494.489    14381.669     4733.382    1632.1163    10313.871    75.503748 
     100     419.6432   -107.46628   0.37970199   -107.08658     10472.34     4.259739     4.259739     4.259739     10472.34   -32707.188    64686.073   -561.86459    1703.8814   -2267.6411   -3518.7393    77.294566 
     200     597.5617   -107.38005   0.54068638   -106.83936   -21690.703    4.2901941    4.2901941    4.2901941   -21690.703   -59345.676    26204.709   -31931.142    4323.9212    2079.1612   -7725.9451    78.964308 
     300    761.70048   -107.32123    0.6892026   -106.63203    17366.187    4.2604442    4.2604442    4.2604442    17366.187   -24693.688    100513.79   -23721.537    4440.6725    929.04697   -6803.9166    77.332962 
     400    608.63685   -107.01766   0.55070741   -106.46695    21350.987    4.2550942    4.2550942    4.2550942    21350.987   -15443.392     47229.59    32266.762    2604.2412   -8421.7826   -19366.762       77.042 
     500    1085.8419    -107.3393    0.9824926   -106.35681   -23928.788    4.2885256    4.2885256    4.2885256   -23928.788   -33767.302   -4142.3917    -33876.67   -3306.2745    7331.5034   -7018.8012    78.872211 
     600    1082.4758   -107.27078   0.97944686   -106.29133    9386.0314    4.2833591    4.2833591    4.2833591    9386.0314   -50133.979    70557.107    7734.9658    5508.3308   -7588.3487    19865.138    78.587497 
     700    807.00622    -107.0147   0.73019618    -106.2845    17971.935    4.2771023    4.2771023    4.2771023    17971.935   -36809.085    60522.821    30202.069   -39.223249   -9456.4482    9789.5711    78.243613 
     800    895.30225   -107.10303   0.81008829   -106.29294    656.89257    4.2815255    4.2815255    4.2815255    656.89257   -37902.456    63218.094    -23344.96   -1685.4022   -1604.0611   -1503.7022    78.486614 
     900    810.71362   -107.03023   0.73355072   -106.29668    7680.8425    4.2874324    4.2874324    4.2874324    7680.8425   -53434.304    10959.611    65517.221    4124.9595   -5868.6802   -3874.2343    78.811909 
    1000    1450.1208   -107.59763    1.3120998   -106.28553   -19115.509    4.2903853    4.2903853    4.2903853   -19115.509   -47817.443   -17009.122    7480.0369    7656.4157    4145.0675   -14147.895    78.974867 
    1100    1207.2148   -107.37422    1.0923133    -106.2819   -9200.2259    4.2810455    4.2810455    4.2810455   -9200.2259   -28295.658    2061.3628   -1366.3824     200.1376    -14517.66   -16427.788     78.46022 
    1200    1260.2257   -107.42222    1.1402787   -106.28194   -3373.1006    4.2833684    4.2833684    4.2833684   -3373.1006   -40905.957    10736.329    20050.327    4391.6081     -10890.9   -6886.4429    78.588009 
    1300    963.19204   -107.16239    0.8715164   -106.29088   -7223.8672    4.2870831    4.2870831    4.2870831   -7223.8672   -43493.045   -31025.406    52846.849    2454.0892   -1649.4256   -3751.2831    78.792652 
    1400    412.47668   -106.66889   0.37321756   -106.29568    30056.647    4.2752911    4.2752911    4.2752911    30056.647   -10776.094    40755.875    60190.159     -3017.47   -15684.117   -2650.7273    78.144257 
    1500    1079.9502    -107.2726   0.97716164   -106.29544   -5862.5028    4.2829641    4.2829641    4.2829641   -5862.5028   -12815.384   -21540.252    16768.127   -604.19885    1330.8211    9132.3825    78.565756 
    1600    1115.1943    -107.2958    1.0090512   -106.28675    7788.8563    4.2772015    4.2772015    4.2772015    7788.8563   -14059.137    61430.051   -24004.345    8633.7517   -2085.3376    1487.7404    78.249058 
    1700    1056.7428    -107.2458    0.9561631   -106.28964   -7428.0704    4.2834369    4.2834369    4.2834369   -7428.0704   -40401.275   -7195.8874    25312.952   -3687.9547   -19876.882   -7285.9958    78.591777 
    1800    1354.4761   -107.50482    1.2255584   -106.27926   -19782.655     4.288712     4.288712     4.288712   -19782.655   -34740.625   -21176.203   -3431.1382    3387.8975    6816.5968    10833.152    78.882497 
    1900    836.44046   -107.03826    0.7568289   -106.28143    12229.038    4.2761557    4.2761557    4.2761557    12229.038   -18863.202     7058.165    48492.151   -435.00234   -10778.339   -8469.3656    78.191678 
    2000    632.64326   -106.85603   0.57242891    -106.2836     27366.07    4.2765495    4.2765495    4.2765495     27366.07   -16277.953    47791.365    50584.798    2225.6363   -670.07773   -22474.508    78.213281 
    2100    1446.6565   -107.58469    1.3089652   -106.27572   -39491.688    4.2908975    4.2908975    4.2908975   -39491.688   -55625.946   -33190.843   -29658.275    13799.418     2846.544    6073.1796    79.003154 
    2200    1019.6322   -107.19347   0.92258461   -106.27089    6532.2179    4.2746956    4.2746956    4.2746956    6532.2179   -27950.836    15129.623    32417.867   -4993.1409   -10236.241   -10405.255     78.11161 
    2300    1128.3057   -107.29509    1.0209147   -106.27418    13868.953     4.269149     4.269149     4.269149    13868.953   -1060.9198    23022.483    19645.297    1264.6685   -1483.8534   -13201.302    77.807942 
    2400    999.35133   -107.19634   0.90423408    -106.2921   -13454.209    4.2880312    4.2880312    4.2880312   -13454.209   -26223.267   -24111.311    9971.9505    9034.0968    6659.5738    12455.338    78.844937 
    2500    892.25812   -107.09696   0.80733389   -106.28963    2759.3427    4.2749357    4.2749357    4.2749357    2759.3427    -15386.23   -21263.653    44927.911     491.1914     6717.643   -16184.075    78.124774 
    2600    967.95474   -107.15451   0.87582579   -106.27869    27027.646    4.2597816    4.2597816    4.2597816    27027.646    6665.6696    48939.748    25477.519    2006.0174    3002.0607    13632.779    77.296887 
    2700    606.70449   -106.84219   0.54895897   -106.29323   -8284.9232     4.290763     4.290763     4.290763   -8284.9232   -9966.8489   -17314.058    2426.1374    3276.1565    823.34562   -2788.2442    78.995725 
    2800    1510.5678   -107.63704    1.3667935   -106.27024   -33086.547    4.2868518    4.2868518    4.2868518   -33086.547   -30684.885     -45871.8   -22702.957   -2289.4245    6111.2443    3881.0786    78.779898 
    2900    1042.1392   -107.21441   0.94294947   -106.27146    40929.262    4.2495597    4.2495597    4.2495597    40929.262    26913.109    22246.584    73628.093     10094.33     2385.012    -4348.474    76.741768 
    3000    1067.2696    -107.2653   0.96568796   -106.29961   -4923.9986    4.2712918    4.2712918    4.2712918   -4923.9986    198.40574   -12160.958   -2809.4433   -1773.8862   -2077.8576    5565.7085    77.925163 
    3100    985.86848    -107.1668   0.89203452   -106.27476   -4462.3252    4.2975837    4.2975837    4.2975837   -4462.3252   -11572.674   -33460.436    31646.135   -2013.8317   -963.63463    856.83481    79.373041 
    3200    1071.1676     -107.244   0.96921497   -106.27479   -5823.1392    4.2593685    4.2593685    4.2593685   -5823.1392    -161.0255   -998.66793   -16309.724    3898.9837    4985.8668   -1629.7927    77.274402 
    3300    890.77944   -107.09689   0.80599596    -106.2909    10763.365    4.2521662    4.2521662    4.2521662    10763.365    23701.341    12572.454   -3983.7006   -11649.366   -3299.0116   -3518.2499    76.883066 
    3400    1214.0302   -107.39173      1.09848   -106.29325   -6359.6136    4.2854444    4.2854444    4.2854444   -6359.6136   -24548.286   -17202.676    22672.121    4218.7768   -925.01582   -15168.913     78.70233 
    3500    880.79411   -107.08752   0.79696102   -106.29056    22489.135    4.2681153    4.2681153    4.2681153    22489.135    20376.015    8875.9973    38215.394    2906.4027    11958.215    2828.6853     77.75144 
    3600    918.62597   -107.12408   0.83119209   -106.29289    21683.391    4.2706379    4.2706379    4.2706379    21683.391   -8274.3212     6886.635    66437.858   -10151.858    4723.6087    419.48324    77.889378 
    3700     1189.052   -107.35818    1.0758793    -106.2823   -14830.829    4.2836558    4.2836558    4.2836558   -14830.829   -14990.287   -15805.652   -13696.549     13884.56   -677.87693    5552.2796    78.603828 
    3800    472.81065   -106.70663   0.42780901   -106.27882    6006.9684    4.2675817    4.2675817    4.2675817    6006.9684    1201.2861    21270.579     -4450.96    2575.2434   -3121.6034    6687.3349    77.722277 
    3900    1036.7627   -107.21433    0.9380847   -106.27624    -6291.635     4.274989     4.274989     4.274989    -6291.635    -16175.44     9734.116   -12433.581    -9245.446   -3050.1369    11644.318    78.127693 
    4000    1203.9096   -107.35796    1.0893227   -106.26863   -14540.921    4.2840737    4.2840737    4.2840737   -14540.921   -30573.104   -24902.649    11852.989    17472.767    1387.7813   -1993.9132    78.626834 
    4100    776.27097   -106.97976   0.70238628   -106.27737    14041.118    4.2627103    4.2627103    4.2627103    14041.118    15215.421    6367.5339    20540.401   -9202.1708   -7270.4267     29559.12    77.456426 
    4200    1375.8707   -107.52999    1.2449168   -106.28508    565.16765    4.2681042    4.2681042    4.2681042    565.16765   -16087.451    1772.9887    16009.966    560.59702   -5594.4013   -562.65489    77.750834 
    4300    1143.7478   -107.31666    1.0348871   -106.28178   -26642.966    4.2863791    4.2863791    4.2863791   -26642.966   -15479.064   -37437.585   -27012.248    13985.968   -8504.0643   -12289.688    78.753839 
    4400    549.48035   -106.77716   0.49718137   -106.27998   -3584.0649    4.2715904    4.2715904    4.2715904   -3584.0649   -3787.9179   -15003.972    8039.6949    -6812.896   -2475.6498    22952.132    77.941511 
    4500    1085.2454   -107.25777   0.98195284   -106.27582    28499.495    4.2573817    4.2573817    4.2573817    28499.495    -359.1072    35059.668    50797.923    2830.0452    3501.2469   -3358.3804    77.166313 
    4600    909.51524   -107.12052   0.82294851   -106.29757   -18650.281    4.2788477    4.2788477    4.2788477   -18650.281   -22631.904   -36470.228    3151.2887    5526.7569   -758.03854   -6982.0254    78.339444 
    4700    827.13008   -107.03851   0.74840468   -106.29011     5050.896    4.2846314    4.2846314    4.2846314     5050.896   -10427.271    10929.115    14650.845   -7165.3123    2877.8734   -3481.8869     78.65755 
    4800    1275.7141   -107.42855    1.1542929   -106.27425    4270.9678    4.2764565    4.2764565    4.2764565    4270.9678   -20183.171    38297.791   -5301.7173    7933.4573    10876.448    3929.7949    78.208177 
    4900    920.95435   -107.11022   0.83329885   -106.27692    -7739.839    4.2745196    4.2745196    4.2745196    -7739.839   -36738.411    26781.932   -13263.038    1823.7521   -799.23471    5059.5226    78.101962 
    5000    758.98811   -106.97546   0.68674839   -106.28871    19340.783    4.2862022    4.2862022    4.2862022    19340.783   -11909.719    29311.649    40620.419    3499.2673   -5763.2635    27215.956    78.744091 
    5100    1088.8337   -107.26894   0.98519963   -106.28374   -20944.978    4.2957165    4.2957165    4.2957165   -20944.978   -36577.086    5089.1788   -31347.028    7505.7089   -4559.7351    7192.2129    79.269632 
    5200    1177.0988   -107.33311    1.0650637   -106.26805    73.628765     4.269087     4.269087     4.269087    73.628765   -33102.384    4342.7792    28980.491   -112.88619     2108.837    16103.065    77.804554 
    5300    1029.7888   -107.21582   0.93177451   -106.28404    15144.032    4.2795751    4.2795751    4.2795751    15144.032   -26695.972     16443.31    55684.758    2576.0045   -2043.0692     2240.054    78.379403 
    5400    1332.6072   -107.47495     1.205771   -106.26918    -35306.13    4.3019615    4.3019615    4.3019615    -35306.13   -57104.104   -43167.082   -5647.2032   -2692.7992    2444.2502    -11907.26    79.615855 
    5500    746.05849   -106.93967    0.6750494   -106.26462     19970.64    4.2678592    4.2678592    4.2678592     19970.64   -16269.431    42200.453    33980.898   -2702.7197   -5980.2272    2247.1299    77.737442 
    5600     1259.079   -107.41075    1.1392412   -106.27151   -10660.659    4.2642864    4.2642864    4.2642864   -10660.659     -6725.15    2549.0963   -27805.924     6816.995   -9717.8058    2544.5554    77.542374 
    5700     1030.757    -107.2142   0.93265062   -106.28155   -11556.246    4.2850071    4.2850071    4.2850071   -11556.246   -49814.369    11222.602      3923.03   -17250.952    1475.1874   -2374.4319    78.678239 
    5800     938.3536   -107.12414   0.84904206    -106.2751    5607.3787    4.2874916    4.2874916    4.2874916    5607.3787   -22955.802    49931.169    -10153.23   -1703.7973   -9817.2009    5836.0113    78.815176 
    5900    1159.3085   -107.32081    1.0489667   -106.27185   -6170.1142    4.2779508    4.2779508    4.2779508   -6170.1142   -7543.9514   -15899.596    4933.2044    2688.3777   -9274.4426    21113.875    78.290189 
    6000    998.71541   -107.18093   0.90365869   -106.27727    20887.403    4.2628424    4.2628424    4.2628424    20887.403   -15064.591    20599.288    57127.511   -18523.609   -1321.4081    12301.343    77.463626 
    6100    806.37509   -107.02122   0.72962513    -106.2916     6849.888    4.2867762    4.2867762    4.2867762     6849.888     4256.878    6031.5602    10261.226    7066.4446   -9330.1753    7368.3499     78.77573 
    6200    989.80061   -107.17101   0.89559239   -106.27542   -32426.309    4.2937591    4.2937591    4.2937591   -32426.309   -31433.618   -42211.635   -23633.674   -3491.2571    7172.1475    15292.871    79.161322 
    6300    795.95723   -106.98249   0.72019883   -106.26229    37515.207    4.2539905    4.2539905    4.2539905    37515.207   -957.60527    36811.155    76692.072   -12797.151    3288.8803    4454.4756    76.982064 
    6400    1198.6851   -107.37134    1.0845954   -106.28674    1877.3116    4.2747533    4.2747533    4.2747533    1877.3116    9191.2955    2337.9673    -5897.328     1996.934     862.1064    9031.2524    78.114774 
    6500    979.21101   -107.16147    0.8860107   -106.27546   -29148.466    4.2994077    4.2994077    4.2994077   -29148.466    -46384.35   -45617.983    4556.9352   -7064.0996    17451.882    1273.6188    79.474148 
    6600    1261.5598   -107.40137    1.1414858   -106.25988    8412.0985    4.2556495    4.2556495    4.2556495    8412.0985   -24191.225    16388.903    33038.617   -3835.0069    13243.168    266.65647    77.072163 
    6700     812.1697   -107.00893   0.73486821   -106.27406    31912.953    4.2576039    4.2576039    4.2576039    31912.953     62787.39    32299.536    651.93331    6911.1545    1160.5282    7565.8577      77.1784 
    6800    912.45933   -107.10421   0.82561238    -106.2786   -37057.225    4.2969956    4.2969956    4.2969956   -37057.225   -50145.702   -8773.7226   -52252.251   -9510.0684    4516.4476    2029.9097    79.340461 
    6900    906.70145   -107.08761   0.82040253   -106.26721    2397.5179    4.2769377    4.2769377    4.2769377    2397.5179    -6346.791     16434.76   -2895.4156   -1889.0463    7752.2782    3420.5663    78.234583 
    7000    1167.3999   -107.31519     1.056288    -106.2589    20948.918    4.2574994    4.2574994    4.2574994    20948.918    26000.103    32388.929    4457.7234    460.48942    3274.4665    8142.0406    77.172715 
    7100    993.71871   -107.18012   0.89913757   -106.28099   -10789.796    4.2828063    4.2828063    4.2828063   -10789.796   -28189.424    6372.6921   -10552.656   -9240.9191    1725.2879    -4855.856    78.557076 
    7200     997.6881   -107.17212   0.90272916    -106.2694   -4457.3358    4.2858368    4.2858368    4.2858368   -4457.3358   -27727.401    18030.012   -3674.6182   -3672.2692    1882.6897   -18854.807     78.72395 
    7300    1007.4386   -107.17635   0.91155159    -106.2648    14181.909    4.2612822    4.2612822    4.2612822    14181.909     52220.18    18644.082   -28318.537   -6647.7613    1231.6014    2600.1863    77.378606 
    7400    851.36008   -107.06063   0.77032849    -106.2903    5710.7469    4.2648614    4.2648614    4.2648614    5710.7469     2863.269   -1746.5014    16015.473   -2046.8359   -859.99537   -5128.1348    77.573746 
    7500    726.47948    -106.9542    0.6573339   -106.29687    5505.3077     4.287986     4.287986     4.287986    5505.3077     -2873.86   -9347.0272     28736.81    9603.8644   -6126.2769   -13727.589    78.842445 
    7600    1107.3113   -107.27834    1.0019185   -106.27642   -6883.3305    4.2865906    4.2865906    4.2865906   -6883.3305   -20401.704   -12129.224    11880.937   -6561.7423     575.6707    3792.7561    78.765499 
    7700    1066.5996   -107.22761   0.96508171   -106.26253    15612.887    4.2623177    4.2623177    4.2623177    15612.887   -25821.309   -16193.965    88853.935    4943.7006    383.16822   -5315.2626    77.435027 
    7800    641.90517   -106.86465   0.58080928   -106.28384    25487.186    4.2704699    4.2704699    4.2704699    25487.186    35052.812    20900.896    20507.851    3593.7322   -6531.8361   -4989.6478    77.880188 
    7900    1079.7063   -107.26084   0.97694094    -106.2839   -15367.623    4.2924907    4.2924907    4.2924907   -15367.623   -38122.278    5016.3093     -12996.9   -3521.0475   -5138.9028   -601.42875    79.091187 
    8000    782.26858   -106.98289   0.70781305   -106.27507    468.42561    4.2818408    4.2818408    4.2818408    468.42561   -348.76142   -26331.039    28085.077   -2541.6516   -8276.3618   -7596.5011    78.503958 
    8100    1081.3959    -107.2455   0.97846978   -106.26703    9798.9818    4.2602635    4.2602635    4.2602635    9798.9818   -5394.8266    11636.589    23155.183   -683.67906   -7675.1699    10428.792    77.323124 
    8200    1186.6043   -107.35666    1.0736645   -106.28299   -12613.696    4.2782492    4.2782492    4.2782492   -12613.696   -17003.976   -22395.672    1558.5599   -344.89185   -860.32268    529.53429    78.306576 
    8300    1194.7707    -107.3585    1.0810536   -106.27744   -42621.381    4.2959847    4.2959847    4.2959847   -42621.381   -53626.415   -48000.292   -26237.437     9363.584   -6515.7775     3006.573    79.284479 
    8400    918.56999   -107.10006   0.83114143   -106.26891    3451.3858    4.2680148    4.2680148    4.2680148    3451.3858    22114.487     8807.434   -20567.763   -3908.6915   -2794.8748    8479.1875    77.745945 
    8500    1144.3996   -107.31424    1.0354768   -106.27876    4732.6307    4.2616235    4.2616235    4.2616235    4732.6307    24263.787    4280.4911   -14346.386    10378.129    12544.177    9543.2279      77.3972 
    8600    1015.2172   -107.20663   0.91858989   -106.28804   -33054.164    4.2934765    4.2934765    4.2934765   -33054.164   -27639.498   -31017.314    -40505.68     7670.074   -20981.017    3777.9755    79.145691 
    8700    1029.9808   -107.20494    0.9319483   -106.27299   -21342.511    4.2779945    4.2779945    4.2779945   -21342.511   -32011.408     12929.07   -44945.196    1431.8621   -3326.3269    3636.3398     78.29259 
    8800    1353.7027   -107.48783    1.2248586   -106.26297   -5450.4704    4.2596942    4.2596942    4.2596942   -5450.4704   -5277.6674    -11205.42    131.67638    10721.056    18546.936    11697.097    77.292127 
    8900    1007.4846    -107.1875   0.91159321   -106.27591   -33095.775    4.2914079    4.2914079    4.2914079   -33095.775   -47148.762   -26914.347   -25224.215    8940.6282   -24037.962    7025.4968    79.031346 
    9000     902.0489   -107.07887    0.8161928   -106.26267   -13903.462    4.2840362    4.2840362    4.2840362   -13903.462   -28162.126    22334.937   -35883.198     4692.289    1754.5873    -2072.201     78.62477 
    9100    1550.0657   -107.65357    1.4025321   -106.25104   -21556.989    4.2685596    4.2685596    4.2685596   -21556.989   -18644.711   -19329.908   -26696.348    3611.2687    11416.196   -1042.1671    77.775724 
    9200    1213.8217   -107.36318    1.0982914   -106.26489   -32176.036    4.2919974    4.2919974    4.2919974   -32176.036   -46588.267   -17646.038   -32293.804    19465.839   -8796.2001    1943.6718    79.063922 
    9300    921.51844   -107.09753   0.83380925   -106.26372    -23049.19    4.2848488    4.2848488    4.2848488    -23049.19    9192.3624    -37839.59   -40500.341    2626.4622    17018.231    10574.806    78.669519 
    9400    1059.1636   -107.21839   0.95835345   -106.26003    13531.697    4.2611952    4.2611952    4.2611952    13531.697    21999.039    8774.7415    9821.3117   -10844.936    6573.0286    -5184.982    77.373863 
    9500    1340.9708    -107.4881    1.2133386   -106.27477   -15450.446    4.2763997    4.2763997    4.2763997   -15450.446    -4289.431   -23465.853   -18596.055     13785.22   -8981.7033   -1345.6273    78.205061 
    9600     671.2521   -106.88403   0.60736301   -106.27667   -15413.079    4.2893949    4.2893949    4.2893949   -15413.079    31243.037   -20877.221   -56605.054   -1440.5656    10266.712    3063.0912    78.920184 
    9700    1179.1548   -107.32989     1.066924   -106.26297    4554.5661    4.2695307    4.2695307    4.2695307    4554.5661    7240.2213    10519.193   -4095.7162   -5672.6204    12387.266   -1110.3201    77.828814 
    9800    1154.1291   -107.31098    1.0442803    -106.2667    9854.8397    4.2678205    4.2678205    4.2678205    9854.8397    36435.027    2060.1529   -8930.6611    6380.8824    3117.4592   -4523.1721    77.735329 
    9900    637.49692   -106.86065   0.57682061   -106.28383   -33238.456    4.2879163    4.2879163    4.2879163   -33238.456   -1016.1289   -51288.201   -47411.038   -1409.5004    20478.907   -8248.3457    78.838598 
   10000     1004.253   -107.17914    0.9086692   -106.27047    9808.4889    4.2710539    4.2710539    4.2710539    9808.4889   -7504.4159    30260.769    6669.1138    2090.1035    10899.903     1785.989    77.912145 
   10100    916.96287   -107.10329   0.82968727    -106.2736    24661.468     4.263895     4.263895     4.263895    24661.468    50436.658     6332.612    17215.136    5812.7161   -1612.0634    4497.3285    77.521025 
   10200    989.72551   -107.17982   0.89552444    -106.2843   -30484.382    4.2903695    4.2903695    4.2903695   -30484.382   -12320.977   -47832.719    -31299.45   -9544.8219    19662.775    217.17553    78.973991 
   10300    1258.4032   -107.41165    1.1386296   -106.27302    15125.585    4.2755543    4.2755543    4.2755543    15125.585   -12448.669    14816.782    43008.643     -8871.76    -10029.79   -81.496362     78.15869 
   10400    760.42525   -106.96272   0.68804875   -106.27468    27514.727    4.2571176    4.2571176    4.2571176    27514.727    65366.468    17874.828   -697.11672    4716.8242    3011.4563    10795.289    77.151956 
   10500     958.0315   -107.15635   0.86684703    -106.2895   -9258.7632    4.2778164    4.2778164    4.2778164   -9258.7632    -9893.255   -40533.691    22650.656   -2705.7335    13029.225    3792.0011    78.282815 
   10600    1421.0395   -107.55856    1.2857864   -106.27277   -16798.908    4.2868332    4.2868332    4.2868332   -16798.908   -30760.864   -39640.409    20004.549   -13802.697   -19174.975    4516.9646    78.778869 
   10700    924.51985   -107.10562   0.83652499   -106.26909    16206.652     4.262884     4.262884     4.262884    16206.652    31427.672    34541.002   -17348.719    7723.4889    1761.4395    2734.6316    77.465893 
   10800    1035.4032   -107.21685   0.93685454      -106.28    14700.667      4.26975      4.26975      4.26975    14700.667   -21652.653    23985.194    41769.459   -4309.0521    9932.6266    97.016027    77.840811 
   10900    1287.0771   -107.43756    1.1645744   -106.27298    -24741.61    4.2929853    4.2929853    4.2929853    -24741.61   -33058.341   -30805.664   -10360.825   -9262.7254   -10801.938    439.15844     79.11853 
   11000    923.41091   -107.10477    0.8355216   -106.26925    2259.2283     4.271739     4.271739     4.271739    2259.2283    5593.4339    662.83955    521.41141   -1251.2415    15119.839   -8352.8898    77.949642 
   11100     884.2424   -107.07086   0.80008111   -106.27078    22128.694    4.2634738    4.2634738    4.2634738    22128.694    13361.397    23641.031    29383.654   -3745.4099   -4210.8707     4146.934    77.498054 
   11200    1239.1439   -107.39544    1.1212035   -106.27424   -30805.209    4.2847872    4.2847872    4.2847872   -30805.209   -49589.307   -25571.673   -17254.647   -707.61009    -19379.62   -7838.1633    78.666128 
   11300     1264.213    -107.4114    1.1438865   -106.26752   -8126.6813    4.2761935    4.2761935    4.2761935   -8126.6813   -2650.7602   -3567.7315   -18161.552    2655.0923    9165.7965   -5277.7575     78.19375 
   11400    1140.0209   -107.30203    1.0315148   -106.27052   -3472.9955     4.270992     4.270992     4.270992   -3472.9955   -24884.928    10173.593    4292.3478   -3357.3835   -12780.906    7386.6167    77.908755 
   11500    1067.3921   -107.24748   0.96579878   -106.28169   -7408.9239    4.2720948    4.2720948    4.2720948   -7408.9239   -32253.563    20946.371    -10919.58   -13094.709   -21617.656   -1969.4437    77.969124 
   11600    1189.5324   -107.35693    1.0763139   -106.28061   -3690.9374    4.2673912    4.2673912    4.2673912   -3690.9374   -4421.0306   -11080.575    4428.7938    5481.2092    12193.336    8452.1351     77.71187 
   11700    622.72238   -106.85124    0.5634523   -106.28778     -18335.5    4.2860821    4.2860821    4.2860821     -18335.5   -30113.774   -10603.464   -14289.263    523.23632   -20881.512   -4790.3939     78.73747 
   11800    1073.6045   -107.24953   0.97141992   -106.27811     -12503.5    4.2725554    4.2725554    4.2725554     -12503.5   -30666.171   -10594.606    3750.2762   -4279.9171    -14800.24    7606.9783    77.994346 
   11900     1180.701   -107.33695    1.0683231   -106.26863     36114.72    4.2454679    4.2454679    4.2454679     36114.72    9461.2524    72405.138     26477.77    3549.9724    11245.921    3679.5039    76.520302 
   12000    764.64014    -106.9942   0.69186246   -106.30234   -8465.7444    4.2813953    4.2813953    4.2813953   -8465.7444   -17859.309    3017.2328   -10555.157   -458.71907    -25347.33    1723.4258    78.479457 
   12100    1097.1391   -107.26497   0.99271454   -106.27225   -10220.649    4.2885501    4.2885501    4.2885501   -10220.649   -26132.426    24961.445   -29490.964    5232.9342    -5838.848    4280.0565    78.873562 
   12200    976.62398   -107.13955    0.8836699   -106.25588    24044.988    4.2478868    4.2478868    4.2478868    24044.988    7581.3464    26897.703    37655.914   -916.95911    4199.1545   -6714.5083    76.651174 
   12300    526.83396   -106.76685   0.47669044   -106.29016   -22622.475    4.2677287    4.2677287    4.2677287   -22622.475    -41691.69    12289.692   -38465.427    5139.2046   -36881.222    4721.6815    77.730312 
   12400    1203.8188    -107.3716    1.0892406   -106.28236    -7644.184    4.2776742    4.2776742    4.2776742    -7644.184   -4824.9321   -31313.739    13206.119   -4353.7523   -3295.2542   -16646.512    78.275009 
   12500    793.02331   -107.00792   0.71754416   -106.29038    8460.2117    4.2702477    4.2702477    4.2702477    8460.2117    9864.8788    36404.169   -20888.413    4563.1006    3630.0892    12425.256     77.86803 
   12600    1000.8075   -107.19884   0.90555166   -106.29329   -25028.613     4.266739     4.266739     4.266739   -25028.613    -40325.24   -5230.7369   -29529.862    13659.115   -29797.694   -8345.6286    77.676246 
   12700    1003.0716   -107.19893    0.9076003   -106.29133    23822.635    4.2613453    4.2613453    4.2613453    23822.635    16803.726    18715.996    35948.184    4861.3205    10220.519   -15099.444    77.382039 
   12800    1228.2353   -107.40526    1.1113332   -106.29392   -18603.169    4.2764622    4.2764622    4.2764622   -18603.169   -8366.5093   -12666.045   -34776.953   -451.71099   -8445.8279    14261.642    78.208495 
   12900    610.39123   -106.84595   0.55229481   -106.29366    3849.2161    4.2744328    4.2744328    4.2744328    3849.2161    -26369.75   -10846.876    48764.274    5806.6632   -11286.671    -4174.792    78.097205 
   13000    1223.1518   -107.39463    1.1067335    -106.2879   -11583.739    4.2629789    4.2629789    4.2629789   -11583.739    5673.6691    -34382.79   -6042.0959    13587.798    2844.3872   -3556.7982    77.471069 
   13100     942.0136    -107.1434   0.85235371   -106.29105    31013.936    4.2657696    4.2657696    4.2657696    31013.936    14775.044    36036.651    42230.114   -3901.1213   -14625.912    8751.0618    77.623314 
   13200     1077.924   -107.26002   0.97532824   -106.28469   -38938.989    4.2913661    4.2913661    4.2913661   -38938.989   -26740.884   -38312.634   -51763.449    10619.134   -3010.3097    -12304.42    79.029038 
   13300    1026.9553   -107.20612   0.92921071   -106.27691   -4690.8115     4.263115     4.263115     4.263115   -4690.8115   -8252.0056   -13263.404    7442.9747    10030.968    6650.5652   -3442.6533    77.478488 
   13400    1268.6488   -107.41868    1.1479001   -106.27078    29514.238    4.2473725    4.2473725    4.2473725    29514.238    37960.903    45417.178    5164.6341    -1076.835   -11100.341   -751.44673    76.623334 
   13500    719.69094   -106.93597   0.65119149   -106.28478   -37083.585    4.2900115    4.2900115    4.2900115   -37083.585   -29691.583   -58009.627   -23549.545    10859.262    3126.1837   -8208.0176    78.954221 
   13600    895.91079   -107.08616   0.81063891   -106.27552   -15803.162     4.273527     4.273527     4.273527   -15803.162    -9916.698    -29029.04    -8463.747     3870.714    12222.383   -4132.2393    78.047563 
   13700    1223.6211   -107.37883    1.1071581   -106.27167    32538.452    4.2522276    4.2522276    4.2522276    32538.452    11880.252    42025.522    43709.583   -3343.6827   -11649.887   -13130.273    76.886397 
   13800     1058.759   -107.25325   0.95798743   -106.29527   -10089.342    4.2716383    4.2716383    4.2716383   -10089.342    7956.8025   -16792.285   -21432.544   -4100.2262   -3960.9983   -15033.506     77.94413 
   13900    739.59731   -106.96132   0.66920319   -106.29212    7939.0056    4.2836268    4.2836268    4.2836268    7939.0056   -31999.755    21413.853    34402.919    3730.9602    210.32732   -1189.1096    78.602232 
   14000    1253.9186   -107.41118    1.1345719   -106.27661   -10743.527    4.2740662    4.2740662    4.2740662   -10743.527    6992.3998    -31282.46     -7940.52   -971.86378    368.61252   -3374.2836     78.07711 
   14100    652.93937   -106.87308   0.59079326   -106.28229    19052.096    4.2502266    4.2502266    4.2502266    19052.096    26739.883    10766.123     19650.28   -2522.2756    1184.0661   -23189.468    76.777904 
   14200    1127.1757   -107.32703    1.0198923   -106.30714    1589.2593    4.2647558    4.2647558    4.2647558    1589.2593    8344.8746    -6588.854    3011.7574    5984.1679    7100.7058    15503.585    77.567984 
   14300    983.72603   -107.18307   0.89009599   -106.29297    3087.7497    4.2895214    4.2895214    4.2895214    3087.7497   -15114.784    21144.681    3233.3521   -7993.4109    5433.9907   -8189.3684    78.927166 
   14400    1079.3565   -107.25348   0.97662446   -106.27686     1365.317    4.2729236    4.2729236    4.2729236     1365.317   -93.205078   -9621.3344     13810.49   -1714.6496   -1872.8419   -12667.022    78.014508 
   14500    947.68681   -107.12617   0.85748695   -106.26868    14139.279    4.2573373    4.2573373    4.2573373    14139.279    2592.2331    41586.101   -1760.4983   -272.80055    13203.801    17132.006    77.163904 
   14600    1153.8577   -107.32283    1.0440347   -106.27879     4210.442    4.2692381    4.2692381    4.2692381     4210.442    26271.025   -11236.481   -2403.2179   -8579.1422   -1124.5329   -19718.148    77.812818 
   14700     977.8901   -107.16867   0.88481551   -106.28385    2003.0789    4.2792943    4.2792943    4.2792943    2003.0789   -21092.531     6175.746    20926.022    3304.0338    8069.1712   -4492.7111    78.363975 
   14800    1062.5718   -107.24454   0.96143733    -106.2831   -19237.095    4.2698132    4.2698132    4.2698132   -19237.095   -17653.017   -10821.642   -29236.626    3692.9849    16466.899    14520.584    77.844265 
   14900    890.82667    -107.0841   0.80603869   -106.27807    36032.762    4.2608391    4.2608391    4.2608391    36032.762    27774.294    62188.711    18135.283   -12504.636   -13315.103   -6851.1144    77.354468 
   15000    1338.7616   -107.49334    1.2113396     -106.282   -15115.394    4.2761898    4.2761898    4.2761898   -15115.394   -16049.165   -16923.785   -12373.231    4645.4194    6005.1271    15188.161     78.19355 
   15100    470.19963    -106.7161    0.4254465   -106.29065   -5488.7066    4.2786317    4.2786317    4.2786317   -5488.7066   -22641.178    51694.077   -45519.018     55.42908    14662.631    3359.6376     78.32758 
   15200    1397.9146   -107.54712    1.2648625   -106.28226   -289.07371    4.2621932    4.2621932    4.2621932   -289.07371    11006.889   -14737.749    2863.6392   -7213.7921   -9858.9447    9325.9132    77.428239 
   15300    769.00978   -106.98621   0.69581621   -106.29039    15951.697    4.2707302    4.2707302    4.2707302    15951.697    15565.224    15654.976     16634.89    4444.0392    16345.977    995.34979    77.894428 
   15400    906.70822   -107.10437   0.82040865   -106.28396    -40859.62    4.2896387    4.2896387    4.2896387    -40859.62   -32541.391   -44652.247   -45385.223   -7833.5717    3648.6047    17449.145    78.933645 
   15500    1006.3157   -107.17851   0.91053561   -106.26797    18330.523    4.2724152    4.2724152    4.2724152    18330.523    8422.3712    33556.652    13012.545    9517.9795   -131.46833    416.11435    77.986664 
   15600    1279.6516   -107.42699    1.1578557   -106.26914   -3663.9515    4.2582395    4.2582395    4.2582395   -3663.9515   -764.13705   -7562.0318   -2665.6857    2828.3338    21951.234    674.16828    77.212969 
   15700    581.83625   -106.81745   0.52645766     -106.291   -1352.4221    4.2799768    4.2799768    4.2799768   -1352.4221   -9926.8045    18478.632   -12609.094   -7482.4077   -5154.7841    16561.828    78.401476 
   15800    1383.7274   -107.52658    1.2520256   -106.27456   -23078.889    4.2813803    4.2813803    4.2813803   -23078.889   -19448.113   -38637.373    -11151.18    1841.6586      15731.4   -15650.286    78.478629 
   15900     710.6132   -106.92255   0.64297776   -106.27957    19980.803    4.2538239    4.2538239    4.2538239    19980.803    20424.748    18902.138    20615.524    10700.211    16070.332    11724.858    76.973017 
   16000    946.77087   -107.14925   0.85665818   -106.29259    1034.5601    4.2644306    4.2644306    4.2644306    1034.5601   -10317.813    3721.2795    9700.2139   -11814.208   -11584.983      1048.49    77.550244 
   16100    1086.6212   -107.26719    0.9831977   -106.28399   -9823.3183    4.2825341    4.2825341    4.2825341   -9823.3183   -24385.707    10870.798   -15955.046    2022.2101    12421.634   -79.458082    78.542094 
   16200    1003.1631   -107.18684    0.9076831   -106.27916    12395.463    4.2574478    4.2574478    4.2574478    12395.463   -13845.908    16829.297    34203.001    11515.856    6385.3154    5824.3944    77.169912 
   16300    1112.7808   -107.29197    1.0068675   -106.28511   -3688.1891     4.262231     4.262231     4.262231   -3688.1891   -11377.341    7748.1048    -7435.331   -12336.273   -2759.1044    2868.2719    77.430303 
   16400    1067.9373   -107.24552   0.96629214   -106.27923   -19972.012    4.2788511    4.2788511    4.2788511   -19972.012   -28530.134   -27782.315   -3603.5855    14816.959     3161.986   -2025.9288    78.339629 
   16500    869.55923     -107.064   0.78679547   -106.27721    8307.6088    4.2629126    4.2629126    4.2629126    8307.6088    7750.0546    9774.6294    7398.1424   -6388.4699    2058.4788    378.11881    77.467456 
   16600    999.35764   -107.18682    0.9042398   -106.28258   -12643.841    4.2644006    4.2644006    4.2644006   -12643.841   -751.40046   -14670.323   -22509.801    -3397.282   -5755.8149    5018.6077    77.548606 
   16700    944.79286   -107.13625   0.85486844   -106.28138    16187.133    4.2590442    4.2590442    4.2590442    16187.133   -908.90319    47300.169    2170.1323    11874.246   -8432.7231   -16587.812    77.256753 
   16800     1314.121   -107.47282    1.1890443   -106.28377   -1864.3848    4.2657738    4.2657738    4.2657738   -1864.3848    6533.6289   -16676.028    4549.2447   -8017.0663    4202.1759    4727.8186    77.623543 
   16900    678.56672   -106.89956   0.61398143   -106.28558   -5541.1819    4.2805092    4.2805092    4.2805092   -5541.1819    3305.5952    19664.811   -39593.951   -95.513322    -12999.61   -7042.7063    78.430741 
   17000    1395.4851   -107.53967    1.2626642   -106.27701   -8518.4237    4.2509965    4.2509965    4.2509965   -8518.4237   -8578.6908   -18791.744    1815.1638    13809.646     1396.135   -22623.706    76.819637 
   17100    752.44859   -106.96751    0.6808313   -106.28668    25547.334     4.249356     4.249356     4.249356    25547.334    37913.599    13207.411    25520.991   -7711.4437    4159.2542    15120.901    76.730736 
   17200    721.69517   -106.94355   0.65300496   -106.29054    -41241.09    4.2860738    4.2860738    4.2860738    -41241.09   -2524.6169   -64651.365   -56547.289   -2259.0149   -15780.035   -22911.588    78.737013 
   17300    1061.9959   -107.24653   0.96091622   -106.28562    7647.5822    4.2583775    4.2583775    4.2583775    7647.5822   -11110.824    31415.555     2638.016    14309.459    5982.9703   -13460.613    77.220477 
   17400    1091.1294   -107.27065   0.98727684   -106.28337    22350.223    4.2431483    4.2431483    4.2431483    22350.223    31081.589    24525.382    11443.698   -4364.5662   -2557.1415    12150.003    76.394945 
   17500    937.52663    -107.1488    0.8482938   -106.30051   -35483.102    4.2705978    4.2705978    4.2705978   -35483.102   -5252.1533   -46778.508   -54418.643   -13895.314   -1065.5875   -26984.562    77.887186 
   17600    1031.3407   -107.22629   0.93317874   -106.29311    11219.311    4.2606317    4.2606317    4.2606317    11219.311    4033.7459    39696.777    -10072.59    4638.4716    4871.4687    943.53758    77.343172 
   17700    1115.3199   -107.30437    1.0091649   -106.29521   -6768.4931    4.2606857    4.2606857    4.2606857   -6768.4931   -11618.312   -23470.925    14783.758   -7272.5121   -12708.906    -8116.112    77.346113 
   17800    523.29475   -106.77687   0.47348808   -106.30338    4654.2845    4.2604795    4.2604795    4.2604795    4654.2845     24842.22    22380.984   -33260.351   -4049.4633    4598.9875   -13413.614    77.334883 
   17900    1143.4605   -107.33324    1.0346271   -106.29861    2830.5182    4.2572075    4.2572075    4.2572075    2830.5182   -2803.5125    -1647.914    12942.981    5793.9442   -4895.8995   -5780.6918    77.156845 
   18000    1160.9028   -107.34767    1.0504093   -106.29726    44.155473    4.2679718    4.2679718    4.2679718    44.155473    1169.8846   -9260.4451    8223.0269   -13000.144   -9996.9512    3970.1282    77.743595 
   18100    928.71529   -107.13528   0.84032112   -106.29496   -8885.0692    4.2669309    4.2669309    4.2669309   -8885.0692    18786.813   -8135.8725   -37306.149    440.46259    7581.4511    -5933.615     77.68673 
   18200    1194.6886   -107.36809    1.0809794   -106.28711    5204.1273    4.2478706    4.2478706    4.2478706    5204.1273   -12646.869    16356.276    11902.975   -3991.4705    -5355.208    -33.25246    76.650299 
   18300    816.54206   -107.04237   0.73882441   -106.30355    27000.536    4.2619599    4.2619599    4.2619599    27000.536    5058.1953    57735.723    18207.691   -781.26082    -3968.712   -739.41478     77.41553 
   18400    1197.0068   -107.37994    1.0830769   -106.29686    -23465.55    4.2748213    4.2748213    4.2748213    -23465.55   -17731.378   -31134.922   -21530.349   -5116.0771    5031.0014   -18887.279    78.118502 
   18500    429.42938   -106.68398   0.38855673   -106.29542     26271.89    4.2494956    4.2494956    4.2494956     26271.89    4574.7136    42059.674    32181.283   -252.37841    -4300.916    6664.6235    76.738298 
   18600    1307.4029   -107.47932    1.1829656   -106.29635    5066.7392    4.2568977    4.2568977    4.2568977    5066.7392   -12086.172    12371.018    14915.372   -4564.4523   -6356.2601   -10814.572        77.14 
   18700    1141.5955   -107.32312    1.0329396   -106.29018    13442.052    4.2739426    4.2739426    4.2739426    13442.052   -5043.9352    31941.659    13428.431   -3383.9304    3044.9257    3317.7205    78.070336 
   18800    848.95459   -107.05864   0.76815196   -106.29049   -4307.5206    4.2650934    4.2650934    4.2650934   -4307.5206   -39181.394    14454.409    11804.424    3348.5197    211.15669    4023.9905    77.586408 
   18900    1024.9198   -107.21019   0.92736897   -106.28282    13540.456    4.2633506    4.2633506    4.2633506    13540.456   -580.51957    43337.029   -2135.1404   -5161.6989   -1455.3807    5037.6584    77.491333 
   19000     1329.333   -107.48041    1.2028084    -106.2776   -1534.3816    4.2635586    4.2635586    4.2635586   -1534.3816   -28307.062   -2410.7965    26114.714    2682.9575    3828.0516    12738.231    77.502676 
   19100    568.53969   -106.80536   0.51442666   -106.29094   -12563.025    4.2658596    4.2658596    4.2658596   -12563.025   -43225.083    25969.883   -20433.875   -4355.6572   -2026.5336   -6025.6235    77.628226 
   19200    1205.5131   -107.37567    1.0907736    -106.2849   -6637.1557    4.2654092    4.2654092    4.2654092   -6637.1557    530.23515   -11000.996   -9440.7066   -4202.4202    2329.2239    11285.405    77.603641 
   19300    1152.0885    -107.3308    1.0424339   -106.28837    6397.8081    4.2691391    4.2691391    4.2691391    6397.8081   -27475.639    27186.487    19482.576     2137.134    1545.7341   0.58810357    77.807401 
   19400     762.9712   -106.98439   0.69035238   -106.29404   -7862.0689    4.2746487    4.2746487    4.2746487   -7862.0689   -46121.133   -1672.9152    24207.841    1166.3185   -11194.539    8206.3371    78.109036 
   19500    941.97864   -107.13084   0.85232207   -106.27852    30102.454    4.2594731    4.2594731    4.2594731    30102.454   -2414.7147    38126.521    54595.557    4053.7097    4036.2365   -1370.3395    77.280094 
   19600    889.36584   -107.08687   0.80471691   -106.28215    8060.4119     4.263217     4.263217     4.263217    8060.4119   -28215.256   -2750.2196    55146.711    399.52467   -1127.4131   -2858.2797    77.484051 
   19700    781.04008   -106.99642   0.70670148   -106.28972   -31102.059    4.2823736    4.2823736    4.2823736   -31102.059   -64012.744   -839.51392   -28453.919      201.703   -11766.765    6697.1357    78.533265 
   19800    1248.3266   -107.41097    1.1295121   -106.28145    8845.7181    4.2529541    4.2529541    4.2529541    8845.7181   -14114.042    16690.795    23960.402   -6743.9243   -1621.6651   -10398.234    76.925811 
   19900    1127.3586     -107.309    1.0200578   -106.28894   -3244.0909    4.2528849    4.2528849    4.2528849   -3244.0909    -17689.74    10143.748   -2186.2808   -1909.0265     1260.945    -6645.246    76.922056 
   20000    817.27751   -107.03177   0.73948987   -106.29228   -32013.784     4.284871     4.284871     4.284871   -32013.784    -65497.34    -7220.866   -23323.145   -171.03301   -14249.802   -10836.751    78.670745 
   20100    1101.6393    -107.2773   0.99678638   -106.28051    5524.8847    4.2654097    4.2654097    4.2654097    5524.8847   -41534.397   -4527.6683    62636.719   -9496.3435   -29.500165   -4806.3346    77.603671 
   20200    1045.4114    -107.2255   0.94591023   -106.27959    18401.881    4.2509776    4.2509776    4.2509776    18401.881   -7403.8338   -17414.424      80023.9   -1533.7411   -11829.453   -9489.5875    76.818613 
   20300    805.30474   -107.02852   0.72865665   -106.29986   -18981.765     4.277857     4.277857     4.277857   -18981.765   -37426.015   -24986.377     5467.097   -3047.7205   -11603.878   -1187.2206     78.28504 
   20400    1308.7417   -107.46883     1.184177   -106.28466   -28986.993    4.2795423    4.2795423    4.2795423   -28986.993   -48043.273   -40098.894     1181.188   -12048.979    4230.0377    12544.655    78.377603 
   20500    1474.5919    -107.6108    1.3342418   -106.27656     7493.672    4.2567573    4.2567573    4.2567573     7493.672   -5701.6258   -297.87745    28480.519    2383.0714    2634.8133    13049.336    77.132369 
   20600    551.68802   -106.79379   0.49917892   -106.29461    8206.5064    4.2666014    4.2666014    4.2666014    8206.5064   -37245.147   -4006.2866    65870.953   -10173.331   -6241.2429   -921.70632    77.668733 
   20700    682.46341   -106.91162   0.61750724   -106.29411   -10867.226    4.2790548    4.2790548    4.2790548   -10867.226   -51734.943    -28365.29    47498.555    -9891.781    19605.704    9486.7101    78.350821 
   20800    1289.7873   -107.44682    1.1670267   -106.27979    19566.559    4.2510564    4.2510564    4.2510564    19566.559   -7534.5574    15242.145    50992.089   -847.98503    2995.9559    10790.598    76.822883 
   20900    1128.8892    -107.3214    1.0214427   -106.29995   -25144.582    4.2655649    4.2655649    4.2655649   -25144.582   -40107.095   -17641.946   -17684.706    -9556.353   -7306.6782    940.18883    77.612139 
   21000    1114.5889   -107.29325    1.0085034   -106.28475   -41701.803    4.2855268    4.2855268    4.2855268   -41701.803   -54617.775   -49123.583    -21364.05    5039.2733    21103.993    17177.421    78.706869 
   21100    1026.5831   -107.20818   0.92887395    -106.2793     27675.13     4.257433     4.257433     4.257433     27675.13    5509.0723   -17932.439    95448.758     4095.147   -4814.3017    13670.829    77.169107 
   21200    831.07642   -107.04382   0.75197541   -106.29185     30085.89    4.2583686    4.2583686    4.2583686     30085.89   -56.405337    10111.977    80202.097   -9464.9605   -9315.9341     2637.994    77.219994 
   21300    729.72019   -106.95086   0.66026616    -106.2906    -29062.76     4.292341     4.292341     4.292341    -29062.76   -63091.213   -40822.184    16725.117    12270.749    13753.216    11666.648    79.082913 
   21400    1263.3308   -107.42053    1.1430883   -106.27744   -4113.8482    4.2641555    4.2641555    4.2641555   -4113.8482   -27277.187   -16050.574    30986.217    2546.4337   -5419.5773    9694.8413    77.535235 
   21500    1147.8279   -107.31363    1.0385788   -106.27505    36489.943    4.2450296    4.2450296    4.2450296    36489.943    24747.296    39275.958    45446.574   -13480.581    3570.1334   -8228.3011    76.496605 
   21600    892.66456   -107.10151   0.80770165   -106.29381   -22058.578    4.2840901    4.2840901    4.2840901   -22058.578   -57457.873   -8811.9589    94.096484    6857.0247    9701.1533   -405.60004     78.62774 
   21700    910.41554   -107.10857   0.82376312   -106.28481    2677.8042    4.2740383    4.2740383    4.2740383    2677.8042   -32311.385   -34519.916    74864.713   -6039.2657   -11879.142   -9174.5659    78.075581 
   21800    954.88668   -107.13677   0.86400153   -106.27277    35091.082    4.2432852    4.2432852    4.2432852    35091.082    14960.435    35272.416    55040.394    -6989.933    8972.9141   -15717.779     76.40234 
   21900    756.64271   -106.98109   0.68462623   -106.29646    12397.226    4.2645345    4.2645345    4.2645345    12397.226   -10467.334    18521.011    29137.999    6107.8956     7134.904     46.82895    77.555908 
   22000    1304.9119   -107.45745    1.1807117   -106.27674   -20463.594    4.2827204    4.2827204    4.2827204   -20463.594   -28096.682   -26275.576   -7018.5242   -3619.3698   -13433.458   -8085.7439    78.552349 
   22100    1125.7113   -107.29612    1.0185673   -106.27756    1696.3836    4.2570236    4.2570236    4.2570236    1696.3836   -14932.748    13991.898    6030.0012   -1927.8301     19590.14   -12737.508    77.146846 
   22200    927.31129   -107.12302   0.83905074   -106.28397    1824.6758    4.2516502    4.2516502    4.2516502    1824.6758   -24897.027    16859.931    13511.124      2847.43    4912.8663    10194.203    76.855078 
   22300    925.86764   -107.12051    0.8377445   -106.28276   -11743.451    4.2778669    4.2778669    4.2778669   -11743.451   -36766.622   -20025.228    21561.498   -1516.8959   -3958.3851    1631.0558    78.285583 
   22400    600.01797   -106.82173   0.54290886   -106.27882    -1596.551    4.2730476    4.2730476    4.2730476    -1596.551   -54927.394    26129.684    24008.057    10326.611    25048.367     5756.222    78.021303 
   22500    959.11303   -107.13757   0.86782563   -106.26974    12427.264    4.2600698    4.2600698    4.2600698    12427.264   -33651.162    8742.9684    62189.985    1672.7291   -4232.4638   -2184.0965    77.312575 
   22600     1201.622   -107.35847    1.0872528   -106.27121    2085.9921    4.2661768    4.2661768    4.2661768    2085.9921    4333.1623    -18833.54    20758.354   -9712.0737    1919.7541   -4663.7663    77.645545 
   22700    1017.6748    -107.2007   0.92081351   -106.27988   -11676.544    4.2648449    4.2648449    4.2648449   -11676.544   -33541.495    14557.631   -16045.769    11402.669    20258.993    2804.0374    77.572847 
   22800     1008.319   -107.19804   0.91234819   -106.28569   -2432.7432    4.2678004    4.2678004    4.2678004   -2432.7432    -25295.57    13658.461    4338.8793     396.1235   -11462.121   -8608.2992    77.734231 
   22900    1202.4135   -107.37002     1.087969   -106.28206   -10476.837    4.2627498    4.2627498    4.2627498   -10476.837   -5249.8148   -25595.884   -584.81096    1088.2366    2007.6467    2122.2622    77.458582 
   23000    697.02159    -106.9152   0.63067978   -106.28452    12172.402    4.2571198    4.2571198    4.2571198    12172.402   -21943.811    17352.032    41108.986    12108.904    11082.721   -1149.0296    77.152075 
   23100    906.91113   -107.11349   0.82059225    -106.2929   -3924.1729    4.2704253    4.2704253    4.2704253   -3924.1729    -38067.37    15831.022    10463.829   -5115.8989   -22050.899    4212.1615    77.877747 
   23200    1305.0003   -107.46325    1.1807917   -106.28246    14215.155    4.2620479    4.2620479    4.2620479    14215.155    20731.282   -22204.049    44118.231    1767.7053    2821.0809    3880.7819     77.42032 
   23300    983.04655   -107.17708   0.88948117    -106.2876     -980.119    4.2623592    4.2623592    4.2623592     -980.119     -4533.61       -14504    16097.253     12884.59   -5666.2805   -7212.5908    77.437287 
   23400    984.81535   -107.17958   0.89108162    -106.2885   -24366.187    4.2691332    4.2691332    4.2691332   -24366.187   -37319.851    5179.3252   -40958.034   -3846.1827   -29028.863     8186.602     77.80708 
   23500    1222.3285    -107.3853    1.1059885   -106.27931    17302.766    4.2568537    4.2568537    4.2568537    17302.766    25626.671   -1632.4841    27914.112     596.5307    1528.8064    8984.9246    77.137611 
   23600    988.53633   -107.18436   0.89444844   -106.28992   -4399.9771    4.2595609    4.2595609    4.2595609   -4399.9771   -20277.298   -13157.582    20234.949    11670.086    7076.6627   -2687.4709    77.284874 
   23700    644.94613   -106.88177   0.58356081   -106.29821    6783.6619    4.2659031    4.2659031    4.2659031    6783.6619   -8813.0581    13711.632    15452.412   -1954.7619   -14622.317    3258.8829    77.630601 
   23800    1248.8845   -107.41523     1.130017   -106.28521    6009.5082    4.2726005    4.2726005    4.2726005    6009.5082   -4428.5462    -32384.55    54841.621    -629.1912    7822.8136    -3044.032    77.996811 
   23900     957.7319   -107.15032   0.86657595   -106.28374    22572.147    4.2599171    4.2599171    4.2599171    22572.147   -5744.1087   -10017.327    83477.877    71.117262   -13342.415   -4014.6876    77.304262 
   24000     972.8069   -107.16838   0.88021612   -106.28816   -10956.078    4.2607362    4.2607362    4.2607362   -10956.078   -13057.796   -17057.409   -2753.0298   -1447.0706   -17436.873    882.12792    77.348864 
   24100    1136.9368   -107.31726    1.0287243   -106.28853   -18377.159    4.2712823    4.2712823    4.2712823   -18377.159    -14898.28   -46398.869    6165.6711     14326.15    17808.834   -37.453764    77.924643 
   24200    1229.0923   -107.39968    1.1121085   -106.28757   -690.76147    4.2649128    4.2649128    4.2649128   -690.76147   -12149.845   -30856.136    40933.696   -697.78942   -13233.133   -454.07692    77.576549 
   24300    822.43491   -107.03626   0.74415639   -106.29211    19011.257      4.25865      4.25865      4.25865    19011.257   -8081.0399   -7671.5881      72786.4    3504.5175    1497.8581   -3199.7522      77.2353 
   24400    835.34477   -107.05839    0.7558375   -106.30255   -2138.2876    4.2699329    4.2699329    4.2699329   -2138.2876      8778.81   -39530.669    24336.996    15875.032    18360.676    1842.1727    77.850813 
   24500    1262.1634   -107.43434     1.142032   -106.29231   -14930.674    4.2660749    4.2660749    4.2660749   -14930.674   -13785.496   -34973.708    3967.1819   -7244.6471   -5384.7962   -7402.4908    77.639982 
   24600    1046.9774   -107.23381   0.94732715   -106.28648    11442.423    4.2461529    4.2461529    4.2461529    11442.423   -5356.4705    4697.0112    34986.728    8643.0318   -2386.0008    3254.9829     76.55735 
   24700    530.45689   -106.78282   0.47996855   -106.30286   -6111.6089    4.2659218    4.2659218    4.2659218   -6111.6089    4339.7101   -33512.155    10837.619    12484.308    8319.7992    2929.2976    77.631624 
   24800    1223.4078   -107.39709    1.1069651   -106.29013   -5434.4119    4.2704302    4.2704302    4.2704302   -5434.4119   -8488.2096   -32179.319    24364.293   -3541.9788   -8618.2434    3642.3125    77.878015 
   24900    988.48669   -107.18282   0.89440353   -106.28842    24376.561    4.2559444    4.2559444    4.2559444    24376.561   -11573.732   -22631.206    107334.62     20403.13   -8185.4987    2547.1692    77.088187 
   25000    1020.1577   -107.21766    0.9230601    -106.2946   -18992.366    4.2656945    4.2656945    4.2656945   -18992.366     3348.015   -39161.693    -21163.42    2722.0799    11407.269    14541.314    77.619213 
   25100    1023.6583   -107.21674   0.92622758   -106.29051   -3273.9009    4.2684146    4.2684146    4.2684146   -3273.9009   -504.08135   -38998.664    29681.043    175.65461     5908.718    3862.7863    77.767798 
   25200    1123.1707   -107.30252    1.0162684   -106.28625    -1032.626    4.2599985    4.2599985    4.2599985    -1032.626   -22480.689   -36534.549     55917.36     18596.47    2771.4183    4702.8794    77.308695 
   25300    1014.6754   -107.20522   0.91809964   -106.28712    9543.0974    4.2541685    4.2541685    4.2541685    9543.0974   -8538.8058   -18215.708    55383.806   -1607.4928     9104.818    10904.702    76.991726 
   25400    650.72519   -106.88989   0.58878982    -106.3011   -1142.4524    4.2689042    4.2689042    4.2689042   -1142.4524    12190.318   -46448.858    30831.183    14271.068    4132.8517    341.72381    77.794559 
   25500    1286.0953   -107.45754     1.163686   -106.29386   -10902.911    4.2650738    4.2650738    4.2650738   -10902.911   -11353.108   -41741.938    20386.312    15580.106    726.13415   -2505.4519    77.585335 
   25600    1438.9847    -107.5866    1.3020236   -106.28457    15383.308     4.250439     4.250439     4.250439    15383.308    18689.617    15.435948     27444.87   -12037.535    13989.277    935.37379    76.789413 
   25700    708.47992   -106.93877   0.64104752   -106.29772   -20739.879    4.2714662    4.2714662    4.2714662   -20739.879   -12023.695   -33605.964   -16589.978    22188.789    14406.217    -5327.204    77.934709 
   25800    880.98979   -107.08304   0.79713808    -106.2859   -510.25495    4.2759505    4.2759505    4.2759505   -510.25495    -17216.01   -38057.205    53742.449    2278.2612    -1851.504   -13273.063    78.180423 
   25900    1153.9549   -107.31938    1.0441227   -106.27526    11132.951    4.2653558    4.2653558    4.2653558    11132.951   -24913.794   -20417.687    78730.334    582.92416    3733.7751   -4529.3771    77.600728 
   26000    717.70891    -106.9331   0.64939811   -106.28371     11436.66    4.2663988    4.2663988    4.2663988     11436.66    16148.778   -34755.107     52916.31    19886.078   -3850.4956   -3402.8022    77.657669 
   26100    1022.4703   -107.20446   0.92515262   -106.27931    2202.4055    4.2785612    4.2785612    4.2785612    2202.4055    20565.266   -43985.273    30027.224   -14128.548   -19935.874   -8335.4616    78.323707 
   26200    1016.3546   -107.18801   0.91961897   -106.26839    8221.0462    4.2725646    4.2725646    4.2725646    8221.0462    19101.416   -50638.676    56200.399    19376.162   -15488.768    404.37908    77.994849 
   26300    730.25147   -106.93227   0.66074688   -106.27152     8886.266    4.2639028    4.2639028    4.2639028     8886.266    39732.498    -47835.58     34761.88    11375.143     -11322.5   -10977.673    77.521449 
   26400    935.65831   -107.12047    0.8466033   -106.27387    4448.0341    4.2704317    4.2704317    4.2704317    4448.0341    40904.388   -46141.599    18581.313   -18931.826   -23486.855    651.15372    77.878099 
   26500    1153.0877   -107.32216     1.043338   -106.27882    -4233.797    4.2651496    4.2651496    4.2651496    -4233.797    17442.091    -40442.89    10299.408    25785.409    -7782.553   -647.76603    77.589472 
   26600    743.20427   -106.96413   0.67246684   -106.29166   -11256.382    4.2546187    4.2546187    4.2546187   -11256.382   -15794.262   -44795.061    26820.179   -3751.4101    6237.4219    1272.4401     77.01617 
   26700    915.19572   -107.12644   0.82808832   -106.29835    1197.6439    4.2631003    4.2631003    4.2631003    1197.6439     10254.44   -31190.598     24529.09   -27959.151   -9965.9518    2295.2462    77.477689 
   26800    1182.7211   -107.36102    1.0701509   -106.29086    -6691.343     4.276503     4.276503     4.276503    -6691.343     20223.44   -43958.658    3661.1896    18019.669    19979.834   -361.16228     78.21073 
   26900    701.07593   -106.93556   0.63434823   -106.30121    9541.6033     4.249924     4.249924     4.249924    9541.6033    36854.757   -19813.589    11583.642    -14671.78   -4826.5311   -4140.5625    76.761505 
   27000    697.07503   -106.94011   0.63072814   -106.30939    34196.335     4.253532     4.253532     4.253532    34196.335    82824.133   -10509.117    30273.988   -20741.234    8082.8805    6509.2746    76.957174 
   27100    1635.5124   -107.76165     1.479846   -106.28181   -20383.658    4.2806346    4.2806346    4.2806346   -20383.658   -8293.6435   -48715.443   -4141.8883    12209.002    12640.752    9509.7317    78.437629 
   27200    513.34154    -106.7551   0.46448221   -106.29062    22232.066    4.2501421    4.2501421    4.2501421    22232.066    67736.976   -36805.834    35765.056   -30027.933    1816.8767   -2907.0538    76.773327 
   27300    879.24392   -107.09408   0.79555837   -106.29852   -1565.6811    4.2504965    4.2504965    4.2504965   -1565.6811    8824.6724   -16073.339    2551.6233   -5730.7652    345.28987    13494.323    76.792533 
   27400    1157.0233   -107.33965     1.046899   -106.29276    4409.7643    4.2732311    4.2732311    4.2732311    4409.7643    19237.403   -28821.388    22813.278    3718.7135    8111.3946    5153.6421    78.031352 
   27500    977.81268   -107.17686   0.88474546   -106.29211   -23788.918    4.2714277    4.2714277    4.2714277   -23788.918   -20237.149   -63570.457    12440.852    -32443.75    -7737.741   -1620.1511    77.932605 
   27600    908.69569   -107.11015   0.82220696   -106.28795   -11346.956    4.2497605    4.2497605    4.2497605   -11346.956    5975.3964   -37449.106   -2567.1595    2620.3366    2733.8325    18635.903    76.752648 
   27700    1209.5652   -107.38593      1.09444   -106.29149    16014.576    4.2512483    4.2512483    4.2512483    16014.576    28580.403   -11216.796     30680.12    325.25944   -6240.6862   -2884.9771    76.833286 
   27800     1012.413   -107.20718   0.91605257   -106.29113   -27263.524    4.2798034    4.2798034    4.2798034   -27263.524   -32053.415   -60530.749    10793.592    -23502.13    8839.8107   -180.44328    78.391948 
   27900    743.12363   -106.96503   0.67239388   -106.29264   -16604.555    4.2589932    4.2589932    4.2589932   -16604.555    3057.7286   -38603.807   -14267.587      6895.93   -6018.7232     2834.379    77.253977 
   28000    860.28181   -107.06833   0.77840106   -106.28993    36018.887    4.2432584    4.2432584    4.2432584    36018.887    35572.659   -9839.8577     82323.86    2294.0889   -264.05126   -4401.9907    76.400891 
   28100    1267.3353   -107.44076    1.1467116   -106.29405   -8392.5244    4.2714311    4.2714311    4.2714311   -8392.5244   -1753.8441   -27362.317    3938.5879    -9052.463    14532.571     -4193.78     77.93279 
   28200    770.84314   -106.99152   0.69747507   -106.29404   -822.99296    4.2680192    4.2680192    4.2680192   -822.99296    12838.074   -45414.207    30107.154    10499.662   -4253.4706    5102.4258    77.746186 
   28300    986.18648    -107.1815   0.89232226   -106.28918    -1997.462    4.2559844    4.2559844    4.2559844    -1997.462    7593.2731   -20151.772    6566.1127    3619.9321     15572.26   -15553.431    77.090363 
   28400    1082.7019   -107.26526   0.97965144   -106.28561    14692.748    4.2608646    4.2608646    4.2608646    14692.748    1141.1461   -879.91596    43817.015   -2905.5269   -1658.5553    -274.0564    77.355857 
   28500    1023.1006   -107.21658    0.9257229   -106.29086   -3868.3482    4.2686796    4.2686796    4.2686796   -3868.3482   -5866.0468   -20429.863    14690.865    8911.3761   -4440.4309    7451.2339    77.782282 
   28600    742.55583   -106.96193   0.67188012   -106.29005    412.07229    4.2666447    4.2666447    4.2666447    412.07229    6329.0021   -26974.074    21881.288    846.40533   -991.83496   -13921.043    77.671095 
   28700    1255.7664   -107.41968    1.1362439   -106.28344     10725.22    4.2510299    4.2510299    4.2510299     10725.22   -16441.253    18782.183     29834.73    3681.1545   -10044.536    2803.6871    76.821444 
   28800    1107.3271   -107.29369    1.0019328   -106.29176    11395.384    4.2621041    4.2621041    4.2621041    11395.384    7887.2045    88.877356     26210.07     13274.79    1904.7726    254.52203    77.423386 
   28900    862.13429   -107.06784   0.78007723   -106.28776   -21648.207    4.2785219    4.2785219    4.2785219   -21648.207   -12915.386   -44825.155   -7204.0803   -6274.4846    513.95996   -11520.566    78.321552 
   29000    954.00255   -107.13794   0.86320156   -106.27474    11576.693    4.2539166    4.2539166    4.2539166    11576.693   -6306.9164    810.97642    40226.017    2404.4714   -8774.8636    2064.9626     76.97805 
   29100    1282.2036   -107.43811    1.1601648   -106.27794     6971.438    4.2550489    4.2550489    4.2550489     6971.438   -9543.9603    18003.168    12455.107     9464.201   -3352.9446   -357.61646    77.039535 
   29200    1022.9003   -107.20362   0.92554173   -106.27808    -12426.09    4.2772337    4.2772337    4.2772337    -12426.09   -9309.9296   -39936.824    11968.484   -502.88213    6657.6003   -9575.5978     78.25083 
   29300    935.16462   -107.11947    0.8461566   -106.27331    4643.4443    4.2630993    4.2630993    4.2630993    4643.4443   -3269.2496    4119.4717    13080.111    10781.329   -13361.462    4060.2955    77.477635 
   29400    1270.3407    -107.4199     1.149431   -106.27046    14177.985    4.2543827    4.2543827    4.2543827    14177.985   -10362.178    29753.253     23142.88   -371.61095   -10896.537   -1720.3536    77.003356 
   29500    997.05625   -107.18535   0.90215745   -106.28319   -2918.6107    4.2703913    4.2703913    4.2703913   -2918.6107    3597.4888   -17454.902    5101.5812   -8185.8814    11334.445   -917.91793    77.875888 
   29600    576.78169   -106.80875   0.52188419   -106.28686   -958.74733    4.2744423    4.2744423    4.2744423   -958.74733   -4383.5291   -9372.1229     10879.41    4831.7952   -3744.5973    5715.0423    78.097725 
   29700    1155.3298   -107.31818    1.0453667   -106.27281     20891.32    4.2621114    4.2621114    4.2621114     20891.32    19174.642    27721.948    15777.369    2295.2131   -350.75542   -4346.7254    77.423785 
   29800    868.01352   -107.06208   0.78539688   -106.27668    21232.946    4.2627748    4.2627748    4.2627748    21232.946    35490.408    16538.365    11670.065   -4174.3301     10878.78   -1846.7649    77.459945 
   29900    722.63497   -106.93686   0.65385531     -106.283    9765.2738     4.270376     4.270376     4.270376    9765.2738    8240.7599   -12203.687    33258.749    476.54093   -4046.4989    9599.1999    77.875053 
   30000    1237.8177   -107.39331    1.1200034    -106.2733    11184.355    4.2730349    4.2730349    4.2730349    11184.355    20000.088    -2024.556    15577.533   -3282.8705    5582.6175    1255.2202    78.020606 
   30100    823.81158   -107.02475   0.74540203   -106.27935      23386.3    4.2603897    4.2603897    4.2603897      23386.3     16819.89    23932.683    29406.326   -1795.1584    19745.775   -10488.646    77.329993 
   30200    536.28932   -106.77345   0.48524584    -106.2882    21254.388    4.2564656    4.2564656    4.2564656    21254.388    23298.206     33346.28     7118.679    13817.188   -5117.5821    7156.9898    77.116514 
   30300    1153.0592   -107.32514    1.0433122   -106.28182   -6186.6682    4.2727419    4.2727419    4.2727419   -6186.6682   -8346.9595   -15453.551    5240.5057   -6259.0839    3091.2553   -3545.5225    78.004556 
   30400    993.25981   -107.17667   0.89872235   -106.27795   -6573.9086    4.2711269    4.2711269    4.2711269   -6573.9086    -29559.21    6962.6783    2874.8059   -9185.9865    11495.914    236.07551    77.916137 
   30500    714.21876   -106.92088   0.64624014   -106.27464    18034.745    4.2573643    4.2573643    4.2573643    18034.745    10420.951    29523.372    14159.913      11308.4   -4619.6084    9502.6473     77.16537 
   30600    1292.1997   -107.45103    1.1692094   -106.28182   -15315.523    4.2624123    4.2624123    4.2624123   -15315.523   -15931.755   -38587.239    8572.4241   -6386.8983    4240.0643    9232.2868    77.440185 
   30700     1032.105   -107.21841   0.93387029   -106.28454    3342.4136    4.2655136    4.2655136    4.2655136    3342.4136   -33378.537    584.25962    42821.518   -16568.111   -846.84812   -7939.1578    77.609341 
   30800    643.29055    -106.8681   0.58206281   -106.28603    8763.8294    4.2650774    4.2650774    4.2650774    8763.8294    -3939.282     20294.27    9936.4998    2182.6691   -15188.843    18092.385    77.585533 
   30900    1105.6129   -107.27874    1.0003818   -106.27836   -21386.657    4.2705903    4.2705903    4.2705903   -21386.657   -16823.782   -41715.803   -5620.3861   -18368.571    4083.1284    14518.328    77.886777 
   31000    1089.2207   -107.26001    0.9855498   -106.27446    6877.3407    4.2614835    4.2614835    4.2614835    6877.3407   -29441.278    26600.453    23472.847     -7861.24   -12985.043    -705.1919    77.389571 
   31100    845.45191    -107.0514   0.76498266   -106.28642   -8186.3924    4.2621819    4.2621819    4.2621819   -8186.3924    3177.1841    12860.601   -40596.962   -2554.3156   -26986.113    14477.431    77.427625 
   31200    1155.4517   -107.32782     1.045477   -106.28234   -26098.122     4.275266     4.275266     4.275266   -26098.122   -17006.786   -28898.318   -32389.262   -15163.572     5956.587    2523.3818     78.14288 
   31300    1133.9684   -107.30096    1.0260385   -106.27492   -4300.7942    4.2684063    4.2684063    4.2684063   -4300.7942   -30710.236    33378.076   -15570.223    3661.3859   -19741.091   -11290.741    77.767341 
   31400    828.87702   -107.03311   0.74998534   -106.28313   -19717.983    4.2546458    4.2546458    4.2546458   -19717.983   -27120.628   -16609.353   -15423.969    5114.3785   -24504.911    14179.664    77.017642 
   31500    1026.3492   -107.22017   0.92866236   -106.29151   -5429.0775    4.2581109    4.2581109    4.2581109   -5429.0775   -25437.956   -7292.8571    16443.581   -17436.015     5113.727   -20379.904    77.205976 
   31600    1192.3201   -107.36318    1.0788363   -106.28434   -24779.698     4.278799     4.278799     4.278799   -24779.698   -43117.486   -20868.098   -10353.512    9061.8228   -11745.132   -9487.8312    78.336771 
   31700    719.53725   -106.93152   0.65105242   -106.28047   -21435.064    4.2668058    4.2668058    4.2668058   -21435.064   -25612.132   -48423.381    9730.3214    2794.8643   -11421.171    22671.871    77.679895 
   31800    1203.4225   -107.36174    1.0888819   -106.27285    14256.004    4.2473018    4.2473018    4.2473018    14256.004    -12561.12    4248.8038    51080.328   -4689.6496    5220.8542   -8477.1042     76.61951 
   31900    1068.5122   -107.25517   0.96681225   -106.28836   -16327.828    4.2722552    4.2722552    4.2722552   -16327.828   -47283.171    3006.6967   -4707.0096    9289.2922    8735.5304   -400.32681    77.977907 
   32000    755.06763   -106.96451   0.68320106   -106.28131   -25571.823    4.2768484    4.2768484    4.2768484   -25571.823   -27689.313   -47524.514   -1501.6436   -6217.6238   -2133.6489    29529.288    78.229682 
   32100    1489.3949   -107.61813    1.3476358   -106.27049   -2385.8774    4.2488609    4.2488609    4.2488609   -2385.8774   -5178.8226   -405.90722   -1572.9025    905.48903    15269.339   -931.03884    76.703915 
   32200    992.21985   -107.18714   0.89778137   -106.28936   -593.98979    4.2589795    4.2589795    4.2589795   -593.98979   -14765.374   -2376.0634    15359.468    4776.8349    14729.668    9709.2409     77.25323 
   32300    780.49143   -106.99403   0.70620505   -106.28783   -11071.681    4.2797162    4.2797162    4.2797162   -11071.681   -6270.5557   -34029.679    7085.1929   -5864.9527   -13183.849     28710.55    78.387155 
   32400    1108.1359   -107.27861    1.0026646   -106.27595   -5384.2182     4.275297     4.275297     4.275297   -5384.2182   -19894.118   -24422.706    28164.169    608.22967    13520.578    191.58926    78.144583 
   32500    928.75246   -107.11559   0.84035475   -106.27524    2925.3822    4.2573779    4.2573779    4.2573779    2925.3822    -1633.994   -15990.184    26400.324    4454.7695   -10924.426    3086.1062    77.166108 
   32600    842.27389    -107.0489   0.76210712   -106.28679    1175.1618    4.2654639    4.2654639    4.2654639    1175.1618    706.93519   -33078.129    35896.679   -5605.7097   -12992.615    20294.008    77.606629 
   32700     1256.581   -107.41857    1.1369809   -106.28159       -14973     4.273691     4.273691     4.273691       -14973   -9614.5673   -23334.661   -11969.772    10288.854    7222.4077   -14209.869    78.056551 
   32800    883.20434   -107.07848   0.79914185   -106.27934   -113.95844    4.2597349    4.2597349    4.2597349   -113.95844    9135.0264   -27599.648    18122.746   -4713.3938   -11035.587    13937.373    77.294342 
   32900    1028.0783   -107.20997   0.93022689   -106.27974   -10150.577    4.2704897    4.2704897    4.2704897   -10150.577    6693.1599    -27341.24   -9803.6513   -1986.2393   -4868.3559     5476.264    77.881274 
   33000    1282.4598   -107.42701    1.1603966   -106.26661   -23763.152    4.2767165    4.2767165    4.2767165   -23763.152   -37363.119     -5310.23   -28616.107    11848.284    13308.545   -8368.1438    78.222448 
   33100    745.57774    -106.9493    0.6746144   -106.27469    2286.9011    4.2557112    4.2557112    4.2557112    2286.9011    10637.315   -19464.201    15687.589   -11329.912   -4866.8648    23364.722    77.075514 
   33200    1216.8508    -107.3801    1.1010322   -106.27907    8451.1211    4.2511322    4.2511322    4.2511322    8451.1211    19434.073   -9910.4425    15829.732     -2835.45   -146.54538    2903.7427    76.826992 
   33300    1149.6969   -107.32587    1.0402699    -106.2856   -9853.6474    4.2719778    4.2719778    4.2719778   -9853.6474   -33053.957   -19851.316    23344.331   -2307.8714    14543.522    1206.8347    77.962716 
   33400     611.0237   -106.83851   0.55286708   -106.28564   -17968.979    4.2757852    4.2757852    4.2757852   -17968.979   -13346.951   -48375.152    7815.1671   -12312.061   -10156.451    30438.739    78.171357 
   33500    1351.7257   -107.49187    1.2230698    -106.2688    23204.783    4.2426556    4.2426556    4.2426556    23204.783    34731.339    1236.6473    33646.363    9774.7699   -6659.2589   -5524.8075    76.368339 
   33600     1054.273   -107.24655   0.95392838   -106.29262   -12964.959    4.2604433    4.2604433    4.2604433   -12964.959   -8328.1949    -17823.27   -12743.412   -11395.803    15901.575    7401.4648    77.332913 
   33700     741.5628   -106.95976    0.6709816   -106.28878   -39059.165    4.2774074    4.2774074    4.2774074   -39059.165   -24367.124   -40617.404   -52192.966    -15491.18    3521.4912     35383.61    78.260364 
   33800    1353.9787   -107.49139    1.2251084   -106.26628    49592.353    4.2366224    4.2366224    4.2366224    49592.353    55398.941    36740.305    56637.814    5943.9349    -5823.598   -23152.624    76.043008 
   33900    982.90404   -107.18466   0.88935223   -106.29531   -20013.427    4.2596096    4.2596096    4.2596096   -20013.427    9219.1821   -36401.711   -32857.751   -9509.5332    13956.159    22992.039    77.287523 
   34000    763.04977   -106.97399   0.69042347   -106.28357   -30003.698    4.2773352    4.2773352    4.2773352   -30003.698   -3556.6001   -42993.893   -43460.602   -7814.3976    3940.2585    24113.003      78.2564 
   34100    1375.0474   -107.50351    1.2441718   -106.25934    31152.124    4.2456963    4.2456963    4.2456963    31152.124    60671.639     12203.54    20581.192   -4738.4011   -1458.5616   -15968.514    76.532656 
   34200    631.89602   -106.85849    0.5717528   -106.28674   -6787.2343    4.2596842    4.2596842    4.2596842   -6787.2343    25694.318   -28784.054   -17271.968   -329.46645    12424.778      36268.1    77.291582 
   34300    1227.4194   -107.38703    1.1105948   -106.27644   -18323.294    4.2707169    4.2707169    4.2707169   -18323.294   -20581.722     -20793.9   -13594.258   -7581.5006    12727.597     6873.719    77.893703 
   34400    1095.6819   -107.26011   0.99139602   -106.26872    25156.703    4.2577339    4.2577339    4.2577339    25156.703    60379.891   -1163.8538    16254.071   -1636.4327   -12528.936    7161.2112    77.185469 
   34500    769.62376   -106.97844   0.69637175   -106.28206   -9248.6775    4.2594826    4.2594826    4.2594826   -9248.6775     39031.16   -45248.101   -21529.091   -5352.7906    6745.7876    37504.125    77.280611 
   34600    1344.2114   -107.48844    1.2162708   -106.27216    8392.2217    4.2554492    4.2554492    4.2554492    8392.2217    16234.479   -14817.129    23759.315   -9968.6387    5429.7732   -8828.9631    77.061283 
   34700    852.10475   -107.05402   0.77100228   -106.28302   -5858.0131    4.2704502    4.2704502    4.2704502   -5858.0131    20053.576   -26747.547   -10880.069   -138.16827   -18079.546    24488.946    77.879109 
   34800    857.88862    -107.0541   0.77623566   -106.27786   -22241.737     4.268793     4.268793     4.268793   -22241.737    17174.483   -42450.701   -41448.992    -8875.897    15942.795    30619.135    77.788482 
   34900     1334.776   -107.47137    1.2077334   -106.26363    18151.813    4.2387151    4.2387151    4.2387151    18151.813    19502.768    21736.412     13216.26   -11122.342    -20764.29   -9886.8006    76.155747 
   35000    835.80631   -107.04857   0.75625511   -106.29232   -4714.2825    4.2664363    4.2664363    4.2664363   -4714.2825    22717.435   -10551.752    -26308.53   -1230.5774    -8567.546    27539.398    77.659714 
   35100    1206.2025   -107.36161    1.0913974   -106.27021   -29752.067     4.282538     4.282538     4.282538   -29752.067   -2317.1209   -46044.435   -40894.645   -2416.8453    1462.4029    14902.769    78.542311 
   35200    908.10044   -107.09138   0.82166836   -106.26971    22744.899    4.2393354    4.2393354    4.2393354    22744.899     37801.18    29905.278    528.23878   -5908.1076   -28462.127   -2768.4118    76.189183 
   35300    854.19315   -107.06099   0.77289192   -106.28809    621.78965    4.2451557    4.2451557    4.2451557    621.78965    30307.808    -6162.918   -22279.521    8182.2358   -6278.9968    28033.176    76.503422 
   35400    1141.8487   -107.31223    1.0331687   -106.27906   -4941.9126     4.272005     4.272005     4.272005   -4941.9126    33458.563   -30157.479   -18126.822    5616.8015    4482.4993    3820.9857    77.964206 
   35500    913.51882   -107.10819   0.82657103   -106.28162    4107.3015    4.2618937    4.2618937    4.2618937    4107.3015    6231.2424    22180.631   -16089.969   -4670.9565   -14746.603    8373.0296    77.411919 
   35600     872.5679   -107.07571   0.78951777   -106.28619   -9024.2267    4.2665869    4.2665869    4.2665869   -9024.2267    20272.979   -7573.3669   -39772.292    6153.9815   -8419.9345    23207.951     77.66794 
   35700    1671.0256   -107.78862    1.5119791   -106.27664    9745.8511    4.2499714    4.2499714    4.2499714    9745.8511    7353.1558    19316.746    2567.6519   -9290.0463    12184.072   -10754.143    76.764077 
   35800    590.38223   -106.82819   0.53419025     -106.294     23054.88    4.2466969    4.2466969    4.2466969     23054.88    43969.263    39220.423   -14025.047   -12455.873   -19332.441    18279.304    76.586776 
   35900    798.41692   -107.01349   0.72242441   -106.29107   -21698.455    4.2788146    4.2788146    4.2788146   -21698.455    11703.263   -21097.216   -55701.411   -2036.2568    -2520.373    18883.405    78.337628 
   36000    1420.4839   -107.56225    1.2852837   -106.27697    11906.867    4.2535946    4.2535946    4.2535946    11906.867    25035.235     26924.31   -16238.944   -5490.9729    5983.3991   -7929.1054    76.960572 
   36100    646.48321   -106.87423    0.5849516   -106.28928    6768.9615     4.241877     4.241877     4.241877    6768.9615    57768.941   -14964.699   -22497.358   -8011.6628   -14914.221    36601.115    76.326302 
   36200    1085.0339   -107.27233   0.98176152   -106.29057     -16119.3    4.2732113    4.2732113    4.2732113     -16119.3    13349.375   -23007.154   -38700.119   -119.90356    1981.9637    15266.939    78.030268 
   36300     1421.569   -107.56157    1.2862655   -106.27531   -1676.4722    4.2659072    4.2659072    4.2659072   -1676.4722     13604.24    6712.9787   -25346.635    11306.797   -119.74458   -8434.4408    77.630829 
   36400    448.24135   -106.69184   0.40557819   -106.28626    546.61418    4.2580434    4.2580434    4.2580434    546.61418    21144.716    21484.859   -40989.733    1809.0082   -14859.047    30505.466      77.2023 
   36500    1124.9203   -107.29649    1.0178516   -106.27863    4989.5135    4.2599381    4.2599381    4.2599381    4989.5135    202.90656    34341.193   -19575.559   -765.84771    5092.6341   -8274.5009    77.305408 
   36600    905.44583   -107.10113   0.81926641   -106.28186   -5798.3083    4.2705842    4.2705842    4.2705842   -5798.3083   -14264.133    42834.471   -45965.262    11270.418    307.84991    6272.5612    77.886443 
   36700    681.46058   -106.89989   0.61659986   -106.28329   -20181.188    4.2702844    4.2702844    4.2702844   -20181.188   -32136.597    21422.438   -49829.405   -8124.5427   -18408.463    23335.074    77.870042 
   36800    1242.4709   -107.39744    1.1242138   -106.27323    18086.442    4.2460449    4.2460449    4.2460449    18086.442    9641.4806    33788.625    10829.222   -25116.385     10313.09   -12042.896    76.551506 
   36900    1083.7831   -107.26899   0.98062975   -106.28836   -17541.883    4.2596293    4.2596293    4.2596293   -17541.883   -5694.9445   -458.55194   -46472.152   -790.34992   -4844.2364    19246.376    77.288596 
   37000    826.62885   -107.03577   0.74795115   -106.28782   -41096.993    4.2712793    4.2712793    4.2712793   -41096.993   -25220.993   -40451.923   -57618.063   -9011.8872   -18657.191    18137.489    77.924482 
   37100    1100.0695   -107.27538   0.99536603   -106.28001    20350.848    4.2418279    4.2418279    4.2418279    20350.848    24422.841    24737.861     11891.84   -28810.664    12136.441   -14828.079    76.323649 
   37200    847.21842   -107.05831   0.76658103   -106.29173   -2870.3734    4.2506656    4.2506656    4.2506656   -2870.3734    7858.2302    28069.477   -44538.828    9967.2998   -15153.939    25557.556    76.801699 
   37300    873.13831   -107.07944   0.79003389    -106.2894   -28151.656    4.2704514    4.2704514    4.2704514   -28151.656   -30988.409   -11296.187   -42170.372   -9478.9082   -3351.6177     10140.67    77.879179 
   37400    1025.1184   -107.20608   0.92754865   -106.27853    8437.0631    4.2588682    4.2588682    4.2588682    8437.0631   -2140.9026    29872.728   -2420.6362   -22748.239    6540.1723   -13491.952    77.247175 
   37500    1091.4944   -107.26647   0.98760704   -106.27887   -412.47907     4.252065     4.252065     4.252065   -412.47907    23362.227    9509.3068   -34108.971    10961.813   -21960.285     21434.27    76.877577 
   37600    1030.6633   -107.21578   0.93256578   -106.28322   -3947.8225     4.260859     4.260859     4.260859   -3947.8225   -3534.3566    19574.085   -27883.196    -28904.41    7031.3946   -413.12752    77.355554 
   37700    961.31168   -107.15215   0.86981501   -106.28234   -3738.9071    4.2596205    4.2596205    4.2596205   -3738.9071   -6435.4319    8415.5936   -13196.883   -16932.086   -3403.5575   -3623.9744    77.288117 
   37800    998.84413    -107.1871   0.90377516   -106.28332    2274.6764    4.2456748    4.2456748    4.2456748    2274.6764    8985.0806    24085.924   -26246.976    13018.794   -18319.762    21977.792    76.531493 
   37900    978.45115   -107.17382   0.88532316    -106.2885    656.46584    4.2598057    4.2598057    4.2598057    656.46584   -16509.087    29687.454   -11208.969   -17194.965    466.86779   -901.50472    77.298199 
   38000    1200.8543   -107.37315    1.0865582   -106.28659   -9655.2156    4.2599106    4.2599106    4.2599106   -9655.2156   -19877.681   -6496.5993   -2591.3667   -6870.3047   -5417.0483   -4095.2002    77.303911 
   38100     759.9971    -106.9745   0.68766135   -106.28683    34043.495    4.2432275    4.2432275    4.2432275    34043.495    56673.766     58567.59   -13110.871    18244.921   -11209.522    20762.716    76.399224 
   38200     1189.212   -107.36606     1.076024   -106.29003   -4582.3268    4.2661161    4.2661161    4.2661161   -4582.3268    1177.2977    6780.6913    -21704.97   -3741.5942    1176.0922   -3787.0089    77.642232 
   38300    920.93137   -107.11445   0.83327806   -106.28118   -2559.7557    4.2706216    4.2706216    4.2706216   -2559.7557    13348.498   -5717.2347   -15310.531   -6194.2143   -10932.688    3387.5352     77.88849 
   38400    862.03369   -107.05409    0.7799862    -106.2741   -1769.0993    4.2577848    4.2577848    4.2577848   -1769.0993   -12309.781    29942.927   -22940.443    18246.552   -10455.219    17572.848    77.188239 
   38500    1379.5662   -107.51601    1.2482604   -106.26775   -4217.4958     4.259461     4.259461     4.259461   -4217.4958   -3617.3845   -13284.725    4249.6224   -11696.586    9661.5752   -1593.0173    77.279434 
   38600    925.17402   -107.11506    0.8371169   -106.27794    5045.7455     4.258705     4.258705     4.258705    5045.7455    16402.982    4755.8358   -6021.5814   -7467.4485   -21166.995    10041.438    77.238292 
   38700    901.32262   -107.10213   0.81553564   -106.28659   -26075.529    4.2712444    4.2712444    4.2712444   -26075.529   -44521.224    -2733.252    -30972.11    14133.502   -8825.4657    8638.4804    77.922568 
   38800    1461.5739   -107.59684    1.3224628   -106.27438    95.016422    4.2596545    4.2596545    4.2596545    95.016422   -1179.8992    1726.3159   -261.36747   -532.82734    2428.9965    2652.3934    77.289967 
   38900    1044.1214   -107.22471   0.94474299   -106.27996    13316.782    4.2437614    4.2437614    4.2437614    13316.782   -4935.3329    41226.642    3659.0379    -5124.325    -21149.39    8123.8769    76.428065 
   39000    886.89966   -107.09434   0.80248545   -106.29186   -36703.496     4.272092     4.272092     4.272092   -36703.496   -63078.256   -19955.951   -27076.281     19793.92    1054.1668    17307.262    77.968966 
   39100    1453.3772   -107.58857    1.3150463   -106.27352   -10190.644    4.2672948    4.2672948    4.2672948   -10190.644   -26912.881    -6523.675    2864.6223   -4244.5525    -3035.224    5640.9364    77.706604 
   39200    1163.6969    -107.3257    1.0529374   -106.27277    10056.976    4.2446128    4.2446128    4.2446128    10056.976   -11722.337     30622.84    11270.424    485.57679   -13729.137    12608.906    76.474077 
   39300    810.88227   -107.02337   0.73370332   -106.28966   -23666.884    4.2699555    4.2699555    4.2699555   -23666.884   -43682.497   -16202.864    -11115.29    17722.336    6407.2321    14401.127     77.85205 
   39400    1562.3509   -107.67522     1.413648   -106.26157   -12826.244    4.2769059    4.2769059    4.2769059   -12826.244   -10524.739   -21586.591   -6367.4027   -15407.488   -5411.2754    6271.2636    78.232837 
   39500    1035.6848   -107.20324   0.93710933   -106.26613    3380.2539    4.2521814    4.2521814    4.2521814    3380.2539     20352.02   -3179.4237   -7031.8349    14431.089   -1736.1215    16100.236    76.883892 
   39600    771.78732    -106.9767   0.69832939   -106.27837   -10427.043    4.2550648    4.2550648    4.2550648   -10427.043   -17168.314   -2157.2827   -11955.532    7161.2064    4151.4023    13372.929    77.040399 
   39700    1445.1412    -107.5793    1.3075941   -106.27171   -19277.817    4.2786589    4.2786589    4.2786589   -19277.817   -26719.036   -20219.465   -10894.949    -16587.53   -4690.9262    1365.4338    78.329077 
   39800    935.40887   -107.11903   0.84637761   -106.27265   -22998.786    4.2739002    4.2739002    4.2739002   -22998.786   -20557.924   -48438.303  -0.13070802    23622.138   -2229.1471    16943.193    78.068012 
   39900     899.0245   -107.07825   0.81345626    -106.2648    1848.0149    4.2463985    4.2463985    4.2463985    1848.0149   -11930.959    1627.3413    15847.662   -811.40937    1449.8087    10191.283    76.570632 
   40000     1437.947   -107.57552    1.3010847   -106.27444   -148.25052    4.2598603    4.2598603    4.2598603   -148.25052    -18628.85    3922.7173    14261.382   -11393.562   -923.74476   -3952.1923    77.301168 
   40100     956.7988   -107.14355   0.86573166   -106.27781   -26973.745    4.2758632    4.2758632    4.2758632   -26973.745   -40678.659    -28688.54   -11554.034     27891.88    -3275.205    12130.729    78.175632 
   40200    823.96923   -107.01837   0.74554468   -106.27282   -3751.9673    4.2567882    4.2567882    4.2567882   -3751.9673   -29348.271    12554.504    5537.8661   -10049.459   -6883.9226    7274.3676    77.134047 
   40300    1192.6742   -107.34987    1.0791566   -106.27072   -6127.5647    4.2560021    4.2560021    4.2560021   -6127.5647   -42363.317    6739.6934     17240.93   -9824.1597   -868.88686   -4574.4165    77.091325 
   40400      1062.23   -107.24121   0.96112804   -106.28008   -7582.3276    4.2585509    4.2585509    4.2585509   -7582.3276   -14243.749   -25346.463    16843.229    23094.435   -897.73923    16588.617    77.229908 
   40500    925.15891   -107.12362   0.83710322   -106.28652   -11325.839    4.2612628    4.2612628    4.2612628   -11325.839   -31765.537    823.14758   -3035.1276   -14826.241   -3989.0587     6549.468    77.377544 
   40600    1174.6966   -107.34496    1.0628902   -106.28207   -13776.689    4.2660138    4.2660138    4.2660138   -13776.689   -42997.227   -5331.0539    6998.2145   -6539.5143   -11118.735    4778.1955    77.636649 
   40700    1254.4284   -107.41591    1.1350332   -106.28088   -3671.4172     4.248108     4.248108     4.248108   -3671.4172   -11306.428   -4734.8549    5027.0313    15906.671    6720.4961    19883.946    76.663149 
   40800    615.89482   -106.84984   0.55727457   -106.29256   -754.87433    4.2487119    4.2487119    4.2487119   -754.87433   -25434.037     31812.76   -8643.3453   -19501.471   -6766.3006    2570.6604     76.69585 
   40900    947.68485   -107.15214   0.85748516   -106.29466   -18874.807    4.2664084    4.2664084    4.2664084   -18874.807   -64220.288    20243.216   -12647.349   -7302.6656   -19174.868   -8277.1255    77.658192 
   41000    1413.3417   -107.56574    1.2788213   -106.28692    20897.204    4.2454656    4.2454656    4.2454656    20897.204   -11734.497    41051.306    33374.801    4931.1252    5014.9749    10997.639    76.520181 
   41100    646.78288   -106.89165   0.58522274   -106.30643    4124.4246    4.2510284    4.2510284    4.2510284    4124.4246   -37809.746    34037.948    16145.072   -17351.577   -4025.3853    4433.4737    76.821364 
   41200    926.23629   -107.13086   0.83807806   -106.29278   -20936.707    4.2747163    4.2747163    4.2747163   -20936.707   -59358.788     9483.521   -12934.854   -3471.7843    -14405.91   -1193.0013    78.112742 
   41300    1398.5811   -107.54058    1.2654656   -106.27512      28986.1    4.2465588    4.2465588    4.2465588      28986.1    -7530.625    41620.463    52868.463     2397.841   -3737.8339   -9961.5437    76.579308 
   41400    739.69037    -106.9618   0.66928739   -106.29251   -13041.783     4.245258     4.245258     4.245258   -13041.783   -52531.637    17264.992   -3858.7032   -21122.114    -5535.164     8173.284    76.508954 
   41500    779.42408   -107.00156   0.70523929   -106.29632   -30918.763    4.2639404    4.2639404    4.2639404   -30918.763   -61252.237   -6025.9461   -25478.107   -4312.1977   -4184.1674   -3820.3497    77.523499 
   41600    1376.4049   -107.52706    1.2454001   -106.28166    17513.803    4.2565827    4.2565827    4.2565827    17513.803    1603.9293    21586.172    29351.309    8894.0608   -563.69181   -7993.1772    77.122878 
   41700    1080.0276   -107.26365    0.9772317   -106.28642   -21806.264     4.266713     4.266713     4.266713   -21806.264   -38863.462   -15969.214   -10586.115   -20579.296   -4905.2476    9734.6919    77.674828 
   41800    799.27473   -107.01358   0.72320058   -106.29038   -1421.1119    4.2523411    4.2523411    4.2523411   -1421.1119   -15121.814    35387.563   -24529.084     2486.213    1147.9728    562.58641    76.892554 
   41900    1089.0641   -107.27401   0.98540809    -106.2886    28516.656    4.2349631    4.2349631    4.2349631    28516.656        28034    29335.807    28180.163    25314.059   -1820.9764   -3836.6016    75.953693 
   42000    950.39595   -107.15846   0.85993823   -106.29853    2267.8429    4.2632121    4.2632121    4.2632121    2267.8429   -29070.404    39805.267    -3931.334   -12319.384   -4203.5312    5426.4264    77.483783 
   42100    798.54591    -107.0126   0.72254112   -106.29006   -21040.675    4.2693105    4.2693105    4.2693105   -21040.675   -41398.617   -740.18544   -20983.222    5358.6009    3740.5507   -449.13121    77.816777 
   42200    1069.0408   -107.25237   0.96729059   -106.28507    15329.796    4.2382783    4.2382783    4.2382783    15329.796    23072.049   -2507.2053    25424.543     28380.97   -255.66795   -11223.677    76.132208 
   42300    1275.6285    -107.4473    1.1542155   -106.29308    17336.688     4.244627     4.244627     4.244627    17336.688    8967.0754    30466.565    12576.422    -22892.62   -3210.8249    2681.2925    76.474844 
   42400    907.76334   -107.11631   0.82136334   -106.29495   -19722.217     4.269315     4.269315     4.269315   -19722.217   -34341.467   -16373.512   -8451.6714   -6715.5916    1876.8427   -11753.988    77.817022 
   42500    768.81614   -106.98182     0.695641   -106.28618     21677.66    4.2529745    4.2529745    4.2529745     21677.66    13206.145    24779.832    27047.003    25560.611    1624.1325   -11339.502    76.926921 
   42600    992.61057    -107.1795   0.89813491   -106.28136    14446.948    4.2538072    4.2538072    4.2538072    14446.948    12380.762    25877.823    5082.2577   -31520.471   -4666.7219   -594.44726    76.972114 
   42700    861.92843    -107.0655   0.77989096   -106.28561   -9740.2854    4.2587131    4.2587131    4.2587131   -9740.2854   -27003.393    8926.1899   -11143.653    1664.8868   -505.88669   -16696.102    77.238733 
   42800    978.31757   -107.17251    0.8852023   -106.28731    22842.365    4.2420053    4.2420053    4.2420053    22842.365    34489.465   -930.78584    34968.416     27436.41    1638.3835   -10128.916    76.333224 
   42900    1179.6271   -107.36067    1.0673514   -106.29332   -5391.6745     4.264387     4.264387     4.264387   -5391.6745    414.08368   -20038.833    3449.7255   -35881.878   -7306.7811     1840.235    77.547862 
   43000    1118.4945   -107.30317    1.0120374   -106.29113   -11736.003    4.2565276    4.2565276    4.2565276   -11736.003   -15779.573   -11014.797   -8413.6393    8856.0962   -1746.6242   -10447.476    77.119885 
   43100    661.70767   -106.88277   0.59872701   -106.28405    43203.686    4.2322299    4.2322299    4.2322299    43203.686    23121.838    68802.247    37686.973    27406.173    869.74509   -6850.4124    75.806726 
   43200     1141.499   -107.32163    1.0328523   -106.28878    2719.6768    4.2624426    4.2624426    4.2624426    2719.6768    3579.9504    7835.4533   -3256.3733   -32708.983   -4992.3785    8154.4312    77.441834 
   43300    1010.2224   -107.19867   0.91407047   -106.28459   -5151.1052    4.2621329    4.2621329    4.2621329   -5151.1052   -24688.595    26243.888   -17008.609    22089.995    -1282.407   -3409.2474    77.424958 
   43400    940.19899   -107.13528   0.85071181   -106.28457    10696.687    4.2399918    4.2399918    4.2399918    10696.687    23337.039   -20166.898    28919.919    24461.713    175.16382   -7057.5872     76.22458 
   43500    1397.6208   -107.55234    1.2645967   -106.28775    8108.7843    4.2562488    4.2562488    4.2562488    8108.7843   -745.87736    23372.097    1700.1331   -26363.318   -3573.5192    8840.4419    77.104729 
   43600    841.21464   -107.05265   0.76114868    -106.2915   -13560.341    4.2689398    4.2689398    4.2689398   -13560.341   -28011.576    15475.376   -28144.824    19356.836   -2059.4745   -5843.3368    77.796508 
   43700    755.46339   -106.97233   0.68355915   -106.28877    11565.835    4.2477908    4.2477908    4.2477908    11565.835     12585.34    27194.708   -5082.5417    15143.332    2493.8148   -9660.7128    76.645977 
   43800    1335.9297   -107.48592    1.2087773   -106.27714    26486.868    4.2494492    4.2494492    4.2494492    26486.868    9975.2978    56166.429    13318.876   -15695.593   -5379.3259    7040.5647    76.735784 
   43900    601.40021   -106.83184   0.54415955   -106.28768   -28473.158     4.269485     4.269485     4.269485   -28473.158   -25881.722   -50219.757   -9317.9947    30976.625   -3999.8828   -14828.987    77.826319 
   44000      873.392   -107.07169   0.79026344   -106.28142    1516.3962    4.2445271    4.2445271    4.2445271    1516.3962    36421.272   -23079.605   -8792.4786     11171.28    6623.2694   -22530.684    76.469442 
   44100    1481.9201   -107.61712    1.3408724   -106.27625    7248.3668      4.24539      4.24539      4.24539    7248.3668    4701.7588    21387.736   -4344.3945   -3643.0036   -8210.9177    9343.4481    76.516092 
   44200    670.12835   -106.89439   0.60634622   -106.28804   -44890.532     4.265179     4.265179     4.265179   -44890.532   -45233.776    -58408.13   -31029.689    40657.514   -1862.2494   -22043.952    77.591077 
   44300    1042.4351   -107.22586   0.94321721   -106.28264   -1751.7061    4.2420217    4.2420217    4.2420217   -1751.7061    24880.137   -16740.818   -13394.438    5062.1177   -1873.9217   -28289.399    76.334113 
   44400    1211.0875   -107.37799    1.0958174   -106.28217   -2071.1828    4.2535895    4.2535895    4.2535895   -2071.1828   -18667.831    19786.922   -7332.6392   -6197.1013   -9712.8123     7348.453    76.960296 
   44500    694.02777   -106.91993   0.62797091   -106.29196   -27439.873    4.2546198    4.2546198    4.2546198   -27439.873   -23973.384   -46301.497   -12044.739    34814.268   -211.25167   -24853.561    77.016234 
   44600    1066.9481   -107.24965   0.96539711   -106.28425    16492.604     4.235602     4.235602     4.235602    16492.604    37038.433    12073.411    365.96844   -4239.8101   -952.80211   -20166.527    75.988074 
   44700    1037.6607   -107.22441   0.93889717   -106.28551   -19879.946    4.2688264    4.2688264    4.2688264   -19879.946   -21864.662   -23711.735    -14063.44   -7843.2937   -1464.0961    9253.1019    77.790308 
   44800    638.60473   -106.87197   0.57782298   -106.29415    -10686.66     4.249515     4.249515     4.249515    -10686.66   -5536.8312   -30658.961    4135.8115     28238.19     -1107.24   -27635.999    76.739347 
   44900    1139.7671   -107.30816    1.0312852   -106.27687    32334.424    4.2287138    4.2287138    4.2287138    32334.424    40143.384    25646.525    31213.363   -4528.0314    5958.1649   -11795.488    75.617946 
   45000    1207.2697   -107.37149     1.092363   -106.27912   -27281.783    4.2707629    4.2707629    4.2707629   -27281.783   -45519.157   -24521.112    -11805.08   -12948.481    1420.2458    13945.306    77.896218 
   45100    447.86767   -106.69568   0.40524008   -106.29044    3.0522101    4.2509326    4.2509326    4.2509326    3.0522101    285.38801   -23507.026    23230.794    20005.074    1634.0241   -30844.821    76.816171 
   45200    1235.1923   -107.39088    1.1176279   -106.27325     25548.85    4.2318813    4.2318813    4.2318813     25548.85    40066.235    922.82341    35657.493     386.4052    6817.4682    -9454.725    75.787997 
   45300    1134.3551   -107.30619    1.0263884    -106.2798   -19134.978    4.2642956    4.2642956    4.2642956   -19134.978   -13424.161   -34926.961   -9053.8125   -11329.884   -10613.764    9930.1038    77.542876 
   45400    506.95012   -106.74425   0.45869912   -106.28556    2423.5993    4.2547967    4.2547967    4.2547967    2423.5993    15600.566   -36545.361    28215.592    19046.715    1144.9218   -29020.623     77.02584 
   45500    1323.1653   -107.47336    1.1972277   -106.27613     10546.96       4.2473       4.2473       4.2473     10546.96    32812.625    -5738.456    4566.7107   -3107.6447    579.77392     2336.425    76.619411 
   45600    1137.3023   -107.30849     1.029055   -106.27944   -10704.733       4.2566       4.2566       4.2566   -10704.733   -14496.854   -16387.307   -1230.0376    446.07261   -11330.526   -5983.1762    77.123816 
   45700    719.53565   -106.93745   0.65105098    -106.2864    2020.6451    4.2467117    4.2467117    4.2467117    2020.6451    9651.9459   -15717.762    12127.751    19937.571   -11075.241   -21360.856    76.587579 
   45800    1143.8939   -107.31817    1.0350193   -106.28315   -5101.7094    4.2550169    4.2550169    4.2550169   -5101.7094    16519.976   -29148.034   -2677.0702   -6377.8442    4276.7117    24804.808    77.037801 
   45900    1034.8875   -107.22041   0.93638792   -106.28402   -6297.0707    4.2492453    4.2492453    4.2492453   -6297.0707   -3528.9576   -22095.452    6733.1978    4971.4624   -6069.2275   -9142.9537    76.724735 
   46000    698.09104   -106.92344   0.63164744    -106.2918    2644.5347    4.2404521    4.2404521    4.2404521    2644.5347    2231.3807    -9164.932    14867.155    20527.869   -11752.176   -13312.003    76.249409 
   46100    1211.4542   -107.38479    1.0961492   -106.28865   -8291.1816    4.2592202    4.2592202    4.2592202   -8291.1816    3184.9093   -17860.232   -10198.222    -3736.483    8148.5732    29355.472    77.266328 
   46200    1202.0674   -107.37418    1.0876558   -106.28652    3983.2562    4.2487565    4.2487565    4.2487565    3983.2562   -8316.4012    13582.281    6683.8887    9678.1059   -8614.5966   -9300.6917    76.698264 
   46300    614.72431   -106.85072   0.55621548   -106.29451    87.155113    4.2462954    4.2462954    4.2462954    87.155113   -5204.9741    12925.311   -7458.8717    17280.562   -8734.8833   -14709.286    76.565056 
   46400    1198.3534   -107.37138    1.0842953   -106.28709   -4302.9822     4.252243     4.252243     4.252243   -4302.9822    6741.0817   -17938.557   -1711.4714    2292.9725    6600.1873    24289.149    76.887231 
   46500     866.3265   -107.06999   0.78387043   -106.28612    23081.693    4.2418381    4.2418381    4.2418381    23081.693   -7806.3163    54162.966    22888.428    5153.3765   -8249.9117   -9441.1708    76.324202 
   46600    806.53533   -107.02557   0.72977012    -106.2958    -31134.29     4.261974     4.261974     4.261974    -31134.29   -29553.524   -35557.109   -28292.236    15055.752   -7449.1748   -20517.981    77.416297 
   46700    1464.2227   -107.60717    1.3248594   -106.28231    11757.652    4.2495925    4.2495925    4.2495925    11757.652   -8786.8733    41483.188    2576.6421   -255.92525     11490.55    3489.6061    76.743545 
   46800    1083.9758   -107.26678   0.98080404   -106.28598     12135.95    4.2366082    4.2366082    4.2366082     12135.95   -11824.257    15080.561    33151.547    7051.2876   -2017.2044   -4970.7374    76.042243 
   46900    829.27022   -107.04337   0.75034112   -106.29303    -30601.54    4.2602742    4.2602742    4.2602742    -30601.54   -26028.011   -45471.117   -20305.491    14397.899   -4143.8566   -20015.397    77.323706 
   47000    1395.5236   -107.53564    1.2626991   -106.27294   -1501.8906    4.2556876    4.2556876    4.2556876   -1501.8906   -15172.409    7280.3401     3386.397    1847.4213    20223.287    6288.8295    77.074236 
   47100    818.54587   -107.01571    0.7406375   -106.27507   -20318.645    4.2595754    4.2595754    4.2595754   -20318.645   -29068.205   -44987.076    13099.345    8307.3701   -131.42576   -8585.5716    77.285661 
   47200     1072.824   -107.24087   0.97071372   -106.27015   -22426.601    4.2561365    4.2561365    4.2561365   -22426.601   -12913.331   -43618.717   -10747.756    13338.844    2684.3694   -15541.683    77.098628 
   47300    1439.7546   -107.56936    1.3027203   -106.26664    16865.296    4.2386288    4.2386288    4.2386288    16865.296    1374.8379     33831.66    15389.388    1271.4724    29149.857    16788.587    76.151098 
   47400    1073.3105   -107.25489   0.97115394   -106.28374   -29147.149    4.2645957    4.2645957    4.2645957   -29147.149   -33460.109   -40171.117   -13810.221    6717.1456   -1639.9013   -16617.185     77.55925 
   47500     1197.745   -107.36023    1.0837448   -106.27649   -21149.746     4.259263     4.259263     4.259263   -21149.746   -16180.037   -30104.337   -17164.863    7808.4415    8613.0078   -13639.814    77.268659 
   47600    1094.1603   -107.25799   0.99001919   -106.26797    5005.5545    4.2398089    4.2398089    4.2398089    5005.5545    3403.5737    9578.3185    2034.7713    2386.3048    30297.763    20616.527    76.214721 
   47700     1009.021   -107.18623   0.91298344   -106.27324   -30365.834    4.2643624    4.2643624    4.2643624   -30365.834    -6661.224   -58491.381   -25944.897    482.06946   -2113.8833   -21503.655    77.546519 
   47800    1424.5844   -107.55364    1.2889939   -106.26465   -16992.549    4.2584978    4.2584978    4.2584978   -16992.549     4333.662   -33774.404   -21536.906    6866.7796    17042.041    6535.5044    77.227019 
   47900    967.48649   -107.14598   0.87540211   -106.27057   -7224.4252     4.248243     4.248243     4.248243   -7224.4252   -781.30138    -2267.024    -18624.95    1897.6372    22588.747    19283.051    76.670459 
   48000    1453.7363   -107.58321    1.3153711   -106.26784   -17826.516    4.2614533    4.2614533    4.2614533   -17826.516   -8150.4964   -28718.257   -16610.797    155.42819    1438.2418    -15724.27    77.387926 
   48100     1135.271   -107.30084     1.027217   -106.27362   -5865.5889    4.2503274    4.2503274    4.2503274   -5865.5889    15196.452   -12994.061   -19799.158    8802.2791    12721.142    27644.993    76.783369 
   48200    669.79845   -106.88899   0.60604771   -106.28294   -3776.3845    4.2462387    4.2462387    4.2462387   -3776.3845    2125.4687    794.50662   -14249.129   -5767.4368    20082.962    12650.513    76.561991 
   48300    1373.5869   -107.51835    1.2428503    -106.2755   -1557.5297    4.2586337    4.2586337    4.2586337   -1557.5297    16049.058   -18157.776   -2563.8709    4972.7156   -3844.5127   -8962.3734    77.234414 
   48400    753.64812   -106.96851   0.68191666   -106.28659    7247.5036    4.2413227    4.2413227    4.2413227    7247.5036    36342.764   -18583.529    3983.2757    6217.6501    4968.9057    36089.851    76.296381 
   48500    707.18135   -106.93629   0.63987255   -106.29642    6666.6727    4.2493548    4.2493548    4.2493548    6666.6727    12252.377    4485.0252    3262.6157   -2876.7725    18480.727    3165.5432    76.730671 
   48600    1613.6273   -107.73394    1.4600439    -106.2739   -10263.099    4.2640501    4.2640501    4.2640501   -10263.099    1025.4256   -29783.375   -2031.3482    7898.1542   -12494.172   -3272.7538    77.529483 
   48700    669.87809   -106.89448   0.60611977   -106.28836    18576.007    4.2327033    4.2327033    4.2327033    18576.007     42519.67    13060.174    148.17596    310.59592    11734.824    38767.316    75.832172 
   48800    1067.7254   -107.26064   0.96610034   -106.29454    6146.7856    4.2416153    4.2416153    4.2416153    6146.7856    21247.067    15152.084   -17958.794    4235.5101    19773.221   -264.42389    76.312175 
   48900    1372.6253   -107.51703    1.2419802   -106.27505   -11046.142    4.2677399    4.2677399    4.2677399   -11046.142    4511.6331   -31943.264   -5706.7943    4021.1199   -10645.269    5733.2976    77.730924 
   49000    523.75414   -106.75962   0.47390375   -106.28572    3228.4467    4.2452539    4.2452539    4.2452539    3228.4467    37148.554    2889.4781   -30352.692   -2236.2564    18031.512    23375.759    76.508731 
   49100    1040.2692   -107.21904   0.94125743   -106.27778    19079.407    4.2399073    4.2399073    4.2399073    19079.407     20751.65    18548.724    17937.848     6372.575    16546.572    -9969.432    76.220022 
   49200    1067.7017   -107.24479   0.96607894   -106.27871   -1735.1123    4.2575526    4.2575526    4.2575526   -1735.1123    14217.299   -33411.989    13989.353   -702.74657   -1095.0027   -291.06115    77.175607 
   49300    520.89018    -106.7615   0.47131238   -106.29019    493.57181    4.2527256    4.2527256    4.2527256    493.57181    28381.487   -3908.2844   -22992.487    140.84553    25076.349    9812.0105    76.913414 
   49400    1416.7015    -107.5581    1.2818613   -106.27624    25006.705    4.2442725    4.2442725    4.2442725    25006.705     16694.35     20241.73    38084.034    4044.9051    17639.717   -8944.7862    76.455684 
   49500    943.94028   -107.14111     0.854097   -106.28702    269.09523    4.2530376    4.2530376    4.2530376    269.09523    35897.425   -21994.242   -13095.898    5390.5234   -4992.9672     938.9743    76.930343 
   49600    643.91174   -106.87093   0.58262487    -106.2883   -5700.8238    4.2532183    4.2532183    4.2532183   -5700.8238    19982.995    141.85389    -37227.32    4741.4058    32026.297     9737.729     76.94015 
   49700    1410.9986   -107.54825    1.2767011   -106.27155    11964.999    4.2496596    4.2496596    4.2496596    11964.999    13740.284    7196.7833     14957.93   -4730.5106   -560.61166    -9742.226    76.747179 
   49800    596.03981   -106.82695   0.53930935   -106.28764   -15227.934    4.2505493    4.2505493    4.2505493   -15227.934    7263.8166   -21380.312   -31567.307    3692.2646   -3286.6793    1152.0595    76.795393 
   49900    823.78135   -107.03238   0.74537467     -106.287    10763.408    4.2402063    4.2402063    4.2402063    10763.408    25126.872     18488.69   -11325.339    2341.9379    32740.217    18076.575    76.236149 
   50000    1262.0397   -107.42367      1.14192   -106.28175    4566.3305    4.2569003    4.2569003    4.2569003    4566.3305   -3152.8804    1455.8853    15395.987    2495.7261   -25405.159   -11080.523    77.140141 
   50100    722.69675   -106.94333   0.65391121   -106.28942   -16758.624    4.2542681    4.2542681    4.2542681   -16758.624   -443.17211   -13210.461    -36622.24    2030.2244    4907.7246    7305.0695    76.997133 
   50200    1119.3322   -107.28748    1.0127953   -106.27469    25898.273    4.2334607    4.2334607    4.2334607    25898.273    25061.901      30925.1    21707.816    3899.3745    17523.843    19307.874    75.872887 
   50300    1182.8826   -107.35068    1.0702971   -106.28038   -6563.0729    4.2531701    4.2531701    4.2531701   -6563.0729   -9273.9471   -4533.0447   -5882.2268    5322.0375   -40274.468   -11459.094    76.937532 
   50400    759.65848   -106.97091   0.68735495   -106.28356   -4842.3185    4.2539218    4.2539218    4.2539218   -4842.3185    21337.902   -24356.774   -11508.084    2101.1706    8956.6047     18189.05    76.978332 
   50500    1100.1466   -107.26971   0.99543579   -106.27427    13906.495    4.2430348    4.2430348    4.2430348    13906.495    789.15664    13783.129    27147.201    4458.6021   -5984.6569    15406.188    76.388818 
   50600    748.39123   -106.95698   0.67716011   -106.27982   -2325.9828    4.2530703    4.2530703    4.2530703   -2325.9828    7683.0471    4547.3417   -19208.337   -4531.2699   -40173.285   -4287.3886    76.932118 
   50700    1066.2422   -107.24322   0.96475832   -106.27846   -4981.4635    4.2432563    4.2432563    4.2432563   -4981.4635    12318.116    -22195.45   -5067.0571    2260.6226    14254.751    30545.251    76.400778 
   50800    945.53716   -107.13759   0.85554189   -106.28205    11264.742    4.2438614    4.2438614    4.2438614    11264.742   -4372.9919     31525.77    6641.4469    4715.3674   -18570.779    5096.3611     76.43347 
   50900    1031.3723   -107.21428    0.9332073   -106.28107   -20258.287    4.2591268    4.2591268    4.2591268   -20258.287   -28499.751    4937.4231   -37212.533    -7211.951   -27723.569    3522.3569    77.261244 
   51000    1200.3122   -107.36272    1.0860677   -106.27665    5475.7476      4.24313      4.24313      4.24313    5475.7476    38390.605   -24250.573    2287.2108     2675.356    14374.153    35060.228    76.393956 
   51100    994.12255   -107.17993   0.89950298   -106.28043    4567.6103    4.2413781    4.2413781    4.2413781    4567.6103   -18956.416    34521.292   -1862.0448   -3062.1573   -27097.078   -5124.6518    76.299374 
   51200    964.31814   -107.15287   0.87253531   -106.28033   -7080.3251    4.2572726    4.2572726    4.2572726   -7080.3251    269.76077    1953.2287   -23463.965   -610.15014   -13672.754    12648.068    77.160383 
   51300    1035.4604   -107.21399   0.93690635   -106.27708    2475.1171     4.245745     4.245745     4.245745    2475.1171    20896.123   -17243.985    3773.2134    868.08745    664.62927    26553.114    76.535288 
   51400    691.38178   -106.90988   0.62557676   -106.28431   -5223.9519    4.2425611    4.2425611    4.2425611   -5223.9519   -43543.863    45516.296   -17644.289   -3119.9627    -38181.95   -8513.4268    76.363236 
   51500    1075.8554   -107.25247   0.97345656   -106.27901   -11035.539    4.2546581    4.2546581    4.2546581   -11035.539   -13046.507   -1035.2851   -19024.824   -1405.3837    4051.6934    10490.005    77.018315 
   51600    1163.6963   -107.33006    1.0529369   -106.27713   -6848.2331    4.2514683    4.2514683    4.2514683   -6848.2331    -2094.459   -7499.9613   -10950.279   -38.475705   -15966.097    20015.397    76.845218 
   51700    845.55136   -107.04773   0.76507264   -106.28266    -2741.773    4.2480784    4.2480784    4.2480784    -2741.773   -22386.692    42354.873     -28193.5    2979.3751   -34901.063   -5217.3868    76.661545 
   51800     1308.432    -107.4587    1.1838968    -106.2748    -312.1164    4.2486062    4.2486062    4.2486062    -312.1164   -2326.4821    10619.152   -9229.0191   -7067.8876    21827.783    3946.1787    76.690121 
   51900    828.64481   -107.03103   0.74977524   -106.28125    6505.3087    4.2484989    4.2484989    4.2484989    6505.3087    14061.722    13449.798   -7995.5939   -1347.9217   -34215.224    12008.588    76.684314 
   52000    828.81559   -107.03242   0.74992977   -106.28249   -17411.539    4.2540443    4.2540443    4.2540443   -17411.539   -42143.167    22572.015   -32663.466     3467.915   -15624.754   -3235.6342    76.984984 
   52100    1085.6157   -107.25521   0.98228788   -106.27292    3150.1256    4.2500377    4.2500377    4.2500377    3150.1256    11654.336    3020.2239   -5224.1826    -8997.636    24657.875    -2111.214    76.767668 
   52200    980.07611   -107.16285   0.88679346   -106.27605   -7004.0316    4.2510578    4.2510578    4.2510578   -7004.0316   -6927.6763    6844.0565   -20928.475    2353.6647   -48744.418    6956.8351    76.822958 
   52300    1198.0656   -107.35855     1.084035   -106.27452   -7596.5831    4.2571215    4.2571215    4.2571215   -7596.5831   -3756.1139     6485.538   -25519.173   -2652.1062    18733.926   -3103.8511    77.152167 
   52400    1276.7615   -107.42992    1.1552407   -106.27468    2042.5814    4.2399246    4.2399246    4.2399246    2042.5814    4225.1329    12231.282    -10328.67   -8453.8796    9249.1394   -6228.4384    76.220958 
   52500    656.08888   -106.88111     0.593643   -106.28746    11188.935    4.2410408    4.2410408    4.2410408    11188.935     36532.47    18684.624    -21650.29   -1903.6914   -53197.209    5983.3028    76.281171 
   52600    1349.2534   -107.49703    1.2208328    -106.2762   -18087.252    4.2619124    4.2619124    4.2619124   -18087.252    -18742.02   -14524.068   -20995.667   -6849.8429    23233.667    1845.7101    77.412937 
   52700    866.98476   -107.06258   0.78446603   -106.27812   -2342.3148    4.2504461    4.2504461    4.2504461   -2342.3148    3044.2526    23764.302   -33835.499   -4005.4426   -21632.142   -5915.2441    76.789801 
   52800    935.18685   -107.12635   0.84617671   -106.28018   -7454.3603    4.2458619    4.2458619    4.2458619   -7454.3603    16471.238   -325.48883    -38508.83   -5178.2355   -36503.633    8087.4036    76.541612 
   52900    1534.3245   -107.65793     1.388289   -106.26964     792.1542    4.2544961    4.2544961    4.2544961     792.1542     17809.88   -2651.3468    -12782.07   -3356.5529    13793.428     7154.643    77.009513 
   53000    776.59928   -106.98145   0.70268335   -106.27877    -12003.74    4.2554015    4.2554015    4.2554015    -12003.74   -18540.122    29145.758   -46616.856    48.949523   -50926.275   -5987.8792    77.058688 
   53100    983.31963   -107.16218   0.88972827   -106.27245   -2067.6621    4.2509066    4.2509066    4.2509066   -2067.6621    31690.242   -16185.709   -21707.519    2630.2918    2019.6405    16137.402    76.814763 
   53200     955.0638   -107.13815    0.8641618   -106.27399    5084.6732     4.243416     4.243416     4.243416    5084.6732    6755.9109    26087.563   -17589.454    2709.5469   -18599.985    4199.4126    76.409406 
   53300    890.02324   -107.08698   0.80531173   -106.28166   -5440.4926    4.2482731    4.2482731    4.2482731   -5440.4926   -8342.4081    26912.431   -34891.501    5498.4112    -44404.72   -1844.1158    76.672088 
   53400    1415.8035   -107.55734    1.2810488   -106.27629   -12152.387    4.2568715    4.2568715    4.2568715   -12152.387    16860.313    -25056.25   -28261.225   -2166.0442     16386.55    9792.3382    77.138574 
   53500     845.3236    -107.0501   0.76486656   -106.28524   -10348.757    4.2459447    4.2459447    4.2459447   -10348.757    1678.5543    8204.0509   -40928.875   -3686.4814   -44884.748    138.69722     76.54609 
   53600    1159.0298   -107.33183    1.0487145   -106.28312    4880.2024    4.2443683    4.2443683    4.2443683    4880.2024   -2791.5315    36225.731   -18793.593    2952.2964   -23101.681    -3708.442     76.46086 
   53700    1404.4838   -107.54708    1.2708065   -106.27627   -11354.511    4.2578896    4.2578896    4.2578896   -11354.511    1963.8128   -10563.835   -25463.509    150.78239    7205.6949    3419.4652    77.193938 
   53800    525.55283   -106.76294   0.47553124   -106.28741   -7014.1346    4.2458049    4.2458049    4.2458049   -7014.1346   -2502.8613    20470.146   -39009.688   -2761.9833   -57559.614    1315.9007     76.53853 
   53900    1223.3033   -107.39041    1.1068705   -106.28354    3133.7169    4.2432109    4.2432109    4.2432109    3133.7169   -4407.8037    17537.047   -3728.0932    552.30096    2960.7459   -6311.5665    76.398329 
   54000    1216.6516   -107.38233     1.100852   -106.28147   -9827.7299    4.2566943    4.2566943    4.2566943   -9827.7299    10092.565   -7031.9446   -32543.811    1330.8666   -4985.9278    4075.8641    77.128942 
   54100    526.37269   -106.76747   0.47627307   -106.29119   -7624.6789    4.2484777    4.2484777    4.2484777   -7624.6789    2676.9259   -2122.2461   -23428.717   -5427.7116   -49435.379   -1127.8513    76.683165 
   54200    1354.9099   -107.50806     1.225951    -106.2821    1554.0024     4.244881     4.244881     4.244881    1554.0024   -6907.0412   -3482.4847    15051.533    9416.1632    20211.361    -3782.934    76.488574 
   54300    1020.8443   -107.20677   0.92368134   -106.28308    2763.4807    4.2501341    4.2501341    4.2501341    2763.4807    18384.584    19081.229   -29175.372    2742.5715   -28160.092    2363.3574    76.772894 
   54400    834.00409   -107.04316   0.75462443   -106.28854    -20475.51    4.2538742    4.2538742    4.2538742    -20475.51   -50832.868    7145.2195   -17738.881   -715.27076   -38225.689   -4627.1385    76.975747 
   54500    1200.9652   -107.36888    1.0866586   -106.28222     9996.801     4.245553     4.245553     4.245553     9996.801    11801.418   -2578.3601    20767.345    10045.808    16801.142    735.23364    76.524904 
   54600    953.84756   -107.15143   0.86306132   -106.28837   -7773.9225    4.2465199    4.2465199    4.2465199   -7773.9225   -23259.505    24591.316   -24653.578   -5912.0377   -52800.029   -2728.9866    76.577204 
   54700    741.59794   -106.96035    0.6710134   -106.28934   -2458.4442    4.2519246    4.2519246    4.2519246   -2458.4442    1898.5365   -15150.091    5876.2219    6095.6597   -18457.914    405.10859    76.869959 
   54800    1085.8074    -107.2639   0.98246139   -106.28144    506.76446    4.2478609    4.2478609    4.2478609    506.76446   -7157.7068   -10841.644    19519.644    12096.239   -1979.1451    320.53476     76.64977 
   54900     751.1593   -106.96858   0.67966472   -106.28891   -6168.9516    4.2508998    4.2508998    4.2508998   -6168.9516   -32569.697     33898.57   -19835.728   -7334.5901   -55740.557   -4968.3781    76.814391 
   55000    1309.7276   -107.46683     1.185069   -106.28176    6470.7667    4.2439004    4.2439004    4.2439004    6470.7667   -11853.373    4844.5735    26421.099    15042.429    1065.9272    4340.8223    76.435577 
   55100    856.07901   -107.06586   0.77459828   -106.29126   -1544.1852    4.2480601    4.2480601    4.2480601   -1544.1852   -33943.375    15180.235    14130.584    13801.985   -17381.939   -4536.8444    76.660555 
   55200    844.80207   -107.05507   0.76439467   -106.29068   -15506.244    4.2564086    4.2564086    4.2564086   -15506.244   -36446.316    20171.531   -30243.948   -5092.0049   -49164.774    602.36546    77.113417 
   55300    1381.8351   -107.52935    1.2503135   -106.27904    16754.507    4.2398901    4.2398901    4.2398901    16754.507     26063.65   -7224.5641    31424.435     4633.352     19187.62    857.00895    76.219097 
   55400    588.01606    -106.8268   0.53204929   -106.29475   -3994.0932     4.244425     4.244425     4.244425   -3994.0932   -11520.414    7794.6801   -8256.5454    10866.437   -42578.208   -2967.2213    76.463925 
   55500    1014.0227    -107.2086   0.91750909   -106.29109   -23682.308    4.2601307    4.2601307    4.2601307   -23682.308   -31957.606    2716.0919   -41805.411   -3573.3762   -35150.936   -969.35957    77.315893 
   55600    1396.1108    -107.5442    1.2632304   -106.28097   -1414.6252    4.2512405    4.2512405    4.2512405   -1414.6252   -5528.9045   -11653.266    12938.295    7353.1854     18783.27   -3417.7808    76.832864 
   55700    618.26015   -106.85154   0.55941477   -106.29212   -21645.236    4.2389438    4.2389438    4.2389438   -21645.236   -47221.765     17335.84   -35049.782    12279.958   -66368.849   -158.81573    76.168073 
   55800    1081.0519   -107.26919   0.97815846   -106.29104    5828.2685    4.2445636    4.2445636    4.2445636    5828.2685     29293.09    12169.866   -23978.151   -2551.4737   -5588.8389   -4707.7898    76.471416 
   55900    1323.3839   -107.48039    1.1974255   -106.28296   -18666.691    4.2623237    4.2623237    4.2623237   -18666.691   -21528.781   -13159.789   -21311.502    10631.144    7499.2739    1056.5001    77.435352 
   56000    572.42255   -106.81278   0.51793995   -106.29484    -10895.97     4.245475     4.245475     4.245475    -10895.97   -24775.127    15229.267   -23142.051    3671.9018   -61308.195    3743.9491    76.520687 
   56100    1341.7426   -107.49689    1.2140369   -106.28286    23246.955    4.2370629    4.2370629    4.2370629    23246.955     41532.05    4368.1922    23840.623    2188.0186    14151.389   -5314.8944    76.066725 
   56200    1021.1768   -107.20813   0.92398226   -106.28415   -18075.632    4.2654156    4.2654156    4.2654156   -18075.632   -34251.798   -6222.5257   -13752.573    3048.4067   -21268.315   -3613.2173    77.603993 
   56300    609.22392   -106.83736    0.5512386   -106.28612   -22064.628    4.2536967    4.2536967    4.2536967   -22064.628   -44318.438    7719.2796   -29594.725    2597.6006    -50780.02    2415.0426    76.966113 
   56400    1179.5056   -107.33841    1.0672414   -106.27117    36638.438    4.2319762    4.2319762    4.2319762    36638.438    66176.446     19458.83    24280.038    1887.4987    21018.051   -360.56754    75.793097 
   56500    929.08797   -107.12604   0.84065832   -106.28538   -15665.964    4.2534361    4.2534361    4.2534361   -15665.964    -29066.78    17315.292   -35246.405    -4812.092   -52258.956   -2154.5725    76.951967 
   56600    838.35239     -107.044   0.75855886   -106.28545    -1838.199    4.2578067    4.2578067    4.2578067    -1838.199    19568.913    8800.2504    -33883.76    10624.423    -26225.53    3292.1149    77.189429 
   56700    1277.6112   -107.43356    1.1560095   -106.27755    14834.551    4.2441919    4.2441919    4.2441919    14834.551    36898.793    11281.689   -3676.8299    -5839.946     5557.313   -6591.0623    76.451328 
   56800    852.73891   -107.05687   0.77157608   -106.28529   -1685.3463    4.2459978    4.2459978    4.2459978   -1685.3463    4805.9305    27585.097   -37447.066   -4231.2583   -52490.537   -1571.5479    76.548962 
   56900    1168.8813   -107.34173    1.0576283   -106.28411     8096.745    4.2447286    4.2447286    4.2447286     8096.745    26259.493    6222.9897   -8192.2481    4555.7138    1273.2206    5232.8931    76.480334 
   57000    863.33946   -107.07135   0.78116769   -106.29018    64.028979    4.2511964    4.2511964    4.2511964    64.028979     17482.82    13090.358   -30381.091   -1144.9974   -1874.8438   -4846.4304    76.830473 
   57100    960.79142   -107.15276   0.86934427   -106.28341   -18174.132    4.2615757    4.2615757    4.2615757   -18174.132    -18506.12    8437.6058   -44453.882   -4704.2312   -29573.418     1039.603    77.394591 
   57200    1106.5596   -107.28055    1.0012384   -106.27932   -4443.9522    4.2425186    4.2425186    4.2425186   -4443.9522    12952.131   -4609.8376    -21674.15   -8955.8695    12564.458    723.94521    76.360942 
   57300    883.04305   -107.08484   0.79899591   -106.28585    14744.026    4.2343829    4.2343829    4.2343829    14744.026    45466.995    23500.679   -24735.595     4153.946   -3371.4607     -3388.93    75.922481 
   57400     1323.949    -107.4796    1.1979369   -106.28166    -13316.46    4.2636668    4.2636668    4.2636668    -13316.46   -5729.8526    -8412.883   -25806.644   -17864.021   -18604.579    3431.5939     77.50858 
   57500    862.11911    -107.0656   0.78006349   -106.28554   -19088.633    4.2563906    4.2563906    4.2563906   -19088.633    18048.865   -30972.459   -44342.304   -7545.3192    9035.8531    3796.8076    77.112439 
   57600    871.17828   -107.06682   0.78826042   -106.27856    26035.971    4.2290521    4.2290521    4.2290521    26035.971    52860.284    35876.093   -10628.464    1522.9349   -198.98172   -5485.3151    75.636096 
   57700    1343.3895   -107.49535     1.215527   -106.27982    1946.7439    4.2496334    4.2496334    4.2496334    1946.7439    9902.0419    5415.7966   -9477.6069   -9986.5147   -9339.9782    2438.8819    76.745761 
   57800    256.79712   -106.52601   0.23235543   -106.29366   -26235.326    4.2637093    4.2637093    4.2637093   -26235.326    20274.136   -34844.067   -64136.046   -3639.6954    12812.659    5431.0008    77.510897 
   57900    1040.3971    -107.2244   0.94137319   -106.28303    14088.415    4.2433654    4.2433654    4.2433654    14088.415    29814.946    26356.751   -13906.452   -1890.6699    3379.4318   -10972.449    76.406673 
   58000    1337.4629   -107.48883    1.2101645   -106.27866    13151.176    4.2426486    4.2426486    4.2426486    13151.176    26497.213    8162.9508    4793.3647    6584.9526   -10652.619    8983.4932     76.36796 
   58100    532.88051   -106.77759   0.48216148   -106.29543   -14579.366     4.250484     4.250484     4.250484   -14579.366    25902.208   -24189.164   -45451.142    -12719.91    17546.447   -1200.6678    76.791852 
   58200    1196.8961   -107.37035    1.0829767   -106.28737    7052.1592    4.2509634    4.2509634    4.2509634    7052.1592    6995.2466    27711.203   -13549.972    7526.9485    2822.6863   -12503.728    76.817839 
   58300    1093.9583   -107.27594   0.98983646    -106.2861   -4100.6354    4.2531727    4.2531727    4.2531727   -4100.6354   -2571.6231    7397.7161   -17127.999     6729.174   -17896.345    10558.861    76.937672 
   58400    883.65454   -107.08731    0.7995492   -106.28776   -1046.2004    4.2386992    4.2386992    4.2386992   -1046.2004    28788.734    3708.4986   -35635.833   -8792.2767    17042.334   -10518.032     76.15489 
   58500    950.95406   -107.15057   0.86044322   -106.29013    7601.9437    4.2429911    4.2429911    4.2429911    7601.9437    -3257.062    40443.734   -14380.841    14840.063   -11407.071   -3450.5621    76.386455 
   58600    953.76733   -107.15199   0.86298873     -106.289    -25155.66    4.2593806    4.2593806    4.2593806    -25155.66    -40339.07   -11200.558   -23927.352    8167.1952   -24334.237    4431.6077    77.275062 
   58700    1176.1093   -107.34742    1.0641684   -106.28326    6740.8708    4.2419418    4.2419418    4.2419418    6740.8708    23917.852    4408.4714   -8103.7106   -253.76639    16595.901   -2976.4221    76.329799 
   58800     826.4015   -107.03857   0.74774545   -106.29082    380.41846    4.2410259    4.2410259    4.2410259    380.41846   -17877.661     38654.87   -19635.953    10680.132   -35390.133    1314.9175    76.280367 
   58900    951.28762   -107.15096   0.86074503   -106.29022   -14462.196    4.2558014    4.2558014    4.2558014   -14462.196   -27201.786    1026.1055   -17210.909    16327.174   -20723.311    4480.7545     77.08042 
   59000    1470.0827   -107.61046    1.3301617    -106.2803   -2398.8184    4.2456505    4.2456505    4.2456505   -2398.8184    22481.267   -5881.7713   -23795.951    -3495.258     13159.81    2867.3001    76.530178 
   59100     591.9315    -106.8305   0.53559206   -106.29491   -9033.3754    4.2467718    4.2467718    4.2467718   -9033.3754   -25203.592    42977.492   -44874.026    10411.676   -44148.616   -2294.6722    76.590828 
   59200    993.75219   -107.18965   0.89916786   -106.29049   -19096.525     4.249907     4.249907     4.249907   -19096.525   -41334.031   -6498.4341   -9457.1103    26301.606   -13390.867    7879.3321    76.760584 
   59300     1356.244   -107.51235    1.2271581   -106.28519     1471.517    4.2430824    4.2430824    4.2430824     1471.517    129.98193    8006.4911   -3721.9221   -16822.518    8642.1759    -545.3729    76.391385 
   59400    761.57489   -106.98295   0.68908896   -106.29386   -20146.752    4.2541422    4.2541422    4.2541422   -20146.752   -40599.371    6337.6159     -26178.5    12712.319   -41374.078    690.25325    76.990302 
   59500    999.73046   -107.19164   0.90457713   -106.28706   -5840.9084    4.2515276    4.2515276    4.2515276   -5840.9084    -18270.66   -2933.5891    3681.5244    27711.826    189.25234    2971.4757    76.848433 
   59600    1401.3952   -107.54783    1.2680118   -106.27982    3293.8338    4.2418049    4.2418049    4.2418049    3293.8338    7624.2822   -4133.8536    6391.0727   -22900.376    5733.5946   -618.67594    76.322411 
   59700    595.49925    -106.8342   0.53882024   -106.29538    -6515.955    4.2482939    4.2482939    4.2482939    -6515.955   -26959.132   -1094.1332    8505.4002    26157.507   -29176.114    2006.1312    76.673212 
   59800    887.89135    -107.0996   0.80338275   -106.29622    3301.1554    4.2483243    4.2483243    4.2483243    3301.1554   -14375.672    2105.4309    22173.707    25728.992   -4352.7843   -7465.7763     76.67486 
   59900    1345.3121   -107.50374    1.2172666   -106.28648    12982.953    4.2462978    4.2462978    4.2462978    12982.953   -1748.9285    12023.998    28673.791   -19137.154    857.71828     3845.483    76.565188 
   60000    383.75283   -106.65001   0.34722763   -106.30278   -9184.3056     4.252262     4.252262     4.252262   -9184.3056   -53478.719    1064.5692    24861.233     38245.97   -23141.934    3543.3322    76.888264 
   60100    1088.3171   -107.27902    0.9847322   -106.29429    8776.7542    4.2512511    4.2512511    4.2512511    8776.7542   -4219.6543    16785.645    13764.272    10331.692   -9351.4229   -6950.3419    76.833441 
   60200    1504.4115   -107.64192    1.3612232   -106.28069    19821.373    4.2466804    4.2466804    4.2466804    19821.373   -105.70475      9646.43    49923.394   -1772.4643    2153.6452   -1030.2242    76.585886 
   60300    558.14727   -106.80508   0.50502338   -106.30006   -16905.691    4.2507347    4.2507347    4.2507347   -16905.691   -55079.022   -26677.289    31039.238     42693.25   -26088.167    1732.3193    76.805445 
   60400    1008.5749   -107.20725   0.91257975   -106.29467    3594.2457    4.2450908    4.2450908    4.2450908    3594.2457   -7917.2501    6234.7189    12465.268   -7104.6639   -17733.804   -5678.5502    76.499915 
   60500    1161.4133   -107.33996    1.0508712   -106.28909     17354.21    4.2434005    4.2434005    4.2434005     17354.21   -2462.5533    7699.1841    46825.999     8642.344    6560.9166   -5526.2024    76.408571 
   60600    613.12082   -106.85097    0.5547646   -106.29621   -22546.115    4.2598408    4.2598408    4.2598408   -22546.115    -36404.86   -25268.887   -5964.5986    31340.981   -27427.051     9577.063    77.300111 
   60700    1006.2181   -107.19678   0.91044727   -106.28633   -5405.0846    4.2492252    4.2492252    4.2492252   -5405.0846   -748.52805   -510.56538    -14956.16   -13669.202   -8445.6735    -11808.91    76.723651 
   60800    1201.9935   -107.36785     1.087589   -106.28026    21712.483    4.2385565    4.2385565    4.2385565    21712.483    27861.815    6829.7232     30445.91    1245.5881    8489.8673   -4338.1678      76.1472 
   60900    989.21248   -107.18868   0.89506024   -106.29362   -21388.676    4.2517866    4.2517866    4.2517866   -21388.676   -21044.547   -16497.735   -26623.745    22137.319   -28146.015    10775.989    76.862477 
   61000    979.01327   -107.18192   0.88583178   -106.29609    -2199.421    4.2422818    4.2422818    4.2422818    -2199.421       8999.8    -1256.055   -14342.008   -4117.3886   -4297.6386   -14843.144    76.348154 
   61100    1191.7835   -107.36806    1.0783507   -106.28971    1692.0463    4.2457479    4.2457479    4.2457479    1692.0463   -9648.6682    2733.8328    11990.974   -9724.3953    6791.0972   -5230.7498    76.535444 
   61200    803.67296   -107.01774   0.72718019   -106.29056   -35198.708    4.2606742    4.2606742    4.2606742   -35198.708    -42458.69   -15629.676   -47507.758    19231.027    -30218.24    4409.9822    77.345488 
   61300    942.37576   -107.14237   0.85268139   -106.28968    4541.5269     4.239604     4.239604     4.239604    4541.5269    34912.984   -534.58901   -20753.814   -2657.1668   -3381.4817   -19885.551    76.203669 
   61400    1278.6867   -107.44184    1.1569826   -106.28485    21959.158    4.2369559    4.2369559    4.2369559    21959.158    23851.216    24249.745    17776.513   -6361.8666    3402.8367   -3611.3929    76.060963 
   61500    991.60989   -107.19007   0.89722947   -106.29284   -18529.218    4.2566905    4.2566905    4.2566905   -18529.218   -15655.045   -3127.5256   -36805.084    11125.772   -35942.084    2250.9573    77.128736 
   61600    990.68867    -107.1891   0.89639593    -106.2927    4664.2003    4.2443944    4.2443944    4.2443944    4664.2003     32343.16    4942.3446   -23292.904    1983.5204    -5722.126   -21240.739    76.462273 
   61700    1102.7303   -107.28504   0.99777353   -106.28727    19325.541    4.2381879    4.2381879    4.2381879    19325.541    6553.2994    33421.605    18001.717       -12767    694.63231    -4530.901    76.127335 
   61800    990.20517   -107.18682   0.89595845   -106.29087   -11742.145     4.251597     4.251597     4.251597   -11742.145   -25284.867    15599.918   -25541.488   -2149.9878   -32370.818    -1489.559    76.852198 
   61900    874.21692   -107.08232   0.79100984   -106.29131    6139.2163    4.2457019    4.2457019    4.2457019    6139.2163     22399.44    16947.114   -20928.904    3168.0851    6734.8235   -28550.586    76.532957 
   62000    864.75879   -107.07473   0.78245193   -106.29227     9548.104    4.2423409    4.2423409    4.2423409     9548.104   -432.29557    22927.499     6149.109   -21028.044   -7712.5833     5575.971    76.351346 
   62100    1089.7612   -107.27615   0.98603881   -106.29011   -7936.7485    4.2494689    4.2494689    4.2494689   -7936.7485    -10190.83    5916.4538   -19535.869   -6383.3821   -24863.025    -2496.376    76.736849 
   62200     1146.372   -107.32593    1.0372615   -106.28867    13415.084    4.2441605    4.2441605    4.2441605    13415.084    32389.635    5220.2816    2635.3344    5537.7979    11575.908   -32199.277    76.449631 
   62300    1027.3283   -107.22123    0.9295482   -106.29168    2365.2514    4.2445051    4.2445051    4.2445051    2365.2514   -11176.422    418.66605     17853.51   -21012.409   -11108.299    11559.925    76.468257 
   62400    867.66413    -107.0812   0.78508074   -106.29612   -10974.031    4.2470739    4.2470739    4.2470739   -10974.031   -20055.869   -7509.7541    -5356.471   -7706.4433    -30111.55   -2497.4887    76.607174 
   62500    1230.2989    -107.3993    1.1132003    -106.2861    10439.341    4.2468694    4.2468694    4.2468694    10439.341    19013.052    5983.6753    6321.2951    8133.1278    3225.2391   -22345.976     76.59611 
   62600    800.51357   -107.01316    0.7243215   -106.28884   -4407.1748    4.2543261    4.2543261    4.2543261   -4407.1748   -16935.183    27.122738    3686.5358    -18876.87   -9320.4888    7027.9633    77.000283 
   62700    820.85579   -107.03049   0.74272757   -106.28776   -15199.103    4.2479072    4.2479072    4.2479072   -15199.103   -27312.997   -11690.923     -6593.39   -5513.2447   -22091.414   -286.93775    76.652276 
   62800    1245.8209   -107.40889    1.1272449   -106.28165    24602.054    4.2376633    4.2376633    4.2376633    24602.054    32930.425    10283.128     30592.61    2272.9627    10762.003   -20048.336    76.099068 
   62900    1014.8596   -107.20931   0.91826632   -106.29104   -9356.6281    4.2515033    4.2515033    4.2515033   -9356.6281   -24987.375   -9252.6342    6170.1247    -17994.81   -2071.5672     2270.606    76.847112 
   63000    979.99612   -107.17738   0.88672108   -106.29066   -9793.5881     4.251303     4.251303     4.251303   -9793.5881   -15425.599   -14575.477    620.31112   -1831.2059   -21015.963    3266.3966    76.836251 
   63100    1097.7878   -107.27974   0.99330151   -106.28643     14099.58    4.2369862    4.2369862    4.2369862     14099.58    24266.121     12169.54    5863.0779    1392.9461    26227.609   -17225.587    76.062596 
   63200     864.1835    -107.0763   0.78193139   -106.29437   -4667.5938    4.2452535    4.2452535    4.2452535   -4667.5938   -25951.963   -380.57421    12329.756   -14504.994    5016.5847   -991.16679    76.508713 
   63300    1117.5533   -107.29927    1.0111857   -106.28808    -10368.79    4.2540146    4.2540146    4.2540146    -10368.79   -14467.064    -15893.87   -745.43532    5070.9437   -16300.893    6676.2417    76.983371 
   63400    815.24403   -107.02581   0.73764993   -106.28816    3765.1016    4.2475342    4.2475342    4.2475342    3765.1016    6881.2063    6830.2616   -2416.1629   -959.83362    31221.501   -6329.8091    76.632088 
   63500    1093.1226   -107.27588   0.98908028    -106.2868    -4831.768    4.2453716    4.2453716    4.2453716    -4831.768   -24374.199   -13261.653    23140.547   -16215.672    3020.1234   -6812.6494    76.515098 
   63600    1262.8189   -107.42544    1.1426251   -106.28282    10392.329    4.2453081    4.2453081    4.2453081    10392.329    21805.467    1698.8991    7672.6208     10796.76   -484.38093      9123.32    76.511665 
   63700     875.9074   -107.08197   0.79253943   -106.28943   -3922.1086    4.2538054    4.2538054    4.2538054   -3922.1086   -6262.6793    10578.111   -16081.757   -3253.6307    38729.415    1987.2032    76.972012 
   63800    1194.1153   -107.35942    1.0804606   -106.27896   -5874.0086    4.2527875    4.2527875    4.2527875   -5874.0086   -19056.541   -18433.833    19868.348   -12940.969   -4169.7275   -15210.261    76.916771 
   63900    891.28202   -107.08847    0.8064507   -106.28202    2145.3677     4.238334     4.238334     4.238334    2145.3677    -6432.029    12187.699    680.43285    14713.277    14399.407    13348.225    76.135206 
   64000    842.55225   -107.05343   0.76235898   -106.29107   -2434.3839    4.2446351    4.2446351    4.2446351   -2434.3839   -11510.584    22641.968   -18434.535   -956.98131    32004.498    10022.496    76.475283 
   64100    1418.2803    -107.5637    1.2832898   -106.28041   -11537.338    4.2583038    4.2583038    4.2583038   -11537.338   -19127.462   -21031.679    5547.1275   -12426.395   -8438.1248   -15707.081    77.216465 
   64200     740.0691   -106.95777   0.66963008   -106.28814   -4151.3002    4.2488437    4.2488437    4.2488437   -4151.3002    9738.2481    5402.7925   -27594.941    12604.159    25825.971    14915.524    76.702984 
   64300    1034.9778   -107.22361    0.9364697   -106.28714    2885.9547    4.2410636    4.2410636    4.2410636    2885.9547   -2031.9765    25017.613   -14327.773   -2325.5379    29999.831    12676.259      76.2824 
   64400    1567.7397   -107.69891    1.4185238   -106.28039    4883.1075    4.2481898    4.2481898    4.2481898    4883.1075    5837.4036      1154.22     7657.699   -5052.0514   -16166.807   -9449.1337    76.667576 
   64500    570.91587   -106.81487   0.51657667   -106.29829   -21832.186    4.2517832    4.2517832    4.2517832   -21832.186   -20565.481   -6563.8582   -38367.218    10639.652    34611.546    14491.123    76.862293 
   64600    882.14837   -107.09404   0.79818639   -106.29585   -858.40146    4.2433616    4.2433616    4.2433616   -858.40146   -2528.1544    16364.588   -16411.638    1025.4155    21967.875    8098.5123     76.40647 
   64700    1683.8481   -107.80589    1.5235812   -106.28231    3876.4154    4.2472308    4.2472308    4.2472308    3876.4154    1172.4909    10754.375   -297.61959   -8287.4166   -9897.9728    -5910.993    76.615667 
   64800    461.01282   -106.71793   0.41713409    -106.3008   -21237.744    4.2517089    4.2517089    4.2517089   -21237.744   -8050.7031   -13787.089   -41875.439    5027.0892    37626.595    20351.652    76.858263 
   64900     814.1161   -107.03321   0.73662936   -106.29659   -661.06607    4.2450048    4.2450048    4.2450048   -661.06607    12306.828   -9786.1169   -4503.9093    7876.6182    8411.5785    8699.5109    76.495265 
   65000    1594.1379   -107.72554    1.4424095   -106.28313    5800.1729    4.2453872    4.2453872    4.2453872    5800.1729    -773.2927     18861.66   -687.84808   -7719.9114   -3360.5935   -4584.2671    76.515939 
   65100    535.90133   -106.78754   0.48489479   -106.30265   -11224.443     4.247357     4.247357     4.247357   -11224.443   -14161.484    11997.103   -31508.947    4533.2216      35091.6    25344.741    76.622496 
   65200    1020.7601   -107.22241   0.92360518   -106.29881    1838.8675    4.2454717    4.2454717    4.2454717    1838.8675    3172.4543    1136.4062    1207.7422    9363.9459    6358.0886    15980.354    76.520509 
   65300    1568.9648   -107.70792    1.4196323   -106.28828    10511.856    4.2448959    4.2448959    4.2448959    10511.856   -358.28317     26595.15    5298.7022    5840.9588   -4389.9269   -14065.845    76.489377 
   65400    623.12418    -106.8632   0.56381585   -106.29939   -10138.515    4.2448877    4.2448877    4.2448877   -10138.515   -8469.2943   -1755.0057   -20191.246    3003.2781    27868.461    36483.413    76.488936 
   65500     806.9453   -107.02817   0.73014107   -106.29803   -4162.8532    4.2471206    4.2471206    4.2471206   -4162.8532    2320.4815   -24544.576    9735.5346    16595.249    3697.5923    11736.084    76.609704 
   65600    1354.0884    -107.5119    1.2252076   -106.28669   -2585.4162    4.2471175    4.2471175    4.2471175   -2585.4162   -8379.5133   -14060.732    14683.996    8328.3622   -3402.8449   -10972.925    76.609536 
   65700    597.84258   -106.83882   0.54094053   -106.29788   -6803.7001    4.2443753    4.2443753    4.2443753   -6803.7001   -979.39152    8972.9469   -28404.656   -5141.2897    27705.067    40181.722    76.461237 
   65800    1010.8702   -107.21321   0.91465659   -106.29856   -4874.5572    4.2440506    4.2440506    4.2440506   -4874.5572   -7186.2609   -7168.5841   -268.82653    27156.197   -699.60727    1751.2157    76.443692 
   65900    1415.4278   -107.56886    1.2807088   -106.28815   -5519.0331     4.248067     4.248067     4.248067   -5519.0331   -15975.214   -5349.1432    4767.2581    627.64739   -667.93524   -56.215116    76.660928 
   66000    831.74851    -107.0481   0.75258353   -106.29552   -12350.774    4.2466374    4.2466374    4.2466374   -12350.774    8345.5696   -4995.8233   -40402.067   -6009.6913    24130.726    39914.761    76.583559 
   66100    955.05586   -107.15547   0.86415462   -106.29132   -90.898105     4.240745     4.240745     4.240745   -90.898105   -1043.9428   -4574.0425     5345.291    17837.206    5753.9988   -4573.1501    76.265209 
   66200    1120.8648   -107.30458     1.014182    -106.2904   -2770.5717    4.2452022    4.2452022    4.2452022   -2770.5717    13798.863   -24213.715    2103.1363   -798.50839    -7350.439    5649.5244    76.505937 
   66300    683.66467   -106.91435   0.61859416   -106.29576   -14291.131    4.2536604    4.2536604    4.2536604   -14291.131    16823.303   -9524.7486   -50171.948   -10855.251    20192.474    36124.314    76.964145 
   66400    1162.1882    -107.3381    1.0515723   -106.28653    1548.9243    4.2434538    4.2434538    4.2434538    1548.9243   -4517.3759     12751.14   -3586.9913    18216.832    11896.008   -5063.6358    76.411446 
   66500    1163.1457   -107.34002    1.0524386   -106.28758   -557.36401    4.2408194    4.2408194    4.2408194   -557.36401    8570.9164   -2868.8737   -7374.1348    3836.5127    -6907.462    14131.108    76.269226 
   66600    693.91718   -106.92204   0.62787084   -106.29417   -18393.503    4.2546279    4.2546279    4.2546279   -18393.503    10573.077    -13342.97   -52410.615   -18806.671    20022.494     23389.32    77.016672 
   66700    1200.2036    -107.3708    1.0859695   -106.28483   -3177.4842    4.2465462    4.2465462    4.2465462   -3177.4842   -13292.478    5898.0114   -2137.9864     16703.35    13059.322   -10898.317    76.578625 
   66800    1195.6979   -107.36654    1.0818926   -106.28465   -2547.8636    4.2386897    4.2386897    4.2386897   -2547.8636    14077.521    -17714.91   -4006.2018    10637.862   -2773.3527    24489.791    76.154377 
   66900    715.78349   -106.94037   0.64765594   -106.29271   -10854.701    4.2499919    4.2499919    4.2499919   -10854.701     12150.78   -6458.8392   -38256.045   -15268.911    22900.177    12867.619    76.765187 
   67000    1155.9759   -107.33128    1.0459513   -106.28533    164.70592    4.2497551    4.2497551    4.2497551    164.70592   -3707.5277    13428.282   -9226.6364    9123.6867     7190.028   -18084.609    76.752355 
   67100     1149.907   -107.32413      1.04046   -106.28367   -2866.1007    4.2461176    4.2461176    4.2461176   -2866.1007    5243.0623   -1898.0033   -11943.361    5794.2917   -14273.656     24306.06    76.555437 
   67200    720.71675   -106.94174   0.65211966   -106.28962   -4138.6398    4.2433726    4.2433726    4.2433726   -4138.6398    14450.931    4285.5376   -31152.388   -10671.962    29571.672     3660.806    76.407061 
   67300    890.10838   -107.09595   0.80538877   -106.29056     8526.493    4.2424645    4.2424645    4.2424645     8526.493     8859.809    12709.937    4009.7329    3961.4166   -312.38546   -13349.422     76.35802 
   67400    1140.3437   -107.32007     1.031807   -106.28827   -5999.3692    4.2526062    4.2526062    4.2526062   -5999.3692   -4292.6615    -10724.68   -2980.7661    6883.9574   -27766.152    17983.755    76.906938 
   67500    1029.4347   -107.21985   0.93145413    -106.2884    -6000.918    4.2474529    4.2474529    4.2474529    -6000.918     9238.981    -5929.057   -21312.678     -5128.94    36783.944   -4414.0934    76.627687 
   67600    903.35763   -107.10567   0.81737697   -106.28829    11709.881    4.2365015    4.2365015    4.2365015    11709.881    6403.6867    19691.824    9034.1329   -6770.9612   -4673.1796   -9340.9239    76.036494 
   67700    1180.7536   -107.35667    1.0683707    -106.2883   -7267.3806    4.2478652    4.2478652    4.2478652   -7267.3806   -8284.8594    3642.0095   -17159.292    8218.1473   -28868.724    13948.488    76.650005 
   67800    945.31318    -107.1433   0.85533923   -106.28796   -5431.6774    4.2529338    4.2529338    4.2529338   -5431.6774    8133.1911   -6159.9285   -18268.295    852.95568    38509.536   -6695.0455    76.924712 
   67900    816.69927   -107.02725   0.73896667   -106.28828   -3290.1173    4.2436397    4.2436397    4.2436397   -3290.1173   -4587.0846    10088.407   -15371.674   -8173.3342   -17707.969   -9498.7247    76.421491 
   68000    1010.9715   -107.20269   0.91474829   -106.28794    5178.4703    4.2393302    4.2393302    4.2393302    5178.4703    6574.8588    15195.409   -6234.8569    10638.525   -29649.165    7999.1287    76.188908 
   68100    1211.2535   -107.38359    1.0959676   -106.28762    9808.9106     4.244934     4.244934     4.244934    9808.9106    32336.983    5138.0111   -8048.2626    5831.0902    31442.453   -7384.8597    76.491437 
   68200    926.81602   -107.13113   0.83860262   -106.29253   -4732.4823    4.2528258    4.2528258    4.2528258   -4732.4823    4883.2803    750.29291    -19831.02   -3669.0167   -27355.444   -4274.2887    76.918849 
   68300    1021.0689   -107.21477   0.92388464   -106.29088    1973.7052    4.2436479    4.2436479    4.2436479    1973.7052    9503.2287   -12161.696    8579.5823    14468.635   -19828.178    6194.5886    76.421934 
   68400    1184.0226   -107.35373    1.0713286    -106.2824    20874.725    4.2377031    4.2377031    4.2377031    20874.725    24830.933    4877.2359    32916.006    7784.1765     17203.36   -3824.0275    76.101213 
   68500    694.99706   -106.91968   0.62884794   -106.29084    1265.2685    4.2529975    4.2529975    4.2529975    1265.2685    12345.723    8389.8368   -16939.755   -6573.8455   -31813.241   -2769.1174    76.928168 
   68600    750.57669   -106.97358   0.67913756   -106.29444   -11024.858    4.2501124    4.2501124    4.2501124   -11024.858   -19342.834   -33143.694    19411.953    31079.509   -12170.515    1035.5441    76.771716 
   68700    1395.0964   -107.54491    1.2623126    -106.2826    23779.709     4.230782     4.230782     4.230782    23779.709    40710.399   -4178.6848    34807.411    10312.998    4464.4501   -740.54785    75.728951 
   68800    1031.5995   -107.22931   0.93341292   -106.29589   -5427.6169    4.2468376    4.2468376    4.2468376   -5427.6169    8860.5485   -4485.8271   -20657.572   -3303.0479   -33823.643   -5662.1282    76.594389 
   68900    623.02423   -106.85775   0.56372542   -106.29402   -30653.533    4.2580738    4.2580738    4.2580738   -30653.533   -51842.772   -53392.877    13275.051    40553.416   -14905.173    4264.8006    77.203957 
   69000    1275.2435   -107.43395    1.1538671   -106.28009    18901.121    4.2328303    4.2328303    4.2328303    18901.121    15147.705   -816.30759    42371.964   -7178.3049    12240.248   -3143.6794    75.838996 
   69100    943.22525   -107.14368   0.85345003   -106.29023   -3246.5864    4.2424452    4.2424452    4.2424452   -3246.5864    2792.9231   -8641.4757   -3891.2065    15478.629   -21062.275   -4188.7978    76.356979 
   69200    610.80423   -106.84904    0.5526685   -106.29637   -27590.275    4.2521722    4.2521722    4.2521722   -27590.275   -50968.434   -51420.678    19618.287    42993.756   -19490.258    877.68149    76.883394 
   69300    1428.5878   -107.57948    1.2926163   -106.28686    13981.945    4.2341593    4.2341593    4.2341593    13981.945    26532.868    -447.1848    15860.151   -26065.569    21087.475   -2053.4274    75.910453 
   69400     990.1956    -107.1913   0.89594979   -106.29535   -19837.624    4.2489381    4.2489381    4.2489381   -19837.624    -22492.88   -22377.338   -14642.653    31203.524   -11904.463    1782.2909      76.7081 
   69500    716.26472   -106.94599   0.64809137    -106.2979    -16241.92      4.24624      4.24624      4.24624    -16241.92   -28355.827   -27059.331    6689.4002    39723.989     -20464.4   -6767.1433     76.56206 
   69600    1413.1346   -107.56372    1.2786339   -106.28508     15997.78    4.2359812    4.2359812    4.2359812     15997.78     13239.23    11878.695    22875.417   -27779.333    11069.002    2815.9102    76.008483 
   69700    628.00261   -106.86618   0.56822996   -106.29795   -22170.794    4.2512979    4.2512979    4.2512979   -22170.794   -35026.863   -28609.464   -2876.0563    35502.544    5704.6224   -979.94998    76.835976 
   69800    745.01186   -106.97579   0.67410239   -106.30169   -8444.2358    4.2388168    4.2388168    4.2388168   -8444.2358   -18362.874   -7335.8329    365.99974     29511.79   -26033.503   -3163.8629    76.161226 
   69900    1586.9219   -107.72677    1.4358803   -106.29089    11595.784    4.2393318    4.2393318    4.2393318    11595.784    13355.808    12231.926    9199.6176   -9903.3295   -1492.7686    3257.3734    76.188994 
   70000    851.28309   -107.07183   0.77025883   -106.30157    -27644.19    4.2553696    4.2553696    4.2553696    -27644.19   -44800.226   -35529.932   -2602.4124    37458.924    241.81114    -2574.735     77.05696 
   70100     703.2459   -106.93943   0.63631167   -106.30312    -4841.514    4.2363032    4.2363032    4.2363032    -4841.514   -28670.616    17343.054     -3196.98    19572.891   -35063.718    2342.6177    76.025821 
   70200    1414.0514    -107.5719    1.2794634   -106.29244    19300.668    4.2375492    4.2375492    4.2375492    19300.668    6199.6088     25323.33    26379.064    -7222.145    3410.7178   -2806.0967    76.092921 
   70300     819.3686   -107.03737   0.74138193   -106.29599   -13839.807    4.2554015    4.2554015    4.2554015   -13839.807   -21236.838   -27906.143    7623.5609    37575.832   -10313.101    372.52569     77.05869 
   70400    770.52009    -106.9927   0.69718277   -106.29552    2791.1304    4.2374606    4.2374606    4.2374606    2791.1304   -29432.805    19495.163    18311.032    9131.0302   -34226.855   -960.22554    76.088148 
   70500    1213.5541   -107.38792    1.0980493   -106.28987    12394.793    4.2396221    4.2396221    4.2396221    12394.793    6100.5631    7704.3957    23379.421   -17602.197     10630.85   -2247.9923    76.204647 
   70600    927.38027   -107.13305   0.83911316   -106.29394   -14163.775    4.2503619    4.2503619    4.2503619   -14163.775   -15407.693   -28601.398     1517.766    27053.096   -13066.195    6286.6986    76.785237 
   70700    870.85164   -107.08364   0.78796486   -106.29567    12284.679    4.2356139    4.2356139    4.2356139    12284.679   -5828.1635    22229.933    20452.268    11018.888   -33496.356   -2540.7722    75.988713 
   70800    1344.0505   -107.50511    1.2161251   -106.28899    4046.0291    4.2466139    4.2466139    4.2466139    4046.0291    7635.8139    -2812.176    7314.4495   -15317.789      13594.8    2585.7264    76.582288 
   70900    629.18672   -106.86895   0.56930137   -106.29965    -9069.205    4.2487999    4.2487999    4.2487999    -9069.205   -12856.193   -7912.8532   -6438.5691    16656.541   -17850.522     8917.089    76.700615 
   71000    762.71296    -106.9893   0.69011871   -106.29918    14883.963    4.2361109    4.2361109    4.2361109    14883.963    8142.4894    27934.729     8574.669    15157.485   -34897.396   -693.17461    76.015465 
   71100    1759.0958   -107.87467    1.5916669   -106.28301    5017.2159    4.2495699    4.2495699    4.2495699    5017.2159    24561.347   -7609.5348   -1900.1649   -2068.9412    13724.953    6272.0255    76.742323 
   71200    660.41725   -106.90331   0.59755941   -106.30575    5632.9918    4.2432105    4.2432105    4.2432105    5632.9918     17796.56    9665.7937   -10563.378    9557.7209   -34706.805    2495.8229    76.398306 
   71300    651.56331    -106.8979   0.58954817   -106.30835   -4401.7585    4.2398885    4.2398885    4.2398885   -4401.7585   -8853.7643    7575.6754   -11927.186     20628.99   -30604.976   -18.901145    76.219013 
   71400    1447.3952   -107.60283    1.3096336    -106.2932    3989.5226    4.2454108    4.2454108    4.2454108    3989.5226    16208.601    1939.0539   -6179.0875   -8352.7619    21558.132   -3501.8552    76.517217 
   71500    722.32062   -106.95595   0.65357087   -106.30238   -918.39744    4.2433032    4.2433032    4.2433032   -918.39744    -3439.354    15366.196   -14682.034    9776.6977   -38273.714    3543.8467    76.403311 
   71600    671.78151   -106.90751   0.60784203   -106.29967   -15471.753    4.2497731    4.2497731    4.2497731   -15471.753   -40922.372    3627.1746   -9120.0602    27172.844   -21026.712   -2523.7066     76.75333 
   71700    1401.8447   -107.55652    1.2684185    -106.2881    2813.9637    4.2410901    4.2410901    4.2410901    2813.9637   -1928.1412    7417.4482    2952.5841   -19686.532    26215.245   -11902.402    76.283833 
   71800    954.33084   -107.15761    0.8634986   -106.29411    1263.0437    4.2403947    4.2403947    4.2403947    1263.0437   -18468.278    19895.603    2361.8053    4801.8479   -30495.989    7460.5652    76.246313 
   71900    810.49719   -107.03223   0.73335489   -106.29888   -13612.471    4.2466438    4.2466438    4.2466438   -13612.471   -32142.205   -5960.0192   -2735.1898    39721.575   -20559.792   -10882.826    76.583903 
   72000    1232.3672    -107.4053    1.1150717   -106.29023    14467.691    4.2405605    4.2405605    4.2405605    14467.691    10918.775    18000.569    14483.728   -9845.4948    14272.809   -9093.5447    76.255255 
   72100     746.3953   -106.97224   0.67535415   -106.29688   -9973.3619    4.2505998    4.2505998    4.2505998   -9973.3619   -36916.342    4976.3556    2019.9006    12408.343    -22735.88    7586.4704    76.798129 
   72200     601.8521   -106.84248   0.54456843   -106.29791   -3138.5125     4.244844     4.244844     4.244844   -3138.5125   -31949.079    4095.4058    18438.136    46897.825   -14427.726   -8305.3539    76.486571 
   72300    1532.5056   -107.66979    1.3866433   -106.28315    20068.033    4.2375326    4.2375326    4.2375326    20068.033    26862.588    22069.717    11271.794   -11131.334    1551.9364     2149.001    76.092025 
   72400    767.93174   -106.99591   0.69484078   -106.30107   -20413.358    4.2518811    4.2518811    4.2518811   -20413.358   -49253.889   -21758.262    9772.0759    26888.652   -14033.045    963.69689    76.867604 
   72500    596.35225   -106.84738   0.53959205   -106.30779   -14082.213    4.2372765    4.2372765    4.2372765   -14082.213   -46874.982   -11127.011    15755.354    46598.398   -12949.046     520.3072    76.078234 
   72600    1540.7099   -107.69159    1.3940667   -106.29752    16952.152    4.2363305    4.2363305    4.2363305    16952.152    12296.665    33532.939    5026.8518   -16686.716    9375.3859   -10983.276     76.02729 
   72700    939.40731   -107.15141   0.84999548   -106.30142   -25912.198    4.2573717    4.2573717    4.2573717   -25912.198   -58162.495   -32067.811    12493.711    38602.427   -5974.2882   -1362.7169    77.165773 
   72800    612.12062   -106.85238    0.5538596   -106.29852   -3785.2789    4.2389584    4.2389584    4.2389584   -3785.2789   -39978.889   -4855.3722    33478.425    28660.268   -13219.127    1684.2594    76.168862 
   72900    1279.5945    -107.4472     1.157804    -106.2894   -2786.3526    4.2396393    4.2396393    4.2396393   -2786.3526   -9727.3001    8408.2356   -7039.9933   -16949.421    18342.489   -13123.659    76.205572 
   73000    1015.6893   -107.21028   0.91901706   -106.29126    -18044.59    4.2492924    4.2492924    4.2492924    -18044.59   -37345.604   -43523.727     26735.56      45331.7    3966.7577    5202.4318    76.727289 
   73100    1088.3354   -107.27407   0.98474876   -106.28932    4082.6608    4.2348497    4.2348497    4.2348497    4082.6608   -17304.532   -1842.0739    31394.588     6991.297   -20672.653    968.86823    75.947592 
   73200    815.41101   -107.03188   0.73780102   -106.29408   -20454.408    4.2493318    4.2493318    4.2493318   -20454.408   -36761.208    955.52652   -25557.544   -9705.3416    16053.826   -12625.153    76.729424 
   73300    994.83043   -107.19137   0.90014348   -106.29123   -15977.262    4.2459772    4.2459772    4.2459772   -15977.262   -33011.147   -31312.922    16392.283     31452.88    12946.224    8379.4776    76.547844 
   73400     1185.179   -107.36013    1.0723749   -106.28776    10011.882    4.2303705    4.2303705    4.2303705    10011.882   -9244.7152    15707.748    23572.614   -1808.8929   -24178.047    7161.7059    75.706856 
   73500    895.88198   -107.10867   0.81061284   -106.29806   -20177.441    4.2473003    4.2473003    4.2473003   -20177.441   -43960.661   -51.382316    -16520.28   -5812.6675    16798.151   -11025.954    76.619426 
   73600    1072.3115   -107.26659   0.97024998   -106.29634   -9249.8705    4.2450713    4.2450713    4.2450713   -9249.8705   -1291.4945   -36672.266    10214.149    17870.087     14008.35    6054.8484    76.498861 
   73700    1022.9288   -107.21782   0.92556749   -106.29226    11042.087    4.2418037    4.2418037    4.2418037    11042.087    7775.3745   -10446.968    35797.853   -2240.4833   -13148.594    13031.087    76.322342 
   73800    931.67694   -107.13745   0.84300087   -106.29445   -9232.4216    4.2423207    4.2423207    4.2423207   -9232.4216    -38999.45    13137.392   -1835.2068     -3698.81    26206.213   -6495.0191    76.350256 
   73900    867.18255   -107.07996     0.784645   -106.29532    14483.062    4.2365533    4.2365533    4.2365533    14483.062    16638.164   -14444.369     41255.39    11228.966    8407.5923      12186.8    76.039283 
   74000    1067.2489   -107.26083   0.96566926   -106.29516   -12185.785    4.2512639    4.2512639    4.2512639   -12185.785   -10171.857   -26152.446   -233.05184    118.91801   -5630.7367    12373.167    76.834134 
   74100    950.24625   -107.15879   0.85980278   -106.29898   -2806.8433    4.2390234    4.2390234    4.2390234   -2806.8433   -42870.624    26370.753    8079.3404   -4563.7276     29024.73   -4261.4421    76.172366 
   74200     1165.635   -107.35095     1.054691   -106.29625    16979.694    4.2344612    4.2344612    4.2344612    16979.694    3711.8925   -6760.3282    53987.519    8022.2984    3561.3056    14921.873    75.926694 
   74300     1211.017   -107.38647    1.0957536   -106.29071   -11072.587    4.2530585    4.2530585    4.2530585   -11072.587   -4434.1167   -29954.962    1171.3167   -1502.8372    1564.4467    9171.2308    76.931475 
   74400    476.78723   -106.72983    0.4314071   -106.29843    4438.8663      4.23736      4.23736      4.23736    4438.8663   -35193.369    28713.794    19796.174   -2381.3174    25946.645   -8219.8964    76.082732 
   74500    1143.7782    -107.3309    1.0349145   -106.29598    2326.2136    4.2413554    4.2413554    4.2413554    2326.2136   -11994.754    766.82032    18206.575    6915.8672    -14555.64   -217.09306    76.298147 
   74600    1331.5191   -107.49433    1.2047864   -106.28954   -472.03198    4.2483353    4.2483353    4.2483353   -472.03198   -13729.366    -14335.65    26648.921   -6752.4082    9984.9071     5277.734    76.675453 
   74700    451.73832   -106.71259   0.40874232   -106.30385    5802.4828    4.2344586    4.2344586    4.2344586    5802.4828   -42023.041    33770.699    25659.791   -4379.6961    20564.072   -6860.7967    75.926549 
   74800    1056.8197   -107.26069   0.95623267   -106.30446   -5996.3207    4.2476557    4.2476557    4.2476557   -5996.3207   -35140.091    4563.4404    12587.689    6765.3219   -32491.778   -7538.3458    76.638665 
   74900    1505.4092   -107.65327    1.3621259   -106.29115    5129.4448    4.2454392    4.2454392    4.2454392    5129.4448   -18472.797   -12560.842    46421.973   -8820.2793    15754.503    5402.9717    76.518751 
   75000    708.94984   -106.94241   0.64147271   -106.30094    3414.0754    4.2346524    4.2346524    4.2346524    3414.0754   -26952.696    29938.207    7256.7154   -6439.0331    8893.3982   -7738.6723    75.936975 
   75100    864.43485   -107.08101   0.78215882   -106.29885   -16435.362    4.2461492    4.2461492    4.2461492   -16435.362   -27548.262    11787.876   -33545.701    4991.2515   -30715.403    1323.4993    76.557149 
   75200    1166.4833   -107.34584    1.0554586   -106.29038    3351.0131    4.2420747    4.2420747    4.2420747    3351.0131    -9.723828   -30293.607     40356.37   -10920.896    7817.5784    22276.702    76.336972 
   75300    1024.1728   -107.22021   0.92669306   -106.29352   -6013.6297    4.2429228    4.2429228    4.2429228   -6013.6297   -34690.347    6905.7915    9743.6666   -2798.5248   -3870.9778    -5115.292    76.382766 
   75400    869.20194   -107.08124   0.78647218   -106.29477   -6820.0654    4.2442354    4.2442354    4.2442354   -6820.0654   -26845.942    7765.3155   -1379.5701    3805.7241   -26157.154    8324.6532    76.453681 
   75500    1004.0573   -107.20139   0.90849215    -106.2929    518.69872    4.2378898    4.2378898    4.2378898    518.69872    11517.968   -39233.545    29271.673   -10720.675    3909.9233    31714.767    76.111273 
   75600    935.93469   -107.14352   0.84685338   -106.29666   -16199.809    4.2456291    4.2456291    4.2456291   -16199.809    -28157.94    -9024.751   -11416.737   -1440.0373   -14794.724   -3952.6875    76.529019 
   75700    996.10126   -107.19539   0.90129335    -106.2941   -1870.1885    4.2423974    4.2423974    4.2423974   -1870.1885   -16514.046    25133.451    -14229.97    3433.6328   -24685.522    1833.6408    76.354396 
   75800    1122.4712   -107.30648    1.0156355   -106.29085    6545.9095    4.2405124    4.2405124    4.2405124    6545.9095    11138.791    -21300.16    29799.097   -12210.585    10775.532    14125.242    76.252665 
   75900     757.4194    -106.9816   0.68532899   -106.29628   -17440.467    4.2486893    4.2486893    4.2486893   -17440.467   -17440.435   -18766.209   -16114.756   -3452.7688   -21318.795   -6423.2602    76.694626 
   76000    1152.8573   -107.33576    1.0431295   -106.29263    3337.3136    4.2403276    4.2403276    4.2403276    3337.3136   -9031.2103     21234.65   -2191.4991    6435.3615   -14508.624   -3259.1662    76.242694 
   76100    1260.9729   -107.43146    1.1409548    -106.2905    10146.208    4.2409249    4.2409249    4.2409249    10146.208    4551.6628   -15027.758    40914.718   -22808.613    12507.085    1503.3381    76.274917 
   76200    782.16831   -107.00695   0.70772232   -106.29923   -15346.696    4.2448303    4.2448303    4.2448303   -15346.696   -19715.283   -13215.468   -13109.338   -6363.2266   -22224.845   -7778.5549    76.485832 
   76300    795.47177   -107.01714   0.71975958   -106.29738    6010.8459    4.2406756    4.2406756    4.2406756    6010.8459    10849.304    18210.854    -11027.62    6986.3633   -10224.818   -8294.5428    76.261467 
   76400    1066.0276   -107.25825    0.9645642   -106.29368    3298.3567    4.2453569    4.2453569    4.2453569    3298.3567    -3798.162   -4871.4663    18564.698   -32586.645    7233.1291    6085.8969    76.514301 
   76500    1077.4604   -107.26909   0.97490885   -106.29418    2046.6192    4.2442614    4.2442614    4.2442614    2046.6192    1734.2418   -3222.3412     7627.957   -322.84366   -16166.971   -5525.0578    76.455084 
   76600    1039.2706   -107.23476   0.94035392    -106.2944     8993.904     4.239472     4.239472     4.239472     8993.904     5344.518    8492.1593    13145.035    4896.8815   -12107.736   -10073.098    76.196551 
   76700    1042.4251   -107.23994   0.94320811   -106.29673     5710.851    4.2440326    4.2440326    4.2440326     5710.851    6641.2033   -14338.996    24830.345   -36335.624    9210.9631    13328.241    76.442722 
   76800    1293.1377   -107.46084    1.1700582   -106.29078   -3130.4232    4.2454913    4.2454913    4.2454913   -3130.4232   -8806.7644   -5721.8677    5137.3625    1980.8688   -2607.4116   -4905.5168    76.521571 
   76900    787.56693   -107.00941   0.71260711    -106.2968    7167.6133    4.2384142    4.2384142    4.2384142    7167.6133    17224.384   -2762.2633    7040.7191    12669.492   -21492.037   -7560.2984    76.139529 
   77000    872.49043   -107.08775   0.78944767    -106.2983   -5389.3214    4.2416604    4.2416604    4.2416604   -5389.3214    452.78912   -11430.971   -5189.7817   -27949.137    13684.032    13520.317     76.31461 
   77100    993.45801    -107.1934   0.89890168    -106.2945    -6810.399    4.2470014    4.2470014    4.2470014    -6810.399   -4346.0044    588.60759     -16673.8    702.46149    13330.612   -6508.3902    76.603252 
   77200    931.78703   -107.13871   0.84310049   -106.29561   -6154.9964    4.2415534    4.2415534    4.2415534   -6154.9964   -12680.194   -6947.3415    1162.5466    17188.776   -27327.526   -6735.3987    76.308835 
   77300    964.25099   -107.16782   0.87247456   -106.29534   -3315.8525    4.2414863    4.2414863    4.2414863   -3315.8525   -5916.0889   -5965.4733    1934.0046   -19338.137    9482.8885    9545.2365    76.305211 
   77400    1132.3141   -107.31936    1.0245416   -106.29482   -6334.3291    4.2433211    4.2433211    4.2433211   -6334.3291     -24516.1    4940.2212    572.89143   -271.94024    32528.519   -3924.8186    76.404279 
   77500    1175.9041    -107.3589    1.0639827   -106.29492    2761.9803    4.2398989    4.2398989    4.2398989    2761.9803    2605.0666   -140.38028    5821.2546    12933.539   -28975.737   -3041.3768    76.219571 
   77600    784.23104   -107.01093   0.70958872   -106.30134   -13224.027    4.2441317    4.2441317    4.2441317   -13224.027   -28179.708    10359.651   -21852.024   -10468.582    14285.035    6382.9302    76.448077 
   77700     882.5394   -107.09956    0.7985402   -106.30102   -8262.1425    4.2450609    4.2450609    4.2450609   -8262.1425   -26338.176    15372.998   -13821.249   -8364.9294    49521.255    3772.5182    76.498296 
   77800     1554.159   -107.69585    1.4062357   -106.28961    10147.334    4.2364295    4.2364295    4.2364295    10147.334    2037.6644    11278.954    17125.384    8380.4538   -23845.502   -7343.9174    76.032618 
   77900    575.05409   -106.82637   0.52032102   -106.30604   -15265.465    4.2457541    4.2457541    4.2457541   -15265.465    -44128.05    20103.812   -21772.157    3758.8819     28642.41    2690.6345    76.535782 
   78000    749.72396   -106.98109     0.678366   -106.30272   -15442.079    4.2498164    4.2498164    4.2498164   -15442.079   -43845.053   -3163.0999    681.91663   -14680.805     33178.37     10772.11    76.755676 
   78100    1458.6809   -107.60684    1.3198451   -106.28699    18565.837    4.2366527    4.2366527    4.2366527    18565.837    18481.462    1254.8797     35961.17   -1243.7148   -11688.953   -7138.2351    76.044637 
   78200     673.5517   -106.91182   0.60944374   -106.30237   -10577.709    4.2392913    4.2392913    4.2392913   -10577.709   -43997.488    20799.943   -8535.5829    2554.8801    46602.551   -1854.0438    76.186808 
   78300    656.92167    -106.8976   0.59439653   -106.30321   -12955.546    4.2488326    4.2488326    4.2488326   -12955.546   -32147.883   -18368.634     11649.88   -14733.515    7095.5543    11005.831    76.702385 
   78400    1405.4652   -107.56437    1.2716945   -106.29268    6580.7015    4.2428763    4.2428763    4.2428763    6580.7015   -3505.8432   -1510.3424     24758.29   -2933.5739   -8275.6256    3276.9454    76.380257 
   78500    1327.5628   -107.49548    1.2012067   -106.29428    8176.5828    4.2361995    4.2361995    4.2361995    8176.5828   -19683.586    38141.074    6072.2606   -2297.1687    35358.186   -4438.5468    76.020239 
   78600    618.55392   -106.86419   0.55968058    -106.3045   -11172.351    4.2458055    4.2458055    4.2458055   -11172.351   -19579.367   -17712.366     3774.681   -17521.098   -5310.9316    6714.4489    76.538562 
   78700    912.57363   -107.12258    0.8257158   -106.29686   -11867.512    4.2506118    4.2506118    4.2506118   -11867.512   -12251.339    -27916.33    4565.1345    7972.9305    -17561.52    12589.275    76.798784 
   78800    1444.8126   -107.59159    1.3072968   -106.28429    7468.4677    4.2410773    4.2410773    4.2410773    7468.4677    3365.6508    2534.2121     16505.54   -1733.4276    18395.021   -9488.1852     76.28314 
   78900    549.11692   -106.79798   0.49685253   -106.30113   -12625.174    4.2393686    4.2393686    4.2393686   -12625.174   -12263.292   -33898.039    8285.8108   -21766.308   -9116.1719    4189.3369    76.190977 
   79000     777.3862   -107.01079   0.70339537    -106.3074   -2856.0674    4.2433719    4.2433719    4.2433719   -2856.0674   -10443.079   -11927.429    13802.306    7922.3327   -25220.087     15401.44    76.407023 
   79100    1727.2116   -107.85423    1.5628173   -106.29141    6078.6434    4.2472004    4.2472004    4.2472004    6078.6434   -3006.9053    5305.1572    15937.678    493.25608    12444.605   -7128.4955    76.614024 
   79200    774.93817   -107.00436   0.70118034   -106.30318   -6393.3501     4.244348     4.244348     4.244348   -6393.3501   -2945.8703   -21038.094    4803.9146   -10551.802   -13348.759    10504.473    76.459762 
   79300    599.46454   -106.84393   0.54240812   -106.30152    -213.5588    4.2382651    4.2382651    4.2382651    -213.5588   -12440.152   -1835.0788    13634.555    4252.8626   -19457.993    13446.549    76.131493 
   79400    1236.3884   -107.41114    1.1187102   -106.29243    8494.5885    4.2439201    4.2439201    4.2439201    8494.5885   -3696.8784    2444.0993    26736.545   -938.26294    31769.603   -724.94117    76.436642 
   79500    1190.0176   -107.36877    1.0767529   -106.29202    1998.1085    4.2471078    4.2471078    4.2471078    1998.1085   -2704.4536   -21768.973    30467.752   -6388.8555    -10377.28    9390.4559     76.60901 
   79600     755.3948   -106.98043   0.68349709   -106.29693   -702.79943    4.2410452    4.2410452    4.2410452   -702.79943   -21750.783    2725.5291    16916.856    3212.2643   -5876.8795    7207.3585     76.28141 
   79700    941.21586   -107.14902   0.85163189   -106.29739    2385.4873    4.2388269    4.2388269    4.2388269    2385.4873    -17853.23    25805.605   -795.91233    3223.9723    44041.187    693.03421    76.161776 
   79800    1403.7667      -107.56    1.2701576   -106.28985    5544.1019    4.2446801    4.2446801    4.2446801    5544.1019    3649.5183    5050.1236    7932.6638   -2898.1856   -10719.772    3174.8783    76.477714 
   79900    641.79529   -106.88167   0.58070986   -106.30096   -13946.548    4.2491527    4.2491527    4.2491527   -13946.548   -43193.192    15372.918   -14019.369    2221.2196    11129.194    7731.7383    76.719723 
   80000    771.67224   -107.00017   0.69822526   -106.30194   -4254.4014    4.2405386    4.2405386    4.2405386   -4254.4014   -35425.842    25943.335   -3280.6967    3829.5083    32877.909   -562.31755    76.254077 
   80100    1779.8593   -107.89643    1.6104541   -106.28598    14392.813    4.2386825    4.2386825    4.2386825    14392.813    5381.4774   -2133.9746    39930.938   -1528.4815   -13622.882   -6353.1972    76.153992 
   80200    948.58829   -107.15664   0.85830262   -106.29833   -16449.561    4.2505635    4.2505635    4.2505635   -16449.561   -48253.052    12582.786   -13678.417    2335.2463    30686.246    6787.4694    76.796162 
   80300    590.61922   -106.83274   0.53440468   -106.29833   -11455.765    4.2472929    4.2472929    4.2472929   -11455.765   -29291.229    9167.7488   -14243.815   -594.19923    11247.786   -4076.9122    76.619029 
   80400    1156.3049   -107.33487    1.0462489   -106.28862    169.25376    4.2390138    4.2390138    4.2390138    169.25376    4418.2446   -15325.575    11415.092   -2865.9792   -10035.164     -15939.8    76.171848 
   80500    966.64776   -107.16722   0.87464321   -106.29258    8276.4792    4.2363037    4.2363037    4.2363037    8276.4792   -10150.513    25221.886    9758.0644   -703.72359    41942.628    3381.6776    76.025846 
   80600    865.21825   -107.07975   0.78286766   -106.29689   -6045.3965    4.2505021    4.2505021    4.2505021   -6045.3965    -19237.64   -5430.5299    6531.9807    1275.0106   -2165.9451   -6593.2416    76.792838 
   80700    1036.0903    -107.2298   0.93747631   -106.29232   -15018.903    4.2532112    4.2532112    4.2532112   -15018.903   -9748.1235   -41608.625    6300.0386   -3510.6346   -8664.2493    -26127.34    76.939763 
   80800    1345.6245   -107.50371    1.2175493   -106.28616    16968.281    4.2290764    4.2290764    4.2290764    16968.281    11397.597     23673.09    15834.156   -6511.6853    33740.202     3709.385    75.637401 
   80900    892.20028   -107.10516   0.80728156   -106.29788    5597.9411    4.2382618    4.2382618    4.2382618    5597.9411    18931.355    1305.6413    -3443.173    5016.8789   -6987.5955   -527.17778    76.131316 
   81000     583.3018    -106.8289   0.52778373   -106.30112   -25506.299    4.2585967    4.2585967    4.2585967   -25506.299    2295.3563   -46844.845   -31969.407    194.68188   -21124.133   -36920.293    77.232402 
   81100    1468.5182   -107.61186    1.3287461   -106.28312    16372.356    4.2420452    4.2420452    4.2420452    16372.356    19805.495    6651.8367    22659.737   -801.23107    8111.9067    7517.0877    76.335378 
   81200    834.62897   -107.04956   0.75518983   -106.29437    550.93227    4.2393291    4.2393291    4.2393291    550.93227    6262.8488   -17997.025    13386.973    1765.3586   -11118.974   -2364.2848    76.188845 
   81300    386.33377   -106.65744   0.34956291   -106.30788   -20893.137    4.2466376    4.2466376    4.2466376   -20893.137   -7088.0173   -48787.816   -6803.5768    1025.8316   -26275.175   -38542.948    76.583569 
   81400    1495.7734   -107.64745    1.3534072   -106.29404    17853.861    4.2423472    4.2423472    4.2423472    17853.861    1827.6371   -1985.4334    53719.378    1000.5758    4991.9369    8400.1027    76.351688 
   81500    1082.9659   -107.28072   0.97989031   -106.30083     -13667.3    4.2498214    4.2498214    4.2498214     -13667.3    897.35193   -37989.579   -3909.6739    131.73027    -4697.494   -12639.062    76.755945 
   81600    528.76812   -106.78448   0.47844051   -106.30604   -10686.327    4.2404236    4.2404236    4.2404236   -10686.327    10092.065   -23100.503   -19050.543    2641.3294   -21787.158   -25563.974    76.247874 
   81700     1226.815   -107.40417     1.110048   -106.29412    13109.243    4.2370843    4.2370843    4.2370843    13109.243   -2947.3104    23274.683    19000.357   -1083.5707     20872.45    9858.0615    76.067882 
   81800    1109.2347   -107.29545    1.0036589   -106.29179   -16736.861    4.2564484    4.2564484    4.2564484   -16736.861    -9700.506   -34648.483   -5861.5941    577.20255    10475.083   -23690.529    77.115577 
   81900    855.30373   -107.06971   0.77389679   -106.29582    7784.0339    4.2365351    4.2365351    4.2365351    7784.0339    7945.7833   -18528.784    33935.103    1002.9115   -9677.6798   -18712.981    76.038305 
   82000    783.84988   -107.00658   0.70924384   -106.29734     5109.593    4.2351841    4.2351841    4.2351841     5109.593   -13600.835    22181.593    6748.0212   -2809.7012    32081.807     8236.894    75.965582 
   82100    1041.2717   -107.23206   0.94216454    -106.2899   -12105.842    4.2552314    4.2552314    4.2552314   -12105.842   -1230.3033   -27583.113   -7504.1098    3988.6883    11359.537   -17682.614    77.049452 
   82200    1154.7112   -107.33259     1.044807   -106.28778    6035.3284    4.2405069    4.2405069    4.2405069    6035.3284    10623.485   -9514.5619    16997.062   -578.44938   -588.05311   -7572.9899    76.252367 
   82300    462.62614   -106.71878   0.41859385   -106.30019   -6301.8302    4.2396101    4.2396101    4.2396101   -6301.8302   -23058.519    35490.796   -31337.768   -1791.0322    35641.635    8697.2299    76.203995 
   82400    1346.7028   -107.51226     1.218525   -106.29373   -400.39771    4.2451689    4.2451689    4.2451689   -400.39771    -6796.289    858.26005    4736.8358     26.65463   -6972.0188   -6323.3195    76.504136 
   82500    1421.9401   -107.58064    1.2866013   -106.29403    9999.8245    4.2424929    4.2424929    4.2424929    9999.8245    3552.8137    2036.0329    24410.627    1059.1754    7252.6669   -5365.3988    76.359553 
   82600    383.09964   -106.65522   0.34663661   -106.30858   -23788.349     4.248852     4.248852     4.248852   -23788.349   -56939.518    28132.148   -42557.677   -1440.1864     33442.74    5820.7475    76.703432 
   82700    1214.3343   -107.39245    1.0987551   -106.29369   -4099.8883    4.2424931    4.2424931    4.2424931   -4099.8883   -18486.692    428.53338    5758.4934    613.67097   -20987.057    2502.9894    76.359562 
   82800    1293.7191   -107.46079    1.1705842   -106.29021   -274.43959    4.2440564    4.2440564    4.2440564   -274.43959  -0.44209271    -12102.53    11279.653    1734.4479    20546.087   -3183.3202    76.444007 
   82900    566.20226   -106.81298   0.51231171   -106.30067   -24303.607    4.2506479    4.2506479    4.2506479   -24303.607   -50836.014    15430.306   -37505.113    785.57342    24391.394    3961.8593    76.800739 
   83000    1172.1877   -107.35207    1.0606201   -106.29145    9746.3697    4.2390769    4.2390769    4.2390769    9746.3697    8437.6043    12939.107    7862.3973    2219.4644   -29185.005   -151.03771    76.175248 
   83100     1308.424   -107.47001    1.1838895   -106.28612   -117.56844    4.2486894    4.2486894    4.2486894   -117.56844    15050.417   -13017.857   -2385.2659    464.26502    18382.031    -10946.58    76.694628 
   83200    785.41966    -107.0025   0.71066422   -106.29184   -15767.081    4.2489802    4.2489802    4.2489802   -15767.081   -36109.255    15492.397   -26684.383   -4489.1354    7250.8103    6233.9264    76.710377 
   83300    752.94945   -106.97152   0.68128448   -106.29024    13886.893    4.2317167    4.2317167    4.2317167    13886.893    19100.004    14362.379    8198.2962   -1492.9388   -32240.235   -9223.4566    75.779153 
   83400    1124.2658    -107.3087    1.0172593   -106.29144   -4008.7137    4.2502571    4.2502571    4.2502571   -4008.7137     21476.37   -30990.072   -2512.4394    5121.2163    12140.656   -26024.514    76.779559 
   83500    1153.5571   -107.33501    1.0437627   -106.29124   -3877.4327    4.2479242    4.2479242    4.2479242   -3877.4327   -21837.513    2887.0017    7318.2132   -6495.3975   -10328.911    11040.271    76.653196 
   83600     572.3686   -106.81607   0.51789114   -106.29818     14016.86    4.2285995    4.2285995    4.2285995     14016.86     19992.29    20445.865    1612.4247    683.86418   -29324.129   -20539.919    75.611816 
   83700    1199.7216   -107.38585    1.0855333   -106.30031    -9250.804    4.2474081    4.2474081    4.2474081    -9250.804    12878.783   -31717.457   -8913.7376    2985.7946    6078.9611   -30245.912    76.625262 
   83800    1428.9888    -107.5844    1.2929791   -106.29142    5255.9242    4.2467424    4.2467424    4.2467424    5255.9242   -8780.6904    16343.063    8205.3997   -3750.1334   -5515.1165    12914.782     76.58924 
   83900    377.42216   -106.64583    0.3414995   -106.30433   -2694.8754    4.2364257    4.2364257    4.2364257   -2694.8754    8686.2479    6991.3175   -23762.192   -2323.6627   -14782.018   -31880.208    76.032416 
   84000    824.26495    -107.0489   0.74581225   -106.30309   -12533.059    4.2460691    4.2460691    4.2460691   -12533.059    5192.2094   -25832.315   -16959.072    5047.1298    4009.4087   -13266.815    76.552814 
   84100    1578.4105   -107.71893    1.4281789   -106.29075    19000.573    4.2380738    4.2380738    4.2380738    19000.573    9530.6051    21386.742    26084.371   -610.48582    6308.4039    15969.872    76.121186 
   84200    767.78973   -106.99983   0.69471228   -106.30512    9933.0571    4.2389927    4.2389927    4.2389927    9933.0571      15232.8    9320.2827     5246.089   -3262.5159   -9872.2045   -39844.204     76.17071 
   84300     891.2433   -107.10803   0.80641567   -106.30161   -14740.117    4.2495059    4.2495059    4.2495059   -14740.117   -13312.085   -14023.327    -16884.94    13710.837    1189.6629   -6367.0077    76.738854 
   84400    1288.7969    -107.4556    1.1661305   -106.28947    23597.769    4.2359174    4.2359174    4.2359174    23597.769    8406.3074    49230.036    13156.963    1390.1087    19189.852    9352.7843    76.005049 
   84500    829.40933    -107.0472   0.75046699   -106.29673    8857.4171    4.2402107    4.2402107    4.2402107    8857.4171    16191.955   -2947.2411    13327.537   -1659.2947    -8828.063   -40167.057    76.236388 
   84600    766.61406   -106.98955   0.69364851    -106.2959   -13643.884    4.2482267    4.2482267    4.2482267   -13643.884   -35631.129    1575.6939   -6876.2169    11999.697    2156.0527   -460.46907    76.669575 
   84700    1073.6447   -107.26481    0.9714563   -106.29336    16195.917    4.2329255    4.2329255    4.2329255    16195.917   -13116.481    41547.328    20156.905    1902.3531    25017.736    2166.7605    75.844112 
   84800    1335.3479   -107.50074    1.2082509   -106.29249    16427.931    4.2392371    4.2392371    4.2392371    16427.931    13387.592    4191.3793    31704.822    547.19793   -7238.5158   -26474.275    76.183884 
   84900    873.73266   -107.08702   0.79057168   -106.29645   -7168.5957    4.2492806    4.2492806    4.2492806   -7168.5957   -37791.784    6433.8174    9852.1798    11589.459     5623.308    5088.8681    76.726651 
   85000    652.79577   -106.88853   0.59066333   -106.29786     792.8117    4.2378167    4.2378167    4.2378167     792.8117   -28744.466    34812.761   -3689.8599    138.83319    17688.399    5300.9195    76.107332 
   85100    1219.3197   -107.39527    1.1032661     -106.292    22911.232    4.2367396    4.2367396    4.2367396    22911.232    13664.273    17267.409    37802.014   -6197.7056   -3182.4309   -12762.739    76.049319 
   85200    1183.8158    -107.3675    1.0711414   -106.29636   -1492.5075    4.2434148    4.2434148    4.2434148   -1492.5075   -31426.233    28292.325   -1343.6142    5246.0675    9429.7192    364.16663    76.409342 
   85300    590.10623   -106.83998   0.53394052   -106.30604   -425.77299    4.2401674    4.2401674    4.2401674   -425.77299    -39703.16     44793.01   -6367.1693    2185.5005    14016.557    8092.9227    76.234055 
   85400     1369.976   -107.53343    1.2395831   -106.29385    4020.6776    4.2422682    4.2422682    4.2422682    4020.6776   -16206.135   -4212.9492    32481.117   -14398.569   -5548.5182   -529.82339    76.347419 
   85500    1036.0782   -107.23276   0.93746536    -106.2953   -8552.3762    4.2439643    4.2439643    4.2439643   -8552.3762   -37857.611    15568.845   -3368.3627    129.45429    19122.529   -4537.7263    76.439031 
   85600     543.8073   -106.79343   0.49204827   -106.30138   -7405.0089    4.2344861    4.2344861    4.2344861   -7405.0089   -31544.337    33958.171   -24628.861   -255.41033    9053.9171     21102.81    75.928031 
   85700    1123.3994   -107.31376    1.0164754   -106.29729    11128.375    4.2411868    4.2411868    4.2411868    11128.375   -13099.822   -1405.6694    47890.618   -11250.799   -12018.422     3774.832    76.289048 
   85800    1076.4261   -107.26979   0.97397295   -106.29582   -11433.031    4.2486298    4.2486298    4.2486298   -11433.031   -39993.334    4304.1128    1390.1288    3404.4826    20373.238   -8390.5854    76.691401 
   85900     615.2619   -106.85708    0.5567019   -106.30037    2767.0106     4.235341     4.235341     4.235341    2767.0106   -32005.398    39695.048    611.38121    1996.6252   -4641.4516    18242.967    75.974026 
   86000    1504.4564   -107.65387    1.3612638    -106.2926    7301.0988    4.2400235    4.2400235    4.2400235    7301.0988   -12647.132   -1003.6578    35554.087   -6098.2152   -8263.1633    -2939.897    76.226293 
   86100    1036.4475   -107.23391    0.9377995   -106.29611   -91.288794    4.2466995    4.2466995    4.2466995   -91.288794   -31589.246    3967.5294    27347.851    4935.4583    12104.817   -12150.466     76.58692 
   86200     639.8393   -106.87813   0.57894005   -106.29919   -428.07641    4.2404557    4.2404557    4.2404557   -428.07641   -44304.706    38006.756    5013.7209    3585.5761   -13166.188    8950.6108    76.249606 
   86300    1226.8146   -107.39901    1.1100476   -106.28896     12033.68    4.2414598    4.2414598    4.2414598     12033.68   -1097.5627    2352.8046    34845.799    155.58164   -3671.9179   -13090.761     76.30378 
   86400    957.15704   -107.15933    0.8660558   -106.29327    3842.1685    4.2392347    4.2392347    4.2392347    3842.1685   -3041.0444   -4520.1528    19087.703    5197.9748    1811.5617   -22741.151    76.183758 
   86500    732.09286   -106.96094   0.66241301   -106.29853   -5743.6989    4.2423852    4.2423852    4.2423852   -5743.6989   -43544.639    24224.572    2088.9696    6027.5843   -18875.905    8806.4661    76.353737 
   86600    1158.0387   -107.33892    1.0478177    -106.2911   -3864.4514    4.2454929    4.2454929    4.2454929   -3864.4514   -6409.1639   -19164.603    13980.412   -1864.2087    3567.6508   -18479.975    76.521658 
   86700    1099.3985   -107.28414   0.99475884   -106.28939     5134.708     4.238679     4.238679     4.238679     5134.708   0.83510986    -5301.037    20704.326   -226.01761    -7080.722   -26491.706    76.153804 
   86800    894.98741   -107.10413   0.80980342   -106.29433   -4937.4172    4.2419289    4.2419289    4.2419289   -4937.4172   -50177.025    39863.209   -4498.4359    8879.6063   -20201.993     9584.134    76.329101 
   86900    1030.6724   -107.22385   0.93257406   -106.29127   -1670.1539    4.2429081    4.2429081    4.2429081   -1670.1539   -12208.463    2143.0683    5054.9329   -2163.9727    13841.322   -16205.875    76.381975 
   87000    1099.5724    -107.2829   0.99491624   -106.28799   -4919.7944    4.2438772    4.2438772    4.2438772   -4919.7944   -10054.645    3977.9951   -8682.7331   -8330.6884   -14622.649   -18545.715    76.434322 
   87100    865.17981    -107.0748   0.78283288   -106.29197   -12085.748    4.2435933    4.2435933    4.2435933   -12085.748   -46719.129    36402.375   -25940.491    3056.3613   -18105.777    11535.808    76.418985 
   87200    980.34657   -107.17748   0.88703818   -106.29044     2316.045    4.2375344    4.2375344    4.2375344     2316.045   -6751.8729    4955.6113    8744.3967   -5472.6065    20255.782   -13497.337    76.092123 
   87300    1108.6216    -107.2928    1.0031041    -106.2897    1114.2468    4.2446535    4.2446535    4.2446535    1114.2468   -12384.731   -2013.4052    17740.877   -7975.9115   -14881.588   -12755.747    76.476276 
   87400    804.57465   -107.02365   0.72799605   -106.29565   -5156.4949    4.2442646    4.2442646    4.2442646   -5156.4949   -36516.074    26517.219   -5470.6296    4101.3956   -6610.5169    7408.0856    76.455255 
   87500    981.36571   -107.18041   0.88796032   -106.29245    10505.941      4.23934      4.23934      4.23934    10505.941   -15973.674    24748.655    22742.841   -5148.5871    25241.619   -11347.309    76.189436 
   87600    1218.6811   -107.38998    1.1026883   -106.28729    3080.5638    4.2458511    4.2458511    4.2458511    3080.5638   -18520.962    11575.328    16187.326   -10181.869   -14171.134   -5990.4546    76.541028 
   87700    643.01252    -106.8797   0.58181124   -106.29789   -8751.3575    4.2427349    4.2427349    4.2427349   -8751.3575   -42628.637    36987.315   -20612.751    4313.1912    296.00288    2023.2068    76.372618 
   87800    1012.6989   -107.21343   0.91631123   -106.29712    9556.7992    4.2392125    4.2392125    4.2392125    9556.7992   -16222.714    22025.198    22867.913   -1359.7768     28475.02   -2398.6157    76.182558 
   87900    1604.8397   -107.73848    1.4520927   -106.28639    9873.7596    4.2452847    4.2452847    4.2452847    9873.7596   -8785.0316    2094.4961    36311.814   -6927.8347   -16728.473   -3024.2205      76.5104 
   88000     413.1795   -106.67873    0.3738535   -106.30488   -3014.5783    4.2438975    4.2438975    4.2438975   -3014.5783   -38822.569    24771.347    5007.4864    2320.6138     14923.64    1230.4671    76.435419 
   88100    956.85666   -107.16759   0.86578401   -106.30181   -2076.7458    4.2417426    4.2417426    4.2417426   -2076.7458   -28482.218    8455.9232    13796.058    1289.2376    15906.285    6767.0179    76.319044 
   88200    1506.1828   -107.65225    1.3628259   -106.28942     13645.89    4.2392621    4.2392621    4.2392621     13645.89    3459.3253   -992.02016    38470.364     164.8317     -6344.39   -6965.3325    76.185233 
   88300    447.66789   -106.71246   0.40505932    -106.3074    -21873.57    4.2467841    4.2467841    4.2467841    -21873.57   -55805.551    27934.137   -37749.295    2298.9039    26075.917    1596.3646    76.591494 
   88400    829.95927   -107.05268   0.75096459   -106.30172    -8224.469    4.2435575    4.2435575    4.2435575    -8224.469   -36210.683     19129.93   -7592.6544    2862.9661   -1294.9899    2718.3904    76.417053 
   88500    1446.0246   -107.59774    1.3083934   -106.28935    16496.255    4.2331672    4.2331672    4.2331672    16496.255    8516.0109    8033.8157    32938.939   -3920.3346    1635.6616   -17804.307    75.857103 
   88600    889.20253   -107.10578   0.80456914   -106.30121   -14006.255    4.2484905    4.2484905    4.2484905   -14006.255   -50384.974    27292.104   -18925.895    -178.6438    26172.665    3526.1355     76.68386 
   88700    1032.3517   -107.22752   0.93409352   -106.29342   -10792.354    4.2473369    4.2473369    4.2473369   -10792.354   -41402.812    21094.473   -12068.722    5041.2069   -12512.593    -870.0352    76.621411 
   88800    1153.7086    -107.3317    1.0438998    -106.2878    10798.669    4.2335883    4.2335883    4.2335883    10798.669    5702.0944    8129.8338    18564.079   -7301.1741    227.93157   -23577.024    75.879745 
   88900    1042.7086    -107.2362   0.94346461   -106.29274   -6976.5247    4.2435537    4.2435537    4.2435537   -6976.5247   -32587.105    22821.709   -11164.178   -717.59961    23775.296     3177.382    76.416846 
   89000    889.66415   -107.09734   0.80498682   -106.29235    109.23423    4.2449056    4.2449056    4.2449056    109.23423   -34827.528    34241.519    913.71202    2544.5077   -19275.789   -3044.1627    76.489903 
   89100    850.70941   -107.06449   0.76973975   -106.29475   -3764.0372    4.2416998    4.2416998    4.2416998   -3764.0372   -10936.763   -12486.991    12131.643   -14136.359   -7148.8999   -28821.382    76.316733 
   89200    1152.6836   -107.33285    1.0429723   -106.28988   -6959.9967    4.2438578    4.2438578    4.2438578   -6959.9967   -30596.072   -1486.0029    11202.084   -3354.6423    15828.099    -3023.341    76.433276 
   89300    1021.4463   -107.21639   0.92422608   -106.29217    7089.7822    4.2381306    4.2381306    4.2381306    7089.7822    -26009.96    38752.965    8526.3424    2970.3765   -22161.978   -5327.7183    76.124249 
   89400    729.98147   -106.96179   0.66050258   -106.30129   -4087.5511     4.245152     4.245152     4.245152   -4087.5511   -7953.8676   -19501.383    15192.597   -17680.878    -6573.784   -32976.202    76.503224 
   89500    1477.3887   -107.62715    1.3367723   -106.29038   -724.28177    4.2452941    4.2452941    4.2452941   -724.28177   -13131.766   -8025.1394     18984.06   -9117.4667    2045.2639   -2610.6542    76.510909 
   89600    1120.4117   -107.30957     1.013772    -106.2958    18492.181    4.2342194    4.2342194    4.2342194    18492.181   -5488.3456    32622.708    28342.181    573.51789   -17135.814   -1668.3628    75.913687 
   89700    499.63792   -106.76017   0.45208289   -106.30809   -21455.182      4.24462      4.24462      4.24462   -21455.182   -11051.586   -40683.025   -12630.936   -21550.871   -8392.4884   -44444.564    76.474465 
   89800    1338.9265   -107.50817    1.2114888   -106.29668    1838.4162    4.2431173    4.2431173    4.2431173    1838.4162   -12240.692   -13033.384    30789.325   -1611.0774    5706.9213    3162.9053    76.393274 
   89900    1084.2027   -107.27878   0.98100938   -106.29777   -4530.5162    4.2431419    4.2431419    4.2431419   -4530.5162   -9002.2788   -5724.3214    1135.0516   -586.26707    -7252.029   -5031.2887    76.394604 
   90000    192.42037   -106.48061   0.17410599   -106.30651   -24999.296    4.2459275    4.2459275    4.2459275   -24999.296   -10880.185   -46927.604   -17190.098   -24900.755   -9217.8915   -45260.414     76.54516 
   90100    1320.6255   -107.48573    1.1949297    -106.2908    9400.7412    4.2366959    4.2366959    4.2366959    9400.7412   -5716.0869    13811.267    20107.044   -1564.0266    17865.076    16548.782    76.046963 
   90200    1237.4493   -107.41107    1.1196701    -106.2914   -14141.344    4.2496136    4.2496136    4.2496136   -14141.344   -7998.4908   -25598.092   -8827.4491    2769.7017   -647.18815   -20965.476    76.744691 
   90300    687.18628   -106.92718   0.62178059    -106.3054   -12700.791    4.2394844    4.2394844    4.2394844   -12700.791    297.74698   -31026.915   -7373.2057   -22545.885   -9339.5449   -34967.276    76.197221 
   90400    1230.2631   -107.40845     1.113168   -106.29528      17972.3    4.2301791    4.2301791    4.2301791      17972.3   -5592.7458    41401.058    18108.588    -10393.67     22226.13    8431.5523    75.696582 
   90500    1230.6911    -107.4062    1.1135552   -106.29264   -10803.364    4.2539046    4.2539046    4.2539046   -10803.364   -8081.5481   -13037.787   -11290.758    1789.1801    7494.5371   -22754.071    76.977398 
   90600    781.77581   -107.00513   0.70736719   -106.29776   -5018.3842    4.2411759    4.2411759    4.2411759   -5018.3842   -1528.8419   -27180.005    13653.694   -25128.121   -2581.3664   -21896.541    76.288462 
   90700    786.41529   -107.00499   0.71156508   -106.29342    11625.857    4.2318466    4.2318466    4.2318466    11625.857   -24356.001    41315.142    17918.431   -3008.6962    27452.685    6561.3699    75.786133 
   90800     1211.632   -107.38604    1.0963101   -106.28973   -10771.649    4.2473374    4.2473374    4.2473374   -10771.649   -13669.942   -11787.502   -6857.5026    2409.2906    5571.6005   -7939.5165    76.621433 
   90900    917.05301   -107.12343   0.82976884   -106.29366    18546.009    4.2377623    4.2377623    4.2377623    18546.009    17708.176    7048.5604    30881.292   -17356.801    1491.3553   -18104.994    76.104401 
   91000    694.67877   -106.92701   0.62855995   -106.29845   -6265.8621     4.243747     4.243747     4.243747   -6265.8621   -33025.229    38434.168   -24206.526   -2723.2578    30688.469    8122.0512    76.427291 
   91100    1170.5835   -107.35214    1.0591686   -106.29298   -7595.6318    4.2452801    4.2452801    4.2452801   -7595.6318   -9023.1335    5709.0864   -19472.848    5451.5037   -12029.233    4226.6162    76.510151 
   91200    1308.3452   -107.47302    1.1838182    -106.2892    20324.927     4.229459     4.229459     4.229459    20324.927    14922.156    11657.492    34395.133   -3112.2335    11006.629   -18320.554    75.657933 
   91300    698.93466   -106.93378   0.63241076   -106.30137   -18083.086     4.247801     4.247801     4.247801   -18083.086   -39608.086    15067.399   -29708.572   -10604.817    33447.649     13228.71     76.64653 
   91400    1131.2376   -107.31964    1.0235676   -106.29607   -9969.9269    4.2452288    4.2452288    4.2452288   -9969.9269   -19194.416   -3742.8086    -6972.556    10657.893   -27051.724    11129.879    76.507377 
   91500    1240.8896   -107.41122     1.122783   -106.28843    25901.715    4.2277699    4.2277699    4.2277699    25901.715    14241.036    20898.167    42565.942    8524.0504     14738.02   -10395.025     75.56732 
   91600    719.04107   -106.94882   0.65060347   -106.29822   -17045.093    4.2462585    4.2462585    4.2462585   -17045.093   -28256.735    18236.361   -41114.906   -11399.443    32378.874    14791.473    76.563062 
   91700    855.64386   -107.06738   0.77420454   -106.29317    -8738.156    4.2451346    4.2451346    4.2451346    -8738.156   -1139.9914   -2033.3903   -23041.086    11876.564   -25548.509    10349.945     76.50228 
   91800     1111.656   -107.29386    1.0058498   -106.28801    10840.087    4.2360454    4.2360454    4.2360454    10840.087    1449.3913    11707.336    19363.532    13068.022    11599.459   -6322.5792     76.01194 
   91900    1035.0873   -107.22795    0.9365687   -106.29138    976.63863    4.2420988    4.2420988    4.2420988    976.63863   -13283.904    2517.3007     13696.52   -12469.731    26238.345    11022.557    76.338274 
   92000    953.26241   -107.15713   0.86253187    -106.2946     4038.618    4.2384914    4.2384914    4.2384914     4038.618     1880.672   -1911.2587    12146.441    6004.8082   -14708.817    14668.696    76.143688 
   92100    1152.3925   -107.33706     1.042709   -106.29435    7811.3368     4.243347     4.243347     4.243347    7811.3368    -12421.93    5388.1098     30467.83    19663.633    2402.6054   -11415.649    76.405681 
   92200    1211.0938   -107.38815    1.0958231   -106.29233    1813.3974    4.2420754    4.2420754    4.2420754    1813.3974   -4571.4898    1439.5896    8572.0923   -18168.078    15212.258    7943.0772    76.337013 
   92300    645.47698   -106.88225   0.58404114   -106.29821    4395.2292    4.2345953    4.2345953    4.2345953    4395.2292   -3475.3021    4296.0208    12364.969   -715.90059   -9407.2545    18235.096    75.933906 
   92400    1096.2848   -107.28807   0.99194151   -106.29613   -7914.9844    4.2454967    4.2454967    4.2454967   -7914.9844   -20444.806    761.66582    -4061.813    27321.183   -16726.834   -14757.007    76.521862 
   92500    1151.3299   -107.33214    1.0417475   -106.29039    4611.4721     4.243131     4.243131     4.243131    4611.4721   -2638.2635   -3120.8304     19593.51   -22259.033    4801.2651    14745.976    76.394012 
   92600    647.65918   -106.88441   0.58601564   -106.29839   -2300.5947    4.2352173    4.2352173    4.2352173   -2300.5947   -1526.2857   -26254.819     20879.32   -1083.3899   -6255.9251    11964.749    75.967371 
   92700    885.79741   -107.10011   0.80148811   -106.29862   -9296.7347    4.2415263    4.2415263    4.2415263   -9296.7347   -29462.641    1190.4314    382.00579    28476.792   -24971.805   -11521.918    76.307372 
   92800    1303.7667   -107.46971    1.1796756   -106.29003    8670.4806    4.2423134    4.2423134    4.2423134    8670.4806   -1895.4375    15456.789    12450.091   -17236.895   -1218.8925    14244.224    76.349859 
   92900     994.4618   -107.19637   0.89980993   -106.29656   -6294.1171    4.2425317    4.2425317    4.2425317   -6294.1171   -15909.775   -23743.285    20770.709    10614.862    -6005.212   -179.13213    76.361646 
   93000    710.22311   -106.94358    0.6426248   -106.30096    -11861.19    4.2393717    4.2393717    4.2393717    -11861.19   -47686.716    18244.065   -6140.9195    26243.489   -20750.911    -3527.461    76.191142 
   93100    1429.9561   -107.58756    1.2938543    -106.2937    11157.478     4.235289     4.235289     4.235289    11157.478   -8111.9479    27492.029    14092.353   -11046.145    10477.273    6038.7509    75.971229 
   93200    1199.7905   -107.38111    1.0855957   -106.29552   -6573.2954    4.2481011    4.2481011    4.2481011   -6573.2954   -11081.933   -25670.282    17032.329    22594.142   -9058.4827    754.20922    76.662773 
   93300    495.35896   -106.75166    0.4482112   -106.30345   -18213.333    4.2433269    4.2433269    4.2433269   -18213.333    -40488.93   -7671.8301   -6479.2383    20709.658   -20502.728   -2577.7358    76.404596 
   93400    1163.3281   -107.34572    1.0526037   -106.29311    16835.566    4.2320394    4.2320394    4.2320394    16835.566    435.71612    30362.199    19708.783   -6662.3992    24982.633   -4957.6506     75.79649 
   93500    1129.0263   -107.31375    1.0215667   -106.29218    2505.5761    4.2452383    4.2452383    4.2452383    2505.5761   -2363.2362   -15238.486     25118.45    14276.425   -9026.1752    5366.9607    76.507891 
   93600    543.11192   -106.79305   0.49141908   -106.30163   -16576.785    4.2443538    4.2443538    4.2443538   -16576.785   -42912.482   -10271.225    3453.3525     16255.01   -21091.914   -7250.3853    76.460078 
   93700    1087.8329   -107.27827   0.98429407   -106.29397    12111.465    4.2354842    4.2354842    4.2354842    12111.465   -3470.1894    16845.855     22958.73   -8472.4311     19835.56   -3555.7178    75.981734 
   93800    1261.8603   -107.43352    1.1417577   -106.29176   -2954.7951    4.2432136    4.2432136    4.2432136   -2954.7951   -7126.1827   -21440.287    19702.084    413.61234   -5394.4021    13507.774    76.398472 
   93900    894.97427   -107.10734   0.80979152   -106.29755    2016.5786    4.2411482    4.2411482    4.2411482    2016.5786   -13296.123    12707.951    6637.9075    16527.941   -27000.835   -6338.1804    76.286969 
   94000     1304.842   -107.46976    1.1806485   -106.28911    7001.3848    4.2394954    4.2394954    4.2394954    7001.3848    7874.0628   -4983.4346    18113.526   -9947.4018    13335.261    4729.9434    76.197811 
   94100    829.34342   -107.04289   0.75040736   -106.29248   -4804.8658     4.246393     4.246393     4.246393   -4804.8658   -2381.3185   -25684.441    13651.162   -12109.683   -3903.5943    14033.639    76.570335 
   94200     730.9278   -106.95711   0.66135884   -106.29575   -905.55079    4.2366443    4.2366443    4.2366443   -905.55079   -19194.399    14742.162    1735.5849    16204.773   -37658.034   -4215.8862    76.044185 
   94300     1255.745   -107.42569    1.1362245   -106.28946    3695.8206    4.2368634    4.2368634    4.2368634    3695.8206    13138.705   -14004.696    11953.453   -4817.5719    3352.1177    8007.2907    76.055985 
   94400    829.45788   -107.04745   0.75051092   -106.29694   -16517.963    4.2481492    4.2481492    4.2481492   -16517.963   -826.11951   -38035.185   -10692.585   -21465.139   -6036.9447    9617.0741    76.665378 
   94500    722.11887   -106.95491   0.65338833   -106.30153   -7257.5425    4.2407346    4.2407346    4.2407346   -7257.5425   -6447.9015    5692.6264   -21017.352    21030.734   -44380.751    1826.9496    76.264651 
   94600    1587.7203   -107.72623    1.4366027   -106.28962    14933.084    4.2351908    4.2351908    4.2351908    14933.084    26021.353     15665.28      3112.62    864.11197    6803.1387   -2120.9799    75.965946 
   94700    1043.7173   -107.24181   0.94437731   -106.29743   -2064.1277    4.2435232    4.2435232    4.2435232   -2064.1277    21248.636   -9928.6699   -17512.349   -17323.585   -14442.673    8447.5818    76.415198 
   94800    568.35927   -106.81466   0.51426341    -106.3004   -11916.638    4.2457877    4.2457877    4.2457877   -11916.638   -33116.726    17833.926   -20467.115    21557.882   -41675.993    4463.6857    76.537599 
   94900    1185.5925    -107.3623     1.072749   -106.28955   -3929.9493    4.2393491    4.2393491    4.2393491   -3929.9493   -2148.6073    866.21317   -10507.454    1764.4447    29502.474   -8393.5927    76.189922 
   95000    967.41977   -107.16613   0.87534173   -106.29079   -7786.4673    4.2393278    4.2393278    4.2393278   -7786.4673    12020.977   -10980.371   -24400.008   -3967.0639   -11167.103    16709.606    76.188776 
   95100    866.94889    -107.0789   0.78443357   -106.29447   -6044.7753    4.2403179    4.2403179    4.2403179   -6044.7753   -6434.5556    1842.7595    -13542.53    12129.106   -33093.971   -1302.1659    76.242173 
   95200    963.31047   -107.16657   0.87162356   -106.29494   -2563.1173     4.241463     4.241463     4.241463   -2563.1173   -7199.8205    19561.622   -20051.153    1055.8588    39939.197   -9959.6253    76.303956 
   95300    1242.9079    -107.4136    1.1246092   -106.28899   -6150.8902    4.2473293    4.2473293    4.2473293   -6150.8902    9589.5394     2665.867   -30708.077    5648.5993   -4471.3504    18394.393       76.621 
   95400    1152.1837   -107.33103      1.04252   -106.28851    1565.5051    4.2406447    4.2406447    4.2406447    1565.5051   -7858.7422    21804.252   -9248.9944     7599.624   -14286.228   -2802.4053      76.2598 
   95500     640.9324   -106.87658    0.5799291   -106.29665   -672.33678     4.235211     4.235211     4.235211   -672.33678    -15524.04    32645.497   -19138.467    2812.7952    40065.264   -10937.957     75.96703 
   95600    1194.2139   -107.37536    1.0805498   -106.29481   -8079.4649    4.2452183    4.2452183    4.2452183   -8079.4649    13992.058   -12807.466   -25422.986   -8925.3545    2048.7157    17358.528    76.506806 
   95700    1191.9612   -107.37102    1.0785115   -106.29251    7123.9561    4.2413057    4.2413057    4.2413057    7123.9561    17928.924   -2312.5274    5755.4722    5332.4194    1078.2606    1394.9715    76.295463 
   95800    407.79046   -106.67291   0.36897737   -106.30393    1833.9737    4.2389778    4.2389778    4.2389778    1833.9737    10347.569     6308.222   -11153.869    9441.1111    34272.595   -12830.591    76.169905 
   95900    1048.9016    -107.2425    0.9490682   -106.29343   -21.534079    4.2480807    4.2480807    4.2480807   -21.534079    24768.387   -6877.3323   -17955.657   -12789.688   -1863.0506    15799.799    76.661669 
   96000    1318.4835   -107.48159    1.1929916    -106.2886    9780.3123    4.2389054    4.2389054    4.2389054    9780.3123    4989.4478    8950.3434    15401.146     9340.203   -7152.7968     2469.404    76.166007 
   96100    839.40179   -107.05769   0.75950838   -106.29818    7131.8656    4.2357873    4.2357873    4.2357873    7131.8656    12507.601    14726.452   -5838.4561     7929.913     37039.02   -11251.409    75.998049 
   96200     1165.099    -107.3493    1.0542061   -106.29509    374.92317    4.2429998    4.2429998    4.2429998    374.92317    2770.6095    14562.008   -16207.848   -4416.8515   -4842.3906    6716.2205    76.386925 
   96300    1107.5124   -107.29684    1.0021005   -106.29474    5825.8641     4.240159     4.240159     4.240159    5825.8641   -2741.7668    17735.022     2484.337    10903.089   -32186.773    1046.7041    76.233601 
   96400    916.09196   -107.12336   0.82889925   -106.29446   -183.44573    4.2427112    4.2427112    4.2427112   -183.44573    15933.112   -8608.6845    -7874.765    7471.3722     38264.96   -13488.677    76.371339 
   96500    869.56369   -107.07885    0.7867995   -106.29205    809.22507    4.2407758    4.2407758    4.2407758    809.22507     545.9795    11507.784   -9626.0887   -4161.5509   -15227.139   -414.62635    76.266872 
   96600    939.37061   -107.14158   0.84996227   -106.29162    2666.6033     4.238928     4.238928     4.238928    2666.6033   -5560.0672    20424.957   -6865.0798    3350.5248   -41910.245     4076.713    76.167221 
   96700    1105.5987   -107.29007    1.0003689    -106.2897    -1617.561     4.243331     4.243331     4.243331    -1617.561    15437.524   -7609.5006   -12680.707    12953.544    33497.541   -9032.7738    76.404815 
   96800    720.74565   -106.94982   0.65214581   -106.29768    -3028.024    4.2371062    4.2371062    4.2371062    -3028.024   -3179.5544    27165.972    -33070.49   -4098.7379   -26464.394   -10285.096    76.069057 
   96900    1009.1463    -107.2114   0.91309679   -106.29831   -4241.3478    4.2395332    4.2395332    4.2395332   -4241.3478   -6617.5615     25167.56   -31274.042    228.62002   -36658.014     12443.49    76.199853 
   97000    1263.7139   -107.43322    1.1434349   -106.28979   -3359.8819    4.2466433    4.2466433    4.2466433   -3359.8819    14802.159   -5234.0391   -19647.766    10398.744     20713.89     5773.295    76.583878 
   97100    765.28546   -106.98897   0.69244636   -106.29653    -4779.452     4.240362     4.240362     4.240362    -4779.452   -17103.862    36836.221   -34070.715   -3061.7808   -33397.857   -19411.922    76.244551 
   97200    1032.9432   -107.22919   0.93462867   -106.29456   -157.68846    4.2401344    4.2401344    4.2401344   -157.68846    4227.2308    18657.403   -23357.699   -608.76944   -17131.372    20631.796    76.232274 
   97300    1245.1139   -107.41617    1.1266053   -106.28956    9118.2496    4.2422966    4.2422966    4.2422966    9118.2496    21874.876    4056.1311    1423.7418    3039.9118    4514.7169    19008.679    76.348954 
   97400    1006.5925   -107.20346   0.91078606   -106.29268    -3520.564    4.2424333    4.2424333    4.2424333    -3520.564   -21492.281     34367.83   -23437.241    5347.4807   -32768.317   -9558.7642    76.356331 
   97500    645.04184   -106.87926   0.58364741   -106.29561   -12758.223    4.2436719    4.2436719    4.2436719   -12758.223    -1797.798   -2161.5766   -34315.296   -9181.5237   -3614.0511    34120.787    76.423234 
   97600     943.5082   -107.14591   0.85370604   -106.29221    6330.5731     4.235787     4.235787     4.235787    6330.5731    14991.659    1740.6374    2259.4234   -7660.2133   -1725.0864    16765.032    75.998031 
   97700     1040.562   -107.23412   0.94152241   -106.29259    3022.2242    4.2420707    4.2420707    4.2420707    3022.2242   -23340.175    45143.884   -12737.037    15332.027   -31437.365   -3621.4871    76.336756 
   97800    920.51602   -107.12679   0.83290224   -106.29388   -19027.131    4.2502439    4.2502439    4.2502439   -19027.131   -7583.1629   -20423.278   -29074.952   -13639.137    1232.2815    37429.891    76.778844 
   97900    1111.2559   -107.29578    1.0054877   -106.29029     6512.028     4.235612     4.235612     4.235612     6512.028    7610.4057   -2460.0335    14385.712   -7631.4785    -3170.025    6927.0637     75.98861 
   98000    1235.4152   -107.40827    1.1178296   -106.29045    1434.6329    4.2351444    4.2351444    4.2351444    1434.6329   -9864.7054    14743.281   -574.67706    20133.293   -23189.892   -12407.351    75.963446 
   98100    967.66124   -107.16849   0.87556022   -106.29293   -19509.721    4.2484599    4.2484599    4.2484599   -19509.721   -7477.9802   -19776.631    -31274.55   -5373.8501    341.05816    34191.804    76.682202 
   98200     913.5234   -107.11882   0.82657517   -106.29224   -7541.1019      4.23967      4.23967      4.23967   -7541.1019   -9970.9733   -14705.348    2053.0161   -14320.504    159.60973    1537.8521    76.207227 
   98300    754.58522   -106.97743   0.68276457   -106.29466   -2569.9168    4.2373879    4.2373879    4.2373879   -2569.9168   -23336.198    8876.2518    6750.1955    26249.376   -19367.386    -10399.83    76.084233 
   98400    1205.5743   -107.38072     1.090829   -106.28989   -12843.048    4.2463106    4.2463106    4.2463106   -12843.048   -12748.141   -13844.866   -11936.136    2148.3933   -2195.1229    19819.882    76.565877 
   98500    1166.9825   -107.34597    1.0559102   -106.29006    2689.5576     4.240496     4.240496     4.240496    2689.5576   -8426.1785   -2545.6952    19040.547   -24487.845    1015.1117    675.02833    76.251776 
   98600    859.70525   -107.07409   0.77787938   -106.29621   -7632.4809    4.2401583    4.2401583    4.2401583   -7632.4809   -25143.658   -5002.0879    7248.3037    34688.951    -19289.27   -8500.7935    76.233563 
   98700    1174.1624   -107.35387    1.0624068   -106.29147   -8148.0748    4.2428285    4.2428285    4.2428285   -8148.0748   -7940.8604   -3601.6989   -12901.665   -2.9671884   -1312.1063    5638.0212    76.377672 
   98800     1034.786   -107.22915   0.93629613   -106.29285   -1685.8506    4.2372558    4.2372558    4.2372558   -1685.8506   -15125.635    -864.7277    10932.811   -27497.008    905.38769    8110.8533    76.077118 
   98900    559.49337   -106.80737   0.50624136   -106.30113   -12565.972    4.2425401    4.2425401    4.2425401   -12565.972   -41279.619   -3443.8633    7025.5665    42787.253   -13754.194    -14219.26    76.362099 
   99000    1205.2644   -107.38361    1.0905486   -106.29306   -1591.7708     4.244045     4.244045     4.244045   -1591.7708   -10693.996    8378.3865   -2459.7034    228.99508    897.20241   -10010.945     76.44339 
   99100    1330.7832   -107.49271    1.2041206   -106.28859    9262.3035    4.2384475    4.2384475    4.2384475    9262.3035   -8020.9736    17542.782    18265.102   -9968.1442    1110.3462    12985.653    76.141325 
   99200    649.32745   -106.88712   0.58752512   -106.29959   -12810.869    4.2429346    4.2429346    4.2429346   -12810.869   -31232.918   -23696.773    16497.082    41664.311   -8123.4279   -12543.784    76.383405 
   99300    1090.9945   -107.28257   0.98715478   -106.29541    -1908.958    4.2394582    4.2394582    4.2394582    -1908.958    6123.7233    307.36626   -12157.964   -1011.8475    452.52227   -19781.102    76.195807 
   99400    1320.2943   -107.48424      1.19463   -106.28961    6818.1413    4.2384493    4.2384493    4.2384493    6818.1413   -10424.744    19155.159    11724.009    8895.4775    10491.659    8052.5088    76.141422 
   99500    655.97278   -106.89542   0.59353795   -106.30188   -18830.606    4.2445046    4.2445046    4.2445046   -18830.606   -30481.735   -18669.688   -7340.3947    31305.431   -8491.3788   -12960.548    76.468225 
   99600    789.89562   -107.01551   0.71471416    -106.3008    4299.5128      4.23719      4.23719      4.23719    4299.5128    2952.7103    9326.0524    619.77577   -6094.0238    658.73037   -23823.133    76.073572 
   99700    1511.3203   -107.65699    1.3674743   -106.28952    14555.595    4.2393604    4.2393604    4.2393604    14555.595    828.15376    27060.276    15778.356    7354.4444    11135.033    3594.9436    76.190534 
   99800    846.75224   -107.06545   0.76615922   -106.29929    -5417.083     4.245219     4.245219     4.245219    -5417.083   -953.19403   -17728.836    2430.7815    21105.774   -10289.154   -21373.026    76.506845 
   99900    621.23931   -106.86269   0.56211038   -106.30058   -1805.1824    4.2378122    4.2378122    4.2378122   -1805.1824    10379.894   -12324.325   -3471.1164   -5393.3597    1498.5797   -17921.601     76.10709 
  100000    1319.4502   -107.48507    1.1938663    -106.2912     14092.51     4.238225     4.238225     4.238225     14092.51    8629.1708     5699.947    27948.412   -18697.694    5024.3756    8083.2609    76.129331 
Loop time of 25.0429 on 1 procs for 100000 steps with 8 atoms

Pair  time (%) = 8.16889 (32.6196)
Kspce time (%) = 5.94017 (23.72)
Neigh time (%) = 0 (0)
Comm  time (%) = 1.23702 (4.9396)
Outpt time (%) = 0.0286219 (0.114292)
Other time (%) = 9.66817 (38.6065)

Nlocal:    8 ave 8 max 8 min
Histogram: 1 0 0 0 0 0 0 0 0 0
Nghost:    2189 ave 2189 max 2189 min
Histogram: 1 0 0 0 0 0 0 0 0 0
Neighs:    2472 ave 2472 max 2472 min
Histogram: 1 0 0 0 0 0 0 0 0 0

Total # of neighbors = 2472
Ave neighs/atom = 309
Neighbor list builds = 0
Dangerous builds = 0
unfix 20
unfix 21
print "seeds:9219512"
seeds:9219512
