LAMMPS (10 Feb 2015)
# ---- initialize simulations
clear
units metal
dimension 3
boundary p p p
atom_style charge
atom_modify map array
# ---- create atoms
read_data /Users/eugeneragasa/pyflamestk_git/pypospack/tests/tests_integration/workflow/WorkflowLammpsThermalExpansion/param_7495/MgO_NaCl_unit.npt.T900/lammps.structure
  triclinic box = (0 0 0) to (4.2565 4.2565 4.2565) with tilt (0 0 0)
  1 by 1 by 1 MPI processor grid
  reading atoms ...
  8 atoms
# ---- define interatomic potential
include potential.mod
mass 1 24.305
mass 2 15.999

group Mg type 1
4 atoms in group Mg
group O type 2
4 atoms in group O

set group Mg charge 1.61805343549
  4 settings made for charge
set group O charge -1.61805343549
  4 settings made for charge

variable R_cut equal 10.0

pair_style buck/coul/long ${R_cut}
pair_style buck/coul/long 10
pair_coeff 1 1 0.0 0.5 0.0 ${R_cut}
pair_coeff 1 1 0.0 0.5 0.0 10
pair_coeff 1 2 1411.7842896 0.281421547192 0.0 ${R_cut}
pair_coeff 1 2 1411.7842896 0.281421547192 0.0 10
pair_coeff 2 2 12275.1016291 0.0833185517679 22.1397903537 ${R_cut}
pair_coeff 2 2 12275.1016291 0.0833185517679 22.1397903537 10

kspace_style pppm 1.0e-5

neighbor 1.0 bin
neigh_modify every 1 delay 0 check yes
# ---- define settings
compute eng all pe/atom
compute eatoms all reduce sum c_eng
# ---- run minimization
reset_timestep 0
fix 1 all box/relax iso 0.0 vmax 0.001
thermo 10
thermo_style custom step pe lx ly lz xy xz yz press pxx pyy pzz pxy pxz pyz c_eatoms
min_style cg
minimize 1e-25 1e-25 5000 10000
PPPM initialization ...
  G vector (1/distance) = 0.352505
  grid = 8 8 8
  stencil order = 5
  estimated absolute RMS force accuracy = 3.81397e-05
  estimated relative force accuracy = 2.64865e-06
  using double precision FFTs
  3d grid and FFT values/proc = 3375 512
Neighbor list info ...
  1 neighbor list requests
  update every 1 steps, delay 0 steps, check yes
  master list distance cutoff = 11
Memory usage per processor = 4.06549 Mbytes
Step PotEng Lx Ly Lz Xy Xz Yz Press Pxx Pyy Pzz Pxy Pxz Pyz eatoms 
       0   -106.97328       4.2565       4.2565       4.2565            0            0            0    38192.574    38192.574    38192.574    38192.574 8.7875882e-11 -6.3416216e-11 -7.5192229e-11   -106.97328 
       9   -106.99342    4.2893301    4.2893301    4.2893301            0            0            0     -3.54441     -3.54441     -3.54441     -3.54441 -1.7895043e-11 -1.1181496e-10 -2.9549514e-11   -106.99342 
Loop time of 0.00935888 on 1 procs for 9 steps with 8 atoms

Minimization stats:
  Stopping criterion = linesearch alpha is zero
  Energy initial, next-to-last, final = 
        -106.973281584     -106.993416645     -106.993416645
  Force two-norm initial, final = 5.51503 0.00172663
  Force max component initial, final = 5.51503 0.00051974
  Final line search alpha, max atom move = 0.00390625 2.03024e-06
  Iterations, force evaluations = 9 26

Pair  time (%) = 0.0026772 (28.606)
Kspce time (%) = 0.00153446 (16.3958)
Neigh time (%) = 0 (0)
Comm  time (%) = 0.00028944 (3.09268)
Outpt time (%) = 0 (0)
Other time (%) = 0.00485778 (51.9055)

Nlocal:    8 ave 8 max 8 min
Histogram: 1 0 0 0 0 0 0 0 0 0
Nghost:    2189 ave 2189 max 2189 min
Histogram: 1 0 0 0 0 0 0 0 0 0
Neighs:    2344 ave 2344 max 2344 min
Histogram: 1 0 0 0 0 0 0 0 0 0

Total # of neighbors = 2344
Ave neighs/atom = 293
Neighbor list builds = 0
Dangerous builds = 0
unfix 1
# ---- define output variables ----
variable natoms equal "count(all)"
variable tot_energy equal "c_eatoms"
variable length_x equal "lx"
variable length_y equal "ly"
variable length_z equal "lz"
variable tilt_xy equal "xy"
variable tilt_xz equal "xz"
variable tilt_yz equal "yz"
variable tot_press equal "press"
variable press_xx equal "pxx"
variable press_yy equal "pyy"
variable press_zz equal "pzz"
variable press_xy equal "pxy"
variable press_xz equal "pxz"
variable press_yz equal "pyz"

# ---- output ----
print "pypospack:output_section:begin"
pypospack:output_section:begin
print "tot_energy = ${tot_energy}"
tot_energy = -106.993416644887
print "num_atoms = ${natoms}"
num_atoms = 8
print "xx = ${length_x}"
xx = 4.28933011317114
print "yy = ${length_y}"
yy = 4.28933011317114
print "zz = ${length_z}"
zz = 4.28933011317114
print "xy = ${tilt_xy}"
xy = 0
print "xz = ${tilt_xz}"
xz = 0
print "yz = ${tilt_yz}"
yz = 0
print "tot_press = ${tot_press}"
tot_press = -3.54441004469774
print "pxx = ${press_xx}"
pxx = -3.5444100447524
print "pyy = ${press_yy}"
pyy = -3.54441004470836
print "pzz = ${press_zz}"
pzz = -3.54441004463246
print "pxy = ${press_xy}"
pxy = -1.78950429729069e-11
print "pxz = ${press_xz}"
pxz = -1.1181495634962e-10
print "pyz = ${press_yz}"
pyz = -2.95495135207349e-11
print "pypospack:output_section:done"
pypospack:output_section:done
print "pypospack:lammps_sim:done"
pypospack:lammps_sim:done
#------------------------------------------------------------------------------
# RUN THERMOSTAT
# running using an NPT Nose-Hoover style thermostat
#------------------------------------------------------------------------------
variable tempdamp equal 0.1
variable pressdamp equal 1.0
# set initial velocities
velocity all create 900 4537664 mom yes dist gaussian loop all
# fix for Nose-Hoover style thermostat
fix 20 all npt temp 900 900 0.1 aniso 0.0 0.0 1.0 drag 1.0 couple xyz
variable boxx equal lx
variable boxy equal ly
variable boxz equal lz
variable boxp equal press
variable boxt equal temp
# calculate averages every 10000 steps
reset_timestep 0
fix 21 all ave/time 10 10 100 v_boxx v_boxy v_boxz v_boxp v_boxt file lattice.out
thermo_style custom step temp pe ke etotal press lx ly lz press pxx pyy pzz pxy pxz pyz vol
thermo_modify flush yes
thermo 100
run 100000
PPPM initialization ...
  G vector (1/distance) = 0.352181
  grid = 8 8 8
  stencil order = 5
  estimated absolute RMS force accuracy = 3.87093e-05
  estimated relative force accuracy = 2.68821e-06
  using double precision FFTs
  3d grid and FFT values/proc = 3375 512
Memory usage per processor = 3.06549 Mbytes
Step Temp PotEng KinEng TotEng Press Lx Ly Lz Press Pxx Pyy Pzz Pxy Pxz Pyz Volume 
       0          900   -106.99342   0.81433891   -106.17908    11017.303    4.2893301    4.2893301    4.2893301    11017.303    17147.144     2668.423    13236.343   -663.07043    8487.6502    801.80926    78.916609 
     100    260.92749   -106.30735   0.23609267   -106.07126   -9791.4364    4.3177165    4.3177165    4.3177165   -9791.4364    21685.912   -26100.416   -24959.806    2074.6319   -11184.147   -2469.2206     80.49379 
     200    352.69707   -106.16125   0.31912772   -105.84213    771.18574    4.3235431    4.3235431    4.3235431    771.18574    63749.999    -28912.26   -32524.182    1068.9184    3276.7759     463.9683    80.820101 
     300     983.2323   -106.54363   0.88964925   -105.65398    2993.9533    4.3131916    4.3131916    4.3131916    2993.9533    9043.4692   -18930.417    18868.808   -4812.6871   -3909.8754    1302.6395    80.240987 
     400    995.41608   -106.41586   0.90067339   -105.51518   -16441.385    4.3238328    4.3238328    4.3238328   -16441.385   -3632.0683   -27059.918    -18632.17     5097.618   -1496.5762    2980.6662    80.836347 
     500    784.08255   -106.11605   0.70945437    -105.4066    834.57573    4.3393023    4.3393023    4.3393023    834.57573    29261.828   -28309.762    1551.6608    -4283.062   -3537.7314    2071.4864    81.707084 
     600    906.76224   -106.17452   0.82045753   -105.35407   -20241.134     4.330552     4.330552     4.330552   -20241.134     15325.75   -42348.159   -33700.992    3876.0082     10264.85   -3263.9847    81.213791 
     700    820.91201   -106.08604   0.74277843   -105.34326    18882.197    4.3135752    4.3135752    4.3135752    18882.197    53227.102   -19386.078    22805.568    9794.5155    7759.3963    3911.1647    80.262394 
     800    1003.6468   -106.26829   0.90812068   -105.36017   -263.37674    4.3380383    4.3380383    4.3380383   -263.37674    29084.254   -34560.673    4686.2888   -1364.5529   -6257.6198   -3318.2441    81.635702 
     900    919.92233   -106.19436   0.83236505   -105.36199   -14496.354    4.3290583    4.3290583    4.3290583   -14496.354    2494.2465   -38368.238   -7615.0716    4242.8886    -7076.128   -4033.2777    81.129782 
    1000    639.25629    -105.9397   0.57841252   -105.36129    14364.448    4.3208465    4.3208465    4.3208465    14364.448    42406.722   -16902.014    17588.635   -3138.2188   -10910.769   -663.02508    80.668968 
    1100    1292.3016   -106.52591    1.1693017   -105.35661   -5045.9416    4.3331637    4.3331637    4.3331637   -5045.9416    35336.155   -39284.062   -11189.918   -2356.8142    4870.7169   -2759.2483    81.360813 
    1200    876.25262   -106.15147   0.79285178   -105.35861    1251.0528    4.3274365    4.3274365    4.3274365    1251.0528    17980.405   -29035.215    14807.968    5531.8276   -9411.1405   -1304.3034    81.038632 
    1300    756.09693   -106.04254   0.68413239   -105.35841    11396.992    4.3276385    4.3276385    4.3276385    11396.992    68939.881   -24341.992   -10406.913    -1529.867     3286.301    237.89047    81.049982 
    1400    1004.2417    -106.2666   0.90865902   -105.35794    4275.0543    4.3265619    4.3265619    4.3265619    4275.0543    15525.077   -39053.383    36353.469    1581.9829   -4898.2946   -603.52899    80.989511 
    1500    1068.8371   -106.33487   0.96710628   -105.36776   -21792.933    4.3321138    4.3321138    4.3321138   -21792.933   -16210.568   -31964.958   -17203.274    1953.1412    -10426.08    5394.6052     81.30169 
    1600    1006.9245   -106.27892   0.91108642   -105.36783    5948.6803    4.3264393    4.3264393    4.3264393    5948.6803    49440.292   -28484.383   -3109.8684    4983.0149    12044.997    2784.4691    80.982622 
    1700    634.57865   -105.94635   0.57418009   -105.37217    7203.0467    4.3261228    4.3261228    4.3261228    7203.0467    56155.255   -32731.327   -1814.7883     3386.306   -11644.539     1977.476    80.964854 
    1800    1194.7602   -106.44533    1.0810442   -105.36429   -20509.598    4.3363334    4.3363334    4.3363334   -20509.598   -15834.481   -36681.989   -9012.3245    5565.0682    2712.2404    2005.6264    81.539492 
    1900    1004.8612   -106.27264   0.90921952   -105.36342    18156.328    4.3225374    4.3225374    4.3225374    18156.328    40536.189   -23409.983    37342.778    310.90319   -12868.552    5587.7459    80.763713 
    2000    494.78689   -105.82259   0.44769358    -105.3749    3317.3224    4.3271442    4.3271442    4.3271442    3317.3224    50606.642   -24660.684    -15993.99   -5963.7911   -7211.2673    276.69524    81.022211 
    2100    900.06829   -106.18137    0.8144007   -105.36697    2447.4828     4.335134     4.335134     4.335134    2447.4828    36757.685   -32993.824    3578.5875    775.48742    4988.3359    241.00829     81.47185 
    2200    1314.7425   -106.54689    1.1896066   -105.35728   -15910.227    4.3296813    4.3296813    4.3296813   -15910.227   -174.63193   -27886.367   -19669.684   -2051.3647   -14622.222   -859.24862     81.16481 
    2300     483.0427   -105.79559   0.43706718   -105.35852     9980.665    4.3247635    4.3247635    4.3247635     9980.665    40896.485   -7661.0944   -3293.3962    2747.8177   -3539.9786   -3954.4124    80.888555 
    2400     1076.716   -106.32772   0.97423523   -105.35348   -7181.4368    4.3292317    4.3292317    4.3292317   -7181.4368   -946.14043   -30455.131     9856.961    1199.9069    7468.9825    1134.7053    81.139533 
    2500    711.31702   -106.00315   0.64361459   -105.35954   -9611.8107    4.3367453    4.3367453    4.3367453   -9611.8107   -1235.3551   -31668.553    4068.4761    3912.0471    -19299.19   -2957.7828    81.562729 
    2600     943.1156   -106.20874   0.85335082   -105.35539    13435.509    4.3252607    4.3252607    4.3252607    13435.509    62675.939   -18133.591   -4235.8217    1640.0639   -7854.3822   -4757.4499    80.916461 
    2700    843.92851   -106.12622   0.76360425   -105.36261   -8024.9329    4.3316337    4.3316337    4.3316337   -8024.9329    21920.026   -37438.828   -8555.9973   -10605.755    2368.4467    4207.1256     81.27466 
    2800    944.28797   -106.21974    0.8544116   -105.36533   -24429.986    4.3285451    4.3285451    4.3285451   -24429.986   -13493.667    -16592.37   -43203.922     2329.356   -17153.275    836.00671    81.100933 
    2900    793.90578   -106.08514   0.71834263    -105.3668    21966.888    4.3298197    4.3298197    4.3298197    21966.888    79566.981   -39014.673    25348.355    2303.9224    8837.3249    -2262.144    81.172596 
    3000    1149.0799   -106.40539    1.0397117   -105.36568   -9992.7001    4.3301565    4.3301565    4.3301565   -9992.7001   -15582.492   -31824.179    17428.571   -1263.7546   -6277.0718    1358.4505     81.19154 
    3100    701.57384   -105.99919   0.63479875   -105.36439    6939.9418    4.3274061    4.3274061    4.3274061    6939.9418    33199.865   -23643.477    11263.437    7642.2576    -6176.473    1436.6174    81.036928 
    3200    774.02446   -106.06374    0.7003536   -105.36339   -6590.7413    4.3369034    4.3369034    4.3369034   -6590.7413     35123.49   -28300.161   -26595.553   -4178.1503    12858.443    2755.7908     81.57165 
    3300    991.79602    -106.2596   0.89739789    -105.3622     1400.687    4.3254576    4.3254576    4.3254576     1400.687    34775.186   -19867.095   -10706.031    2.1026547   -20374.926    1129.4713    80.927512 
    3400    1272.3976   -106.51344    1.1512921   -105.36214   -11662.976    4.3286014    4.3286014    4.3286014   -11662.976     7026.926   -29505.362   -12510.492   -635.91687    4272.9449     1340.715    81.104098 
    3500    795.71634   -106.08371   0.71998087   -105.36373   -5734.1684    4.3338701    4.3338701    4.3338701   -5734.1684    16801.165   -30670.649    -3333.021   -1374.6209   -815.89889    72.661018    81.400614 
    3600    428.07791   -105.75489   0.38733389   -105.36756    14914.522    4.3283792    4.3283792    4.3283792    14914.522    48882.203   -27810.183    23671.545    6575.6078   -11593.779     158.1085    81.091604 
    3700    1416.5285   -106.64167    1.2817048   -105.35997   -5984.3036    4.3288706    4.3288706    4.3288706   -5984.3036   -4434.5984   -30443.636    16925.324   -7160.0753    18458.657   -4658.2584    81.119231 
    3800    810.90616   -106.09806   0.73372493   -105.36433   -15463.314    4.3349822    4.3349822    4.3349822   -15463.314   -8614.9289   -39663.847    1888.8354    12369.247   -17913.042    -2412.353     81.46329 
    3900    489.22194   -105.80972   0.44265829   -105.36706    3147.8941    4.3264457    4.3264457    4.3264457    3147.8941     74712.16   -22141.557   -43126.922    3653.5159   -4208.6788   -4521.6023    80.982981 
    4000    1078.4776   -106.34486    0.9758292   -105.36903    14626.123    4.3210595    4.3210595    4.3210595    14626.123    57324.521   -16708.157     3262.005   -815.77888    4483.8239   -4967.0526    80.680902 
    4100    1075.7388   -106.34746   0.97335112    -105.3741   -23464.858    4.3395006    4.3395006    4.3395006   -23464.858   -23904.331   -40978.201   -5512.0422    1078.4872    -12241.85   -2082.4472    81.718289 
    4200    782.93779   -106.06712   0.70841857    -105.3587    8886.6032    4.3327314    4.3327314    4.3327314    8886.6032    42780.745   -29924.982    13804.046     1923.466   -681.86062   -1360.7766    81.336468 
    4300     626.4377   -105.92128   0.56681399   -105.35447    18996.784    4.3143585    4.3143585    4.3143585    18996.784    34400.888   -4897.8572     27487.32   -8382.4111   -14947.934   -2.8797057    80.306129 
    4400    1061.2325   -106.32758   0.96022546   -105.36736   -18101.672    4.3362525    4.3362525    4.3362525   -18101.672      6237.14   -33514.415   -27027.742    11621.023   -14829.957   -2265.9156     81.53493 
    4500    1179.2619   -106.41983    1.0670209   -105.35281   -11591.534     4.341706     4.341706     4.341706   -11591.534    20021.768   -40670.293   -14126.077   -12680.465    3672.3328   -3159.8958    81.842943 
    4600    690.46138   -105.97378   0.62474396   -105.34904    6073.7328    4.3098784    4.3098784    4.3098784    6073.7328    41240.442    5214.4129   -28233.656    1072.9787   -9279.3051    133.39085    80.056213 
    4700    1018.4495   -106.28739   0.92151454   -105.36588   -11093.957    4.3287685    4.3287685    4.3287685   -11093.957    8188.0045   -29758.294   -11711.581    2042.5611    2741.8994     -5152.53    81.113488 
    4800    957.99976   -106.22048   0.86681831   -105.35366    5567.8991    4.3435098    4.3435098    4.3435098    5567.8991    24477.847   -23818.601    16044.451   -9846.4023   -1351.8702   -5281.3507    81.944993 
    4900    849.41057   -106.11634   0.76856453   -105.34777    8853.4088    4.3201384    4.3201384    4.3201384    8853.4088     12104.73   -8005.6468    22461.143    11364.166   -18828.927   -752.31418     80.62932 
    5000    809.32074   -106.08019   0.73229041    -105.3479    11468.534    4.3253512    4.3253512    4.3253512    11468.534    33497.331   -15777.028      16685.3    -2737.125    5951.6902   -3574.9201     80.92154 
    5100    783.35542   -106.06014   0.70879644   -105.35134   -4524.6916    4.3370156    4.3370156    4.3370156   -4524.6916    28257.192   -13463.013   -28368.253    2056.8417   -12517.625    1616.6398    81.577978 
    5200    1163.7636   -106.40041    1.0529978   -105.34741   -12799.099    4.3348316    4.3348316    4.3348316   -12799.099    -4908.941   -16391.799   -17096.556     13523.67   -1678.7999   -16.335254    81.454803 
    5300     1090.795   -106.33057    0.9869742    -105.3436    11045.337    4.3175157    4.3175157    4.3175157    11045.337     55292.83    -11716.75   -10440.068   -7876.3217    2899.9959    6903.5898     80.48256 
    5400    455.55324   -105.77524   0.41219415   -105.36305    1610.6176    4.3261944    4.3261944    4.3261944    1610.6176    33156.127   -15210.718   -13113.556    13728.234   -15509.042   -509.34073    80.968875 
    5500    1049.7898   -106.30602   0.94987189   -105.35615   -8241.6179    4.3424731    4.3424731    4.3424731   -8241.6179   -12208.008   -21117.491    8600.6454   -1291.7099   -2597.8713    310.63893    81.886331 
    5600    1000.7732   -106.26016   0.90552061   -105.35464    14695.876    4.3177186    4.3177186    4.3177186    14695.876    29108.982   -19187.203    34165.847   -842.82997   -9617.3328    3623.1426    80.493908 
    5700    757.19448   -106.04233   0.68512548    -105.3572    14007.857    4.3144735    4.3144735    4.3144735    14007.857    22896.113   -4184.1522    23311.609    12457.328   -3613.2548    356.94021     80.31255 
    5800    970.40628    -106.2243     0.878044   -105.34626   -18415.781    4.3455276    4.3455276    4.3455276   -18415.781    1251.3823   -34909.818   -21588.907   -8893.7177    318.83393   -7115.3541    82.059251 
    5900    666.53846    -105.9519   0.60309801    -105.3488    673.49079    4.3265384    4.3265384    4.3265384    673.49079     24819.23   -29257.433    6458.6758    11507.596   -12346.992    -2452.351    80.988187 
    6000     1141.867   -106.38061    1.0331853   -105.34743    27113.207    4.3070602    4.3070602    4.3070602    27113.207    48389.074    -2708.237    35658.786    1943.7893    11287.705   -7291.2527    79.899271 
    6100    939.88012   -106.22017   0.85042329   -105.36975   -20951.137    4.3412809    4.3412809    4.3412809   -20951.137   -10710.523   -41716.696   -10426.192    8586.1564   -4025.1066   -2078.5664    81.818906 
    6200    583.60499   -105.89373   0.52805806   -105.36568   -9579.0913    4.3371036    4.3371036    4.3371036   -9579.0913    26638.704   -38133.395   -17242.583    11220.835   -8776.3286   -3382.1037    81.582945 
    6300    1228.1194     -106.461    1.1112283   -105.34977    16842.727    4.3160324    4.3160324    4.3160324    16842.727    38933.334   -6813.9276    18408.774   -6122.5482   -6896.2535    4976.2599    80.399637 
    6400    851.48203    -106.1348   0.77043883   -105.36436   -4460.2565    4.3330009    4.3330009    4.3330009   -4460.2565   -8191.6148   -43511.867    38322.712     18095.68   -10304.106    4892.6702    81.351645 
    6500    817.71853   -106.09485   0.73988891   -105.35496   -16996.363    4.3402284    4.3402284    4.3402284   -16996.363    174.59131   -25062.661    -26101.02    -2511.919   -8056.0958    343.46161    81.759413 
    6600    677.73435   -105.95813   0.61322828   -105.34491    16419.005    4.3152923    4.3152923    4.3152923    16419.005    30344.744   -15089.693    34001.965    6627.9831   -9384.9175    27.249691    80.358282 
    6700    1126.0222   -106.37514    1.0188485   -105.35629   -23138.941    4.3307127    4.3307127    4.3307127   -23138.941   -17831.509   -30287.425    -21297.89    13987.998   -4211.8881    6332.7809    81.222832 
    6800    852.88175   -106.12321   0.77170534   -105.35151    4820.7986     4.336045     4.336045     4.336045    4820.7986    20096.891   -15716.961    10082.466   -9615.1564   -13493.418   -1834.9502     81.52322 
    6900    921.71642    -106.1854   0.83398839   -105.35141    4579.5622    4.3135494    4.3135494    4.3135494    4579.5622     6160.559   -23447.354    31025.481    17821.737   -755.98638   -6287.3695    80.260954 
    7000    797.09631   -106.08414   0.72122949   -105.36291   -7335.5103    4.3336743    4.3336743    4.3336743   -7335.5103    10701.485   -24418.509   -8289.5073   -5759.2651   -2043.0512   -9049.2836     81.38958 
    7100    871.19956   -106.14465   0.78827967   -105.35637     10520.99    4.3317671    4.3317671    4.3317671     10520.99    19613.439   -5665.7948    17615.326    8179.8136   -2475.6098   -3071.7224    81.282173 
    7200    1073.2804   -106.32563   0.97112664   -105.35451   -13759.962    4.3258562    4.3258562    4.3258562   -13759.962     2630.635   -31001.363   -12909.158    3330.5786   -4333.2122    -11517.35    80.949886 
    7300    764.00571   -106.04141   0.69128842   -105.35013    9149.0822    4.3258413    4.3258413    4.3258413    9149.0822    53041.103   -3607.0288   -21986.827   -1163.1907   -1222.0606   -1245.6855     80.94905 
    7400    777.71985   -106.05775   0.70369726   -105.35405   -735.59563    4.3342699    4.3342699    4.3342699   -735.59563    23948.824   -19850.988   -6304.6224    10495.292   -4220.2701    1314.5104    81.423142 
    7500    1156.2256   -106.39627    1.0461773   -105.35009   -12834.025    4.3333074    4.3333074    4.3333074   -12834.025    6539.3272   -32402.493   -12638.908   -9249.3297   -5057.1055   -7713.6337    81.368911 
    7600    793.21879   -106.06379   0.71772103   -105.34607    33427.996    4.3141562    4.3141562    4.3141562    33427.996    59601.385     -12323.1    53005.702    10265.708    980.40499    3688.5464    80.294834 
    7700    677.60529    -105.9702   0.61311151   -105.35709   -20339.991    4.3365199    4.3365199    4.3365199   -20339.991   -9872.4613    -13675.36   -37472.151   -2033.6547   -9312.5907    2094.0956    81.550015 
    7800    1200.6215   -106.43661    1.0863476   -105.35026   -13760.469    4.3263529    4.3263529    4.3263529   -13760.469    6921.8563   -22236.046   -25967.216    742.67404   -10832.072   -5124.2741    80.977772 
    7900    710.90677   -106.00151   0.64324339   -105.35826    24251.029    4.3214187    4.3214187    4.3214187    24251.029    64682.049   -15184.939    23255.977    5853.9841    4804.0299    3946.7137    80.701025 
    8000    850.23088   -106.12658   0.76930677   -105.35727   -24993.181    4.3392266    4.3392266    4.3392266   -24993.181   -12827.079   -10514.271   -51638.193    -491.2414   -11939.293    2558.2607     81.70281 
    8100    1066.8912   -106.31633   0.96534558   -105.35098   -11453.017    4.3278127    4.3278127    4.3278127   -11453.017    22392.374    -29392.63   -27358.796    1920.1529    2135.9355   -5505.0202    81.059773 
    8200    770.63892   -106.05271   0.69729029   -105.35542    16886.129    4.3213402    4.3213402    4.3213402    16886.129    48723.157   -12020.949    13956.181    254.50859    2151.4849   -1078.5977    80.696624 
    8300    1058.2476   -106.31141   0.95752468   -105.35388   -11867.156    4.3360591    4.3360591    4.3360591   -11867.156    8285.2492   -6400.8294   -37485.888   -2617.6719   -17221.132    3988.0419    81.524016 
    8400    762.96692   -106.03664   0.69034851   -105.34629    2852.7754    4.3307729    4.3307729    4.3307729    2852.7754    39209.521   -30045.919   -605.27605    2898.0136    8804.4636   -8870.8244    81.226219 
    8500    719.09481   -105.99672   0.65065209   -105.34607    11137.647    4.3242711    4.3242711    4.3242711    11137.647    41516.776      952.698   -9056.5326   -1176.2197   -9792.1611    798.89057    80.860933 
    8600    1270.1814   -106.49562    1.1492868   -105.34634   -9155.9402    4.3351341    4.3351341    4.3351341   -9155.9402    2907.8726   -21103.145   -9272.5478   -9.1557695   -5772.0595    1504.1436    81.471858 
    8700     639.9498   -105.92925   0.57904003   -105.35021    6835.5038     4.330579     4.330579     4.330579    6835.5038    59461.132   -26939.675   -12014.946    6775.4572    4958.5762   -530.48699    81.215307 
    8800    941.80244   -106.20094   0.85216264   -105.34878   -15007.662    4.3241277    4.3241277    4.3241277   -15007.662   -8963.3118    4366.2092   -40425.882   -3481.6297   -8866.1416    2745.6262     80.85289 
    8900    933.55618   -106.19836   0.84470125   -105.35366    11944.187    4.3242897    4.3242897    4.3242897    11944.187    55109.805   -19608.548    331.30571    998.90147    2073.5407   -1135.2551    80.861976 
    9000    915.31395   -106.18364    0.8281953   -105.35544   -17992.514    4.3396081    4.3396081    4.3396081   -17992.514   -1144.1063   -26292.411   -26541.026    3678.2677      1910.15    8493.4097    81.724361 
    9100    978.48319   -106.23101   0.88535215   -105.34565    4962.6206     4.321709     4.321709     4.321709    4962.6206    20635.282   -1114.6066   -4632.8134    -8343.283   -6902.3134     3390.412     80.71729 
    9200    600.64204   -105.89974   0.54347354   -105.35626    13796.327    4.3233582    4.3233582    4.3233582    13796.327    60149.001   -8828.6563   -9931.3629    5542.3293   -3865.8347    353.62935    80.809728 
    9300    1054.2797   -106.30694   0.95393444   -105.35301   -21128.605    4.3387277    4.3387277    4.3387277   -21128.605   -5240.2394    -19799.43   -38346.146   -7291.0469   -6171.4517    12233.278    81.674631 
    9400    1205.5317   -106.43964    1.0907904   -105.34885    -6521.004    4.3258314    4.3258314    4.3258314    -6521.004   -4129.4139   -23084.317    7650.7187    2496.1924    1776.9562   -518.76598    80.948493 
    9500    488.02437    -105.8021    0.4415747   -105.36052    290.31876    4.3227067    4.3227067    4.3227067    290.31876    40998.192   -15354.614   -24772.621   -2102.8191    3377.9802    -404.1802    80.773202 
    9600     889.5055   -106.17031   0.80484327   -105.36547   -7573.6522    4.3307736    4.3307736    4.3307736   -7573.6522    22311.828    -11471.21   -33561.575    4038.2796   -6524.5818    9571.6715    81.226254 
    9700    1214.8663   -106.45535    1.0992366   -105.35611   -19229.759    4.3356611    4.3356611    4.3356611   -19229.759   -19275.961   -43012.269    4598.9531    3551.8422    6074.7885   -4875.2996     81.50157 
    9800    503.79589    -105.8126   0.45584511   -105.35676    7565.4691    4.3145638    4.3145638    4.3145638    7565.4691    33623.648    1180.2536   -12107.494      3746.79    -8302.213    6516.5971    80.317593 
    9900    931.88268   -106.20248   0.84318703   -105.35929    9113.6887    4.3208377    4.3208377    4.3208377    9113.6887    29146.482   -4376.3201    2570.9037   -624.46334   -2305.3807    4656.3726     80.66848 
   10000    1090.3989   -106.33998    0.9866158   -105.35336   -28814.977    4.3458156    4.3458156    4.3458156   -28814.977   -17129.287   -45992.936   -23322.707   -4834.3241   -5989.4919   -1683.0511    82.075564 
   10100    792.24211   -106.06384   0.71683731     -105.347    14710.639    4.3140017    4.3140017    4.3140017    14710.639    33873.016   -5739.3773    15998.278   -6988.0301   -6352.5076    12929.409    80.286208 
   10200    1024.3957   -106.26793   0.92689473   -105.34103    14953.071    4.3101231    4.3101231    4.3101231    14953.071    31853.711    974.89203     12030.61   -50.075883     8898.764   -4722.7958    80.069851 
   10300    629.30583    -105.9163   0.56940914   -105.34689   -28873.404    4.3452613    4.3452613    4.3452613   -28873.404   -9079.9753   -30327.346    -47212.89   -4978.9041   -10299.663    7309.6607    82.044166 
   10400    1230.9838   -106.45005      1.11382   -105.33623    6147.0597    4.3203882    4.3203882    4.3203882    6147.0597    13837.187   -10485.833    15089.826   -5838.1411    1370.9373    5004.5328    80.643303 
   10500    804.22245   -106.06674   0.72767737   -105.33906    4221.5069    4.3173836    4.3173836    4.3173836    4221.5069    11837.491    601.88647    225.14329    6812.0479    1921.4427    3072.3662    80.475174 
   10600    711.78834   -105.99224   0.64404105    -105.3482   -29990.261    4.3303468    4.3303468    4.3303468   -29990.261   -13490.145   -30429.644   -46050.995   -9256.0431   -5344.7588    14144.811    81.202247 
   10700    1003.0554   -106.25406   0.90758562   -105.34647    26856.398    4.3213265    4.3213265    4.3213265    26856.398    61313.707   -8769.8681    28025.353    3853.8202   -5934.7882   -2573.2961    80.695861 
   10800    1091.2812   -106.34292    0.9874142   -105.35551   -8481.2915    4.3262154    4.3262154    4.3262154   -8481.2915    8264.4847   -24946.051   -8762.3083    9508.5187    3404.4519    8954.4181    80.970052 
   10900    646.34491    -105.9412   0.58482646   -105.35637    17588.737    4.3263081    4.3263081    4.3263081    17588.737    40545.898   -14964.783    27185.095   -2994.2324   -8562.4107    826.21046    80.975257 
   11000    1065.1045   -106.31353   0.96372898    -105.3498   -10972.889    4.3285485    4.3285485    4.3285485   -10972.889   -8169.2115   -9609.3058   -15140.148    7504.6929    4019.3411    5663.7597    81.101121 
   11100    727.47863   -106.00857   0.65823795   -105.35033    14096.984    4.3170808    4.3170808    4.3170808    14096.984    28324.632   -1618.8661    15585.187   -3308.5715   -1034.3449      10138.1    80.458238 
   11200    1203.3607   -106.43442     1.088826   -105.34559   -2276.1476    4.3284983    4.3284983    4.3284983   -2276.1476    15598.784   -22922.424    495.19698   -6702.0121    7684.7311   -8250.7511    81.098303 
   11300    721.31726   -105.99915   0.65266302   -105.34649   -8716.5136    4.3318514    4.3318514    4.3318514   -8716.5136    7172.2806   -11728.272    -21593.55    8316.5103    5412.2631     12275.47    81.286919 
   11400    810.80063    -106.0836   0.73362945   -105.34997   -1122.5537    4.3184061    4.3184061    4.3184061   -1122.5537    32290.254   -19885.105    -15772.81   -7260.4619    809.89543    1588.7151    80.532365 
   11500    1324.9214   -106.54976    1.1988167   -105.35094    9520.8587    4.3208199    4.3208199    4.3208199    9520.8587    26810.927   -15279.824    17031.473   -4305.6931    9354.3617   -13879.778     80.66748 
   11600    644.28417   -105.94117   0.58296185   -105.35821    4429.1817    4.3284103    4.3284103    4.3284103    4429.1817    22499.255   -11915.647    2703.9369    3582.4936   -10292.578    12363.761    81.093356 
   11700    776.23145   -106.05348   0.70235052   -105.35113   -14174.834    4.3282039    4.3282039    4.3282039   -14174.834   -29623.085   -17293.708    4392.2917   -12802.919    2136.7512   -7798.6216    81.081752 
   11800     1073.377   -106.31589   0.97121411   -105.34468      20667.1    4.3156751    4.3156751    4.3156751      20667.1      40325.3    7174.6737    14501.325    6575.7339   -2580.1394   -6.3816603    80.379669 
   11900    1018.5525   -106.27735   0.92160768   -105.35574   -16648.226    4.3252138    4.3252138    4.3252138   -16648.226   -16129.847   -32656.499   -1158.3337   -1388.9084   -7736.6047    4226.7717    80.913827 
   12000    705.45213   -105.99573   0.63830791   -105.35742   -4013.7329    4.3305249    4.3305249    4.3305249   -4013.7329    -2136.273   -11869.675    1964.7496    140.24349   -9514.3983   -2719.3791    81.212265 
   12100    877.97133    -106.1488   0.79440691   -105.35439    11978.171    4.3128436    4.3128436    4.3128436    11978.171    30656.214   -10914.567    16192.866    733.22856    -3090.031    10542.134    80.221564 
   12200    857.75317   -106.13886   0.77611309   -105.36275   -6082.6498    4.3280974    4.3280974    4.3280974   -6082.6498   -3691.7971   -24809.965    10253.813   -5552.0939   -9782.9995   -6428.9199    81.075769 
   12300    1149.3385   -106.38771    1.0399457   -105.34777    5534.7984    4.3283717    4.3283717    4.3283717    5534.7984    12181.278   -15742.125    20165.243    6045.7532    9309.2604    10521.486    81.091186 
   12400    677.89454   -105.96111   0.61337323   -105.34774   -12577.286    4.3177522    4.3177522    4.3177522   -12577.286   -18218.995   -18297.478    -1215.385   -7974.4454   -3455.0761   -2967.3453    80.495784 
   12500    774.60555    -106.0546   0.70087938   -105.35372   -7400.6526    4.3243902    4.3243902    4.3243902   -7400.6526     4510.996   -14254.353     -12458.6    2510.8396   -6364.8593   -8578.3295    80.867612 
   12600    1370.8833   -106.58872     1.240404   -105.34831   -7500.5676    4.3271734    4.3271734    4.3271734   -7500.5676    8276.1784   -20849.886   -9927.9955   -11173.559    3557.8594    3870.1801    81.023853 
   12700    437.63702   -105.75352   0.39598317   -105.35753   -10601.136    4.3300168    4.3300168    4.3300168   -10601.136     15598.12   -37186.835   -10214.693   -8880.2603   -10518.787   -11272.102    81.183684 
   12800    1022.4041   -106.27337   0.92509271   -105.34827     -5981.82     4.317905     4.317905     4.317905     -5981.82   -11032.286    8550.2023   -15463.377    2637.8653    -2757.519   -7780.5208    80.504332 
   12900    803.00413   -106.08346   0.72657501   -105.35689    10697.862    4.3211238    4.3211238    4.3211238    10697.862    12046.488   -24243.555    44290.651   -9762.8017   -5468.5334   -5662.2609    80.684502 
   13000    1161.5463   -106.40245    1.0509915   -105.35146   -30337.038    4.3342037    4.3342037    4.3342037   -30337.038   -24855.653   -37033.308   -29122.153   -2775.4111   -16554.874   -10849.286    81.419411 
   13100    657.08339   -105.94086   0.59454286   -105.34631    38325.748    4.3148019    4.3148019    4.3148019    38325.748    62109.964    7143.3168    45723.964   -892.29746    329.76701   -3703.4052     80.33089 
   13200    684.91971   -105.97769   0.61972975   -105.35796   -25663.239    4.3261362    4.3261362    4.3261362   -25663.239   -14220.023    -24542.14   -38227.556   -5363.2327    -5804.866   -8267.0395    80.965602 
   13300    1184.5167   -106.42025    1.0717756   -105.34847    4052.4081    4.3283609    4.3283609    4.3283609    4052.4081      24454.5   -16951.827    4654.5511   -4112.4473   -6044.7189   -1288.3108    81.090575 
   13400    977.33835   -106.23181   0.88431628   -105.34749   -2269.1725    4.3217577    4.3217577    4.3217577   -2269.1725    7279.2306    1502.3031   -15589.051    -5190.865    7522.8768   -7065.0351    80.720018 
   13500    554.24513   -105.85043   0.50149264   -105.34894    -3291.309     4.321637     4.321637     4.321637    -3291.309    30198.362   -10824.519    -29247.77    315.41681   -6462.5017    40.389815    80.713252 
   13600    1057.8979   -106.30353   0.95720823   -105.34632    6881.8046     4.323936     4.323936     4.323936    6881.8046    -972.8401    1758.1117    19860.142    4512.6342    5240.8782    3190.7051    80.842135 
   13700    950.85672   -106.21212   0.86035514   -105.35177    1730.2407    4.3224642    4.3224642    4.3224642    1730.2407     34458.59   -15555.544   -13712.324   -3294.4801    1174.7793   -4824.0289    80.759608 
   13800    988.55831   -106.24693   0.89446833   -105.35247    7472.4795    4.3213003    4.3213003    4.3213003    7472.4795    -5753.173   -5112.6923    33283.304    8263.2341   -11708.662    2471.5608    80.694388 
   13900    822.77485   -106.09717   0.74446398   -105.35271   -2970.9832     4.326193     4.326193     4.326193   -2970.9832    19520.345   -10180.868   -18252.427   -2756.9905   -814.52063   -5309.4058    80.968796 
   14000    763.02973    -106.0447   0.69040533    -105.3543     3201.901    4.3212148    4.3212148    4.3212148     3201.901    4058.7068   -9720.5288    15267.525   -3172.5427   -15245.701    1692.2834    80.689598 
   14100    1264.5681   -106.49156    1.1442078   -105.34735    1170.8888    4.3191814    4.3191814    4.3191814    1170.8888    9129.4109   -9314.5692    3697.8247    7968.9534   -14004.434    -5938.103    80.575747 
   14200    562.87983   -105.86415    0.5093055   -105.35485   -4188.0489     4.327147     4.327147     4.327147   -4188.0489    18429.164   -9204.3669   -21788.944   -10874.586    1753.8929   -9980.0855    81.022369 
   14300    953.39818   -106.21653   0.86265471   -105.35387   -4895.7723    4.3225302    4.3225302    4.3225302   -4895.7723   -26939.713     4688.701    7563.6949    5967.2673   -14284.791   -2665.3366    80.763312 
   14400    994.56134   -106.25511       0.8999   -105.35521    4557.9054    4.3216229    4.3216229    4.3216229    4557.9054    12031.982   -8545.5604    10187.294   -3940.4854     4351.451   -8993.7211    80.712466 
   14500    826.72232   -106.10706   0.74803573   -105.35902     3399.152    4.3300727    4.3300727    4.3300727     3399.152   -12458.983   -8701.4357    31357.875   -2730.3022    1004.5938    -2460.662    81.186826 
   14600    1085.2771   -106.33269    0.9819815   -105.35071   -15014.522    4.3274178    4.3274178    4.3274178   -15014.522   -4290.6023   -12282.611   -28470.353    3500.4952    247.77159    7948.7062    81.037583 
   14700     515.8794    -105.8223   0.46677852   -105.35553    6866.7465    4.3199961    4.3199961    4.3199961    6866.7465    3177.5625    13652.072    3770.6053   -11566.126   -2741.9894   -13988.704    80.621352 
   14800    1211.1002    -106.4496    1.0958289   -105.35377    -8776.886    4.3262777    4.3262777    4.3262777    -8776.886   -14498.283    -17662.26    5829.8849    1385.5331    36.494039    16335.652    80.973552 
   14900    841.05527   -106.11659   0.76100449   -105.35558    16852.165    4.3186189    4.3186189    4.3186189    16852.165    4686.1238    34543.494    11326.878   -1774.5726   -108.91613   -10928.794    80.544268 
   15000    814.82084   -106.09382   0.73726702   -105.35656   -2846.4005    4.3295208    4.3295208    4.3295208   -2846.4005   -24024.712   -11753.231    27238.742   -138.19225    -334.6925   -3472.3701    81.155785 
   15100    1043.5409   -106.29283   0.94421775   -105.34861     4637.166    4.3230652    4.3230652    4.3230652     4637.166   -18349.449    16302.638     15958.31    5498.5892   -3676.8887   -896.31451    80.793304 
   15200    662.28011    -105.9558   0.59924496   -105.35655    17071.079    4.3159899    4.3159899    4.3159899    17071.079    576.93888   -3280.2505     53916.55   -245.04671   -4311.5858   -13015.731    80.397264 
   15300    1309.8645   -106.53245    1.1851929   -105.34726   -23714.717    4.3364564    4.3364564    4.3364564   -23714.717    -23249.86   -25110.295   -22783.995    1622.4422   -4171.8923   -11711.101     81.54643 
   15400    559.87863   -105.85748   0.50658995   -105.35089    7436.1399    4.3215679    4.3215679    4.3215679    7436.1399    5395.9836    16069.387     843.0492    822.87071   -2920.9348    3671.4217    80.709382 
   15500    893.89303   -106.16172    0.8088132    -105.3529     2784.506     4.317993     4.317993     4.317993     2784.506   -9646.7752   -18702.066    36702.359   -10733.792    1034.2504   -21759.903    80.509255 
   15600    1137.2723   -106.37791    1.0290279   -105.34888   -5965.0864     4.336998     4.336998     4.336998   -5965.0864   -26464.403    7701.7285    867.41543   -508.67234    1211.5279    5599.8197    81.576987 
   15700     639.1723   -105.93201   0.57833653   -105.35368    25113.159    4.3148573    4.3148573    4.3148573    25113.159    16024.293   -4042.0962    63357.282   -5202.8412    13416.041    2795.0859    80.333984 
   15800    955.64732   -106.22008   0.86468977   -105.35539   -3311.6933    4.3207362    4.3207362    4.3207362   -3311.6933   -10659.857    16187.966   -15463.189   -4986.6828   -3767.2582   -884.52805     80.66279 
   15900    833.69018   -106.10872    0.7543404   -105.35438   -2429.3026    4.3240579    4.3240579    4.3240579   -2429.3026   -12455.534   -21523.218    26690.844   -2087.1207    4251.1441    1411.7467     80.84897 
   16000    870.06177   -106.14359   0.78725017   -105.35634    -21123.08    4.3283044    4.3283044    4.3283044    -21123.08    -9128.569   -42131.714   -12108.957   -1153.3448    2601.2279   -10170.631      81.0874 
   16100    1191.2372   -106.42403    1.0778565   -105.34618    6680.2772     4.312846     4.312846     4.312846    6680.2772    -10247.98    14910.589    15378.222    660.30745    6672.4254   -2377.9029    80.221697 
   16200    699.01401   -105.98818   0.63248257    -105.3557    1409.5057    4.3179814    4.3179814    4.3179814    1409.5057    8343.3333    -28376.68    24261.864    4712.9758    701.80754   -16077.561    80.508606 
   16300    802.41204   -106.07644   0.72603927    -105.3504   -22183.744    4.3354465    4.3354465    4.3354465   -22183.744   -21039.244   -28932.307   -16579.682   -2772.2971    10729.847    -15721.14    81.489472 
   16400    1002.2679   -106.24986   0.90687306   -105.34299    16309.667     4.315802     4.315802     4.315802    16309.667    14927.257    8874.0591    25127.686    1383.3992    7343.9658    4476.2582     80.38676 
   16500    920.34216   -106.18367   0.83274493   -105.35093   -14868.613     4.320911     4.320911     4.320911   -14868.613   -7128.4825   -20184.285   -17293.071    1304.8173   -2305.4837   -28378.364    80.672585 
   16600    832.20079   -106.10261   0.75299277   -105.34961   -9110.2747    4.3233093    4.3233093    4.3233093   -9110.2747   -8725.0818     6812.968    -25418.71    684.54208    12049.906    10834.756    80.806986 
   16700    724.49201   -106.00529    0.6555356   -105.34976    6196.2497    4.3173494    4.3173494    4.3173494    6196.2497    3518.8072    -37831.03    52900.972    4233.0915   -9785.2952   -12095.782    80.473259 
   16800    1176.5203   -106.41321    1.0645403   -105.34867   -22324.247    4.3286605    4.3286605    4.3286605   -22324.247   -23358.788    -25050.15   -18563.803    1137.8813    7444.0201    4466.2419    81.107418 
   16900    870.84353   -106.13533   0.78795753   -105.34737     20788.46    4.3178518    4.3178518    4.3178518     20788.46    4258.3463    79.863288    58027.171     2199.285   -535.33845    7702.8262    80.501355 
   17000    721.64394   -106.00643    0.6529586   -105.35347   -14595.201    4.3248361    4.3248361    4.3248361   -14595.201    1535.3406   -38876.678   -6444.2653   -2121.3813   -2286.6138   -19164.087     80.89263 
   17100    1005.5965   -106.25656   0.90988485   -105.34668   -6592.1184    4.3257356    4.3257356    4.3257356   -6592.1184   -22241.148   -18910.713    21375.505    -1875.322   -2003.2781      5105.24    80.943114 
   17200    806.39294   -106.07784   0.72964128    -105.3482    12026.108    4.3177148    4.3177148    4.3177148    12026.108    22373.595   -8199.9695      21904.7    1927.3013   -4206.7118   -7987.3533    80.493696 
   17300    1165.3904   -106.40273    1.0544697   -105.34826   -15643.095    4.3239448    4.3239448    4.3239448   -15643.095   -8604.9073    -20659.11   -17665.266   -7023.9026     5279.645   -18297.787    80.842629 
   17400    585.70574   -105.87832   0.52995886   -105.34836    17964.416     4.323775     4.323775     4.323775    17964.416   -2717.2211   -8503.7695    65114.237    1220.0096    2107.9086     5843.627    80.833104 
   17500    1012.0447   -106.26541   0.91571931   -105.34969   -9028.1803     4.323311     4.323311     4.323311   -9028.1803   -2598.6439   -30752.213    6266.3157   -868.83694    967.60432   -21495.234    80.807085 
   17600    1144.0089   -106.38371    1.0351233   -105.34859    14377.619    4.3188547    4.3188547    4.3188547    14377.619   -8529.5583    4967.3657    46695.051    1264.0338     2199.571     8835.486    80.557464 
   17700    720.47859   -106.00639   0.65190417   -105.35449   -2183.3712    4.3201588    4.3201588    4.3201588   -2183.3712    9496.3914   -23006.011    6959.5063     5415.672    7513.6154   -7639.4862    80.630462 
   17800    940.80414   -106.20519   0.85125936   -105.35394    -13083.13    4.3300063    4.3300063    4.3300063    -13083.13   -4539.7293    -27289.98   -7419.6797   -2463.6467   -1037.3442   -3363.2854    81.183089 
   17900    855.13481   -106.12764   0.77374395    -105.3539    17245.363     4.319622     4.319622     4.319622    17245.363    5233.3282   -18204.074    64706.834    4342.1582    14724.792    3634.1519    80.600408 
   18000    948.37268   -106.21969   0.85810753   -105.36158   -141.45243    4.3211129    4.3211129    4.3211129   -141.45243    1111.7013   -12102.491    10566.433   -1314.0761   -5430.4683   -14321.958     80.68389 
   18100    824.32015   -106.10021   0.74586219   -105.35435   -6556.4216    4.3339795    4.3339795    4.3339795   -6556.4216   -9321.7523   -23826.363     13478.85     1045.435   -3169.6435    1568.5373    81.406774 
   18200    736.86894   -106.01777    0.6667345   -105.35103    -1151.657     4.317737     4.317737     4.317737    -1151.657   -4537.3332   -7782.0461    8864.4083    8748.7531    1281.1548   -17182.182    80.494937 
   18300    1196.3833   -106.43152    1.0825127     -105.349    1831.4145    4.3209788    4.3209788    4.3209788    1831.4145    13760.904   -1214.4491   -7052.2118    1009.3786   -1989.2258   -13465.584    80.676382 
   18400    708.26696   -105.99003   0.64085483   -105.34917   -9384.9671    4.3323268    4.3323268    4.3323268   -9384.9671   -9243.7175   -12829.527   -6081.6565    5940.2419    6455.1139    2981.3779    81.313684 
   18500    829.54752   -106.09824   0.75059203   -105.34765   -9583.6537    4.3171929    4.3171929    4.3171929   -9583.6537    19762.995   -24611.675   -23902.281    1017.6982    1366.4796   -22994.865    80.464508 
   18600    999.87231   -106.25513   0.90470548   -105.35043    12286.184    4.3258823    4.3258823    4.3258823    12286.184   -52.429172    1119.8715    35791.111   -3775.6373    -2939.625     9499.694    80.951353 
   18700    841.18766   -106.12064   0.76112427   -105.35952   -13773.325    4.3286592    4.3286592    4.3286592   -13773.325   -23817.113   -43303.564    25800.702     7100.832    11079.853   -13364.708    81.107347 
   18800     980.3614   -106.24402    0.8870516   -105.35697    709.84064    4.3188172    4.3188172    4.3188172    709.84064    22424.207   -630.07425    -19664.61   -7278.1996   -5904.1997   -2028.3873    80.555363 
   18900    905.28676   -106.18312   0.81912249   -105.36399   -20841.076    4.3342674    4.3342674    4.3342674   -20841.076   -21191.542   -31477.395   -9854.2905    5647.3763    179.32867   -8212.3335    81.423002 
   19000    746.07954   -106.04021   0.67506845   -105.36514    7704.8044    4.3261101    4.3261101    4.3261101    7704.8044    1468.6437   -21856.922    43502.692    377.56003    8133.1307    -14600.07    80.964138 
   19100    1229.2227   -106.47184    1.1122266   -105.35961     11403.56    4.3227553    4.3227553    4.3227553     11403.56    4651.4485    239.42098    29319.812    4514.6005    906.61777    5114.4591    80.775929 
   19200     697.4257   -105.99547   0.63104543   -105.36443   -1996.6388    4.3297184    4.3297184    4.3297184   -1996.6388    5557.6166   -22250.289    10702.756    7154.2737     3097.846   -21667.374      81.1669 
   19300    700.53069    -105.9905   0.63385489   -105.35664   -2054.0119    4.3341845    4.3341845    4.3341845   -2054.0119      5675.13   -19307.961    7470.7955    -2367.017    9439.4449   -6478.7112    81.418328 
   19400    1306.5073     -106.531    1.1821553   -105.34884   -15300.264    4.3277834    4.3277834    4.3277834   -15300.264   -21933.294   -24119.324    151.82647    3009.3538   -9778.7297   -5701.7397    81.058123 
   19500    800.67519   -106.08479   0.72446774   -105.36032   -10854.184    4.3295889    4.3295889    4.3295889   -10854.184     5608.833   -30989.579   -7181.8068    573.37206    4874.3125   -17499.574    81.159616 
   19600    817.62951    -106.1023   0.73980837   -105.36249    14341.528    4.3263164    4.3263164    4.3263164    14341.528     -7838.22    -15851.26    66714.063   -5218.9173   -2038.2307    15993.148    80.975724 
   19700    778.11327   -106.07607   0.70405324   -105.37202   -12274.183    4.3365295    4.3365295    4.3365295   -12274.183   -16714.713   -31070.824    10962.989    6626.3625    1553.1869   -16318.994    81.550554 
   19800    1099.4301   -106.36362   0.99478748   -105.36883    6.0428561    4.3240943    4.3240943    4.3240943    6.0428561    14697.453     -19924.5    5245.1762   -7471.2826      3950.27   -9307.5011    80.851016 
   19900    1168.6827   -106.43173    1.0574487   -105.37428   -12266.978    4.3255822    4.3255822    4.3255822   -12266.978   -17241.342   -20061.274    501.68128    3614.2704   -822.14721   -5507.5153    80.934502 
   20000    614.76671   -105.92624   0.55625384   -105.36999    1758.8221    4.3342658    4.3342658    4.3342658    1758.8221   -4620.9022   -31350.433    41247.802    1400.5978    5887.5562   -15897.615    81.422913 
   20100    997.95171   -106.26057   0.90296768    -105.3576    2001.3228    4.3266656    4.3266656    4.3266656    2001.3228    6756.7199    10900.116   -11652.867     -5667.51   -143.54112    6743.8676    80.995332 
   20200    1049.3589   -106.30562   0.94948201   -105.35614   -11997.863    4.3256971    4.3256971    4.3256971   -11997.863   -18740.383   -7593.3545    -9659.852    6677.3325    6077.5098   -14858.917    80.940956 
   20300    712.43785   -106.00344   0.64462874   -105.35881    6023.3307    4.3309677    4.3309677    4.3309677    6023.3307   -1545.9473     -4919.33    24535.269   -1304.2179     7224.761    6658.9809    81.237181 
   20400    828.83152   -106.10833   0.74994418   -105.35839    21756.983    4.3212212    4.3212212    4.3212212    21756.983    15418.748    8889.0497     40963.15    2372.6489    4721.2929   -12823.973    80.689958 
   20500    980.59812   -106.24978   0.88726579   -105.36252   -11763.556    4.3304679    4.3304679    4.3304679   -11763.556   -5633.0955   -5745.7487   -23911.825    881.10576    3407.6527   -10873.247    81.209057 
   20600    1076.4535   -106.32702   0.97399774   -105.35303    10645.483    4.3225593    4.3225593    4.3225593    10645.483   -7385.0695   -14799.185    54120.704     2074.131    16282.272    2460.6292    80.764942 
   20700    700.48274   -105.99189    0.6338115   -105.35808   -5664.2456    4.3220339    4.3220339    4.3220339   -5664.2456     18275.88   -22072.917   -13195.699    867.27448   -5743.4128   -18961.745    80.735495 
   20800    1060.8104   -106.31796   0.95984353   -105.35812   -14742.338    4.3268808    4.3268808    4.3268808   -14742.338   -25570.804   -130.81395   -18525.396    6057.3696    2983.6316    3024.9153     81.00742 
   20900    831.59521   -106.10821   0.75244483   -105.35577    11316.138    4.3233567    4.3233567    4.3233567    11316.138    12021.661   -3533.4136    25460.167   -6724.8247    4856.5992   -6749.7767    80.809645 
   21000    901.70564   -106.16892   0.81588222   -105.35303   -2775.3872    4.3228216    4.3228216    4.3228216   -2775.3872     5884.516   -9806.7531   -4403.9246    4665.5111   -2338.4568   -15016.279    80.779646 
   21100    975.82452   -106.23056   0.88294653   -105.34761    6345.5939    4.3223954    4.3223954    4.3223954    6345.5939   -14194.688    15095.773    18135.696   -5567.8041    327.97511    1390.6432    80.755752 
   21200    646.23724   -105.93464   0.58472904   -105.34991   -11301.288    4.3300858    4.3300858    4.3300858   -11301.288    18216.505   -15662.239   -36458.128   -5177.6127    3198.2078   -10518.209    81.187566 
   21300     1124.739   -106.36208    1.0176874   -105.34439   -8347.8457    4.3218345    4.3218345    4.3218345   -8347.8457   -15607.775    994.21067   -10429.973    1249.1435   -5301.7861   -6351.6386    80.724317 
   21400    920.57218   -106.18367   0.83295305   -105.35072   -699.04114    4.3214366    4.3214366    4.3214366   -699.04114    -264.1069   -14310.559    12477.543    -10400.09    3878.2584    2239.9599    80.702024 
   21500    888.58261   -106.15942   0.80400822   -105.35541   -6737.0878    4.3257335    4.3257335    4.3257335   -6737.0878    -598.8157   -26788.248    7175.8004    5842.2241   -7525.1901   -11901.395    80.942995 
   21600    828.00741   -106.10414    0.7491985   -105.35495   -7709.6142    4.3293512    4.3293512    4.3293512   -7709.6142   -22859.185    18899.511   -19169.169   -6548.5029    5456.0109    5601.6433    81.146247 
   21700    968.04578   -106.22744   0.87590816   -105.35153     11606.22    4.3153852    4.3153852    4.3153852     11606.22    22208.645   -8044.6153    20654.629    6596.2982   -2657.5799   -10925.903    80.363475 
   21800    917.31868   -106.18277   0.83000922   -105.35276    1547.3484     4.324485     4.324485     4.324485    1547.3484    -5696.323    6796.3674    3542.0008    5160.2407    6351.7901    1991.6253     80.87293 
   21900    804.47116   -106.07494   0.72790241   -105.34704   -13518.973    4.3271223    4.3271223    4.3271223   -13518.973   -16090.876    10999.765   -35465.809    378.24236     4383.743   -5799.8722    81.020983 
   22000    789.13908   -106.05887   0.71402962   -105.34484    22080.187    4.3154274    4.3154274    4.3154274    22080.187    19058.315    2734.9774    44447.268    4658.0677   -6366.4045    -6845.882    80.365833 
   22100    1160.6997   -106.40044    1.0502255   -105.35022    -15301.69    4.3270778    4.3270778    4.3270778    -15301.69   -35349.929    1611.7955   -12166.936   -631.20296    4577.5167    8614.2057    81.018484 
   22200    862.15334   -106.12926   0.78009446   -105.34916    4476.8946    4.3241048    4.3241048    4.3241048    4476.8946    4039.9292    -21180.05    30570.805   -2317.1032    -5575.308   -12411.214    80.851604 
   22300    822.70471    -106.0973   0.74440051    -105.3529   -6641.4023    4.3179573    4.3179573    4.3179573   -6641.4023   -1269.2361   -6462.0461   -12192.925    2203.5398   -7059.1999   -8021.1241    80.507257 
   22400    827.22317     -106.109   0.74848891   -105.36051   -3259.5683    4.3263821    4.3263821    4.3263821   -3259.5683   -8886.6119    13195.903   -14087.996   -6443.1447   -2149.5187     9739.844    80.979415 
   22500    1043.1493   -106.29861   0.94386341   -105.35475   -3089.3719    4.3289863    4.3289863    4.3289863   -3089.3719    4313.6494   -26395.103    12813.337   -2985.5246   -549.76146   -15677.826    81.125732 
   22600    841.54766   -106.11184   0.76145001   -105.35039    17597.013    4.3126312    4.3126312    4.3126312    17597.013    4873.4382    13982.654    33934.948   -300.48285   -13493.896   -2520.2592    80.209714 
   22700    865.04908   -106.13373   0.78271458   -105.35101    -12465.52    4.3286054    4.3286054    4.3286054    -12465.52   -10205.553   -8148.7996   -19042.208    -4638.278    6451.2447   -735.80933     81.10432 
   22800    801.18729   -106.07451    0.7249311   -105.34958   -4852.6501    4.3258825    4.3258825    4.3258825   -4852.6501    12537.321    -5407.225   -21688.046    1063.6893   -6917.5947   -7148.5716     80.95136 
   22900     972.6972   -106.22954   0.88011687   -105.34943    8362.0717    4.3158119    4.3158119    4.3158119    8362.0717    1521.1165   -5252.9216     28818.02   -6131.2308   -11006.649    8430.9228    80.387316 
   23000    1095.9057   -106.34115   0.99159847   -105.34955   -3113.3516    4.3223827    4.3223827    4.3223827   -3113.3516    1942.8598   -8259.4304   -3023.4843    1318.0306    3039.3119   -11564.641    80.755042 
   23100     525.5635   -105.82765    0.4755409   -105.35211    4133.4543    4.3278215    4.3278215    4.3278215    4133.4543      1890.27   -12874.107      23384.2    322.43763   -14912.184    8249.5749    81.060266 
   23200    1090.4823   -106.33315   0.98669129   -105.34646   -3969.0555    4.3212624    4.3212624    4.3212624   -3969.0555    5103.8845    5255.8415   -22266.893   -1520.0238    4337.1776    2247.6183    80.692266 
   23300    1024.7812   -106.27645   0.92724355   -105.34921    17503.985    4.3142487    4.3142487    4.3142487    17503.985    4550.3271    5395.6639    42565.965     3703.282   -10013.178   -7419.7274    80.299996 
   23400    827.43101   -106.09688   0.74867697    -105.3482   -21709.468    4.3384101    4.3384101    4.3384101   -21709.468   -15381.886   -22094.169    -27652.35    1065.1417   -1124.0659    15505.286    81.656697 
   23500    841.26547   -106.10084   0.76119467   -105.33964    4115.7467    4.3178595    4.3178595    4.3178595    4115.7467    351.09031    19027.035   -7030.8851   -1812.3958    188.01381   -1300.7877    80.501786 
   23600    937.39051   -106.19453   0.84817063   -105.34636    10953.989    4.3098263    4.3098263    4.3098263    10953.989   -5072.8371   -2775.8635    40710.667    1926.6358   -13609.196    3431.8897     80.05331 
   23700    1059.6442    -106.3103   0.95878835   -105.35152     2112.149    4.3324865    4.3324865    4.3324865     2112.149   -6581.2556   -15032.641    27950.344    -1476.398    6837.6502    807.70466    81.322674 
   23800    790.54967   -106.06971   0.71530595   -105.35441   -7897.1146    4.3255836    4.3255836    4.3255836   -7897.1146   -19422.843   -1057.9017   -3210.5991   -480.52323   -18458.018   -2492.4613    80.934583 
   23900     824.7709   -106.10123   0.74627005   -105.35496     2993.946    4.3168466    4.3168466    4.3168466     2993.946    -4758.257     9010.255      4729.84   -1858.1039     115.5833   -5599.7838    80.445146 
   24000    927.81531    -106.1966   0.83950679   -105.35709    10276.458    4.3266035    4.3266035    4.3266035    10276.458   -12056.053    1290.5372    41594.891   -1196.6772   -3836.8811   -3559.1308    80.991845 
   24100    823.40748   -106.10712   0.74503639   -105.36209    -12213.59    4.3286399    4.3286399    4.3286399    -12213.59    -35046.24   -5132.0677    3537.5381    942.04758   -22484.848     10087.24     81.10626 
   24200    1267.8275   -106.49819     1.147157   -105.35104   -701.49759     4.316284     4.316284     4.316284   -701.49759   -3450.6176   -16017.798    17363.923   -5178.0439    2046.3557   -3517.0409      80.4137 
   24300     537.5462   -105.85457    0.4863831   -105.36819   -19091.106    4.3345218    4.3345218    4.3345218   -19091.106    -31556.58   -18096.185   -7620.5518    5179.9582   -11221.809    19098.394    81.437341 
   24400    905.71876   -106.17944   0.81951337   -105.35992    15192.265     4.325046     4.325046     4.325046    15192.265   -30688.347    11204.583     65060.56   -2213.3113   -8447.3806   -8341.9565    80.904411 
   24500    1172.1604   -106.41961    1.0605954   -105.35901   -2489.1615    4.3281939    4.3281939    4.3281939   -2489.1615   -26759.931   -30806.296    50098.742    2004.3045   -1210.4178    366.70248     81.08119 
   24600    732.06135   -106.02907    0.6623845   -105.36669   -11933.075    4.3313714    4.3313714    4.3313714   -11933.075   -40218.066   -12356.611    16775.451   -1089.2399   -13800.951   -5950.2896      81.2599 
   24700    1305.0368   -106.55068    1.1808247   -105.36986   -5773.7787    4.3281133    4.3281133    4.3281133   -5773.7787   -22805.675    12717.939   -7233.6006     3183.286    277.52381    3966.4263    81.076663 
   24800    608.35893   -105.92913   0.55045594   -105.37867     22942.17    4.3243486    4.3243486    4.3243486     22942.17   -17873.812   -11317.455    98017.776    1647.8132   -14995.482    10127.029    80.865276 
   24900    803.79602   -106.10029   0.72729153     -105.373   -2552.9723    4.3363702    4.3363702    4.3363702   -2552.9723   -32815.388   -17452.714    42609.185   -1311.1272   -8787.4777   -7025.7621     81.54157 
   25000    1253.3197   -106.48908      1.13403   -105.35505    2473.7999    4.3265952    4.3265952    4.3265952    2473.7999   -13050.565    1825.2664    18646.698    4411.0855    3645.3112    7132.0497    80.991377 
   25100       507.48   -105.82131   0.45917857   -105.36213   -5035.4678    4.3357492    4.3357492    4.3357492   -5035.4678   -23128.285   -1638.8297    9660.7112    3381.7463   -19832.501    -4977.865    81.506542 
   25200    1168.3563   -106.40793    1.0571533   -105.35077   -549.07347    4.3298982    4.3298982    4.3298982   -549.07347   -21679.691    -18353.48     38385.95    1116.1124    6821.2215   -8294.6222    81.177009 
   25300    975.34441   -106.23858   0.88251212   -105.35607    3654.6926    4.3227946    4.3227946    4.3227946    3654.6926    -8485.262    2558.4259    16890.914    1094.4878   -10657.497    4035.0065    80.778132 
   25400    683.94129   -105.97795   0.61884445   -105.35911    14452.735    4.3385124    4.3385124    4.3385124    14452.735   -17611.805   -9732.6094     70702.62    4715.7628    -6544.803   -405.93425    81.662472 
   25500    1231.4822   -106.46239    1.1142709   -105.34812   -13476.018    4.3297972    4.3297972    4.3297972   -13476.018   -25960.069   -11916.981   -2551.0058    1955.2491   -1424.7507   -1862.5343    81.171328 
   25600     751.9501   -106.03598   0.68038026    -105.3556    5825.8385     4.320786     4.320786     4.320786    5825.8385   -7982.7551   -2354.6779    27814.949    2874.1683   -13931.838    10396.658    80.665582 
   25700    901.74129   -106.17589   0.81591447   -105.35998    4034.7808    4.3395508    4.3395508    4.3395508    4034.7808   -21448.865    -15308.36    48861.568    1206.2028    5546.2338     7185.931    81.721126 
   25800    918.31669   -106.19744   0.83091224   -105.36653    994.65178    4.3257712    4.3257712    4.3257712    994.65178   -35286.145   -6599.1294     44869.23    2575.1523   -113.27301   -3843.0926    80.945116 
   25900     938.4917   -106.21809   0.84916701   -105.36892    4039.4305    4.3191538    4.3191538    4.3191538    4039.4305   -9120.1696    4349.6928    16888.768   -1435.6615    -10330.72     2707.241    80.574199 
   26000    937.42977   -106.21716   0.84820615   -105.36896   -19543.607    4.3409845    4.3409845    4.3409845   -19543.607   -38074.197   -30064.407    9507.7824   -3453.5215    17334.486   -8542.9843    81.802149 
   26100    737.48321   -106.04028   0.66729031   -105.37299   -1770.5627    4.3262997    4.3262997    4.3262997   -1770.5627   -47912.692   -6864.3108    49465.315     1824.608   -25302.596    3980.5413    80.974787 
   26200    1006.2156   -106.27949   0.91044505   -105.36904    21182.316    4.3095116    4.3095116    4.3095116    21182.316   -3820.9455    822.86462     66545.03   -5229.2952    5316.8711    10477.554    80.035775 
   26300    734.99526   -106.03788   0.66503916   -105.37284   -25910.224    4.3432698    4.3432698    4.3432698   -25910.224   -51129.983   -30385.247    3784.5583    1662.0909    565.64242   -171.50241    81.931407 
   26400    1059.2032    -106.3228   0.95838929   -105.36441   -20175.649    4.3251821    4.3251821    4.3251821   -20175.649   -32361.186    -32903.02    4737.2583   -8849.4156   -10732.122    13053.381    80.912049 
   26500    1257.6712   -106.49969    1.1379673   -105.36172    15239.762    4.3077638    4.3077638    4.3077638    15239.762   -9034.6371    16562.292    38191.632    512.41064     3908.175   -13904.715    79.938434 
   26600    541.34393    -105.8667   0.48981937   -105.37688   -7857.2924    4.3410012    4.3410012    4.3410012   -7857.2924   -56875.918    -21057.68    54361.721   -1865.3729   -1788.9564    11053.434     81.80309 
   26700    759.88286   -106.06054   0.68755798   -105.37298   -12475.576    4.3293111    4.3293111    4.3293111   -12475.576   -19437.307   -29441.436    11452.014   -8151.3756   -7020.4556    1304.9879    81.143995 
   26800    1180.1855   -106.42871    1.0678566   -105.36085    14115.738    4.3119471    4.3119471    4.3119471    14115.738   -15509.922    15182.749    42674.389    3084.1501    10247.276    12197.207     80.17155 
   26900    798.68993    -106.0893   0.72267143   -105.36663   -21518.658    4.3434338    4.3434338    4.3434338   -21518.658   -52429.183   -21798.338    9671.5469   -8802.9763   -13611.744   -1953.7087    81.940688 
   27000    744.07292   -106.02744   0.67325281   -105.35419    21710.706    4.3284504    4.3284504    4.3284504    21710.706   -8035.3823   -7332.3332    80499.835    3302.0532    9145.5199    12025.777    81.095611 
   27100    1144.5544   -106.38626    1.0356169   -105.35065   -15291.655    4.3221097    4.3221097    4.3221097   -15291.655   -26482.309   -16242.334   -3150.3219   -4858.1932   -10584.154   -7628.9078    80.739744 
   27200    566.41012   -105.87528   0.51249978   -105.36278    401.15871    4.3370099    4.3370099    4.3370099    401.15871   -25407.966   -19917.613    46529.055    -1307.472   -8278.8691    7315.5174     81.57766 
   27300    1348.3069   -106.57331    1.2199764   -105.35334   -10566.683    4.3256321    4.3256321    4.3256321   -10566.683    -15622.86   -18118.004    2040.8131    4737.0611    151.35521    2941.1644    80.937306 
   27400    818.50784   -106.10238    0.7406031   -105.36178   -20123.068    4.3306156    4.3306156    4.3306156   -20123.068   -34203.098   -22852.974   -3313.1323   -9640.3763   -11129.818   -3507.4182    81.217366 
   27500    626.82454   -105.92557   0.56716402   -105.35841    20008.469    4.3314484    4.3314484    4.3314484    20008.469   -9954.5393   -13543.857    83523.804    6674.0587    1439.3177    4963.3168     81.26423 
   27600    1180.8739   -106.42416    1.0684796   -105.35568   -7391.9754    4.3233176    4.3233176    4.3233176   -7391.9754   -21117.381    377.52638   -1436.0714   -6313.8935   -641.06102    1505.5015    80.807454 
   27700    813.36731   -106.10032   0.73595183   -105.36437    1980.2461    4.3348487    4.3348487    4.3348487    1980.2461   -32158.632   -15979.066    54078.436    2391.9329   -5197.6107    3394.4818    81.455765 
   27800    927.24405   -106.19826    0.8389899   -105.35927   -12830.873    4.3319651    4.3319651    4.3319651   -12830.873   -17290.828   -19930.927   -1270.8637    389.38819    11394.301    20146.809     81.29332 
   27900    818.22693   -106.09554   0.74034892   -105.35519    5856.2055    4.3137195    4.3137195    4.3137195    5856.2055   -13412.777    13777.054    17204.339   -6470.1848   -20041.556   -3782.7469    80.270452 
   28000    1176.2419   -106.42312    1.0642884   -105.35883   -12069.873    4.3355881    4.3355881    4.3355881   -12069.873   -29102.906   -28891.931    21785.217     6213.981    8051.6987    7945.7035    81.497456 
   28100    563.17969   -105.87453   0.50957681   -105.36495    23816.092    4.3221401    4.3221401    4.3221401    23816.092   -26719.144   -11091.352    109258.77    -8545.816    -13146.86   -7564.2885    80.741445 
   28200    986.59668   -106.25832   0.89269341   -105.36563    -401.6981    4.3168802    4.3168802    4.3168802    -401.6981   -7343.0753    10288.396    -4150.415      760.144   -5164.8819    6894.8804    80.447025 
   28300     1050.353   -106.31649   0.95038149   -105.36611   -10120.225    4.3321173    4.3321173    4.3321173   -10120.225   -24206.316   -29305.529     23151.17   -4260.0369    1208.1347    1248.2051    81.301886 
   28400    687.53701   -105.98962   0.62209794   -105.36753    4439.5558    4.3209887    4.3209887    4.3209887    4439.5558   -15503.654   -5529.7655    34352.087   -5760.4621   -15862.538    10426.502    80.676933 
   28500    1195.7236   -106.44009    1.0819158   -105.35818    8423.3777    4.3161205    4.3161205    4.3161205    8423.3777   -9872.3368    10623.229    24519.241    2847.4599     934.7559    1528.0494     80.40456 
   28600    703.36006   -105.99641   0.63641496   -105.35999   -7913.2564    4.3298427    4.3298427    4.3298427   -7913.2564    -27269.02   -20006.845    23536.096   -8351.1533   -11094.898    1460.4343     81.17389 
   28700    989.65746   -106.25217   0.89546287   -105.35671   -1733.1694      4.31464      4.31464      4.31464   -1733.1694    1219.7659    7345.6221   -13764.896    6177.1794   -9501.7011   -1240.3497     80.32185 
   28800    974.63537   -106.24558   0.88187056   -105.36371    3251.8652    4.3222041    4.3222041    4.3222041    3251.8652   -21205.293   -379.38886    31340.278    795.50363    -1082.315    1267.9726    80.745032 
   28900    867.41925   -106.15187   0.78485916   -105.36701   -1909.1206    4.3221105    4.3221105    4.3221105   -1909.1206   -36067.824   -18377.372    48717.834   -4094.7963   -15812.904   -4274.8835    80.739786 
   29000    995.26295    -106.2652   0.90053484   -105.36466     18362.64    4.3214325    4.3214325    4.3214325     18362.64   -1031.9989    2682.8746    53437.043    7960.5103   -8486.3695    1946.7994    80.701799 
   29100    849.37271   -106.12764   0.76853028   -105.35911   -769.53077    4.3266682    4.3266682    4.3266682   -769.53077   -31682.747    345.37622    29028.778   -7730.4992    5612.1172    5305.5032    80.995481 
   29200    878.27729   -106.15134   0.79468375   -105.35665   -16981.719    4.3279997    4.3279997    4.3279997   -16981.719   -33977.908    -12860.53   -4106.7184    2383.7471   -22635.239   -4072.0828    81.070278 
   29300    958.57864   -106.22167    0.8673421   -105.35433    27531.548    4.3156954    4.3156954    4.3156954    27531.548   -5212.4982    9274.6392    78532.503    2378.6666    16928.208    7992.5007    80.380805 
   29400     788.0008   -106.08115   0.71299968   -105.36815   -3465.1625    4.3257886    4.3257886    4.3257886   -3465.1625   -34558.165    260.81975    23901.858   -8067.1368   -14732.219    -4996.899    80.946093 
   29500    1124.8278   -106.38011    1.0177678   -105.36234   -20880.631    4.3264342    4.3264342    4.3264342   -20880.631   -32417.585   -11763.286   -18461.023    6706.3522   -13593.111    2299.9172    80.982339 
   29600    774.71248   -106.06931   0.70097614   -105.36834    13335.655    4.3149104    4.3149104    4.3149104    13335.655   -7865.2993    1814.7235    46057.541   -9749.3137    5562.3167   -11378.537    80.336953 
   29700    875.14397   -106.16333   0.79184866   -105.37148    636.20809    4.3261502    4.3261502    4.3261502    636.20809   -34650.934     3985.921    32573.637    162.82571   -21227.411    8335.6239    80.966392 
   29800    1076.3009   -106.33737   0.97385963   -105.36351   -3063.8387    4.3259336    4.3259336    4.3259336   -3063.8387   -23157.786   -28502.864    42469.134   -5970.0889    9371.2403     -5900.06    80.954232 
   29900    795.01277     -106.081   0.71934427   -105.36165    4470.4941    4.3111301    4.3111301    4.3111301    4470.4941    -21500.61    12269.333    22642.759   -4373.9604   -11634.633    4733.6588    80.125983 
   30000    1058.9017   -106.32953   0.95811647   -105.37141   -17627.161    4.3275358    4.3275358    4.3275358   -17627.161   -31166.434    427.45386   -22142.503    -548.0646   -6901.7061   -1402.2741    81.044215 
   30100    905.05319   -106.18952   0.81891114    -105.3706    1132.7142    4.3248628    4.3248628    4.3248628    1132.7142   -18291.056   -22223.879    43913.079   -10470.849    7610.6539   -14459.734    80.894129 
   30200    864.09576   -106.14656   0.78185201   -105.36471    10667.384    4.3082618    4.3082618    4.3082618    10667.384    -25168.38    25370.958    31799.573    3932.0785   -25942.116    5750.7376    79.966163 
   30300    993.31774    -106.2594   0.89877477   -105.36063   -5749.1224    4.3232514    4.3232514    4.3232514   -5749.1224   -24939.195    1366.8435    6324.9846   -4867.4653    9295.8084    -6223.475     80.80374 
   30400    878.35171   -106.15358   0.79475108   -105.35883   -18227.399    4.3218871    4.3218871    4.3218871   -18227.399   -22692.151   -12197.642   -19792.403   -2094.4992   -18101.668    1169.7564    80.727266 
   30500    749.24101    -106.0358   0.67792901   -105.35788    12994.111    4.3162547    4.3162547    4.3162547    12994.111   -16102.983    1713.9133    53371.404   -437.23675   -10664.599    -3364.219    80.412059 
   30600    1138.1318   -106.38796    1.0298056   -105.35816    -10663.94    4.3181776    4.3181776    4.3181776    -10663.94   -22870.962   -9155.5478    34.689386   -847.17972    7662.0887    992.13432    80.519581 
   30700    674.64766   -105.97135   0.61043538   -105.36091   -717.67463    4.3125891    4.3125891    4.3125891   -717.67463   -11452.623    2514.2239    6785.3756   -4502.6235   -29938.001    3378.3312    80.207363 
   30800    1019.9685   -106.27746   0.92288891   -105.35457    -5901.423    4.3210588    4.3210588    4.3210588    -5901.423     -8646.45   -8928.3912   -129.42791   -1467.1423    15374.587    4139.3232    80.680864 
   30900    724.78015   -106.01093   0.65579631   -105.35514   -783.26415    4.3189428    4.3189428    4.3189428   -783.26415   -17085.506    -834.3175    15570.031    -869.7185   -13877.258    7485.4416    80.562391 
   31000    1144.6824   -106.38225    1.0357327   -105.34652    5844.1379    4.3097933    4.3097933    4.3097933    5844.1379   -16174.258    5651.6271    28055.044   -181.68644   -13611.448    4062.2367    80.051474 
   31100    859.61201   -106.12817   0.77779501   -105.35037    3031.0435     4.321596     4.321596     4.321596    3031.0435   -10086.193    11196.995    7982.3291   -7193.8837    13931.199   -3661.2381    80.710954 
   31200     710.0936   -105.99401   0.64250761    -105.3515   -6046.8541    4.3179966    4.3179966    4.3179966   -6046.8541   -14102.389   -10602.715    6564.5417   -192.33744   -29214.079    1793.3582    80.509453 
   31300    1134.7995   -106.37359    1.0267905    -105.3468    4353.2849    4.3159812    4.3159812    4.3159812    4353.2849   -4624.5715   -14509.203    32193.629   -802.73896    6454.5637   -2815.6208    80.396778 
   31400    886.04359   -106.15535   0.80171086   -105.35364   -6830.3942    4.3173984    4.3173984    4.3173984   -6830.3942   -25563.027   -3455.9997    8527.8444   -9172.8471   -5732.1145   -11223.013    80.475998 
   31500    892.31191   -106.15882   0.80738257   -105.35144    13680.551    4.3174679    4.3174679    4.3174679    13680.551    141.58215    6276.7667    34623.305    2584.5161   -20546.595    618.24831    80.479887 
   31600     919.3389   -106.18121   0.83183716   -105.34938    2238.3822    4.3220433    4.3220433    4.3220433    2238.3822   -685.12758   -10332.412    17732.686   -818.59538    9404.8814    1100.6303    80.736023 
   31700    658.72842   -105.95121   0.59603132   -105.35517    3715.8459     4.316708     4.316708     4.316708    3715.8459   -22179.359    5041.0137    28285.883   -3367.7815   -21636.013   -13422.167    80.437398 
   31800    1321.2239   -106.54402    1.1954711   -105.34855     8569.253     4.312756     4.312756     4.312756     8569.253    18439.207    1747.8497    5520.7024    549.03808    8786.8182    3636.4104    80.216675 
   31900    635.56847   -105.93241   0.57507571   -105.35733   -7446.5402    4.3233804    4.3233804    4.3233804   -7446.5402   -22517.315   -3342.5375    3520.2322    2957.9339   -5585.0159   -7084.0401    80.810978 
   32000     886.0701   -106.15353   0.80173484   -105.35179   -1303.8569    4.3131351    4.3131351    4.3131351   -1303.8569   -4026.8574   -17241.167    17356.454    936.69003   -14476.422   -5725.7383     80.23783 
   32100    940.62855   -106.20227   0.85110048   -105.35117     17191.38    4.3108771    4.3108771    4.3108771     17191.38     5945.844   -11069.389    56697.684    2267.8023    12010.562    3415.6989    80.111881 
   32200    950.58005   -106.21153   0.86010481   -105.35142    -18050.23    4.3300574    4.3300574    4.3300574    -18050.23   -35087.405   -10892.557   -8170.7268    2766.8306   -22502.115   -11934.258    81.185968 
   32300    975.83381   -106.22811   0.88295493   -105.34516    14388.001    4.3091481    4.3091481    4.3091481    14388.001    11833.178    3785.1422    27545.683    8232.1225   -96.230322    2770.8125    80.015528 
   32400    682.89241   -105.97242    0.6178954   -105.35452    6119.0163    4.3113301    4.3113301    4.3113301    6119.0163    3750.5514    1325.9588    13280.539    -2366.693   -586.14582    795.61631    80.137136 
   32500    984.33478   -106.23718    0.8906468   -105.34654   -9233.8585    4.3281989    4.3281989    4.3281989   -9233.8585   -20828.745   -8370.2453    1497.4143    3034.2861   -21753.176   -68.922409    81.081473 
   32600     979.7554   -106.22866   0.88650327   -105.34216     16990.84    4.3096445    4.3096445    4.3096445     16990.84    16829.873    4661.0903    29481.557    7047.1509    16677.957    8855.9282    80.043179 
   32700    908.53966   -106.17276   0.82206578   -105.35069   -3054.4766    4.3151332    4.3151332    4.3151332   -3054.4766   -11119.681    10036.891   -8080.6401   -11974.712   -13869.625    2086.4512    80.349398 
   32800    863.48339   -106.12816   0.78129792   -105.34686   -2847.4793    4.3193505    4.3193505    4.3193505   -2847.4793    -851.0514   -27293.042    19601.656    9186.4996   -4753.1504    8008.1754    80.585208 
   32900    725.38659   -106.00867   0.65634503   -105.35232    3458.6213    4.3188563    4.3188563    4.3188563    3458.6213     3428.931   -28075.062    35021.995   -3745.5725    9680.5032   -3671.4874    80.557555 
   33000    1188.9624   -106.42564    1.0757982   -105.34984    3763.0755    4.3152021    4.3152021    4.3152021    3763.0755   -4236.2333    5803.6829    9721.7769   -1414.3866    1116.0608   -451.15026    80.353247 
   33100    754.02417   -106.03526   0.68225691     -105.353    5152.9105    4.3165805    4.3165805    4.3165805    5152.9105    18976.445   -16561.723    13044.009    11128.322   -456.51744   -1754.1841     80.43027 
   33200    821.35827   -106.09412   0.74318223   -105.35093   -8256.6514    4.3192679    4.3192679    4.3192679   -8256.6514   -13222.961   -416.62276    -11130.37   -9007.5639    11354.856   -52.459407    80.580588 
   33300    882.73687   -106.14994   0.79871887   -105.35122    16662.892    4.3068649    4.3068649    4.3068649    16662.892    9775.6688    12124.786     28088.22    18981.183   -8752.5851   -8446.1331    79.888402 
   33400    997.75304   -106.26082   0.90278791   -105.35803    1901.4675    4.3217888    4.3217888    4.3217888    1901.4675   -6710.9852   -1063.7661    13479.154   -222.70873    4386.8715    7703.6991    80.721757 
   33500     1059.675   -106.30906   0.95881617   -105.35025   -2853.3946    4.3189952    4.3189952    4.3189952   -2853.3946   -14839.529    1525.4006    4753.9441    7035.2378    6174.6153    568.25857    80.565325 
   33600    447.78203   -105.75494   0.40516259   -105.34978    9789.1801    4.3098113    4.3098113    4.3098113    9789.1801    20456.534   -27491.728    36402.734    18407.996   -2792.2882   -1439.5318    80.052476 
   33700    1102.8346   -106.34475   0.99786791   -105.34689   -15139.497    4.3194732    4.3194732    4.3194732   -15139.497    -10306.45   -22481.432   -12630.609   -6669.4602    6653.7258    14344.673    80.592075 
   33800    921.64397   -106.18423   0.83392283   -105.35031    16459.685    4.3145539    4.3145539    4.3145539    16459.685   -7312.7684    18157.455    38534.368     25207.85   -622.04332   -2464.7332    80.317043 
   33900    1209.7194   -106.44306    1.0945795   -105.34848   -2493.6578    4.3201396    4.3201396    4.3201396   -2493.6578    16647.558   -23013.844    -1114.688   -6433.4013   -5115.9696    8487.6291    80.629386 
   34000     591.4223   -105.88661   0.53513133   -105.35148    10313.768     4.314459     4.314459     4.314459    10313.768   -24694.363    10463.209    45172.458    8082.3348    12229.841    -2846.213     80.31174 
   34100    745.19331   -106.02884   0.67426657   -105.35457   -159.07232    4.3172532    4.3172532    4.3172532   -159.07232    103.21471   -15834.371     15253.94    12249.865   -3429.2806   -93.862206    80.467883 
   34200    1314.5572   -106.53913     1.189439   -105.34969   -7175.2517    4.3212508    4.3212508    4.3212508   -7175.2517   -9030.2688   -3978.0058   -8517.4804   -6049.7714    9453.5931   -3632.9139     80.69162 
   34300    800.30211   -106.07837   0.72413017   -105.35424    5302.2849    4.3099578    4.3099578    4.3099578    5302.2849   -11048.824   -7186.3094    34141.989    26799.881    11032.057   -12.220502    80.060637 
   34400    905.73439   -106.16982   0.81952751    -105.3503   -3531.1163    4.3202548    4.3202548    4.3202548   -3531.1163    8072.1558   -36499.992    17834.488    -3391.858   -5142.0451    726.36086    80.635833 
   34500    676.69966   -105.96593   0.61229208   -105.35364   -6699.1031    4.3186206    4.3186206    4.3186206   -6699.1031   -17088.626   -33253.412    30244.729    20312.391    3474.1252    7631.2501    80.544363 
   34600    928.09757   -106.19451   0.83976218   -105.35475    11019.918    4.3083472    4.3083472    4.3083472    11019.918    4804.4418    3430.3703    24824.941    8869.9546     5622.347   -1774.4568    79.970916 
   34700     1248.396   -106.48359    1.1295749   -105.35401   -16086.031    4.3209796    4.3209796    4.3209796   -16086.031   -7282.2586   -30315.489   -10660.346    2149.0746   -15569.048    5469.4767    80.676424 
   34800    515.67558   -105.82373    0.4665941   -105.35713    -8421.953    4.3186254    4.3186254    4.3186254    -8421.953   -26179.146   -33616.761    34530.047    24240.105    6195.4274   -498.79951     80.54463 
   34900    1080.4054   -106.32446   0.97757354   -105.34688    7089.7077    4.3122892    4.3122892    4.3122892    7089.7077   -1727.0822    13006.793    9989.4125   -9056.1808   -6921.2982    3986.3372    80.190633 
   35000    884.81644   -106.15698   0.80060051   -105.35638   -2516.6345    4.3156954    4.3156954    4.3156954   -2516.6345   -13030.661   -28333.793    33814.551    20227.328   -5717.6153     3823.353    80.380803 
   35100     918.8756   -106.19089   0.83141795   -105.35947    5415.5287    4.3171272    4.3171272    4.3171272    5415.5287   -201.13362    3721.9266    12725.793    4725.5866    14828.875   -265.11996    80.460838 
   35200     965.6433   -106.22893   0.87373435    -105.3552   -10491.281    4.3194358    4.3194358    4.3194358   -10491.281   -10820.577   -32342.075    11688.808     7518.083   -1083.8415   -1379.2369    80.589983 
   35300    665.01122   -105.95827   0.60171613   -105.35655    1021.7899    4.3129851    4.3129851    4.3129851    1021.7899   -113.23672   -9309.3759    12487.982    17150.837    10542.827    1713.6275    80.229459 
   35400    1056.1615   -106.30707   0.95563711   -105.35144    2696.5242    4.3220056    4.3220056    4.3220056    2696.5242   -7095.7556   -6633.6527    21818.981   -1254.3916    9553.4464   -9569.7537    80.733907 
   35500    893.98346    -106.1629   0.80889502   -105.35401   -12571.604    4.3162992    4.3162992    4.3162992   -12571.604   -12450.252   -32994.263    7729.7013    24132.102   -13049.228    7129.1908    80.414547 
   35600    808.06031   -106.08354   0.73114995   -105.35239    14195.318     4.310783     4.310783     4.310783    14195.318   -3816.9646   -12846.896    59249.814   -1848.1154    9185.7901    4021.6886    80.106637 
   35700     991.0074   -106.25109   0.89668432    -105.3544   -11441.827    4.3221893    4.3221893    4.3221893   -11441.827   -29480.926   -278.66122   -4565.8932    10986.715   -6940.0483      -6071.5      80.7442 
   35800    872.89748   -106.14325   0.78981598   -105.35343    12676.819    4.3127576    4.3127576    4.3127576    12676.819    21143.267   -20136.855    37024.045    13183.865   -1805.3385    11090.713    80.216767 
   35900    1026.5669   -106.27979   0.92885927   -105.35093   -3297.0926    4.3204984    4.3204984    4.3204984   -3297.0926   -16794.926    7760.9813   -857.33313   -5404.0846    8743.2969   -152.02662    80.649472 
   36000    571.67566   -105.87174   0.51726415   -105.35447    10938.097    4.3130316    4.3130316    4.3130316    10938.097   -2516.8016   -14875.643    50206.737    15997.556   -4634.6673    1088.8234    80.232057 
   36100    1120.5827   -106.36711    1.0139268   -105.35318    597.55182    4.3171024    4.3171024    4.3171024    597.55182   -4296.2489    4126.0509    1962.8534   -153.19306     3582.184    13791.317    80.459446 
   36200    992.06623   -106.25056   0.89764238   -105.35291    -3443.845    4.3211502    4.3211502    4.3211502    -3443.845   -19200.501   -5740.0935    14609.059     628.6053    12970.678   -4871.9765     80.68598 
   36300    762.80866   -106.03993   0.69020531   -105.34973    8000.0374    4.3091505    4.3091505    4.3091505    8000.0374     9757.107   -9251.2522    23494.257    9268.3167   -12150.443    729.76779    80.015662 
   36400    784.78034   -106.06317   0.71008575   -105.35308   -11780.745    4.3236512    4.3236512    4.3236512   -11780.745   -43443.509   -21123.158    29224.434   -6490.8792    6125.8982   -729.00381    80.826163 
   36500    1023.9917   -106.28198   0.92652924   -105.35545    3537.2171    4.3138697    4.3138697    4.3138697    3537.2171   -7127.2518    10751.391    6987.5125     10796.03    992.67833   -8575.7012    80.278838 
   36600    1101.1491    -106.3517    0.9963428   -105.35536    5894.5972    4.3178845    4.3178845    4.3178845    5894.5972   -5049.3574    2350.9128    20382.236    4237.2486   -10871.296   -2829.5242    80.503183 
   36700    745.61923   -106.02951   0.67465195   -105.35486    7533.5018    4.3177674    4.3177674    4.3177674    7533.5018   -25861.748    20818.825    27643.428    4374.0077    8568.5954    1563.8174    80.496633 
   36800     616.1978   -105.91125   0.55754872    -105.3537    13270.868    4.3092513    4.3092513    4.3092513    13270.868   -15317.208    10990.659    44139.154    13527.499   -6847.0102   -11444.501    80.021273 
   36900    1163.8323   -106.40686    1.0530599    -105.3538   -7056.7361    4.3242115    4.3242115    4.3242115   -7056.7361   -16142.716    4813.2425   -9840.7348    -2689.148   -11694.979    11281.107    80.857586 
   37000    1132.0235   -106.37442    1.0242786   -105.35014    3323.9355    4.3160177    4.3160177    4.3160177    3323.9355   -23266.413    7160.7337    26077.486    16416.751    2813.1716    6419.9275    80.398817 
   37100    740.69343   -106.02203   0.67019498   -105.35184   -10560.282    4.3175878    4.3175878    4.3175878   -10560.282   -25348.666   -8264.7693    1932.5898   -826.54653   -21922.025   -1861.1937    80.486594 
   37200    775.25691   -106.05066   0.70146875   -105.34919    3371.6135    4.3197123    4.3197123    4.3197123    3371.6135   -21299.166   -16449.057    47863.064    6550.8902    1432.0017    8955.7254    80.605461 
   37300    1126.5095   -106.36938    1.0192895   -105.35009    1354.8869    4.3145272    4.3145272    4.3145272    1354.8869   -17931.684    13512.602    8483.7423    10673.088   -10560.936   -12998.945    80.315551 
   37400    952.85335   -106.21567   0.86216174   -105.35351    -9592.569     4.319299     4.319299     4.319299    -9592.569   -21265.724    3562.9018   -11074.885   -1741.7976   -19026.728   -4910.8315    80.582325 
   37500    686.54828   -105.96983   0.62120331   -105.34863    18372.097    4.3108003    4.3108003    4.3108003    18372.097   -17908.519    18205.121    54819.689    7454.6596    5752.2892    8354.0516      80.1076 
   37600    810.35329   -106.08944   0.73322469   -105.35622   -23394.756    4.3262467    4.3262467    4.3262467   -23394.756   -48945.351   -11683.713   -9555.2024   -104.17349   -19167.249   -10416.927    80.971808 
   37700     1030.183   -106.28464   0.93213127   -105.35251    7165.1077    4.3162724    4.3162724    4.3162724    7165.1077   -8388.6759    11128.221    18755.778    1599.9772    1843.0341    10223.821    80.413048 
   37800    1017.4787   -106.27253   0.92063609   -105.35189   -1551.6082    4.3083891    4.3083891    4.3083891   -1551.6082   -14793.173   -3926.7571    14065.106         4095   -25.618913    1775.7003    79.973253 
   37900    559.62838   -105.86374   0.50636352   -105.35738     -22427.9    4.3233734    4.3233734    4.3233734     -22427.9   -53524.251   -17261.286    3501.8362   -5676.3922   -19661.842   -5629.1443    80.810583 
   38000    1059.1242     -106.308    0.9583178   -105.34968    892.64134    4.3165655    4.3165655    4.3165655    892.64134    6808.6253   -19208.724    15078.023    4998.6066    10942.543    7665.4184    80.429432 
   38100    1032.0667   -106.28546   0.93383563   -105.35162   -10071.185    4.3194974    4.3194974    4.3194974   -10071.185   -25560.727   -1820.6053   -2832.2228   -2529.4841    -25844.56    599.00998    80.593434 
   38200    871.94084   -106.14021   0.78895039   -105.35126   -6937.1093    4.3136146    4.3136146    4.3136146   -6937.1093   -26010.003   -8315.7358    13514.411   -4269.1338    473.18268   -8434.5091    80.264593 
   38300    672.52714   -105.96545   0.60851669   -105.35693    12203.127    4.3141455    4.3141455    4.3141455    12203.127   -9962.7689    3842.9152    42729.234    5623.7406   -1598.3332     7567.663    80.294236 
   38400    1188.2935   -106.43088     1.075193   -105.35569   -8966.3948    4.3209596    4.3209596    4.3209596   -8966.3948   -19540.004   -11348.658    3989.4772   -8507.7434   -16255.502    -10926.57    80.675305 
   38500    818.89258   -106.09397   0.74095122   -105.35302      20445.5    4.3150813    4.3150813    4.3150813      20445.5    890.35351    9439.1712    51006.975     1662.392    15508.026    6084.7162    80.346499 
   38600     864.9768   -106.13337   0.78264918   -105.35072   -3868.5693    4.3166731    4.3166731    4.3166731   -3868.5693   -17250.259    360.40391    5284.1474   -3846.8419   -12104.147    16621.764    80.435448 
   38700    795.59495   -106.07184   0.71987103   -105.35197    10866.242    4.3170981    4.3170981    4.3170981    10866.242   -23776.212   -9069.9217     65444.86   -1227.6761   -568.42742   -4627.8262    80.459205 
   38800    1127.7727   -106.37452    1.0204325   -105.35409      505.065    4.3166829    4.3166829    4.3166829      505.065    27026.785   -18469.561   -7042.0288   -429.34195    2807.5581    20083.024    80.435997 
   38900    920.17032   -106.18554   0.83258944   -105.35295    11118.995    4.3161581    4.3161581    4.3161581    11118.995   -29490.326    1824.1117    61023.201   -9808.5108   -10737.497    1092.4787    80.406663 
   39000    845.18699   -106.11941   0.76474295   -105.35467   -18641.835    4.3182273    4.3182273    4.3182273   -18641.835   -22774.751   -23549.362   -9601.3905    4146.6892    6378.7139   -77.506736    80.522362 
   39100    608.70665   -105.91078   0.55077057   -105.36001    17487.595    4.3115894    4.3115894    4.3115894    17487.595    19130.114   -3731.4409    37064.113   -5072.4548   -4654.6348    20409.714    80.151598 
   39200    1510.4004    -106.7179     1.366642   -105.35126   -6838.4705    4.3216624    4.3216624    4.3216624   -6838.4705   -14926.856   -13882.035    8293.4796   -190.78934    9479.5486   -12082.896    80.714677 
   39300    514.98531   -105.82343   0.46596953   -105.35746   -12518.164    4.3207366    4.3207366    4.3207366   -12518.164   -7693.5373   -20037.592   -9823.3618    1503.4449    3424.8321    13052.131    80.662816 
   39400    825.39023   -106.09744   0.74683042   -105.35061    16739.139    4.3024465    4.3024465    4.3024465    16739.139    7980.4374    5438.5345    36798.444   -2239.9321    2860.8072    7891.9058    79.642784 
   39500     1100.923   -106.34881   0.99613827   -105.35267   -13985.997    4.3268801    4.3268801    4.3268801   -13985.997   -22194.677   -29732.475    9969.1599     4522.427    184.73178   -2598.4797    81.007378 
   39600    859.21025    -106.1333   0.77743149   -105.35587   -2095.9999     4.313598     4.313598     4.313598   -2095.9999    12395.957   -16528.617   -2155.3396   -6776.3193   -4651.5463    22636.749    80.263668 
   39700    916.44895   -106.17853   0.82922226    -105.3493    11455.583    4.3158501    4.3158501    4.3158501    11455.583   -18034.494   -8723.4159    61124.659    5198.6701    5108.9555   -4511.8859    80.389451 
   39800    799.03163   -106.07854   0.72298061   -105.35556   -17099.295    4.3169686    4.3169686    4.3169686   -17099.295   -26019.206   -32176.231    6897.5511    1965.4357   -2806.3305    14417.648    80.451969 
   39900    834.06195   -106.11421   0.75467678   -105.35953    25826.858    4.3109376    4.3109376    4.3109376    25826.858    26446.388    1603.2245    49430.962    412.51909    4209.0982    14190.087    80.115251 
   40000    1271.6461   -106.50194    1.1506121   -105.35133   -8301.3191    4.3255417    4.3255417    4.3255417   -8301.3191   -11306.892   -11359.031   -2238.0345    5583.6734   -3360.8087   -2155.3759    80.932232 
   40100    565.77592   -105.86171   0.51192595   -105.34978    21687.352    4.3040496    4.3040496    4.3040496    21687.352    6290.2149    16362.237    42409.604    649.48849    8237.7212    25719.744     79.73184 
   40200    844.31326   -106.11307   0.76395238   -105.34911   -2724.5214    4.3240386    4.3240386    4.3240386   -2724.5214    -16931.31    4366.0912    4391.6549    2686.1988   -4537.8858   -6488.3977    80.847887 
   40300    1125.1761   -106.36809    1.0180829      -105.35   -11666.692    4.3162542    4.3162542    4.3162542   -11666.692   -8666.0507   -19367.535   -6966.4889   -946.67164    3598.2525    11047.889    80.412034 
   40400    973.26898   -106.23203   0.88063422    -105.3514    22292.073    4.3030617    4.3030617    4.3030617    22292.073    27052.154    14871.629    24952.437   -1435.0701    1533.1028    13129.959    79.676952 
   40500    850.43819   -106.11741   0.76949435   -105.34791   -25954.959    4.3294165    4.3294165    4.3294165   -25954.959   -47606.357   -14598.891    -15659.63    2882.5096   -17016.466   -7721.7387    81.149923 
   40600    673.62873   -105.95889   0.60951343   -105.34938    4566.6707    4.3065356    4.3065356    4.3065356    4566.6707   -10398.581   -921.06906    25019.662   -1079.0895    10088.825    20316.558     79.87008 
   40700    1151.8618   -106.39101    1.0422287   -105.34878    14801.398    4.3144559    4.3144559    4.3144559    14801.398    15324.307    30689.585   -1609.6976    1647.4114   -11101.778   -2288.1787    80.311569 
   40800    1083.1339   -106.33157   0.98004235   -105.35153   -11803.576     4.317314     4.317314     4.317314   -11803.576   -19210.446   -6812.3775   -9387.9036    3391.7433   -13511.678    1823.3668    80.471281 
   40900    458.39248   -105.76896   0.41476315    -105.3542    20015.753    4.3137144    4.3137144    4.3137144    20015.753    4187.8827    34403.872    21455.505   -3546.6644    8878.0949    21557.077    80.270165 
   41000    1204.6336   -106.43848    1.0899778    -105.3485   -17474.645    4.3220978    4.3220978    4.3220978   -17474.645   -35794.847    -1201.026   -15428.064      2769.04   -15009.407   -10987.085    80.739072 
   41100    850.77652   -106.12225   0.76980047   -105.35245    23337.952    4.3035016    4.3035016    4.3035016    23337.952    21536.756    22146.811    26330.288    3027.0078   -4446.0978    24561.265    79.701394 
   41200    1022.2384   -106.27452   0.92494276   -105.34957   -4423.1759    4.3211988    4.3211988    4.3211988   -4423.1759   -5584.7055   -3300.5489   -4384.2734   -3875.8127    4923.1058    4425.4194    80.688705 
   41300    734.40934   -106.01353     0.664509   -105.34902   -3140.4648    4.3133023    4.3133023    4.3133023   -3140.4648   -34344.954    14183.333    10740.227    295.50584   -14841.021    3204.8254    80.247163 
   41400    706.60648   -105.99375    0.6393524   -105.35439    16102.075    4.3107883    4.3107883    4.3107883    16102.075    16957.389    7902.3515    23446.483    122.09766    6633.5751    24479.205    80.106928 
   41500    1380.5775    -106.5963    1.2491755   -105.34712    -5004.242    4.3222256    4.3222256    4.3222256    -5004.242   -10807.979    7328.6251   -11533.372   -6695.6698   -525.89885   -10802.975    80.746237 
   41600    690.56364   -105.97521   0.62483649   -105.35037    19012.078    4.3066601    4.3066601    4.3066601    19012.078    11353.315    22362.725    23320.195    2033.8659   -6558.9898    27361.799    79.877006 
   41700    801.48195    -106.0751   0.72519771    -105.3499   -3659.1007    4.3201483    4.3201483    4.3201483   -3659.1007   -12192.948   -660.95812    1876.6037   -2823.7586    2795.1559   -702.58387    80.629873 
   41800    971.30177   -106.22844   0.87885426   -105.34958    7854.5488    4.3143685    4.3143685    4.3143685    7854.5488    -19115.84    32130.765    10548.722    2599.9045   -6172.4409    6186.7116    80.306687 
   41900    1010.5812   -106.26879   0.91439512   -105.35439    11113.012    4.3096962    4.3096962    4.3096962    11113.012    34443.615     -8324.79    7220.2114    3250.4027   -261.37518    17168.151    80.046061 
   42000    906.18718   -106.16726    0.8199372   -105.34733   -3785.0666    4.3229563    4.3229563    4.3229563   -3785.0666   -21000.346    3121.1315    6524.0144    4650.9511   -6557.0368   -9218.6166    80.787199 
   42100    660.23061   -105.94671   0.59739053   -105.34932    872.29689    4.3079577    4.3079577    4.3079577    872.29689   -21144.248     7726.485    16034.654   -855.99073    -8094.204    18748.806    79.949233 
   42200    1076.0511   -106.32249   0.97363365   -105.34885    6374.3273    4.3157227    4.3157227    4.3157227    6374.3273    6849.1968    4010.4053    8263.3797    10408.588    2652.2296    1476.4747    80.382329 
   42300    953.36495   -106.21228   0.86262464   -105.34966    10858.249    4.3172752    4.3172752    4.3172752    10858.249   -8163.3053    28868.066    11869.985   -2465.2166   -7787.8776    1565.8277    80.469108 
   42400    878.45835   -106.14628   0.79484758   -105.35143   -6609.6443    4.3130264    4.3130264    4.3130264   -6609.6443    563.32056   -14411.408    -5980.845    3641.7979   -2740.8024    25412.429    80.231765 
   42500    663.75489    -105.9526   0.60057937   -105.35202     10045.78    4.3163773    4.3163773    4.3163773     10045.78   -28738.601     26579.74      32296.2    4907.4852    3350.6853   -7785.8321    80.418916 
   42600     1005.594    -106.2648   0.90988254   -105.35492   -14259.269    4.3146344    4.3146344    4.3146344   -14259.269   -11314.088   -18973.005   -12490.715   -7297.9818   -8272.6304    22541.641    80.321538 
   42700    1145.8221   -106.38848    1.0367639   -105.35172    4772.8713    4.3128245    4.3128245    4.3128245    4772.8713    4924.1871    4292.5543    5101.8726    1612.7163     5530.011    12056.853    80.220497 
   42800    754.19371   -106.03571   0.68241032    -105.3533   -4558.8878    4.3163582    4.3163582    4.3163582   -4558.8878   -30300.796    4284.2235    12339.909    2607.4935   -2819.9969   -4191.2739    80.417845 
   42900    617.84892   -105.91382   0.55904269   -105.35477   -13343.155    4.3148896    4.3148896    4.3148896   -13343.155   -17534.839    5259.9175   -27754.544   -2777.4321   -6350.2682    27845.684    80.335789 
   43000    1136.3966    -106.3799    1.0282355   -105.35167    12650.396    4.3105114    4.3105114    4.3105114    12650.396   -5438.3441     17472.24    25917.292    4792.8544    2734.7501   -6875.1349    80.091494 
   43100    1001.7197   -106.26073   0.90637702   -105.35435   -18885.884    4.3207728    4.3207728    4.3207728   -18885.884   -1456.9217   -17382.264   -37818.465    -5591.405   -13883.701    17554.238    80.664843 
   43200    612.43047   -105.90517   0.55413996   -105.35103   -3277.3988    4.3103063    4.3103063    4.3103063   -3277.3988    1100.7267   -13207.432    2274.5088     3726.065    3181.3565    11900.389    80.080062 
   43300    980.69861   -106.23799   0.88735671   -105.35063   -12888.873    4.3134929    4.3134929    4.3134929   -12888.873   -36440.573    3049.8429   -5275.8895    1511.1849   -1074.0905   -326.98281    80.257804 
   43400    836.10729    -106.1105   0.75652744   -105.35398   -10415.088    4.3218499    4.3218499    4.3218499   -10415.088    9689.6749   -12744.121   -28190.817   -4441.1901   -9855.8392    24511.047     80.72518 
   43500    1232.2419   -106.45951    1.1149584   -105.34455     1502.345    4.3040386    4.3040386    4.3040386     1502.345    3005.0557   -771.79889     2273.778    11456.232    18384.658   -3075.6238    79.731234 
   43600    488.69969   -105.79581   0.44218575   -105.35362   -9448.9839    4.3200584    4.3200584    4.3200584   -9448.9839   -31403.698    4203.0463   -1146.3003   -4678.3548   -5070.6958    19050.532    80.624838 
   43700    885.00546   -106.15111   0.80077154   -105.35034   -8048.9281    4.3140527    4.3140527    4.3140527   -8048.9281    12977.804   -20065.282   -17059.306    6041.5923    -114.9937    10915.803    80.289052 
   43800    1159.2726   -106.40059    1.0489342   -105.35166    7932.8262    4.3109129    4.3109129    4.3109129    7932.8262   -2586.4535    13783.254    12601.678    3958.0233    24594.321   -1099.6344    80.113876 
   43900    858.00816   -106.13015   0.77634381   -105.35381   -18063.099    4.3205736    4.3205736    4.3205736   -18063.099    1574.6001   -38151.503   -17612.392    1577.8278    -14750.57    15289.962    80.653688 
   44000    730.44386   -106.00936   0.66092095   -105.34844    14057.656    4.3022353    4.3022353    4.3022353    14057.656    3108.2349    5481.4237    33583.311    442.71717    15522.481    208.38319    79.631054 
   44100    923.85211   -106.19044    0.8359208   -105.35452   -22181.276    4.3244868    4.3244868    4.3244868   -22181.276   -42436.396   -13239.438   -10867.994    3176.7339    3740.9987    2497.9581    80.873033 
   44200    1120.8219    -106.3666    1.0141432   -105.35245    9012.1169    4.3098136    4.3098136    4.3098136    9012.1169    15598.524    1942.3303    9495.4961   -1608.5636   -10139.514    9840.2726    80.052603 
   44300    793.79328   -106.07191   0.71824084   -105.35367    11304.003    4.3057088    4.3057088    4.3057088    11304.003    -18335.74     20551.01    31696.738    3736.6438    24112.126   -3218.9918    79.824088 
   44400    791.80684   -106.06585   0.71644347   -105.34941   -15361.323    4.3228163    4.3228163    4.3228163   -15361.323    -40896.82   -4933.0596   -254.09114   -3513.7054   -7411.2231    8341.9981    80.779347 
   44500    948.23476   -106.20526   0.85798274   -105.34727    23185.617    4.3067274    4.3067274    4.3067274    23185.617    17007.857    11614.465    40934.529    1166.3416    17910.721    9585.1758    79.880752 
   44600    1162.0934   -106.40279    1.0514865   -105.35131   -9191.6276    4.3178399    4.3178399    4.3178399   -9191.6276   -11232.194   -1174.9059   -15167.783   -3904.1341    14057.603    -545.6356    80.500689 
   44700    866.40862   -106.13182   0.78394473   -105.34788       5479.2    4.3131637    4.3131637    4.3131637       5479.2    1583.8727   -17680.884    32534.612   -12330.419   -7279.8511    12157.485    80.239426 
   44800    586.80773   -105.88492   0.53095597   -105.35396    -8904.643    4.3127217    4.3127217    4.3127217    -8904.643   -24298.889      8849.39   -11264.431    11755.785     23603.78   -4473.4772    80.214765 
   44900    1108.9304   -106.35299    1.0033836    -105.3496    4714.6913      4.31524      4.31524      4.31524    4714.6913   -3342.6836    1094.0196    16392.738   -10537.417   -2340.2507   -2233.3329    80.355361 
   45000    1177.6333   -106.41539    1.0655473   -105.34985   -2016.9542     4.311374     4.311374     4.311374   -2016.9542    2715.5623    4650.1878   -13416.613    499.35739    1349.9755    1928.1903    80.139585 
   45100    420.08565    -105.7378   0.38010232    -105.3577    -10370.95    4.3184769    4.3184769    4.3184769    -10370.95   -34354.285    5381.0164   -2139.5805    5080.2742    18899.559   -9879.5675    80.536326 
   45200    1101.3316   -106.34311   0.99650801    -105.3466    1007.3888    4.3095143    4.3095143    4.3095143    1007.3888   -10183.875    1378.1847    11827.856   -4956.5057   -8110.1666   -8127.6665    80.035927 
   45300    814.25997   -106.09271   0.73675953   -105.35595   -3507.4292    4.3150671    4.3150671    4.3150671   -3507.4292   -2621.4337    10100.237   -18001.091     3683.491    16012.532    4018.3051    80.345705 
   45400     1174.817   -106.41336    1.0629991   -105.35036   -8896.8931    4.3154687    4.3154687    4.3154687   -8896.8931   -7514.6078   -15559.942   -3616.1295    4726.3644    7501.0904   -14604.157    80.368138 
   45500    707.29527   -105.99265   0.63997562   -105.35267    5418.8115     4.311748     4.311748     4.311748    5418.8115    1974.5095   -3111.8262    17393.751   -1991.2205    3856.2509   -2748.2491    80.160442 
   45600    651.19396   -105.94691   0.58921398   -105.35769   -18812.715     4.314498     4.314498     4.314498   -18812.715   -30430.888   -13173.342   -12833.917    10208.566    18855.014   -4807.0504    80.313917 
   45700    1165.0936   -106.40735    1.0542012   -105.35314    13481.185    4.3126293    4.3126293    4.3126293    13481.185    9484.0668    8356.1363    22603.351    4801.6744   -3654.0475   -9384.6626    80.209605 
   45800    993.31475   -106.25247   0.89877206    -105.3537   -7926.6455    4.3183403    4.3183403    4.3183403   -7926.6455   -13053.407    2191.5832   -12918.112     4082.638    16984.368    1081.6953    80.528681 
   45900    656.37155   -105.94474   0.59389877   -105.35084    2105.1566    4.3092204    4.3092204    4.3092204    2105.1566   -31211.631    11388.749    26138.352     2496.499    4505.3245    -12429.41    80.019552 
   46000    869.79773   -106.13839   0.78701126   -105.35138    3664.5159    4.3132518    4.3132518    4.3132518    3664.5159   -1950.8337   -5730.0633    18674.445   -881.79851   -2625.2136    -846.2441    80.244346 
   46100     1123.723   -106.36819    1.0167682   -105.35142   -2018.3873    4.3184893    4.3184893    4.3184893   -2018.3873   -4766.4689   -2955.8747    1667.1817    3658.7075    19724.708   -5034.4541     80.53702 
   46200    1005.6247   -106.26106   0.90991039   -105.35115    5955.3119    4.3121044    4.3121044    4.3121044    5955.3119   -5508.4481    -12773.06    36147.444   -10736.453   -11601.068    -5845.198    80.180323 
   46300     704.7285   -105.99135   0.63765316   -105.35369   -4694.9246    4.3122212    4.3122212    4.3122212   -4694.9246   -6403.7851   -8310.1539    629.16526    3427.1732    16937.575    10295.831    80.186836 
   46400    877.92198    -106.1487   0.79436225   -105.35434    4250.2799    4.3146973    4.3146973    4.3146973    4250.2799   -22027.582   -20852.044    55630.466   -3343.6038    5250.3378    -6026.504    80.325048 
   46500    1000.5189   -106.26417   0.90529055   -105.35888   -8468.7974    4.3172868    4.3172868    4.3172868   -8468.7974   -1264.0248    1104.2908   -25246.658   -2140.0855   -9468.3581    558.30502    80.469757 
   46600    994.14958   -106.25386   0.89952744   -105.35433    25842.779    4.3046758    4.3046758    4.3046758    25842.779   -6181.6629    10105.572    73604.428   -747.85722    14223.149    1714.1961     79.76665 
   46700    727.36824   -106.01739   0.65813807   -105.35925    -14895.75    4.3212619    4.3212619    4.3212619    -14895.75   -34808.384    9081.7863   -18960.651    659.20058   -19311.943   -9726.7435    80.692237 
   46800      717.427   -106.00612   0.64914302   -105.35697    582.71318    4.3134614    4.3134614    4.3134614    582.71318   -6046.0304   -22570.014    30364.184   -1151.6406    2841.3815   -4140.7149    80.256043 
   46900    1301.6183    -106.5264    1.1777316   -105.34867    6005.9346    4.3100575    4.3100575    4.3100575    6005.9346    2137.8411   -2427.5168     18307.48    3625.7427   -1563.9712   -3355.2083    80.066194 
   47000     731.9512   -106.01852   0.66228482   -105.35623   -12727.697    4.3177573    4.3177573    4.3177573   -12727.697   -35231.373   -7590.6823    4638.9636    821.86365   -16988.831   -12916.111     80.49607 
   47100    951.98305   -106.21318   0.86137427   -105.35181   -5075.0804    4.3127206    4.3127206    4.3127206   -5075.0804   -18414.099   -13832.685    17021.543    2877.1648    9232.8752    11081.371      80.2147 
   47200    771.96964    -106.0548   0.69849435   -105.35631   -5822.6619    4.3155663    4.3155663    4.3155663   -5822.6619   -29247.536   -8649.5161    20429.067     4387.781   -22406.166   -5944.8545    80.373591 
   47300    961.71031   -106.22894    0.8701757   -105.35877   -2366.2184    4.3101914    4.3101914    4.3101914   -2366.2184    3359.2939    5547.6669   -16005.616    2739.6937   -3076.5834    3019.3924    80.073656 
   47400    1063.8179   -106.31692    0.9625648   -105.35435   -6256.5521    4.3178221    4.3178221    4.3178221   -6256.5521   -31873.535     298.9581    12804.921    6286.8708   -3654.8191    11075.991    80.499696 
   47500    638.49107   -105.93303   0.57772014    -105.3553   -5737.7304    4.3140086    4.3140086    4.3140086   -5737.7304   -21569.697    18625.055   -14268.549   -456.55781   -25968.448   -8980.6687    80.286592 
   47600     900.8403   -106.16889   0.81509924   -105.35379    -6271.368    4.3129742    4.3129742    4.3129742    -6271.368    4481.1283    -40660.88    17365.648    6648.5404    11391.212    2908.4071     80.22885 
   47700     1004.658   -106.26411   0.90903571   -105.35507   -12593.019    4.3174077    4.3174077    4.3174077   -12593.019   -20218.872   -3270.4897   -14289.695   -4063.1295   -23025.268   -3696.3608    80.476518 
   47800    843.77483    -106.1199    0.7634652   -105.35644   -6126.6617      4.31468      4.31468      4.31468   -6126.6617   -17268.131   -12728.794     11616.94    4095.7336   -3634.3851    -8933.359    80.324084 
   47900    986.49339   -106.24399   0.89259995   -105.35139   -2124.5625    4.3085486    4.3085486    4.3085486   -2124.5625   -13902.649   -7317.4219    14846.383   -5987.8924   -4228.7057    1466.4971    79.982135 
   48000    640.49411   -105.93685   0.57953253   -105.35732    24.247523    4.3206435    4.3206435    4.3206435    24.247523   -20221.182    2537.7041    17756.221   -3426.6649   -26246.283    3802.8797    80.657602 
   48100    1164.3279   -106.40493    1.0535084   -105.35142   -592.30356    4.3141601    4.3141601    4.3141601   -592.30356    4526.0188   -7281.7726    978.84316   -1314.4623    3502.0488   -12910.282     80.29505 
   48200    698.58231   -105.98791   0.63209196   -105.35582     20214.79    4.3095914    4.3095914    4.3095914     20214.79   -26789.456    37590.285     49843.54   -4959.4075   -28119.484    8084.0339    80.040225 
   48300    1036.8117   -106.29088     0.938129   -105.35275   -8722.3825    4.3193674    4.3193674    4.3193674   -8722.3825   -15442.441   -6279.2108   -4445.4959    -9091.736   -8317.5661   -14146.306    80.586158 
   48400    748.08985   -106.02814   0.67688742   -105.35125    10866.039    4.3099268    4.3099268    4.3099268    10866.039    9665.5575   -27791.399    50723.958     2807.308   -6740.9581   -5188.1178    80.058914 
   48500    954.12274    -106.2178    0.8633103   -105.35449   -19977.822    4.3190254    4.3190254    4.3190254   -19977.822    -28342.14   -9318.6237   -22272.702   -8644.5154   -21374.816    795.76067    80.567014 
   48600    977.19093   -106.23463   0.88418289   -105.35044    23817.196    4.3086014    4.3086014    4.3086014    23817.196    1302.1084    21458.352    48691.129   -5755.9974    9540.7315   -9598.9104    79.985073 
   48700    959.50103   -106.22455    0.8681767   -105.35638   -20463.181    4.3200796    4.3200796    4.3200796   -20463.181   -32093.254   -2114.7725   -27181.517   -304.01172   -22588.136    10997.895    80.626025 
   48800    776.94921   -106.05504   0.70299998   -105.35204    8175.3928    4.3157275    4.3157275    4.3157275    8175.3928   -8786.3712    23370.231    9942.3186   -5963.4136    3391.7239   -2147.6171    80.382601 
   48900    955.06536   -106.21209   0.86416321   -105.34792     8613.984    4.3043996    4.3043996    4.3043996     8613.984    5796.1391    5979.8416    14065.971    5191.3989   -5041.0124    4649.3614    79.751294 
   49000    859.89179   -106.13212   0.77804816   -105.35407   -15315.727    4.3237487    4.3237487    4.3237487   -15315.727   -45396.178    23179.929   -23730.931   -2041.3107   -21004.895    1558.7084    80.831627 
   49100     1128.605   -106.37052    1.0211855   -105.34934     6642.874    4.3077664    4.3077664    4.3077664     6642.874   -5802.1702    10605.467    15125.326    5282.6328    14416.232   -8341.0722    79.938582 
   49200    677.32967   -105.97034   0.61286212   -105.35748   -5969.3653    4.3178415    4.3178415    4.3178415   -5969.3653    -10989.32   -207.86342   -6710.9128    2075.3084   -23953.007   -966.33617     80.50078 
   49300     1028.467   -106.28156   0.93057852   -105.35098   -2738.9223    4.3133836    4.3133836    4.3133836   -2738.9223   -21344.922    18013.389   -4885.2335   -697.05743     2925.084    198.13889    80.251699 
   49400    764.69381   -106.04803   0.69191103   -105.35612    10413.661     4.307427     4.307427     4.307427    10413.661   -21846.686    39728.432    13359.238     1118.367    5084.3892   -13258.473    79.919685 
   49500    1141.4939   -106.38471    1.0328477   -105.35186    329.18828    4.3188072    4.3188072    4.3188072    329.18828   -10306.292    30691.027   -19397.169   -382.28143   -16661.642    1619.4885    80.554803 
   49600    977.26001    -106.2367    0.8842454   -105.35245    498.31209    4.3080838    4.3080838    4.3080838    498.31209   -18085.777    8866.3427     10714.37   -3818.9331     17908.07   -2840.6931     79.95625 
   49700    635.62838   -105.93395   0.57512992   -105.35882   -13736.336    4.3203664    4.3203664    4.3203664   -13736.336    -22219.46   -9247.7819   -9741.7666   -1720.7152   -10056.992   -6440.2866    80.642082 
   49800    956.41077   -106.21785   0.86538057   -105.35247    13826.096    4.3124304    4.3124304    4.3124304    13826.096   -15507.156    60245.275   -3259.8305   -11703.049    4400.5747    4749.7649    80.198508 
   49900     1087.288   -106.34262   0.98380105   -105.35882   -17771.508    4.3180383    4.3180383    4.3180383   -17771.508   -37217.307   -10594.233   -5502.9854   -1214.6011    9055.0752   -575.86812    80.511786 
   50000    981.11378    -106.2417   0.88773237   -105.35397    10531.571    4.3150085    4.3150085    4.3150085    10531.571   -6896.9788    50199.114   -11707.421   -75.095856   -6873.9746   -4951.9832    80.342431 
   50100    536.49284   -105.84442   0.48542999   -105.35899   -4423.5253    4.3090694    4.3090694    4.3090694   -4423.5253   -19342.472    895.16222    5176.7336   -1632.0266    21637.897    3158.8008    80.011141 
   50200    1053.0154   -106.31048   0.95279049   -105.35769   -20408.047    4.3192999    4.3192999    4.3192999   -20408.047   -35628.196    -13988.27   -11607.675    8481.1797    -7484.274   -9670.2018    80.582377 
   50300    1027.5052   -106.28919   0.92970832   -105.35948    9347.0249    4.3135103    4.3135103    4.3135103    9347.0249   -2787.3046    46959.379       -16131   -3476.8122    15154.749    -3013.508    80.258771 
   50400    761.28706   -106.04843   0.68882853    -105.3596    14035.018    4.3063229    4.3063229    4.3063229    14035.018   -17624.492    34373.944    25355.603   -211.26724    8682.2258   -5083.1054    79.858246 
   50500    1000.4622   -106.25656   0.90523919   -105.35132   -15770.919    4.3238686    4.3238686    4.3238686   -15770.919   -30340.475    6073.1856   -23045.468    -3814.522   -1221.5386   -523.32579    80.838353 
   50600    598.87158   -105.89997   0.54187159    -105.3581   -6374.7393     4.317062     4.317062     4.317062   -6374.7393    -27123.83     24532.76   -16533.148    3965.8169    20522.367    5242.6691    80.457187 
   50700    1145.1446   -106.39064    1.0361509   -105.35449    25261.341    4.2988707    4.2988707    4.2988707    25261.341   -844.82843    46440.275    30188.576   -5579.7508   -4252.6289   -3016.9775    79.444373 
   50800    1147.6213   -106.39754    1.0383918   -105.35915   -23558.114      4.32921      4.32921      4.32921   -23558.114   -35741.818    3597.6836   -38530.207    6866.1051    12558.157    4760.4622    81.138312 
   50900    499.79971   -105.80985   0.45222928   -105.35762    14206.029    4.3113724    4.3113724    4.3113724    14206.029   -21296.196    63617.962    296.32191   -5457.5152    4160.2786    3484.4024    80.139495 
   51000    959.21216   -106.22345   0.86791532   -105.35553    3006.3254    4.3051218    4.3051218    4.3051218    3006.3254   -2515.1811    5483.1597    6050.9976    10832.018    1765.3922   -1259.0631    79.791445 
   51100    1181.7797   -106.42838    1.0692991   -105.35908   -16916.197    4.3178507    4.3178507    4.3178507   -16916.197   -26322.086    13330.017   -37756.522    1580.8692    11950.066    7067.5487    80.501297 
   51200    769.87989   -106.05727   0.69660351   -105.36067   -962.79239    4.3173379    4.3173379    4.3173379   -962.79239   -15346.715    8914.7087    3543.6289    3210.3646   -6152.4828    682.83561    80.472614 
   51300    783.83987   -106.06419   0.70923479   -105.35495    -4908.916    4.3084006    4.3084006    4.3084006    -4908.916   -15148.523    9174.1288   -8752.3536    167.63899    13520.859    3391.5406    79.973894 
   51400    895.24196   -106.16562   0.81003374   -105.35559    5141.3535    4.3072885    4.3072885    4.3072885    5141.3535   -11380.744    42322.265   -15517.461   -3565.3806    1871.5684    13870.996    79.911981 
   51500    1103.1047   -106.35352   0.99811229   -105.35541    1896.1733     4.320297     4.320297     4.320297    1896.1733   -17798.894    30153.813   -6666.3997   -4954.3402   -1891.4983   -2805.7904    80.638196 
   51600    796.52438   -106.07522   0.72071199    -105.3545   -7015.0431    4.3120948    4.3120948    4.3120948   -7015.0431   -19982.324    19479.704   -20542.509    2186.1582    19116.546    5580.9868    80.179788 
   51700    681.65457   -105.96664   0.61677538   -105.34986    2875.6849    4.3014333    4.3014333    4.3014333    2875.6849   -2527.2562    390.44012    10763.871    -3787.777   -10015.143    8991.7137    79.586531 
   51800    1037.1256   -106.29424   0.93841306   -105.35583   -6884.8793    4.3132516    4.3132516    4.3132516   -6884.8793   -19242.076    19236.148    -20648.71    6484.7042    15226.824   -6096.4667    80.244336 
   51900    1057.9607   -106.31084   0.95726507   -105.35357   -7283.4443    4.3183576    4.3183576    4.3183576   -7283.4443   -21520.026     24572.83   -24903.138    1461.6558     6239.728    7272.6819    80.529651 
   52000     681.0117   -105.96886    0.6161937   -105.35266    5486.4995    4.3052454    4.3052454    4.3052454    5486.4995   -26772.663    34799.124    8433.0377    3015.7672   -1660.2108   -1342.5793    79.798316 
   52100    765.07207   -106.04928   0.69225328   -105.35703   -7404.6151    4.3077727    4.3077727    4.3077727   -7404.6151   -22788.229    11585.617   -11011.234    7457.2225    22804.764   -2955.1444    79.938931 
   52200      1071.94    -106.3253   0.96991385   -105.35539   -5820.9453    4.3205935    4.3205935    4.3205935   -5820.9453   -10101.522    4498.6505   -11859.965   -1202.8873   -4344.0638    14434.756    80.654802 
   52300    997.53027   -106.25744   0.90258635   -105.35486   -18097.911    4.3129151    4.3129151    4.3129151   -18097.911   -40965.331   -2253.8841   -11074.519   -3636.6596    22612.381   -492.06643    80.225554 
   52400    692.07536   -105.97778   0.62620433   -105.35158   -52.046923    4.3075515    4.3075515    4.3075515   -52.046923   -4064.9556    6956.5867   -3047.7718     1754.388    7095.2001    14355.515    79.926619 
   52500    808.65707   -106.08361   0.73168991   -105.35192    1122.7617    4.3087645    4.3087645    4.3087645    1122.7617    -17345.36    15777.939    4935.7062   -12183.038     3037.619     12353.88    79.994156 
   52600    943.72545   -106.20867   0.85390262   -105.35477   -11630.638     4.318372     4.318372     4.318372   -11630.638   -30161.791    19366.215   -24096.338    3933.5435    25301.698   -1647.6863    80.530454 
   52700    1216.8255   -106.44649    1.1010093   -105.34548    7954.4696    4.3094854    4.3094854    4.3094854    7954.4696   -1999.2467    31955.325    -6092.669   -3397.6293   -4678.4406    17238.437    80.034318 
   52800    568.48644   -105.86861   0.51437848   -105.35423   -6524.0073    4.3048972    4.3048972    4.3048972   -6524.0073   -39341.996    6388.8212    13381.153   -1924.0692    17813.445    -7328.022    79.778958 
   52900    755.66069   -106.03907   0.68373767   -105.35533   -12522.357    4.3180609    4.3180609    4.3180609   -12522.357   -15956.345   -9445.1861    -12165.54    7938.2981    7952.6903      5274.84    80.513054 
   53000    1275.4578   -106.50353     1.154061   -105.34946   -63.838073    4.3105201    4.3105201    4.3105201   -63.838073   -6716.3613    6291.9759    232.87119   -2507.6392    232.32805     2981.852     80.09198 
   53100    734.72071    -106.0203   0.66479074   -105.35551    -2225.985    4.3061578    4.3061578    4.3061578    -2225.985   -24638.057    22977.923   -5017.8207    4052.8042    20331.859   -8433.8129    79.849061 
   53200    935.84575   -106.19814    0.8467729   -105.35137   -2890.1553    4.3131296    4.3131296    4.3131296   -2890.1553     3548.537   -5509.1558   -6709.8471    8904.4948   -11105.981   -851.67555    80.237525 
   53300     780.2432   -106.06094   0.70598045   -105.35496   -1196.6542    4.3149101    4.3149101    4.3149101   -1196.6542   -28838.605    29269.814   -4021.1714   -1450.4941    12148.255    3852.0846    80.336933 
   53400    937.51759   -106.20234   0.84828561   -105.35406    2840.1776    4.3086005    4.3086005    4.3086005    2840.1776   -1463.8363    21835.048   -11850.679    8958.4182    5328.7408   -7554.6929    79.985026 
   53500    1143.2911   -106.38598    1.0344739   -105.35151   -2612.7892    4.3102413    4.3102413    4.3102413   -2612.7892   -14336.286    23201.006   -16703.087   -4932.0897   -17486.151    8160.1055    80.076439 
   53600    648.14434   -105.94029   0.58645462   -105.35383   -6307.6746    4.3140806    4.3140806    4.3140806   -6307.6746   -24718.043   -2639.0709    8434.0904    4486.1155    24754.909    20.002757    80.290611 
   53700    941.70414    -106.2053   0.85207369   -105.35323   -9854.6472    4.3116106    4.3116106    4.3116106   -9854.6472   -988.96142   -23534.501   -5040.4794    -81.78655   -16781.556   -3368.7743    80.152783 
   53800    1017.8046   -106.27313     0.920931    -105.3522    9731.6507    4.3097937    4.3097937    4.3097937    9731.6507   -3098.3203    31960.946    332.32614    1156.8144   -823.70263    2690.2978    80.051494 
   53900    867.85179   -106.13871   0.78525053   -105.35346    1561.2403    4.3093117    4.3093117    4.3093117    1561.2403     2392.588    16927.598   -14636.465    3065.6707     13979.28   -6335.4656    80.024638 
   54000    808.46552   -106.08672   0.73151659   -105.35521   -5821.4125    4.3149337    4.3149337    4.3149337   -5821.4125   -16659.882    18446.396   -19250.752    748.82323   -24188.958   -7049.6885     80.33825 
   54100    1004.6994   -106.26183    0.9090731   -105.35276    7044.2175    4.3092688    4.3092688    4.3092688    7044.2175    10139.212    6271.1129     4722.328   -7751.1822    11551.581   -911.33348    80.022252 
   54200    760.43051   -106.04872    0.6880535   -105.36066   -11359.573    4.3076043    4.3076043    4.3076043   -11359.573   -4304.4568   -2472.6084   -27301.654    6757.5918   -10694.584   -8801.8613    79.929559 
   54300      902.383   -106.17594    0.8164951   -105.35944   -8490.3506    4.3152712    4.3152712    4.3152712   -8490.3506    -3958.085    2761.7476   -24274.715   -1982.9877   -14309.212   -6188.1627    80.357108 
   54400     1149.211   -106.39363    1.0398303    -105.3538    10342.419    4.3070339    4.3070339    4.3070339    10342.419    6790.1692   -4412.4345    28649.522    5987.2096    8793.8329    2943.7086    79.897809 
   54500    655.97693   -105.95431   0.59354172   -105.36077   -14488.823    4.3153597    4.3153597    4.3153597   -14488.823   -15547.394   -13171.583    -14747.49    3900.2296   -23065.916   -13794.894    80.362047 
   54600    1048.0029   -106.30009   0.94825505   -105.35184      9298.16    4.3087068    4.3087068    4.3087068      9298.16    11824.672    20007.028   -3937.2199    185.21194   -3004.8785    12307.517    79.990947 
   54700    732.38794   -106.01986      0.66268   -105.35718   -7293.7438    4.3104239    4.3104239    4.3104239   -7293.7438   -3417.5239    10731.715   -29195.422    1151.8141   -6595.1959   -6777.2761    80.086614 
   54800     794.8965   -106.07845   0.71923906   -105.35921   -15704.686     4.314433     4.314433     4.314433   -15704.686   -25774.349    1863.7087   -23203.419   -575.23755   -24356.417   -6191.6384    80.310287 
   54900    1296.9299   -106.52145    1.1734895   -105.34796    6953.1687    4.3063366    4.3063366    4.3063366    6953.1687    936.39162    12756.708    7166.4062    1696.1475    9280.4372    4555.3764    79.859012 
   55000    509.60464   -105.82101   0.46110099   -105.35991   -24618.838    4.3153553    4.3153553    4.3153553   -24618.838   -8501.7702   -14712.825    -50641.92    2704.6066       -27757   -14639.135    80.361802 
   55100    926.73269   -106.19565   0.83852722   -105.35712    4603.2631    4.3076029    4.3076029    4.3076029    4603.2631   -3574.7228    11080.998    6303.5143    5025.7137   -1904.3442   -1633.4384    79.929476 
   55200     1186.853   -106.42644    1.0738895   -105.35255    4433.5213    4.3129565    4.3129565    4.3129565    4433.5213    10660.306    1431.8658    1208.3921   -3543.0235   -809.71682   -8281.4613    80.227863 
   55300    653.49468    -105.9497   0.59129572    -105.3584   -13714.159    4.3132658    4.3132658    4.3132658   -13714.159   -22047.816    -6291.712   -12802.949    7550.6398   -20905.663   -5451.8329    80.245126 
   55400    920.59877   -106.18292   0.83297711   -105.34995    7495.8476    4.3032852    4.3032852    4.3032852    7495.8476    22525.659    26571.873    -26609.99   -7060.8323    10444.058   -767.73237    79.689369 
   55500    789.27243   -106.07254   0.71415028   -105.35839   -19349.783    4.3165779    4.3165779    4.3165779   -19349.783   -20508.807   -312.82116   -37227.721    5194.2892    -16895.56   -6952.8097    80.430123 
   55600    1016.2325   -106.27523   0.91950849   -105.35573    -4279.628    4.3101871    4.3101871    4.3101871    -4279.628   -20456.666   -7677.1619    15294.944    2933.4214   -7094.3352   -4112.0451    80.073417 
   55700    1034.3666   -106.28754   0.93591667   -105.35162   -354.85602    4.3112014    4.3112014    4.3112014   -354.85602    4505.7969    13574.225    -19144.59    303.37837    6593.8174    6973.4245    80.129962 
   55800    578.90401   -105.88069   0.52380452   -105.35688   -10063.218     4.311469     4.311469     4.311469   -10063.218   -6794.7444   -218.04238   -23176.866   -59.017796   -17751.112   -10681.828    80.144883 
   55900    1142.5312   -106.38651    1.0337862   -105.35273    5679.7022    4.3093931    4.3093931    4.3093931    5679.7022    10086.824    4457.5508    2494.7319    5669.6268    226.15175    6904.0945    80.029172 
   56000    1010.8759   -106.26878   0.91466173   -105.35412   -11832.665    4.3172794    4.3172794    4.3172794   -11832.665   -19040.715   -8033.3567   -8423.9224    938.33878   -689.89142   -2889.3348    80.469343 
   56100    647.54771   -105.94002   0.58591478    -105.3541   -1655.7274    4.3048437    4.3048437    4.3048437   -1655.7274    -7376.213    4746.8611   -2337.8302    10011.155   -14279.198   -14852.659     79.77598 
   56200    948.96895   -106.21071   0.85864704   -105.35207   -4047.2027    4.3142172    4.3142172    4.3142172   -4047.2027   -1031.3966    21402.489   -32512.701    8005.6779    11998.776    5202.6287    80.298238 
   56300    862.92398   -106.13757   0.78079176   -105.35678   -7225.2524    4.3138947    4.3138947    4.3138947   -7225.2524   -12953.593    12848.589   -21570.753     1624.539   -10295.685   -13133.578    80.280231 
   56400    1033.3922   -106.28858   0.93503495   -105.35355    9546.6965    4.3052434    4.3052434    4.3052434    9546.6965    1793.4139    9471.8659     17374.81    14524.592   -685.25942   -1384.2614    79.798205 
   56500    898.90172   -106.16437   0.81334517   -105.35103   -10336.312    4.3175768    4.3175768    4.3175768   -10336.312   -10076.713    4697.8669    -25630.09   -6784.9545    5893.8532   -919.71129    80.485977 
   56600     663.7305   -105.95472    0.6005573   -105.35417     2930.959    4.3059816    4.3059816    4.3059816     2930.959   -7694.5849    20439.737   -3952.2748    8351.0989    -14346.15   -7240.2327    79.839262 
   56700    1143.7857    -106.3897    1.0349213   -105.35477   -7576.9952    4.3139728    4.3139728    4.3139728   -7576.9952   -7822.4623   -15079.217    170.69365    3430.2831    7355.5237   -1682.3747    80.284591 
   56800    887.35907   -106.15618   0.80290113   -105.35328   -1316.8774     4.312136     4.312136     4.312136   -1316.8774   -14057.808    11661.575   -1554.3994   -4219.2115   -11048.091   -2616.0363    80.182083 
   56900     689.5915   -105.97723   0.62395688   -105.35327   -6637.5866    4.3058844    4.3058844    4.3058844   -6637.5866   -2046.9092    2997.5433   -20863.394    12937.667   -7268.1059   -9542.4487    79.833854 
   57000    909.71277   -106.17396   0.82312723   -105.35083   -12868.062    4.3202083    4.3202083    4.3202083   -12868.062   -14707.337    8900.6869   -32797.534     2322.396    2707.7216    11560.509    80.633229 
   57100     1028.571   -106.28458   0.93067262   -105.35391    6297.5067    4.3066897    4.3066897    4.3066897    6297.5067   -2526.3783    26711.168     -5292.27   -1923.7201   -17935.383   -9958.1361    79.878653 
   57200    950.88414   -106.21755   0.86037995   -105.35717    1583.7157    4.3048233    4.3048233    4.3048233    1583.7157    11413.393   -17318.385    10656.139    25732.074    3807.9268    6205.6146     79.77485 
   57300    740.20708   -106.02473   0.66975492   -105.35497   -9066.2722    4.3216054    4.3216054    4.3216054   -9066.2722    -19669.31     14020.03   -21549.537   -8162.3678   -8075.7938     91.69847    80.711483 
   57400    819.30575   -106.09488   0.74132506   -105.35355   -1251.2744    4.3082203    4.3082203    4.3082203   -1251.2744    651.08515     3107.695   -7512.6035    15076.153   -8060.2593   -11622.722    79.963853 
   57500    1035.3266   -106.28798    0.9367853   -105.35119    4614.2897    4.3044084    4.3044084    4.3044084    4614.2897    -1564.203    10107.309    5299.7626    11901.524    4530.4039    7260.0077    79.751785 
   57600    1023.8317   -106.27959   0.92638445    -105.3532     136.4059    4.3145888    4.3145888    4.3145888     136.4059   -996.37095    13982.572   -12576.983    -6927.353   -8754.9503   -5353.0181    80.318987 
   57700    636.25815   -105.93185   0.57569975   -105.35615    2474.4825     4.312682     4.312682     4.312682    2474.4825   -731.27934     21313.38   -13158.653    24487.537    815.49141   -5519.0031    80.212545 
   57800    944.76742   -106.20855   0.85484541   -105.35371   -787.93194    4.3123686    4.3123686    4.3123686   -787.93194   -1788.2445    30941.779    -31517.33   -5753.1264   -1842.1142     518.6955    80.195064 
   57900    1105.1124   -106.35196   0.99992897   -105.35203    5571.7802     4.306016     4.306016     4.306016    5571.7802    6335.2358     7135.272    3244.8328    5798.2188   -6032.8218   -6856.8512    79.841177 
   58000    825.29482   -106.10108   0.74674409   -105.35434   -2254.6333    4.3168113    4.3168113    4.3168113   -2254.6333   -1859.3177   -10618.237    5713.6544    20107.324    1249.6942    909.90315    80.443176 
   58100    951.11313   -106.21094   0.86058714   -105.35035   -4554.0055    4.3139239    4.3139239    4.3139239   -4554.0055   -4944.3762    5946.5932   -14664.234   -12699.787   -9306.0285    7838.0128    80.281862 
   58200    600.13553   -105.89757   0.54301524   -105.35456    19992.506    4.3038328    4.3038328    4.3038328    19992.506    7409.6651    43593.064      8974.79    27942.459   -511.28321    6600.9769    79.719796 
   58300    1193.3375   -106.43397    1.0797568   -105.35421   -9230.8129    4.3177052    4.3177052    4.3177052   -9230.8129   -7838.1021   -2253.2816   -17601.055    2540.2351   -3149.0347    4131.4016    80.493156 
   58400     853.8182   -106.12941   0.77255265   -105.35686    9737.8818    4.3080565    4.3080565    4.3080565    9737.8818    5341.4082    13274.293    10597.944    3467.7834   -11685.478    4014.4493     79.95473 
   58500    680.48002   -105.97295   0.61571262   -105.35724   -9453.6182    4.3143309    4.3143309    4.3143309   -9453.6182   -1824.3244   -15898.744   -10637.786    20147.844      6570.33   -7394.9814    80.304589 
   58600    1012.3305   -106.26876   0.91597792   -105.35278   -1365.3209    4.3089493    4.3089493    4.3089493   -1365.3209    13434.802    15736.011   -33266.775   -6392.1314    -7019.157    5185.1188    80.004452 
   58700      838.263   -106.11757   0.75847798   -105.35909   -78.298759    4.3106104    4.3106104    4.3106104   -78.298759   -5758.0322   -2718.2743    8241.4103    16513.706   -1382.0014   -9941.3366    80.097011 
   58800    1079.8329   -106.33086   0.97705546    -105.3538   -9995.6526     4.318302     4.318302     4.318302   -9995.6526   -9042.3718   -14119.512   -6825.0739    2065.7805    9311.6852   -11242.528    80.526537 
   58900    878.89216   -106.14625   0.79524009   -105.35101    16730.386    4.3009839    4.3009839    4.3009839    16730.386    16386.084    29154.518    4650.5565    3905.9055   -5244.9333    6272.4778    79.561587 
   59000    577.19961   -105.88315   0.52226234   -105.36089   -16654.966    4.3157271    4.3157271    4.3157271   -16654.966   -21391.296   -11068.981   -17504.622    12355.316    2955.4691   -8701.5705    80.382578 
   59100    1065.4589   -106.31827   0.96404957   -105.35422   -4586.9865    4.3137077    4.3137077    4.3137077   -4586.9865    3633.2533    8673.5286   -26067.741    3431.0277    11695.953   -3060.4315    80.269792 
   59200     1141.003   -106.38533    1.0324035   -105.35292    3996.1188    4.3015831    4.3015831    4.3015831    3996.1188   -2667.3579    -15459.85    30115.564    2825.5114   -8522.8105    7453.4075    79.594849 
   59300    581.11945    -105.8835   0.52580909   -105.35769   -19064.326    4.3190148    4.3190148    4.3190148   -19064.326   -17439.286   -18880.564   -20873.129    9825.0076    14157.047    -6127.119    80.566423 
   59400    976.16079   -106.23154   0.88325079   -105.34829    248.04378    4.3101843    4.3101843    4.3101843    248.04378     11751.12    23218.161    -34225.15   -6572.2261    6905.7696    353.61914    80.073263 
   59500    804.72365   -106.08421   0.72813087   -105.35608    -3588.746    4.3088423    4.3088423    4.3088423    -3588.746    -10862.85   -6707.3187    6803.9306    7317.0488   -229.04445    4825.4462    79.998493 
   59600    1007.4756   -106.26928   0.91158509    -105.3577   -4350.3768    4.3115002    4.3115002    4.3115002   -4350.3768   -11829.141    7900.7817   -9122.7706   -533.67194     25256.58   -15454.583    80.146625 
   59700    1124.1736   -106.36903    1.0171759   -105.35185   -4509.4425    4.3122476    4.3122476    4.3122476   -4509.4425    5455.5121    -20413.88    1430.0406    4897.4063   -4235.9203   -33.779724    80.188312 
   59800     417.6044   -105.73721   0.37785724   -105.35935   -15169.904    4.3121187    4.3121187    4.3121187   -15169.904   -19699.584   -5198.4104   -20611.718    13087.776    17819.859    -5666.857    80.181119 
   59900    1040.2333   -106.29495   0.94122492   -105.35373    7215.9137    4.3056912    4.3056912    4.3056912    7215.9137    26530.362    10803.398   -15686.019   -3635.4398    10112.782   -10032.131    79.823106 
   60000    1199.7689   -106.43951    1.0855761   -105.35393   -7470.4922    4.3156217    4.3156217    4.3156217   -7470.4922   -16630.919   -13867.705    8087.1471    16176.039   -3073.9381   -2902.7059     80.37669 
   60100     603.4678   -105.90451   0.54603035   -105.35848   -4842.6815    4.3112975    4.3112975    4.3112975   -4842.6815    4609.8145    4132.4638   -23270.323    -734.2064      19434.1   -3262.2555    80.135319 
   60200    918.44517   -106.18316   0.83102849   -105.35213   -7364.5227    4.3078899    4.3078899    4.3078899   -7364.5227    7559.6773    4075.7774   -33729.023     7352.402   -12337.681   -7646.7279    79.945455 
   60300    822.12989   -106.09914    0.7438804   -105.35526    -3980.826    4.3114927    4.3114927    4.3114927    -3980.826   -16053.875     7032.436   -2921.0392    6800.6206    3830.4176     1547.485    80.146207 
   60400    1058.6741   -106.31497    0.9579106   -105.35706   -3988.5963     4.310783     4.310783     4.310783   -3988.5963    14974.602   -14522.826   -12417.565   -1141.9291    5889.3033   -4519.5736    80.106635 
   60500    1041.4023   -106.29559   0.94228267   -105.35331    1724.2028    4.3142492    4.3142492    4.3142492    1724.2028   -6475.1935     3236.845     8410.957    2951.7668   -13775.806    5756.5694    80.300024 
   60600    571.83207   -105.87408   0.51740567   -105.35668    1305.8665    4.3084639    4.3084639    4.3084639    1305.8665    28230.627    2316.5172   -26629.545   -2892.6362    19810.828   -3782.8247    79.977418 
   60700    762.32556   -106.04887   0.68976819   -105.35911   -9879.1624    4.3143594    4.3143594    4.3143594   -9879.1624   -10647.683    5943.4157    -24933.22   -13.614172   -13869.045   -3100.7864    80.306177 
   60800    1282.7098   -106.51187    1.1606228   -105.35124    4490.4137     4.311326     4.311326     4.311326    4490.4137    6723.2782     5118.689     1629.274   -6812.6192    7816.3457    33.658916    80.136907 
   60900    762.00479   -106.04735   0.68947794   -105.35787    -4575.789    4.3073487    4.3073487    4.3073487    -4575.789    2547.5775    2434.0207   -18708.965      4144.74    6484.4048   -13622.323    79.915332 
   61000    707.01625   -105.99374   0.63972316   -105.35402   -10458.414    4.3173988    4.3173988    4.3173988   -10458.414   -5664.0319   -5647.7932   -20063.418   -5265.9118   -19263.608   -1870.1592    80.476019 
   61100    1029.1692   -106.28107   0.93121389   -105.34986     3084.008    4.3093099    4.3093099    4.3093099     3084.008    3907.4293   -4800.5027    10145.097    4681.9225    19170.346   -1003.8923    80.024539 
   61200    795.58319   -106.07756   0.71986039    -105.3577   -2727.7162    4.3122259    4.3122259    4.3122259   -2727.7162    2386.2617   -15559.042    4989.6323    992.33964   -18040.217   -11046.927    80.187101 
   61300    1243.2674   -106.47586    1.1249345   -105.35093   -3080.7633    4.3122849    4.3122849    4.3122849   -3080.7633     2666.447   -7794.3681   -4114.3689   -2049.1268   -5567.4559    1990.8571    80.190392 
   61400     689.5558   -105.97895   0.62392458   -105.35503    4136.6416    4.3069388    4.3069388    4.3069388    4136.6416    27138.475    186.92406   -14915.474    4668.9503    6244.0685    -3466.222    79.892516 
   61500    633.55048   -105.93218   0.57324979   -105.35893   -22819.186    4.3178261    4.3178261    4.3178261   -22819.186   -36714.332    -16099.56   -15643.664   -528.37448   -14363.292    -11364.38    80.499918 
   61600    1201.3326   -106.43802     1.086991   -105.35103    6363.3325     4.307385     4.307385     4.307385    6363.3325   -1081.9629   -2851.4911    23023.452    -4696.342     4883.908    1691.0188    79.917351 
   61700    952.38453   -106.21955   0.86173754   -105.35781   -8981.1461    4.3124383    4.3124383    4.3124383   -8981.1461    8199.2757   -15096.946   -20045.768    7838.6252    6170.8072   -6595.1726    80.198952 
   61800    675.62067   -105.96975   0.61131578   -105.35843   -8198.3424    4.3143995    4.3143995    4.3143995   -8198.3424   -18889.415   -18715.575    13009.963   -10037.627   -17225.774   -1978.4523     80.30842 
   61900     958.0608    -106.2192   0.86687355   -105.35232    15074.049    4.3044984    4.3044984    4.3044984    15074.049    36013.936    179.84492    9028.3652   -1268.6607    16874.236     1067.497    79.756785 
   62000    811.72221    -106.0935   0.73446332   -105.35903   -13184.526    4.3174117    4.3174117    4.3174117   -13184.526   -14049.335   -29114.699     3610.457    2339.2646   -17112.448   -9801.5746    80.476745 
   62100    1059.8594   -106.31396   0.95898307   -105.35498   -2056.4093     4.311942     4.311942     4.311942   -2056.4093      11847.9   -18366.367    349.23876   -9639.6625   -4936.0809    5008.8389    80.171262 
   62200    1044.4489   -106.29687   0.94503935   -105.35183   -3230.2166    4.3092756    4.3092756    4.3092756   -3230.2166    18958.975   -2918.6046    -25731.02    4475.6527    540.85809   -8471.8557    80.022628 
   62300    500.13871   -105.81257   0.45253601   -105.36003   -7208.8221    4.3109625    4.3109625    4.3109625   -7208.8221   -28845.542   -13381.768    20600.844   -9354.1898   -17741.919   -1624.8277    80.116643 
   62400    1119.6693   -106.36778    1.0131003   -105.35468    7451.2864    4.3145833    4.3145833    4.3145833    7451.2864    14573.316   -10646.947     18427.49   -3114.4787    938.09378    2187.3121    80.318685 
   62500    1109.7014   -106.35981    1.0040812   -105.35573     5349.857    4.3131824    4.3131824    4.3131824     5349.857    16257.427   -11658.383    11450.527   -2823.8191   -5966.6752   -8550.2206    80.240472 
   62600    638.90935   -105.93828    0.5780986   -105.36018    8670.3975    4.3034223    4.3034223    4.3034223    8670.3975    11426.435   -9976.5346    24561.292   -13530.379   -9830.1518       2577.4    79.696986 
   62700    943.20802   -106.20829   0.85343444   -105.35485    1228.7289    4.3158454    4.3158454    4.3158454    1228.7289    6543.9244   -4746.9238    1889.1861    1468.9055     957.0783   -4433.1242    80.389189 
   62800     921.6165   -106.19125   0.83389798   -105.35735   -10320.755    4.3151317    4.3151317    4.3151317   -10320.755   -5007.4688    -32440.15    6485.3557   -10693.351    166.80973   -4504.4936    80.349312 
   62900    934.15015    -106.2021   0.84523869   -105.35686    7476.2025    4.3082125    4.3082125    4.3082125    7476.2025    3075.8845   -5166.1745    24518.897   -10828.795   -8854.4398     202.2974     79.96342 
   63000    1162.3483   -106.40261    1.0517172    -105.3509   -169.42796    4.3114579    4.3114579    4.3114579   -169.42796    442.10564    2646.6341   -3597.0236    5982.0933    14284.937   -290.27484    80.144263 
   63100    496.05081    -105.8065    0.4488372   -105.35766   -780.29446    4.3142491    4.3142491    4.3142491   -780.29446   -25257.069   -9244.0479    32160.234   -16056.052   -11248.201    4227.0991    80.300022 
   63200    947.68419   -106.21422   0.85748457   -105.35673    3092.0067    4.3115667    4.3115667    4.3115667    3092.0067   -7013.4194   -5184.7806     21474.22    5161.7071    8277.3673    2376.1913    80.150332 
   63300    1236.3569   -106.47538    1.1186817    -105.3567   -1719.5866    4.3116212    4.3116212    4.3116212   -1719.5866    9232.5924    -18845.78    4454.4279   -3533.9008    7015.7395    3980.1781    80.153374 
   63400    667.78808   -105.96595   0.60422869   -105.36172   -7984.9487    4.3152035    4.3152035    4.3152035   -7984.9487   -24143.037   -17441.129    17629.319   -13491.997   -3547.3895   -2245.4339    80.353325 
   63500    923.76883   -106.19248   0.83584545   -105.35664   -8520.9277    4.3085147    4.3085147    4.3085147   -8520.9277   -13979.984    4250.8009     -15833.6    10513.465      10387.5   -1801.0965    79.980245 
   63600    807.71117   -106.09107   0.73083404   -105.36024   -1943.2118    4.3104708    4.3104708    4.3104708   -1943.2118   -7245.7254   -23662.438    25078.528   -18024.083    942.28372   -2363.9884    80.089229 
   63700    1058.6836   -106.31696   0.95791912   -105.35904   -4379.5203    4.3100166    4.3100166    4.3100166   -4379.5203    -12049.38    -436.6123   -652.56869    3478.9147   -7865.6665   -2541.1165    80.063916 
   63800    853.80709   -106.12918    0.7725426   -105.35664    -7266.102    4.3143289    4.3143289    4.3143289    -7266.102   -27116.656    588.64015    4729.7094   -3307.7021    27200.393    3396.9148    80.304477 
   63900     829.1687   -106.10322   0.75024927   -105.35297   -5519.9189     4.307288     4.307288     4.307288   -5519.9189   -12832.997   -5343.6719    1616.9125   -21751.913   -11144.632   -6607.6613     79.91195 
   64000    760.72391   -106.04489   0.68831898   -105.35658   -8746.4906    4.3119297    4.3119297    4.3119297   -8746.4906   -1692.5274   -5517.4689   -19029.476    5727.1333    18128.835    10309.887     80.17058 
   64100    1080.8407   -106.33062   0.97796734   -105.35266   -7492.7312    4.3154798    4.3154798    4.3154798   -7492.7312     -5313.47   -27144.266     9979.542   -11275.026    13778.034   -2563.3253    80.368761 
   64200    996.98266   -106.25336   0.90209087   -105.35127    2269.2504    4.3033625    4.3033625    4.3033625    2269.2504   -9407.5445    951.13395    15264.162   -10947.028   -3497.6655    5460.9895    79.693662 
   64300    588.93025   -105.89171   0.53287646   -105.35883   -4700.3908    4.3120896    4.3120896    4.3120896   -4700.3908   -27943.432   -3376.3873    17218.647    10276.223    25889.792    7165.4019    80.179497 
   64400     1240.522   -106.47315    1.1224503    -105.3507   -9448.0078    4.3136464    4.3136464    4.3136464   -9448.0078    1496.3243   -28135.701   -1704.6468   -12306.348   -2551.4059    -3749.298    80.266373 
   64500    790.09863   -106.07609   0.71489784   -105.36119   -10693.754     4.313117     4.313117     4.313117   -10693.754   -18033.912   -10289.959   -3757.3896      2569.03    4265.4189    92.651428    80.236821 
   64600    889.48622   -106.16753   0.80482582    -105.3627    3695.6142    4.3082072    4.3082072    4.3082072    3695.6142   -17228.673   -3341.6464    31657.162    8625.8328    3669.2666    4210.5473    79.963122 
   64700    1109.7572   -106.36539    1.0041316   -105.36126    1814.9029    4.3123081    4.3123081    4.3123081    1814.9029   -5131.8019   -7414.9441    17991.455   -4664.7952   -4237.5812   -8265.0192    80.191684 
   64800    551.08912   -105.86247   0.49863701   -105.36383   -16322.447    4.3189431    4.3189431    4.3189431   -16322.447   -24948.375   -11638.823   -12380.144    12106.815    2135.9719    6001.4328    80.562408 
   64900    1088.6948   -106.33505   0.98507392   -105.34998    15751.655     4.301436     4.301436     4.301436    15751.655    27600.236    -1594.869    21249.599    1456.6033    8419.5228    338.47166    79.586679 
   65000    967.44489   -106.23291   0.87536447   -105.35755   -18682.812    4.3134461    4.3134461    4.3134461   -18682.812   -31761.519     -8073.25   -16213.668    3200.9842   -9356.2442   -2797.6667    80.255188 
   65100    629.01699   -105.92907   0.56914779   -105.35993   -5072.3891    4.3161124    4.3161124    4.3161124   -5072.3891   -21738.703   -7330.9963    13852.531    11608.524    9881.7969    2977.0677    80.404111 
   65200    1142.9025   -106.38674    1.0341222   -105.35262    12474.283    4.3081675    4.3081675    4.3081675    12474.283    30766.965   -7432.9876    14088.871   -3692.8562   -2356.2066   -6053.8156    79.960912 
   65300    624.63969   -105.92743   0.56518712   -105.36225   -18544.911     4.318263     4.318263     4.318263   -18544.911   -23252.511    -20851.36   -11530.863    8856.5781    5511.5952    -683.2529    80.524359 
   65400    907.29897   -106.17867   0.82094318   -105.35773    14110.328    4.3086587    4.3086587    4.3086587    14110.328    22415.919   -2466.1016    22381.168     2284.211    3620.9729     3137.991    79.988269 
   65500    1225.0676   -106.46162    1.1084669   -105.35315   -12159.209     4.314892     4.314892     4.314892   -12159.209   -2853.0197   -23272.085   -10352.522   -5440.7062    7613.2001   -12966.084    80.335922 
   65600    612.77986   -105.91112   0.55445609   -105.35666   -9454.2177    4.3093527    4.3093527    4.3093527   -9454.2177    9432.4536   -8169.9705   -29625.136    10675.707    7073.1857    5314.8838    80.026926 
   65700    896.63484   -106.16656   0.81129405   -105.35526    4198.8871    4.3107535    4.3107535    4.3107535    4198.8871    16189.613   -23602.536    20009.584   -8317.4832    3941.7473   -11455.494    80.104987 
   65800     1146.929   -106.39377    1.0377654   -105.35601   -15419.794    4.3200989    4.3200989    4.3200989   -15419.794   -15246.154   -26595.736   -4417.4935    1803.4524    2632.9081   -4926.6184    80.627104 
   65900    754.31215   -106.04518   0.68251749   -105.36266    17336.948    4.3079471    4.3079471    4.3079471    17336.948    4919.1506   -11092.232    58183.926    6483.7998    10228.567    2208.9557    79.948639 
   66000    1014.5181   -106.28079    0.9179573   -105.36284   -9344.9471    4.3185421    4.3185421    4.3185421   -9344.9471    1888.0814   -19725.896   -10197.027   -8106.7458   -5081.7611    -7842.319     80.53997 
   66100    844.03017   -106.12892   0.76369624   -105.36523    1537.8409    4.3133149    4.3133149    4.3133149    1537.8409    5605.3918   -9559.8409    8567.9719    9983.3418    13084.616    10308.758    80.247869 
   66200    738.27975   -106.03507   0.66801103   -105.36706    4342.9909    4.3158458    4.3158458    4.3158458    4342.9909   -13181.096   -13783.651     39993.72   -7735.0658    8473.4539   -9440.4172    80.389209 
   66300    1196.8251   -106.44247    1.0829125   -105.35956    6202.6917    4.3193263    4.3193263    4.3193263    6202.6917    2878.3661   -15763.616    31493.325   -2839.7232   -1377.3114    361.63091    80.583856 
   66400     844.3298   -106.12463   0.76396735   -105.36067    669.30724    4.3101646    4.3101646    4.3101646    669.30724    2891.5162   -11199.894      10316.3   -1908.7368    12838.486    3045.1969    80.072166 
   66500    592.88335   -105.89509   0.53645332   -105.35863   -10772.059    4.3190073    4.3190073    4.3190073   -10772.059   -4895.8846   -12724.701   -14695.593   -14995.768     4760.478   -6732.9639       80.566 
   66600    1141.2837   -106.38234    1.0326575   -105.34968   -8414.5345    4.3153023    4.3153023    4.3153023   -8414.5345    3242.8824   -15529.241   -12957.245    2353.5113   -8500.5609     2399.383    80.358842 
   66700    723.47891   -106.01068   0.65461892   -105.35606    6674.2575     4.311298     4.311298     4.311298    6674.2575   -10862.319   -9575.8018    40460.893   -9223.4447     23979.99    4121.3991    80.135347 
   66800     1260.552   -106.49187     1.140574   -105.35129   -7534.0436    4.3182537    4.3182537    4.3182537   -7534.0436    3550.4626   -16777.322   -9375.2714   -7263.2062   -14318.766   -3515.2348    80.523838 
   66900    488.92161   -105.79765   0.44238655   -105.35527    15294.569    4.3141822    4.3141822    4.3141822    15294.569    9295.5196   -8718.7975    45306.985    3744.0441     13009.74    9173.4431    80.296282 
   67000    967.93101    -106.2314   0.87580432    -105.3556   -13666.276    4.3137218    4.3137218    4.3137218   -13666.276   -28669.309   -19153.813    6824.2943   -9744.2771    8329.5057    517.14583    80.270578 
   67100    1177.1609    -106.4182    1.0651199   -105.35308    3962.7655    4.3141868    4.3141868    4.3141868    3962.7655     7406.689   -12519.934    17001.541    2480.5289   -281.64807    3868.1485    80.296542 
   67200    605.43453   -105.90891   0.54780989    -105.3611   -4855.8627    4.3164802    4.3164802    4.3164802   -4855.8627   -12408.515   -18517.089    16358.016   -3531.1119     13947.52     10709.25    80.424667 
   67300    1049.8047   -106.30831   0.94988533   -105.35843   -3434.7542    4.3156506    4.3156506    4.3156506   -3434.7542   -11219.601   -19194.172     20109.51    1106.3111   -3328.1016   -4827.8042      80.3783 
   67400    890.88774   -106.17434   0.80609395   -105.36825   -8455.0167      4.31681      4.31681      4.31681   -8455.0167    1150.6009    -19586.85   -6928.8008   -777.66789   -2479.0675    12770.274    80.443099 
   67500    1022.0827   -106.29719    0.9248019   -105.37238   -96.196114    4.3160305    4.3160305    4.3160305   -96.196114   -26344.124   -10482.194    36537.729    -4061.831    8952.7902   -4717.6237    80.399529 
   67600    952.36736   -106.22946     0.861722   -105.36774    1343.0158    4.3173612    4.3173612    4.3173612    1343.0158    8976.7999    -6846.384    1898.6313    7243.9447   -15597.887   -3424.0204    80.473922 
   67700    607.20017   -105.91972   0.54940747   -105.37031   -16778.263    4.3192651    4.3192651    4.3192651   -16778.263   -18101.935   -10142.081   -22090.773   -8262.9454    17606.321    10681.132    80.580428 
   67800    1080.0739   -106.33794   0.97727358   -105.36067    14249.731    4.3147852    4.3147852    4.3147852    14249.731   -11449.834    -2796.806    56995.834    3691.6901   -3429.7391   -2938.6291    80.329956 
   67900    928.27278    -106.2014   0.83992072   -105.36148    16853.962    4.3124752    4.3124752    4.3124752    16853.962    5433.6751    -8207.883    53336.094   -502.04743   -175.15563    2033.8013    80.201009 
   68000    800.90829   -106.08427   0.72467865   -105.35959   -17774.676    4.3214095    4.3214095    4.3214095   -17774.676   -28481.865   -9268.9144   -15573.249   -7665.7582     24988.65    6294.1811    80.700506 
   68100    807.19276   -106.08339   0.73036497   -105.35302    3840.9676    4.3146512    4.3146512    4.3146512    3840.9676    4023.2084   -1975.6139    9475.3084    4753.5549   -11759.723    -6093.252    80.322472 
   68200    896.77308   -106.17039   0.81141913   -105.35897    1823.1864    4.3091293    4.3091293    4.3091293    1823.1864   -6407.8454   -11990.554    23867.959   -8728.8275    19367.449    3430.5614    80.014476 
   68300    1260.5768    -106.5004    1.1405963    -105.3598   -14999.397     4.324527     4.324527     4.324527   -14999.397   -26538.897   -19643.679    1184.3849    413.49065    2955.9188   -173.41576     80.87529 
   68400    697.40251    -105.9903   0.63102444   -105.35928    19094.454     4.309909     4.309909     4.309909    19094.454    7969.5136   -5554.8814     54868.73   -3234.3492    -5839.077    994.16825    80.057918 
   68500    603.83651   -105.91248   0.54636396   -105.36612   -8568.6352    4.3103881    4.3103881    4.3103881   -8568.6352   -8891.4832   -7203.7033   -9610.7191    -8312.427    14262.553    2445.9854    80.084619 
   68600    1335.1626   -106.56799    1.2080832   -105.35991   -4856.0384    4.3171532    4.3171532    4.3171532   -4856.0384   -1913.6641   -15884.781    3230.3296    5824.8598    1010.6899   -914.46216    80.462291 
   68700    801.47518   -106.09111   0.72519159   -105.36592    7966.3331    4.3114747    4.3114747    4.3114747    7966.3331    -16937.81   -9335.6006     50172.41   -11376.008    8309.0429    6540.8103    80.145204 
   68800    606.85667   -105.91522   0.54909667   -105.36612    13609.655    4.3110788    4.3110788    4.3110788    13609.655   -4864.3794    1385.2361    44308.107    250.69321     14071.79    1963.3271    80.123124 
   68900    1022.0685   -106.28511    0.9247891   -105.36032    452.90915    4.3142296    4.3142296    4.3142296    452.90915    5161.8854   -12456.334    8653.1759   -1615.8929   -9186.4804   -7498.4812    80.298932 
   69000     873.3399    -106.1517    0.7902163   -105.36149   -1684.5694     4.314851     4.314851     4.314851   -1684.5694   -26886.589   -11254.443    33087.323   -12582.478    16247.244    10633.433    80.333636 
   69100    1109.5066   -106.35777    1.0039049   -105.35387   -2005.9154    4.3112079    4.3112079    4.3112079   -2005.9154    7847.6482   -9013.0772   -4852.3173    3629.9654   -7634.0556   -7685.9962    80.130327 
   69200    690.61746    -105.9795   0.62488519   -105.35461   -12689.852    4.3127718    4.3127718    4.3127718   -12689.852   -5999.0776   -12232.623   -19837.854   -11400.931    9754.8468   -182.70608    80.217561 
   69300    763.22115   -106.04755   0.69057854   -105.35698    711.25699    4.3146403    4.3146403    4.3146403    711.25699   -11325.408   -15289.799    28748.978    -2285.631    10862.005    1560.4406    80.321865 
   69400    1262.2415   -106.49391    1.1421027    -105.3518   -1219.0236    4.3162352    4.3162352    4.3162352   -1219.0236    6983.3729   -21993.294     11352.85   -422.28212    1303.1002   -1821.1722    80.410973 
   69500    756.61542   -106.04244   0.68460153   -105.35784    9260.5061    4.3119588    4.3119588    4.3119588    9260.5061   -20848.402   -12862.027    61491.947   -11920.599    21423.229   -548.60544    80.172202 
   69600    814.27532   -106.09359   0.73677342   -105.35682   -7155.5096    4.3168739    4.3168739    4.3168739   -7155.5096    1821.1291   -14651.381   -8636.2772    4853.1327    3712.7413    1681.8628    80.446674 
   69700    1059.5884   -106.31992   0.95873782   -105.36118   -13417.351    4.3180392    4.3180392    4.3180392   -13417.351   -6336.1233   -22498.391   -11417.539   -8699.2773    5912.4489   -2983.8854    80.511837 
   69800    1014.9539   -106.28694    0.9183516   -105.36859    10695.492    4.3137005    4.3137005    4.3137005    10695.492   -14983.102   -11980.431    59050.008   -5903.0576    13194.007   -9033.6279     80.26939 
   69900    686.65959   -105.99547   0.62130403   -105.37417    5128.6954    4.3221406    4.3221406    4.3221406    5128.6954    3000.1023   -36846.583    49232.567    5481.3201   -4255.5719   -68.431153    80.741474 
   70000    643.21371   -105.95749   0.58199328    -105.3755   -9024.5198    4.3167183    4.3167183    4.3167183   -9024.5198   -9253.6936   -7385.0749   -10434.791   -11243.145    7535.7922   -3015.0802    80.437977 
   70100    1120.9773   -106.38645    1.0142838   -105.37216   -6543.7359    4.3170585    4.3170585    4.3170585   -6543.7359    7623.6261   -23443.837   -3810.9966    3801.1449    13694.078    2239.7251    80.456996 
   70200     984.1897   -106.25945   0.89051552   -105.36894   -3502.7486    4.3273782    4.3273782    4.3273782   -3502.7486   -12760.822   -32871.647    35124.223   -649.38847   -6222.8728   -6978.6513     81.03536 
   70300    710.24899   -106.00294   0.64264822   -105.36029    27704.226    4.3115985    4.3115985    4.3115985    27704.226   -8689.3198    846.36499    90955.632    -4463.577    11036.396    3143.8826    80.152104 
   70400    901.88595   -106.17659   0.81604536   -105.36054   -17301.803    4.3185579    4.3185579    4.3185579   -17301.803     14657.89   -34874.369   -31688.929    5398.5666   -7860.8252   -5684.1788    80.540859 
   70500    957.15436   -106.22555   0.86605338    -105.3595   -9316.9952     4.319808     4.319808     4.319808   -9316.9952   -19655.324   -13166.489     4870.827   -5337.3323    6544.4946   -3087.1488    80.610818 
   70600    973.00372   -106.24084   0.88039422   -105.36045      672.805    4.3128998    4.3128998    4.3128998      672.805   -6655.8115   -20017.206    28691.432      5470.13    2425.4098    2969.8787      80.2247 
   70700    940.88656   -106.21248   0.85133393   -105.36115   -947.79277    4.3151198    4.3151198    4.3151198   -947.79277    12380.003   -28079.362    12855.981   -1041.7215    5519.3142   -505.49942     80.34865 
   70800    796.41784   -106.08164    0.7206156   -105.36102   -5020.2232    4.3170108    4.3170108    4.3170108   -5020.2232   -22243.275    1408.6107    5773.9951    9.4962667    7444.3665   -2648.5947    80.454328 
   70900     784.9322   -106.07353   0.71022315    -105.3633    8873.9349    4.3086865    4.3086865    4.3086865    8873.9349    5910.3149   -15654.604    36366.094    6605.8755    -1973.438    4826.3035    79.989816 
   71000    1214.9517   -106.45798    1.0993138   -105.35866    890.83224    4.3136497    4.3136497    4.3136497    890.83224   -2923.2129   -2420.3093    8016.0189   -2737.3417    816.57311     6584.727    80.266556 
   71100    727.37168   -106.01806   0.65814119   -105.35992   -8606.4501    4.3149801    4.3149801    4.3149801   -8606.4501    -23889.36    1158.1554   -3088.1458    6425.8892    7677.2324   -6735.4475    80.340842 
   71200     641.3807   -105.93808   0.58033474   -105.35775    8162.5661    4.3118656    4.3118656    4.3118656    8162.5661    15440.477   -24388.152    33435.372    3496.1135   -1694.8064    -1750.157    80.167002 
   71300    1152.7657   -106.39553    1.0430467   -105.35248   -3035.6045    4.3136953    4.3136953    4.3136953   -3035.6045   -23539.111    10960.326    3471.9712    1551.7282     9680.778   -33.543268    80.269098 
   71400    938.96671    -106.2066   0.84959681   -105.35701   -2026.0724    4.3132554    4.3132554    4.3132554   -2026.0724   -14258.134   -24210.976    32390.893    5962.8265    3428.7421   -9605.9715    80.244547 
   71500    863.51793   -106.13493   0.78132917    -105.3536   -13268.486    4.3183828    4.3183828    4.3183828   -13268.486    3190.2552   -18190.721   -24804.992   -763.10283    341.35904   -4972.3727    80.531058 
   71600     874.8847   -106.14262   0.79161406   -105.35101   -9817.4875    4.3115356    4.3115356    4.3115356   -9817.4875   -14679.963    14866.441   -29638.941    2415.6512   -3409.2924   -1816.6138    80.148596 
   71700    804.12621   -106.08513   0.72759029   -105.35754    250.53769    4.3090362    4.3090362    4.3090362    250.53769    12867.307   -26343.444     14227.75    7187.6271    3546.2391   -6081.9665    80.009292 
   71800    1034.8777   -106.29397   0.93637906    -105.3576     531.5606    4.3117168    4.3117168    4.3117168     531.5606   -23619.437    11727.701    13486.419   -3530.8653   -13490.067     3521.853    80.158701 
   71900    878.93296   -106.15035   0.79527701   -105.35507   -2310.8808    4.3166908    4.3166908    4.3166908   -2310.8808   -2867.3737   -15283.142    11217.873    8662.9469    6614.0829   -657.55789    80.436438 
   72000    873.32032   -106.14455   0.79019858   -105.35435   -2652.7096    4.3058283    4.3058283    4.3058283   -2652.7096    13056.563   -10555.929   -10458.763   -1678.7666   -2271.0682   -1921.9754    79.830732 
   72100     1012.654   -106.27411   0.91627058   -105.35784   -10178.939    4.3169157    4.3169157    4.3169157   -10178.939     -39051.5    1665.6808    6849.0014   -6096.4812   -4976.4064   -545.47594     80.44901 
   72200    877.72768   -106.15076   0.79418645   -105.35657    5572.0451    4.3163531    4.3163531    4.3163531    5572.0451   -3760.4252   -17073.842    37550.403     866.4993    2824.8029   -3158.5479    80.417563 
   72300    700.08819   -105.99825   0.63345451   -105.36479    6725.5649    4.3086549    4.3086549    4.3086549    6725.5649   -3704.6422    2212.7244    21668.613   -8475.1455   -13207.547     3968.686    79.988054 
   72400    1181.7758   -106.42746    1.0692956   -105.35817  -0.83187882    4.3141583    4.3141583    4.3141583  -0.83187882   -7475.7487    653.16148    6820.0916   -6034.2373   -6718.4243   -6409.7279    80.294952 
   72500    581.66848   -105.88742   0.52630586   -105.36112   -3073.7291    4.3210955    4.3210955    4.3210955   -3073.7291    3021.9945   -17165.134     4921.952    402.86201    2658.9551    2746.6789    80.682917 
   72600    1037.8756   -106.28985   0.93909164   -105.35076   -9853.9198    4.3140636    4.3140636    4.3140636   -9853.9198   -30139.078    766.40667    -189.0879   -5189.3626   -9158.8111     1185.345    80.289663 
   72700    1012.1731   -106.26292   0.91583548   -105.34709    7413.6123    4.3104019    4.3104019    4.3104019    7413.6123    26215.989   -12165.116    8189.9636   -2395.1333    7472.2698   -3906.5628    80.085392 
   72800    765.23595   -106.04823   0.69240157   -105.35582    -5206.884    4.3173817    4.3173817    4.3173817    -5206.884    6405.9383   -13101.446   -8925.1444   -4164.1847   -4685.1407    4657.3724    80.475068 
   72900    1009.8608   -106.26416   0.91374328   -105.35041   -2942.8877    4.3212158    4.3212158    4.3212158   -2942.8877   -38478.782   -4155.1037    33805.223    565.81019   -1317.3737    2204.7348    80.689659 
   73000    830.43679   -106.10091   0.75139666   -105.34951    13553.125    4.3043926    4.3043926    4.3043926    13553.125     12762.22   -2357.9631    30255.119   -2092.0996    3294.5702   -4345.7895    79.750904 
   73100     931.9239    -106.1991   0.84322433   -105.35588    4518.0039     4.312705     4.312705     4.312705    4518.0039    5718.4399   -904.93544    8740.5071   -6025.9809   -9984.1556    5319.9709    80.213828 
   73200    1024.5859   -106.27575   0.92706687   -105.34868   -9632.7593    4.3250989    4.3250989    4.3250989   -9632.7593   -13809.381   -22496.347    7407.4505    10968.754     3526.962   -2934.9646    80.907379 
   73300    734.13769    -106.0158   0.66426321   -105.35153    1220.4122    4.3077831    4.3077831    4.3077831    1220.4122    15438.416   -2031.5262   -9745.6526   -2971.9814   -9684.1855    5651.0689    79.939512 
   73400    975.67792   -106.23534   0.88281388   -105.35253    2247.3555    4.3121433    4.3121433    4.3121433    2247.3555   -10649.059    -7947.408    25338.533    2308.0271   -12892.214    3054.5939    80.182492 
   73500    1028.9036   -106.28618   0.93097359   -105.35521   -8312.4936    4.3211881    4.3211881    4.3211881   -8312.4936    11994.798   -35088.329   -1843.9502    12780.986   -1992.0777    468.84453    80.688104 
   73600    767.74652   -106.05064   0.69467319   -105.35597    4956.6086    4.3082427    4.3082427    4.3082427    4956.6086    3632.3684    1521.4841    9715.9732   -9934.8705   -6806.4296    4454.8981      79.9651 
   73700    778.62344   -106.05868   0.70451486   -105.35417    5572.2711    4.3078541    4.3078541    4.3078541    5572.2711   -24452.119   -491.42518    41660.358    13249.446      546.987    -3406.245    79.943463 
   73800    1125.2038   -106.36931    1.0181081   -105.35121   -13415.129    4.3216666    4.3216666    4.3216666   -13415.129   -7708.4282   -14931.149   -17605.809   -3306.7068    11881.337   -678.50998     80.71491 
   73900    705.57079   -105.99472   0.63841528    -105.3563    13996.769    4.3131602    4.3131602    4.3131602    13996.769    11349.462   -8990.3906    39631.235    3154.4187   -7128.1542   -909.42983    80.239231 
   74000    1075.8189   -106.32971   0.97342352   -105.35629    1956.3508    4.3090093    4.3090093    4.3090093    1956.3508   -8004.2798    -11407.24    25280.572    9067.6879    13206.292   -1130.6828    80.007793 
   74100    829.72794   -106.11128   0.75075527   -105.36053    10322.683    4.3151665    4.3151665    4.3151665    10322.683    3246.2638    1697.4596    26024.327   -7712.9707   -17273.042    4631.7075    80.351258 
   74200    661.53212   -105.96213   0.59856816   -105.36357   -2777.2791    4.3246188    4.3246188    4.3246188   -2777.2791    -19670.06     -31001.4    42339.623    18599.864     4075.724    2903.4009    80.880441 
   74300    1505.8491   -106.71407    1.3625239   -105.35155    1804.0472    4.3127462    4.3127462    4.3127462    1804.0472    10652.666   -9852.4255    4611.9008   -9602.7317   -9436.4306    3316.4017    80.216129 
   74400    652.54669   -105.95671   0.59043796   -105.36627   -2177.3815    4.3144006    4.3144006    4.3144006   -2177.3815   -20848.666   -5109.1959    19425.718    11028.006     -5823.69   -2698.9822    80.308481 
   74500    679.84317   -105.98386   0.61513639   -105.36872    7443.1511     4.327529     4.327529     4.327529    7443.1511   -32672.036   -20958.107    75959.597    10079.528    2494.8396    -7306.053    81.043833 
   74600    987.24273   -106.26234   0.89327797   -105.36907    10973.242    4.3207731    4.3207731    4.3207731    10973.242   -7984.4086   -19029.528    59933.661   -5212.1126   -651.47816    2741.1895    80.664862 
   74700    737.78903   -106.04738   0.66756701   -105.37981   -917.43458    4.3148915    4.3148915    4.3148915   -917.43458   -13226.563    -18927.55    29401.809    19354.446    4902.4637   -619.52331    80.335896 
   74800    1296.8951   -106.54711     1.173458   -105.37366   -19738.605    4.3253679    4.3253679    4.3253679   -19738.605   -26192.306   -22748.534   -10274.976   -6800.4106   -10931.663    10055.597    80.922473 
   74900    758.80431   -106.06735   0.68658209   -105.38077    1500.1493    4.3184037    4.3184037    4.3184037    1500.1493   -14110.504   -30249.398     48860.35    20358.918   -3672.9994    1832.1392    80.532231 
   75000    893.81535   -106.18247   0.80874291   -105.37372    23557.432    4.3157801    4.3157801    4.3157801    23557.432    10801.344   -15151.026    75021.977   -534.76468   -4439.8453   -3762.9056    80.385537 
   75100    778.04785   -106.08038   0.70399405   -105.37639   -6567.9482    4.3212706    4.3212706    4.3212706   -6567.9482   -17794.743   -42706.967    40797.866    14448.263    12311.946    9424.9584    80.692724 
   75200     933.3913   -106.22479   0.84455206   -105.38024   -2916.4556    4.3187875    4.3187875    4.3187875   -2916.4556   -21813.606   -14486.725    27550.964      7988.63    2486.8883   -7712.4545    80.553704 
   75300    1226.1486   -106.48671     1.109445   -105.37726   -11324.202    4.3256309    4.3256309    4.3256309   -11324.202   -2660.9878   -19340.321   -11971.299     612.6499   -15329.788     17646.45    80.937238 
   75400    605.62199   -105.92383    0.5479795   -105.37585    6177.5102    4.3233577    4.3233577    4.3233577    6177.5102   -12452.132   -26015.399    57000.062    17742.989    1693.2599    138.29334    80.809704 
   75500    733.93732   -106.03063   0.66408191   -105.36655    17810.458    4.3211085    4.3211085    4.3211085    17810.458   -15639.878    4437.3796    64633.871   -6588.3424   -13968.688    6675.8047    80.683643 
   75600    854.75567    -106.1472    0.7734009    -105.3738   -11569.435    4.3244002    4.3244002    4.3244002   -11569.435   -20694.342   -27258.053    13244.091    15454.974    12633.068    3980.3692    80.868172 
   75700    1298.6565    -106.5463    1.1750517   -105.37125   -4471.3245    4.3129688    4.3129688    4.3129688   -4471.3245   -1601.5854   -9903.4465   -1908.9416   -104.83971   -7181.1205    -5113.731    80.228552 
   75800    898.65829   -106.19004   0.81312491   -105.37692   -5989.4667    4.3199176    4.3199176    4.3199176   -5989.4667   -20135.286   -16660.351    18827.237    6158.6625   -8544.4977     9456.592    80.616952 
   75900    445.60468   -105.77899   0.40319248   -105.37579    14343.628    4.3194239    4.3194239    4.3194239    14343.628   -10548.508    -22149.39    75728.783    10642.427   -2519.8601   -200.13477    80.589316 
   76000    1189.5186   -106.44311    1.0763014   -105.36681   -12516.169    4.3196741    4.3196741    4.3196741   -12516.169   -14662.993   -14183.573   -8701.9409   -2797.5314   -10078.204    2597.3218    80.603323 
   76100     1141.689   -106.39438    1.0330242   -105.36136   -4192.1869     4.320079     4.320079     4.320079   -4192.1869   -4364.8331   -19846.619    11634.891    13802.167    2059.5144    4444.1158    80.625993 
   76200    532.28559    -105.8433   0.48162318   -105.36168    480.85192    4.3209326    4.3209326    4.3209326    480.85192   -22700.902   -18178.728    42322.185   -5850.8352    960.31767    12783.448    80.673794 
   76300    1022.2205   -106.28396   0.92492658   -105.35903   -8919.9273    4.3175535    4.3175535    4.3175535   -8919.9273   -33423.997    -3740.571    10404.786    2323.2433   -378.42091   -5500.3841    80.484676 
   76400    1225.6814   -106.47177    1.1090223   -105.36275   -2302.9923    4.3157237    4.3157237    4.3157237   -2302.9923   -3030.9404   -14922.813    11044.776     3236.789    8976.1476    2709.2784    80.382387 
   76500    646.66044   -105.96502   0.58511195   -105.37991   -1597.2022    4.3217843    4.3217843    4.3217843   -1597.2022   -20473.906   -12697.288    28379.587   -11753.647   -14341.229   -4973.5728    80.721506 
   76600    874.91722   -106.16531   0.79164348   -105.37367    11283.212    4.3185827    4.3185827    4.3185827    11283.212    -23195.93   -7667.0515    64712.619    1917.0076    3743.0319     1581.246    80.542242 
   76700    770.31892   -106.07623   0.69700075   -105.37923    6431.3798    4.3163031    4.3163031    4.3163031    6431.3798   -15500.999   -16092.462      50887.6   -8926.6251   -4686.3822    9188.6265    80.414769 
   76800    961.01746   -106.24208    0.8695488   -105.37254   -18833.886    4.3238036    4.3238036    4.3238036   -18833.886   -24531.957   -5301.6632   -26668.038   -2860.3868    13849.793    324.86647    80.834711 
   76900    923.77871   -106.19713   0.83585439   -105.36127   -1411.7994    4.3218784    4.3218784    4.3218784   -1411.7994   -6375.5722   -17215.658    19355.832   -4549.5656   -7505.3398    3344.2654    80.726781 
   77000    661.35096   -105.96106   0.59840424   -105.36266   -2418.8706     4.316888     4.316888     4.316888   -2418.8706   -26241.888   -20796.967    39782.243   -7113.2158    145.99578   -387.80937    80.447461 
   77100    1283.2353    -106.5206    1.1610983    -105.3595   -13120.351    4.3244314    4.3244314    4.3244314   -13120.351   -23468.737   -13192.868   -2699.4478     4301.443   -5174.4305   -6346.7669    80.869922 
   77200    1134.1393   -106.38806     1.026193   -105.36186   -591.07342    4.3145448    4.3145448    4.3145448   -591.07342     3721.925    -26966.74    21471.595   -7593.0219   -454.77716    945.26572    80.316532 
   77300     591.9371   -105.91643   0.53559712   -105.38084    -22646.78     4.325093     4.325093     4.325093    -22646.78   -36690.122    -20793.61   -10456.608    2086.2641    8214.5092    3438.5497    80.907045 
   77400    786.12995   -106.08529    0.7113069   -105.37398    28833.308    4.3165505    4.3165505    4.3165505    28833.308   -396.13801    1336.8027    85559.259    1507.8778   -4912.0834    1137.7513    80.428597 
   77500    843.11256   -106.14294   0.76286597   -105.38008     5495.655    4.3225147    4.3225147    4.3225147     5495.655    2514.1485   -24804.852    38777.669   -7884.0246   -4857.1606    4337.2729    80.762441 
   77600     1172.869   -106.42907    1.0612365   -105.36783   -20006.483     4.327826     4.327826     4.327826   -20006.483   -27805.147   -19574.814   -12639.487    4754.8204    5355.5002   -9848.4519     81.06052 
   77700    786.25191   -106.07459   0.71141725   -105.36317    7960.6845    4.3133357    4.3133357    4.3133357    7960.6845    11148.274    1871.1861    10862.593   -2685.9098    4560.0905    4770.4544    80.249029 
   77800    525.68265   -105.84807   0.47564871   -105.37242     12907.49    4.3171037    4.3171037    4.3171037     12907.49   -4823.0295   -15525.853    59071.352   -1417.0613   -7535.9659   -10724.607    80.459524 
   77900     1085.076   -106.35437   0.98179954   -105.37257    4810.7365     4.328386     4.328386     4.328386    4810.7365   -18908.008   -24066.368    57406.586    1920.1465    9680.3806    4113.1019    81.091991 
   78000    822.28466   -106.12119   0.74402044   -105.37717   -4070.0072    4.3117278    4.3117278    4.3117278   -4070.0072    11495.556   -3211.4534   -20494.125    -5357.307   -12266.764    4286.5645    80.159315 
   78100    974.11896   -106.25984    0.8814033   -105.37844   -10745.341     4.313884     4.313884     4.313884   -10745.341   -12533.886   -12376.603   -7325.5336    6400.9044    11950.361   -3250.4507    80.279633 
   78200    933.87391   -106.21228   0.84498874   -105.36729    11282.485    4.3276865    4.3276865    4.3276865    11282.485   -6549.7917   -28422.378    68819.624   -1498.7877    3817.6308    2252.9195    81.052682 
   78300    581.85553   -105.89738   0.52647511    -105.3709    7768.5182    4.3209982    4.3209982    4.3209982    7768.5182   -1868.0885   -17298.278    42471.921    3873.5547   -8651.7462   -10740.144     80.67747 
   78400    1132.3501   -106.38633    1.0245741   -105.36176     4022.379    4.3141376    4.3141376    4.3141376     4022.379   -963.33761   -6387.6894    19418.164    8604.3078    15027.691    4926.3018    80.293794 
   78500    1039.0226   -106.31072   0.94012951   -105.37059   -21659.102    4.3251629    4.3251629    4.3251629   -21659.102    -11455.15   -32621.596    -20900.56   -1945.4818   -18539.344    -2139.129     80.91097 
   78600    885.90269   -106.17258   0.80158337     -105.371    6893.9089    4.3239498    4.3239498    4.3239498    6893.9089   -1919.9014   -23561.627    46163.255    9281.2267    8834.1257    6481.9364    80.842911 
   78700    932.24251   -106.20658   0.84351261   -105.36307    17759.852    4.3182253    4.3182253    4.3182253    17759.852   -2955.8167   -3625.9579     59861.33     2637.348   -14223.082    -648.9009    80.522247 
   78800    842.19349     -106.125   0.76203437   -105.36296   -20744.462    4.3150675    4.3150675    4.3150675   -20744.462   -19285.771   -24659.411   -18288.204    3566.2596    1465.7707    2800.5358    80.345726 
   78900    883.59763   -106.16098    0.7994977   -105.36148   -6669.2444     4.327159     4.327159     4.327159   -6669.2444   -13214.402   -13289.451    6496.1196    5240.4595   -1504.1907   -2762.8075    81.023045 
   79000    824.47887   -106.10701    0.7460058     -105.361    10612.472    4.3214785    4.3214785    4.3214785    10612.472    3439.1965   -12578.491     40976.71   -5334.3552   -6330.8707     724.5949    80.704371 
   79100    974.93752   -106.24443   0.88214396   -105.36228    -1428.091     4.314352     4.314352     4.314352    -1428.091   -10491.731   -28088.582     34296.04     12988.24   -7640.6969     2121.183    80.305766 
   79200    992.32195   -106.25909   0.89787376   -105.36122    162.20265    4.3234856    4.3234856    4.3234856    162.20265   -2145.8082   -9997.1392    12629.555   -4333.8836   -2718.9354    8845.1653    80.816872 
   79300    512.59225   -105.83385   0.46380424   -105.37004    8622.6388    4.3187852    4.3187852    4.3187852    8622.6388   -4209.9569   -19267.371    49345.245    3380.2595   -10941.165   -2889.3945    80.553576 
   79400     1211.889   -106.46123    1.0965426   -105.36468    4092.4861    4.3151188    4.3151188    4.3151188    4092.4861    1184.6608   -27216.172    38308.969    9910.7588    8558.2617    7588.9298    80.348592 
   79500    1044.0729   -106.30668    0.9446991   -105.36198   -10257.875    4.3227183    4.3227183    4.3227183   -10257.875   -16154.364    -22542.88    7923.6195   -6751.6766    2270.4738    -3368.947    80.773853 
   79600    439.56966   -105.75705   0.39773186   -105.35931    3728.5203    4.3192153    4.3192153    4.3192153    3728.5203   -23896.922   -15053.319    50135.802    10107.384   -5193.3084     7657.409    80.577645 
   79700    1274.8976   -106.50352    1.1535541   -105.34996    -6686.091    4.3139561    4.3139561    4.3139561    -6686.091   -8275.6246   -28893.175    17110.527    -6968.012    10792.854   -3218.9602     80.28366 
   79800    992.46686   -106.25277   0.89800487   -105.35476   -1775.9998    4.3213363    4.3213363    4.3213363   -1775.9998    8081.9105   -17921.786    4511.8764    3407.7263   -18771.596    4019.9558    80.696404 
   79900    606.62214   -105.90683   0.54888446   -105.35795   -18152.871    4.3236196    4.3236196    4.3236196   -18152.871   -24099.828   -35036.437    4677.6528   -3072.2375   -2647.9881    5840.7356    80.824389 
   80000    1022.3246   -106.27924    0.9250208   -105.35422    3984.8264    4.3124305    4.3124305    4.3124305    3984.8264    2944.2097   -11035.696    20045.966   -11407.309   -13076.109   -3872.4338    80.198514 
   80100     1020.827   -106.28709   0.92366573   -105.36343   -14009.378    4.3239014    4.3239014    4.3239014   -14009.378   -6002.0705   -27081.218   -8944.8443    7313.4822   -4464.0918    14741.989    80.840191 
   80200    593.78579   -105.90665   0.53726986   -105.36938    15041.519    4.3158743    4.3158743    4.3158743    15041.519   -10704.565   -26480.345    82309.466   -16469.308      7715.18   -7894.1261    80.390804 
   80300    1077.6766   -106.33992    0.9751044   -105.36482   -3782.2181    4.3192196    4.3192196    4.3192196   -3782.2181    -15410.37   -8413.3931    12477.109    3295.3275    2719.0784    5970.4017    80.577886 
   80400    843.13576   -106.13364   0.76288695   -105.37076   -22470.354    4.3235566    4.3235566    4.3235566   -22470.354   -23647.367   -40060.151   -3703.5443    -4890.113   -13278.066    517.97704    80.820854 
   80500    782.95096   -106.07288   0.70843048   -105.36445    7837.6245    4.3183651    4.3183651    4.3183651    7837.6245   -2151.7885   -26613.074    52277.736   -9613.1852    1497.3934    1817.3943     80.53007 
   80600    1188.4846   -106.42859    1.0753659   -105.35322   -3896.5612    4.3168453    4.3168453    4.3168453   -3896.5612   -10414.692   -9689.5987    8414.6074    280.87035   -8067.1562   -3906.6376    80.445072 
   80700    487.16344   -105.80168   0.44079572   -105.36089   -9955.2028    4.3260517    4.3260517    4.3260517   -9955.2028   -8542.7519    -49169.27    27846.414   -14627.409   -1202.1907    4544.9468    80.960859 
   80800     1208.532   -106.44531    1.0935052   -105.35181    217.40611    4.3211215    4.3211215    4.3211215    217.40611     18112.28   -14516.766   -2943.2962    342.70581     6984.922   -7858.1316    80.684375 
   80900    1131.6435   -106.37854    1.0239348   -105.35461   -325.79252    4.3174977    4.3174977    4.3174977   -325.79252    18685.906    -19557.62   -105.66274   -8474.3771   -815.05749    1352.9334    80.481555 
   81000    465.15715   -105.78662   0.42088396   -105.36573    1820.4545    4.3238488    4.3238488    4.3238488    1820.4545   -2257.3983   -26514.696    34233.458   -7198.8385    6951.4507   -2311.5866    80.837244 
   81100    1047.1742   -106.30852   0.94750523   -105.36102   -9556.3945    4.3280924    4.3280924    4.3280924   -9556.3945   -16088.182   -10957.536   -1623.4656     4611.083    1508.5978    339.71468    81.075489 
   81200    1142.2323   -106.39524    1.0335158   -105.36173   -11554.307    4.3199408    4.3199408    4.3199408   -11554.307   -12212.774   -24328.621    1878.4746   -16504.639   -9076.4866    657.38988    80.618254 
   81300    549.28719   -105.86793   0.49700659   -105.37093    4879.4606    4.3214389    4.3214389    4.3214389    4879.4606    7464.0472   -22839.916     30014.25   -2303.8563    4117.3028    -932.5149    80.702152 
   81400    1055.8212   -106.32039   0.95532919   -105.36506    -2826.804    4.3218865    4.3218865    4.3218865    -2826.804   -23608.919   -4233.3428     19361.85   -3941.4204   -18861.652    -759.9891    80.727236 
   81500    813.72215   -106.10265    0.7362729   -105.36638    -10803.24    4.3274482    4.3274482    4.3274482    -10803.24    13787.724   -35180.771   -11016.673   -6269.0328    2821.9764   -8358.6367    81.039289 
   81600    857.26642    -106.1367   0.77567268   -105.36103    9680.7895    4.3193188    4.3193188    4.3193188    9680.7895    925.81501   -17362.565    45479.118   -1012.3526    1469.4015    -5323.569    80.583437 
   81700     1177.361   -106.42138     1.065301   -105.35608    5921.4122    4.3179404    4.3179404    4.3179404    5921.4122    16806.133   -15400.266     16358.37   -3545.5548   -3372.4735    515.96379     80.50631 
   81800    701.09991   -105.99907   0.63436993    -105.3647   -28286.148    4.3302138    4.3302138    4.3302138   -28286.148   -35624.149   -38506.664   -10727.632    3383.4038    11424.601   -10622.233    81.194763 
   81900    820.47484   -106.10697   0.74238288   -105.36459    2976.6523    4.3179018    4.3179018    4.3179018    2976.6523   -9581.0082   -18996.617    37507.582   -2132.9362   -13432.949    6426.0848    80.504154 
   82000    1093.1839   -106.35633   0.98913578   -105.36719    4941.6287    4.3169291    4.3169291    4.3169291    4941.6287   -3251.2072   -23825.488    41901.581    720.33393   -909.53249   -7817.0131    80.449761 
   82100     711.1872   -106.02063   0.64349712   -105.37713   -27847.044    4.3275486    4.3275486    4.3275486   -27847.044   -25205.358   -32487.012   -25848.763    3270.4707    12643.431   -6407.3068     81.04493 
   82200    1157.3924   -106.41476     1.047233   -105.36753    1867.0113    4.3172042    4.3172042    4.3172042    1867.0113   -22506.593   -9654.3094    37761.936   -1144.2016    285.50432    1284.2688    80.465141 
   82300    697.88193   -106.00181   0.63145824   -105.37036    10080.085    4.3225869    4.3225869    4.3225869    10080.085    2336.0195   -12524.214     40428.45    1396.9495    11787.553   -9108.4648    80.766487 
   82400    750.86367   -106.04625   0.67939722   -105.36685   -3990.1754    4.3235463    4.3235463    4.3235463   -3990.1754   -4575.3744   -26048.516    18653.364    3698.2435     4942.547     5664.562     80.82028 
   82500    1335.5579   -106.56442    1.2084408   -105.35598    4095.5805    4.3175304    4.3175304    4.3175304    4095.5805    6557.1751   -15061.069    20790.635    833.65976   -7986.4495    3771.4492    80.483382 
   82600    591.60873   -105.90087   0.53530001   -105.36557    -2190.497    4.3200575    4.3200575    4.3200575    -2190.497   -25171.664   -21394.688    39994.861    4992.3067    5466.0692   -1469.3278    80.624789 
   82700    800.32009   -106.08782   0.72414643   -105.36367   -10040.799    4.3251212    4.3251212    4.3251212   -10040.799   -5993.4121   -29144.877    5015.8914   -1810.3595   -3144.2066    624.66133    80.908628 
   82800    1447.4633   -106.66389    1.3096952    -105.3542    2162.2019    4.3133675    4.3133675    4.3133675    2162.2019   -6274.3052   -20076.964    32837.875    6233.2834     5233.093   -2090.2539    80.250804 
   82900    617.32927   -105.93586   0.55857249   -105.37728   -20474.556    4.3285921    4.3285921    4.3285921   -20474.556   -27657.151   -37259.518    3492.9997     2050.187    7430.8149   -752.94191    81.103572 
   83000    823.95717   -106.11942   0.74553376   -105.37389    4202.7161    4.3249936    4.3249936    4.3249936    4202.7161     -24482.2   -17447.227    54537.575   -2130.3939    -12255.09      6370.45    80.901468 
   83100    1083.4803   -106.34778   0.98035575   -105.36743    13616.298    4.3121117    4.3121117    4.3121117    13616.298    14097.949   -10943.622    37694.568    5964.5767   -2780.9292   -6852.8818    80.180732 
   83200    734.31183   -106.03638   0.66442078   -105.37196    -5139.512     4.323314     4.323314     4.323314    -5139.512   -6441.2919   -27070.337    18093.093   -4506.0184    5485.4433    8901.9805    80.807254 
   83300    889.75674     -106.166    0.8050706   -105.36093    10308.607    4.3267506    4.3267506    4.3267506    10308.607   -1270.2001   -18165.535    50361.557    -6313.944   -9230.4543   -11349.699    81.000105 
   83400    1064.7667    -106.3218    0.9634233   -105.35838   -6321.3033     4.314872     4.314872     4.314872   -6321.3033    6191.4763   -19886.508   -5268.8782   -5.1019502    12343.895    5525.1864    80.334805 
   83500    614.35734   -105.92279   0.55588343    -105.3669   -20739.528    4.3258697    4.3258697    4.3258697   -20739.528   -3167.4158   -37447.727    -21603.44   -10374.442   -231.42602    1739.1816    80.950641 
   83600     1004.299   -106.26508   0.90871087   -105.35637    9741.3691    4.3300743    4.3300743    4.3300743    9741.3691   -16504.911   -19613.414    65342.432    1786.0538    510.69741   -25.304694    81.186916 
   83700    1052.5894   -106.31195   0.95240501   -105.35955   -25590.179    4.3312798    4.3312798    4.3312798   -25590.179   -15501.449   -53427.194   -7841.8943   -7050.7084   -3657.0192    5456.7228    81.254744 
   83800    694.15965   -105.98465   0.62809024   -105.35656    20773.329    4.3108104    4.3108104    4.3108104    20773.329    1615.5667    -13672.88      74377.3   -5129.3564   -2443.7276     -1948.52    80.108162 
   83900    926.21171   -106.19668   0.83805582   -105.35862   -16685.178    4.3343188    4.3343188    4.3343188   -16685.178    -12990.65   -28424.524   -8640.3611     5965.054   -9670.0304    1752.1157    81.425895 
   84000    837.25366   -106.11583   0.75756471   -105.35826   -6735.9024     4.324124     4.324124     4.324124   -6735.9024   -7010.2159   -38345.232    25147.741   -9543.3854    7197.6454    1618.8257    80.852678 
   84100    964.77175   -106.22773   0.87294575   -105.35478    16814.274    4.3087666    4.3087666    4.3087666    16814.274   -3126.0392   -1676.7621    55245.623    7961.3542   -7264.6066   -903.25184    79.994276 
   84200     1154.688   -106.40003     1.044786   -105.35524   -18331.453    4.3347928    4.3347928    4.3347928   -18331.453   -26837.688   -33368.693     5212.022   -1365.9638    10343.302    2126.3793    81.452614 
   84300    428.14286   -105.74301   0.38739266   -105.35562    16091.885    4.3239586    4.3239586    4.3239586    16091.885   -6249.1361   -25087.896    79612.688   -3258.5383    1377.2427    550.06755      80.8434 
   84400    1003.0696   -106.26202   0.90759848   -105.35442     4180.077    4.3176173    4.3176173    4.3176173     4180.077   -6586.6452   -3827.6573    22954.534    7727.4697    1288.3821    56.322023    80.488241 
   84500    1268.6847   -106.50477    1.1479326   -105.35684   -12404.729    4.3273678    4.3273678    4.3273678   -12404.729   -20951.797   -34887.844    18625.453    -7461.923    -392.8277    11646.028    81.034776 
   84600    447.44326   -105.77029   0.40485606   -105.36543   -1044.1958    4.3248578    4.3248578    4.3248578   -1044.1958   -4686.6339   -20966.937    22520.983    3472.7894   -11102.605    8966.8021     80.89385 
   84700    941.50124   -106.21008   0.85189011   -105.35819    15780.139    4.3189385    4.3189385    4.3189385    15780.139    535.25921   -15265.451     62070.61    1347.3838    5373.2666   -5279.6414    80.562155 
   84800    988.43658   -106.26358   0.89435819   -105.36922   -18471.173    4.3245615    4.3245615    4.3245615   -18471.173   -29788.969   -25145.078   -479.47338    3152.7286    5033.2808    1273.2887    80.877224 
   84900    849.41749   -106.14163   0.76857079   -105.37306    1434.3785    4.3144489    4.3144489    4.3144489    1434.3785   -13645.077   -8578.6783    26526.891    6756.9695    -804.1366   -7423.8143    80.311174 
   85000    1161.6691   -106.41199    1.0511026   -105.36089   -9255.0169    4.3268518    4.3268518    4.3268518   -9255.0169   -16654.891   -20205.942     9095.783    2538.9619    4178.8665   -5578.2875    81.005792 
   85100    537.76364   -105.84517   0.48657984   -105.35859    1184.7358    4.3221848    4.3221848    4.3221848    1184.7358   -30121.575    6772.4596    26903.323    10333.535    -10453.78    3443.3679    80.743953 
   85200    998.14041   -106.25698   0.90313842   -105.35384   -7671.1894    4.3117153    4.3117153    4.3117153   -7671.1894   -4991.8491   -19731.909      1710.19   -4131.6673   -3842.9993   -9534.0819    80.158621 
   85300    934.76079   -106.20399   0.84579121    -105.3582    6371.2705    4.3230676    4.3230676    4.3230676    6371.2705   -32833.129   -54.102659    52001.043    6535.2918   -4204.4345   -1905.0831    80.793435 
   85400    786.93118   -106.07087   0.71203187   -105.35884   -25843.796    4.3282032    4.3282032    4.3282032   -25843.796   -21251.692   -22524.979   -33754.716    -850.5445   -14829.293     7718.718    81.081712 
   85500    978.21122   -106.23496   0.88510607   -105.34986    7257.1314    4.3068369    4.3068369    4.3068369    7257.1314    8635.1646    5941.2365    7194.9931   -3171.2438    11294.982    -15971.93    79.886845 
   85600     870.2284   -106.14409   0.78740094   -105.35669     5263.577     4.320872     4.320872     4.320872     5263.577   -19477.301    9821.5045    25446.527    6040.7024   -7992.8322    15161.933      80.6704 
   85700    697.60771   -105.99093   0.63121012   -105.35972   -25611.469    4.3294178    4.3294178    4.3294178   -25611.469   -27643.886   -30292.771   -18897.751   -1534.0262    133.86725   -12277.589    81.149992 
   85800    1175.4664   -106.41246    1.0635867   -105.34888    22915.458    4.3091687    4.3091687    4.3091687    22915.458     2445.507    12570.633    53730.233    2579.6204    1815.8014   -6983.9539    80.016673 
   85900    879.21635   -106.15844   0.79553343    -105.3629   -4843.9494    4.3252216    4.3252216    4.3252216   -4843.9494   -22773.403    217.47618    8024.0786    5600.3004   -7588.2059     -4630.92    80.914266 
   86000    719.59443   -106.01664   0.65110416   -105.36554   -28171.703    4.3297803    4.3297803    4.3297803   -28171.703   -27166.884   -26468.116    -30880.11    1810.2201    1586.3119   -10141.596     81.17038 
   86100    1000.3374   -106.25899   0.90512631   -105.35386    21026.529     4.307815     4.307815     4.307815    21026.529   -15464.312    4334.2596    74209.639   -2816.1226   -857.91456    543.27833    79.941284 
   86200    812.53026   -106.10296   0.73519446   -105.36776    -10337.73    4.3227171    4.3227171    4.3227171    -10337.73    -6115.271   -17119.552    -7778.368    3089.0871    3294.7654   -14602.008    80.773784 
   86300    1085.0769   -106.34056    0.9818004   -105.35876   -19640.078    4.3285281    4.3285281    4.3285281   -19640.078   -14201.956   -29039.571   -15678.708   -6546.6115   -2008.1551   -12649.538    81.099975 
   86400    809.81755   -106.08926   0.73273994   -105.35652    12179.686    4.3163334    4.3163334    4.3163334    12179.686     -14368.1    15179.795    35727.363   -2345.6821   -158.70958    5388.9161    80.416461 
   86500     590.2249    -105.8973    0.5340479   -105.36325   -1427.0203    4.3174868    4.3174868    4.3174868   -1427.0203    4274.9454   -23967.627    15411.621   -5778.4485   -2778.2832   -19829.402    80.480945 
   86600    1230.7312   -106.47035    1.1135914   -105.35676    1851.0402     4.323802     4.323802     4.323802    1851.0402   -13850.153   -11531.263    30934.537   -6701.9289    -3027.518    12993.025     80.83462 
   86700    900.15807   -106.17042   0.81448193   -105.35594    1533.6336    4.3213691    4.3213691    4.3213691    1533.6336   -261.78906   -2511.9427    7374.6325     -2792.47    4868.6754   -19491.342    80.698246 
   86800    811.43501   -106.08429   0.73420345   -105.35009   -616.92235    4.3096269    4.3096269    4.3096269   -616.92235   -8691.9652   -20813.623    27654.821   -2748.1316   -1291.7768   -12709.877      80.0422 
   86900    916.94849   -106.18174   0.82967426   -105.35207   -4147.6378    4.3280402    4.3280402    4.3280402   -4147.6378   -36928.922    7394.5628    17091.446   -3187.2664    9542.6574    6830.5539    81.072553 
   87000    998.52091   -106.25529    0.9034827    -105.3518   -1732.2796    4.3225289    4.3225289    4.3225289   -1732.2796   -4353.4046   -18408.123    17564.688   -5000.5201    4429.2122   -27579.523    80.763236 
   87100    1028.4376   -106.28162   0.93055192   -105.35107    5688.9693    4.3132187    4.3132187    4.3132187    5688.9693   -16628.364    15332.325    18362.947   -32.853524   -112.36098    7533.7486    80.242497 
   87200    756.52587   -106.03851   0.68452051   -105.35399    8654.0856    4.3204322    4.3204322    4.3204322    8654.0856   -27495.287    8141.7027    45315.841    1784.3221    8463.7607   -9883.2673    80.645769 
   87300    836.40734   -106.11117   0.75679894   -105.35437    -16328.64     4.328213     4.328213     4.328213    -16328.64   -12727.213   -30206.606   -6052.1019   -7305.9728   -5876.5252   -15728.763    81.082266 
   87400    1157.5682   -106.39489     1.047392   -105.34749    10699.185    4.3142215    4.3142215    4.3142215    10699.185   -6699.7354    12021.892    26775.398    4577.2473    2666.8016    1436.0099    80.298479 
   87500    967.41086   -106.22737   0.87533368   -105.35203    6746.6249     4.312131     4.312131     4.312131    6746.6249    4809.3967   -17699.307    33129.785    2589.8524     1176.318   -16734.701    80.181809 
   87600    705.21834   -105.99136   0.63809638   -105.35326   -18669.444    4.3321236    4.3321236    4.3321236   -18669.444   -19012.768   -22935.839   -14059.724   -5397.0363    2909.5811   -5757.8836    81.302241 
   87700    874.25154   -106.13769   0.79104117   -105.34665    11208.632     4.316804     4.316804     4.316804    11208.632   -12846.195    11634.611    34837.479    9973.0072    8657.1634   -2420.8222    80.442767 
   87800    1149.3005   -106.38722    1.0399113   -105.34731    775.06516    4.3133649    4.3133649    4.3133649    775.06516    11967.174   -17825.287     8183.308   -3103.6432    9142.4246   -22196.775    80.250659 
   87900    714.20824   -105.99609   0.64623062   -105.34986    14218.814    4.3237369    4.3237369    4.3237369    14218.814   -11375.928    8573.0396     45459.33    4197.4708    13163.636    2666.7842    80.830966 
   88000    896.69776   -106.15765   0.81135097    -105.3463    -19314.74    4.3240167    4.3240167    4.3240167    -19314.74   -31173.907   -16956.659   -9813.6529   -327.01403    8838.3471   -8494.8934    80.846661 
   88100    776.01171   -106.05132   0.70215171   -105.34917   -5400.9766    4.3180834    4.3180834    4.3180834   -5400.9766   -6342.2995   -25245.109    15384.478    419.68755      145.882   -7843.3964    80.514313 
   88200    1056.4639   -106.30864   0.95591075   -105.35273    16930.854    4.3105206    4.3105206    4.3105206    16930.854    6281.2403    22467.592    22043.731    7314.8706    3490.1232    10482.342    80.092009 
   88300    906.43757   -106.17627   0.82016376   -105.35611   -22451.833    4.3373636    4.3373636    4.3373636   -22451.833   -22363.278   -37888.222   -7103.9986   -7584.5602   -10431.012   -17544.836    81.597618 
   88400    823.65938   -106.09696   0.74526432   -105.35169    6271.2775    4.3107634    4.3107634    4.3107634    6271.2775    -514.6684   -6549.7953    25878.296    2888.7643    7573.9005    4639.3716    80.105543 
   88500    764.48797   -106.04465   0.69172478   -105.35293    22679.434    4.3023356    4.3023356    4.3023356    22679.434    14764.967    26692.715    26580.618    1981.1149      -3002.6    2387.5707    79.636627 
   88600    1177.8387   -106.41996    1.0657332   -105.35423   -23208.081     4.334013     4.334013     4.334013   -23208.081   -23973.032   -35518.909   -10132.302   -9640.1347    4498.4978   -13796.224    81.408667 
   88700    827.10421   -106.10021   0.74838127   -105.35183    26874.583    4.3144256    4.3144256    4.3144256    26874.583    9033.3091    10820.543    60769.897     880.9402    5560.5987    12345.732    80.309875 
   88800     931.9589   -106.19662     0.843256   -105.35336   -18525.521    4.3203967    4.3203967    4.3203967   -18525.521   -32710.572   -14449.321   -8416.6713   -1690.1182   -1672.3675   -4588.4193    80.643782 
   88900    851.24189   -106.12187   0.77022155   -105.35165    12044.587    4.3193406    4.3193406    4.3193406    12044.587   -22755.323   -9371.8039    68260.887   -12864.906    3552.8355   -4325.0784    80.584656 
   89000    978.91642   -106.24625   0.88574415   -105.36051   -5066.4035    4.3217361    4.3217361    4.3217361   -5066.4035   -11323.533   -6599.8547    2724.1768    23.740605      691.543    7030.5846    80.718808 
   89100    782.12788   -106.06993   0.70768575   -105.36225   -8239.6646    4.3259547    4.3259547    4.3259547   -8239.6646   -27710.745    -19629.65    22621.401   -13910.486    6741.4957    183.06116    80.955417 
   89200     1037.044    -106.2946   0.93833918   -105.35626   -11694.165    4.3223543    4.3223543    4.3223543   -11694.165   -22778.939   -7261.6042   -5041.9506   -6740.8446   -6436.8746   -1660.6593     80.75345 
   89300    563.12898   -105.87088   0.50953093   -105.36135    21446.434    4.3158052    4.3158052    4.3158052    21446.434    6271.6613    27383.941    30683.699   -6533.9213   -2356.0654        10685    80.386939 
   89400    1227.3239   -106.46883    1.1105085   -105.35832   -16039.108    4.3299205    4.3299205    4.3299205   -16039.108   -33116.541    -14855.49   -145.29247   -7351.6319   -1568.3612   -9640.7829    81.178265 
   89500     670.9705   -105.96379   0.60710821   -105.35668    12302.274    4.3262119    4.3262119    4.3262119    12302.274   -2195.5587    15277.419    23824.962    2735.9455   -11234.212    9258.1306    80.969857 
   89600    852.66752   -106.12442   0.77151149   -105.35291   -12553.614    4.3165724    4.3165724    4.3165724   -12553.614   -22822.443   -23707.204    8868.8068   -14596.391    12977.016    5738.3364    80.429821 
   89700    1056.8572   -106.30894   0.95626657   -105.35268   -3566.5352     4.327691     4.327691     4.327691   -3566.5352   -21925.232   -3849.1076    15074.734    9081.2355   -10120.851   -7882.4098    81.052932 
   89800    935.59214   -106.19909   0.84654343   -105.35254    4379.8208    4.3230942    4.3230942    4.3230942    4379.8208   -13939.367    14013.817    13065.013   -6596.5829    4625.4971    7871.3792    80.794925 
   89900    766.30791   -106.04478    0.6933715   -105.35141   -5038.4083    4.3253797    4.3253797    4.3253797   -5038.4083   -37777.055   -19978.718    42640.548   -9371.7941    8306.1539   -7731.5708    80.923136 
   90000    1042.2359   -106.29117   0.94303694   -105.34813   -3348.2761    4.3239764    4.3239764    4.3239764   -3348.2761   -30270.325    12453.137    7772.3598    7770.7795   -7822.2914   -3738.0988    80.844399 
   90100      771.747    -106.0552   0.69829291   -105.35691     18630.12      4.31798      4.31798      4.31798     18630.12   -1487.8962      3935.95    53442.307   -21081.166    14825.884   -759.26157    80.508525 
   90200    1156.0774   -106.40106    1.0460432   -105.35502   -18267.084    4.3334633    4.3334633    4.3334633   -18267.084   -31178.729   -26190.577    2568.0532    2018.9222    -13358.67   -6727.0443    81.377692 
   90300    781.45771   -106.05797   0.70707935   -105.35089    18699.069    4.3158729    4.3158729    4.3158729    18699.069    1625.1493    11428.783    43043.276   -4847.4822    3168.4494    3300.5434    80.390724 
   90400    692.55462   -105.98442   0.62663798   -105.35778    3456.2291    4.3202422    4.3202422    4.3202422    3456.2291   -22357.046   -19588.666    52314.399   -3728.1334    7623.6561    2460.5518     80.63513 
   90500    1327.9943   -106.54818    1.2015971   -105.34659   -11918.898    4.3309567    4.3309567    4.3309567   -11918.898   -18725.612   -22159.658    5128.5745    3580.9166   -3792.5346    4497.2861    81.236562 
   90600    693.92168   -105.97658   0.62787492    -105.3487    26772.252    4.3130424    4.3130424    4.3130424    26772.252   -3945.7076    13964.815    70297.647   -7074.8834    4127.4202    3650.7105    80.232658 
   90700    806.97219   -106.08699    0.7301654   -105.35683   -21463.707    4.3239238    4.3239238    4.3239238   -21463.707   -43165.483   -26192.921    4967.2838    13678.868   -152.62146    7124.4424    80.841453 
   90800    883.57362   -106.15321   0.79947598   -105.35373    15401.893     4.325445     4.325445     4.325445    15401.893   -18337.956   -4617.4151    69161.052   -7090.5316   -1579.0124   -6492.8144      80.9268 
   90900    1017.1515   -106.27738   0.92034007   -105.35704   -16045.671    4.3273986    4.3273986    4.3273986   -16045.671   -35788.964   -6104.5106   -6243.5378    7557.4972     4675.333   -561.66595    81.036504 
   91000    730.31284   -106.01622   0.66080241   -105.35542   -8294.7776    4.3180687    4.3180687    4.3180687   -8294.7776   -38491.311    -13759.53    27366.508    14226.614   -1302.3032   -9781.7821    80.513488 
   91100    1078.1672   -106.32721   0.97554837   -105.35166   -119.85423    4.3180245    4.3180245    4.3180245   -119.85423   -23273.794    10063.699    12850.533   -9401.1846    5552.2606   -5699.5334    80.511018 
   91200    657.09695   -105.95037   0.59455513   -105.35581   -22304.423    4.3373415    4.3373415    4.3373415   -22304.423   -38128.129   -22605.636    -6179.505    22075.381    -933.8777    6256.3826    81.596371 
   91300    1145.9569   -106.38054    1.0368859   -105.34366    2939.0418    4.3151478    4.3151478    4.3151478    2939.0418   -9249.6941   -2127.1757    20193.995    447.83842   -1159.1058   -10285.837    80.350212 
   91400    891.99672   -106.15613   0.80709738   -105.34904     8718.753    4.3184042    4.3184042    4.3184042     8718.753   -6312.8004    8046.9842    24422.075    10097.289   -3094.5087    15347.365    80.532258 
   91500    548.74477   -105.85048    0.4965158   -105.35396   -11406.253    4.3337703    4.3337703    4.3337703   -11406.253   -18677.175   -22322.027    6780.4437    13175.541    223.48999   -8712.0834    81.394987 
   91600    1300.6185   -106.52137     1.176827   -105.34454   -719.81935    4.3207306    4.3207306    4.3207306   -719.81935     4127.439     1018.667   -7305.5641   -5955.6842   -4055.2766    1154.6292    80.662482 
   91700     799.8497   -106.07541   0.72372082   -105.35169    14119.464    4.3160113    4.3160113    4.3160113    14119.464    1068.2873    17334.562    23955.544    16129.852    5482.3524    4913.7949     80.39846 
   91800    647.43139    -105.9418   0.58580953   -105.35599    -11196.58    4.3271656    4.3271656    4.3271656    -11196.58   -25380.882   -4557.0045   -3651.8523   -11062.914   -92.103239   -4776.0877    81.023417 
   91900    1070.9319    -106.3199   0.96900173   -105.35089   -5866.8163    4.3291819    4.3291819    4.3291819   -5866.8163   -33671.112    2751.8533     13318.81    2708.7364     3333.584   -4927.5436     81.13673 
   92000    1018.5654   -106.27295    0.9216194   -105.35133    9328.6934    4.3157595    4.3157595    4.3157595    9328.6934   -4418.7871    13670.661    18734.207    6259.4271    2393.3083    1491.6491    80.384388 
   92100    930.24237   -106.19831   0.84170284   -105.35661   -15718.142    4.3275485    4.3275485    4.3275485   -15718.142   -15990.442   -17093.276   -14070.709   -5242.2875   -5071.3797   -21943.897    81.044929 
   92200    1140.7735   -106.37668    1.0321959   -105.34449   -5794.7609     4.331244     4.331244     4.331244   -5794.7609   -19726.837     589.2959    1753.2581      11384.9   -71.075198    1634.5563     81.25273 
   92300    726.05927   -106.00313   0.65695368   -105.34617    7816.7673    4.3202296    4.3202296    4.3202296    7816.7673    -9714.818     22449.81     10715.31   -3604.3127    444.66009    678.93388    80.634422 
   92400    1055.3634   -106.30286   0.95491494   -105.34794   -1345.9353    4.3248495    4.3248495    4.3248495   -1345.9353    847.01769   -8483.8446    3599.0209   -3030.9634   -2218.3702   -6229.9665    80.893384 
   92500    950.08926   -106.20243   0.85966073   -105.34277    7800.8339    4.3294664    4.3294664    4.3294664    7800.8339   -4570.7845    21069.024    6904.2619   -3244.0205    3745.6239    10957.154     81.15273 
   92600    416.36021   -105.72614   0.37673147   -105.34941   -1929.4586    4.3257357    4.3257357    4.3257357   -1929.4586    10535.897   -26237.078    9912.8048   -13472.653    3670.4355   -15720.904    80.943118 
   92700     1241.736   -106.46593    1.1235488   -105.34238    5061.7385    4.3200677    4.3200677    4.3200677    5061.7385    16402.479   -4387.7453    3170.4814   -4121.1188   -485.69511    5910.8777    80.625356 
   92800    771.45852   -106.04984   0.69803188   -105.35181    11976.915    4.3247749    4.3247749    4.3247749    11976.915    33742.313   -5013.1057    7201.5372    199.35465    3735.3157   -3937.5598    80.889198 
   92900    861.10668   -106.13139   0.77914742   -105.35224   -26728.637    4.3320318    4.3320318    4.3320318   -26728.637   -27466.135   -29264.515   -23455.263   -10910.855   -7923.8808   -12807.454    81.297071 
   93000      1080.39    -106.3208   0.97755958   -105.34325    25018.032    4.3175213    4.3175213    4.3175213    25018.032    33055.901     10925.65    31072.544    2659.3231    5912.2595     2919.866    80.482873 
   93100    846.80302   -106.12189   0.76620516   -105.35568   -18842.491     4.325868     4.325868     4.325868   -18842.491   -14265.367   -14493.952   -27768.153   -7730.2051   -3797.3919   -22791.655    80.950548 
   93200    895.49036   -106.16097    0.8102585   -105.35071   -5410.8058    4.3295358    4.3295358    4.3295358   -5410.8058    16929.754   -24969.528   -8192.6439   -1540.8415    7085.0242   -2551.5746     81.15663 
   93300    1058.1605   -106.30048   0.95744586   -105.34303    8975.8754    4.3168204    4.3168204    4.3168204    8975.8754   -777.59765    34.552478    27670.671   -1767.6804    8562.0755   -9943.9137    80.443683 
   93400     543.6174   -105.85031   0.49187644   -105.35844   -14835.749    4.3258258    4.3258258    4.3258258   -14835.749    -36205.56   -34837.809    26536.121   -10109.518    1485.2667   -17962.722    80.948178 
   93500    1054.6833   -106.30458   0.95429957   -105.35028    10081.463    4.3245008    4.3245008    4.3245008    10081.463    9657.6406   -7127.0951    27713.845    5896.2196    1570.5831    1200.5014     80.87382 
   93600    1156.7616   -106.39795    1.0466622   -105.35129   -20679.489    4.3237633    4.3237633    4.3237633   -20679.489   -21037.748   -23102.731   -17897.989   -13705.307   -6743.1657   -8031.6997    80.832446 
   93700    627.54486   -105.92406   0.56781577   -105.35625   -2089.4411    4.3234671    4.3234671    4.3234671   -2089.4411   -13124.024   -5540.4279    12396.129    5318.8731   -3115.0208   -4738.3061    80.815836 
   93800    1005.0406   -106.25642   0.90938189   -105.34704    981.21835    4.3263023    4.3263023    4.3263023    981.21835    2715.6615   -9363.0451    9591.0387   -6642.6127    7470.5592    18576.957    80.974934 
   93900    746.98284   -106.02276   0.67588578   -105.34687   -5682.2752    4.3290904    4.3290904    4.3290904   -5682.2752   -9480.6772   -20191.798    12625.649   -11950.628    1887.0886   -12104.003    81.131587 
   94000    841.36265   -106.10377   0.76128261   -105.34249    9635.0647    4.3157905    4.3157905    4.3157905    9635.0647    21892.228   -8030.0087    15042.975    7900.2442    8286.6857    15945.575    80.386118 
   94100    823.54974   -106.09321   0.74516511   -105.34804    -2051.736    4.3280965    4.3280965    4.3280965    -2051.736   -9668.3667   -6200.0194     9713.178   -10716.361    8581.7256   -6946.5654    81.075719 
   94200    902.98015   -106.16111   0.81703542   -105.34407   -25726.373    4.3328701    4.3328701    4.3328701   -25726.373   -21800.393   -40824.628   -14554.098   -1192.1379   -4480.2222   -5939.0955    81.344277 
   94300    1070.8599   -106.30658   0.96893655   -105.33764    10003.427    4.3142942    4.3142942    4.3142942    10003.427    30745.561    -7369.831    6634.5524    6905.7763   -4451.1325     7884.133    80.302539 
   94400    1086.2321   -106.32629   0.98284564   -105.34345   -17269.001    4.3284951    4.3284951    4.3284951   -17269.001   -28619.243   -27926.146    4738.3862   -6884.9995   -3530.2121   -20362.242    81.098122 
   94500    731.88896   -106.00864   0.66222851   -105.34642   -13794.891    4.3289223    4.3289223    4.3289223   -13794.891   -3135.7563   -29665.528   -8583.3884    8842.0771   -2514.1614    13701.208    81.122135 
   94600    876.12722   -106.13533   0.79273832   -105.34259     15902.92    4.3191962    4.3191962    4.3191962     15902.92    24346.893   -1216.5633     24578.43    4801.0586    10625.865   -2775.3425    80.576576 
   94700    969.83083    -106.2236   0.87752332   -105.34608   -853.41828    4.3248023    4.3248023    4.3248023   -853.41828    37804.849   -29714.968   -10650.136   -7058.1416   -2842.8158    2768.1722    80.890734 
   94800    801.46997   -106.07633   0.72518687   -105.35114   -6331.3608    4.3207824    4.3207824    4.3207824   -6331.3608    9979.8356   -18114.189   -10859.729    14287.501    4388.3884     15489.06     80.66538 
   94900    991.93004   -106.24475   0.89751914   -105.34723   -7919.1583    4.3254188    4.3254188    4.3254188   -7919.1583   -30363.811    4325.5402    2280.7953   -5666.1497   -6452.4226   -4715.7039    80.925331 
   95000    802.61794   -106.07825   0.72622558   -105.35203   -15269.202    4.3262153    4.3262153    4.3262153   -15269.202    3545.2594   -42913.805   -6439.0612    2791.3782    125.77587    17730.404    80.970043 
   95100    1108.6557    -106.3534    1.0031349   -105.35026    790.45964    4.3223886    4.3223886    4.3223886    790.45964    15671.843   -747.89735   -12552.567    1036.2036    5087.4843    4506.7868    80.755371 
   95200    800.95758   -106.07301   0.72472325   -105.34828    17672.686    4.3260002    4.3260002    4.3260002    17672.686    47219.023   -13973.828    19772.865   -3622.6595    699.24157    4656.6646    80.957968 
   95300    529.22356   -105.83184    0.4788526   -105.35299   -21798.582     4.324141     4.324141     4.324141   -21798.582   -5307.2257    -48431.64    -11656.88    9917.8583    1184.2998    19090.793    80.853634 
   95400    1099.0121   -106.33971   0.99440921    -105.3453    4189.1955     4.320603     4.320603     4.320603    4189.1955   -10499.168    7651.2032    15415.551   -4263.8291   -2618.3319   -4161.3153    80.655333 
   95500    1112.1213   -106.35722    1.0062707   -105.35095   -20699.367    4.3291272    4.3291272    4.3291272   -20699.367   -2013.2858   -39375.386   -20709.429    9125.2666   -2677.5973    9563.2141    81.133657 
   95600     631.9887   -105.92581   0.57183665   -105.35398   -4836.6656    4.3241457    4.3241457    4.3241457   -4836.6656    12190.524   -26210.663   -489.85766    14031.182   -7030.3214    7380.6046    80.853895 
   95700    935.09993    -106.1929   0.84609807    -105.3468    11478.786    4.3219922    4.3219922    4.3219922    11478.786    39193.106   -4117.9495   -638.79706    3871.5357    1887.6277   -7622.3697    80.733158 
   95800     728.2343   -106.01153    0.6589217   -105.35261   -16291.538    4.3302816    4.3302816    4.3302816   -16291.538   -6635.1267    -37426.02   -4813.4663    15821.995    4588.1106    14145.327    81.198578 
   95900    1195.0275   -106.42833     1.081286   -105.34705    373.95879    4.3217706    4.3217706    4.3217706    373.95879    8234.4816   -5785.0302   -1327.5751    -3084.317   -1454.5884   -12991.307     80.72074 
   96000    791.79965   -106.06483   0.71643696   -105.34839    4632.2088    4.3229362    4.3229362    4.3229362    4632.2088    8113.5427   -14142.571    19925.654    1077.8332   -5563.7892    7995.7674    80.786071 
   96100      563.989   -105.86459    0.5103091   -105.35428   -5796.1814    4.3267659    4.3267659    4.3267659   -5796.1814    13061.537   -24634.855   -5815.2263   -3712.3722     -5823.15    -2576.453    81.000967 
   96200    1048.9183   -106.29714   0.94908331   -105.34806    6649.1021     4.324049     4.324049     4.324049    6649.1021    28412.839   -7863.8638   -601.66926   -7342.6992    760.99049   -320.01116    80.848471 
   96300    1028.5359   -106.28279   0.93064087   -105.35214   -8242.0378     4.325387     4.325387     4.325387   -8242.0378    16530.606   -22982.331   -18274.388    14732.993    7760.7053    13147.474    80.923547 
   96400    867.18171   -106.13582   0.78464423   -105.35118   -503.13323    4.3239521    4.3239521    4.3239521   -503.13323    22585.207   -15963.909   -8130.6986    4899.5419   -648.01502   -6956.7927    80.843037 
   96500    821.96731   -106.09214   0.74373329   -105.34841   -6538.9157    4.3283862    4.3283862    4.3283862   -6538.9157    32134.015   -23188.802    -28561.96     76.86496    2028.5466    18238.706       81.092 
   96600     1002.187   -106.25208   0.90679987   -105.34528   -21814.566    4.3241854    4.3241854    4.3241854   -21814.566   -26003.831   -27305.098   -12134.768    12961.137   -8704.6417   -292.88719    80.856126 
   96700    1115.4885   -106.35495    1.0093174   -105.34564   -3280.4366    4.3192345    4.3192345    4.3192345   -3280.4366      29731.3   -19508.711   -20063.899   -15621.031   -7012.6708    9866.3122    80.578717 
   96800     917.5892   -106.17923   0.83025399   -105.34898   -11004.065    4.3337518    4.3337518    4.3337518   -11004.065    20158.476   -42007.528   -11163.142    12503.784    4581.0838    10087.013    81.393949 
   96900    653.25652   -105.94006   0.59108023   -105.34898     7547.149    4.3217809    4.3217809    4.3217809     7547.149    33111.212   -18675.276    8205.5111    474.38763    4691.6399   -1829.6744    80.721319 
   97000     779.7629   -106.05549   0.70554586   -105.34994    2913.8498    4.3173386    4.3173386    4.3173386    2913.8498   -8324.4514   -10504.127    27570.128     955.6875    5719.0935    8082.3593    80.472654 
   97100     1097.573   -106.34386   0.99310716   -105.35075   -19066.771    4.3292069    4.3292069    4.3292069   -19066.771   -29127.858   -40763.625    12691.169    9558.4445   -5830.1527   -3445.7291    81.138138 
   97200     816.2607   -106.08898   0.73856983   -105.35041   -2001.3087    4.3256192    4.3256192    4.3256192   -2001.3087    7372.9674   -11933.341   -1443.5525   -14180.061   -9022.5733   -158.98501    80.936582 
   97300    783.07907    -106.0559    0.7085464   -105.34735    701.36517    4.3144042    4.3144042    4.3144042    701.36517    17126.218   -15307.787    285.66522    13237.969    5182.2335   -1242.2356    80.308679 
   97400    878.33823   -106.14479   0.79473889   -105.35005   -14709.621    4.3292843    4.3292843    4.3292843   -14709.621   -11739.991   -29126.507    -3262.364   -11701.394    360.22061     3519.864    81.142487 
   97500    1068.4036    -106.3134   0.96671405   -105.34668   -15273.512     4.327286     4.327286     4.327286   -15273.512   -777.50071   -12519.642   -32523.392   -158.76311    7442.3081    -4005.809    81.030177 
   97600    728.62363   -106.01102   0.65927397   -105.35174    19578.653    4.3104482    4.3104482    4.3104482    19578.653    25372.641   -15549.318    48912.635    22426.994   -741.55225    4005.5778    80.087973 
   97700    911.82472   -106.18228   0.82503817   -105.35724   -9441.2703    4.3303902    4.3303902    4.3303902   -9441.2703   -3077.4137   -29589.668     4343.271   -15411.117   -4516.1617    -3907.965    81.204684 
   97800     860.5107   -106.12808   0.77860817   -105.34947   -2531.9096    4.3282826    4.3282826    4.3282826   -2531.9096   -16674.009   -17500.638    26578.918    11572.824    655.92593    287.42789    81.086175 
   97900     1025.877   -106.27214   0.92823503   -105.34391   -2387.9937    4.3245501    4.3245501    4.3245501   -2387.9937    8854.3776   -31241.157    15222.798    -5051.331    10935.243   -5391.5984    80.876581 
   98000    1063.1955   -106.30406   0.96200162   -105.34206    4737.1566    4.3235754    4.3235754    4.3235754    4737.1566    31377.672   -18239.499    1073.2971   -2884.2257    3099.6675   -194.95886    80.821912 
   98100    842.82048   -106.11264   0.76260168   -105.35004   -5792.5903    4.3245103    4.3245103    4.3245103   -5792.5903   -9635.4136       -15039    7296.6422    19189.157    15444.176    664.60023    80.874349 
   98200    788.73388   -106.06385   0.71366299   -105.35019    6756.1698    4.3271776    4.3271776    4.3271776    6756.1698    28314.834   -9958.2273     1911.903   -6296.5104   -15371.595    6.6331259    81.024092 
   98300    1063.2971   -106.30823   0.96209357   -105.34614   -953.80072     4.320645     4.320645     4.320645   -953.80072   -1347.5796   -1635.7471    121.92449    19996.641    7518.3064    7848.3502    80.657687 
   98400    685.15072   -105.96927   0.61993877   -105.34933    4930.4198     4.331017     4.331017     4.331017    4930.4198   -13815.727   -3615.8527    32222.839    4359.9026    4738.4709    1213.4362    81.239956 
   98500     1054.078   -106.29891   0.95375197   -105.34516    4224.2223     4.324503     4.324503     4.324503    4224.2223    25593.939   -8997.3707   -3923.9012   -7395.7633   -4273.3773    4704.5589    80.873941 
   98600    594.19378   -105.89385   0.53763902   -105.35621    17454.498    4.3129186    4.3129186    4.3129186    17454.498    15021.817    23100.163    14241.515    11486.105    8487.3187    4590.8017     80.22575 
   98700    971.35257   -106.23612   0.87890022   -105.35722   -2738.8721    4.3321944    4.3321944    4.3321944   -2738.8721    16931.881   -12414.647    -12733.85   -6085.0064   -1605.2901     3396.358    81.306228 
   98800    1178.3637   -106.41632    1.0662082   -105.35011   -14868.746    4.3257181    4.3257181    4.3257181   -14868.746   -21987.579   -13928.875   -8689.7853    7351.3235   -4964.5059   -1185.9186    80.942132 
   98900    803.17559   -106.07568   0.72673015   -105.34895     8306.237    4.3113893    4.3113893    4.3113893     8306.237    -21.41327    13671.575    11268.549    15444.576    12185.137    174.59463    80.140438 
   99000    952.45261   -106.20922   0.86179913   -105.34742   -14777.784    4.3327616    4.3327616    4.3327616   -14777.784    26948.884   -28268.956   -43013.279   -12328.978    586.73268   -66.120294    81.338169 
   99100     872.1994   -106.13541   0.78918434   -105.34623   -11257.449    4.3258083    4.3258083    4.3258083   -11257.449    -6069.506   -10584.752    -17118.09    12878.277    13360.972   -6412.9588    80.947194 
   99200    1038.4051   -106.28368   0.93957072   -105.34411     12655.55    4.3196197    4.3196197    4.3196197     12655.55    27191.826   -4255.7853    15030.611   -320.62864    6011.0864    8183.4219    80.600277 
   99300    906.78979   -106.16824   0.82048245   -105.34775   -1769.8261    4.3223579    4.3223579    4.3223579   -1769.8261    29309.121   -17651.738   -16966.862    1980.9011   -6460.2876    3200.0665    80.753651 
   99400    529.59566   -105.83336   0.47918928   -105.35417     12754.86    4.3245821    4.3245821    4.3245821     12754.86    15579.405   -883.96987    23569.146      24234.5    5754.4625    2758.4259    80.878377 
   99500    1185.2784   -106.41816    1.0724648   -105.34569    -9012.101    4.3319443    4.3319443    4.3319443    -9012.101    478.68151   -18661.638    -8853.347   -5258.6798   -2272.3188    5593.5051    81.292149 
   99600    732.65041   -106.01255   0.66291749   -105.34963    13546.805      4.31274      4.31274      4.31274    13546.805    8596.7932    4964.5192    27079.102    16746.002   -2023.6882    3916.2965    80.215786 
   99700    973.89189   -106.23474   0.88119785   -105.35354    8829.2829     4.321915     4.321915     4.321915    8829.2829    24185.676    9166.7542   -6864.5819    79.260001    7572.7118   -2439.6085     80.72883 
   99800    913.15691   -106.17541   0.82624356   -105.34917   -13907.433    4.3331689    4.3331689    4.3331689   -13907.433    20134.869   -22955.763   -38901.406   -831.86182   -6128.3623   -214.86608    81.361109 
   99900    829.77177   -106.09983   0.75079493   -105.34904    806.27773    4.3183641    4.3183641    4.3183641    806.27773    9216.5421   -13241.658    6443.9486    27219.462    4798.8753   -3187.8252    80.530012 
  100000     1302.785   -106.52339    1.1787872   -105.34461   -3255.1795    4.3246794    4.3246794    4.3246794   -3255.1795    8502.3647   -11315.686   -6952.2168   -5734.5097    19975.417   -1160.7607    80.883838 
Loop time of 22.2209 on 1 procs for 100000 steps with 8 atoms

Pair  time (%) = 7.11832 (32.0343)
Kspce time (%) = 5.34865 (24.0703)
Neigh time (%) = 0 (0)
Comm  time (%) = 1.07534 (4.83932)
Outpt time (%) = 0.026031 (0.117146)
Other time (%) = 8.65259 (38.9389)

Nlocal:    8 ave 8 max 8 min
Histogram: 1 0 0 0 0 0 0 0 0 0
Nghost:    2189 ave 2189 max 2189 min
Histogram: 1 0 0 0 0 0 0 0 0 0
Neighs:    2344 ave 2344 max 2344 min
Histogram: 1 0 0 0 0 0 0 0 0 0

Total # of neighbors = 2344
Ave neighs/atom = 293
Neighbor list builds = 0
Dangerous builds = 0
unfix 20
unfix 21
print "seeds:4537664"
seeds:4537664
