LAMMPS (10 Feb 2015)
# ---- initialize simulations
clear
units metal
dimension 3
boundary p p p
atom_style charge
atom_modify map array
# ---- create atoms
read_data /Users/eugeneragasa/pyflamestk_git/pypospack/tests/tests_integration/workflow/WorkflowLammpsThermalExpansion/param_3101/MgO_NaCl_unit.npt.T400/lammps.structure
  triclinic box = (0 0 0) to (4.2565 4.2565 4.2565) with tilt (0 0 0)
  1 by 1 by 1 MPI processor grid
  reading atoms ...
  8 atoms
# ---- define interatomic potential
include potential.mod
mass 1 24.305
mass 2 15.999

group Mg type 1
4 atoms in group Mg
group O type 2
4 atoms in group O

set group Mg charge 1.61886676565
  4 settings made for charge
set group O charge -1.61886676565
  4 settings made for charge

variable R_cut equal 10.0

pair_style buck/coul/long ${R_cut}
pair_style buck/coul/long 10
pair_coeff 1 1 0.0 0.5 0.0 ${R_cut}
pair_coeff 1 1 0.0 0.5 0.0 10
pair_coeff 1 2 1642.32869573 0.278339228763 0.0 ${R_cut}
pair_coeff 1 2 1642.32869573 0.278339228763 0.0 10
pair_coeff 2 2 10249.6145692 0.172187509684 14.0611166933 ${R_cut}
pair_coeff 2 2 10249.6145692 0.172187509684 14.0611166933 10

kspace_style pppm 1.0e-5

neighbor 1.0 bin
neigh_modify every 1 delay 0 check yes
# ---- define settings
compute eng all pe/atom
compute eatoms all reduce sum c_eng
# ---- run minimization
reset_timestep 0
fix 1 all box/relax iso 0.0 vmax 0.001
thermo 10
thermo_style custom step pe lx ly lz xy xz yz press pxx pyy pzz pxy pxz pyz c_eatoms
min_style cg
minimize 1e-25 1e-25 5000 10000
PPPM initialization ...
  G vector (1/distance) = 0.352512
  grid = 8 8 8
  stencil order = 5
  estimated absolute RMS force accuracy = 3.81673e-05
  estimated relative force accuracy = 2.65057e-06
  using double precision FFTs
  3d grid and FFT values/proc = 3375 512
Neighbor list info ...
  1 neighbor list requests
  update every 1 steps, delay 0 steps, check yes
  master list distance cutoff = 11
Memory usage per processor = 4.06549 Mbytes
Step PotEng Lx Ly Lz Xy Xz Yz Press Pxx Pyy Pzz Pxy Pxz Pyz eatoms 
       0   -105.55076       4.2565       4.2565       4.2565            0            0            0    126453.59    126453.59    126453.59    126453.59 4.0363335e-11 4.044677e-11 1.0723156e-10   -105.55076 
      10   -105.69165     4.299065     4.299065     4.299065            0            0            0    68786.015    68786.015    68786.015    68786.015 -1.0242962e-10 -4.708445e-11 -3.569371e-11   -105.69165 
      20   -105.75532      4.34163      4.34163      4.34163            0            0            0    18126.479    18126.479    18126.479    18126.479 7.5197513e-11 1.703257e-11 -3.0007315e-11   -105.75532 
      27   -105.76066    4.3583247    4.3583247    4.3583247            0            0            0    1.3863117    1.3863117    1.3863117    1.3863117 -6.2572681e-11 -1.3142723e-10 -3.2118437e-11   -105.76066 
Loop time of 0.018816 on 1 procs for 27 steps with 8 atoms

Minimization stats:
  Stopping criterion = linesearch alpha is zero
  Energy initial, next-to-last, final = 
        -105.550764672     -105.760658065     -105.760658065
  Force two-norm initial, final = 18.26 0.000217628
  Force max component initial, final = 18.26 0.000209876
  Final line search alpha, max atom move = 0.25 5.24691e-05
  Iterations, force evaluations = 27 40

Pair  time (%) = 0.00495219 (26.3191)
Kspce time (%) = 0.00296283 (15.7463)
Neigh time (%) = 0 (0)
Comm  time (%) = 0.000535727 (2.84719)
Outpt time (%) = 4.91142e-05 (0.261024)
Other time (%) = 0.0103161 (54.8264)

Nlocal:    8 ave 8 max 8 min
Histogram: 1 0 0 0 0 0 0 0 0 0
Nghost:    2189 ave 2189 max 2189 min
Histogram: 1 0 0 0 0 0 0 0 0 0
Neighs:    2344 ave 2344 max 2344 min
Histogram: 1 0 0 0 0 0 0 0 0 0

Total # of neighbors = 2344
Ave neighs/atom = 293
Neighbor list builds = 0
Dangerous builds = 0
unfix 1
# ---- define output variables ----
variable natoms equal "count(all)"
variable tot_energy equal "c_eatoms"
variable length_x equal "lx"
variable length_y equal "ly"
variable length_z equal "lz"
variable tilt_xy equal "xy"
variable tilt_xz equal "xz"
variable tilt_yz equal "yz"
variable tot_press equal "press"
variable press_xx equal "pxx"
variable press_yy equal "pyy"
variable press_zz equal "pzz"
variable press_xy equal "pxy"
variable press_xz equal "pxz"
variable press_yz equal "pyz"

# ---- output ----
print "pypospack:output_section:begin"
pypospack:output_section:begin
print "tot_energy = ${tot_energy}"
tot_energy = -105.760658064539
print "num_atoms = ${natoms}"
num_atoms = 8
print "xx = ${length_x}"
xx = 4.35832471527479
print "yy = ${length_y}"
yy = 4.35832471527479
print "zz = ${length_z}"
zz = 4.35832471527479
print "xy = ${tilt_xy}"
xy = 0
print "xz = ${tilt_xz}"
xz = 0
print "yz = ${tilt_yz}"
yz = 0
print "tot_press = ${tot_press}"
tot_press = 1.38631174704167
print "pxx = ${press_xx}"
pxx = 1.38631174709188
print "pyy = ${press_yy}"
pyy = 1.38631174731354
print "pzz = ${press_zz}"
pzz = 1.3863117467196
print "pxy = ${press_xy}"
pxy = -6.25726806975275e-11
print "pxz = ${press_xz}"
pxz = -1.31427228854923e-10
print "pyz = ${press_yz}"
pyz = -3.21184365171528e-11
print "pypospack:output_section:done"
pypospack:output_section:done
print "pypospack:lammps_sim:done"
pypospack:lammps_sim:done
#------------------------------------------------------------------------------
# RUN THERMOSTAT
# running using an NPT Nose-Hoover style thermostat
#------------------------------------------------------------------------------
variable tempdamp equal 0.1
variable pressdamp equal 1.0
# set initial velocities
velocity all create 400 6039546 mom yes dist gaussian loop all
# fix for Nose-Hoover style thermostat
fix 20 all npt temp 400 400 0.1 aniso 0.0 0.0 1.0 drag 1.0 couple xyz
variable boxx equal lx
variable boxy equal ly
variable boxz equal lz
variable boxp equal press
variable boxt equal temp
# calculate averages every 10000 steps
reset_timestep 0
fix 21 all ave/time 10 10 100 v_boxx v_boxy v_boxz v_boxp v_boxt file lattice.out
thermo_style custom step temp pe ke etotal press lx ly lz press pxx pyy pzz pxy pxz pyz vol
thermo_modify flush yes
thermo 100
run 100000
PPPM initialization ...
  G vector (1/distance) = 0.351503
  grid = 8 8 8
  stencil order = 5
  estimated absolute RMS force accuracy = 3.99806e-05
  estimated relative force accuracy = 2.7765e-06
  using double precision FFTs
  3d grid and FFT values/proc = 3375 512
Memory usage per processor = 3.06549 Mbytes
Step Temp PotEng KinEng TotEng Press Lx Ly Lz Press Pxx Pyy Pzz Pxy Pxz Pyz Volume 
       0          400   -105.76067   0.36192841   -105.39874    4668.8794    4.3583247    4.3583247    4.3583247    4668.8794    5291.0213     6558.503     2157.114    1317.9404    595.93111   -700.61458    82.786353 
     100    88.585813   -105.42544  0.080154305   -105.34529   -612.71374    4.3818723    4.3818723    4.3818723   -612.71374    2639.3753    6534.9217   -11012.438    1020.8629   -34.913226    3144.9277    84.135474 
     200    307.08444   -105.52878   0.27785646   -105.25092    5786.8816    4.3707745    4.3707745    4.3707745    5786.8816     1824.885    21549.156    -6013.396   -2610.5027   -354.06141   -3943.0153    83.497831 
     300    307.54718   -105.44764   0.27827515   -105.16937    6209.9166    4.3774754    4.3774754    4.3774754    6209.9166    15867.666    12613.503   -9851.4193   -2335.3805   -1629.9773    2150.2858    83.882458 
     400    431.52942   -105.48891   0.39045689   -105.09846   -13400.059    4.3870623    4.3870623    4.3870623   -13400.059   -12334.638   -16542.106   -11323.434    8737.4375     814.7475    1989.4076    84.434786 
     500    410.73099   -105.42649   0.37163804   -105.05485    11607.883    4.3743402    4.3743402    4.3743402    11607.883    6346.6454    42071.949   -13594.945   -3610.8293    554.44515    1260.5912    83.702356 
     600    285.50658   -105.29616   0.25833236   -105.03783   -4645.0937    4.3922752    4.3922752    4.3922752   -4645.0937    9400.5172    -3498.502   -19837.296   -1636.8622   -577.66919    447.55078    84.736129 
     700    444.70821   -105.43042   0.40238134   -105.02804    5722.9448    4.3760992    4.3760992    4.3760992    5722.9448    13068.742    8256.7287   -4156.6366    1866.9096   -2249.5152    -5862.647    83.803369 
     800    527.13657   -105.50795   0.47696424   -105.03099   -7031.8077    4.3865239    4.3865239    4.3865239   -7031.8077    2261.3371    -3252.389   -20104.371    5075.1765    -1966.817    4267.3108    84.403704 
     900    236.07387   -105.25214    0.2136046   -105.03854    1368.3975    4.3827926    4.3827926    4.3827926    1368.3975   -2961.3386    12532.972   -5466.4405    3047.9917    816.00026    1948.6972    84.188495 
    1000    462.50939   -105.45542   0.41848822   -105.03693    3057.9809    4.3819237    4.3819237    4.3819237    3057.9809    16252.078    8045.0357   -15123.171   -8883.2695    4036.2851     4522.782    84.138438 
    1100    322.24949   -105.32797   0.29157811   -105.03639    -8545.684    4.3880241    4.3880241    4.3880241    -8545.684    10679.847   -12649.741   -23667.159    5376.2256    1859.6396    1489.8387    84.490334 
    1200    498.00626   -105.48322   0.45060653   -105.03261     1309.158    4.3751777    4.3751777    4.3751777     1309.158    7453.0508    -836.7757    -2688.801    4290.2322   -1792.3647   -1605.9007    83.750438 
    1300    368.05091   -105.36674    0.3330202   -105.03372   -9973.7246    4.3947017    4.3947017    4.3947017   -9973.7246    3151.9575    2776.1375   -35849.269   -2827.6412   -3166.5836    2000.5248    84.876644 
    1400    343.04903   -105.34255   0.31039797   -105.03215    10758.531    4.3690398    4.3690398    4.3690398    10758.531    30988.146    5101.6424   -3814.1946   -1257.4973     1599.044    932.33631    83.398455 
    1500    450.77462   -105.44013   0.40787035   -105.03226   -15514.091    4.3993578    4.3993578    4.3993578   -15514.091   -1570.5785   -11854.861   -33116.834    854.37306    1735.2908    6280.9219    85.146709 
    1600    503.01838   -105.48806    0.4551416   -105.03292    4860.6845    4.3662625    4.3662625    4.3662625    4860.6845    9906.3396    3240.2868    1435.4271    5123.9277    2440.3444    2366.4715    83.239509 
    1700    345.66367   -105.35174   0.31276375   -105.03897   -9913.8984    4.3963348    4.3963348    4.3963348   -9913.8984    6733.3191   -14211.331   -22263.683    1680.6182   -5867.2494   -541.31598    84.971303 
    1800    292.25128   -105.30091    0.2644351   -105.03647    20310.637    4.3695966    4.3695966    4.3695966    20310.637     36878.87    21971.589     2081.454   -8102.9304   -4070.1006   -1601.7431    83.430347 
    1900     410.7469   -105.41278   0.37165242   -105.04112   -11384.388    4.3919312    4.3919312    4.3919312   -11384.388   -13646.953   -1462.8261   -19043.384     9619.175   -2593.7247   -556.79766    84.716222 
    2000     553.6297   -105.53602   0.50093578   -105.03508    -3320.157    4.3795578    4.3795578    4.3795578    -3320.157    3402.8166   -5737.0113   -7626.2763    914.76106    3431.1502    1791.9049    84.002226 
    2100    345.54594   -105.35076   0.31265723    -105.0381    7653.3537    4.3777287    4.3777287    4.3777287    7653.3537    16018.277    22062.365   -15120.581    2146.8582    2343.1591    4337.8328    83.897017 
    2200     347.5694   -105.35126    0.3144881   -105.03677   -11277.555    4.3930474    4.3930474    4.3930474   -11277.555    3477.7797   -8339.0711   -28971.373   -3198.3726    881.28695     82.40119    84.780833 
    2300    492.79149   -105.47847   0.44588809   -105.03258    17561.779    4.3617423    4.3617423    4.3617423    17561.779    20523.382    31366.471    795.48279   -210.11409   -660.03441   -400.26562    82.981259 
    2400     454.5051   -105.44024   0.41124577   -105.02899   -35497.833    4.4058295    4.4058295    4.4058295   -35497.833    -33690.29   -36403.003   -36400.205    10388.826   -3694.8162    -670.2413    85.523026 
    2500    430.20167   -105.41065   0.38925551    -105.0214      28934.3    4.3538548    4.3538548    4.3538548      28934.3     29174.03    42570.698    15058.172   -1418.3542    3978.6513    1635.8007    82.531895 
    2600    274.65703    -105.2735   0.24851545   -105.02499   -21953.087     4.408094     4.408094     4.408094   -21953.087   -8181.5589   -22387.269   -35290.435   -3378.3676    2730.8862    6406.6807    85.654966 
    2700    266.92707   -105.26357   0.24152122   -105.02205    28284.862    4.3564036    4.3564036    4.3564036    28284.862    40451.666    29808.893    14594.026     49.08746    4949.5369    1426.7533    82.676926 
    2800    487.59422   -105.46863    0.4411855   -105.02745   -21310.526    4.4000459    4.4000459    4.4000459   -21310.526   -20734.664   -16824.453   -26372.461    1902.1993     272.6579    4426.7628    85.186668 
    2900    433.79972   -105.42113    0.3925111   -105.02862    5366.4111    4.3662483    4.3662483    4.3662483    5366.4111    5888.8322    1791.5574    8418.8438    10210.287     -3755.56    -4095.787    83.238698 
    3000    413.04986   -105.40578    0.3737362   -105.03205   -9571.2098    4.3923467    4.3923467    4.3923467   -9571.2098   -874.63242    637.31116   -28476.308   -2462.4283   -2783.5425    3322.7751    84.740271 
    3100    322.60454   -105.32462   0.29189937   -105.03272    8552.7417    4.3729642    4.3729642    4.3729642    8552.7417    28538.064   -1023.4971   -1856.3415   -281.33867   -1157.7172    3753.3902    83.623392 
    3200     385.8777   -105.38532   0.34915025   -105.03617   -5925.4734    4.3816474    4.3816474    4.3816474   -5925.4734   -2349.3443   -4434.2525   -10992.824    9967.9539     4281.198    460.20293    84.122519 
    3300    487.94785   -105.47271   0.44150547    -105.0312   -6442.3447    4.3843159    4.3843159    4.3843159   -6442.3447   -3740.1234   -8029.8335   -7557.0772   -2583.9472    805.12407    6163.0221    84.276312 
    3400    353.82763   -105.35206   0.32015068   -105.03191    3630.4078    4.3724098    4.3724098    4.3724098    3630.4078    10292.596    -3986.119    4584.7464    9051.5666   -4201.6005   -3923.7287     83.59159 
    3500    286.98897   -105.29075   0.25967365   -105.03108   -3518.8114    4.3918656    4.3918656    4.3918656   -3518.8114    23135.174   -7302.9322   -26388.676    -3291.554   -5718.2573    4243.3114    84.712424 
    3600    456.28963   -105.44117   0.41286045   -105.02831    7779.6131    4.3660554    4.3660554    4.3660554    7779.6131    14946.164    666.72262    7725.9525    6954.3919    1857.3987   -169.39559    83.227669 
    3700    413.38926   -105.40357   0.37404329   -105.02952   -24452.466    4.3944434    4.3944434    4.3944434   -24452.466   -25986.305   -16239.621   -31131.472    8822.1468    1945.0196    2378.1327    84.861681 
    3800    547.32844   -105.52154   0.49523428    -105.0263    9842.5756    4.3668159    4.3668159    4.3668159    9842.5756    19031.608    7601.0553    2895.0631   -1270.9778    2160.8974    2148.2523    83.271169 
    3900    209.13996    -105.2215   0.18923423   -105.03227   -10541.346    4.3923766    4.3923766    4.3923766   -10541.346    5840.4473    -16757.16   -20707.324    9735.7603   -5547.1647   -2187.6985    84.741998 
    4000    395.60955   -105.38658   0.35795584   -105.02863    13579.445    4.3700155    4.3700155    4.3700155    13579.445    26181.216     11602.84    2954.2781   -2304.9665   -4844.2102    2200.9412     83.45434 
    4100    462.83595   -105.44849   0.41878369   -105.02971   -15684.404    4.3902198    4.3902198    4.3902198   -15684.404   -22504.422   -18056.874   -6491.9168    10770.512   -1530.3077   -1111.7846     84.61723 
    4200    364.34255    -105.3601   0.32966479   -105.03044    5888.2452    4.3707543    4.3707543    4.3707543    5888.2452    7875.0269    14481.804   -4692.0951     3662.923    3826.8867    6203.5322    83.496673 
    4300    392.26517   -105.38608   0.35492977   -105.03115   -2818.0657    4.3875368    4.3875368    4.3875368   -2818.0657    14625.563   -6681.1868   -16398.573   -4575.7627    1454.2627    1363.7896    84.462187 
    4400    380.78798    -105.3766   0.34454497   -105.03206    3048.7439    4.3731908    4.3731908    4.3731908    3048.7439    18910.352   -360.73434   -9403.3858    7031.6229   -2586.1326   -1961.1649    83.636392 
    4500    493.39452   -105.47801   0.44643373   -105.03158   -9450.6002    4.3879604    4.3879604    4.3879604   -9450.6002   -5286.0142   -7891.3585   -15174.428    3242.0801   -4440.2067    2083.7458    84.486651 
    4600     473.3107      -105.46   0.42826147   -105.03173    4719.8703      4.37277      4.37277      4.37277    4719.8703    2490.7483    6699.6377     4969.225    4413.1603    2426.9171     94.27601    83.612249 
    4700    253.88954   -105.26702   0.22972459   -105.03729   -471.16377    4.3852585    4.3852585    4.3852585   -471.16377    18781.946   -8961.5898   -11233.847   -40.723891    3841.8771    5474.3588    84.330676 
    4800     417.1613   -105.41053   0.37745631   -105.03308    15291.273    4.3729031    4.3729031    4.3729031    15291.273    24703.625    15328.596     5841.597   -3068.3744    5042.8125   -1019.4211    83.619885 
    4900    443.42321   -105.43814   0.40121864   -105.03693    -15543.37    4.3873388    4.3873388    4.3873388    -15543.37   -11197.203   -16382.885   -19050.023    11191.506   -1691.2853    402.78064    84.450751 
    5000    518.85893   -105.50319   0.46947446   -105.03371    2061.7667    4.3726656    4.3726656    4.3726656    2061.7667    1348.7011    8744.4714   -3907.8726    196.10084   -4168.8411   -1274.0244     83.60626 
    5100    374.41443   -105.37565   0.33877805   -105.03688   -2430.1915    4.3852247    4.3852247    4.3852247   -2430.1915    12225.808   -2309.1515   -17207.231    619.50475    1274.2358    691.49165    84.328727 
    5200    274.57007   -105.28535   0.24843677   -105.03691     2009.561    4.3785004    4.3785004    4.3785004     2009.561    16499.582   -6305.4581   -4165.4405    1915.8818    3924.8087    3350.7538    83.941394 
    5300    531.70061   -105.51543   0.48109389   -105.03434    5787.1304    4.3735059    4.3735059    4.3735059    5787.1304    4835.6817    5218.6446     7307.065   -2448.4231    1760.1169    752.28096    83.654467 
    5400    351.63904   -105.35376   0.31817039   -105.03559   -20825.231    4.3903837    4.3903837    4.3903837   -20825.231   -27534.576   -23501.155   -11439.961    13304.166   -2260.6953   -1142.9115    84.626702 
    5500    443.89049   -105.43202   0.40164145   -105.03037    20393.629    4.3609704    4.3609704    4.3609704    20393.629    30684.098    24084.977    6411.8116   -7156.3289    -3902.735    -3238.818    82.937208 
    5600    335.27607   -105.33208   0.30336484   -105.02872    -21944.36    4.4019196    4.4019196    4.4019196    -21944.36   -8736.3244   -21766.666   -35330.088     236.0571    742.27277   -27.154168    85.295537 
    5700    346.54742   -105.33602   0.31356339   -105.02246    24087.191    4.3528796    4.3528796    4.3528796    24087.191    23758.194     30164.21     18339.17    2162.5788    4075.2925    1635.5551    82.476448 
    5800    550.51408   -105.52157   0.49811671   -105.02346   -28157.626    4.4032151    4.4032151    4.4032151   -28157.626   -34796.804    -25058.07   -24618.005    1094.0183    776.92015    1717.2368    85.370868 
    5900    352.20729   -105.34497   0.31868456   -105.02628     14998.95       4.3568       4.3568       4.3568     14998.95    12748.608    13908.144    18340.098    10965.846   -3627.3918   -3811.1925    82.699497 
    6000    356.64452   -105.35321   0.32269945   -105.03051   -7406.4522    4.3939251    4.3939251    4.3939251   -7406.4522    8.7266743    1896.9236   -24125.007    -6457.375    -3695.846   -2158.1921    84.831654 
    6100    334.61613   -105.33354    0.3027677   -105.03077    9652.2437    4.3684337    4.3684337    4.3684337    9652.2437    22125.136    11562.754   -4731.1588    1028.7287   -1685.2121   -2159.5408    83.363752 
    6200    508.93653   -105.49537   0.46049647   -105.03488    -11176.48    4.3791601    4.3791601    4.3791601    -11176.48   -10788.959   -7953.8974   -14786.585    9668.7114     688.7307    2228.2934    83.979342 
    6300    542.75339   -105.52159   0.49109468    -105.0305   -8006.6728    4.3836376    4.3836376    4.3836376   -8006.6728   -9434.9236   -364.87811   -14220.217    804.54038    1503.8101    2231.6507    84.237199 
    6400    344.27358   -105.34209   0.31150597   -105.03058    2348.4222    4.3696713    4.3696713    4.3696713    2348.4222    6638.4645    4346.0934   -3939.2912    7068.5269   -1666.1308   -3559.7896    83.434621 
    6500    272.91963   -105.27724   0.24694341    -105.0303    4914.6679    4.3865287    4.3865287    4.3865287    4914.6679    19636.761     6902.773   -11795.531   -10540.516   -5615.4262    464.90004    84.403978 
    6600    384.46167   -105.37784     0.347869   -105.02997    9366.3498    4.3691198    4.3691198    4.3691198    9366.3498    15638.545    8999.7514    3460.7531   -35.906616    -2753.727   -5766.7247    83.403033 
    6700    438.45909   -105.42633     0.396727    -105.0296    -15217.45    4.3877924    4.3877924    4.3877924    -15217.45   -13692.801   -20978.804   -10980.745    8914.9871    -2291.607    3739.1782    84.476945 
    6800    515.24628    -105.4939   0.46620566    -105.0277    9663.2886    4.3678343    4.3678343    4.3678343    9663.2886    6233.3357    17503.338    5253.1918   -4123.9434    4352.3804    1742.9567     83.32944 
    6900    340.03008   -105.34064   0.30766636   -105.03297   -14638.925    4.3889568    4.3889568    4.3889568   -14638.925   -4410.0277   -14480.067    -25026.68    6252.8059    1268.5923    1384.8641     84.54422 
    7000    290.89622   -105.29346   0.26320901   -105.03025    24721.495    4.3653143    4.3653143    4.3653143    24721.495    38251.832    26907.072    9005.5809   -9372.4613   -2933.8645    602.64012    83.185294 
    7100    456.10399    -105.4441   0.41269248   -105.03141   -18383.323    4.3911839    4.3911839    4.3911839   -18383.323    -12099.37   -24364.789   -18685.811    6021.2455   -3019.8331   -4940.0683    84.672985 
    7200    446.64717   -105.43214   0.40413574     -105.028    6505.1497    4.3672242    4.3672242    4.3672242    6505.1497    3774.1423    7107.7173    8633.5896    8628.4536   -1422.2373    3857.2893    83.294529 
    7300    493.65421   -105.47673    0.4466687   -105.03006   -7733.6309    4.3846561    4.3846561    4.3846561   -7733.6309   -3717.5388   -10092.108   -9391.2464   -2147.5199     3681.753   -1109.6567    84.295932 
    7400    215.35345    -105.2286   0.19485633   -105.03375      7351.85    4.3758261    4.3758261    4.3758261      7351.85    20474.542    11962.443   -10381.434    570.07006    1863.8197      4932.23    83.787681 
    7500    410.98281   -105.40613   0.37186588   -105.03426    7816.6383    4.3739405    4.3739405    4.3739405    7816.6383    19147.739    7641.0781   -3338.9022   -5058.3135   -1202.6194   -3242.7452    83.679409 
    7600    466.93822   -105.45414   0.42249552   -105.03164   -14062.702    4.3857927    4.3857927    4.3857927   -14062.702   -9597.6586   -17714.378   -14876.071    1972.1932   -3107.2579   -3206.7485      84.3615 
    7700    481.01554   -105.46588   0.43523297   -105.03065    6775.5607     4.365854     4.365854     4.365854    6775.5607     3914.387    10016.563    6395.7322    9205.9824   -1751.1058    336.09795     83.21615 
    7800    356.87717   -105.35388   0.32290996   -105.03097   -9494.8704    4.3921984    4.3921984    4.3921984   -9494.8704    2752.9311   -14139.521   -17098.021   -11307.071    3844.3221   -3802.1955    84.731684 
    7900    239.71745   -105.24626   0.21690139   -105.02936    21676.244    4.3629349    4.3629349    4.3629349    21676.244    39983.225    19535.407    5510.0997    681.35918    2216.7607    5316.6857    83.049343 
    8000    419.96863   -105.41073   0.37999644   -105.03074   -11927.784    4.3897475    4.3897475    4.3897475   -11927.784   -7265.5912   -10500.203   -18017.558    -4658.323    1166.6853   -5203.7376    84.589923 
    8100     531.1062   -105.50981   0.48055605   -105.02925   -1146.4159    4.3700517    4.3700517    4.3700517   -1146.4159   -3524.3632   -3855.4986     3940.614    6003.7676   -2481.7059    308.70411    83.456413 
    8200    418.60747   -105.41193   0.37876484   -105.03317   -5932.7673    4.3794543    4.3794543    4.3794543   -5932.7673     806.6225   -3762.2651   -14842.659    6544.2327   -2589.3405   -4019.5296    83.996267 
    8300    291.13635   -105.29688   0.26342629   -105.03345    4185.4964    4.3821131    4.3821131    4.3821131    4185.4964    17611.419    4390.0133   -9444.9428    -12196.54    271.81401   -2412.3106    84.149346 
    8400     354.8568   -105.35231   0.32108189   -105.03123    9250.4763    4.3686894    4.3686894    4.3686894    9250.4763    12271.769     12503.73      2975.93    5664.9371    3239.9756    5120.0836     83.37839 
    8500    478.93507   -105.46372   0.43335051   -105.03037   -13434.337    4.3881723    4.3881723    4.3881723   -13434.337   -15783.479   -10115.054   -14404.478    922.47416    333.39374   -3658.9149     84.49889 
    8600    523.49168     -105.503   0.47366628   -105.02933     2720.807    4.3697502    4.3697502    4.3697502     2720.807   -1289.3528   -127.07127    9578.8451    4930.9631   -2164.6791    813.55351    83.439143 
    8700     315.7091   -105.31904   0.28566023   -105.03338    20.662024    4.3814905    4.3814905    4.3814905    20.662024    8779.0007    5208.8062   -13925.821    1241.9489    -3687.118    -5953.304    84.113483 
    8800    294.30036   -105.29891   0.26628915   -105.03262    10975.665    4.3773316    4.3773316    4.3773316    10975.665    22223.989    13922.974   -3219.9691   -14415.497   -466.84145   -1277.0487    83.874193 
    8900    423.14153   -105.41553   0.38286734   -105.03266    3298.6841    4.3732409    4.3732409    4.3732409    3298.6841    12454.345    3810.4182   -6368.7108    5811.5958    1695.8524    1442.9944    83.639264 
    9000    495.29121   -105.47952    0.4481499   -105.03137   -15206.033    4.3851285    4.3851285    4.3851285   -15206.033   -14033.085   -17231.487   -14353.527    2297.3685    913.25926    -5393.307    84.323182 
    9100    487.45457   -105.47109   0.44105914   -105.03003    10580.455    4.3681354    4.3681354    4.3681354    10580.455    10119.924    16212.646    5408.7946   -650.70787   -563.08771    982.88587    83.346674 
    9200    232.03757   -105.24472   0.20995247   -105.03476   -7856.2231    4.3882071    4.3882071    4.3882071   -7856.2231    14142.307   -11518.199   -26192.778    81.249638   -3908.2517   -10013.181    84.500904 
    9300    336.50751   -105.33519   0.30447906   -105.03071    22865.346    4.3639936    4.3639936    4.3639936    22865.346    36765.131    23545.089     8285.819   -9973.9263    910.35442   -681.33867    83.109814 
    9400    499.78139   -105.48424    0.4522127   -105.03203   -23240.649    4.3914182    4.3914182    4.3914182   -23240.649   -16383.551   -24893.879   -28444.518    8915.2504   -578.10814   -1763.5724     84.68654 
    9500    467.62284   -105.45384   0.42311497   -105.03073    3777.1404    4.3634754    4.3634754    4.3634754    3777.1404    4867.7094    3487.3597    2976.3521     4916.919    2349.3302   -6209.1479    83.080214 
    9600    449.48301   -105.43843   0.40670167   -105.03173   -9115.9314    4.3892479    4.3892479    4.3892479   -9115.9314    6232.0661   -10476.473   -23103.387   -5656.4141   -217.53144    2961.7287     84.56104 
    9700    137.56033   -105.16009   0.12446748   -105.03562    12489.791    4.3687777    4.3687777    4.3687777    12489.791    38062.755    10578.169    -11171.55   -1769.7441   -3979.5905   -10648.915    83.383445 
    9800    473.31765   -105.46289   0.42826775   -105.03462   -1664.1821    4.3813498    4.3813498    4.3813498   -1664.1821   -195.52781   -1290.1323   -3506.8862   -7085.0704    -3460.067   -728.26307    84.105379 
    9900    430.41409   -105.42421   0.38944772   -105.03476   -9542.4376    4.3772118    4.3772118    4.3772118   -9542.4376   -5176.2162   -10561.338   -12889.759    8003.8643   -1501.0444   -6063.9125    83.867307 
   10000    442.08527   -105.43444   0.40000804   -105.03443    980.09667    4.3707574    4.3707574    4.3707574    980.09667    2087.7265   -1562.1219    2414.6854    2564.9837    2042.7143   -2172.8762    83.496853 
   10100    410.12393   -105.40227   0.37108875   -105.03118   -7060.6384     4.388848     4.388848     4.388848   -7060.6384    7187.2222   -6463.4313   -21905.706   -6050.4718    2477.8059    2601.6512    84.537933 
   10200    189.60786   -105.20164   0.17156118   -105.03008    17589.638    4.3589962    4.3589962    4.3589962    17589.638    36186.621    18708.417   -2126.1246   -405.34481   -3062.2408    -11094.21    82.824621 
   10300    500.26519   -105.47807   0.45265046   -105.02542   -16495.545    4.3967369    4.3967369    4.3967369   -16495.545   -16493.364   -14039.682    -18953.59   -3565.8427   -3750.9174   -1444.1508    84.994619 
   10400    441.02282   -105.42503   0.39904671   -105.02598    10243.573      4.35596      4.35596      4.35596    10243.573    12017.053    6204.6163     12509.05    7454.4618   -924.99459    -9015.507    82.651674 
   10500    425.75234   -105.41548   0.38522967   -105.03025   -21341.278     4.394813     4.394813     4.394813   -21341.278   -22465.567   -24481.023   -17077.244    6309.5186    2566.9006   -79.871254    84.883097 
   10600    394.65501   -105.38644   0.35709215   -105.02934    19690.204    4.3625789    4.3625789    4.3625789    19690.204    29822.808    25716.294    3531.5112   -7853.7816    5343.3376    2636.5546    83.029014 
   10700    253.63054   -105.26522   0.22949024   -105.03573   -8219.3866    4.3828839    4.3828839    4.3828839   -8219.3866    6955.8779   -8958.2329   -22655.805    4419.1871   -3751.1031   -10448.559    84.193758 
   10800    498.38481   -105.47963   0.45094905   -105.02868    4954.3038     4.375565     4.375565     4.375565    4954.3038    6294.9783    6358.8092    2209.1239    -1717.565   -4432.3976   -486.87697    83.772684 
   10900    436.77174   -105.42636   0.39520025   -105.03116   -5310.6522    4.3714352    4.3714352    4.3714352   -5310.6522    -4997.118   -11307.674    372.83476    7389.2897   -547.37594      -9028.4    83.535704 
   11000      398.525   -105.39168   0.36059379   -105.03108   -9326.0324     4.385515     4.385515     4.385515   -9326.0324   -16367.654   -9919.6119   -1690.8313    6162.4102    2123.9694    3408.0538    84.345476 
   11100    397.83079   -105.38772   0.35996566   -105.02775    17055.244    4.3647664    4.3647664    4.3647664    17055.244    30366.076    23385.427   -2585.7713   -9605.5802    6328.7913      501.848    83.153975 
   11200    247.52655   -105.25702   0.22396723   -105.03306   -10774.582    4.3877543    4.3877543    4.3877543   -10774.582    5778.7849   -13096.595   -25005.935    2216.3614   -3596.5464    -7607.285     84.47475 
   11300    507.55397   -105.48699    0.4592455   -105.02775    11188.203    4.3668909    4.3668909    4.3668909    11188.203    15026.445    12258.183     6279.982    739.23013   -1256.4034   -1296.1468    83.275457 
   11400    482.91385   -105.46807    0.4369506   -105.03112   -15864.927    4.3816622    4.3816622    4.3816622   -15864.927    -14060.72   -20836.605   -12697.455    4842.6467   -1599.6148    -7181.602    84.123371 
   11500    349.75794   -105.34941   0.31646833   -105.03294    3315.1881    4.3755859    4.3755859    4.3755859    3315.1881    598.43837    3963.7407    5383.3852    7592.4817    4595.1336    3196.2136     83.77388 
   11600    375.49028     -105.371    0.3397515   -105.03125    10823.819    4.3716745    4.3716745    4.3716745    10823.819     31691.18    11765.372   -10985.095    -10363.24    7345.5454   -821.03748    83.549425 
   11700     262.9229    -105.2723   0.23789817    -105.0344   -4557.4028    4.3835733    4.3835733    4.3835733   -4557.4028    11093.868   -4830.6846   -19935.392     5419.287   -1066.5755   -3556.1717    84.233497 
   11800     561.2572   -105.53671   0.50783731   -105.02887    409.54211    4.3695743    4.3695743    4.3695743    409.54211     2264.764    4150.8197   -5186.9574    4080.8937    1297.6032   -1691.0258    83.429069 
   11900     505.8488   -105.48958   0.45770263   -105.03188   -12766.143    4.3802497    4.3802497    4.3802497   -12766.143   -5811.6647   -10084.376   -22402.388    5366.6278   -2640.8002    -7230.024    84.042042 
   12000    330.63401   -105.33351    0.2991646   -105.03435    303.18318    4.3770899    4.3770899    4.3770899    303.18318    8192.1456     87.20889   -7369.8049    6022.6312    3187.3228    1731.4652    83.860298 
   12100    318.93223   -105.32041   0.28857659   -105.03184    14345.138    4.3692979    4.3692979    4.3692979    14345.138    34008.735    15712.138   -6685.4575   -9528.4438    6280.9488   -2059.9193    83.413238 
   12200    304.52927   -105.30764   0.27554448    -105.0321   -8938.5776    4.3854886    4.3854886    4.3854886   -8938.5776   -5357.5202   -6871.1922    -14587.02    6094.4649    1936.7504    770.41205    84.343956 
   12300    563.73548   -105.53793   0.51007971   -105.02785    2941.7991    4.3652268    4.3652268    4.3652268    2941.7991   -2992.3204     3624.913    8192.8048    6886.3429    1477.4976    366.85866    83.180292 
   12400    458.67618   -105.44615   0.41501985   -105.03113    -14464.92    4.3862966    4.3862966    4.3862966    -14464.92   -8600.3714   -10193.845   -24600.544    2382.8126   -4500.9264   -9430.1086     84.39058 
   12500    328.64747   -105.32997   0.29736713    -105.0326    8626.1946    4.3678835    4.3678835    4.3678835    8626.1946    18406.045    5899.5853    1572.9537    4590.5638    109.07911    2664.7077    83.332257 
   12600    341.06196   -105.34123   0.30860003   -105.03263    3076.8883    4.3805652    4.3805652    4.3805652    3076.8883    15891.474    9464.7492   -16125.559    -9583.702    6518.4597    -3001.893    84.060203 
   12700    363.80285   -105.36139   0.32917647   -105.03221   -1010.8173    4.3732557    4.3732557    4.3732557   -1010.8173    254.91651   -7327.6925    4040.3241    7764.1894    4203.1818    3296.0698    83.640111 
   12800    488.22039   -105.47334   0.44175207   -105.03158   -5781.7856    4.3765504    4.3765504    4.3765504   -5781.7856   -14596.959   -8443.9812    5695.5837    7025.2213    2006.4859   -2095.2815    83.829295 
   12900    481.16235   -105.46603    0.4353658   -105.03066   -6537.7246    4.3789598    4.3789598    4.3789598   -6537.7246   -3862.1568   -6912.4851   -8838.5319    1462.7248   -4476.7809   -8675.7386    83.967822 
   13000    298.40028   -105.30121   0.26999885   -105.03121    4781.1814    4.3717161    4.3717161    4.3717161    4781.1814    8687.0963    5062.8017    593.64635    5442.3169    -740.0737    469.11116    83.551806 
   13100    397.61578   -105.38933   0.35977112   -105.02955    1272.4162    4.3799453    4.3799453    4.3799453    1272.4162      11862.9    11026.516   -19072.167   -9125.8199    6523.0874   -3184.1255    84.024525 
   13200    350.00899   -105.34848   0.31669549   -105.03178    -378.9591    4.3717851    4.3717851    4.3717851    -378.9591   -3605.7832   -10714.636    13183.542    10629.812    3240.3517    4352.6025    83.555765 
   13300    474.07393   -105.46045   0.42895205    -105.0315   -6340.4445    4.3783188    4.3783188    4.3783188   -6340.4445   -17346.298   -6507.2861    4832.2506    4580.5935    3279.4688   -1536.1808    83.930949 
   13400    477.05628   -105.46231   0.43165055   -105.03066   -3006.8605     4.376126     4.376126     4.376126   -3006.8605   -4414.6965   -7219.3238     2613.439    3639.2477   -6340.2247   -6673.3934     83.80491 
   13500    259.88592    -105.2673   0.23515024   -105.03215   -348.97187    4.3757656    4.3757656    4.3757656   -348.97187    1705.1266    431.93964   -3183.9818    3900.9223   -616.55401    554.95455    83.784207 
   13600    484.86078   -105.46802   0.43871222    -105.0293    2925.6366    4.3761272    4.3761272    4.3761272    2925.6366    14143.071    7108.6118   -12474.773   -6562.9943    4547.6292   -355.41154    83.804978 
   13700    289.94226   -105.29518   0.26234585   -105.03284   -4262.0411    4.3770222    4.3770222    4.3770222   -4262.0411   -12415.188   -13685.568    13314.632    9139.7868    4601.6413    6212.4553    83.856407 
   13800    506.97777   -105.49063   0.45872414   -105.03191    48.318037    4.3718963    4.3718963    4.3718963    48.318037   -11216.479    1650.2746    9711.1582    4840.6867    2139.5048   -1918.0239     83.56214 
   13900    422.91001   -105.41508   0.38265787   -105.03242   -5310.1844       4.3809       4.3809       4.3809   -5310.1844   -11195.692   -10336.195    5601.3338    1711.4812    -5871.263   -5797.2116    84.079479 
   14000    313.81712   -105.31721   0.28394833   -105.03326    4412.8697    4.3704138    4.3704138    4.3704138    4412.8697    7861.8609    9036.8317   -3660.0834    3257.8782   -926.06708    1412.3422    83.477162 
   14100    474.62548   -105.45947   0.42945111   -105.03002   -1016.2239    4.3821621    4.3821621    4.3821621   -1016.2239    6538.6484   -3583.7481    -6003.572   -7806.2837    5948.8855   -40.622779    84.152167 
   14200    269.49036   -105.27642   0.24384054   -105.03258    2908.4848      4.37009      4.37009      4.37009    2908.4848   -4883.4705   -8778.8518    22387.777    11264.492    5616.0022    4882.1673    83.458607 
   14300    504.90288   -105.48714   0.45684673   -105.03029   -4803.6805       4.3795       4.3795       4.3795   -4803.6805   -18432.589   -10022.636    14044.183    362.32765    786.69256   -3572.9034    83.998896 
   14400     421.7283   -105.41368   0.38158863   -105.03209    874.19267    4.3734283    4.3734283    4.3734283    874.19267   -3444.8971   -2957.4303    9024.9054     5708.518   -5360.5266   -5299.6661    83.650016 
   14500      357.408   -105.35855   0.32339026   -105.03516   -3825.4497    4.3758168    4.3758168    4.3758168   -3825.4497   -4090.0145   -1620.6602   -5765.6743    1488.4018   -1603.0369      1758.64    83.787143 
   14600    452.88553   -105.44001   0.40978034   -105.03022    4294.4611    4.3790732    4.3790732    4.3790732    4294.4611    6849.6202    2893.3082    3140.4549   -3920.1987    7452.9523    2903.6785    83.974345 
   14700    252.70529   -105.26129   0.22865306   -105.03263    1724.1764    4.3713448    4.3713448    4.3713448    1724.1764   -12791.489   -13319.264    31283.282    11272.545    1955.4275    4654.2927    83.530522 
   14800    496.20954   -105.47859   0.44898082   -105.02961   -1656.3508    4.3798129    4.3798129    4.3798129   -1656.3508   -12585.025   -5570.2421    13186.215   -959.98391    602.42784   -192.78802    84.016906 
   14900    447.19481   -105.43646   0.40463126   -105.03183   -5857.4921    4.3737671    4.3737671    4.3737671   -5857.4921   -5916.2653    -13126.42     1470.209    9832.4455   -7653.9895   -4763.9144    83.669459 
   15000    388.15826   -105.38511   0.35121375    -105.0339   -2294.9135    4.3744722    4.3744722    4.3744722   -2294.9135   -2324.5993   -1130.1641   -3429.9769    -1807.684    1129.4751    4643.0802    83.709928 
   15100    424.26761   -105.41545   0.38388625   -105.03156    1697.5711    4.3798998    4.3798998    4.3798998    1697.5711    657.55116   -8138.3074     12573.47    1169.2884    6374.5786    2921.1541    84.021903 
   15200    203.87715   -105.21858   0.18447233   -105.03411    5241.9997    4.3703161    4.3703161    4.3703161    5241.9997   -14746.718   -10416.955    40889.672    7236.1922    1426.8359    5437.1238    83.471567 
   15300    537.58305   -105.51661   0.48641644    -105.0302    -4492.002    4.3809887    4.3809887    4.3809887    -4492.002   -7696.1231   -8668.9475    2889.0646   -669.09777   -2584.0459    530.82433    84.084587 
   15400    459.48332   -105.44763   0.41575016   -105.03188   -7638.4392    4.3727585    4.3727585    4.3727585   -7638.4392   -8666.1938   -12645.603   -1603.5209    10513.048    -4348.893   -3267.0279    83.611589 
   15500    373.83936   -105.37252   0.33825771   -105.03426    3102.4908    4.3758364    4.3758364    4.3758364    3102.4908    5136.7834   -4053.8953    8224.5844   -4116.6339    3857.3103    3878.5744     83.78827 
   15600     339.4687   -105.34019   0.30715841   -105.03303    5557.9556    4.3780587    4.3780587    4.3780587    5557.9556   -8695.8248   -8486.6432    33856.335    2889.4863    8069.1199    3640.2342    83.915991 
   15700    286.43092   -105.29308   0.25916872   -105.03391    8029.5869    4.3701368    4.3701368    4.3701368    8029.5869    -10110.35    1540.9847    32658.126    2034.0841   -800.44027    4974.3546    83.461289 
   15800    576.17764   -105.55009   0.52133764   -105.02875   -11319.992    4.3837326    4.3837326    4.3837326   -11319.992   -15805.094   -7298.2008   -10856.681   -320.75187   -2405.9477    2875.9519    84.242678 
   15900    412.84595   -105.40416   0.37355169   -105.03061    945.37535    4.3670041    4.3670041    4.3670041    945.37535   -10472.254   -7056.2552    20364.635    10792.987    -1737.252    -4904.377    83.281935 
   16000    392.02089   -105.38631   0.35470874   -105.03161   -2185.4921    4.3823919    4.3823919    4.3823919   -2185.4921    -13433.77   -13961.725    20839.019   -3215.5223    1029.3745    5205.6743     84.16541 
   16100    286.17175   -105.29152   0.25893421   -105.03258    8697.4517    4.3713767    4.3713767    4.3713767    8697.4517    -6041.687   -4892.3766    37026.419     8252.174    6466.6173    4675.3068    83.532351 
   16200    426.62332   -105.41894   0.38601774   -105.03292   -1555.4745    4.3748773    4.3748773    4.3748773   -1555.4745   -4782.8372    647.63473    -531.2209   -3069.4515   -2078.0255    3707.2363     83.73319 
   16300    465.03708    -105.4513   0.42077532   -105.03052   -6640.3254    4.3804557    4.3804557    4.3804557   -6640.3254    -8997.127    1439.3212    -12363.17    3254.3085   -2585.1467   -926.52059    84.053903 
   16400    417.26364   -105.40822   0.37754891   -105.03067    1155.8905    4.3697204    4.3697204    4.3697204    1155.8905    -13623.69   -9475.5915    26566.953    9897.5813   -3735.7546   -4301.7415    83.437434 
   16500    385.34705   -105.37931   0.34867011   -105.03064     276.2213    4.3814189    4.3814189    4.3814189     276.2213   -9410.7814   -5100.9663    15340.412   -2545.4035    2319.8169    5637.5997    84.109362 
   16600    332.02785   -105.33151   0.30042578   -105.03108    1471.8055    4.3739774    4.3739774    4.3739774    1471.8055    -5433.099   -4351.2464    14199.762    10239.257    4614.8796    6651.6301    83.681528 
   16700     400.2356   -105.39306   0.36214158   -105.03092     5699.588    4.3724348    4.3724348    4.3724348     5699.588    3113.7411    20475.781   -6490.7577   -10934.046   -239.78217     1767.318    83.593023 
   16800    460.50097   -105.44751   0.41667095   -105.03084   -13489.419    4.3828608    4.3828608    4.3828608   -13489.419   -10621.942   -10944.732   -18901.583    7751.5701   -3563.6864     727.2188    84.192428 
   16900    449.12838   -105.43643    0.4063808   -105.03005    3328.3134    4.3661769    4.3661769    4.3661769    3328.3134   -7169.6657   -2523.0121    19677.618    4086.9335   -2996.1203   -3877.2724    83.234615 
   17000    393.03168   -105.38748   0.35562333   -105.03186   -4125.2873    4.3841681    4.3841681    4.3841681   -4125.2873    -13247.71    2631.7241   -1759.8762   -1924.5251   -449.98557    9307.0074    84.267789 
   17100    254.69002    -105.2636   0.23044888   -105.03315    10587.316    4.3694539    4.3694539    4.3694539    10587.316    -2160.251    16132.181    17790.018    4161.0734    5784.7313    6309.5006     83.42217 
   17200    343.13843   -105.34341   0.31047886   -105.03293    4485.8356    4.3785954    4.3785954    4.3785954    4485.8356    7730.2245    13269.246   -7541.9632   -13023.337    2707.4375    3871.7752    83.946858 
   17300    467.06646   -105.45334   0.42261154   -105.03072   -8228.7639    4.3774217    4.3774217    4.3774217   -8228.7639   -233.33623   -13668.211   -10784.744    8843.8705    321.08983   -464.42401    83.879368 
   17400    499.74541   -105.48297   0.45218015   -105.03079   -1932.0437    4.3699709    4.3699709    4.3699709   -1932.0437    -4709.112    1775.5572   -2862.5762    5431.7663   -3945.5352   -3371.3943    83.451786 
   17500    472.48197   -105.45812   0.42751162   -105.03061   -12408.887    4.3850411    4.3850411    4.3850411   -12408.887   -15182.738   -87.226499   -21956.697   -2028.1255   -4030.8391    3853.4462    84.318137 
   17600    319.45408   -105.31933   0.28904877   -105.03029     13273.08    4.3632264    4.3632264    4.3632264     13273.08    11739.311    12996.818    15083.112    5186.6247     3161.165     4598.048    83.065992 
   17700    312.10422   -105.31292   0.28239846   -105.03052   -4073.0205    4.3879296    4.3879296    4.3879296   -4073.0205    3781.6596   -12207.715   -3793.0061   -10780.843     5028.972     4136.441    84.484871 
   17800    422.56429   -105.41177   0.38234505   -105.02943    9344.4893    4.3620726    4.3620726    4.3620726    9344.4893     6894.281   -2566.5271    23705.714    13353.074     3117.695    502.62589    83.000111 
   17900    384.30503   -105.38067   0.34772727   -105.03294   -9853.5027    4.3849502    4.3849502    4.3849502   -9853.5027   -19747.084   -4388.0367   -5425.3872   -494.21457   -2277.6702   -5218.2807    84.312895 
   18000    502.83479   -105.48548   0.45497548    -105.0305    349.04852     4.370814     4.370814     4.370814    349.04852   -1306.4163    9062.7626   -6709.2008   -4330.8045   -6655.6913    843.61343    83.500097 
   18100    313.26902   -105.31631    0.2834524   -105.03285    2089.9263    4.3739341    4.3739341    4.3739341    2089.9263    11592.007    171.07958   -5493.3077    3546.6239    2426.0346    2396.9055    83.679045 
   18200     461.3863   -105.44707   0.41747202    -105.0296   -8758.8226    4.3822811    4.3822811    4.3822811   -8758.8226   -4612.7678   -14149.322   -7514.3777   -10156.524     3935.914    4260.6812    84.159023 
   18300    391.23672   -105.38187   0.35399921   -105.02787    8339.2644    4.3643274    4.3643274    4.3643274    8339.2644   -630.19583    658.50888     24989.48     14217.87    3060.2094    791.07083    83.128887 
   18400    353.12219   -105.34977   0.31951238   -105.03026   -8922.4985    4.3856862    4.3856862    4.3856862   -8922.4985   -24003.687   -8648.6728    5884.8642   -6507.4736   -2929.2054    -6081.631    84.355354 
   18500    378.24725   -105.37145   0.34224606   -105.02921    13460.874    4.3652031    4.3652031    4.3652031    13460.874    17185.539    15852.534    7344.5497   -3534.8647   -7863.0724   -207.36282    83.178935 
   18600    315.29587   -105.31837   0.28528633   -105.03308    -5915.367    4.3813791    4.3813791    4.3813791    -5915.367    4234.3383   -9867.4558   -12112.983    2337.8565   -828.30568    -984.2097    84.107066 
   18700     545.7597   -105.52309   0.49381485   -105.02928   -3758.6319    4.3733279    4.3733279    4.3733279   -3758.6319   -476.11772   -1502.3479   -9297.4301   -5835.1363    1624.0475    4693.4477    83.644256 
   18800    524.25282   -105.50384   0.47435497   -105.02949   -6962.5474    4.3745857    4.3745857    4.3745857   -6962.5474    -11076.62   -2563.5796    -7247.442    12820.442    1342.4296    1606.8369    83.716446 
   18900    336.63278   -105.33806   0.30459241   -105.03347   -1494.1736    4.3771134    4.3771134    4.3771134   -1494.1736    1075.9621    -4599.087   -959.39601   -7677.2718   -1614.5345   -1370.2312    83.861649 
   19000    329.96904   -105.32998   0.29856292   -105.03141    14038.208    4.3707177    4.3707177    4.3707177    14038.208    23953.058    12743.032    5418.5345   -5438.3905   -9838.1978   -3077.2046    83.494576 
   19100    291.84598   -105.29765   0.26406838   -105.03358   -594.16698    4.3787088    4.3787088    4.3787088   -594.16698      -2743.8   -8277.8131    9239.1122     4130.254   -4041.8683   -3056.2893    83.953384 
   19200    510.24501   -105.49162    0.4616804   -105.02994   -1038.5227    4.3718408    4.3718408    4.3718408   -1038.5227   -9436.2683   -3410.2031    9730.9033   -6386.4191   -858.33905   -158.59735    83.558958 
   19300      457.465   -105.44554   0.41392395   -105.03162   -3608.8184    4.3770336    4.3770336    4.3770336   -3608.8184    2153.3154   -7795.3663   -5184.4043    11577.151    4636.7375    3991.7861    83.857063 
   19400    365.79406   -105.36378   0.33097815    -105.0328   -1058.8768    4.3743179    4.3743179    4.3743179   -1058.8768    6689.6174    -4084.695   -5781.5528    -11724.21    1294.6663   -96.352529    83.701071 
   19500    446.08964   -105.43492   0.40363128   -105.03129    5149.4156    4.3735617    4.3735617    4.3735617    5149.4156    7933.9097    10198.639   -2684.3023   -1259.7212   -7424.6863   -1488.0856     83.65767 
   19600    306.18202   -105.31084   0.27703993    -105.0338   -1195.7552    4.3762118    4.3762118    4.3762118   -1195.7552   -17251.692   -2304.9782    15969.404    3333.2557   -2167.4686   -5637.1868    83.809837 
   19700    460.03525   -105.44778   0.41624956   -105.03153    1258.8206    4.3746283    4.3746283    4.3746283    1258.8206    -4985.907   -5833.6102    14595.979   -4269.1622    2650.8007   -1060.5827     83.71889 
   19800    359.49943   -105.35709   0.32528264   -105.03181    3606.5665    4.3742307    4.3742307    4.3742307    3606.5665    8913.3318   -6325.2805    8231.6482    8305.1648    5120.0678    2836.5157    83.696066 
   19900    338.59642   -105.33916   0.30636915   -105.03279    -2284.192    4.3758759    4.3758759    4.3758759    -2284.192    5499.8758   -6496.7121   -5855.7396   -14400.638    1225.6645    1956.9771    83.790542 
   20000    548.85782   -105.52641   0.49661809   -105.02979   -3512.7811    4.3745309    4.3745309    4.3745309   -3512.7811   -7588.3879    8776.2483   -11726.204    1562.5062   -7310.6612   -228.19309    83.713303 
   20100    365.91792   -105.36385   0.33109022   -105.03276   -5069.5214    4.3741871    4.3741871    4.3741871   -5069.5214   -14621.285   -3615.6966    3028.4173      2829.52   -2126.0547   -4203.7559    83.693567 
   20200    441.38665   -105.43104   0.39937592   -105.03166   -3190.9148    4.3781698    4.3781698    4.3781698   -3190.9148    77.095318   -13322.197    3672.3578   -3703.4324    2546.3041   -1995.0206    83.922384 
   20300    294.48151   -105.29867   0.26645306   -105.03222    10993.914    4.3693013    4.3693013    4.3693013    10993.914    12585.506    4128.2794    16267.957    4130.8479    3284.4822    2179.7494     83.41343 
   20400    335.67699   -105.33659   0.30372759   -105.03286   -8703.1615    4.3824095    4.3824095    4.3824095   -8703.1615   -17725.641   -8196.0742   -187.76911   -13512.647     3616.514    4863.2106    84.166424 
   20500     474.4569    -105.4584   0.42929857    -105.0291    9743.2902    4.3659587    4.3659587    4.3659587    9743.2902   -4851.1804    31028.055    3052.9959    5328.3359   -7721.7418    1801.8368    83.222138 
   20600    408.84116   -105.40235   0.36992807   -105.03242   -18918.467    4.3832111    4.3832111    4.3832111   -18918.467   -24128.622   -19788.307   -12838.472    2672.0713   -988.97091   -1512.0818    84.212615 
   20700    469.97419     -105.456   0.42524252   -105.03076    3804.3582    4.3680389    4.3680389    4.3680389    3804.3582    9464.2893    2252.6512   -303.86583   -6279.6015   -1655.0128   -4414.4225    83.341148 
   20800    381.11119   -105.37658   0.34483741   -105.03175   -2781.1332    4.3785383    4.3785383    4.3785383   -2781.1332   -9665.1448    4878.4629   -3556.7175    1074.3864    2336.4949    2340.0614    83.943574 
   20900    232.98917    -105.2446   0.21081349   -105.03379    2330.9254    4.3742908    4.3742908    4.3742908    2330.9254   -16090.946    8369.0635    14714.659   -15912.783     3610.519    3145.9022    83.699516 
   21000    478.03229   -105.46308   0.43253367   -105.03055    7594.0118    4.3698783    4.3698783    4.3698783    7594.0118   -11241.781    24346.028    9677.7883    6730.3021    -4909.135     3716.801    83.446481 
   21100    414.47573   -105.40785   0.37502635   -105.03283   -16991.118    4.3823903    4.3823903    4.3823903   -16991.118   -28784.292   -22749.955    560.89237   -5383.5968   -1541.0544   -3970.5757    84.165316 
   21200    483.97617   -105.46876   0.43791181   -105.03085    6961.9356     4.364649     4.364649     4.364649    6961.9356    1938.8646    20680.947   -1734.0053    -5807.852   -4947.9204   -3234.1998    83.147266 
   21300    356.47801   -105.35456    0.3225488   -105.03201   -6231.9922    4.3839102    4.3839102    4.3839102   -6231.9922   -19742.831    8259.1739   -7212.3197   -4406.7229    1077.9992    2006.6341    84.252917 
   21400    266.62604   -105.27398   0.24124884   -105.03273    9491.3089    4.3668094    4.3668094    4.3668094    9491.3089   -9756.9997    11807.111    26423.815   -11769.713    3065.6971    7149.7096    83.270797 
   21500     469.7613   -105.45512   0.42504989   -105.03007   -566.15683    4.3782116    4.3782116    4.3782116   -566.15683   -16867.362   -880.63383    16049.526    3856.0325   -2140.0606    595.72066    83.924784 
   21600    393.40036    -105.3877   0.35595691   -105.03174   -10178.411    4.3760586    4.3760586    4.3760586   -10178.411   -25858.651   -17383.004    12706.422   -6006.4586   -1030.2792   -3689.0959    83.801037 
   21700     526.1993    -105.5062   0.47611619   -105.03009    2704.1585    4.3693787    4.3693787    4.3693787    2704.1585   -8677.2967    18826.403   -2036.6306   -884.34191   -6065.7246    -2832.211    83.417863 
   21800     365.1268    -105.3622    0.3303744   -105.03183   -7065.9537    4.3822636    4.3822636    4.3822636   -7065.9537   -23572.394   -2766.2479    5140.7809   -5395.9313    158.93008    4565.4021    84.158016 
   21900    282.69358   -105.28803   0.25578709   -105.03224    13312.823     4.365766     4.365766     4.365766    13312.823   -6381.8736    5592.0854    40728.258    -7782.139    4112.5633    2807.5633     83.21112 
   22000    424.95047   -105.41597   0.38450411   -105.03146   -1257.5772    4.3802272    4.3802272    4.3802272   -1257.5772    -11925.21   -7821.3017     15973.78    1107.6722    1027.3722   -1288.7242    84.040746 
   22100    390.50884   -105.38579   0.35334061   -105.03245   -6223.3726     4.372386     4.372386     4.372386   -6223.3726   -16900.935   -9046.5905    7277.4078   -6841.2126   -25.359391   -4737.3684    83.590226 
   22200    584.78678   -105.55878   0.52912737   -105.02966    -1203.264    4.3731163    4.3731163    4.3731163    -1203.264   -9794.2871    6590.1881   -405.69288    3372.7534   -6450.6485    146.79534    83.632116 
   22300    264.94002   -105.27312    0.2397233   -105.03339   -4404.2705    4.3789142    4.3789142    4.3789142   -4404.2705   -27561.719   -7939.7151    22288.623   -9300.6971   -1565.2106    4242.4956    83.965196 
   22400    376.32056   -105.37198   0.34050275   -105.03148    10857.944     4.369319     4.369319     4.369319    10857.944   -1975.7687   -940.61475    35490.215   -3229.2991    6419.7725    3222.4057    83.414443 
   22500    388.03569   -105.38332   0.35110284   -105.03222   -2884.8222    4.3788427    4.3788427    4.3788427   -2884.8222   -4824.6645   -7789.7797    3959.9774   -4933.3993    917.09016   -1341.8125    83.961084 
   22600    389.69204   -105.38472   0.35260155   -105.03212   -4959.9842    4.3724455    4.3724455    4.3724455   -4959.9842   -3567.9531   -10728.959   -583.04088   -4765.8911   -351.14818   -2233.4956    83.593636 
   22700     577.0736   -105.55181   0.52214832   -105.02966    -549.1724    4.3745261    4.3745261    4.3745261    -549.1724   -11084.516      3660.41    5776.5886    3204.0513   -8435.2553    533.37924    83.713027 
   22800    234.99714   -105.24778   0.21263035   -105.03515   -1971.9415    4.3761393    4.3761393    4.3761393   -1971.9415   -22038.661   -10910.457    27033.293   -11398.559    565.29808    2225.3322    83.805674 
   22900    410.87111   -105.40358   0.37176481   -105.03182    9392.3111    4.3720918    4.3720918    4.3720918    9392.3111     7062.598   -1764.3361    22878.672    1586.7972    7379.9351    1533.5442     83.57335 
   23000    342.22458   -105.34394   0.30965199   -105.03429   -570.58984    4.3761794    4.3761794    4.3761794   -570.58984    7099.5553   -7025.6858   -1785.6391   -10150.212    835.50981   -280.88614    83.807976 
   23100    439.88614   -105.43044   0.39801823   -105.03242   -7940.4567    4.3760098    4.3760098    4.3760098   -7940.4567   -4988.4944   -15250.858    -3582.018    490.99952   -3608.7571   -2004.4922    83.798234 
   23200    618.01386     -105.588   0.55919193   -105.02881   -1297.9027    4.3714276    4.3714276    4.3714276   -1297.9027   -8097.8486     2891.698    1312.4424    1655.8415   -5166.7066   -674.91955     83.53527 
   23300    229.50936   -105.24255   0.20766489   -105.03489   -7079.2996    4.3805646    4.3805646    4.3805646   -7079.2996   -9598.0759    -22833.64    11193.817   -8829.2495    1468.6341    1282.0014    84.060172 
   23400    389.21993   -105.38352   0.35217437   -105.03134    18651.444    4.3665027    4.3665027    4.3665027    18651.444    29452.905    4554.9161    21946.511    4494.5553    10699.728    2312.7845    83.253251 
   23500     305.5956   -105.31242   0.27650932   -105.03591   -3904.1137    4.3812818    4.3812818    4.3812818   -3904.1137   -1867.0417   -12808.612    2963.3121    -12301.59    1407.0297    1608.0581    84.101464 
   23600    447.82444   -105.43668   0.40520096   -105.03148   -1431.5516    4.3710962    4.3710962    4.3710962   -1431.5516   -7156.3836   -2194.0922    5055.8211    3855.7013    -2270.962    195.04644     83.51627 
   23700    615.71724   -105.58704    0.5571139   -105.02992   -4538.9216    4.3740297    4.3740297    4.3740297   -4538.9216    185.91116   -3026.4521   -10776.224   -1981.4386   -3024.0812   -1973.7845     83.68453 
   23800    249.91881   -105.26064   0.22613179   -105.03451   -4129.1761    4.3789259    4.3789259    4.3789259   -4129.1761    4675.1054   -14923.255   -2139.3788   -7227.6212    357.71529   -2173.1126     83.96587 
   23900    452.83205   -105.43937   0.40973196   -105.02964     11356.27    4.3683384    4.3683384    4.3683384     11356.27    16547.537    326.75336     17194.52    1401.3536    10436.985     1032.653    83.358295 
   24000    270.25594   -105.27732   0.24453325   -105.03279      -3684.9    4.3810337    4.3810337    4.3810337      -3684.9   -23081.656   -9764.7632    21791.719   -12507.081    1165.4319    3161.9786     84.08718 
   24100    453.50544   -105.44105   0.41034125   -105.03071    2872.1732     4.368899     4.368899     4.368899    2872.1732    -4152.592   -1691.6117    14460.723    6072.3109   -5021.4284    2853.2321    83.390395 
   24200    459.87467   -105.44678   0.41610427   -105.03068   -5803.7293    4.3784733    4.3784733    4.3784733   -5803.7293   -4294.3162   -4458.8728   -8657.9988   -2498.2243    -556.3245   -1869.8111    83.939839 
   24300    375.66558   -105.37175   0.33991011   -105.03184   -3048.7019    4.3731239    4.3731239    4.3731239   -3048.7019    5174.5328   -14141.762   -178.87667   -4083.7952    494.81154   -1490.5671    83.632551 
   24400    453.83917   -105.44112   0.41064322   -105.03048    2685.0259    4.3743912    4.3743912    4.3743912    2685.0259   -7055.5172   -2116.2603    17226.855    2455.9371    9239.6335     966.3602     83.70528 
   24500    296.17141   -105.30078   0.26798211    -105.0328    520.22465    4.3761666    4.3761666    4.3761666    520.22465   -19488.714   -4297.5273    25346.915   -11174.774   -1124.6707    5628.2867    83.807239 
   24600    413.28788   -105.40449   0.37395156   -105.03054    2594.8963    4.3729833    4.3729833    4.3729833    2594.8963   -4743.5212    2621.4692    9906.7408    9592.6819   -5931.3203    4499.8081    83.624485 
   24700    436.28651   -105.42558   0.39476121   -105.03082   -2204.5349    4.3748595    4.3748595    4.3748595   -2204.5349    3216.3427   -1.3369055   -9828.6105   -4800.1987    2708.0579   -306.04328    83.732164 
   24800     395.0058   -105.38941   0.35740955     -105.032   -4066.2738    4.3766014    4.3766014    4.3766014   -4066.2738   -4376.8425   -8984.7382    1162.7594    546.51151    1520.4843    -2886.348    83.832224 
   24900    449.44244    -105.4372   0.40666497   -105.03054    3130.8693    4.3705048    4.3705048    4.3705048    3130.8693   -5666.6043   -3327.5124    18386.724   -863.51529    8922.2347    543.33272    83.482378 
   25000    310.04211   -105.31371   0.28053261   -105.03318   -4251.5912    4.3799606    4.3799606    4.3799606   -4251.5912   -23537.489   -5675.8076    16458.523    -8146.954   -3124.2608    3911.3627    84.025403 
   25100    441.95348   -105.43036    0.3998888   -105.03047    5522.2873    4.3689583    4.3689583    4.3689583    5522.2873    5779.1709    6932.6837    3855.0071    11528.189    -5711.771    3627.8966    83.393785 
   25200    358.87388   -105.35741   0.32471663   -105.03269   -5171.4722    4.3783945    4.3783945    4.3783945   -5171.4722    330.37473   -1219.5316    -14625.26   -5831.6389    5753.1049   -3339.9472    83.935307 
   25300    457.89754   -105.44517   0.41431532   -105.03085   -2875.8488    4.3736969    4.3736969    4.3736969   -2875.8488   -2616.1384   -9349.0395    3337.6315    4649.2841    1799.2434   -3534.8136    83.665433 
   25400    426.44943   -105.41603   0.38586041   -105.03017    509.75315    4.3735417    4.3735417    4.3735417    509.75315   -8242.9757   -3057.7071    12829.942   -5678.6386    7617.0885   -1314.6085    83.656527 
   25500    340.77118   -105.34014   0.30833693    -105.0318   -2947.5639    4.3771097    4.3771097    4.3771097   -2947.5639    -19378.27   -3239.3362    13774.914   -2958.9623   -4707.6482    4243.8358    83.861437 
   25600    391.48032   -105.38531   0.35421962   -105.03109    8397.2383    4.3700853    4.3700853    4.3700853    8397.2383    16966.285    10904.779   -2679.3496    7507.1303   -4243.3797    3455.5784    83.458338 
   25700    342.76184   -105.34275   0.31013812   -105.03261   -7175.6125    4.3798223    4.3798223    4.3798223   -7175.6125   -5089.8033    397.43067   -16834.465   -2751.7666    5529.8094   -1754.5936    84.017446 
   25800     504.2809   -105.48673   0.45628396   -105.03045   -87.348389    4.3684416    4.3684416    4.3684416   -87.348389    3862.7181   -4750.1952    625.43187    476.57691    795.49387   -919.63802    83.364204 
   25900    467.89346    -105.4544   0.42335984   -105.03104   -11470.433    4.3803705    4.3803705    4.3803705   -11470.433   -18519.767   -10425.243   -5466.2886   -5038.0363    7052.8413   -1119.9879    84.048998 
   26000    317.35365   -105.31988   0.28714826   -105.03273    6542.8456    4.3699837    4.3699837    4.3699837    6542.8456    3792.4249    4372.3728    11463.739   -3128.6081   -5477.7479    6078.3417    83.452521 
   26100    326.42658   -105.32701   0.29535763   -105.03165    6696.1292    4.3765917    4.3765917    4.3765917    6696.1292    12384.987    12070.573   -4367.1721    11289.612   -4656.7792    4476.0277    83.831664 
   26200    306.71201   -105.31003   0.27751947   -105.03251    3400.0946     4.373715     4.373715     4.373715    3400.0946    4920.6406    11144.329   -5864.6857   -4762.0725    3222.7948    2646.6411    83.666469 
   26300    538.62606   -105.51737   0.48736018   -105.03001   -7073.6581    4.3741856    4.3741856    4.3741856   -7073.6581   -9781.6893   -2171.3824   -9267.9027    3263.2092   -2222.5249    -2203.703    83.693478 
   26400    511.18092   -105.49327   0.46252724   -105.03075   -5146.7515    4.3754515    4.3754515    4.3754515   -5146.7515   -3666.5102    2639.1727   -14412.917   -5561.5075    9864.7023   -2816.8997    83.766165 
   26500    369.71345   -105.36686    0.3345245   -105.03233   -4596.3487    4.3757091    4.3757091    4.3757091   -4596.3487   -1367.6825   -1665.8783   -10755.485    2372.3736   -4003.4912   -1487.5848     83.78096 
   26600     305.1832    -105.3075   0.27613618   -105.03137    15112.015    4.3691347    4.3691347    4.3691347    15112.015    20604.656    22909.455    1821.9341    10882.623   -2266.3853    3728.2409    83.403891 
   26700    336.49541   -105.33818   0.30446812   -105.03372   -6398.9301    4.3806786    4.3806786    4.3806786   -6398.9301   -15683.123    1655.8813   -5169.5482   -2931.1044    282.18127    1672.1507    84.066733 
   26800    468.33121   -105.45429   0.42375592   -105.03053    5951.8812    4.3663661    4.3663661    4.3663661    5951.8812   -2310.8824    6963.7389    13202.787    38.709419   -3793.0839    573.05424    83.245438 
   26900    499.09651   -105.48275   0.45159301   -105.03116   -13709.111    4.3827336    4.3827336    4.3827336   -13709.111   -14031.779   -7368.0927    -19727.46   -4643.5225     12516.35    -5372.488      84.1851 
   27000     357.4705   -105.35531   0.32344682   -105.03187    5178.4671    4.3675609    4.3675609    4.3675609    5178.4671    7886.0578    11380.478   -3731.1343      554.282   -3948.2701   -1445.1932    83.313795 
   27100    411.94401   -105.40419    0.3727356   -105.03145    1063.3021    4.3784515    4.3784515    4.3784515    1063.3021   -3200.9362    13155.683   -6764.8406    5540.0526   -264.12265     3778.493    83.938584 
   27200     283.6447   -105.28924   0.25664769    -105.0326    1668.8302    4.3728424    4.3728424    4.3728424    1668.8302   -16480.713    10253.467    11233.736    -4277.061    -301.9633    6414.1347      83.6164 
   27300    453.39138   -105.44113   0.41023805   -105.03089    835.34014    4.3721628    4.3721628    4.3721628    835.34014   -11068.618   -3547.6411    17122.279   -1555.7582   -2463.4406    1145.9927     83.57742 
   27400    453.09729   -105.44047   0.40997195    -105.0305   -10157.267    4.3788082    4.3788082    4.3788082   -10157.267   -12268.547   -7365.3775   -10837.875   -2433.9053    15627.942   -3301.2464    83.959098 
   27500    404.40574   -105.39715   0.36591482   -105.03124    2630.4576    4.3687093    4.3687093    4.3687093    2630.4576    5120.4504    5713.3059   -2942.3834    1294.8438   -6702.9962   -2179.5893    83.379529 
   27600    417.69248   -105.40834   0.37793693    -105.0304   -4164.7661    4.3805973    4.3805973    4.3805973   -4164.7661   -9203.8853    402.63705   -3693.0502    7949.5773    3101.4464    3270.3027    84.062052 
   27700    217.30313   -105.22939   0.19662044   -105.03277    10593.082    4.3675855    4.3675855    4.3675855    10593.082   -12007.821     17837.38    25949.686   -2615.2979    913.42741    4941.5616      83.3152 
   27800     496.0767   -105.47889   0.44886062   -105.03003   -5968.4022    4.3793092    4.3793092    4.3793092   -5968.4022   -19577.235    -7717.001    9389.0298    3228.8661   -310.93595     909.0172    83.987919 
   27900    442.42637   -105.43171   0.40031667    -105.0314   -4104.7985    4.3710138    4.3710138    4.3710138   -4104.7985    -7791.046    5626.7496   -10150.099   -5003.2871    15569.044   -4617.8124    83.511548 
   28000    460.96335   -105.44948   0.41708932   -105.03239    -10039.06    4.3771098    4.3771098    4.3771098    -10039.06   -12457.551   -16225.803   -1433.8245    2201.0819   -9603.6296   -4521.7783    83.861443 
   28100    361.06833    -105.3581   0.32670221    -105.0314    7289.4589    4.3713967    4.3713967    4.3713967    7289.4589   -6117.9044    9781.5146    18204.767    1927.4576    5359.5966    3769.4428    83.533498 
   28200    250.96268   -105.26053    0.2270763   -105.03345   -2681.3176    4.3781773    4.3781773    4.3781773   -2681.3176   -26076.375    1354.0725     16678.35    24.039368   -191.50988    3900.9953    83.922811 
   28300      514.784   -105.49517   0.46578738   -105.02938    3993.5554    4.3676631    4.3676631    4.3676631    3993.5554   -6429.8456    15073.038    3337.4734   -2683.5391     1599.766    2605.5987    83.319644 
   28400    414.68748   -105.40766   0.37521794   -105.03244   -16148.863     4.382296     4.382296     4.382296   -16148.863   -25522.851   -2905.2161   -20018.522      -4981.7    14204.099   -4955.5595    84.159883 
   28500    470.26056   -105.45684   0.42550164   -105.03134    5046.0425    4.3658449    4.3658449    4.3658449    5046.0425    80.944121    -3870.694    18927.877   -3242.5693   -9906.8699   -1968.1604    83.215631 
   28600    296.55653   -105.30172   0.26833058   -105.03338   -815.11535    4.3808819    4.3808819    4.3808819   -815.11535   -20092.668    7004.0271    10643.295    2555.2481    8376.3197    5931.3355    84.078438 
   28700    296.92339   -105.30147   0.26866252    -105.0328    4625.6523     4.370186     4.370186     4.370186    4625.6523   -13507.522    16563.211    10821.268    -1226.111   -3177.4504    7960.1957    83.464109 
   28800    463.19816   -105.45125   0.41911143   -105.03214   -1375.1615    4.3736417    4.3736417    4.3736417   -1375.1615   -14492.181    21966.915   -11600.218    1867.8487    4987.1268   -1543.4174    83.662265 
   28900    469.67784     -105.456   0.42497438   -105.03103   -17026.601    4.3793607    4.3793607    4.3793607   -17026.601   -27965.211   -4093.6972   -19020.894   -5274.7178    11962.909   -2360.2891    83.990884 
   29000    480.35501   -105.46331   0.43463531   -105.02868    5619.0102       4.3642       4.3642       4.3642    5619.0102   -2945.8911    4678.2502    15124.672    852.73394   -6880.9901     -3541.85    83.121605 
   29100    221.16626    -105.2331   0.20011588   -105.03299   -2958.8377    4.3833739    4.3833739    4.3833739   -2958.8377   -25661.577    27342.038   -10556.974    4107.3681    12663.758    7478.0867    84.222003 
   29200    368.34831    -105.3638   0.33328929   -105.03051    16480.788    4.3630786    4.3630786    4.3630786    16480.788    1645.0216     34480.58    13316.763     4691.256   -8540.7172    1372.2032    83.057552 
   29300    403.53683   -105.39714   0.36512861   -105.03201    -12049.15    4.3840709    4.3840709    4.3840709    -12049.15   -19088.226    7540.1554   -24599.379    1905.4832    9965.6196    -1271.872    84.262185 
   29400    547.21349   -105.52356   0.49513026   -105.02843   -2615.3831    4.3670429    4.3670429    4.3670429   -2615.3831   -5100.9245    3188.2297   -5933.4544   -3411.3991    6014.5909   -5909.2097    83.284151 
   29500    445.20478   -105.43231   0.40283064   -105.02948   -5268.9264    4.3781413    4.3781413    4.3781413   -5268.9264   -18904.747    13174.725   -10076.757   -5628.9319    2354.0427    1166.8302    83.920745 
   29600    280.10374   -105.28562   0.25344375   -105.03218    4903.5545    4.3732854    4.3732854    4.3732854    4903.5545   -18081.475    34042.955   -1250.8166    2319.3459    13611.897    7266.9874    83.641816 
   29700     422.7199   -105.41263   0.38248585   -105.03015    10158.471    4.3694834    4.3694834    4.3694834    10158.471   -3166.5511    18208.382    15433.582   -2186.5568   -10820.957    6519.9138     83.42386 
   29800    288.27889   -105.29391    0.2608408   -105.03307   -5957.8263    4.3796188    4.3796188    4.3796188   -5957.8263    -10814.11    2401.0899   -9460.4587    3248.9929    12542.438   -1312.8411    84.005732 
   29900    583.23137   -105.55717      0.52772   -105.02945    2600.8347    4.3670262    4.3670262    4.3670262    2600.8347    448.02214    9368.4112   -2013.9294   -7648.4623   -774.17032   -1392.6901      83.2832 
   30000    386.10475   -105.38178   0.34935569   -105.03243   -6158.5487    4.3790189    4.3790189    4.3790189   -6158.5487   -20061.703    14329.662   -12743.605   -1591.2024    8617.0516   -1027.5568    83.971217 
   30100     317.5354   -105.32073    0.2873127   -105.03342    4469.6624    4.3708443    4.3708443    4.3708443    4469.6624   -14630.643    22483.544    5556.0863    2235.1392    11379.902    7877.0631    83.501832 
   30200    430.03979   -105.42049   0.38910904   -105.03138    6999.4173    4.3735419    4.3735419    4.3735419    6999.4173   -923.66843    1980.0336    19941.887    4134.5857   -10392.576    1950.7265    83.656535 
   30300    282.39855   -105.28922   0.25552014    -105.0337   -6575.7045     4.376692     4.376692     4.376692   -6575.7045   -8131.0572    -4531.401   -7064.6554    2305.4956    12886.243   -1202.0429    83.837431 
   30400    617.04178   -105.58688   0.55831237   -105.02857   -500.06137    4.3703156    4.3703156    4.3703156   -500.06137    5289.2857   -4040.1787   -2749.2911   -2416.8831   -2116.2496   -5735.9886    83.471533 
   30500    369.22189   -105.36611   0.33407973   -105.03203    -8308.723    4.3780455    4.3780455    4.3780455    -8308.723   -21504.815    4280.3148   -7701.6687   -4076.8349    13203.171   -361.21232    83.915236 
   30600    380.00607   -105.37689   0.34383748   -105.03306    3150.7615    4.3708283    4.3708283    4.3708283    3150.7615   -13216.499    9311.7769    13357.006    2951.5015    7939.1171    3278.1768    83.500918 
   30700     371.9629   -105.36846   0.33655985    -105.0319    8312.4683    4.3738851    4.3738851    4.3738851    8312.4683     2226.823    9997.2474    12713.334     1536.159   -9673.2325    5821.3722     83.67623 
   30800    244.68594   -105.25758   0.22139698   -105.03618   -6132.8091    4.3747678    4.3747678    4.3747678   -6132.8091   -850.97858    -1447.547   -16099.902     4041.546    16162.328   -1219.4529    83.726904 
   30900    624.34345   -105.59515   0.56491908   -105.03023   -127.63687    4.3712385    4.3712385    4.3712385   -127.63687    5494.6386   -4834.1688   -1043.3805   -3301.9042   -463.26481      44.8569    83.524427 
   31000    389.24277   -105.38615   0.35219504   -105.03395   -13879.083    4.3783757    4.3783757    4.3783757   -13879.083   -26271.098   -10119.118   -5247.0322   -5786.2717    15428.378    -1791.886    83.934222 
   31100    380.51965   -105.37795   0.34430218   -105.03364    3285.5621    4.3695514    4.3695514    4.3695514    3285.5621   -2430.4092    1678.0391    10609.056     1537.966    4137.0717    5902.7614    83.427755 
   31200    399.27047   -105.39264   0.36126831   -105.03137    2761.9848    4.3777041    4.3777041    4.3777041    2761.9848    5723.0835     3909.074   -1346.2032    702.93153    -5916.994    5387.3417    83.895603 
   31300    191.19599   -105.20785   0.17299815   -105.03485    60.917859    4.3716039    4.3716039    4.3716039    60.917859    1633.0114     16289.38   -17739.638    8073.2416    16669.954    3077.6896    83.545373 
   31400    602.53079     -105.575   0.54518252   -105.02981    405.28131    4.3737322    4.3737322    4.3737322    405.28131   -2899.5143    8596.0849   -4480.7268   -926.43782   -1774.6399   -1357.0696    83.667454 
   31500    371.43394   -105.37036   0.33608124   -105.03428   -13267.386    4.3765515    4.3765515    4.3765515   -13267.386   -25062.177   -1956.7223   -12783.258   -3498.1188     16326.88   -4039.8178    83.829355 
   31600    421.81857   -105.41555    0.3816703   -105.03388    5175.8206    4.3691441    4.3691441    4.3691441    5175.8206    7773.1278    674.82209     7079.512    1511.3381   -856.62451    1899.0197    83.404428 
   31700    387.38755   -105.38276    0.3505164   -105.03225    707.09366    4.3784236    4.3784236    4.3784236    707.09366    6791.6874    2415.4867   -7085.8931    5738.3261   -1350.4033    1774.0733    83.936978 
   31800    208.82793   -105.22421    0.1889519   -105.03525    4541.4399    4.3696185    4.3696185    4.3696185    4541.4399   -785.97667    28382.161   -13971.865    8536.0663    13639.973     1911.667    83.431599 
   31900    572.60738   -105.54717   0.51810719   -105.02906   -1149.9905    4.3777892    4.3777892    4.3777892   -1149.9905   -10555.139    14826.623    -7721.455    3113.3308   -1636.9851   -4597.8601    83.900499 
   32000    364.06757   -105.36218   0.32941598   -105.03276   -7463.6118    4.3713717    4.3713717    4.3713717   -7463.6118    -19679.15    7843.0871   -10554.772   -6108.8587    16674.127    -2518.048    83.532065 
   32100    488.38009   -105.47388   0.44189657   -105.03199   -2405.5405    4.3755845    4.3755845    4.3755845   -2405.5405   -1636.9147   -4864.3319   -715.37474    3930.6403   -3822.7025    188.05192    83.773803 
   32200    336.44454   -105.33693   0.30442209   -105.03251    5857.7393    4.3722631    4.3722631    4.3722631    5857.7393   -3352.5871    25876.983   -4951.1781    3161.8825    5467.9506    7282.9132    83.583176 
   32300    220.87418   -105.23409    0.1998516   -105.03424    4051.6997    4.3748522    4.3748522    4.3748522    4051.6997   -8694.1127    34288.998   -13439.786    7726.3371    6883.0921    3510.8519    83.731749 
   32400    521.28946   -105.50194   0.47167366   -105.03027     1096.359    4.3728191    4.3728191    4.3728191     1096.359   -8279.5411    18629.209   -7060.5913    628.16857    604.49952    1699.8744    83.615064 
   32500    468.59957   -105.45582   0.42399874   -105.03182   -13457.931    4.3756915    4.3756915    4.3756915   -13457.931   -22106.876   -235.59492   -18031.322   -5054.8027    16622.907   -2598.7196    83.779946 
   32600    494.56386   -105.47794   0.44749177   -105.03045    3256.9035    4.3723742    4.3723742    4.3723742    3256.9035    -7169.936    19682.037   -2741.3903    3140.7325   -3748.4383    1282.7053    83.589549 
   32700     233.0181   -105.24458   0.21083968   -105.03374    4729.1988    4.3748409    4.3748409    4.3748409    4729.1988   -9907.5394    38484.106   -14388.971    6903.5729    12400.153    2255.3021      83.7311 
   32800    377.05691   -105.37242   0.34116901   -105.03125    8388.5535    4.3720744    4.3720744    4.3720744    8388.5535    8980.5649    20109.772   -3924.6761    8979.4074   -3005.3501    747.84594    83.572356 
   32900    421.13577   -105.41387    0.3810525   -105.03282   -5414.0344    4.3747273    4.3747273    4.3747273   -5414.0344   -3492.9578   -4166.5651   -8582.5803    1998.8724    6116.5594   -1908.9393    83.724574 
   33000    497.33992    -105.4813   0.45000361   -105.03129   -7428.2822    4.3747453    4.3747453    4.3747453   -7428.2822   -13526.643    5529.7554    -14287.96   -4731.2521    11009.115    -5144.486    83.725607 
   33100    488.33841   -105.47158   0.44185886   -105.02972   -454.67401    4.3738801    4.3738801    4.3738801   -454.67401   -8623.0808    14944.253   -7685.1941    4400.5988   -29.272479   -703.94194    83.675944 
   33200     214.2125    -105.2278   0.19382398   -105.03398    3473.1749    4.3744697    4.3744697    4.3744697    3473.1749    1814.6503    23268.059   -14663.185    6860.2195    14591.764    1748.8048    83.709786 
   33300    435.07882   -105.42356   0.39366846   -105.02989    9413.6173     4.372662     4.372662     4.372662    9413.6173    20428.162    8694.4777   -881.78748    6727.0717   -8211.7963    4708.2869    83.606055 
   33400    327.49202   -105.33014   0.29632166   -105.03382   -3480.9765    4.3742971    4.3742971    4.3742971   -3480.9765    -2506.645    -4864.368   -3071.9164     141.0824    9700.4467    1445.1516    83.699879 
   33500    567.03694   -105.54363   0.51306694   -105.03056    -7909.633    4.3756001    4.3756001    4.3756001    -7909.633   -14760.026   -1200.1221   -7768.7509   -6010.2529    6577.5574   -663.70617    83.774699 
   33600    478.78158   -105.46421   0.43321164     -105.031    1933.6938    4.3712273    4.3712273    4.3712273    1933.6938    9348.3845   -1670.2768   -1877.0262    2527.2415    3228.1563    215.59303    83.523783 
   33700    204.96579   -105.22118   0.18545736   -105.03572   -714.63551    4.3774657    4.3774657    4.3774657   -714.63551    3740.6572    11566.073   -17450.637    5147.1027     12474.96    1555.2217    83.881901 
   33800    451.22345   -105.43877   0.40827646   -105.03049    13843.685    4.3693819    4.3693819    4.3693819    13843.685    16137.815    16814.843    8578.3969    5816.8467   -10330.513    5820.2225    83.418048 
   33900    287.43045   -105.29596   0.26007311   -105.03589   -6812.1904    4.3770456    4.3770456    4.3770456   -6812.1904   -21987.245    5597.8487   -4047.1746    1021.3472     14155.63    1627.0403    83.857754 
   34000    541.12195    -105.5206   0.48961851   -105.03098   -3209.3191    4.3728336    4.3728336    4.3728336   -3209.3191   -7437.3238   -238.12215   -1952.5114   -4884.2796    5459.8698   -527.05216    83.615897 
   34100    477.83782   -105.46359    0.4323577   -105.03123   -4081.6726    4.3746985    4.3746985    4.3746985   -4081.6726    7021.7055   -8451.9425   -10814.781     1964.312    6474.3165   -6403.7092     83.72292 
   34200    270.38395   -105.27863   0.24464908   -105.03398   -2256.6844    4.3754753    4.3754753    4.3754753   -2256.6844   -1311.7484    9167.3379   -14625.643    6082.4586    10365.572    226.16988    83.767528 
   34300    490.26954   -105.47258   0.44360618   -105.02897    7996.2991    4.3721167    4.3721167    4.3721167    7996.2991   -419.84896    18851.581    5557.1651    5847.6292   -8592.4576    786.01433    83.574779 
   34400    219.17517   -105.23285    0.1983143   -105.03453   -4893.6099    4.3761363    4.3761363    4.3761363   -4893.6099   -27648.791    19772.382   -6804.4204    1510.8356     18898.09    5949.2917    83.805498 
   34500    535.67075   -105.51567   0.48468615   -105.03099    1100.1944    4.3712592    4.3712592    4.3712592    1100.1944   -3477.0665    3508.6998      3268.95   -5197.3551     148.7692   -3164.6676    83.525612 
   34600    444.48702   -105.43486    0.4021812   -105.03267   -8953.1903    4.3768092    4.3768092    4.3768092   -8953.1903   -1138.3813   -9526.0459   -16195.144    -309.6916    11440.005   -546.94989    83.844163 
   34700    327.26319   -105.33097   0.29611461   -105.03485    1713.4647    4.3717779    4.3717779    4.3717779    1713.4647   -2948.2797    14261.214   -6172.5399    4305.2561    5346.5594   -907.42629    83.555353 
   34800    460.72059   -105.44781   0.41686967   -105.03094    3598.6135    4.3753102    4.3753102    4.3753102    3598.6135   -9045.5979    16930.925    2910.5139    1240.7028   -5898.2564    8053.5179     83.75805 
   34900    205.24236   -105.22012    0.1857076   -105.03441    1199.5909     4.374335     4.374335     4.374335    1199.5909   -23415.206    28298.191   -1284.2115   -968.14495    18634.436    5450.2337    83.702053 
   35000    544.35257   -105.52106   0.49254164   -105.02852    819.47013    4.3741121    4.3741121    4.3741121    819.47013    1438.6065    1623.5721   -603.76821   -8065.5577   -2895.0175    2572.8536    83.689258 
   35100    347.52085   -105.34617   0.31444417   -105.03173   -4570.2777    4.3754634    4.3754634    4.3754634   -4570.2777    2015.0548   -318.40201   -15407.486    981.01962    16389.844   -4358.4355    83.766844 
   35200    477.59679   -105.46261   0.43213961   -105.03047   -4261.9512      4.37415      4.37415      4.37415   -4261.9512   -2024.3957    1831.4455   -12592.903    4869.9338   -1654.4521   -941.82999    83.691434 
   35300    413.02939   -105.40465   0.37371767   -105.03093    2748.0005     4.373001     4.373001     4.373001    2748.0005   -11481.594    20697.201   -971.60538    2240.9357    643.93486    1206.7399    83.625501 
   35400    276.29236    -105.2842   0.24999513   -105.03421   -2659.1671     4.376223     4.376223     4.376223   -2659.1671   -17481.645    19851.563   -10347.419   -2186.2225    15749.011    3931.4041     83.81048 
   35500     477.8058    -105.4635   0.43232873   -105.03117    9187.3151    4.3692563    4.3692563    4.3692563    9187.3151    19864.067     2016.877    5681.0014   -4047.4859   -1032.4297   -1457.3127     83.41085 
   35600    326.94957    -105.3303   0.29583084   -105.03447   -10498.674    4.3800988    4.3800988    4.3800988   -10498.674   -439.48068   -5765.3528   -25291.189     1169.976    18067.991   -2790.0871     84.03336 
   35700    563.16911   -105.53865   0.50956725   -105.02908    555.42528    4.3700161    4.3700161    4.3700161    555.42528    4329.5518    4144.5067   -6807.7826    8315.3015   -5089.0888   -3252.0691    83.454374 
   35800    413.44889   -105.40491   0.37409725   -105.03082    -8149.412    4.3788458    4.3788458    4.3788458    -8149.412    -18010.51    12752.127   -19189.854   -3209.9286    5992.3194    821.55108    83.961259 
   35900    307.80529   -105.31061   0.27850869    -105.0321    6322.6312    4.3717998    4.3717998    4.3717998    6322.6312    15215.603    14106.881    -10354.59   -2985.9095    11189.694    3621.7718    83.556608 
   36000    336.67393   -105.33469   0.30462965   -105.03006     9308.585     4.375125     4.375125     4.375125     9308.585    23900.557    1188.1111    2837.0873   -6947.3162    4529.0507    4356.4847    83.747412 
   36100    313.88776   -105.31645   0.28401224   -105.03244   -2952.9848    4.3750529    4.3750529    4.3750529   -2952.9848   -1184.2324   -1016.8883   -6657.8336    1434.8199    19467.428    2117.2496    83.743271 
   36200    596.68628   -105.56849   0.53989429    -105.0286   -1944.7186    4.3720623    4.3720623    4.3720623   -1944.7186   -3081.6796   -8474.8902     5722.414    4676.9682    -7403.823   -1018.0503     83.57166 
   36300    393.96726   -105.38911   0.35646985   -105.03264   -7292.1181    4.3767274    4.3767274    4.3767274   -7292.1181   -23.786016     -1003.01   -20849.558   -1299.1717    7829.2196   -863.84596    83.839465 
   36400    355.04712   -105.35434    0.3212541   -105.03309    3322.6699    4.3733324    4.3733324    4.3733324    3322.6699     18497.25   -633.10685   -7896.1331   -2268.9498    8356.1822    -191.2538    83.644513 
   36500    368.32951   -105.36484   0.33327228   -105.03157    7514.3005    4.3727436    4.3727436    4.3727436    7514.3005    3964.3058    6001.6485    12576.947   -4385.1749    6451.7123    5742.0914    83.610732 
   36600    268.87433   -105.27698   0.24328315    -105.0337   -4606.7236    4.3780835    4.3780835    4.3780835   -4606.7236    -22358.75    3199.8826    5338.6967    -520.7761    15198.383     4336.582    83.917417 
   36700    520.19336   -105.49977   0.47068188   -105.02909    4552.7843    4.3689043    4.3689043    4.3689043    4552.7843     807.2728   -702.65499    13553.735    6489.1136   -9738.4676    1214.7805    83.390695 
   36800    424.80916   -105.41611   0.38437625   -105.03173   -15882.429     4.381569     4.381569     4.381569   -15882.429   -13177.203   -9503.3329   -24966.753    320.28561     13011.21    -4914.541    84.118006 
   36900    421.09233   -105.41183   0.38101319   -105.03082    5591.8884    4.3679092    4.3679092    4.3679092    5591.8884     10708.13   -4267.8759    10335.411    1610.8643    7366.6512   -2963.7983    83.333729 
   37000    378.58079   -105.37398   0.34254785   -105.03143     -1680.27    4.3788453    4.3788453    4.3788453     -1680.27   -16023.267   -7370.0342    18352.491   -3076.8349    8566.7272    2418.8968    83.961233 
   37100    283.00473    -105.2883   0.25606863   -105.03223    4100.0437    4.3719036    4.3719036    4.3719036    4100.0437   -14419.561    18447.336    8272.3554    42.722472    11196.327    6627.7308     83.56256 
   37200    529.03242   -105.50876   0.47867966   -105.03008   -2114.3573    4.3736077    4.3736077    4.3736077   -2114.3573   -11602.478    6824.0323   -1564.6266    6871.1885   -6345.6526   -1708.0309    83.660309 
   37300    385.10734   -105.38036   0.34845321   -105.03191   -8720.3447    4.3780643    4.3780643    4.3780643   -8720.3447   -15395.238    4126.5534   -14892.349    789.26207    13763.081   -3561.3892    83.916315 
   37400    405.47705   -105.39756   0.36688416   -105.03067    7006.9414    4.3686651    4.3686651    4.3686651    7006.9414    2019.3402   -10003.549    29005.033    7055.9768     3947.257   -2409.2521       83.377 
   37500    344.19453   -105.34328   0.31143445   -105.03185   -4287.2419    4.3800979    4.3800979    4.3800979   -4287.2419   -16290.109   -3288.0482    6716.4314   -4872.2023    10613.173    6351.0291    84.033307 
   37600    375.03192   -105.37035   0.33933676   -105.03101    5552.2466    4.3695407    4.3695407    4.3695407    5552.2466   -6151.2299    21883.403    924.56689    362.49504    7554.7788    4279.4784     83.42714 
   37700    468.61982   -105.45435   0.42401706   -105.03033   -5114.7729     4.376572     4.376572     4.376572   -5114.7729   -17089.848    11509.853   -9764.3242     1743.236   -4395.2388   -1784.2167    83.830534 
   37800    378.26995   -105.37418    0.3422666   -105.03191   -2430.2294    4.3739746    4.3739746    4.3739746   -2430.2294   -16595.234    11665.985   -2361.4394     1310.948    14038.858   -5911.1216    83.681368 
   37900    495.06023   -105.47776    0.4479409   -105.02982    133.83232    4.3736478    4.3736478    4.3736478    133.83232   -5642.5904   -8395.8455    14439.933    4443.0833   -1026.9291    1537.6885    83.662614 
   38000    257.55927   -105.26642   0.23304504   -105.03338    2105.9993    4.3746539    4.3746539    4.3746539    2105.9993   -13275.153    22178.086   -2584.9347   -4990.9165    15936.535    4695.6547     83.72036 
   38100    376.67123   -105.37186   0.34082004   -105.03104    7979.5923    4.3736227    4.3736227    4.3736227    7979.5923   -3233.6755    32853.527   -5681.0742   -4992.1693    2865.3271    3604.4798    83.661169 
   38200    409.88098   -105.40387   0.37086892   -105.03301   -3899.7497    4.3736035    4.3736035    4.3736035   -3899.7497   -10932.592    12312.697   -13079.354    2397.4697    3708.9618   -4731.1058    83.660068 
   38300    503.42596   -105.48703   0.45551039   -105.03152   -10304.706    4.3761991    4.3761991    4.3761991   -10304.706   -17989.796   -1089.4097   -11834.913   -1494.0882    8743.3247   -2467.5829    83.809111 
   38400    521.91796   -105.50187   0.47224234   -105.02962    1050.0882    4.3724068    4.3724068    4.3724068    1050.0882   -9929.1428    12917.542    161.86539    9065.5374   -2714.1585    357.24027    83.591416 
   38500    143.27351    -105.1649   0.12963688   -105.03527    1535.5829    4.3758499    4.3758499    4.3758499    1535.5829   -19985.655    38464.305   -13871.901    -6167.623    17572.976    4094.7097    83.789045 
   38600    504.46891   -105.48631   0.45645407   -105.02985    9903.6639    4.3712828    4.3712828    4.3712828    9903.6639    9220.5487     18185.27    2305.1732   -2372.8205   -36.115275    2133.2662    83.526965 
   38700    334.70861   -105.33803   0.30285138   -105.03518   -10251.552    4.3757358    4.3757358    4.3757358   -10251.552   -7561.1552   -7482.1316   -15711.368    1977.2082    13285.593   -1090.4475    83.782494 
   38800    489.88438    -105.4769   0.44325768   -105.03364   -2912.2762    4.3723557    4.3723557    4.3723557   -2912.2762   -4862.2644    5709.5302   -9584.0942    1470.5748    3191.2957   -2369.5063    83.588486 
   38900    470.43104     -105.458   0.42565589   -105.03235   -3077.5944    4.3765993    4.3765993    4.3765993   -3077.5944   -15895.312    17064.409   -10401.881    3858.3235   -298.67337    2182.0827      83.8321 
   39000    213.35255   -105.22872   0.19304587   -105.03568    844.64287    4.3728087    4.3728087    4.3728087    844.64287   -4969.5693    21542.733   -14039.235   -9239.0412    13302.402    3871.3904    83.614468 
   39100    503.39484   -105.48532   0.45548223   -105.02984    7107.1532    4.3746402    4.3746402    4.3746402    7107.1532    16864.841     144.6663    4311.9522   -6118.8637    658.92565     5004.518    83.719577 
   39200    255.68372   -105.26622   0.23134801   -105.03487   -4960.6674    4.3752994    4.3752994    4.3752994   -4960.6674   -1140.5599   -5839.0576   -7902.3847    4595.3579    17886.582   -1956.0716     83.75743 
   39300    537.34574    -105.5167   0.48620172    -105.0305   -1571.7278    4.3738732    4.3738732    4.3738732   -1571.7278   -5996.8587   -1757.5171    3039.1924   -1210.6632   -645.10136    -3025.126    83.675547 
   39400    490.48773   -105.47585   0.44380361   -105.03205   -2761.3199    4.3736091    4.3736091    4.3736091   -2761.3199   -7851.0683    13971.747   -14404.639     2117.765    1405.0646   -4986.6721    83.660394 
   39500    193.61203   -105.21208   0.17518423    -105.0369    904.09585      4.37479      4.37479      4.37479    904.09585    7671.8601    6185.0078    -11144.58   -8862.2133    11744.823    1370.5744    83.728175 
   39600    514.79268    -105.4965   0.46579524   -105.03071    6678.1155    4.3740554    4.3740554    4.3740554    6678.1155    18841.491   -1237.9012    2430.7572   -2592.2606    1553.7918    1143.1639    83.686008 
   39700     263.4182   -105.27358   0.23834633   -105.03523   -5583.6104    4.3744761    4.3744761    4.3744761   -5583.6104   -11951.201   -3944.4096   -855.22009    2859.6122    18977.787    575.62123    83.710155 
   39800    571.82033   -105.54865   0.51739505   -105.03126   -3544.0048    4.3741129    4.3741129    4.3741129   -3544.0048   -7692.5917   -11164.673    8225.2501     1830.675   -4379.3893   -5136.2211    83.689305 
   39900    458.72347   -105.44702   0.41506263   -105.03196   -6768.2005    4.3763207    4.3763207    4.3763207   -6768.2005   -7883.0062    4131.0226   -16552.618    1965.4147    4501.4724    -2147.857    83.816094 
   40000    275.54486   -105.28411   0.24931878    -105.0348    3903.3378    4.3713609    4.3713609    4.3713609    3903.3378    7718.7862     5526.843   -1535.6159   -4268.2907    10342.597   -571.32808    83.531445 
   40100    432.08544   -105.42132   0.39095999   -105.03036    5059.0179    4.3787591    4.3787591    4.3787591    5059.0179    1950.0944    5372.4991    7854.4601   -3722.1618    4211.3423     7661.835    83.956275 
   40200    202.33587   -105.21765   0.18307775   -105.03457    4472.4415    4.3691631    4.3691631    4.3691631    4472.4415   -12820.796    4666.1222    21571.998    1470.7046    17328.154    3736.8636    83.405517 
   40300    578.45395   -105.55364   0.52339729   -105.03024   -8120.9276    4.3791997    4.3791997    4.3791997   -8120.9276   -12556.084   -9585.1719   -2221.5268    129.11051   -6347.0614    763.43087     83.98162 
   40400    492.07151   -105.47715   0.44523665   -105.03191   -5379.4969    4.3716227    4.3716227    4.3716227   -5379.4969   -10669.981    1723.2231   -7191.7332     2655.139    6045.3942   -4563.9617    83.546455 
   40500    331.02856   -105.33427    0.2995216   -105.03475   -2043.8785    4.3756805    4.3756805    4.3756805   -2043.8785   -7891.0136   -9602.2335    11361.611   -2808.9889    8581.6289      740.867    83.779317 
   40600    390.94144   -105.38519   0.35373203   -105.03146    9386.2381    4.3742174    4.3742174    4.3742174    9386.2381    1638.4359    8142.5004    18377.778   -4548.7584    4626.7427    3514.6112    83.695302 
   40700    218.48039   -105.23195   0.19768565   -105.03426    1750.3015    4.3741156    4.3741156    4.3741156    1750.3015   -8057.7134    9397.7607    3910.8573   -3789.2206    15170.511    4890.1427    83.689459 
   40800    564.45699   -105.54009   0.51073255   -105.02935    183.38244    4.3736656    4.3736656    4.3736656    183.38244    775.17184    6386.7019   -6611.7264   -4639.6194   -6266.7335   -3056.7703    83.663634 
   40900    383.47173   -105.37985   0.34697328   -105.03287   -7741.0068    4.3764345    4.3764345    4.3764345   -7741.0068   -20643.827    2637.1921   -5216.3852    3614.2321    8652.3719   -3397.9059    83.822631 
   41000    421.09244   -105.41327   0.38101328   -105.03226    2526.3215    4.3717951    4.3717951    4.3717951    2526.3215   -6022.8369   -7582.2904    21184.092    769.10385    4439.0647    536.75853     83.55634 
   41100    440.14174   -105.43018   0.39824949   -105.03193    -1338.972    4.3767058    4.3767058    4.3767058    -1338.972   -3761.6102    2609.1612   -2864.4669    334.92053    6813.0219    5976.0181    83.838224 
   41200    253.78886    -105.2639    0.2296335   -105.03426    3376.6659     4.372149     4.372149     4.372149    3376.6659    76.903179    18232.312    -8179.217   -4439.5511    11642.715    1710.2896    83.576629 
   41300    509.33326   -105.49141   0.46085543   -105.03056    1943.1448    4.3754144    4.3754144    4.3754144    1943.1448    2833.9101    11172.677   -8177.1528   -2260.1523   -7361.8314   -3619.7674     83.76403 
   41400    268.88136   -105.27771   0.24328951   -105.03442   -1486.9464    4.3739524    4.3739524    4.3739524   -1486.9464   -16706.859    5310.1714    6935.8487    2804.4498    8711.0872    -5574.474    83.680091 
   41500    563.94405   -105.54164   0.51026843   -105.03137   -2418.5702    4.3745168    4.3745168    4.3745168   -2418.5702   -8106.4737   -6777.7587    7628.5219    3742.0764    1655.1773    2047.7998    83.712489 
   41600    429.28981   -105.42015   0.38843045   -105.03172   -6557.1762    4.3767816    4.3767816    4.3767816   -6557.1762    -6102.941   -2162.3561   -11406.231    793.26294     9975.015    3466.8735    83.842578 
   41700    343.91127    -105.3447   0.31117814   -105.03352    4433.5892    4.3705267    4.3705267    4.3705267    4433.5892    3306.8853    16723.452   -6729.5699   -2870.0136    5953.1501   -719.74503    83.483634 
   41800    412.67017   -105.40385   0.37339264   -105.03046    4236.7074    4.3798141    4.3798141    4.3798141    4236.7074     -1765.01    9921.4845    4553.6478   -5958.7287   -6860.9766   -6721.4097    84.016973 
   41900    167.35825   -105.18577   0.15142926   -105.03434    7861.4109    4.3676268    4.3676268    4.3676268    7861.4109   -10289.689     17157.36    16716.562   -69.700591    10560.977    -6629.249    83.317566 
   42000    616.37023   -105.58695   0.55770474   -105.02925   -9119.6257    4.3806462    4.3806462    4.3806462   -9119.6257   -15444.439   -9149.8338   -2764.6042   -951.74546    226.37507    481.96919    84.064869 
   42100    434.68328    -105.4261   0.39331056   -105.03279   -4222.1506    4.3697366    4.3697366    4.3697366   -4222.1506   -4011.1839    1658.2878   -10313.556    2021.1883    10638.322    4685.9957    83.438366 
   42200    400.12716   -105.39701   0.36204346   -105.03496   -7895.6415    4.3782878    4.3782878    4.3782878   -7895.6415   -14619.803    -5655.903   -3411.2191   -2829.7759    3379.1961    802.69897    83.929168 
   42300    398.44967   -105.39245   0.36052564   -105.03192    12770.588    4.3713921    4.3713921    4.3713921    12770.588    4212.6484     13195.93    20903.186   -3884.7945   -4847.6287   -5148.6055    83.533234 
   42400    138.59503   -105.16282    0.1254037   -105.03742   -297.48387    4.3755429    4.3755429    4.3755429   -297.48387    -17641.83    21076.429   -4327.0511   -3435.9088    9933.9001   -5008.4146    83.771413 
   42500    639.83763   -105.60824   0.57893854   -105.02931   -1073.1146    4.3745271    4.3745271    4.3745271   -1073.1146   -5348.5906    9175.5881   -7046.3412    46.652094   -1899.7735    2457.9459    83.713084 
   42600    372.64103   -105.37091   0.33717343   -105.03373   -9713.9451    4.3750072    4.3750072    4.3750072   -9713.9451   -18199.961    2107.2774   -13049.151    3075.3584    13764.753    5472.0881     83.74065 
   42700     463.9585   -105.45306    0.4197994   -105.03326   -3804.2732    4.3748759    4.3748759    4.3748759   -3804.2732   -13422.416   -4289.1873    6298.7834     2914.224    793.68039   -382.03519    83.733111 
   42800    400.71786    -105.3937   0.36257794   -105.03112    5714.5104    4.3752472    4.3752472    4.3752472    5714.5104   -6894.5725    16841.759    7196.3453   -357.25239    215.41549   -7687.2419     83.75443 
   42900    196.63863   -105.21362   0.17792277    -105.0357     2343.465    4.3723248    4.3723248    4.3723248     2343.465   -10589.151    30646.486   -13026.939   -3604.4475    6399.6656   -4949.8692    83.586713 
   43000    542.17149   -105.52043   0.49056816   -105.02987    1702.9539    4.3771129    4.3771129    4.3771129    1702.9539   -776.72978    15201.476   -9315.8845   -1618.7624   -1832.4099    2387.7759     83.86162 
   43100    390.93597   -105.38788   0.35372709   -105.03415    -5100.318    4.3703544    4.3703544    4.3703544    -5100.318   -14262.233     5778.807   -6817.5278    853.01355    15523.539    2284.8986    83.473757 
   43200    461.13566   -105.45128   0.41724524   -105.03404   -4396.7163    4.3792993    4.3792993    4.3792993   -4396.7163   -14621.488    1784.0918   -352.75252    2098.1753   -2912.6103   -2457.1305    83.987349 
   43300    363.48259   -105.36196   0.32888669   -105.03307    7733.9645    4.3699673    4.3699673    4.3699673    7733.9645    -7752.038    31330.765   -376.83336   -3650.3087    6530.5102   -7128.6928    83.451582 
   43400    279.06667   -105.28797   0.25250538   -105.03546   -2278.0232     4.377761     4.377761     4.377761   -2278.0232   -8517.9966    22782.249   -21098.323   -6110.3391    1337.0213    549.13505    83.898873 
   43500    511.83943    -105.4929   0.46312307   -105.02978    1554.3761    4.3732806    4.3732806    4.3732806    1554.3761    8554.9228    6480.9262   -10372.721   -3980.8044    1691.2327    4161.3575    83.641542 
   43600    375.93198   -105.37244   0.34015116   -105.03229   -8153.1902    4.3750044    4.3750044    4.3750044   -8153.1902   -11049.051   -551.15036   -12859.369    3066.7802    14905.018    3805.1218    83.740489 
   43700    458.28139   -105.44489   0.41466263   -105.03023   -1361.7107    4.3764349    4.3764349    4.3764349   -1361.7107   -9940.5341    2673.2242    3182.1779    4667.3646   -4060.7734   -4166.9091    83.822656 
   43800    327.26567   -105.32838   0.29611686   -105.03227    3855.7375    4.3707592    4.3707592    4.3707592    3855.7375   -11099.453    33411.311   -10744.645   -331.19228    10327.117   -2181.4318    83.496955 
   43900    375.84864   -105.37186   0.34007575   -105.03178   -4795.0064    4.3792914    4.3792914    4.3792914   -4795.0064   -10733.061    13340.422    -16992.38   -3264.5246   -4760.9566   -1527.5136    83.986898 
   44000    471.28049   -105.45721   0.42642449   -105.03078     1526.336    4.3689782    4.3689782    4.3689782     1526.336    12280.021    2509.8338   -10210.847   -1056.4411    7674.1649    6356.8989    83.394928 
   44100    380.18917   -105.37689   0.34400315   -105.03288    -11242.96      4.38048      4.38048      4.38048    -11242.96   -16528.641    -914.0944   -16286.146    5042.1269    10117.277   -2365.3056    84.055301 
   44200     445.9131   -105.43368   0.40347154    -105.0302    8636.0942    4.3687267    4.3687267    4.3687267    8636.0942   -2759.4494    24720.449     3947.283    2301.0718   -2969.8705   -3855.9042    83.380524 
   44300    244.67022   -105.25466   0.22138276   -105.03328   -2644.7401    4.3803721    4.3803721    4.3803721   -2644.7401   -21433.086     32682.02   -19183.154   -4004.1184    10347.657   -6268.2623     84.04909 
   44400    462.40728   -105.44772   0.41839583   -105.02932    6046.5309    4.3698101    4.3698101    4.3698101    6046.5309    8311.3066    16586.219    -6757.933   -7332.6132   -9779.6182    169.83055    83.442577 
   44500    435.88572   -105.42516   0.39439856   -105.03077   -9846.0829    4.3796179    4.3796179    4.3796179   -9846.0829    2362.0135   -8243.6164   -23656.646    -198.4144    10975.111    3046.9035    84.005682 
   44600    427.64822   -105.41811   0.38694509   -105.03117    386.27697    4.3706939    4.3706939    4.3706939    386.27697   -3135.3719    15603.718   -11309.515    3684.7635    2945.3611    687.90234    83.493211 
   44700    422.82922   -105.41324   0.38258477   -105.03065    1162.6762    4.3767065    4.3767065    4.3767065    1162.6762   -10453.074    22232.433   -8291.3296    1414.9868    347.81425   -3510.7586    83.838264 
   44800     262.7739   -105.27142   0.23776334   -105.03366    2207.5235     4.373466     4.373466     4.373466    2207.5235   -9709.1371    26174.538   -9842.8307   -4860.6922    7772.2579   -4063.7456    83.652182 
   44900    467.22409   -105.45408   0.42275418   -105.03132    2728.4166    4.3735046    4.3735046    4.3735046    2728.4166    12119.384    4152.5397    -8086.674    -2733.824   -14014.653   -299.76617    83.654394 
   45000    398.07853   -105.39254   0.36018982   -105.03235   -5312.1585    4.3771001    4.3771001    4.3771001   -5312.1585    7057.3042   -4648.6514   -18345.128    3440.9576    12450.596    3318.5434    83.860885 
   45100    484.98711    -105.4698   0.43882653   -105.03098   -5533.2081    4.3728372    4.3728372    4.3728372   -5533.2081   -8772.3395    9437.3961   -17264.681    6094.0485   -3071.8988    2236.9582    83.616103 
   45200    460.11008   -105.44614   0.41631727   -105.02982   -2636.4332    4.3779177    4.3779177    4.3779177   -2636.4332    -8383.721    11940.827   -11466.406    561.24093    3398.2629   -2110.2162    83.907886 
   45300    250.95782   -105.25956   0.22707191   -105.03249     5106.531    4.3716763    4.3716763    4.3716763     5106.531     9362.703    18072.831   -12115.941   -6450.6344    2699.3353   -3416.4771    83.549525 
   45400    313.99478   -105.31532   0.28410908   -105.03121    6639.5763     4.376939     4.376939     4.376939    6639.5763     23158.53     1921.898   -5161.6995   -4946.7815    -15250.62   -2936.7009    83.851622 
   45500    463.02482   -105.45093   0.41895459   -105.03198   -3725.2335    4.3715636    4.3715636    4.3715636   -3725.2335    2418.8856   -3905.5535   -9689.0326   -961.03796    11938.351    104.22183    83.543062 
   45600    449.48465   -105.43959   0.40670316   -105.03289   -11520.024    4.3773325    4.3773325    4.3773325   -11520.024   -13837.684   -3596.6563   -17125.731    3937.8131      -5811.3    2860.2696     83.87424 
   45700    551.71462   -105.53029   0.49920298   -105.03109   -1520.2645    4.3730587    4.3730587    4.3730587   -1520.2645    14741.947    -7134.072   -12168.669   -2115.3492    3352.0422    1175.2551    83.628809 
   45800    217.24804   -105.23152   0.19657059   -105.03495    4243.1362    4.3741398    4.3741398    4.3741398    4243.1362    14312.863    5985.8569   -7569.3108   -3834.3112   -1277.7369   -933.05749    83.690849 
   45900    372.68591   -105.36931   0.33721404    -105.0321    3406.6456    4.3763981    4.3763981    4.3763981    3406.6456    4227.8352    10374.737   -4382.6353   -7942.6672   -14294.468   -5575.4451    83.820542 
   46000    392.92365    -105.3865   0.35552558   -105.03097    3268.0274    4.3730073    4.3730073    4.3730073    3268.0274   -10319.503    18781.063    1342.5227    1255.3899    10891.534   -4479.0025    83.625861 
   46100    364.92168   -105.36221    0.3301888   -105.03203   -7163.0437    4.3764841    4.3764841    4.3764841   -7163.0437   -9119.8302    9281.8769   -21651.178    4049.9851   -7584.9203    110.65875    83.825482 
   46200    522.48484   -105.50194   0.47275526   -105.02918    1544.3146    4.3730291    4.3730291    4.3730291    1544.3146    18005.101   -7369.0982   -6003.0587    3666.1609    2556.4597    3246.4145    83.627112 
   46300    332.79851    -105.3342   0.30112309   -105.03307    -5978.644    4.3757797    4.3757797    4.3757797    -5978.644   -947.22002   -4675.6317    -12313.08   -2725.6924    -6011.858    1796.3238    83.785013 
   46400     453.2161   -105.44217   0.41007945   -105.03209   -357.13474    4.3735681    4.3735681    4.3735681   -357.13474   -5379.5869    2646.2818    1661.9009   -3341.0636   -10230.182   -3366.3827    83.658037 
   46500    409.04919   -105.40201    0.3701163    -105.0319    1832.0596    4.3749001    4.3749001    4.3749001    1832.0596   -7346.3531     15013.36   -2170.8284    767.79894    9732.8713    -4376.896    83.734497 
   46600    248.74944    -105.2597   0.22507372   -105.03463     69.68738    4.3749743    4.3749743    4.3749743     69.68738    7314.3271    17082.191   -24187.456    6801.1688   -10421.579    259.86032    83.738761 
   46700    476.92688   -105.46222   0.43153346   -105.03069    6452.4711    4.3730561    4.3730561    4.3730561    6452.4711    18211.236    2252.4803   -1106.3031    2134.0772    445.41682    3221.5275     83.62866 
   46800    358.60763   -105.35787   0.32447572   -105.03339   -8578.5599    4.3768406    4.3768406    4.3768406   -8578.5599   -8812.5767   -4021.0588   -12902.044   -1066.0135   -8828.6433    3874.2566    83.845969 
   46900    474.52193   -105.46065   0.42935742    -105.0313   -2236.6051    4.3727178    4.3727178    4.3727178   -2236.6051   -4542.1548   -9364.6638    7197.0033   -5470.9037   -5215.3714   -2397.4632    83.609254 
   47000    524.78366   -105.50549   0.47483528   -105.03066   -6636.5096    4.3766897    4.3766897    4.3766897   -6636.5096   -352.61642    -5429.904   -14127.008   -984.92902    7831.1499   -3136.9227      83.8373 
   47100     216.4569   -105.23021   0.19585476   -105.03435    1552.5905    4.3741144    4.3741144    4.3741144    1552.5905    9784.5626    11210.583   -16337.375    5244.7178   -12958.315   -2099.6831    83.689391 
   47200     479.1712   -105.46375   0.43356417   -105.03019    6823.1154    4.3733306    4.3733306    4.3733306    6823.1154    8362.5369    8522.8271    3583.9823    2266.9945   -1124.1144    3630.4369    83.644412 
   47300    243.65672   -105.25532   0.22046572   -105.03485   -791.32874    4.3763861    4.3763861    4.3763861   -791.32874   -16183.626    13649.451    160.18812    816.46917   -9910.7812    5166.8482    83.819854 
   47400    477.28129   -105.46373   0.43185414   -105.03187   -423.10347    4.3726094    4.3726094    4.3726094   -423.10347   -6266.7737   -1116.0653    6113.5286   -6120.8585   -429.05615   -411.56662    83.603034 
   47500    526.46058   -105.50737    0.4763526   -105.03102   -7084.9398    4.3773749    4.3773749    4.3773749   -7084.9398    2481.8142   -9446.0951   -14290.538   -2478.4063    2107.2281   -4733.6544    83.876677 
   47600    346.14751   -105.34639   0.31320154   -105.03319   -4213.0188     4.373791     4.373791     4.373791   -4213.0188   -1143.9325   -3113.2527   -8381.8712    603.54969   -13692.725   -1967.7719    83.670831 
   47700    456.31759    -105.4429   0.41288575   -105.03001    5757.7541    4.3753486    4.3753486    4.3753486    5757.7541    1866.9051   -505.26939    15911.626    3379.2379    -951.5467    3534.8759    83.760253 
   47800    238.58636   -105.24947   0.21587795   -105.03359    2369.2022    4.3742911    4.3742911    4.3742911    2369.2022   -18861.352    23938.881    2030.0772    973.18099   -8621.7477    9144.7729    83.699532 
   47900    456.78121   -105.44427   0.41330524   -105.03096    365.11448    4.3751114    4.3751114    4.3751114    365.11448   -6554.5466    12292.798   -4642.9079     -2436.24    2749.3156    702.58776    83.746633 
   48000    449.86248   -105.43868   0.40704503   -105.03164    -2488.898      4.37364      4.37364      4.37364    -2488.898   -3404.8889    7690.9662   -11752.771   -4384.9574   -3417.5173   -3164.1446    83.662163 
   48100    373.53473   -105.37153   0.33798207   -105.03354   -3484.8512    4.3758942    4.3758942    4.3758942   -3484.8512    -7859.021    -4326.839    1731.3064      1824.68   -10247.584     -1280.17    83.791591 
   48200    464.12887   -105.45088   0.41995355   -105.03092    3034.7155    4.3740305    4.3740305    4.3740305    3034.7155   -528.78302    760.89828    8872.0312     885.3066   -1148.0896    4554.4747    83.684576 
   48300    221.16743   -105.23459   0.20011694   -105.03447    2352.1882    4.3743205    4.3743205    4.3743205    2352.1882   -19781.138    36899.839   -10062.136    3526.9306   -9927.5409    6317.4171    83.701225 
   48400    517.00679   -105.49751   0.46779861   -105.02971   -1483.4555    4.3764566    4.3764566    4.3764566   -1483.4555    -6694.422    17462.815   -15218.759   -3914.8043    4281.4655   -2141.2863    83.823901 
   48500    390.37649   -105.38533   0.35322085   -105.03211   -6172.7678    4.3734134    4.3734134    4.3734134   -6172.7678   -12237.963      6979.28   -13259.621   -2434.5505   -8276.1688    -6714.203    83.649163 
   48600     497.9884   -105.48224   0.45059037   -105.03165   -5960.9455    4.3766595    4.3766595    4.3766595   -5960.9455   -7945.8984    -3857.993   -6078.9451   -75.126803    -4274.532   -1055.7646     83.83556 
   48700    328.26449   -105.32914   0.29702061   -105.03212    7470.0855    4.3719219    4.3719219    4.3719219    7470.0855   -3908.8892    23880.241    2438.9045    1464.4942   -5570.5555    4481.2693    83.563611 
   48800    219.69828   -105.23458   0.19878762   -105.03579    1896.4228    4.3768915    4.3768915    4.3768915    1896.4228   -18111.624    43641.771   -19840.878    3325.9092    -9030.789    3211.4243    83.848893 
   48900     593.7963   -105.56716   0.53727937   -105.02988     2718.586    4.3717695    4.3717695    4.3717695     2718.586   -2085.6935    14971.589   -4730.1373   -928.57348    3372.9542   -759.42195    83.554872 
   49000     363.3448   -105.36319   0.32876201   -105.03443   -15485.269    4.3780664    4.3780664    4.3780664   -15485.269   -20890.746   -104.63147   -25460.428   -2386.0463   -11231.273   -5279.2222    83.916436 
   49100    538.34581   -105.51852    0.4871066   -105.03141    4983.5234    4.3719428    4.3719428    4.3719428    4983.5234   -5800.8779    27060.568     -6309.12    96.691298    4152.2678    3299.9205     83.56481 
   49200    198.74312   -105.21447   0.17982695   -105.03464    7500.0566    4.3755411    4.3755411    4.3755411    7500.0566   -10844.239    41356.636   -8012.2263    987.03718   -10601.408    4931.7791     83.77131 
   49300    343.90185   -105.34458   0.31116962   -105.03341    1131.3369    4.3744051    4.3744051    4.3744051    1131.3369   -9799.8007     21689.13   -8495.3184    3238.9251   -3465.2209    5702.3206    83.706077 
   49400    557.19079    -105.5348   0.50415794   -105.03064    97.877983    4.3733514    4.3733514    4.3733514    97.877983   -190.22591    -2370.065    2853.9248   -3252.7451   -3220.6456   -2439.0958    83.645605 
   49500    366.55003   -105.36589   0.33166217   -105.03423   -13134.302     4.377328     4.377328     4.377328   -13134.302   -20463.115    7961.4935   -26901.285   -2879.7178   -8266.2151   -4327.1341    83.873985 
   49600     464.1035   -105.45092    0.4199306   -105.03099    10910.367    4.3714678    4.3714678    4.3714678    10910.367   -1293.4575    34728.992   -704.43513   -2710.8467    6699.5355    808.08554    83.537574 
   49700    263.62091   -105.27274   0.23852974   -105.03421   -4337.7938    4.3786878    4.3786878    4.3786878   -4337.7938   -23047.677    22869.944   -12835.649    3930.3863   -12893.692    6346.9712    83.952175 
   49800    382.09241   -105.37769   0.34572524   -105.03196    6853.1915    4.3701559    4.3701559    4.3701559    6853.1915     3909.892    5577.4092    11072.273    1831.7252    738.36271    336.05662    83.462384 
   49900    522.09997   -105.50378   0.47240703   -105.03137   -10238.866    4.3788257    4.3788257    4.3788257   -10238.866   -10715.794   -10554.174    -9446.631    1644.1306   -9591.1744   -2971.3818    83.960108 
   50000    306.31157     -105.311   0.27715714   -105.03384    1657.3141    4.3701002    4.3701002    4.3701002    1657.3141   -4467.8521     22252.04   -12812.246   -4561.8354   -3567.8496   -5556.5999    83.459192 
   50100    486.71106   -105.47125   0.44038639   -105.03087   -3325.4712    4.3790752    4.3790752    4.3790752   -3325.4712   -14033.329    16995.588   -12938.672    1782.6051    5245.6684     3986.408    83.974456 
   50200    272.30399   -105.27983   0.24638638   -105.03344    3235.3322    4.3712545    4.3712545    4.3712545    3235.3322   -12728.734    19654.957    2779.7741    1860.2523   -12380.384    5516.4254    83.525346 
   50300    487.24655   -105.47184   0.44087092   -105.03097   -3582.7912    4.3773313    4.3773313    4.3773313   -3582.7912   -5730.0705    -8700.866     3682.563    2928.2648    3187.7532   -1159.8333    83.874171 
   50400    403.52365   -105.39702   0.36511668    -105.0319   -952.02082    4.3727809    4.3727809    4.3727809   -952.02082    1028.9489    4623.4439   -8508.4552   -2846.3339   -12515.004   -3803.9957    83.612872 
   50500    368.77881   -105.36696   0.33367882   -105.03328    249.24621     4.375625     4.375625     4.375625    249.24621    -7782.188    23551.073   -15021.146   -5816.1736    2650.9215   -1340.7955    83.776128 
   50600    413.98925   -105.40569   0.37458617   -105.03111    4704.6596    4.3742084    4.3742084    4.3742084    4704.6596   -4735.8523    22334.557   -3484.7263   -2881.5715    2316.9631    6997.8269    83.694787 
   50700    308.16282   -105.31259    0.2788322   -105.03376    1112.5819    4.3735126    4.3735126    4.3735126    1112.5819   -19614.259    12360.336    10591.668    590.22557   -9085.7462    5021.3071    83.654856 
   50800    543.50072    -105.5216   0.49177087   -105.02983   -2996.1919    4.3771766    4.3771766    4.3771766   -2996.1919   -6947.0271   -3457.7804    1416.2318    1284.9619    3734.3367     -2483.83    83.865282 
   50900    380.95543   -105.37672   0.34469648   -105.03203   -3118.1368    4.3726035    4.3726035    4.3726035   -3118.1368   -9914.1652    10977.007   -10417.252   -1859.8314   -13551.188     -4095.05    83.602696 
   51000    376.32843   -105.37316   0.34050987   -105.03265      3020.47    4.3757758    4.3757758    4.3757758      3020.47   -8547.9461     24882.59   -7273.2343   -4263.1312    6669.6485    2387.4371     83.78479 
   51100    369.41046   -105.36729   0.33425035   -105.03304    5801.6063    4.3725449    4.3725449    4.3725449    5801.6063   -7774.7547    14163.328    11016.245   -157.33614   -1999.0427    6650.0127    83.599338 
   51200    285.53518   -105.29262   0.25835823   -105.03426   -1431.7527    4.3765451    4.3765451    4.3765451   -1431.7527    -20470.51    1668.5221     14506.73    176.06829   -3849.4462     1384.212    83.828988 
   51300    662.33115   -105.62851   0.59929114   -105.02922   -5126.5565    4.3736776    4.3736776    4.3736776   -5126.5565   -8202.8497    -3670.391   -3506.4286     4263.905    1857.4278   -6071.1731    83.664324 
   51400    347.18431   -105.34724   0.31413966    -105.0331   -9105.5814    4.3766774    4.3766774    4.3766774   -9105.5814   -18246.365    3603.8863   -12674.265   -410.76785   -12720.967   -1758.4043    83.836589 
   51500    429.02183   -105.42033   0.38818797   -105.03214    5604.9437    4.3743465    4.3743465    4.3743465    5604.9437   -10017.904    11237.479    15595.256   -439.24014    7517.5054    4627.0316    83.702716 
   51600     251.2341   -105.26032    0.2273219     -105.033    8205.0981    4.3743763    4.3743763    4.3743763    8205.0981    -9244.177    10026.656    23832.816   -3086.9523   -2548.9668    8862.0009    83.704428 
   51700    311.69909   -105.31672   0.28203189   -105.03469   -1269.1775    4.3742307    4.3742307    4.3742307   -1269.1775   -11122.665     3747.774    3567.3584   -1640.7041   -1082.2419    3063.0668    83.696067 
   51800     655.9699   -105.62324   0.59353535    -105.0297   -5737.0306    4.3753444    4.3753444    4.3753444   -5737.0306   -5338.0231   -4188.7339   -7684.3349    -374.9199     651.2481   -2895.2309     83.76001 
   51900     269.1895   -105.27956   0.24356832   -105.03599   -4370.8204    4.3730392    4.3730392    4.3730392   -4370.8204   -16080.511   -5868.5271    8836.5772    1304.8255   -12940.994    163.16345    83.627691 
   52000    472.61157   -105.46063   0.42762888     -105.033     3220.119    4.3760021    4.3760021    4.3760021     3220.119   -10608.953   -404.19263    20673.503   -2049.7594    8252.2404    5447.6441    83.797793 
   52100    309.76589     -105.315   0.28028268   -105.03472    3358.3285    4.3734213    4.3734213    4.3734213    3358.3285   -8891.4036    19823.054    -856.6648   -2867.0946   -5956.9071    5813.2717    83.649613 
   52200    318.94742   -105.32352   0.28859033   -105.03493   -1509.5626    4.3755939    4.3755939    4.3755939   -1509.5626   -6784.2735    14253.633   -11998.047   -6443.4704   -1497.7664   -638.52373    83.774341 
   52300    563.47112   -105.53961   0.50984051   -105.02977    352.43364    4.3753668    4.3753668    4.3753668    352.43364   -2724.3281    4714.8956   -933.26653   -778.84956   -3426.4066   -8156.4685    83.761296 
   52400    238.70522   -105.25047    0.2159855   -105.03449   -5246.4686    4.3742344    4.3742344    4.3742344   -5246.4686   -17745.688   -12004.457    14010.738    2368.2029   -13107.966    603.00334    83.696279 
   52500    574.53632   -105.55005   0.51985253    -105.0302   -998.29797    4.3756456    4.3756456    4.3756456   -998.29797   -7281.0031   -329.17692    4615.2861    1168.5816    6906.0243    2335.4587    83.777314 
   52600    334.50419   -105.33628   0.30266642   -105.03361   -3013.4182    4.3743551    4.3743551    4.3743551   -3013.4182   -14369.848    12217.482   -6887.8887    1802.2987   -7985.9573    4998.1722    83.703206 
   52700    353.99967   -105.35516   0.32030634   -105.03486     2417.099    4.3729836    4.3729836    4.3729836     2417.099   -2746.7109    15172.492   -5174.4839    -4981.426   -815.29397   -4073.2639    83.624502 
   52800     455.1325    -105.4441   0.41181345   -105.03229    1015.2123    4.3775835    4.3775835    4.3775835    1015.2123   -10199.161    3929.0287    9315.7696    1328.5202   -6555.9796   -3612.4141    83.888672 
   52900    271.21705   -105.28019   0.24540288   -105.03479   -246.61996    4.3710028    4.3710028    4.3710028   -246.61996   -12234.524   -6390.1549    17884.819    735.86897   -10579.157     3479.159    83.510918 
   53000     591.1185    -105.5652   0.53485644   -105.03034   -5785.0463    4.3797037    4.3797037    4.3797037   -5785.0463   -14585.686    3646.4543   -6415.9078    2717.9677    5563.4063    7340.4785    84.010617 
   53100    338.19218   -105.33888   0.30600339   -105.03288    630.53787    4.3705166    4.3705166    4.3705166    630.53787   -12958.573     21400.52   -6550.3327   -591.15526   -7864.8128   -38.832557    83.483051 
   53200    394.52433   -105.38917    0.3569739   -105.03219   -1295.7609    4.3792928    4.3792928    4.3792928   -1295.7609   -15552.659    8772.5728    2892.8033     -4779.37    989.47682   -3657.2866    83.986977 
   53300    374.77086   -105.37079   0.33910055   -105.03169    9808.1635    4.3700936    4.3700936    4.3700936    9808.1635    2081.7367    2659.7936     24682.96   -3136.1761   -9945.7566   -6458.5126    83.458816 
   53400    318.57851   -105.32331   0.28825653   -105.03506   -4113.8597    4.3778601    4.3778601    4.3778601   -4113.8597   -11708.493   -6599.3555    5966.2695   -1869.7005   -9229.6104    5077.7072    83.904575 
   53500    575.76182   -105.55067    0.5209614   -105.02971    495.79236    4.3740782    4.3740782    4.3740782    495.79236    3217.9892    7611.3605   -9341.9726     2660.826    3536.8656    818.08157    83.687314 
   53600    312.06962   -105.31657   0.28236715    -105.0342    769.80552    4.3721597    4.3721597    4.3721597    769.80552   -17842.445    15668.337    4483.5249   -732.07514   -7121.9787   -3640.6264    83.577243 
   53700     411.1698   -105.40421   0.37203507   -105.03217    1405.5434    4.3792712    4.3792712    4.3792712    1405.5434   -12038.874    5067.4639     11188.04    -4038.361    1744.4311   -6581.0906    83.985736 
   53800    339.17087   -105.33902   0.30688893   -105.03213    7719.7365    4.3689179    4.3689179    4.3689179    7719.7365    2758.6589   -1704.9193     22105.47   -1724.2809   -12860.079   -1844.7742    83.391474 
   53900    379.35496    -105.3757   0.34324834   -105.03245   -9653.8246    4.3808007    4.3808007    4.3808007   -9653.8246   -3773.4746   -14370.945   -10817.054   -787.08428   -7259.8577     3386.436    84.073764 
   54000    573.20969   -105.54737   0.51865217   -105.02872    1803.4782    4.3711603    4.3711603    4.3711603    1803.4782    10135.326   -52.395542   -4672.4962    5929.0639    4141.9039    4714.6652    83.519942 
   54100    290.71496   -105.29619   0.26304501   -105.03314   -7668.8259    4.3774564    4.3774564    4.3774564   -7668.8259   -23652.926    137.10885    509.33943    2024.3889   -6608.4017   -3010.1339    83.881367 
   54200    459.02864   -105.44651   0.41533876   -105.03117    5664.8828    4.3733235    4.3733235    4.3733235    5664.8828   -239.89283    865.66149     16368.88   -1460.6165    57.616964   -918.30769    83.644002 
   54300    305.95194   -105.31048   0.27683175   -105.03365   -303.82864    4.3752241    4.3752241    4.3752241   -303.82864    916.19157    -2139.386    311.70846   -2460.9633   -13746.295   -3107.7826    83.753102 
   54400    370.24494   -105.36973    0.3350054   -105.03473   -784.54043    4.3725927    4.3725927    4.3725927   -784.54043    11759.014   -7158.8808   -6953.7545   -1725.5191   -5067.5752    4479.0923    83.602081 
   54500    590.50007   -105.56583   0.53429687   -105.03153   -7351.7758    4.3781031    4.3781031    4.3781031   -7351.7758   -783.38768   -10280.312   -10991.628    3184.6509    4090.2451    504.01363    83.918547 
   54600      329.241   -105.33285   0.29790418   -105.03495   -5332.8729    4.3720041    4.3720041    4.3720041   -5332.8729   -14892.481   -2060.6818    954.54444   -1352.1373   -8969.2933   -1847.2362    83.568323 
   54700      417.111   -105.40972    0.3774108   -105.03231    6284.5551     4.377526     4.377526     4.377526    6284.5551    16597.954   -3751.4969    6007.2083   -4594.0059   -3983.7457   -4078.0558    83.885364 
   54800    227.78936   -105.24002    0.2061086   -105.03391    6461.3166    4.3740007    4.3740007    4.3740007    6461.3166    21216.304    2073.5202   -3905.8748   -7928.4429   -13785.515   -5576.9903    83.682865 
   54900    351.26964   -105.35031   0.31783615   -105.03247    375.68571    4.3751271    4.3751271    4.3751271    375.68571    1821.4921    2840.4941   -3534.9291    -5058.911   -4282.3194   -2232.3355    83.747532 
   55000    624.28167   -105.59411   0.56486317   -105.02924    -5246.073     4.375408     4.375408     4.375408    -5246.073   -4472.5613    516.56874   -11782.226    2080.2091    3449.7952   -1371.6948    83.763662 
   55100    300.83672   -105.30678   0.27220339   -105.03458   -7772.2289    4.3744869    4.3744869    4.3744869   -7772.2289   -3203.4905   -8175.0227   -11938.173      1203.54   -9068.0413    2597.6709    83.710777 
   55200    456.41267   -105.44497   0.41297177     -105.032    6757.5847    4.3742573    4.3742573    4.3742573    6757.5847    26217.531   -5570.3021   -374.47453   -2198.5789    -2141.433   -1141.6448    83.697594 
   55300     340.6601   -105.34336   0.30823641   -105.03512   -4516.2826     4.375456     4.375456     4.375456   -4516.2826   -7973.1732    -604.7046   -4970.9701   -3570.5288   -11125.892   -1935.8092    83.766424 
   55400    335.89875   -105.33885   0.30392825   -105.03492    4198.0944    4.3727574    4.3727574    4.3727574    4198.0944   -6639.8234    11509.216    7724.8902   -1439.5474   -745.94806   -4480.5999    83.611526 
   55500    522.11722    -105.5047   0.47242263   -105.03228   -3336.0459    4.3773779    4.3773779    4.3773779   -3336.0459    236.40108    5610.0088   -15854.547    6947.0224    2622.3214     934.5315    83.876852 
   55600    239.49335   -105.25198   0.21669862   -105.03528    12.909024    4.3718089    4.3718089    4.3718089    12.909024    12612.508   -4182.5971   -8391.1834   -23.846971     -9044.98    1673.2884    83.557126 
   55700    619.15621   -105.59028   0.56022555   -105.03005   -5469.0605    4.3790928    4.3790928    4.3790928   -5469.0605    4362.5871   -11365.391   -9404.3773   -1431.0042   -2309.9287    4056.4221     83.97547 
   55800    327.77541   -105.32967   0.29657808   -105.03309   -2728.5091    4.3720988    4.3720988    4.3720988   -2728.5091   -13685.256     4633.303    866.42607   -5154.7944   -11415.701   -3128.6175    83.573751 
   55900    374.26067   -105.37255   0.33863892   -105.03391    1704.9056    4.3761897    4.3761897    4.3761897    1704.9056   -3233.5945    7076.8149    1271.4965    1797.4289    2193.5812   -3250.1218    83.808571 
   56000    387.73699    -105.3833   0.35083258   -105.03247    6117.3603    4.3745862    4.3745862    4.3745862    6117.3603    18276.426    9488.9717   -9413.3168    5783.0596    2396.5497   -5605.6683    83.716476 
   56100    228.48524    -105.2431   0.20673825   -105.03636   -184.19021    4.3717315    4.3717315    4.3717315   -184.19021     9987.122   -523.96184   -10015.731   -172.33236   -8292.3841    608.57373    83.552692 
   56200    687.15908   -105.65175   0.62175598      -105.03   -10136.331    4.3791345    4.3791345    4.3791345   -10136.331   -6287.9958   -8481.3327   -15639.665   -4954.2606    -608.8326   -827.72004    83.977869 
   56300    359.16834   -105.35901   0.32498306   -105.03403   -4414.1171    4.3711004    4.3711004    4.3711004   -4414.1171   -872.14189   -2504.6013   -9865.6082   -1969.0673   -8259.5714   -116.12526    83.516514 
   56400    331.58679   -105.33518    0.3000267   -105.03515    2205.5199    4.3770554    4.3770554    4.3770554    2205.5199    15966.478   -1419.7196   -7930.1988    566.43213    2499.4895   -3997.3404    83.858316 
   56500    355.45353   -105.35458   0.32162182   -105.03295    10234.049    4.3727623    4.3727623    4.3727623    10234.049    12587.671    21119.779   -3005.3024    7539.7652    3500.9397   -5738.0724    83.611805 
   56600    268.30942   -105.27896     0.242772   -105.03618   -5602.4868    4.3758955    4.3758955    4.3758955   -5602.4868   -17335.216     5812.018   -5284.2626    -4203.349     -6671.41   -3677.3265    83.791664 
   56700     640.8284   -105.60907     0.579835   -105.02923   -2565.0863    4.3755399    4.3755399    4.3755399   -2565.0863   -3852.9744    69.488167   -3911.7729   -4687.9525   -978.85147    48.979068    83.771239 
   56800    321.17241   -105.32416   0.29060355   -105.03355   -7342.0697    4.3754645    4.3754645    4.3754645   -7342.0697    2532.3923   -5400.9929   -19157.609   -1055.5378   -10285.281    4520.7936    83.766911 
   56900    410.03272   -105.40365   0.37100622   -105.03265    3762.3651     4.373663     4.373663     4.373663    3762.3651    10450.173    7376.7805   -6539.8587    3883.3559     1259.717    658.32995    83.663483 
   57000    406.70114   -105.40008   0.36799174   -105.03209     1073.997     4.376685     4.376685     4.376685     1073.997   -1730.3878    20733.377   -15780.998    6296.9737     1771.503   -1629.2722    83.837027 
   57100    291.41393   -105.29833   0.26367745   -105.03465    -209.2541    4.3722453    4.3722453    4.3722453    -209.2541   -15628.556    9214.7084    5786.0853   -3694.5754   -5695.4853   -4337.3302    83.582156 
   57200     551.9815   -105.53021   0.49944446   -105.03076   -531.92165    4.3780293    4.3780293    4.3780293   -531.92165    253.49361   -800.00386   -1049.2547    -3427.224   -1705.6672    1838.4378    83.914303 
   57300    300.74658   -105.30671   0.27212183   -105.03459    421.65447    4.3704689    4.3704689    4.3704689    421.65447    4406.5733    4445.1395   -7586.7494    2695.3738   -10857.108    2825.2907    83.480317 
   57400     433.3354   -105.42498   0.39209098   -105.03289    123.37686    4.3797227    4.3797227    4.3797227    123.37686    -2914.076    15176.989   -11892.783    1713.3387    2551.2022    2181.7273    84.011716 
   57500    412.78676   -105.40577   0.37349814   -105.03227     4233.067    4.3706078    4.3706078    4.3706078     4233.067   -6202.3414    29319.311   -10417.768    1505.2384   -157.90065   -5834.1034    83.488278 
   57600    380.14659   -105.37805   0.34396463   -105.03409   -7445.7069    4.3778342    4.3778342    4.3778342   -7445.7069   -19036.244   -1717.5772   -1583.2994   -7692.1455   -4229.6855    -2815.229    83.903082 
   57700    531.60919   -105.51088   0.48101117   -105.02986    876.90086    4.3755942    4.3755942    4.3755942    876.90086    5325.4263   -2210.5799   -484.14378   -3986.2335   -3046.0601   -1137.8084    83.774357 
   57800    245.08378   -105.25525   0.22175695   -105.03349    2633.0854    4.3715955    4.3715955    4.3715955    2633.0854    1135.9116    16276.175   -9512.8306    3734.5512   -10161.703    4076.4892    83.544892 
   57900    390.95891   -105.38489   0.35374783   -105.03114    792.49075    4.3795291    4.3795291    4.3795291    792.49075   -4667.2809    21013.079   -13968.325    1434.2889    1990.8759    1911.1383    84.000576 
   58000    455.90429   -105.44511   0.41251178    -105.0326    -253.0094    4.3677783    4.3677783    4.3677783    -253.0094   -10672.316    24675.019   -14761.731   -143.28685   -2205.0393   -2830.7256    83.326237 
   58100    470.86043   -105.45921   0.42604442   -105.03317   -15535.049    4.3813557    4.3813557    4.3813557   -15535.049   -19697.301   -12911.022   -13996.824   -3914.3908   -1030.9928   -1289.6613    84.105723 
   58200     438.1725   -105.42859   0.39646768   -105.03212    7040.2562    4.3693866    4.3693866    4.3693866    7040.2562    4871.5575    23166.957   -6917.7456    1862.8167   -1766.8209    601.93542    83.418317 
   58300    223.12856    -105.2363   0.20189141   -105.03441    559.83437    4.3791076    4.3791076    4.3791076    559.83437   -10836.819    27060.406   -14544.084     9802.062   -7312.6503    6467.8856    83.976325 
   58400     343.7975   -105.34163    0.3110752   -105.03056    9760.6522    4.3723529    4.3723529    4.3723529    9760.6522    5624.2162    21782.157    1875.5838    1009.7368   -1355.8468    3215.5584    83.588325 
   58500    466.39587   -105.45226   0.42200478   -105.03025   -12118.808    4.3772435    4.3772435    4.3772435   -12118.808   -18064.287    534.22505   -18826.361    344.79847   -5949.2848    624.97353    83.869125 
   58600    483.09942   -105.46714   0.43711851   -105.03003   -2800.5991    4.3731833    4.3731833    4.3731833   -2800.5991   -5543.0066    -2093.655   -765.13563   -5979.3123    2807.4333   -3662.5726     83.63596 
   58700    395.53784   -105.38963   0.35789095   -105.03174   -4745.2826    4.3762494    4.3762494    4.3762494   -4745.2826   -14858.667    24767.966   -24145.147   -161.02896   -3016.3932   -376.43002       83.812 
   58800    337.20489   -105.33861   0.30511007    -105.0335    5962.5296    4.3715317    4.3715317    4.3715317    5962.5296    2483.5223    22422.353   -7018.2868    3886.9426   -3939.9355     3754.532    83.541237 
   58900    379.36108    -105.3761   0.34325388   -105.03284   -875.97281    4.3791484    4.3791484    4.3791484   -875.97281   -1626.3548    2602.5801   -3604.1437     -605.885   -5437.8083    4791.7159    83.978668 
   59000    421.09264   -105.41317   0.38101347   -105.03216   -1719.9228    4.3699149    4.3699149    4.3699149   -1719.9228   -9368.8001     5549.771   -1340.7393   -3535.5198    -7832.502   -1943.5142    83.448576 
   59100    470.54184   -105.45693   0.42575615   -105.03118   -3907.7223    4.3791456    4.3791456    4.3791456   -3907.7223   -11195.346    1654.0295   -2181.8502   -167.15662    3753.9274   -3534.8513     83.97851 
   59200     342.9324    -105.3431   0.31029244   -105.03281    2927.0641     4.371546     4.371546     4.371546    2927.0641   -6019.6151    31278.392   -16477.585    3510.6234   -2609.4142   -1696.9052    83.542057 
   59300    370.18651   -105.36764   0.33495254   -105.03269    4129.4423    4.3750064    4.3750064    4.3750064    4129.4423    11789.198    7006.0111    -6406.882    8614.7968   -2251.5591    3875.8463      83.7406 
   59400    425.68858   -105.41679   0.38517197   -105.03161    -808.8039    4.3769415    4.3769415    4.3769415    -808.8039   -1513.0659    573.91538   -1487.2612    24.903526    -6857.764    3051.9875    83.851768 
   59500    368.03587   -105.36476   0.33300659   -105.03176    824.46844    4.3704703    4.3704703    4.3704703    824.46844   -5276.4178    3181.9538    4567.8694   -1463.3067    -6773.769   -3475.5143    83.480399 
   59600    461.41764   -105.44784   0.41750037   -105.03034   -1925.9588    4.3794491    4.3794491    4.3794491   -1925.9588   -13432.659    9085.3241   -1430.5417    1972.9563    5345.0114   -3542.2501    83.995969 
   59700    386.02437   -105.38146   0.34928297   -105.03217    2371.6812    4.3696323    4.3696323    4.3696323    2371.6812    2221.2318    19673.756   -14779.944    1062.2361   -5427.8007   -2308.7062    83.432391 
   59800    350.49564   -105.34945   0.31713582   -105.03231    5.6648115    4.3784857    4.3784857    4.3784857    5.6648115    3128.7958    4558.0966    -7669.898    6868.8728   -994.74478    4535.0629    83.940551 
   59900    452.95101   -105.44035   0.40983959   -105.03051    3617.5124    4.3719828    4.3719828    4.3719828    3617.5124    4102.9881   -2723.6512    9473.2002   -4955.5574   -9322.9047    1887.7776    83.567098 
   60000    354.18005   -105.35304   0.32046955   -105.03257   -4702.4596    4.3767472    4.3767472    4.3767472   -4702.4596   -15377.003    -1348.792    2618.4163   -1185.7958   -2918.4204   -2580.4438    83.840604 
   60100     525.0586   -105.50502   0.47508406   -105.02993   -1540.8563    4.3744212    4.3744212    4.3744212   -1540.8563    -8086.746    773.06413    2691.1129   -1916.2943    4911.3079   -5361.9901    83.707004 
   60200     335.8455   -105.33607   0.30388007   -105.03219      166.508    4.3739748    4.3739748    4.3739748      166.508     218.7779    16187.752   -15907.006    3140.0672   -6502.2793    1380.9849    83.681378 
   60300     380.8875   -105.37743   0.34463502    -105.0328    868.07151    4.3755948    4.3755948    4.3755948    868.07151    2021.2133   -278.91573      861.917     4566.667   -765.49412     1676.369    83.774395 
   60400    377.36766   -105.37313   0.34145019   -105.03168    5565.3892    4.3735327    4.3735327    4.3735327    5565.3892   -1843.5823   -2441.5338    20981.284    1099.9146   -11689.633    3930.6427    83.656009 
   60500    358.84237   -105.35876   0.32468811   -105.03407   -4264.1989    4.3746301    4.3746301    4.3746301   -4264.1989   -16462.221    553.13181    3116.4927   -508.00378   -1095.8142   -5911.1896    83.718994 
   60600    551.71792   -105.52977   0.49920597   -105.03056   -5450.0688    4.3761948    4.3761948    4.3761948   -5450.0688   -7567.2409   -7219.6044    -1563.361    5132.0963    4705.0729   -2070.2084    83.808864 
   60700    400.02709   -105.39408   0.36195292   -105.03213    42.510124    4.3728594    4.3728594    4.3728594    42.510124   -5831.6084    12647.909   -6688.7697    1432.9084   -7150.5809    545.48757    83.617376 
   60800    261.87348    -105.2704   0.23694863   -105.03345    5752.0615    4.3767192    4.3767192    4.3767192    5752.0615   -698.53641    -6542.414    24497.135    11625.551   -1296.5912    4489.4685    83.838991 
   60900    361.37916   -105.35809   0.32698346   -105.03111    8338.8403     4.373438     4.373438     4.373438    8338.8403     2891.376    4630.2752     17494.87    1337.6925   -11866.126     2336.563    83.650574 
   61000    404.82594   -105.39878   0.36629501   -105.03248   -7399.8591    4.3746843    4.3746843    4.3746843   -7399.8591   -9076.0739     -8131.35   -4992.1534    5149.4621   -544.38449   -601.44796    83.722106 
   61100    557.03077   -105.53459   0.50401315   -105.03058   -4021.0322    4.3757025    4.3757025    4.3757025   -4021.0322   -5805.8575   -3249.6967   -3007.5424    2196.7088    5327.7975   -1860.5522    83.780581 
   61200    386.83641   -105.38289   0.35001772   -105.03287   -2322.3492    4.3743109    4.3743109    4.3743109   -2322.3492   -14585.552   -4242.1162    11860.621    -2518.697   -10603.114    1031.7683    83.700673 
   61300    269.45698   -105.27838   0.24381034   -105.03457    8829.4039    4.3733039    4.3733039    4.3733039    8829.4039    6214.8761   -2542.0641      22815.4    9089.2585   -873.99845    3900.7406    83.642878 
   61400    429.64403   -105.42136   0.38875095   -105.03261    1801.3167    4.3760707    4.3760707    4.3760707    1801.3167    7560.0824    865.38263    -3021.515   -1657.1936    -12511.37    4208.9054    83.801732 
   61500    361.33717   -105.36004   0.32694546    -105.0331   -655.19385    4.3727656    4.3727656    4.3727656   -655.19385    3285.9838    4950.6615   -10202.227    9272.0177    2318.0282   -2139.2265    83.611998 
   61600     533.7639   -105.51322    0.4829608   -105.03026   -6741.1562    4.3786957    4.3786957    4.3786957   -6741.1562   -11097.914    -5943.094    -3182.461   -4023.7016    4645.5607    -4296.512    83.952629 
   61700    387.68439   -105.38125   0.35078499   -105.03046    2304.0138    4.3707598    4.3707598    4.3707598    2304.0138   -2685.2622    1741.2736    7856.0302   -198.21971   -10653.818   -2209.7502     83.49699 
   61800    336.36647   -105.33686   0.30435145   -105.03251   -519.43271    4.3781251    4.3781251    4.3781251   -519.43271    5998.0907   -14591.414    7035.0251    5259.5537    125.71957   -631.18993    83.919811 
   61900    409.29993   -105.40162   0.37034317   -105.03128    7589.0671    4.3711804    4.3711804    4.3711804    7589.0671    17039.367    13598.052   -7870.2177    3212.7771   -9423.1145    3085.3324    83.521099 
   62000    391.20986   -105.38809    0.3539749   -105.03411   -5350.5433    4.3753476    4.3753476    4.3753476   -5350.5433   -11024.135    3352.0866   -8379.5817    8147.7119    3864.7526   -4142.7245    83.760196 
   62100    480.31914   -105.46604   0.43460285   -105.03144   -905.07294    4.3755374    4.3755374    4.3755374   -905.07294   -9754.7106     9708.826   -2669.3342   -789.33833    4581.1566   -3364.2963    83.771096 
   62200    399.95484    -105.3936   0.36188755   -105.03172    1656.7601    4.3732058    4.3732058    4.3732058    1656.7601    2736.6746   -4587.7543    6821.3601   -405.59532   -12926.813   -1563.3236    83.637248 
   62300    275.01469   -105.28116   0.24883907   -105.03232    3991.8732    4.3766486    4.3766486    4.3766486    3991.8732    11045.229   -1272.6819    2203.0724    6851.9319    2064.6229    1218.3459    83.834934 
   62400    458.70388   -105.44423   0.41504491   -105.02919    2864.4945    4.3739481    4.3739481    4.3739481    2864.4945    10425.087    5373.9922   -7205.5956      3793.45   -10397.999    5433.1416    83.679846 
   62500    360.70046   -105.35815   0.32636936   -105.03178   -670.41109    4.3730295    4.3730295    4.3730295   -670.41109   -12236.994    14180.152    -3954.392     9508.312    5344.3406    599.82545    83.627138 
   62600    491.37349   -105.47666   0.44460506   -105.03206   -6125.1032    4.3764059    4.3764059    4.3764059   -6125.1032   -7794.3654    2424.5758    -13005.52   -1779.1348    1025.5304   -1418.6385    83.820987 
   62700    405.44862   -105.39935   0.36685843   -105.03249    4462.1097    4.3721348    4.3721348    4.3721348    4462.1097    7868.8941   -1125.6525    6643.0875   -845.36438   -9010.0432    265.90249     83.57582 
   62800    263.25114   -105.27323   0.23819517   -105.03504    2760.8684    4.3758463    4.3758463    4.3758463    2760.8684    6946.2203    1684.5601   -348.17516    11256.106    1562.9809    1849.9888    83.788841 
   62900    446.70569   -105.43494   0.40418869   -105.03075    4757.9645     4.374908     4.374908     4.374908    4757.9645    279.76164     13262.65    731.48145    1190.7443   -8196.6992     7018.896    83.734951 
   63000    353.74756   -105.35211   0.32007822   -105.03204   -1042.6163    4.3737118    4.3737118    4.3737118   -1042.6163   -15596.439    18397.704   -5929.1136    7643.3484    6822.6084    135.52325    83.666285 
   63100    484.15282   -105.46926   0.43807165   -105.03119   -7749.6152    4.3768855    4.3768855    4.3768855   -7749.6152   -4935.8915   -2934.0815   -15378.873   -6086.1481    3348.3217   -2758.7416     83.84855 
   63200    509.79893   -105.49099   0.46127679   -105.02971    1520.5887    4.3721512    4.3721512    4.3721512    1520.5887    6522.8413    396.86079   -2357.9359    3574.2914   -2515.7029   -3790.2463    83.576759 
   63300    264.33156   -105.27298   0.23917275   -105.03381   -3996.6081    4.3774086    4.3774086    4.3774086   -3996.6081   -2200.1969   -505.40466   -9284.2228    9008.4936    4142.8446   -31.199577    83.878617 
   63400    416.70755   -105.40809   0.37704575   -105.03105    11551.091    4.3704691    4.3704691    4.3704691    11551.091    547.18276    28134.589    5971.5019    3238.9806   -6394.9959    3621.8744    83.480329 
   63500    328.42246   -105.33185   0.29716354   -105.03469   -4134.4191    4.3775926    4.3775926    4.3775926   -4134.4191   -16534.089    8847.8328   -4717.0015    6086.7234      6868.27     694.8119    83.889194 
   63600    530.33821   -105.51204   0.47986116   -105.03218   -4538.7963    4.3727193    4.3727193    4.3727193   -4538.7963   -2051.7028   -5664.8527   -5899.8335   -2163.2338    2724.8038   -4806.7608    83.609339 
   63700    515.75332   -105.49818   0.46666444   -105.03151   -546.37835    4.3745236    4.3745236    4.3745236   -546.37835   -3517.5296    9873.9799   -7995.5854     2764.229   -349.94041   -335.37196    83.712879 
   63800    187.12378   -105.20484   0.16931353   -105.03553     4541.265    4.3759476    4.3759476    4.3759476     4541.265    31.441559    20494.242   -6901.8883    10936.767    4890.7723    1764.2354    83.794658 
   63900     477.5848   -105.46161   0.43212877   -105.02948    7617.5331    4.3748278    4.3748278    4.3748278    7617.5331   -3544.9129    19569.195    6828.3177   -429.24463   -8994.9905    10236.234    83.730347 
   64000    273.87233   -105.28103   0.24780544   -105.03322    1413.1477    4.3723627    4.3723627    4.3723627    1413.1477   -6345.0716   -3066.7131    13651.228    7833.5558    5045.6677     896.1376    83.588887 
   64100    553.04034    -105.5313   0.50040252   -105.03089   -9512.3265      4.37949      4.37949      4.37949   -9512.3265   -14475.779   -7027.0668   -7034.1335   -6045.7334    -1430.478   -2162.6434    83.998326 
   64200    459.15655    -105.4467   0.41545449   -105.03124    6753.6415    4.3683709    4.3683709    4.3683709    6753.6415   -2124.9798    17978.373    4407.5316    5658.5768     5055.611   -3157.7768    83.360154 
   64300    270.90906   -105.28148   0.24512421   -105.03636   -6525.7162     4.380315     4.380315     4.380315   -6525.7162    -16717.86    7656.7823   -10516.071    6533.4897    3805.7666    3704.9256    84.045803 
   64400     467.5521   -105.45365   0.42305097    -105.0306    13649.175    4.3701501    4.3701501    4.3701501    13649.175    9139.5482    9439.6992    22368.279    4094.9956   -5654.0173    4087.0522    83.462051 
   64500    240.84542   -105.25333     0.217922   -105.03541    -4718.051    4.3769478    4.3769478    4.3769478    -4718.051   -12345.134   -15155.931    13346.912    7215.6197    3829.2558   -2054.1223    83.852133 
   64600    541.96603   -105.52072   0.49038225   -105.03034   -1848.1646     4.374043     4.374043     4.374043   -1848.1646   -3554.9043    618.41005   -2607.9995   -3349.2079    3404.9324   -6890.0404    83.685294 
   64700    486.09583   -105.47118   0.43982972   -105.03135   -4181.8934    4.3740516    4.3740516    4.3740516   -4181.8934   -10871.751    2264.9751   -3938.9043    5877.3285    4942.0529   -1152.4978    83.685786 
   64800    306.64592   -105.31227   0.27745967   -105.03481   -3997.2643    4.3766277    4.3766277    4.3766277   -3997.2643   -13375.567    1201.6949      182.079    4390.3606    7874.2516    2391.6074    83.833733 
   64900    402.21573   -105.39435   0.36393324   -105.03042    13873.699    4.3723044    4.3723044    4.3723044    13873.699    9127.5762    949.34882    31544.172    4467.3537   -8760.3583    3386.4542    83.585541 
   65000    274.72332   -105.28343   0.24857543   -105.03485    -5128.655    4.3763911    4.3763911    4.3763911    -5128.655   -4618.3312    -16261.14    5493.5065    4874.4534    3768.5734   -939.82117    83.820137 
   65100    535.71765   -105.51513   0.48472859    -105.0304    361.36503    4.3739598    4.3739598    4.3739598    361.36503    6374.7915    2157.1013   -7447.7978   -3537.5136    1689.6709   -3975.3124     83.68052 
   65200    472.86141   -105.46029   0.42785494   -105.03244   -6949.3522    4.3747989    4.3747989    4.3747989   -6949.3522   -15559.892   -12083.298    6795.1334    1169.4797    5121.3333    1869.7883    83.728685 
   65300    273.76809   -105.28334   0.24771112   -105.03563    2217.5496    4.3741667    4.3741667    4.3741667    2217.5496   -5996.0327    3798.6865     8849.995     2172.741    4650.8251    3439.0486    83.692394 
   65400    422.01754   -105.41372   0.38185034   -105.03187    7037.9991     4.375582     4.375582     4.375582    7037.9991    9848.3295   -8344.4274    19610.095     2574.663   -9837.6348    5322.2515    83.773657 
   65500    237.31739   -105.24967   0.21472976   -105.03494    2303.4684    4.3728752    4.3728752    4.3728752    2303.4684    13996.838   -3008.6081   -4077.8243    7292.2672    3992.8912    167.95206    83.618286 
   65600    571.87492   -105.54657   0.51744445   -105.02912    -7224.536    4.3792165    4.3792165    4.3792165    -7224.536    1881.0851   -10335.592   -13219.101   -3001.0885    6579.4329   -1832.6945    83.982589 
   65700    481.36143   -105.46559   0.43554593   -105.03005   -1455.2237    4.3689435    4.3689435    4.3689435   -1455.2237    -7086.663   -6648.1959    9369.1878    5316.2771    3711.2721   -1338.2788    83.392942 
   65800    317.72776   -105.32177   0.28748676   -105.03428   -3479.9064    4.3802431    4.3802431    4.3802431   -3479.9064    2066.7537   -9476.4084   -3030.0644   -920.36193    6469.5311   -193.94339    84.041662 
   65900    372.74924   -105.36842   0.33727134   -105.03115    13020.663    4.3701111    4.3701111    4.3701111    13020.663    23806.811   -2348.9238    17604.102    8889.8348     -9472.78    2611.0214    83.459821 
   66000    309.59488   -105.31511   0.28012795   -105.03498   -4225.8058     4.375591     4.375591     4.375591   -4225.8058    4686.5215   -4236.0788    -13127.86    6679.3567    7450.1663    728.38432    83.774178 
   66100      542.374   -105.52042   0.49075139   -105.02967   -4245.2917    4.3777193    4.3777193    4.3777193   -4245.2917   -5396.8411    2523.6667   -9862.7008    471.11852     5667.664   -2381.6833    83.896477 
   66200    437.48861   -105.42695   0.39584889    -105.0311   -2391.5694    4.3696659    4.3696659    4.3696659   -2391.5694    656.55508   -8428.7153    597.45191    1809.3158   -1000.7152   -2818.8515    83.434311 
   66300    302.86168   -105.30668   0.27403561   -105.03265    352.74449    4.3808336    4.3808336    4.3808336    352.74449    15895.525   -11669.922     -3167.37   -3663.5161      2759.62   -3127.4318    84.075655 
   66400    419.73407   -105.41017   0.37978421   -105.03039    8119.7142    4.3692575    4.3692575    4.3692575    8119.7142    17539.412   -5757.0197    12576.751    7138.7033   -12121.655    1806.2671    83.410922 
   66500    321.39015   -105.32484   0.29080056   -105.03404   -4685.1046    4.3771303    4.3771303    4.3771303   -4685.1046   -7897.2792   -3000.5257   -3157.5088       2708.9     6238.067     2212.818    83.862617 
   66600    548.14142   -105.52663   0.49596988   -105.03066    -1960.906    4.3748977    4.3748977    4.3748977    -1960.906   -4599.9345    6970.3975   -8253.1809   -2726.5994     1944.587   -1391.3128    83.734362 
   66700    331.68503    -105.3337   0.30011559   -105.03358    82.934108    4.3715676    4.3715676    4.3715676    82.934108    9871.0892    -7091.533   -2530.7539   -400.23627   -1907.2314   -1456.2583    83.543294 
   66800    353.80943   -105.35269   0.32013421   -105.03255    966.34075    4.3794878    4.3794878    4.3794878    966.34075    14365.324   -10865.391   -600.91091   -2808.7499   -393.54852   -4684.2162    83.998194 
   66900    443.38074   -105.43261   0.40118021   -105.03143    2242.6103    4.3693953    4.3693953    4.3693953    2242.6103   -727.04307   -8802.7653    16257.639    8208.8253   -7783.3952    4248.8241    83.418816 
   67000    355.53659   -105.35439   0.32169698    -105.0327     -5713.69    4.3790797    4.3790797    4.3790797     -5713.69   -11232.304   -6120.4072    211.64096    835.09363    7592.4041    2288.0653    83.974716 
   67100    544.86071   -105.52259   0.49300142   -105.02959   -1168.1562    4.3728667    4.3728667    4.3728667   -1168.1562    3828.4169     1771.848   -9104.7335   -1236.9816    4410.2305    2677.8273    83.617797 
   67200     217.7275   -105.23113   0.19700442   -105.03413    3178.5037    4.3731742    4.3731742    4.3731742    3178.5037    11467.343   -3365.7784    1433.9463   -1412.2606   -6175.2658     -2684.35    83.635435 
   67300    479.01126   -105.46402   0.43341945    -105.0306    -1696.674    4.3792184    4.3792184    4.3792184    -1696.674    1311.4122   -11731.592    5330.1579   -281.66343    1558.9692   -3719.9601    83.982696 
   67400    367.16133   -105.36453   0.33221529   -105.03232    3575.9547    4.3667966    4.3667966    4.3667966    3575.9547   -8619.5089   -6128.0525    25475.426    5903.9595   -7143.4454    2123.3803    83.270061 
   67500    446.88637   -105.43735   0.40435218   -105.03299   -11034.555    4.3827228    4.3827228    4.3827228   -11034.555   -9391.3745   -16620.284   -7092.0056    1786.0119     9375.725    1688.6429    84.184473 
   67600    507.83876   -105.48991   0.45950318   -105.03041    2801.0985    4.3689312    4.3689312    4.3689312    2801.0985    9567.0399    2675.2386   -3838.9831   -1861.5012   -3556.8215    2057.4904    83.392234 
   67700    207.09628   -105.22308   0.18738507    -105.0357    1832.4816     4.376637     4.376637     4.376637    1832.4816    2012.0437   -10422.648    13908.049    871.13608   -8181.3894   -3526.9506    83.834269 
   67800     455.7036   -105.44259    0.4123302   -105.03026    5764.3934    4.3762212    4.3762212    4.3762212    5764.3934   -2922.3513   -2254.5103    22470.042   -4024.2494   -3978.7171   -5547.9444    83.810379 
   67900    296.81999   -105.30295   0.26856897   -105.03438     2322.434    4.3674027    4.3674027    4.3674027     2322.434    -9716.642   -9407.5195    26091.463     6696.099   -4255.0671    573.29547    83.304738 
   68000    576.08666   -105.55179   0.52125531   -105.03053   -16788.524    4.3845131    4.3845131    4.3845131   -16788.524   -15862.238   -18815.598   -15687.736   -764.91696    3391.5359    1950.3844    84.287682 
   68100    468.86454   -105.45402   0.42423849   -105.02979    6642.2748    4.3646589    4.3646589    4.3646589    6642.2748    4178.4538   -3768.4733    19516.844    2926.7403   -1793.8784    564.92842    83.147829 
   68200    165.41247   -105.18554   0.14966868   -105.03587   -5241.4073    4.3827138    4.3827138    4.3827138   -5241.4073   -17454.206   -20029.784    21759.768   -1583.3048    -7861.204   -2733.0525    84.183956 
   68300    506.99609   -105.48829   0.45874072   -105.02955    14837.233    4.3666902    4.3666902    4.3666902    14837.233     9812.442    7277.0492    27422.207     -3224.02    2423.8582   -8389.4172    83.263976 
   68400    283.61026   -105.29285   0.25661652   -105.03623   -13175.886    4.3801745    4.3801745    4.3801745   -13175.886   -22148.035   -8183.5454   -9196.0762    3268.7061   -4432.7169    2018.3826    84.037713 
   68500    599.54544   -105.57297   0.54248131   -105.03049    207.78179    4.3721699    4.3721699    4.3721699    207.78179    1928.3796   -1369.0607    64.026468   -725.36312    5244.9049    2083.0869     83.57783 
   68600    386.95039   -105.38251   0.35012085   -105.03239   -1178.7007    4.3746667    4.3746667    4.3746667   -1178.7007   -9471.1322   -14107.834    20042.864    6864.3886   -5535.9139    4337.9277    83.721099 
   68700    217.59791   -105.23273   0.19688716   -105.03584     2634.255    4.3758737    4.3758737    4.3758737     2634.255   -935.93258   -11399.468    20238.166   -1370.8107   -8653.3915   -3612.3629    83.790415 
   68800    564.67133   -105.54083   0.51092648    -105.0299    5677.4522    4.3728303    4.3728303    4.3728303    5677.4522    5143.0724    5783.3468    6105.9374    -964.7336   -3935.1745   -3395.9592    83.615706 
   68900    218.28694     -105.234   0.19751061   -105.03649   -6482.8381    4.3749574    4.3749574    4.3749574   -6482.8381   -11175.888    1028.2592   -9300.8852    210.65225   -3121.6464    2537.9445    83.737789 
   69000    597.59551   -105.57268   0.54071697   -105.03196   -1086.6276    4.3752462    4.3752462    4.3752462   -1086.6276   -1134.8988   -2051.5478   -73.436091    1809.6316   -814.83359    6618.2811     83.75437 
   69100    387.38089   -105.38528   0.35051037   -105.03477   -360.28222    4.3728083    4.3728083    4.3728083   -360.28222   -8028.6015   -10531.015     17478.77    3912.7303   -1081.4188    1131.6247    83.614446 
   69200    264.55863   -105.27562    0.2393782   -105.03624    2361.0515    4.3776342    4.3776342    4.3776342    2361.0515    2075.4635   -6622.9654    11630.656   -2433.9758    -10492.43   -2112.5157    83.891586 
   69300    501.31236   -105.48397   0.45359796   -105.03037     7569.846    4.3726556    4.3726556    4.3726556     7569.846    4106.6762    16798.647    1804.2151   -4989.4051    2679.1479   -5752.1389    83.605684 
   69400    233.10675   -105.24721   0.21091989   -105.03629   -3854.1838    4.3732333    4.3732333    4.3732333   -3854.1838   -4642.3528     2209.032   -9129.2306   -192.17165   -5186.5222    3612.9143    83.638827 
   69500    623.67352   -105.59466   0.56431291   -105.03035   -6220.4142    4.3782714    4.3782714    4.3782714   -6220.4142   -10209.062   -4517.1847   -3934.9954   -529.21671    5902.5737    3507.6692    83.928223 
   69600    368.49816   -105.36651   0.33342488   -105.03308    1245.2502     4.369528     4.369528     4.369528    1245.2502     -1789.98   -6544.6511    12070.382    4787.8428   -2297.3897   -64.394184    83.426416 
   69700    314.24807   -105.31959   0.28433826   -105.03525    -5384.887     4.380312     4.380312     4.380312    -5384.887   -12741.618   -3416.7447    3.7011009   -2157.4924   -6549.3177   -4655.2976    84.045627 
   69800    393.79816   -105.38733   0.35631685   -105.03102    13447.859    4.3695733    4.3695733    4.3695733    13447.859    9911.4584    27593.459    2838.6587   -4230.3621    954.56487   -5164.9862    83.429012 
   69900     290.0204   -105.29714   0.26241656   -105.03472   -10591.091    4.3788496    4.3788496    4.3788496   -10591.091   -14785.026   -3460.1989   -13528.048     2045.211   -5832.3698    1816.0316     83.96148 
   70000    594.01639   -105.56682   0.53747851   -105.02934   -2195.5117    4.3716519    4.3716519    4.3716519   -2195.5117   -1770.8251   -364.22367   -4451.4864    2481.2267    5996.2233    5072.7109    83.548126 
   70100    431.53539   -105.42326   0.39046229   -105.03279   -9712.0117    4.3770162    4.3770162    4.3770162   -9712.0117   -10918.191   -10159.952   -8057.8925    6759.6629   -3004.3714    -440.0312    83.856062 
   70200    299.98833   -105.30591   0.27143574   -105.03447    5209.5818    4.3720405    4.3720405    4.3720405    5209.5818   -122.97585    14473.429     1278.292   -3516.4022   -5130.1023   -1215.3766    83.570407 
   70300    309.90245   -105.31239   0.28040625   -105.03198    5915.1272    4.3782495    4.3782495    4.3782495    5915.1272    6334.3415    21147.113   -9736.0731   -4510.3315    1144.3388    -5462.369    83.926963 
   70400    372.58331   -105.37021    0.3371212   -105.03309   -1201.5205    4.3698065    4.3698065    4.3698065   -1201.5205   -3821.5551    1048.1819   -831.18825   -640.74565    -7113.111    1278.1873    83.442367 
   70500    505.10804   -105.48796   0.45703237   -105.03093   -9889.6399    4.3799577    4.3799577    4.3799577   -9889.6399   -5002.4466   -7668.7271   -16997.746    2706.0127    9032.7145    3411.3776    84.025236 
   70600     521.4297   -105.50346   0.47180055   -105.03166   -1237.5789    4.3691854    4.3691854    4.3691854   -1237.5789   -4617.1534    7750.2395   -6845.8227    1265.8111    1386.4086    2187.8389     83.40679 
   70700    244.58148   -105.25668   0.22130246   -105.03538    974.18968    4.3781475    4.3781475    4.3781475    974.18968    -264.6277    11291.977   -8104.7799   -2891.2033   -1006.0503   -1856.7226    83.921099 
   70800    370.80386   -105.36859   0.33551113   -105.03308    8403.6173    4.3718448    4.3718448    4.3718448    8403.6173    6130.8894    22369.131   -3289.1687   -7090.7276    6972.9957   -6093.9423    83.559188 
   70900    357.39495   -105.35759   0.32337847   -105.03421    2926.6707     4.374507     4.374507     4.374507    2926.6707   -274.52668   -3200.5833    12255.122    2932.0749   -9672.1862   -3316.7531    83.711926 
   71000    449.73338   -105.43797   0.40692821   -105.03104   -10298.315    4.3781196    4.3781196    4.3781196   -10298.315   -9192.4314   -8703.2012   -12999.312    1306.2851    14623.721    3387.6526    83.919495 
   71100    587.19019    -105.5592   0.53130203    -105.0279    157.92823    4.3698473    4.3698473    4.3698473    157.92823    690.34533    1027.5587   -1244.1194    5370.7656   -1411.4159    1482.5746    83.444702 
   71200    295.24704   -105.29969   0.26714573   -105.03254   -5792.8836    4.3800992    4.3800992    4.3800992   -5792.8836   -2675.7044    297.95733   -15000.904   -2144.5307    4306.5405    2297.2453     84.03338 
   71300    354.82214   -105.35326   0.32105053   -105.03221    12616.375    4.3673252    4.3673252    4.3673252    12616.375    7900.8253    20917.083     9031.217   -2053.0263    3835.0069   -6337.9378    83.300305 
   71400    346.36824   -105.34654   0.31340127   -105.03314    2162.2069    4.3795131    4.3795131    4.3795131    2162.2069   -1109.2072   -3916.3828    11512.211   -1476.0523   -8617.0799   -2725.3316    83.999652 
   71500    374.27084   -105.37218   0.33864812   -105.03354   -2864.9505    4.3706456    4.3706456    4.3706456   -2864.9505   -7484.3001    2872.9036    -3983.455    2893.8013    15268.676    2591.8676    83.490445 
   71600    632.57667   -105.60228   0.57236866   -105.02991   -5353.5784    4.3766375    4.3766375    4.3766375   -5353.5784    155.01389   -11321.757   -4893.9925    104.82695    -649.0482    4139.5263    83.834295 
   71700    350.76921     -105.351   0.31738336   -105.03361   -4555.8778    4.3740347    4.3740347    4.3740347   -4555.8778   -1617.4296   -4170.9416   -7879.2622    729.63642    5569.2021    3506.6903    83.684818 
   71800    318.65427   -105.32243   0.28832508    -105.0341    6345.1041    4.3745301    4.3745301    4.3745301    6345.1041   -28.622244    8522.6792    10541.255   -6461.3716    4968.2569   -4762.8307    83.713254 
   71900    392.39064   -105.38691   0.35504329   -105.03186    9077.5291    4.3732761    4.3732761    4.3732761    9077.5291   -784.58892     15026.34    12990.837   -1332.3547   -4136.5606   -6284.5348    83.641284 
   72000    285.36348   -105.29358   0.25820288   -105.03537   -6459.0082    4.3760211    4.3760211    4.3760211   -6459.0082   -13288.094    10693.809    -16782.74   -196.76975    17749.323    478.35796    83.798879 
   72100    649.81965   -105.61737   0.58797047    -105.0294    960.50196    4.3726616    4.3726616    4.3726616    960.50196    3376.9806    2137.9365   -2633.4113    4178.0094   -1437.2429    3035.8514    83.606033 
   72200    305.85789    -105.3117   0.27674665   -105.03495   -6226.4764    4.3759421    4.3759421    4.3759421   -6226.4764   -7335.0454   -5431.1605   -5913.2234    2419.6211    7796.9943    2089.2897    83.794344 
   72300    389.94972   -105.38748    0.3528347   -105.03465    3770.4763    4.3738551    4.3738551    4.3738551    3770.4763   -4839.7853    7018.5202    9132.6939   -2074.8849    3081.0193   -4366.2472    83.674507 
   72400    379.85785   -105.37676   0.34370336   -105.03306    9351.4481    4.3721068    4.3721068    4.3721068    9351.4481   -3652.7276    28168.284    3538.7882    1188.1389   -1712.2024   -7847.1826    83.574214 
   72500    270.48173   -105.28121   0.24473756   -105.03648   -9593.3189    4.3784253    4.3784253    4.3784253   -9593.3189   -21341.313    15163.187   -22601.831    2028.6287    15945.612    1749.5229    83.937073 
   72600    668.18358   -105.63408   0.60458655    -105.0295    3136.9447    4.3697938    4.3697938    4.3697938    3136.9447    4701.4769    7234.4252    -2525.068     2646.427   -4902.9711    4250.8794     83.44164 
   72700    305.73043   -105.31137   0.27663132   -105.03474   -11604.347    4.3799854    4.3799854    4.3799854   -11604.347   -13517.132   -2232.3954   -19063.514    352.13906    12734.075    2004.1123    84.026831 
   72800    386.26829   -105.38293   0.34950367   -105.03342    10791.313    4.3696336    4.3696336    4.3696336    10791.313   -876.02744    28295.274    4954.6922   -8183.2963     -3032.79   -1859.7634    83.432465 
   72900    303.94938   -105.30889   0.27501979   -105.03387    5915.3626    4.3768643    4.3768643    4.3768643    5915.3626   -6555.2995    30533.016    -6231.629   -1540.0136    6580.7557   -5412.4069    83.847333 
   73000    382.72053   -105.38029   0.34629358     -105.034   -8247.5516     4.374313     4.374313     4.374313   -8247.5516   -18173.757    4598.7579   -11167.656   -2829.9156    10037.313    3802.4537    83.700792 
   73100    619.44172   -105.59087   0.56048389   -105.03039    585.81367    4.3715237    4.3715237    4.3715237    585.81367    4728.9427    2699.6986   -5671.2004    1526.2528    282.96583    4178.3166    83.540778 
   73200    304.50084    -105.3106   0.27551876   -105.03508   -9795.8689    4.3803667    4.3803667    4.3803667   -9795.8689   -22897.729    17030.419   -23520.297   -1115.0905    14796.966    1127.2086    84.048781 
   73300    395.38304   -105.38941   0.35775088   -105.03165    14761.874     4.366194     4.366194     4.366194    14761.874    2404.5642    31317.425    10563.632   -1995.6065   -5344.6268   -5972.0073    83.235594 
   73400    285.59299   -105.29193   0.25841054   -105.03352   -3473.9309    4.3831543    4.3831543    4.3831543   -3473.9309   -19794.102    14552.012   -5179.7028   -1527.3952    10963.064   -6178.9671    84.209346 
   73500    476.55641   -105.46181   0.43119825   -105.03061    1498.7301     4.366102     4.366102     4.366102    1498.7301   -3376.3762   -2425.4612    10298.027    2274.9076    1324.0977    1293.4139    83.230334 
   73600    498.91451   -105.48265   0.45142833   -105.03122   -7483.1228    4.3797539    4.3797539    4.3797539   -7483.1228   -13641.998      3065.24   -11872.611   -1562.8871    5427.0855    6207.4247     84.01351 
   73700    349.41883    -105.3494    0.3161615   -105.03324    809.54624    4.3731067    4.3731067    4.3731067    809.54624   -8585.1962     22591.82   -11577.985    13.552895    10520.789   -3074.8069    83.631564 
   73800    381.02694   -105.37626   0.34476118    -105.0315    8856.5841    4.3712683    4.3712683    4.3712683    8856.5841   -4272.4404    13136.334    17705.859   -6726.3214   -6440.9136   -2727.8471    83.526135 
   73900    298.06989   -105.30206    0.2696999   -105.03236   -906.90616    4.3798361    4.3798361    4.3798361   -906.90616   -8685.6231   -5.1392668    5970.0439    -1548.748    9598.4821   -3562.4926    84.018237 
   74000    506.85343   -105.48849   0.45861163   -105.02988    1578.2946    4.3683147    4.3683147    4.3683147    1578.2946   -1684.5122   -4315.9727    10735.369    115.18753   -3520.3441    7164.1079    83.356939 
   74100    453.34068   -105.44082   0.41019218   -105.03062   -9809.4665    4.3802635    4.3802635    4.3802635   -9809.4665   -10408.015   -1411.1327   -17609.251   -123.96643    9107.2886    4990.0919    84.042839 
   74200    423.33731   -105.41407   0.38304449   -105.03102    1208.9252     4.370427     4.370427     4.370427    1208.9252   -11243.921    11529.343    3341.3533    536.09736    8660.4508   -2265.7663    83.477918 
   74300    265.58806    -105.2726   0.24030966   -105.03229    6233.2063    4.3757643    4.3757643    4.3757643    6233.2063   -8652.0567    1740.9025    25610.773    -5189.322   -4304.2689   -3525.3024    83.784128 
   74400    393.30763   -105.38836   0.35587301   -105.03249   -443.75537    4.3737959    4.3737959    4.3737959   -443.75537   -6017.2281   -1618.5041    6304.4662    352.33401    9990.7674    -553.8646    83.671114 
   74500    490.40013   -105.47504   0.44372434   -105.03132   -5271.5646    4.3737141    4.3737141    4.3737141   -5271.5646   -5281.3481   -8260.1131   -2273.2325    56.203334   -3193.7575    3770.3853    83.666416 
   74600    470.64809   -105.45873   0.42585228   -105.03288   -6347.2874    4.3749112    4.3749112    4.3749112   -6347.2874   -7223.5812   -6759.9651   -5058.3159    2936.6874    10737.252     3589.193    83.735136 
   74700    337.84681   -105.33917    0.3056909   -105.03348    3318.9932    4.3751536    4.3751536    4.3751536    3318.9932   -12061.958    4178.4043    17840.534    1905.6636    3927.4206   -6881.0508    83.749053 
   74800     337.8457    -105.3378   0.30568989   -105.03211    5904.0484     4.372497     4.372497     4.372497    5904.0484   -5097.1329    2691.8141    20117.464   -2725.4444    -5554.897   -4731.1512    83.596587 
   74900    350.06567   -105.34831   0.31674678   -105.03157   -5.4853251    4.3776453    4.3776453    4.3776453   -5.4853251    315.31553    8852.4397   -9184.2112   -2701.0867    7137.3601   -2545.0387    83.892223 
   75000    492.34944   -105.47544   0.44548812   -105.02995   -3014.6356    4.3707436    4.3707436    4.3707436   -3014.6356   -1229.8793   -6589.0389   -1224.9886   -1291.2144   -1839.9797    2467.1058    83.496061 
   75100    439.71538   -105.42956   0.39786371    -105.0317   -5286.1932    4.3771185    4.3771185    4.3771185   -5286.1932   -5366.8815   -7621.5916   -2870.1066    45.895673    10469.275    4914.3112    83.861942 
   75200    376.38079   -105.37361   0.34055725   -105.03305     2678.656    4.3725786    4.3725786    4.3725786     2678.656   -10975.502    2714.9787    16296.491    688.04457    4432.6409   -5625.1636     83.60127 
   75300    330.28995   -105.33252   0.29885328   -105.03367    3838.9639    4.3735231    4.3735231    4.3735231    3838.9639   -2627.3636    5858.2886    8285.9667   -7304.0806   -5282.9105    -1327.308    83.655458 
   75400    379.84484   -105.37556   0.34369159   -105.03187    1356.4188     4.376727     4.376727     4.376727    1356.4188    4418.7436    13275.365   -13624.853    -4125.153    9242.7193   -603.31173    83.839442 
   75500    483.78385   -105.46827    0.4377378   -105.03053   -3647.7947      4.37108      4.37108      4.37108   -3647.7947    153.01245   -9639.2379   -1457.1588   -4277.7021    -3445.626    5032.9174    83.515341 
   75600    422.91875   -105.41337   0.38266577    -105.0307   -3543.7653    4.3781704    4.3781704    4.3781704   -3543.7653   -3515.2067   -4683.9623    -2432.127    2885.3306    11918.204    3929.1636    83.922415 
   75700    441.61708   -105.43018   0.39958441    -105.0306    756.08998    4.3716667    4.3716667    4.3716667    756.08998   -7827.8336   -3841.7635    13937.867    336.10798   -2549.6938   -4784.0377    83.548975 
   75800    274.52102   -105.28173   0.24839239   -105.03333    4876.4747    4.3753953    4.3753953    4.3753953    4876.4747    4091.9495    7221.8102    3315.6642   -3776.6669   -2835.9985   -3149.8303    83.762936 
   75900     405.0667    -105.3985   0.36651287   -105.03199    3829.4908    4.3727983    4.3727983    4.3727983    3829.4908    8133.7267    11628.139   -8273.3934   -3177.3567    3304.4698   -335.04786    83.613873 
   76000    419.87767   -105.41307   0.37991414   -105.03315    -6009.166    4.3743328    4.3743328    4.3743328    -6009.166   -345.60955   -12455.199   -5226.6896   -491.83114    -1535.511    354.99736     83.70193 
   76100    542.78639   -105.52242   0.49112454   -105.03129   -7062.8098    4.3754841    4.3754841    4.3754841   -7062.8098   -7471.8412    -3895.388   -9821.2004    4760.6005    7462.4018    4328.2917    83.768037 
   76200     375.4827    -105.3717   0.33974464   -105.03195    1871.0948    4.3726297    4.3726297    4.3726297    1871.0948    1668.7756    1385.0153    2559.4936   -1896.4819   -1922.8401   -7818.3095    83.604201 
   76300     258.5118   -105.26731   0.23390691    -105.0334     3829.161    4.3764498    4.3764498    4.3764498     3829.161    8331.2114    5365.0006    -2208.729   -6485.5372   -3849.1483   -1861.2688    83.823512 
   76400     377.2242   -105.37252   0.34132038    -105.0312    8739.4725    4.3713337    4.3713337    4.3713337    8739.4725    18650.702    9467.8373   -1900.1215   -5243.2074    1337.2612   -6377.7727    83.529887 
   76500    377.18018   -105.37397   0.34128055   -105.03269   -9363.4158    4.3781165    4.3781165    4.3781165   -9363.4158    -7458.227   -14615.538   -6016.4824   -1112.0403   -2612.0689   -59.991065     83.91932 
   76600    567.52094   -105.54403   0.51350487   -105.03052   -2804.8253    4.3690597    4.3690597    4.3690597   -2804.8253   -759.84506   -1818.7525   -5835.8784    2597.0003    7617.5402    3954.9785    83.399593 
   76700    397.47083   -105.39293   0.35963996   -105.03329   -7140.5748    4.3786762    4.3786762    4.3786762   -7140.5748    1355.4083   -7684.8616   -15092.271   -5019.4104   -375.93823   -2180.2385    83.951509 
   76800    250.32547   -105.26115   0.22649975   -105.03465    8684.4638    4.3703874    4.3703874    4.3703874    8684.4638    13894.491    9780.0716    2378.8289   -6878.0495   -4100.5075   -173.35508    83.475647 
   76900    434.51548   -105.42532   0.39315874   -105.03216   -740.67972    4.3772441    4.3772441    4.3772441   -740.67972    2838.5854   -3276.8427   -1783.7818   -2152.7822    21.990891   -6522.1085     83.86916 
   77000     322.6902   -105.32542   0.29197688   -105.03344   -2226.7275    4.3716048    4.3716048    4.3716048   -2226.7275   -9820.6991   -9636.1571    12776.674    959.66738   -3842.5837   -1524.3157    83.545427 
   77100    562.15212   -105.53943   0.50864705   -105.03078    -7092.733    4.3757509    4.3757509    4.3757509    -7092.733   -2455.0043     -13730.6   -5092.5951    5730.6394    8778.4023    4508.8482    83.783358 
   77200    384.14162   -105.37944   0.34757941   -105.03186   -5423.1655    4.3756462    4.3756462    4.3756462   -5423.1655    2712.4583   -8115.6797   -10866.275   -4389.5977   -1288.4331   -2452.7637    83.777344 
   77300    353.99898    -105.3535   0.32030572    -105.0332    4809.3457     4.369815     4.369815     4.369815    4809.3457    5955.9607    3278.2999    5193.7765    322.28651    -1056.626    121.61331    83.442856 
   77400    402.00679   -105.39495   0.36374419   -105.03121   -1857.9433    4.3805372    4.3805372    4.3805372   -1857.9433   -2680.3024   -6328.8137    3435.2861   -3042.8219   -4981.1727   -11178.919    84.058594 
   77500    305.11518   -105.30947   0.27607462   -105.03339    6693.0832    4.3650887    4.3650887    4.3650887    6693.0832   -4507.7074   -7516.2961    32103.253    3783.5821   -281.57778   -2022.9497    83.172397 
   77600    544.96267   -105.52248   0.49309368   -105.02939    -11174.66    4.3836322    4.3836322    4.3836322    -11174.66   -7933.7851   -18588.633   -7001.5629    1770.5357    2568.6139    1486.6329     84.23689 
   77700    381.74395   -105.37655   0.34540995   -105.03114    4696.1726    4.3649938    4.3649938    4.3649938    4696.1726    9738.8333     984.8688    3364.8156   -4036.7781    1307.2198   -3657.7219    83.166975 
   77800    363.07637   -105.36112   0.32851913   -105.03261   -4609.5581    4.3811152    4.3811152    4.3811152   -4609.5581   -8916.6642   -11632.542    6720.5323    -1376.052   -6055.1405   -2178.1996    84.091873 
   77900    379.82155   -105.37461   0.34367052   -105.03094    10473.493    4.3691179    4.3691179    4.3691179    10473.493    5085.3639   -1072.8986    27408.013   -3409.2406   -90.308948   -12808.186    83.402925 
   78000    282.49696   -105.29059   0.25560919   -105.03498   -3926.1701    4.3756905    4.3756905    4.3756905   -3926.1701   -16149.743   -22034.649    26405.881    1822.8556   -2936.7309   -1123.3009    83.779888 
   78100    624.53885   -105.59425   0.56509587   -105.02915   -4285.2631    4.3748188    4.3748188    4.3748188   -4285.2631   -1951.9169   -9172.5672   -1731.3052    1363.6394    5284.0823    756.50783    83.729832 
   78200    394.32713    -105.3895   0.35679548    -105.0327   -7928.2723    4.3726464    4.3726464    4.3726464   -7928.2723   -6713.8966   -21169.244    4098.3237   -1545.3012   -2999.6836   -2744.5056    83.605161 
   78300    304.04043   -105.30956   0.27510217   -105.03446    5892.3922    4.3755879    4.3755879    4.3755879    5892.3922    -7266.607   -4164.2149    29107.998    1243.7562   -5191.9068   -2635.1436    83.773998 
   78400    389.12616   -105.38462   0.35208952   -105.03253    6184.9971    4.3722101    4.3722101    4.3722101    6184.9971   -754.84225   -8698.9683    28008.802   -3485.9577   -4159.9706   -9289.7502    83.580136 
   78500    269.32884   -105.27849   0.24369439   -105.03479   -3002.3352    4.3750074    4.3750074    4.3750074   -3002.3352   -10900.445   -7186.0732    9079.5123    1681.3291   -2814.6747   -1804.8324    83.740657 
   78600    696.54552   -105.65953   0.63024902   -105.02928   -7314.3937    4.3749486    4.3749486    4.3749486   -7314.3937   -3213.2157   -10093.063   -8636.9025    2465.0225    944.69507      3375.92    83.737282 
   78700    282.84112   -105.29054   0.25592059   -105.03462   -1273.8684    4.3713374    4.3713374    4.3713374   -1273.8684   -5729.5347   -15208.016    17115.945    56.331241      70.6613      -4414.5    83.530097 
   78800    385.97478   -105.38306   0.34923809   -105.03382    2352.2689    4.3778865    4.3778865    4.3778865    2352.2689   -7634.3487    -7695.128    22386.283    4241.9539   -4866.3591   -2165.0447    83.906092 
   78900    352.48467   -105.35138   0.31893554   -105.03245    7208.0851    4.3713077    4.3713077    4.3713077    7208.0851    3151.5392    2232.7674    16239.949   -5953.1433    -1002.895   -12983.781    83.528397 
   79000    297.29154   -105.30469   0.26899564   -105.03569    -3700.537    4.3732075    4.3732075    4.3732075    -3700.537    -7433.396   -1467.7827   -2200.4325    3034.2529   -3068.7585    -354.5187     83.63735 
   79100    660.51611   -105.62704   0.59764886   -105.02939   -9198.8831     4.378494     4.378494     4.378494   -9198.8831   -2084.6231   -10704.201   -14807.825   -333.18143    4161.4966    2161.5409    83.941029 
   79200    311.55514   -105.31567   0.28190164   -105.03377    1383.1037    4.3675869    4.3675869    4.3675869    1383.1037   -5507.2295   -4201.7032    13858.244    3664.9028    880.20579   -3871.3996    83.315281 
   79300     400.5765   -105.39557   0.36245003   -105.03312    -5010.322    4.3818645    4.3818645    4.3818645    -5010.322    -15183.35   -5417.3585    5569.7429    2773.7041   -2610.9699   -3302.9228    84.135028 
   79400    309.37642   -105.31136   0.27993028   -105.03143     15093.52    4.3664971    4.3664971    4.3664971     15093.52    8026.3438    17444.474    19809.742   -5458.7482   -4223.2026   -9511.7268    83.252929 
   79500    294.85818   -105.30106   0.26679388   -105.03427   -8804.7149    4.3798957    4.3798957    4.3798957   -8804.7149   -7277.4147   -15717.795    -3418.935    2029.1304   -4926.5561   -1377.6283     84.02167 
   79600    599.29653   -105.57069   0.54225609   -105.02843   -1598.0288    4.3705831    4.3705831    4.3705831   -1598.0288    7479.1409   -5267.7941   -7005.4332    166.42242    -762.5998    5967.0277    83.486862 
   79700    385.48398   -105.38128     0.348794   -105.03248   -9909.1949    4.3752876    4.3752876    4.3752876   -9909.1949   -9200.8039   -12817.418    -7709.363    4822.5574    2986.7258   -2258.3424     83.75675 
   79800    431.79839   -105.42359   0.39070026   -105.03289   -1301.2106    4.3744333    4.3744333    4.3744333   -1301.2106    -7158.116    4222.7071    -968.2228    531.88226   -4130.4136     1892.129    83.707699 
   79900    307.08108   -105.31077   0.27785341   -105.03292    10058.141    4.3715348    4.3715348    4.3715348    10058.141    11276.768    6517.3697    12380.284   -5616.2083   -1342.6835   -6936.8381    83.541411 
   80000    286.27805   -105.29264    0.2590304   -105.03361   -3737.7916    4.3774862    4.3774862    4.3774862   -3737.7916    -280.0437   -16383.795    5450.4643   -315.29129   -8917.9468   -1150.4059    83.883078 
   80100    493.40985   -105.47711    0.4464476   -105.03067    2112.3881     4.370135     4.370135     4.370135    2112.3881    12965.776   -4621.7925   -2006.8193    1897.7717     2877.921    6686.0686    83.461187 
   80200    465.41246   -105.45264   0.42111497   -105.03152   -14094.559    4.3782512    4.3782512    4.3782512   -14094.559    -14390.75   -16674.478   -11218.448    2204.1858    3425.7213   -1716.3804    83.927064 
   80300    435.68826   -105.42558   0.39421989   -105.03136    892.81988    4.3708564    4.3708564    4.3708564    892.81988    2494.3434    467.24303   -283.12674    2954.6364     1198.608    3540.0629    83.502527 
   80400    343.07612   -105.34272   0.31042249    -105.0323    2905.9976    4.3751054    4.3751054    4.3751054    2905.9976    11941.243   -8969.3397    5746.0899   -6327.7994   -1062.0912   -5543.7812    83.746287 
   80500    284.36314   -105.29111   0.25729774   -105.03381     6517.542     4.372484     4.372484     4.372484     6517.542    9471.5901   -9558.3122    19639.348    5067.2994   -7368.5085   -1806.3752    83.595842 
   80600     473.8272   -105.45988   0.42872881   -105.03115   -2220.2382    4.3747805    4.3747805    4.3747805   -2220.2382    10793.806   -16216.686    -1237.835   -800.90914    448.50471    6208.4195     83.72763 
   80700    476.05253    -105.4626   0.43074234   -105.03186   -3119.0944    4.3721823    4.3721823    4.3721823   -3119.0944    -5003.067   -5191.9221    837.70595    5869.3729    3952.2052   -1342.8714     83.57854 
   80800    466.31397    -105.4538   0.42193068   -105.03187   -7185.5555    4.3775226    4.3775226    4.3775226   -7185.5555    2678.6375   -16458.332    -7776.972     274.0505   -1280.8447    6540.7456     83.88517 
   80900    287.13573    -105.2921   0.25980644    -105.0323    14289.486    4.3683084    4.3683084    4.3683084    14289.486    23785.073    2258.5699    16824.817   -3666.9981   -3113.7319   -2928.8396    83.356579 
   81000    306.54993   -105.31122   0.27737282   -105.03385    -1508.206    4.3784987    4.3784987    4.3784987    -1508.206   -1183.9619   -20921.202    17580.546    1148.0349   -6117.3706   -2391.1268    83.941299 
   81100     428.1871    -105.4191   0.38743268   -105.03167    5189.6858    4.3684228    4.3684228    4.3684228    5189.6858    16923.645   -5451.8816    4097.2938   -501.18537    1569.3146    9096.3657    83.363129 
   81200    558.18838   -105.53615   0.50506058   -105.03109   -15814.299    4.3796375    4.3796375    4.3796375   -15814.299   -16749.027    -20929.26   -9764.6082    3584.2009    8038.2492   -2221.0852    84.006809 
   81300    381.60357   -105.37729   0.34528293   -105.03201    2480.5885    4.3694342    4.3694342    4.3694342    2480.5885    19009.482   -12835.781    1268.0648    1709.8059   -1282.1912    12494.938     83.42104 
   81400    353.75203   -105.35236   0.32008227   -105.03228    2775.1092    4.3759155    4.3759155    4.3759155    2775.1092    5962.4211   -11359.185    13722.091    -3240.701    638.64908   -3122.8234    83.792816 
   81500    268.88918   -105.27668   0.24329658   -105.03339    3904.6332    4.3734393    4.3734393    4.3734393    3904.6332    7718.4996   -10555.318    14550.718    1983.7969   -4859.2005    400.47234    83.650645 
   81600    456.69477   -105.44522   0.41322702   -105.03199   -1122.1058    4.3709751    4.3709751    4.3709751   -1122.1058    4914.3299   -4859.3874   -3421.2598   -2442.4622    4238.0344    9762.8662     83.50933 
   81700     526.6392   -105.50773   0.47651422   -105.03122   -12399.402    4.3772348    4.3772348    4.3772348   -12399.402   -16152.028   -13291.853   -7754.3264    7722.4171    3657.0459   -961.37489    83.868625 
   81800    342.05012   -105.34317   0.30949414   -105.03367     2100.057    4.3700578    4.3700578    4.3700578     2100.057    15728.916    -16989.62    7560.8745    739.45273   -3215.6323    16404.428    83.456767 
   81900    380.41345   -105.37563   0.34420609   -105.03143    1587.2052    4.3777705    4.3777705    4.3777705    1587.2052   -1063.8775   -12642.821    18468.315    1416.8693   -5874.9008    -4897.706    83.899424 
   82000    243.16974    -105.2524   0.22002509   -105.03238    5505.9796    4.3712089    4.3712089    4.3712089    5505.9796    14217.803   -10929.407    13229.543   -638.64366   -4963.5428    4131.4043     83.52273 
   82100    513.73773   -105.49516    0.4648407   -105.03032   -6616.9312    4.3746062    4.3746062    4.3746062   -6616.9312    58.710884    -7838.397   -12071.107    -821.3702    406.48873    7897.3037    83.717622 
   82200    458.91191   -105.44675   0.41523314   -105.03151   -4671.6429    4.3743395    4.3743395    4.3743395   -4671.6429    -8223.615   -10116.043    4324.7293    4876.8511    5702.8571    1308.9591    83.702315 
   82300    359.38973   -105.35888   0.32518338    -105.0337    -3227.908    4.3711672    4.3711672    4.3711672    -3227.908     3860.174   -21202.739    7658.8416    2041.1828   -2276.4209    15632.108    83.520341 
   82400    402.87479   -105.39699   0.36452958   -105.03246    4156.0447    4.3756949    4.3756949    4.3756949    4156.0447     1101.515   -5095.3881    16462.007   -1262.8853   -817.34624    -6767.552    83.780145 
   82500    321.07641   -105.32462   0.29051669    -105.0341   -1048.8102    4.3722911    4.3722911    4.3722911   -1048.8102    10702.495   -10766.898   -3082.0274   -2186.6227   -330.41128    6475.0468    83.584781 
   82600    459.96188    -105.4475   0.41618317   -105.03131     79.91372    4.3753299    4.3753299    4.3753299     79.91372    5618.4502   -380.10917   -4998.5999   -3983.2507    5521.5617     7923.465     83.75918 
   82700    456.03774   -105.44429   0.41263253   -105.03166   -4201.5217    4.3737242    4.3737242    4.3737242   -4201.5217   -10618.555   -13774.504    11788.493    4327.2801      6803.29    3566.0241    83.666995 
   82800    319.57399    -105.3225   0.28915726   -105.03334    2088.3364    4.3716058    4.3716058    4.3716058    2088.3364    5934.9423   -16485.209    16815.276    1143.6745    -3488.924    14593.492    83.545485 
   82900    512.94235   -105.49474   0.46412102   -105.03062   -991.40759    4.3768295    4.3768295    4.3768295   -991.40759    2869.8487   -11841.993    5997.9216   -287.50646   -2592.2851   -7073.7116     83.84533 
   83000    293.10377   -105.29983   0.26520645   -105.03462    1680.6457    4.3682117    4.3682117    4.3682117    1680.6457     16045.97    -7228.122    -3775.911   -1291.5358   -485.16374     12853.61     83.35104 
   83100    427.32245   -105.41915   0.38665034    -105.0325   -2175.6751    4.3798594    4.3798594    4.3798594   -2175.6751    901.06892   -9877.6179    2449.5235   -3755.4899    4029.7605    7159.4283    84.019579 
   83200    368.00538   -105.36552     0.332979   -105.03254    5713.8299    4.3679637    4.3679637    4.3679637    5713.8299   -5049.7226   -4880.0526    27071.265    4812.4883    1379.4821    5928.0143    83.336848 
   83300    398.52409   -105.39319   0.36059298    -105.0326   -8388.7814    4.3787068    4.3787068    4.3787068   -8388.7814     -2416.83   -23020.512    270.99747    1106.2549   -5051.5702    12699.932    83.953268 
   83400    590.05203   -105.56298   0.53389147   -105.02908   -1707.2156    4.3707176    4.3707176    4.3707176   -1707.2156    2212.5433   -6137.1127   -1197.0774    4968.2195    -3393.727   -9355.0725    83.494571 
   83500    239.78218   -105.25119   0.21695996   -105.03423   -1661.2185     4.374802     4.374802     4.374802   -1661.2185    13308.369   -19285.829    993.80419   -974.91232     4148.325    16716.134    83.728863 
   83600    429.52841   -105.42002   0.38864633   -105.03137    4676.5865    4.3752876    4.3752876    4.3752876    4676.5865    1908.5703   -7742.0962    19863.286    336.68952    4496.5016    420.16247    83.756752 
   83700    271.87391   -105.27931   0.24599722   -105.03332    2998.0272    4.3710301    4.3710301    4.3710301    2998.0272    1533.7696   -10668.179    18128.491     773.4164     5078.992    9942.9052    83.512481 
   83800    499.68689    -105.4851    0.4521272   -105.03298   -10713.128    4.3747544    4.3747544    4.3747544   -10713.128   -3930.6599    -15286.67   -12922.053    3158.4564   -2952.4649     7292.771     83.72613 
   83900    510.48402   -105.49343   0.46189667   -105.03153   -6716.6964    4.3753078    4.3753078    4.3753078   -6716.6964   -9332.1796   -14692.564    3874.6542    2627.6848    43.551417   -9499.1693    83.757907 
   84000    293.51593   -105.29951   0.26557938   -105.03393    144.91016    4.3713414    4.3713414    4.3713414    144.91016    1808.0706   -19762.795    18389.455    2893.3991    5651.9223    16425.725    83.530328 
   84100    396.27577   -105.38999   0.35855864   -105.03144    3224.7433    4.3766333    4.3766333    4.3766333    3224.7433    2483.7295   -3025.9723    10216.473   -4344.4788    4704.4667   -1158.9582    83.834057 
   84200    344.99259   -105.34488   0.31215655   -105.03273   -118.76063    4.3717891    4.3717891    4.3717891   -118.76063    6677.4661   -1663.1751   -5370.5729   -1789.8489    5445.2418    8453.9367    83.555993 
   84300    417.39325   -105.40918   0.37766618   -105.03152   -14.082612    4.3749357    4.3749357    4.3749357   -14.082612    5491.0842   -1581.0492   -3952.2828   -4308.8255   -4857.9941    1838.3183    83.736543 
   84400    427.02559   -105.41828   0.38638172   -105.03189   -116.41167    4.3726953    4.3726953    4.3726953   -116.41167   -1757.2638   -15057.107    16465.136    2436.1207    1424.4533   -8174.1904    83.607964 
   84500    379.10284    -105.3767   0.34302021   -105.03368   -1751.0089    4.3727191    4.3727191    4.3727191   -1751.0089   -2270.3474   -12256.809    9274.1295    1070.0574    1098.0092     17804.35    83.609329 
   84600     483.9864   -105.47001   0.43792106   -105.03209   -1284.3101    4.3754283    4.3754283    4.3754283   -1284.3101    3365.4923   -2347.7715   -4870.6512   -3622.8877    4582.1456   -4420.4261    83.764832 
   84700    297.25572   -105.30298   0.26896322   -105.03402    2740.9516    4.3718855    4.3718855    4.3718855    2740.9516    5318.2235   -529.23152    3433.8629   -1922.8572   -2730.2056    4451.2004    83.561518 
   84800    375.21237   -105.37174   0.33950004   -105.03224    2773.0258    4.3755939    4.3755939    4.3755939    2773.0258    7188.1085   -6705.1435    7836.1123   -4594.5652   -3696.6307   -1011.5235    83.774344 
   84900     399.7383   -105.39401   0.36169161   -105.03232    1519.7802    4.3710383    4.3710383    4.3710383    1519.7802   -1735.0848   -14950.829    21245.254    4379.1535   -4631.5008   -6678.2747    83.512952 
   85000    444.50526   -105.43488    0.4021977   -105.03268   -6280.2391    4.3756698    4.3756698    4.3756698   -6280.2391   -1669.4097   -12778.186   -4393.1213    2160.0773    5417.6503    15453.379    83.778704 
   85100    530.12176   -105.51076   0.47966531    -105.0311   -5344.2324    4.3735459    4.3735459    4.3735459   -5344.2324   -7118.0733   -8874.1853   -40.438501    4085.8812   -622.81582   -10636.235    83.656766 
   85200    261.40593   -105.27065   0.23652558   -105.03412    6704.8728    4.3719965    4.3719965    4.3719965    6704.8728    6128.9156   -4954.8086    18940.511   -103.75193   -177.88076    2034.0029    83.567883 
   85300    361.30658   -105.35985   0.32691779   -105.03293    1760.0548    4.3753639    4.3753639    4.3753639    1760.0548    5854.2269   -11422.796    10848.733   -879.15298   -5605.6902    -3415.779    83.761134 
   85400    404.76063   -105.39899   0.36623593   -105.03275   -759.50256    4.3711585    4.3711585    4.3711585   -759.50256    11548.307   -13193.949   -632.86555    397.31087    1358.8227   -5824.6431     83.51984 
   85500    479.36206   -105.46621   0.43373687   -105.03247   -9822.1577    4.3758218    4.3758218    4.3758218   -9822.1577    -4254.656   -17299.731   -7912.0862    3674.4947    8100.2792     12974.33    83.787434 
   85600    411.04682   -105.40414    0.3719238   -105.03222   -1247.4084    4.3724723    4.3724723    4.3724723   -1247.4084   -2992.4698   -15300.664    14550.909    802.57539    687.44302     -12179.4    83.595176 
   85700    352.83996   -105.35228   0.31925701   -105.03302   -1381.1528    4.3746922    4.3746922    4.3746922   -1381.1528   -4656.3442   -10998.372    11511.258    2120.5666    1102.2093    3373.4499    83.722559 
   85800    413.09164    -105.4063     0.373774   -105.03253    -1039.561    4.3723876    4.3723876    4.3723876    -1039.561     11127.36   -2289.9958   -11956.047   -7043.8087   -2572.9668   -4583.5809    83.590315 
   85900    346.11667   -105.34639   0.31317363   -105.03321    1447.3256    4.3745691    4.3745691    4.3745691    1447.3256    11046.249    -8778.216    2073.9443   -1246.9925    6602.7601   -1649.5548    83.715491 
   86000    376.24527   -105.37264   0.34043462   -105.03221      2137.75    4.3723103    4.3723103    4.3723103      2137.75    1873.6609   -9582.5743    14122.163   -2070.6296    6653.9773    11311.977     83.58588 
   86100    374.39556   -105.37148   0.33876097   -105.03272   -1616.3435    4.3752005    4.3752005    4.3752005   -1616.3435   -1414.3264    -21812.19    18377.486    1393.3728   -726.77669   -12458.471    83.751751 
   86200    522.12254   -105.50404   0.47242745   -105.03161   -7443.1668    4.3733636    4.3733636    4.3733636   -7443.1668   -8198.4538   -12289.812   -1841.2346    3075.0939   -3079.2868    5238.5362    83.646302 
   86300     415.4305   -105.40856   0.37589025   -105.03267   -1465.4436    4.3721456    4.3721456    4.3721456   -1465.4436     5865.182   -10443.536    182.02355   -2831.0651   -930.68409   -3739.5836    83.576438 
   86400    311.23949   -105.31612   0.28161604    -105.0345    2010.6005    4.3757649    4.3757649    4.3757649    2010.6005   -1479.7041   -17172.926    24684.432    1491.6945    1878.5345    588.42215    83.784162 
   86500    355.70727   -105.35547   0.32185142   -105.03362    9868.1999    4.3679494    4.3679494    4.3679494    9868.1999    13400.542   -1264.2819    17468.339   -1985.0798    5956.6688    9175.4329    83.336029 
   86600    448.37585   -105.43958   0.40569989   -105.03388   -12557.983    4.3807168    4.3807168    4.3807168   -12557.983   -4515.5776   -23510.546   -9647.8268    2882.4861   -5687.2966   -12644.034    84.068932 
   86700    524.27467   -105.50525   0.47437474   -105.03087    1670.6598    4.3668592    4.3668592    4.3668592    1670.6598    388.56488   -4903.3346    9526.7492    4860.8027    475.39313    3454.5082    83.273646 
   86800    353.58086   -105.35262   0.31992739   -105.03269   -3944.0019    4.3803729    4.3803729    4.3803729   -3944.0019   -766.67011   -23956.012    12890.677    2115.3977     1912.776   -7293.0907    84.049134 
   86900    341.08656   -105.34109   0.30862229   -105.03247    6365.7674    4.3691982    4.3691982    4.3691982    6365.7674    10876.068   -10995.047    19216.281    3103.4272    8169.7348     812.8093    83.407524 
   87000    420.29512   -105.41289   0.38029185    -105.0326    2796.6426     4.371819     4.371819     4.371819    2796.6426    13691.044   -941.36589   -4359.7504   -2687.1019    5541.3511    3698.0358     83.55771 
   87100    386.93875   -105.38258   0.35011032   -105.03247   -9705.9117    4.3795744    4.3795744    4.3795744   -9705.9117     580.9041   -18004.556   -11694.084    201.67582   -4175.1433   -13002.037    84.003182 
   87200    427.51352   -105.41768   0.38682322   -105.03086    11856.623    4.3635309    4.3635309    4.3635309    11856.623     4581.421    783.15325    30205.294    3974.0702     3845.457    2019.1232    83.083383 
   87300    369.40629   -105.36736   0.33424658   -105.03311   -12267.408    4.3837293    4.3837293    4.3837293   -12267.408   -4442.8457   -28679.291   -3680.0869   -616.65113    2184.7278   -7471.2979    84.242487 
   87400    406.49063   -105.39912   0.36780126   -105.03132    8278.0613    4.3631416    4.3631416    4.3631416    8278.0613    19316.529   -7268.3212    12785.976    3712.1076    4806.1438    1479.7801    83.061147 
   87500    477.85244   -105.46343   0.43237093   -105.03106    -8838.625    4.3813124    4.3813124    4.3813124    -8838.625    5490.3825   -13259.801   -18746.456   -6230.5351   -2995.9544    1184.0921    84.103228 
   87600    285.40761   -105.29136    0.2582428   -105.03312    5685.3599    4.3684632    4.3684632    4.3684632    5685.3599    5769.6416   -9091.5986    20378.037    1662.2857    -5399.689   -12777.071    83.365442 
   87700    455.43679   -105.44367   0.41208878   -105.03158    1194.0385    4.3752213    4.3752213    4.3752213    1194.0385    -8958.189   -6267.9826    18808.287     1617.012    1485.8609    444.08661    83.752944 
   87800    324.49265   -105.32654   0.29360777   -105.03293   -994.02443    4.3745282    4.3745282    4.3745282   -994.02443     13456.66    -15050.41   -1388.3229     2250.245    5199.2213   -10796.577    83.713149 
   87900    459.51183   -105.44716   0.41577596   -105.03139    -665.8844    4.3706659    4.3706659    4.3706659    -665.8844    9946.9747   -13098.275    1153.6468    6434.9359    -3157.144    2145.7544    83.491608 
   88000    468.68207   -105.45588   0.42407339   -105.03181   -1604.6157    4.3750884    4.3750884    4.3750884   -1604.6157    8043.0502   -15572.044    2715.1464   -2165.5903   -273.74292   -2225.4249    83.745311 
   88100    266.12625    -105.2772   0.24079663    -105.0364   -283.64804    4.3714377    4.3714377    4.3714377   -283.64804   -4878.7405   -18391.799    22419.596     3362.112    -3863.502   -11849.673    83.535845 
   88200    522.17657   -105.50462   0.47247633   -105.03214    1359.9653    4.3745058    4.3745058    4.3745058    1359.9653   -2143.0986   -5076.2889    11299.283    4598.0643    10086.245   -1209.3027     83.71186 
   88300    313.18354   -105.31723   0.28337505   -105.03386    -2986.424    4.3756232    4.3756232    4.3756232    -2986.424    15642.436   -11996.215   -12605.494    5344.4075    627.31419   -10059.092    83.776026 
   88400    421.68786   -105.41382   0.38155204   -105.03227     3945.616     4.369574     4.369574     4.369574     3945.616    12667.496   -9517.4841    8686.8358    10971.179   -1449.4193    4503.0871    83.429052 
   88500     415.9082   -105.40794   0.37632248   -105.03161   -462.40596    4.3781497    4.3781497    4.3781497   -462.40596    3973.1445   -14283.889    8923.5266   -3483.2111    -4868.687   -2511.3505    83.921226 
   88600     319.1449   -105.32319   0.28876902   -105.03442   -2199.7776    4.3680497    4.3680497    4.3680497   -2199.7776   -5596.3394   -19235.848    18232.854    6923.0891    2120.1299   -7207.6955    83.341767 
   88700     562.5455   -105.54141   0.50900299   -105.03241   -1933.2676    4.3766997    4.3766997    4.3766997   -1933.2676    4943.7707    -10094.02   -649.55358   -1505.9533    2557.7829   -966.99362    83.837872 
   88800    307.20514   -105.31319   0.27796566   -105.03522   -5484.4258    4.3744659    4.3744659    4.3744659   -5484.4258    12219.022   -15220.232   -13452.067      7433.66    32.144341    -11654.02    83.709567 
   88900     396.4059   -105.39275   0.35867639   -105.03407    6791.4387    4.3678344    4.3678344    4.3678344    6791.4387    1879.1158   -3961.7783    22456.979    5352.7839   -7645.7327     6380.377    83.329445 
   89000    419.75626   -105.41153   0.37980428   -105.03172   -5385.3624    4.3817172    4.3817172    4.3817172   -5385.3624   -5740.7604   -17253.074    6837.7476   -2199.8983    805.31475   -3866.1634     84.12654 
   89100    317.12102   -105.31987   0.28693776   -105.03293    2628.9464    4.3630235    4.3630235    4.3630235    2628.9464   -524.59381   -15029.548    23440.981    5293.3314      2851.66   -4659.2541      83.0544 
   89200    558.19651   -105.53496   0.50506793   -105.02989   -7637.0964    4.3826058    4.3826058    4.3826058   -7637.0964    9824.0188   -18818.448    -13916.86   -2069.4483    4216.7126   -3264.8171    84.177732 
   89300    346.24502   -105.34704   0.31328977   -105.03375    1641.9912    4.3660089    4.3660089    4.3660089    1641.9912     13513.23    -11413.63    2826.3735    9092.7137    -2735.562   -9459.2671     83.22501 
   89400    375.47677   -105.37471   0.33973927   -105.03497   -2888.8657    4.3784921    4.3784921    4.3784921   -2888.8657   -10759.341   -11379.496    13472.239    5562.0994    -3770.156    4851.5474    83.940919 
   89500    422.18026   -105.41384   0.38199757   -105.03184    6464.3185    4.3707993    4.3707993    4.3707993    6464.3185     3202.262   -2291.2071    18481.901   -389.05894    2617.2344    -1388.403    83.499257 
   89600    270.08478   -105.27977   0.24437838   -105.03539   -4364.5118    4.3723123    4.3723123    4.3723123   -4364.5118   -3014.1488   -17336.898    7257.5115    6703.1055    3062.6859   -3264.7635    83.585996 
   89700    563.80032   -105.54057   0.51013838   -105.03043   -1257.7863    4.3749042    4.3749042    4.3749042   -1257.7863      18834.4   -12624.289   -9983.4706   -2908.5019   -843.02728   -1450.3095    83.734732 
   89800    378.97436   -105.37745   0.34290396   -105.03454   -3365.2427    4.3701343    4.3701343    4.3701343   -3365.2427     5946.972   -17533.334    1490.6341    10828.623   -4438.8428   -9587.2662    83.461148 
   89900    384.47799   -105.38233   0.34788376   -105.03445   -2969.9615    4.3782709    4.3782709    4.3782709   -2969.9615   -6528.6198   -14038.599    11657.335    2557.9348   -3325.7962    5973.0426    83.928196 
   90000    412.41886   -105.40439   0.37316526   -105.03122    9466.0812     4.368166     4.368166     4.368166    9466.0812    11704.209    725.99351    15968.041   -2389.8656    4562.8268   -1373.6599    83.348426 
   90100    237.88978   -105.25051   0.21524767   -105.03526   -2522.8137    4.3769851    4.3769851    4.3769851   -2522.8137    14026.321   -17175.826   -4418.9356    3022.0073    2379.6288   -430.88465    83.854272 
   90200    513.28545   -105.49477   0.46443146   -105.03034    2356.4653    4.3716938    4.3716938    4.3716938    2356.4653    15829.267   -4799.0452   -3960.8261    -6534.051   -2861.1492   -1551.8694    83.550532 
   90300    461.97297   -105.45039   0.41800285   -105.03239   -6221.1824    4.3712422    4.3712422    4.3712422   -6221.1824    3669.2292   -19195.057   -3137.7193    10033.003   -2406.1008   -9462.2979    83.524639 
   90400    387.52602   -105.38482   0.35064169   -105.03418   -4576.4981    4.3774779    4.3774779    4.3774779   -4576.4981    -3294.205   -16235.585    5800.2958    606.58692   -313.02817    2323.2248    83.882603 
   90500    372.90532   -105.36986   0.33741257   -105.03245    11141.815    4.3676326    4.3676326    4.3676326    11141.815    29466.806   -5258.8098    9217.4496   -3430.9358    7561.6705   -3212.7809    83.317896 
   90600    248.06188   -105.26001    0.2244516   -105.03556   -2036.8473    4.3785531    4.3785531    4.3785531   -2036.8473     11123.07   -13899.974   -3333.6382    3612.5487    1939.1102    1219.9691    83.944428 
   90700     487.8928   -105.47229   0.44145566   -105.03084     676.6386    4.3689916    4.3689916    4.3689916     676.6386     2624.049    2106.7074   -2700.8406   -4720.3355   -2849.9587   -441.78925    83.395695 
   90800    514.12964    -105.4976    0.4651953    -105.0324   -12314.217    4.3757279    4.3757279    4.3757279   -12314.217   -3645.3926   -20160.998   -13136.261    12541.806   -3531.7821   -7639.9584    83.782037 
   90900    352.00557   -105.35309   0.31850203   -105.03459   -1792.4349    4.3723799    4.3723799    4.3723799   -1792.4349    3562.3458   -13219.724    4280.0737    2665.9812   -1614.5599    513.56347    83.589871 
   91000    422.92781    -105.4161   0.38267397   -105.03343    2840.4659     4.371762     4.371762     4.371762    2840.4659    19249.652   -6716.3007    -4011.954   -4205.1233    1831.6422   -416.27486    83.554441 
   91100    244.37537   -105.25592   0.22111597    -105.0348    1578.6601    4.3755641    4.3755641    4.3755641    1578.6601   -5325.6907    123.31953    9938.3516    4705.6207    2014.6055    3872.7705    83.772632 
   91200    492.22809   -105.47739   0.44537832   -105.03201   -1092.7217    4.3695356    4.3695356    4.3695356   -1092.7217    -4185.366     3860.662   -2953.4611   -5222.2389   -7318.1516    3386.4942    83.426851 
   91300    424.68614   -105.41599   0.38426495   -105.03172   -8933.3299    4.3787922    4.3787922    4.3787922   -8933.3299    -622.3813   -14844.182   -11333.427    11914.544   -115.63653   -5479.0767    83.958177 
   91400    410.74632   -105.40362    0.3716519   -105.03197    3294.6748    4.3656554    4.3656554    4.3656554    3294.6748    11425.644   -6823.5194    5281.9002   -2960.5289   -3468.7336    330.45181    83.204796 
   91500    391.16686   -105.38631   0.35393599   -105.03237   -3496.2754    4.3798247    4.3798247    4.3798247   -3496.2754    7731.9577   -4998.7491   -13222.035   -5393.8807     6590.846   -1702.1286    84.017582 
   91600    311.26743   -105.31461   0.28164131   -105.03297    6091.0804    4.3683543    4.3683543    4.3683543    6091.0804   -6805.9761    10338.526    14740.691    4788.1722    2045.3007    4696.0862    83.359206 
   91700    449.51532   -105.43853   0.40673091   -105.03179   -3044.1083    4.3757573    4.3757573    4.3757573   -3044.1083   -7397.9102    919.61243   -2654.0272    -1807.204   -1866.3533    2157.6256    83.783725 
   91800    400.98377   -105.39472   0.36281854    -105.0319   -1736.7383    4.3729707    4.3729707    4.3729707   -1736.7383    7037.6242   -9707.9555   -2539.8836    10421.552    754.99242   -4444.7039    83.623762 
   91900      462.741   -105.45085   0.41869778   -105.03215    -3963.221    4.3718238    4.3718238    4.3718238    -3963.221   -253.88833   -6360.3956   -5275.3792   -1638.6845   -340.42049    -2655.918    83.557986 
   92000    376.67521    -105.3739   0.34082365   -105.03307    2487.1084     4.373611     4.373611     4.373611    2487.1084    7026.5665    6771.9281   -6337.1694   -4589.4944    5174.3587    1193.5565    83.660502 
   92100    356.78446   -105.35736   0.32282607   -105.03453   -335.60372    4.3723588    4.3723588    4.3723588   -335.60372   -14230.506    5156.8671    8066.8275    11155.332    1629.9114     2780.844    83.588661 
   92200     438.6023   -105.42856   0.39685658    -105.0317    910.64118    4.3744191    4.3744191    4.3744191    910.64118    1123.1103   -4700.5419    6309.3551   -3263.4215   -4843.8271    5240.6689    83.706885 
   92300    366.18618   -105.36414   0.33133295   -105.03281   -2149.2763    4.3724005    4.3724005    4.3724005   -2149.2763    5417.1796   -10330.114    -1534.894    10530.775   -1879.8255   -5811.7736    83.591052 
   92400    421.76086   -105.41324   0.38161809   -105.03162   -1496.5861    4.3742799    4.3742799    4.3742799   -1496.5861     4329.788   -3951.1514   -4868.3949   -6696.7739   -1808.3881   -826.61423    83.698892 
   92500    409.78715   -105.40277   0.37078403   -105.03198     2922.841    4.3711604    4.3711604    4.3711604     2922.841    1630.6914    14258.806    -7120.974   -2383.9015    3615.4488    2795.6024    83.519951 
   92600     336.2313   -105.33909   0.30422915   -105.03486   -5635.8354    4.3743351    4.3743351    4.3743351   -5635.8354   -17946.331   -3593.9087    4632.7334    8142.8275    3698.1882    2233.1014    83.702058 
   92700     481.3071   -105.46781   0.43549678   -105.03231     3207.899     4.371072     4.371072     4.371072     3207.899    5660.8218   -5179.9427    9142.8179   -2510.1641   -5554.1937    4982.3385    83.514881 
   92800    309.06304   -105.31452   0.27964674   -105.03487   -6310.5559    4.3761949    4.3761949    4.3761949   -6310.5559   -1850.3938   -10556.375   -6524.8992    6161.1675    3010.9203   -5589.8797    83.808864 
   92900     426.6742   -105.41813   0.38606378   -105.03207    2337.5283     4.370122     4.370122     4.370122    2337.5283    6017.1164    2832.2163   -1836.7479    -4745.667   -2270.1225   -1498.5206    83.460441 
   93000    417.04498   -105.40941   0.37735106   -105.03206   -5317.6258    4.3759455    4.3759455    4.3759455   -5317.6258   -8359.9085    8941.7377   -16534.706   -107.47164    9532.4094    4520.5182    83.794539 
   93100    383.88383   -105.38098   0.34734616   -105.03363   -5156.9829    4.3703731    4.3703731    4.3703731   -5156.9829   -14254.649    -9922.128    8705.8282    13359.331    1997.2732    44.140415    83.474827 
   93200    514.54223   -105.49734   0.46556862   -105.03177   -1040.8102     4.375361     4.375361     4.375361   -1040.8102   -1984.1746   -5723.9607    4585.7046   -2398.7651    224.96555    1993.0321    83.760967 
   93300    237.76277   -105.25031   0.21513275   -105.03518    520.58828    4.3722922    4.3722922    4.3722922    520.58828    757.47888   -1709.5586    2513.8446    6807.8463   -844.11931   -6873.1614    83.584844 
   93400    399.51612    -105.3946   0.36149058   -105.03311    3823.2268    4.3723018    4.3723018    4.3723018    3823.2268    318.08845    16131.971   -4980.3786   -2952.0361    162.64724    -3058.885    83.585396 
   93500    468.77865   -105.45743   0.42416078   -105.03327   -6119.2216    4.3746025    4.3746025    4.3746025   -6119.2216   -5132.9834    849.36708   -14074.048    273.95013    3433.1593    6993.3392     83.71741 
   93600    394.03014   -105.39176   0.35652675   -105.03523   -6884.6296     4.370728     4.370728     4.370728   -6884.6296   -11398.458   -11678.547    2423.1167     14837.11    2483.0304   -2115.2782    83.495166 
   93700    513.84923   -105.49766   0.46494158   -105.03272    751.73172    4.3747269    4.3747269    4.3747269    751.73172    140.40659    5529.2475   -3414.4589   -7763.0677   -3513.9463    2821.1668    83.724556 
   93800    175.27627   -105.19527   0.15859365   -105.03668    4360.2766    4.3724284    4.3724284    4.3724284    4360.2766    4479.0427     6607.641     1994.146    5993.8453   -1208.9791    -5212.278    83.592657 
   93900    406.97148   -105.40132   0.36823635   -105.03308    5904.9578    4.3717659    4.3717659    4.3717659    5904.9578    5585.2841    11381.425    748.16463   -4296.8292    -3877.128   -3347.1856    83.554664 
   94000    467.70857    -105.4557   0.42319254    -105.0325   -7921.4696    4.3771436    4.3771436    4.3771436   -7921.4696   -400.73278    -10594.46   -12769.216    4648.5989    1396.6759    6988.4819    83.863385 
   94100    431.39077   -105.42303   0.39033144   -105.03269   -5792.7758    4.3685972    4.3685972    4.3685972   -5792.7758   -10770.608   -4979.1694   -1628.5499    13670.278    4495.3756   -2344.4357     83.37311 
   94200    482.10652   -105.46785   0.43622011   -105.03163     1103.051     4.377104     4.377104     4.377104     1103.051    2396.6587     13013.95   -12101.456   -5412.2711   -2129.4696    3137.8661    83.861106 
   94300    234.44025   -105.24821   0.21212647   -105.03608    2751.2696     4.369284     4.369284     4.369284    2751.2696    6846.2862    2557.0825     -1149.56    6009.7814    2679.1536    -5215.514    83.412437 
   94400    405.49392   -105.40157   0.36689942   -105.03467    2936.5727    4.3735231    4.3735231    4.3735231    2936.5727    9011.0681   -3545.1691     3343.819    3400.1527   -5629.3562   -3907.7322    83.655457 
   94500     485.5798   -105.47313    0.4393628   -105.03377   -5884.1223    4.3749553    4.3749553    4.3749553   -5884.1223    -963.5659   -12348.955    -4339.846    3621.2146    2733.9589     6795.023    83.737666 
   94600    329.30385   -105.33314   0.29796104   -105.03518    1829.2655    4.3685917    4.3685917    4.3685917    1829.2655   -6844.8664    11474.344    858.31849    13397.782    3509.8221   -1338.3929    83.372799 
   94700     508.7595   -105.49174   0.46033629    -105.0314   -4204.6339    4.3799871    4.3799871    4.3799871   -4204.6339    3272.7952    4079.6884   -19966.385   -8559.8398    1597.3284    3748.9174    84.026932 
   94800    307.12788   -105.31092   0.27789576   -105.03303    4917.4263    4.3644791    4.3644791    4.3644791    4917.4263    11275.637    631.58926    2845.0528     8510.353   -133.62858   -4075.8057    83.137557 
   94900     451.4824    -105.4411   0.40851076   -105.03259   -6541.5952    4.3806279    4.3806279    4.3806279   -6541.5952   -18.521346   -15517.499   -4088.7654    5301.6174   -4549.9848   -2925.7158    84.063817 
   95000    421.34438   -105.41367   0.38124125   -105.03243    8132.7652    4.3659011    4.3659011    4.3659011    8132.7652   -329.35005     11524.66    13202.985     3921.143   -1289.8694    9545.3486    83.218846 
   95100    257.73162   -105.26943   0.23320098   -105.03623   -4563.8469    4.3781132    4.3781132    4.3781132   -4563.8469   -13358.115    4889.4506    -5222.876    9946.9889    4544.9619   -1361.8318    83.919128 
   95200    551.55553   -105.52958   0.49905904   -105.03052    4059.4999    4.3701284    4.3701284    4.3701284    4059.4999    6549.4686     9071.479   -3442.4479    -8551.528   -662.39731    3254.4028    83.460812 
   95300     342.2771    -105.3443   0.30969951    -105.0346    -4676.595    4.3726493    4.3726493    4.3726493    -4676.595    4848.8368   -10363.034   -8515.5881    12169.412    2217.9544   -2821.3908    83.605326 
   95400    449.12103   -105.43954   0.40637414   -105.03316   -2728.5077    4.3760859    4.3760859    4.3760859   -2728.5077   -4738.3171    1187.8879   -4635.0939    6574.0073   -5337.6541    -3287.657    83.802604 
   95500    393.17664   -105.38815   0.35575449   -105.03239    9172.0102    4.3675209    4.3675209    4.3675209    9172.0102    -2813.948    25419.106     4910.873    2645.9087   -493.25487    11418.425    83.311502 
   95600    256.96318   -105.26816   0.23250569   -105.03565   -4653.8118    4.3786168    4.3786168    4.3786168   -4653.8118   -12926.442     -5830.62    4795.6263    8363.4626    3530.8641   -2390.0872    83.948089 
   95700     598.8829   -105.57172   0.54188184   -105.02984    5073.6631    4.3673187    4.3673187    4.3673187    5073.6631    8264.0387    2063.7077     4893.243   -4949.6969    535.90075     2673.909    83.299933 
   95800    274.07364   -105.28326   0.24798759   -105.03527    -3785.881    4.3763102    4.3763102    4.3763102    -3785.881   -1744.9048   -1883.5744   -7729.1639    15094.655    4156.7181   -3962.1929    83.815489 
   95900    447.44611   -105.43779   0.40485865   -105.03293    3268.9147    4.3721515    4.3721515    4.3721515    3268.9147   -5108.9452    17806.823   -2891.1333     5570.814   -4650.0511    -334.2994    83.576776 
   96000    419.83318    -105.4124   0.37987389   -105.03252    4932.4714    4.3709204    4.3709204    4.3709204    4932.4714   -4376.4783    16952.772    2221.1201    2422.0977    1249.6024    8098.9837    83.506196 
   96100    340.74354   -105.34321   0.30831191    -105.0349   -7364.7617    4.3754806    4.3754806    4.3754806   -7364.7617   -13963.243   -15492.569    7361.5276     8118.807    1603.4139   -3454.6187    83.767835 
   96200    512.09875   -105.49482   0.46335771   -105.03146    6113.7711    4.3706811    4.3706811    4.3706811    6113.7711    4485.6269    12809.327    1046.3592   -2406.2975    2106.8656   -5837.8775    83.492477 
   96300    237.87725   -105.25097   0.21523634   -105.03573    706.57348    4.3738617    4.3738617    4.3738617    706.57348   -8875.1313    15005.189   -4010.3368      17231.5    3229.6705   -2157.4717    83.674887 
   96400    451.96862     -105.442    0.4089507   -105.03304    642.26033    4.3729041    4.3729041    4.3729041    642.26033   -87.115874    12857.554   -10843.657    2486.6293   -1885.4872   -4938.0495    83.619942 
   96500    494.02216    -105.4796   0.44700163    -105.0326   -2375.0375    4.3722588    4.3722588    4.3722588   -2375.0375    -5681.128   -707.93763   -736.04689    2026.2363   -2040.7123    6682.2542    83.582926 
   96600    347.74495   -105.34964   0.31464694     -105.035   -6859.7476    4.3741991    4.3741991    4.3741991   -6859.7476   -16173.618   -3899.0913   -506.53375    7605.8019    1548.0493   -7163.3615    83.694253 
   96700    453.66546   -105.44329   0.41048604    -105.0328    9384.8189    4.3713635    4.3713635    4.3713635    9384.8189    440.79347    27733.177   -19.513349    -3451.083   -1358.2633   -4869.9162    83.531594 
   96800    248.08313   -105.26041   0.22447083   -105.03594     1807.374    4.3726951    4.3726951    4.3726951     1807.374   -4251.9387    8939.7099     734.3509    18935.619    7370.8514   -1279.2052    83.607954 
   96900    470.62046   -105.45935   0.42582728   -105.03352   -3008.6393    4.3742913    4.3742913    4.3742913   -3008.6393    11262.643   -8173.7773   -12114.784   -2405.5643   -2396.2485   -2554.7667    83.699544 
   97000    524.22642   -105.50621   0.47433108   -105.03188   -1489.9105    4.3713821    4.3713821    4.3713821   -1489.9105    -684.9083    1904.0794   -5688.9026    2517.6721    860.72896    6420.4616     83.53266 
   97100    318.14842   -105.32283   0.28786738   -105.03497     -3246.38    4.3744826    4.3744826    4.3744826     -3246.38   -6944.7862    5511.1204   -8305.4742    7048.9922   -2233.5137   -5137.9775     83.71053 
   97200     465.7948   -105.45272   0.42146093   -105.03126    3591.7541    4.3732952    4.3732952    4.3732952    3591.7541     4583.954     14751.24   -8559.9315    1844.0447   -1190.0275   -3596.2119    83.642378 
   97300    295.49007   -105.30122   0.26736563   -105.03385    7305.8258     4.369256     4.369256     4.369256    7305.8258    15607.211   -1861.9166    8172.1834    15587.943    6549.6856   -2437.6397    83.410839 
   97400    403.86048   -105.39816   0.36542145   -105.03273   -5357.8697    4.3789355    4.3789355    4.3789355   -5357.8697    7205.2767    -14819.73   -8459.1553   -3992.7642   -340.32806   -5504.1537    83.966419 
   97500    496.92796   -105.48077   0.44963086   -105.03114    7170.8471    4.3639285    4.3639285    4.3639285    7170.8471     2939.883    11787.543    6785.1152    781.74495   -683.20907    3752.5656    83.106094 
   97600    354.63742   -105.35491   0.32088339   -105.03402   -12812.908    4.3825088    4.3825088    4.3825088   -12812.908     -8975.47   -11021.466   -18441.788    9046.7566   -3139.1231   -5934.3406    84.172145 
   97700    456.66165   -105.44419   0.41319706   -105.03099    11148.999    4.3640731    4.3640731    4.3640731    11148.999    23888.276    11827.588   -2268.8672   -1216.0561   -2231.7338   -4886.0758    83.114357 
   97800    299.74802   -105.30504   0.27121831   -105.03382   -2296.6404    4.3789554    4.3789554    4.3789554   -2296.6404    8823.4744   -15799.783    86.387533    11110.548    7526.3621   -4342.7194    83.967565 
   97900    428.67051   -105.41913   0.38787009   -105.03126   -1352.9519     4.370784     4.370784     4.370784   -1352.9519    1125.2356   -7383.4792     2199.388   -6763.2393   -16.849717   -6676.2096    83.498375 
   98000    465.71307    -105.4523   0.42138697   -105.03091    1738.6255    4.3699358    4.3699358    4.3699358    1738.6255   -5915.3754   -1360.9468    12492.199    3169.2326   -1834.6554     4465.411    83.449775 
   98100    355.90071   -105.35517   0.32202644   -105.03315    -7459.034    4.3785189    4.3785189    4.3785189    -7459.034    3736.8764   -8016.5639   -18097.415    8788.0888   -1907.0621   -5400.8819    83.942458 
   98200    398.94711    -105.3924   0.36097573   -105.03143    9578.9822    4.3655079    4.3655079    4.3655079    9578.9822    23135.261    4895.1998    706.48537   -471.17575   -1606.1957   -841.74447    83.196362 
   98300    370.29574    -105.3676   0.33505137   -105.03255   -6046.5894    4.3791903    4.3791903    4.3791903   -6046.5894   -4772.0815   -14120.137    752.45039    11141.387    9032.5651   -4736.5807    83.981081 
   98400    414.91844   -105.40744   0.37542692   -105.03202    369.65741    4.3680695    4.3680695    4.3680695    369.65741   -1783.2524   -7525.4949     10417.72   -6882.2749   -6537.8206   -4081.1077    83.342904 
   98500    424.90264   -105.41618   0.38446084   -105.03172   -3105.9362    4.3757619    4.3757619    4.3757619   -3105.9362   -615.26294   -11912.119    3209.5734    4014.5096   -4624.9238    4770.6158    83.783993 
   98600    371.16691   -105.36821   0.33583962   -105.03237    -2497.458    4.3725704    4.3725704    4.3725704    -2497.458    17566.701   -9947.3694   -15111.705    5970.6652   -3323.3244   -5017.3353    83.600802 
   98700    409.04473   -105.40232   0.37011226    -105.0322    1817.8741    4.3699838    4.3699838    4.3699838    1817.8741    6741.6107    1659.8248   -2947.8132   -1666.2442   -1582.9307   -6.7600101    83.452526 
   98800    443.17682   -105.43322    0.4009957   -105.03223   -6732.8437    4.3774636    4.3774636    4.3774636   -6732.8437   -8619.1594   -10434.022   -1145.3496    7968.5948    3134.9395   -6772.7342    83.881777 
   98900    346.52538   -105.34622   0.31354345   -105.03267    3646.0028     4.368567     4.368567     4.368567    3646.0028    6297.4918   -3716.2108    8356.7274   -8212.2569   -10845.885   -5656.2699    83.371383 
   99000    395.78596   -105.39055   0.35811546   -105.03244    2386.0677    4.3740648    4.3740648    4.3740648    2386.0677    20914.322   -12523.544   -1232.5751    4349.8229   -5585.4797    2465.7542    83.686548 
   99100    358.94102   -105.35794   0.32477738   -105.03317   -1431.6513    4.3745235    4.3745235    4.3745235   -1431.6513    18347.842   -9648.8116   -12993.985    6136.3725   -1688.7633    -6903.346    83.712873 
   99200    499.70663   -105.48278   0.45214506   -105.03064   -1373.8081    4.3694531    4.3694531    4.3694531   -1373.8081    677.01701    2321.1677   -7119.6091   -1143.6116    541.41549    1658.6921    83.422126 
   99300     416.1952   -105.40849   0.37658217   -105.03191   -6064.1192     4.376829     4.376829     4.376829   -6064.1192   -3728.7853    -8880.316   -5583.2561    5865.8174    2256.9793   -9003.6481    83.845304 
   99400     352.5126   -105.35182   0.31896081   -105.03286    5983.1277    4.3685458    4.3685458    4.3685458    5983.1277    22659.487   -4494.3539   -215.74966   -6136.7493   -7219.0808   -5401.3879     83.37017 
   99500    336.32299   -105.33736   0.30431211   -105.03305    2729.0231    4.3745062    4.3745062    4.3745062    2729.0231    20507.931   -13652.764    1331.9017    3843.3125   -5061.4708    1713.7395     83.71188 
   99600    448.38001   -105.43927   0.40570366   -105.03357   -4034.5832    4.3710508    4.3710508    4.3710508   -4034.5832    3763.7285   -8387.6714   -7479.8068     5577.008    2943.2654   -8147.7176    83.513667 
   99700    511.95684   -105.49591    0.4632293   -105.03268   -5552.9607    4.3735008    4.3735008    4.3735008   -5552.9607   -3599.9567   -4427.6456   -8631.2797   -5837.5298   -3646.2804    4996.2518    83.654177 
   99800    329.19403   -105.33205   0.29786168   -105.03418    1570.2984    4.3731594    4.3731594    4.3731594    1570.2984    19868.172   -9892.6543   -5264.6223    1876.6821    1469.5206   -10148.459    83.634586 
   99900    337.58221   -105.33808   0.30545147   -105.03263    4838.4758    4.3726436    4.3726436    4.3726436    4838.4758    22788.139   -9769.3063    1496.5946   -5917.4688   -14416.701   -2402.4522       83.605 
  100000     351.4348   -105.35048    0.3179856   -105.03249    2451.3428     4.371991     4.371991     4.371991    2451.3428    4877.8263    -11551.69    14027.893    1202.7883   -5001.0946   -2034.5768     83.56757 
Loop time of 21.6798 on 1 procs for 100000 steps with 8 atoms

Pair  time (%) = 6.56204 (30.268)
Kspce time (%) = 5.31666 (24.5236)
Neigh time (%) = 0 (0)
Comm  time (%) = 1.0728 (4.94841)
Outpt time (%) = 0.0377555 (0.174151)
Other time (%) = 8.6905 (40.0858)

Nlocal:    8 ave 8 max 8 min
Histogram: 1 0 0 0 0 0 0 0 0 0
Nghost:    2189 ave 2189 max 2189 min
Histogram: 1 0 0 0 0 0 0 0 0 0
Neighs:    2056 ave 2056 max 2056 min
Histogram: 1 0 0 0 0 0 0 0 0 0

Total # of neighbors = 2056
Ave neighs/atom = 257
Neighbor list builds = 0
Dangerous builds = 0
unfix 20
unfix 21
print "seeds:6039546"
seeds:6039546
