LAMMPS (10 Feb 2015)
# ---- initialize simulations
clear
units metal
dimension 3
boundary p p p
atom_style charge
atom_modify map array
# ---- create atoms
read_data /Users/eugeneragasa/pyflamestk_git/pypospack/tests/tests_integration/workflow/WorkflowLammpsThermalExpansion/param_3867/MgO_NaCl_unit.npt.T1500/lammps.structure
  triclinic box = (0 0 0) to (4.2565 4.2565 4.2565) with tilt (0 0 0)
  1 by 1 by 1 MPI processor grid
  reading atoms ...
  8 atoms
# ---- define interatomic potential
include potential.mod
mass 1 24.305
mass 2 15.999

group Mg type 1
4 atoms in group Mg
group O type 2
4 atoms in group O

set group Mg charge 1.73479148785
  4 settings made for charge
set group O charge -1.73479148785
  4 settings made for charge

variable R_cut equal 10.0

pair_style buck/coul/long ${R_cut}
pair_style buck/coul/long 10
pair_coeff 1 1 0.0 0.5 0.0 ${R_cut}
pair_coeff 1 1 0.0 0.5 0.0 10
pair_coeff 1 2 1225.32983502 0.291530354982 0.0 ${R_cut}
pair_coeff 1 2 1225.32983502 0.291530354982 0.0 10
pair_coeff 2 2 16858.6500597 0.120403294253 7.45918898041 ${R_cut}
pair_coeff 2 2 16858.6500597 0.120403294253 7.45918898041 10

kspace_style pppm 1.0e-5

neighbor 1.0 bin
neigh_modify every 1 delay 0 check yes
# ---- define settings
compute eng all pe/atom
compute eatoms all reduce sum c_eng
# ---- run minimization
reset_timestep 0
fix 1 all box/relax iso 0.0 vmax 0.001
thermo 10
thermo_style custom step pe lx ly lz xy xz yz press pxx pyy pzz pxy pxz pyz c_eatoms
min_style cg
minimize 1e-25 1e-25 5000 10000
PPPM initialization ...
  G vector (1/distance) = 0.3534
  grid = 8 8 8
  stencil order = 5
  estimated absolute RMS force accuracy = 4.23269e-05
  estimated relative force accuracy = 2.93944e-06
  using double precision FFTs
  3d grid and FFT values/proc = 3375 512
Neighbor list info ...
  1 neighbor list requests
  update every 1 steps, delay 0 steps, check yes
  master list distance cutoff = 11
Memory usage per processor = 4.06549 Mbytes
Step PotEng Lx Ly Lz Xy Xz Yz Press Pxx Pyy Pzz Pxy Pxz Pyz eatoms 
       0   -122.62677       4.2565       4.2565       4.2565            0            0            0    18600.794    18600.794    18600.794    18600.794 4.9707872e-11 4.7042733e-11 1.8950886e-10   -122.62677 
       5   -122.63132    4.2712858    4.2712858    4.2712858            0            0            0   -6.7076035   -6.7076035   -6.7076035   -6.7076035 9.5134085e-11 4.9732958e-12 8.6603347e-11   -122.63132 
Loop time of 0.00779581 on 1 procs for 5 steps with 8 atoms

Minimization stats:
  Stopping criterion = linesearch alpha is zero
  Energy initial, next-to-last, final = 
        -122.626768711     -122.631316441     -122.631316441
  Force two-norm initial, final = 2.68597 0.0019334
  Force max component initial, final = 2.68596 0.000975322
  Final line search alpha, max atom move = 0.00390625 3.80985e-06
  Iterations, force evaluations = 5 22

Pair  time (%) = 0.00209808 (26.913)
Kspce time (%) = 0.00128913 (16.5362)
Neigh time (%) = 0 (0)
Comm  time (%) = 0.000246763 (3.16533)
Outpt time (%) = 0 (0)
Other time (%) = 0.00416183 (53.3855)

Nlocal:    8 ave 8 max 8 min
Histogram: 1 0 0 0 0 0 0 0 0 0
Nghost:    2189 ave 2189 max 2189 min
Histogram: 1 0 0 0 0 0 0 0 0 0
Neighs:    2344 ave 2344 max 2344 min
Histogram: 1 0 0 0 0 0 0 0 0 0

Total # of neighbors = 2344
Ave neighs/atom = 293
Neighbor list builds = 0
Dangerous builds = 0
unfix 1
# ---- define output variables ----
variable natoms equal "count(all)"
variable tot_energy equal "c_eatoms"
variable length_x equal "lx"
variable length_y equal "ly"
variable length_z equal "lz"
variable tilt_xy equal "xy"
variable tilt_xz equal "xz"
variable tilt_yz equal "yz"
variable tot_press equal "press"
variable press_xx equal "pxx"
variable press_yy equal "pyy"
variable press_zz equal "pzz"
variable press_xy equal "pxy"
variable press_xz equal "pxz"
variable press_yz equal "pyz"

# ---- output ----
print "pypospack:output_section:begin"
pypospack:output_section:begin
print "tot_energy = ${tot_energy}"
tot_energy = -122.631316441343
print "num_atoms = ${natoms}"
num_atoms = 8
print "xx = ${length_x}"
xx = 4.27128583299446
print "yy = ${length_y}"
yy = 4.27128583299446
print "zz = ${length_z}"
zz = 4.27128583299446
print "xy = ${tilt_xy}"
xy = 0
print "xz = ${tilt_xz}"
xz = 0
print "yz = ${tilt_yz}"
yz = 0
print "tot_press = ${tot_press}"
tot_press = -6.70760353710228
print "pxx = ${press_xx}"
pxx = -6.70760353705429
print "pyy = ${press_yy}"
pyy = -6.70760353725253
print "pzz = ${press_zz}"
pzz = -6.70760353700002
print "pxy = ${press_xy}"
pxy = 9.51340852761742e-11
print "pxz = ${press_xz}"
pxz = 4.97329584958765e-12
print "pyz = ${press_yz}"
pyz = 8.66033470907354e-11
print "pypospack:output_section:done"
pypospack:output_section:done
print "pypospack:lammps_sim:done"
pypospack:lammps_sim:done
#------------------------------------------------------------------------------
# RUN THERMOSTAT
# running using an NPT Nose-Hoover style thermostat
#------------------------------------------------------------------------------
variable tempdamp equal 0.1
variable pressdamp equal 1.0
# set initial velocities
velocity all create 1500 5127948 mom yes dist gaussian loop all
# fix for Nose-Hoover style thermostat
fix 20 all npt temp 1500 1500 0.1 aniso 0.0 0.0 1.0 drag 1.0 couple xyz
variable boxx equal lx
variable boxy equal ly
variable boxz equal lz
variable boxp equal press
variable boxt equal temp
# calculate averages every 10000 steps
reset_timestep 0
fix 21 all ave/time 10 10 100 v_boxx v_boxy v_boxz v_boxp v_boxt file lattice.out
thermo_style custom step temp pe ke etotal press lx ly lz press pxx pyy pzz pxy pxz pyz vol
thermo_modify flush yes
thermo 100
run 100000
PPPM initialization ...
  G vector (1/distance) = 0.353246
  grid = 8 8 8
  stencil order = 5
  estimated absolute RMS force accuracy = 4.26311e-05
  estimated relative force accuracy = 2.96057e-06
  using double precision FFTs
  3d grid and FFT values/proc = 3375 512
Memory usage per processor = 3.06549 Mbytes
Step Temp PotEng KinEng TotEng Press Lx Ly Lz Press Pxx Pyy Pzz Pxy Pxz Pyz Volume 
       0         1500   -122.63132    1.3572315   -121.27409    18596.305    4.2712858    4.2712858    4.2712858    18596.305    14851.418    23340.556    17596.942   -1555.3734    6435.2816    9270.1519    77.924838 
     100    636.57407   -121.69008    0.5759856   -121.11409    29844.915     4.311905     4.311905     4.311905    29844.915    32363.235    55136.395     2035.117   -5581.6979    2221.8647   -4622.6279    80.169198 
     200    733.46418      -121.41    0.6636538   -120.74635   -12232.222    4.3651883    4.3651883    4.3651883   -12232.222   -70359.717    113274.92   -79611.872    4457.1375   -9863.0259   -2007.5895     83.17809 
     300    1496.5905   -121.76734    1.3541465    -120.4132   -23280.909    4.3540075    4.3540075    4.3540075   -23280.909   -73135.029    62647.789   -59355.488     837.1623   -8508.9168    8360.3641    82.540579 
     400    1850.8714    -121.8147    1.6747074   -120.13999    24395.778    4.3187643    4.3187643    4.3187643    24395.778    13479.582     44975.27    14732.481    10918.518   -6951.4264   -4912.2541    80.552402 
     500     1030.204    -120.9762    0.9321502   -120.04405    45940.586    4.3416748    4.3416748    4.3416748    45940.586   -5942.4572    186918.97   -43154.751    9006.6427    -987.9155    9902.6257     81.84118 
     600    2080.6138   -121.82698    1.8825831   -119.94439   -50180.573    4.3811642    4.3811642    4.3811642   -50180.573   -41839.796   -32794.029   -75907.896    8951.7109    2111.9371   -5736.1386    84.094695 
     700    1798.5361   -121.51529    1.6273533   -119.88794   -29360.424    4.3656839    4.3656839    4.3656839   -29360.424   -79069.922    51239.072   -60250.421    5460.5959   -2022.6505   -3529.4417    83.206426 
     800    1263.9668   -121.00472    1.1436638   -119.86105    54198.014    4.3298798    4.3298798    4.3298798    54198.014   -46832.112    212506.41   -3080.2586   -4095.8517   -371.49353   -4189.3056    81.175974 
     900    2069.7981   -121.79269    1.8727969   -119.91989    -14975.82    4.3477968    4.3477968    4.3477968    -14975.82     3738.553   -11653.971   -37012.043   -6660.8689   -6243.0689    -12090.43     82.18787 
    1000    1557.4314   -121.33091    1.4091966   -119.92171   -33430.387    4.3746899    4.3746899    4.3746899   -33430.387   -77539.693    57699.314   -80450.781    1437.7854   -11809.463   -6613.9635    83.722432 
    1100    1034.7144   -120.82596   0.93623135   -119.88973    21889.782    4.3572764    4.3572764    4.3572764    21889.782   -71284.596    197319.11   -60365.163    1637.4196    6988.4923   -13136.367    82.726631 
    1200    1703.4125   -121.42092    1.5412834   -119.87964    -11133.56    4.3450193    4.3450193    4.3450193    -11133.56   -52925.444    42800.946   -23276.183    3729.4009    1329.3631   -650.74775    82.030458 
    1300    1855.4772    -121.5801    1.6788748   -119.90123   -23641.512    4.3561477    4.3561477    4.3561477   -23641.512   -41261.476    10765.827   -40428.887     12326.87   -13539.975     4753.682    82.662359 
    1400    1411.8787   -121.18071    1.2774975   -119.90322     6500.779    4.3595788    4.3595788    4.3595788     6500.779   -56142.351    87325.777   -11681.088    2816.5905    4446.4041   -4049.8711    82.857839 
    1500    1634.9983    -121.3724    1.4793808   -119.89302    25164.255     4.332007     4.332007     4.332007    25164.255   -29150.878    139405.06   -34761.417   -1710.0194    3309.7449   -3342.1996    81.295675 
    1600    1265.8844   -121.05622    1.1453988   -119.91082    21319.476    4.3236501    4.3236501    4.3236501    21319.476   -37786.829    52737.496    49007.762    31322.592    -5354.453    3349.9154    80.826102 
    1700    1942.3146   -121.67219    1.7574471   -119.91474   -37103.287    4.3505332    4.3505332    4.3505332   -37103.287   -59552.433   -19528.746   -32228.683   -4406.8671    11435.889   -12272.535    82.343147 
    1800    1286.0484   -121.06133    1.1636436   -119.89769    11191.511    4.3596205    4.3596205    4.3596205    11191.511   -74442.736    102455.57    5561.6933   -6336.0257    9153.8433   -6543.8866    82.860213 
    1900    1571.2696   -121.30746    1.4217178   -119.88574   -11189.111    4.3449675    4.3449675    4.3449675   -11189.111   -72691.854    28962.746    10161.775   -13661.365   -658.22203    10920.988    82.027522 
    2000    2116.6782   -121.79065    1.9152149   -119.87543   -14057.977    4.3313645    4.3313645    4.3313645   -14057.977   -32914.774    24551.935   -33811.092   -6139.2487   -9825.4297    -13526.64    81.259509 
    2100    1625.6055   -121.36382     1.470882   -119.89294      7720.62    4.3425474    4.3425474    4.3425474      7720.62   -46048.904    58810.234     10400.53   -2987.2628   -10691.693    7079.1676    81.890531 
    2200    732.92179   -120.55706   0.66316304    -119.8939    29702.707    4.3667208    4.3667208    4.3667208    29702.707   -80849.033    135869.06    34088.093   -11184.925   -157.66259    5458.9181    83.265725 
    2300    1339.8228   -121.07108    1.2122999   -119.85878   -19368.431    4.3686703    4.3686703    4.3686703   -19368.431   -56893.008    20586.554   -21798.838    1614.8495    20830.117   -1520.4106    83.377299 
    2400    1455.2722   -121.14909    1.3167609   -119.83233    14029.237    4.3247965    4.3247965    4.3247965    14029.237    17015.487    80897.593    -55825.37    9805.7669    2393.2492    5297.5195     80.89041 
    2500    1576.5717   -121.29058    1.4265152   -119.86407    17029.953    4.3215231    4.3215231    4.3215231    17029.953   -22413.574     29092.12    44411.312   -3342.1373    -19951.15   -2918.1577    80.706874 
    2600    1728.9001   -121.44687    1.5643451   -119.88253   -38072.123    4.3688205    4.3688205    4.3688205   -38072.123   -69463.258   -19071.735   -25681.375   -6905.2232    6315.4275   -20218.958    83.385899 
    2700    1912.1257   -121.58748    1.7301315   -119.85735   -29319.207    4.3474867    4.3474867    4.3474867   -29319.207   -33303.204    -13374.75   -41279.666    4929.4476    2779.9067    -4642.814    82.170284 
    2800    944.99328   -120.69043   0.85504978   -119.83538    64570.521    4.3084248    4.3084248    4.3084248    64570.521    18101.446    62693.746    112916.37   -1970.0629    -29621.44    13430.563    79.975238 
    2900    1559.9321   -121.29786    1.4114594    -119.8864   -20831.158    4.3392683    4.3392683    4.3392683   -20831.158   -50323.002    5530.3754   -17700.847   -3682.4508   -7119.2597      894.925    81.705166 
    3000    1750.8294   -121.45096    1.5841873   -119.86677   -3669.7624    4.3406254    4.3406254    4.3406254   -3669.7624   -43969.721    20203.665    12756.769   -8047.7378    5530.1781   -19796.447    81.781847 
    3100    962.12394   -120.73546   0.87054996   -119.86491    60088.865    4.3195325    4.3195325    4.3195325    60088.865   -5931.1276    141296.03    44901.695    3525.1198   -16522.045    2731.4016    80.595394 
    3200    1769.0868   -121.50447    1.6007069   -119.90376   -22928.422    4.3448708    4.3448708    4.3448708   -22928.422   -25010.461    17189.385   -60964.191   -9145.5624   -20905.216     16992.69    82.022049 
    3300    1828.4889   -121.53058    1.6544552   -119.87612   -16178.367     4.356432     4.356432     4.356432   -16178.367   -41796.864    35095.912   -41834.148    8261.9625    3263.8144    6166.8113    82.678543 
    3400    1718.1158   -121.41051    1.5545873   -119.85592    19226.243    4.3246319    4.3246319    4.3246319    19226.243   -4501.7667    25947.973    36232.523   -4544.3447   -15280.144   -5182.6109    80.881175 
    3500     1581.783   -121.29657    1.4312305   -119.86534    18733.817    4.3198325    4.3198325    4.3198325    18733.817   -22894.407    97881.454   -18785.597    -14366.12   -21457.539     9380.409     80.61219 
    3600    1525.4734   -121.26184    1.3802804   -119.88156   -14422.524    4.3509688    4.3509688    4.3509688   -14422.524     2278.788    14004.914   -59551.273    10062.332    10943.959    23203.997    82.367884 
    3700    1561.0979   -121.28127    1.4125142   -119.86876   -2532.1699    4.3394139    4.3394139    4.3394139   -2532.1699   -35417.938    39935.137   -12113.709   -10178.009    2111.0233    1693.6753    81.713388 
    3800    1727.8316   -121.42868    1.5633784   -119.86531    29550.353    4.3180824    4.3180824    4.3180824    29550.353    36116.662    46808.516     5725.882    17916.348   -29505.441    -18100.27    80.514255 
    3900     1757.579   -121.48396    1.5902945   -119.89367   -13607.704     4.340316     4.340316     4.340316   -13607.704   -34182.561     36404.32   -43044.873   -13271.415   -7762.5953    12562.215     81.76436 
    4000    2013.7959   -121.70692    1.8221249   -119.88479   -24989.712    4.3399322    4.3399322    4.3399322   -24989.712   -13979.071   -31221.843   -29768.221   -4838.7656    3485.9573    33094.991    81.742671 
    4100    1459.9274   -121.20511     1.320973   -119.88414    19250.241    4.3277633    4.3277633    4.3277633    19250.241   -26044.769    84820.165   -1024.6721    8266.7377     -17502.1    4098.6133    81.056995 
    4200    2054.7658   -121.74159    1.8591953   -119.88239   -19903.687    4.3344601    4.3344601    4.3344601   -19903.687   -31751.164   -226.56144   -27733.336   -8191.1481   -15574.607   -22706.168    81.433863 
    4300      1948.24   -121.63981    1.7628085     -119.877    -4280.027     4.338284     4.338284     4.338284    -4280.027     1130.137   -2100.6001   -11869.618    5691.5535   -6166.9999   -1674.2249    81.649577 
    4400    1576.4164   -121.30083    1.4263747   -119.87445    13852.598    4.3393028    4.3393028    4.3393028    13852.598   -29592.052    40871.406    30278.438   -7513.9953   -20479.752    9170.2346    81.707116 
    4500    1934.9976   -121.61611    1.7508265   -119.86528   -11875.099    4.3442651    4.3442651    4.3442651   -11875.099   -11082.574    -17261.72   -7281.0018    -17777.37   -21671.175    6838.1888    81.987746 
    4600    1972.8008   -121.63552    1.7850316   -119.85049    2306.1241    4.3439705    4.3439705    4.3439705    2306.1241     -5268.35   -2931.0956    15117.818    14118.307    4226.8613    4807.2591    81.971071 
    4700    1778.9546   -121.45896    1.6096355   -119.84932    11846.001    4.3407437    4.3407437    4.3407437    11846.001   -33282.634    36793.301    32027.336   -1396.9619    12117.484    7081.5262    81.788534 
    4800    1952.3129   -121.62677    1.7664937   -119.86028   -44371.941    4.3374931    4.3374931    4.3374931   -44371.941    -54293.09   -28328.991   -50493.742   -10491.421    461.31252   -12151.943    81.604927 
    4900     1347.701   -121.09896    1.2194281   -119.87953    5548.9629     4.327417     4.327417     4.327417    5548.9629   -27899.858    41392.905    3153.8427    19403.827   -3572.3592   -17506.792    81.037537 
    5000    1916.1586   -121.62446    1.7337805   -119.89068   -1569.0229    4.3347764    4.3347764    4.3347764   -1569.0229   -5118.1498    136.72565    274.35545    1452.7424    -821.9818    12356.426    81.451692 
    5100    1435.4748   -121.19688    1.2988478   -119.89803    14365.034    4.3484293    4.3484293    4.3484293    14365.034   -53369.939    130967.27   -34502.227   -17505.267   -3864.0583   -5501.4264    82.223741 
    5200    1799.0435   -121.51566    1.6278124   -119.88785   -14616.521    4.3414334    4.3414334    4.3414334   -14616.521   -32271.547    27565.089   -39143.107    9736.9676   -6511.5732   -31988.013    81.827526 
    5300    1680.9579   -121.40351     1.520966   -119.88254   -14416.097    4.3342346    4.3342346    4.3342346   -14416.097   -19384.991    23709.036   -47572.337   -11309.661      985.542   -16593.191    81.421151 
    5400    1596.2997   -121.33116    1.4443656   -119.88679   -7985.5585    4.3331702    4.3331702    4.3331702   -7985.5585   -28799.822    55249.471   -50406.324   -13926.789   -8102.5409   -5038.1406    81.361181 
    5500    1645.3751   -121.38822      1.48877   -119.89945   -8155.6879    4.3340906    4.3340906    4.3340906   -8155.6879   -11305.984    43368.439   -56529.519   -12664.782   -9074.8146   -5367.9015    81.413037 
    5600    1324.2408   -121.09925    1.1982009   -119.90105    6491.6533    4.3463542    4.3463542    4.3463542    6491.6533   -15900.889    88533.741   -53157.893   -1677.8252   -1022.3247    2477.6922    82.106085 
    5700    1874.6433    -121.5728    1.6962166   -119.87659   -52111.643    4.3534465    4.3534465    4.3534465   -52111.643    -52404.99   -41040.161   -62889.778   -4426.9562   -7828.8852    15436.429    82.508678 
    5800    1255.0439   -120.99925    1.1355901   -119.86366    3951.3003    4.3382879    4.3382879    4.3382879    3951.3003   -40804.468     71333.34    -18674.97   -1191.1794   -19886.217    17859.887    81.649795 
    5900    1595.1414   -121.30455    1.4433174   -119.86123    6794.6699    4.3273058    4.3273058    4.3273058    6794.6699     10413.96    6917.3928    3052.6564    9578.9718   -5128.1201    681.07734    81.031293 
    6000    1267.7575   -121.03053    1.1470936   -119.88343    8563.8124    4.3394531    4.3394531    4.3394531    8563.8124    8835.3125    56933.208   -40077.083   -19244.439   -5754.0224   -10364.648    81.715605 
    6100    1438.4987   -121.17768    1.3015839    -119.8761   -35599.561     4.362642     4.362642     4.362642   -35599.561   -21385.877    3259.9931     -88672.8    1564.6096   -7870.2809    391.32067    83.032615 
    6200    1343.8137   -121.06625    1.2159109   -119.85034   -29697.615    4.3501601    4.3501601    4.3501601   -29697.615   -25866.935   -15983.356   -47242.554    7038.0469   -5539.0962    8727.5086    82.321964 
    6300    1491.4678   -121.17817    1.3495114   -119.82866    11040.743    4.3184123    4.3184123    4.3184123    11040.743    19196.464   -4960.0644    18885.831      20510.5    7872.7701     7729.786    80.532711 
    6400    1620.5756   -121.35298    1.4663309   -119.88665   -25529.965    4.3442718    4.3442718    4.3442718   -25529.965   -32542.781    3777.3277   -47824.443    101.56268    3721.1155    691.21828     81.98813 
    6500     1276.364   -121.02623     1.154881   -119.87135   -34216.413    4.3575549    4.3575549    4.3575549   -34216.413   -25235.908   -55264.767   -22148.564   -13345.043   -8988.7687   -21431.107    82.742493 
    6600    1640.3241   -121.33342    1.4841997   -119.84922    14267.622    4.3188203    4.3188203    4.3188203    14267.622    11557.276   -7301.3074    38546.898   -2910.9095   -477.22132    12649.952     80.55554 
    6700      1042.47   -120.83535   0.94324874    -119.8921    37462.819    4.3327603    4.3327603    4.3327603    37462.819    49665.645    40799.995    21922.817   -6379.6549   -139.03087    13148.315    81.338094 
    6800    1599.7248   -121.31423    1.4474646   -119.86676     -18438.7    4.3613267    4.3613267    4.3613267     -18438.7     6415.666   -44857.157   -16874.608   -4461.0705    17775.233    3239.6058    82.957542 
    6900    1631.1815   -121.32879    1.4759273   -119.85286    36446.804    4.3252908    4.3252908    4.3252908    36446.804    18290.061    65466.903    25583.448    4500.7431    23661.712    818.81738    80.918146 
    7000    1353.4405   -121.09388    1.2246214   -119.86926    21065.235    4.3176103    4.3176103    4.3176103    21065.235    39126.224     25313.69   -1244.2086   -5531.4697   -1200.7449    1345.7164    80.487847 
    7100    1489.7783   -121.23227    1.3479827   -119.88429   -35013.334    4.3511081    4.3511081    4.3511081   -35013.334    11609.881   -51048.948   -65600.934    427.51477     3029.076    12714.953    82.375795 
    7200    1949.0114    -121.6191    1.7635065   -119.85559   -3158.3088    4.3495757    4.3495757    4.3495757   -3158.3088   -8800.2975    18018.054   -18692.683   -583.02294   -4847.1245   -13066.483    82.288788 
    7300    1828.6348   -121.49858    1.6545872   -119.84399   -3345.2884    4.3399518    4.3399518    4.3399518   -3345.2884   -37961.648    15428.859    12496.924   -354.07429    9527.3644   -8653.4636    81.743779 
    7400    1506.8362   -121.21726     1.363417   -119.85384    -35372.09    4.3345284    4.3345284    4.3345284    -35372.09   -38795.935   -12244.341   -55075.993    9650.3223    9447.1229     10917.43     81.43771 
    7500    1460.7213   -121.18745    1.3216914   -119.86576    9030.8607    4.3294235    4.3294235    4.3294235    9030.8607   -4711.3987    16630.686    15173.295   -9424.3833    9669.7221    869.05296    81.150316 
    7600    1573.3212   -121.29592    1.4235741   -119.87235   -10560.825    4.3478925    4.3478925    4.3478925   -10560.825   -41499.647    8056.7053    1760.4681   -8242.4877    -9385.167   -335.20917    82.193298 
    7700    1493.4429   -121.21251    1.3512985   -119.86121   -1925.6229    4.3358434    4.3358434    4.3358434   -1925.6229   -32649.863    24553.999     2318.995   -1817.1532   -12711.027    17807.759    81.511851 
    7800    1139.3757   -120.89021    1.0309311   -119.85928    48330.341     4.312142     4.312142     4.312142    48330.341    -14044.28     42492.72    116542.58    22691.258   -15395.471    9864.2384    80.182422 
    7900    1523.3103    -121.2775    1.3783232   -119.89918   -15020.031    4.3426921    4.3426921    4.3426921   -15020.031   -38712.632   -8858.7007    2511.2389    6494.1612    14244.513    604.34509    81.898721 
    8000    1346.1319   -121.09419    1.2180085   -119.87618   -16466.318    4.3455423    4.3455423    4.3455423   -16466.318   -78139.945   -8687.3782     37428.37   -7405.9688    29273.786    -8246.944     82.06008 
    8100     1222.674   -120.97162    1.1063012   -119.86532    719.17133    4.3155454    4.3155454    4.3155454    719.17133   -23701.895   -8972.0522    34831.461    14917.829   -14284.757    11543.035    80.372427 
    8200    1302.7182   -121.05919    1.1787268   -119.88047   -13016.708    4.3207053    4.3207053    4.3207053   -13016.708   -50080.949   -38602.294    49633.118    21818.942    -810.5203    13214.021    80.661062 
    8300     1831.527   -121.53621    1.6572041   -119.87901    -43406.06    4.3438158    4.3438158    4.3438158    -43406.06   -69306.827   -51440.351   -9471.0034    6625.5871    13469.379   -2920.1192    81.962315 
    8400    1164.9049   -120.93597    1.0540304   -119.88194   -19260.654    4.3473198    4.3473198    4.3473198   -19260.654   -96164.106    -24591.76    62973.904    275.43852    11984.806   -13845.394    82.160818 
    8500     1231.735   -120.99763    1.1144997   -119.88313   -9994.4314    4.3154291    4.3154291    4.3154291   -9994.4314    -40270.37   -18531.505    28818.581    14402.769    21922.636    1847.6102    80.365927 
    8600    1431.1467   -121.18142    1.2949316   -119.88649    24979.135    4.3031229    4.3031229    4.3031229    24979.135   -2863.1887   -14234.749    92035.343    7521.6279   -6335.6451     17520.78    79.680351 
    8700    1516.5296   -121.29043    1.3721879   -119.91824   -22606.534    4.3519098    4.3519098    4.3519098   -22606.534   -89611.418    15504.258    6287.5567   -4439.1263    637.90577    9049.0599    82.421337 
    8800    1101.9781   -120.87354   0.99709294   -119.87645   -45746.281    4.3607455    4.3607455    4.3607455   -45746.281   -112141.53   -21168.904   -3928.4077    10907.701    14556.151   -22523.081     82.92438 
    8900    1201.3511   -120.93684    1.0870077   -119.84984    22225.446    4.3012877    4.3012877    4.3012877    22225.446   -21278.988    12872.214     75083.11    8076.9405   -4040.8608   -9964.7194    79.578448 
    9000     1171.152   -120.92316    1.0596829   -119.86348    49473.286     4.300734     4.300734     4.300734    49473.286    57368.869    62806.818    28244.172    18580.071    14059.959   -3913.1445    79.547721 
    9100    1068.8191   -120.85611   0.96708997   -119.88902   -23560.517    4.3621824    4.3621824    4.3621824   -23560.517   -44919.136    -5882.605    -19879.81    6093.9628    13412.115    -566.6136    83.006381 
    9200    1280.5587   -120.99289    1.1586764   -119.83421   -41072.575    4.3646905    4.3646905    4.3646905   -41072.575   -17902.791   -52439.467   -52875.466    11620.171    6340.9595   -14769.523    83.149637 
    9300    1335.3034   -121.02483    1.2082106   -119.81662    23647.849    4.3106073    4.3106073    4.3106073    23647.849    9043.2213    16763.824    45136.503    11634.488    1852.5547   -5924.3319    80.096842 
    9400     1667.742   -121.35534     1.509008   -119.84633    10236.337    4.3004817    4.3004817    4.3004817    10236.337   -21653.264    62339.156   -9976.8808    13183.049    -5560.095    9469.7634    79.533725 
    9500    748.16726    -120.5781   0.67695746   -119.90114    14483.153    4.3299938    4.3299938    4.3299938    14483.153    26036.549    25163.259   -7750.3492   -7845.7633   -12910.026   -8814.0325    81.182386 
    9600    1330.0064   -121.08913    1.2034178   -119.88571   -17794.922    4.3448656    4.3448656    4.3448656   -17794.922   -35341.372    25460.765   -43504.159    19900.528    11187.517   -17318.034     82.02175 
    9700    1760.0568   -121.46811    1.5925364   -119.87558    -9132.743    4.3457055    4.3457055    4.3457055    -9132.743    12383.064   -9957.6679   -29823.626   -4575.1379   -8161.6138    2898.8785    82.069329 
    9800    1389.5136   -121.13207    1.2572611   -119.87481    26612.519       4.3261       4.3261       4.3261    26612.519    80253.361   -1006.6366    590.83303    5373.1113    5688.4929   -12327.714    80.963574 
    9900    1082.5079   -120.86145   0.97947592   -119.88198    26933.258    4.3184629    4.3184629    4.3184629    26933.258    67361.782    18268.582   -4830.5899    3062.4536    20224.398   -23118.416    80.535542 
   10000    1839.3998   -121.55452    1.6643276   -119.89019    -24502.75    4.3399152    4.3399152    4.3399152    -24502.75   -11780.002    -14387.54   -47340.708    13255.588   -8832.4216   -4839.5221    81.741715 
   10100    2095.4174   -121.75874    1.8959777   -119.86276   -2679.5928    4.3358071    4.3358071    4.3358071   -2679.5928    27679.884   -31004.013   -4714.6493    7465.1204    239.00538     11788.12    81.509805 
   10200    1416.6523   -121.13708    1.2818167   -119.85526    23868.451    4.3211441    4.3211441    4.3211441    23868.451    62485.025   -9912.8012    19033.129    1408.0387    16705.967   -15364.638     80.68564 
   10300    1193.3909   -120.95928    1.0798052   -119.87948   -6277.1047     4.327384     4.327384     4.327384   -6277.1047   -9948.4864    14822.947   -23705.775   -2948.0363   -24182.533   -18919.031    81.035683 
   10400    1774.6214   -121.48346    1.6057148   -119.87774   -28056.014    4.3276696    4.3276696    4.3276696   -28056.014   -27563.251   -16309.835   -40294.956    5143.8291   -5384.3361    19622.356    81.051733 
   10500    1852.9333   -121.55213     1.676573   -119.87555   -4209.9412    4.3352629    4.3352629    4.3352629   -4209.9412   -16132.569    40018.098   -36515.352   -8707.3984    4514.3992   -3023.9861     81.47912 
   10600    1854.0891   -121.54416    1.6776188   -119.86654   -41050.118    4.3545331    4.3545331    4.3545331   -41050.118   -60511.085   -28896.304   -33742.965   -2040.3272   -6419.5671   -10758.269    82.570476 
   10700    990.84233   -120.75992   0.89653497   -119.86339   -8713.5711    4.3362224    4.3362224    4.3362224   -8713.5711   -46641.425    25922.967   -5422.2554    23078.124   -25761.142   -4067.8312    81.533228 
   10800    1364.3854   -121.08281    1.2345246   -119.84829    14619.014    4.3073903    4.3073903    4.3073903    14619.014    20791.703    20270.245    2795.0937    15460.095    850.89729    9706.2967    79.917648 
   10900      2260.23   -121.92013    2.0451036   -119.87503   -9032.2934    4.3189077    4.3189077    4.3189077   -9032.2934    1826.4938    -21415.53   -7507.8437   -26000.637    -500.9706    13657.514    80.560426 
   11000    1683.9218   -121.40895    1.5236478   -119.88531   -6503.6777    4.3430164    4.3430164    4.3430164   -6503.6777   -42597.476    71628.606   -48542.163    6092.5858   -25193.434   -14209.437    81.917069 
   11100    1203.3847   -120.97934    1.0888478   -119.89049   -50683.908    4.3419493    4.3419493    4.3419493   -50683.908   -63429.379   -30017.172   -58605.172    27412.175   -24329.268    13202.703    81.856703 
   11200     1446.197   -121.19343    1.3085495   -119.88488    2124.5598    4.2992764    4.2992764    4.2992764    2124.5598    12195.022   -16026.544    10205.202    8367.6063   -2461.8098    40761.737    79.466867 
   11300    1997.2589   -121.71759    1.8071618   -119.91042    24910.214    4.3006514    4.3006514    4.3006514    24910.214    18578.278    61768.365   -5616.0011   -5530.8727     5196.489    5034.8905    79.543141 
   11400    1536.4841   -121.29677    1.3902431   -119.90653   -30389.804    4.3444494    4.3444494    4.3444494   -30389.804   -42337.546    11317.663   -60149.529   -8147.7136    3483.9621   -31083.492    81.998184 
   11500    1614.7046   -121.35957    1.4610187   -119.89855   -20019.804    4.3298235    4.3298235    4.3298235   -20019.804   -31153.226    31440.582   -60346.766    279.92751    6446.6479    15467.958     81.17281 
   11600    1781.2551   -121.50174     1.611717   -119.89003    13497.356    4.2912797    4.2912797    4.2912797    13497.356    36332.118    22072.281   -17912.331    17470.316    587.55202    38109.825    79.024265 
   11700    1771.5796   -121.52072    1.6029625   -119.91775    18795.826    4.3058072    4.3058072    4.3058072    18795.826    8030.5481    73093.092   -24736.161    5579.8697   -8350.7769   -9781.8565    79.829561 
   11800    1469.5727   -121.23741    1.3297003   -119.90771   -29777.044    4.3532282    4.3532282    4.3532282   -29777.044   -41768.267    38816.409   -86379.275   -19853.129   -6364.2166   -16757.516    82.496269 
   11900    1838.2907   -121.55386     1.663324   -119.89053   -29804.553    4.3282488    4.3282488    4.3282488   -29804.553    1005.5968   -20738.343   -69680.914   -19030.967   -6644.1261    8976.5872    81.084278 
   12000    1579.8982   -121.28203    1.4295251    -119.8525    60847.199    4.2758712    4.2758712    4.2758712    60847.199    55229.395    122084.43    5227.7751    16831.939    4929.6914    16723.735    78.176074 
   12100     1319.675   -121.11947    1.1940697    -119.9254    235.72445    4.3076097    4.3076097    4.3076097    235.72445    5898.1851    34801.744   -39992.755    6632.9694    2039.1453   -24853.468    79.929859 
   12200    1531.9922   -121.27827    1.3861787   -119.89209   -47155.423    4.3516468    4.3516468    4.3516468   -47155.423   -49621.795   -23075.874     -68768.6   -4511.1455   -5650.1884   -22981.782    82.406394 
   12300    1692.1666   -121.40352    1.5311079   -119.87241   -15569.154    4.3312311    4.3312311    4.3312311   -15569.154   -25279.237    15287.221   -36715.448   -9973.7505    3707.7049    23268.598    81.252001 
   12400    1421.8126   -121.14537    1.2864859   -119.85889    6622.1288    4.2991237    4.2991237    4.2991237    6622.1288    16581.679    8892.2376     -5607.53    4659.6699   -968.73095   -1529.8287    79.458403 
   12500    976.76811   -120.79451   0.88380031   -119.91071    26591.693    4.3147943    4.3147943    4.3147943    26591.693    22822.609    84602.208   -27649.737    21207.917     2001.174   -34457.018    80.330464 
   12600    1621.8024    -121.3733    1.4674409   -119.90586   -58916.274    4.3554572    4.3554572    4.3554572   -58916.274   -49650.745   -81377.861   -45720.217   -11303.315   -8940.5461   -3721.3451    82.623058 
   12700    1639.5924   -121.37464    1.4835376    -119.8911    7719.3946     4.318785     4.318785     4.318785    7719.3946   -846.14884    11757.127    12247.206   -14672.062    8017.6164    11006.254    80.553562 
   12800    1354.0876   -121.08208    1.2252069   -119.85688    54178.755    4.2809804    4.2809804    4.2809804    54178.755    49959.863    81953.812     30622.59    1393.6935   -854.38325   -21400.069    78.456644 
   12900    1269.0756   -121.06821    1.1482863   -119.91992    -36025.61    4.3296381    4.3296381    4.3296381    -36025.61   -32132.938   -73259.622   -2684.2703     29472.39    2622.5534   -24165.288    81.162383 
   13000    1400.8563   -121.14479    1.2675242   -119.87726   -40890.265    4.3554747    4.3554747    4.3554747   -40890.265   -61383.161   -49276.154   -12011.479    4380.6587    16639.024    1020.3197    82.624053 
   13100    1846.3265   -121.53778     1.670595   -119.86718    17027.078    4.3127284    4.3127284    4.3127284    17027.078    14879.626    26674.149    9527.4576   -17399.375    325.05505    4409.2269    80.215138 
   13200    1350.9258   -121.08632    1.2223461   -119.86397    22828.913     4.292672     4.292672     4.292672    22828.913     18693.91    7097.3975    42695.432    6917.3011    1128.7796   -27252.098    79.101207 
   13300    966.20405   -120.77613   0.87424173   -119.90189   -40842.729    4.3330676    4.3330676    4.3330676   -40842.729   -27547.991   -71991.442   -22988.754     33032.36    9805.7925   -20496.821    81.355401 
   13400    1764.4852   -121.46634    1.5965432    -119.8698   -18037.015    4.3431403    4.3431403    4.3431403   -18037.015   -29971.674   -10607.208   -13532.162     24132.37   -4403.1655    16817.674    81.924083 
   13500     1861.462   -121.54801    1.6842899   -119.86372   -7022.1013    4.3342615    4.3342615    4.3342615   -7022.1013   -2311.6071    498.51749   -19253.214    588.09251     1510.521   -15381.818    81.422668 
   13600    844.13635   -120.64544   0.76379231   -119.88165    -4232.393    4.3280427    4.3280427    4.3280427    -4232.393   -2690.2132    27336.313   -37343.278     20276.47   -808.01856    3884.2642    81.072694 
   13700    1153.6467   -120.93363    1.0438438   -119.88978   -13132.575    4.3212395    4.3212395    4.3212395   -13132.575    11878.594   -37768.214   -13508.106    35366.138   -6515.8543   -11879.639    80.690983 
   13800    1623.8829   -121.35859    1.4693234   -119.88927    16680.388    4.3175267    4.3175267    4.3175267    16680.388    31428.644    36896.721   -18284.202    7392.7972    8912.8814   -11887.395    80.483175 
   13900    1949.2835   -121.65962    1.7637526   -119.89587   -4877.9246    4.3322819    4.3322819    4.3322819   -4877.9246    5662.9444     20028.74   -40325.458     -29313.1   -5807.3398    5821.5987    81.311153 
   14000    1018.7806   -120.82518   0.92181413   -119.90336   -17664.814    4.3495537    4.3495537    4.3495537   -17664.814   -19423.997    32224.508   -65794.953    11925.871   -6925.7869   -21029.101    82.287542 
   14100    1299.5855   -121.06118    1.1758923   -119.88528    1763.3001    4.3264684    4.3264684    4.3264684    1763.3001    33406.574    -8427.693   -19688.981    27560.611    7977.5673   -17107.331     80.98426 
   14200    1923.5291   -121.60965    1.7404495    -119.8692    30292.386    4.3094307    4.3094307    4.3094307    30292.386    17408.787    78322.742   -4854.3717    806.55675   -533.07066    7703.5477     80.03127 
   14300    1900.2414   -121.60928    1.7193784   -119.88991   -3268.3375    4.3274576    4.3274576    4.3274576   -3268.3375   -20205.918    36849.041   -26448.135   -3710.2395   -13271.125   -13032.649    81.039818 
   14400    1147.0778    -120.9304    1.0379001    -119.8925    4723.9528    4.3401389    4.3401389    4.3401389    4723.9528    1564.3501    47093.021   -34485.513    37526.779    6530.4831   -18024.605    81.754353 
   14500    1874.2089    -121.5673    1.6958236   -119.87147   -16795.815    4.3349032    4.3349032    4.3349032   -16795.815    19962.573    -34387.36   -35962.659    29484.795    5057.6239   -6858.4558    81.458837 
   14600    1837.3625    -121.5297    1.6624842   -119.86721    29259.437    4.3144075    4.3144075    4.3144075    29259.437    24677.991    78124.101   -15023.781   -26871.885   -273.28723    6979.8423    80.308867 
   14700    1993.6024   -121.68237    1.8038533   -119.87851     380.5687     4.309354     4.309354     4.309354     380.5687    -9787.064    36916.766   -25987.996   -11784.853   -9847.4324    13154.782    80.026994 
   14800    1550.4885   -121.30724    1.4029146   -119.90432   -38717.565    4.3257379    4.3257379    4.3257379   -38717.565   -53417.868   -30179.596   -32555.232     39622.01     5659.565   -4252.3514    80.943245 
   14900    1382.3302   -121.14842    1.2507614   -119.89766      15820.6    4.3316838    4.3316838    4.3316838      15820.6   -20578.272    84132.706   -16092.632    19135.181    8359.1745   -1461.2189    81.277482 
   15000    1604.6586   -121.33962    1.4519288   -119.88769   -24121.391    4.3388457    4.3388457    4.3388457   -24121.391   -2054.9034   -36601.738   -33707.532   -13448.174   -12459.125    5492.0875    81.681295 
   15100    1034.5951   -120.82345   0.93612334   -119.88732   -12973.284    4.3186433    4.3186433    4.3186433   -12973.284   -32716.297   -3297.4241   -2906.1294    11910.856   -12455.799    1817.6993    80.545637 
   15200    1295.0298   -121.03699    1.1717701   -119.86522    41971.774    4.2871395    4.2871395    4.2871395    41971.774   -3710.0537    104486.81    25138.564    50189.836   -274.68803   -5167.4168     78.79576 
   15300    1671.6704   -121.41753    1.5125625   -119.90497   -14240.251    4.3212251    4.3212251    4.3212251   -14240.251    7019.7653   -40627.143   -9113.3755   -5320.2537   -4378.9859   -5010.0192    80.690176 
   15400    1107.4138   -120.87858    1.0020113   -119.87657   -19473.238    4.3465682    4.3465682    4.3465682   -19473.238   -32772.032   -2959.6718   -22688.011   -18664.866   -9650.3064    655.07318    82.118213 
   15500    1164.4564   -120.91998    1.0536246   -119.86635   -15359.338    4.3205729    4.3205729    4.3205729   -15359.338   -63127.411    4299.9202    12749.477    49038.932   -5891.3644   -5083.9014    80.653646 
   15600    1348.0351   -121.08451    1.2197305   -119.86478    17843.282    4.2937985    4.2937985    4.2937985    17843.282   -6820.2519    33907.638     26442.46    59482.579    2313.8276   -8425.1275    79.163499 
   15700    1715.0541   -121.45199     1.551817   -119.90018   -5565.2081    4.3120095    4.3120095    4.3120095   -5565.2081   -7056.3471    14909.221   -24548.498   -20004.188    1010.7155    5683.8483    80.175029 
   15800    1141.6271   -120.92753    1.0329682   -119.89456   -19932.799    4.3361969    4.3361969    4.3361969   -19932.799   -19070.034   -881.70097   -39846.661    13447.513   -5941.0113     7275.385    81.531793 
   15900    681.23453   -120.48977   0.61639532   -119.87337    27458.999    4.3273239    4.3273239    4.3273239    27458.999   -34282.666    97532.907    19126.756    42170.551    151.50074   -5345.5293    81.032309 
   16000    1943.6984   -121.61006    1.7586992   -119.85136   -11635.172    4.3225861    4.3225861    4.3225861   -11635.172   -36784.972    14972.714   -13093.256   -9360.5366    15125.471   -4432.3618    80.766442 
   16100    1896.5322   -121.56879    1.7160222   -119.85277    925.61398    4.3111792    4.3111792    4.3111792    925.61398   -12939.307     29185.67   -13469.521   -4321.4485   -8298.8158    11887.985    80.128726 
   16200    1026.4165    -120.8196   0.92872322   -119.89087    30903.309    4.3168692    4.3168692    4.3168692    30903.309   -7957.1959    84877.338    15789.786    45542.423    2972.4913    10709.108    80.446412 
   16300    1640.4108   -121.36425    1.4842781   -119.87998   -36983.912    4.3490011    4.3490011    4.3490011   -36983.912   -53430.225    -23900.59    -33620.92    25112.556    12926.189   -14203.079    82.256184 
   16400    2168.6811   -121.82707    1.9622683    -119.8648    11724.261    4.3167791    4.3167791    4.3167791    11724.261   -16034.688    70329.758   -19122.288   -16289.161   -77.858615   -12150.515    80.441374 
   16500    1464.5885   -121.18101    1.3251904   -119.85582    37039.691    4.2900247    4.2900247    4.2900247    37039.691    34958.084    15508.094    60652.896    37895.004    6460.3505    9759.1835    78.954951 
   16600     1256.276     -121.033    1.1367049    -119.8963   -29453.824    4.3280291    4.3280291    4.3280291   -29453.824   -44625.463   -26147.912   -17588.099    46533.932   -9965.8511    26873.206    81.071932 
   16700    2369.1374   -121.99986    2.1436453   -119.85622   -19783.498    4.3386216    4.3386216    4.3386216   -19783.498   -34625.337   -7555.9687   -17169.187   -18025.552   -617.27375    8957.2016    81.668637 
   16800    1784.6376   -121.47195    1.6147776   -119.85717    8279.7682    4.3232405    4.3232405    4.3232405    8279.7682   -29457.812    82.383628    54214.733    30442.622    8774.7881    339.18519    80.803132 
   16900    1497.1335   -121.22726    1.3546379   -119.87263   -18736.278    4.3105165    4.3105165    4.3105165   -18736.278   -47621.525   -12155.133    3567.8246    58760.481    1842.6949    8554.0295    80.091777 
   17000    1380.7678   -121.13504    1.2493477   -119.88569    24464.712    4.3051379    4.3051379    4.3051379    24464.712   -31473.673    72663.915    32203.895    291.34852   -17228.609    12735.065    79.792338 
   17100    1977.5345     -121.687    1.7893148   -119.89769   -9164.6504    4.3257526    4.3257526    4.3257526   -9164.6504    -36924.79    15819.174   -6388.3352   -6602.7064   -10044.518    7704.9003    80.944071 
   17200    1786.6864   -121.50391    1.6166314   -119.88728   -7787.2438     4.329193     4.329193     4.329193   -7787.2438   -53599.123    6434.9798    23802.412    8677.0938     3493.143   -14387.891    81.137354 
   17300    1589.5635    -121.3112    1.4382705   -119.87293    5557.1877    4.3079755    4.3079755    4.3079755    5557.1877   -47538.949    21236.693     42973.82    13287.468   -2257.3029    7862.9832    79.950224 
   17400    1441.3455   -121.18624    1.3041597   -119.88209   -1411.6685    4.3074262    4.3074262    4.3074262   -1411.6685   -12806.419    11911.714   -3340.3009   -6257.4534   -36066.221    16140.676    79.919646 
   17500    1492.9022   -121.23286    1.3508093   -119.88205   -3678.4502    4.3287914    4.3287914    4.3287914   -3678.4502   -21303.835    16649.173   -6380.6882    982.39036   -12310.783    6686.0433    81.114777 
   17600    1776.0711   -121.47508    1.6070265   -119.86806   -42637.669    4.3376243    4.3376243    4.3376243   -42637.669   -57296.928   -62019.336   -8596.7434    33225.833    22782.545    3507.4719    81.612336 
   17700    1418.5248   -121.14044     1.283511   -119.85693   -10636.097    4.3233596    4.3233596    4.3233596   -10636.097   -21823.588   -21102.614    11017.911    16069.916   -6191.8547    3059.1607    80.809807 
   17800    1734.7866   -121.42374    1.5696714   -119.85407     8707.581    4.3153525    4.3153525    4.3153525     8707.581    8593.8131    20915.719   -3386.7888   -12267.632   -23447.675    10569.154    80.361645 
   17900    1577.6793   -121.28955    1.4275174   -119.86203   -36966.099    4.3279789    4.3279789    4.3279789   -36966.099    -13734.18   -67605.609   -29558.509    13455.299   -475.22747    8858.9803    81.069112 
   18000    1101.0382   -120.86148   0.99624249   -119.86524   -13168.564    4.3298067    4.3298067    4.3298067   -13168.564   -42259.558     30852.96   -28099.094    30323.222   -11293.082     567.2158    81.171864 
   18100    1393.6839   -121.12855    1.2610345   -119.86751    14405.379    4.3269515    4.3269515    4.3269515    14405.379   -10667.242    32305.394    21577.986   -1191.2884   -11535.939   -17348.215    81.011391 
   18200    1704.5022   -121.40279    1.5422694   -119.86052    16898.841      4.31972      4.31972      4.31972    16898.841     4002.769    60411.678   -13717.925   -7963.9204    7087.8547    2137.8726    80.605891 
   18300    1416.2406   -121.15873    1.2814443   -119.87728   -24571.244    4.3196283    4.3196283    4.3196283   -24571.244   -52335.888    -12172.97   -9204.8739     11696.66    326.60889   -7644.2064    80.600761 
   18400    1417.0181   -121.17034    1.2821478   -119.88819   -18992.652    4.3279665    4.3279665    4.3279665   -18992.652   -56473.008    32137.494   -32642.441    14861.062   -9171.4306    -6606.287    81.068411 
   18500    2003.2352   -121.68485    1.8125693   -119.87228   -8380.7998    4.3338521    4.3338521    4.3338521   -8380.7998   -32963.301    24098.424   -16277.522   -4282.7678   -232.05754   -19221.233    81.399598 
   18600    1653.4666   -121.35944    1.4960913   -119.86335   -23706.771     4.336966     4.336966     4.336966   -23706.771   -59785.093    4845.7132   -16180.935    19771.789   -543.92052   -17705.795     81.57518 
   18700    1171.0016   -120.93065    1.0595469    -119.8711    12610.183    4.3276477    4.3276477    4.3276477    12610.183   -57444.924    20757.771    74517.704    19433.304    4828.1454      11931.5    81.050499 
   18800    2420.6817   -122.04386    2.1902837   -119.85358    2310.4241    4.3216701    4.3216701    4.3216701    2310.4241   -23688.086    8644.6725    21974.686   -9076.7025    427.76414    17325.194     80.71511 
   18900     1671.196   -121.37018    1.5121333   -119.85805    24338.503    4.3147581    4.3147581    4.3147581    24338.503   -26383.875    14258.131    85141.253    7838.9553    7306.4154    1398.0909    80.328444 
   19000    939.19888     -120.739   0.84980688   -119.88919    13890.594    4.3275538    4.3275538    4.3275538    13890.594   -52694.649    50207.049    44159.381    21919.097    6479.8584    8652.1446    81.045223 
   19100    2052.7693   -121.72553    1.8573888   -119.86814   -28310.745    4.3372484    4.3372484    4.3372484   -28310.745   -53760.879    3793.2317   -34964.589    7074.2855   -5206.4741   -5186.2672    81.591118 
   19200    1745.9471   -121.43414    1.5797696   -119.85437    45420.784    4.3069589    4.3069589    4.3069589    45420.784   -28377.632    125268.71    39371.275   -3600.9697    15201.572    19438.741    79.893635 
   19300    1096.6328   -120.87589   0.99225639   -119.88364     7501.841    4.3118386    4.3118386    4.3118386     7501.841    -40044.39    34043.791    28506.122     26668.75    12625.469    12018.071    80.165495 
   19400    1761.8862   -121.46687    1.5941916   -119.87268   -28953.957    4.3326881    4.3326881    4.3326881   -28953.957   -67240.502   -28592.193    8970.8238     6176.053   -4804.3491   -4438.8867    81.334027 
   19500    2007.7663   -121.67641    1.8166691   -119.85974    9510.2045    4.3226014    4.3226014    4.3226014    9510.2045   -28378.261    62414.205   -5505.3307    172.19853    7779.1119    2591.0014    80.767302 
   19600    1213.8111   -120.97886    1.0982818   -119.88058    17045.597    4.3129399    4.3129399    4.3129399    17045.597   -29667.306    102287.98   -21483.884    5095.7873    19980.067    1153.8665    80.226939 
   19700    1157.2954   -120.93766    1.0471452   -119.89051    5890.1475    4.3160796    4.3160796    4.3160796    5890.1475   -23019.051    40131.592    557.90133    49200.879   -63.263559   -8112.0023    80.402277 
   19800    1822.3289   -121.53939    1.6488815   -119.89051   -5510.1651    4.3339456    4.3339456    4.3339456   -5510.1651   -2030.8959    13585.477   -28085.076    12473.862   -1537.5963   -5596.6004    81.404868 
   19900    1893.5323   -121.58915    1.7133078   -119.87584   -9767.2936    4.3369303    4.3369303    4.3369303   -9767.2936    10802.948    22626.576   -62731.405   -11715.031    4384.5138   -8388.2613     81.57317 
   20000    1417.5765   -121.15154     1.282653   -119.86889    9234.5054    4.3153078    4.3153078    4.3153078    9234.5054    35487.691    7457.9541   -15242.129    14718.847   -6992.7226   -1796.4496    80.359152 
   20100    945.84031    -120.7345   0.85581619   -119.87868    12498.293     4.313019     4.313019     4.313019    12498.293    8597.2398    4824.1813    24073.458    37233.342   -4823.1499   -3556.6949    80.231354 
   20200    1541.4294   -121.27195    1.3947177   -119.87723   -6418.7056    4.3243529    4.3243529    4.3243529   -6418.7056    29180.795   -22825.216   -25611.695    14848.812   -122.31036   -15473.579    80.865523 
   20300    1635.3317   -121.35426    1.4796825   -119.87458     18108.51    4.3218243    4.3218243    4.3218243     18108.51    23241.933    33189.137   -2105.5401   -20372.087    427.91877   -9269.0396    80.723747 
   20400    1092.0121   -120.86669   0.98807548   -119.87861   -24319.846    4.3320052    4.3320052    4.3320052   -24319.846   -52842.988   -36877.419     16760.87    16887.549    2167.7099    8345.5445    81.295576 
   20500    1155.2996   -120.91471    1.0453393   -119.86937   -27954.678    4.3198736    4.3198736    4.3198736   -27954.678   -33072.845   -50799.007    7.8174215    40069.159   -13678.573   -2624.0658    80.614494 
   20600    1481.1217    -121.2015      1.34015   -119.86135    29790.132    4.2954837    4.2954837    4.2954837    29790.132    37248.657     -10500.7    62622.437   -12376.344   -268.44314   -18323.275    79.256746 
   20700    1620.7449    -121.3547     1.466484   -119.88821   -21625.644    4.3251852    4.3251852    4.3251852   -21625.644   -17609.077   -27260.442   -20007.413    274.09941    975.60755   -1013.8313    80.912221 
   20800    1027.4229   -120.80454    0.9296338    -119.8749   -43055.863    4.3376642    4.3376642    4.3376642   -43055.863   -53621.449   -74797.408   -748.73193     38372.16    -9999.006    21138.108    81.614588 
   20900     1289.016   -121.02035    1.1663287   -119.85402   -14666.767    4.3140333    4.3140333    4.3140333   -14666.767    9802.8525   -54752.723    949.56802    1888.6659   -13716.164    -5196.045    80.287972 
   21000    1496.1534    -121.2117     1.353751   -119.85795    3400.0473    4.3176656    4.3176656    4.3176656    3400.0473   -14064.356   -385.47499    24649.972   -5691.9613    -5338.832   -25379.142    80.490943 
   21100    1160.7485   -120.92359    1.0502696   -119.87332   -10246.602    4.3191615    4.3191615    4.3191615   -10246.602   -47687.647   -28365.774    45313.615    33783.847    1385.3441   -15638.724    80.574633 
   21200    1237.7234   -120.99052    1.1199182   -119.87061    16530.754    4.3066382    4.3066382    4.3066382    16530.754   -8881.3802    9846.0706    48627.571    26877.706   -10633.682    3820.4408    79.875787 
   21300    1404.1217   -121.16118    1.2704789    -119.8907   -6010.3575     4.329496     4.329496     4.329496   -6010.3575   -32162.928   -14388.024     28519.88   -7489.3139   -15492.704   -2994.3351    81.154392 
   21400    1450.4642   -121.18862    1.3124105   -119.87621   -24758.707    4.3353532    4.3353532    4.3353532   -24758.707   -52419.119   -13106.787   -8750.2132    2423.2368   -17943.128   -10028.831    81.484212 
   21500     1304.098   -121.04431    1.1799753   -119.86433    30714.754    4.3031755    4.3031755    4.3031755    30714.754    -36798.94    62859.761    66083.442    42653.541    8891.7378   -2869.5452    79.683274 
   21600      1843.94   -121.54018    1.6684357   -119.87175    13556.595    4.2981182    4.2981182    4.2981182    13556.595    12218.758    20575.027    7876.0009    11051.698   -8077.2501    362.31875    79.402664 
   21700    1721.5208   -121.44716    1.5576682   -119.88949   -17159.981    4.3228542    4.3228542    4.3228542   -17159.981   -51113.894    49712.641   -50078.691   -11060.346    -35509.86     8007.487    80.781473 
   21800    1196.5201    -120.9707    1.0826366   -119.88807   -26982.201      4.32897      4.32897      4.32897   -26982.201    -70374.23    4235.3468    -14807.72    30783.734   -11843.485    4710.5149    81.124817 
   21900    1287.7546   -121.04852    1.1651874   -119.88334   -22647.736    4.3074288    4.3074288    4.3074288   -22647.736   -27166.866   -49181.591    8405.2507    31304.967    11751.373   -23212.203    79.919787 
   22000    1710.1509   -121.42738    1.5473805      -119.88    26728.974    4.3015188    4.3015188    4.3015188    26728.974   -153.69762    43078.435    37262.185   -14377.202   -9528.4467    3869.5045    79.591277 
   22100    1620.3323   -121.35659    1.4661108   -119.89048   -8675.6664    4.3248817    4.3248817    4.3248817   -8675.6664    -56299.05    63836.409   -33564.359    13402.254   -12480.242   -1616.9471    80.895191 
   22200    1400.8655    -121.1644    1.2675325   -119.89687    20108.737    4.3118771    4.3118771    4.3118771    20108.737   -53380.896    89396.004    24311.102    42910.135   -2028.6971    -6470.512    80.167645 
   22300    1303.2573   -121.08877    1.1792146   -119.90956     2834.282    4.3156187    4.3156187    4.3156187     2834.282   -44442.335    31204.832    21740.349    7399.8004    4741.1002   -20013.927    80.376519 
   22400    1361.4244   -121.13182    1.2318454   -119.89997   -38350.966    4.3381441    4.3381441    4.3381441   -38350.966   -72358.502    6660.7947   -49355.192   -35333.402   -2738.8869    -11581.75     81.64168 
   22500    1425.7788   -121.17958    1.2900747   -119.88951    9589.0803    4.3206929    4.3206929    4.3206929    9589.0803   -32032.187    80018.579   -19219.151   -5451.6374   -6976.5444    7789.1208    80.660366 
   22600    1650.4919   -121.39095    1.4933997   -119.89755    13135.816    4.3188345    4.3188345    4.3188345    13135.816   -7669.4175    12337.435     34739.43    17077.341    3949.6317    7567.3877    80.556334 
   22700     1158.968   -120.95938    1.0486586   -119.91072    536.46947    4.3416964    4.3416964    4.3416964    536.46947    -33751.91     31868.64    3492.6783   -10934.551    2044.9627   -18829.526    81.842399 
   22800    1373.1502   -121.12405    1.2424552   -119.88159   -19713.584    4.3396717    4.3396717    4.3396717   -19713.584   -38480.738     3669.814   -24329.829   -9509.5457   -2960.0942    7138.9452    81.727953 
   22900    1595.5972   -121.30645    1.4437298   -119.86272    39785.758    4.2879309    4.2879309    4.2879309    39785.758     21916.15    49825.835     47615.29    7196.6916   -1817.5148    42771.454    78.839404 
   23000    1381.5651   -121.12398    1.2500691   -119.87392    48468.064    4.2838153    4.2838153    4.2838153    48468.064    88333.852    1544.0257    55526.314    5969.0259    1616.9323    2813.9183    78.612608 
   23100    1272.6492   -121.03694    1.1515197   -119.88542   -56070.395    4.3411372    4.3411372    4.3411372   -56070.395   -30585.084   -92367.652    -45258.45   -21286.089   -11757.588   -41999.584     81.81078 
   23200     1184.864   -120.96311    1.0720898   -119.89102   -21940.584     4.315875     4.315875     4.315875   -21940.584    3217.5964   -51389.847     -17649.5   -20927.062   -6815.3533    10410.748    80.390843 
   23300    1225.1101   -120.96203    1.1085054   -119.85352    81540.097    4.2748919    4.2748919    4.2748919    81540.097    119246.72    94587.211    30786.358    -952.8908    4070.6967     44315.11     78.12237 
   23400    2060.0559   -121.75033    1.8639819   -119.88635   -10707.884    4.3114317    4.3114317    4.3114317   -10707.884   -7752.6231   -24141.719   -229.31074    4072.8245    191.07962   -8697.1758    80.142804 
   23500    1354.1306   -121.09788    1.2252458   -119.87264   -9897.4934    4.3282108    4.3282108    4.3282108   -9897.4934   -44542.719     20849.86   -5999.6212   -3896.5644    1025.0938   -11625.914    81.082141 
   23600       1018.9   -120.79608   0.92192216   -119.87416    1184.4966    4.3127468    4.3127468    4.3127468    1184.4966    25956.057   -25711.456    3308.8883   -11660.328   -3658.2516    29284.214     80.21616 
   23700    1300.6384   -121.05418    1.1768449   -119.87734   -10424.897     4.311222     4.311222     4.311222   -10424.897    19083.259    -37585.21   -12772.741    17355.619   -8094.2751    29180.485    80.131111 
   23800    1784.4916    -121.4884    1.6146455   -119.87376   -17512.386     4.311804     4.311804     4.311804   -17512.386   -33711.814   -43371.188    24545.844    41968.405   -3661.8358   -4565.5195    80.163569 
   23900    1435.2881   -121.17868    1.2986788      -119.88        16121    4.3091219    4.3091219    4.3091219        16121   -23327.433    33761.209    37929.223    221.89823    280.55436   -8008.4177    80.014067 
   24000    1587.0916   -121.31821    1.4360338   -119.88218   -13694.636    4.3188299    4.3188299    4.3188299   -13694.636    2284.4697     -4363.22   -39005.157   -15134.089    2364.7981    28492.991    80.556073 
   24100    1076.2384   -120.85413   0.97380314   -119.88033    -9382.337    4.3302744    4.3302744    4.3302744    -9382.337   -21844.473    24405.966   -30708.504    21583.992   -2637.6127    13098.892    81.198174 
   24200     1565.039   -121.29567    1.4160801   -119.87959   -14104.457    4.3114808    4.3114808    4.3114808   -14104.457   -54060.369   -20048.648    31795.647     44402.83   -5934.8978    -7767.386    80.145541 
   24300    2082.1209   -121.74813    1.8839468   -119.86419    46424.398    4.2785823    4.2785823    4.2785823    46424.398    20524.353    87935.886    30812.956    3846.5448    11291.138   -10767.571    78.324869 
   24400    1856.3893   -121.58575    1.6797001   -119.90605   -5093.5682    4.3106672    4.3106672    4.3106672   -5093.5682   -14402.339    23013.051   -23891.416   -14986.677   -2131.1123    22479.984     80.10018 
   24500    1142.7022   -120.92501     1.033941   -119.89107   -54641.979    4.3341406    4.3341406    4.3341406   -54641.979   -81446.322   -68132.559   -14347.056    43946.251   -9430.1318    31250.042    81.415856 
   24600    1469.1131   -121.19898    1.3292844    -119.8697    9117.1117    4.2932941    4.2932941    4.2932941    9117.1117    -18168.97    3503.0978    42017.207    46082.355   -948.12284   -5424.9436    79.135602 
   24700    2032.0049   -121.71384    1.8386008   -119.87524    21832.075    4.2998294    4.2998294    4.2998294    21832.075    28196.276     52705.94    -15405.99   -7575.9549   -150.04182   -30241.264    79.497536 
   24800    1941.3786   -121.62382    1.7566001   -119.86722   -35659.766    4.3269057    4.3269057    4.3269057   -35659.766   -42615.813   -19610.882   -44752.603    7736.1922    412.31859    6826.4344    81.008817 
   24900    1443.3983   -121.18522    1.3060171    -119.8792    34210.275    4.2891844    4.2891844    4.2891844    34210.275    16461.938    64508.868     21660.02     32277.44    -5822.372    17776.886    78.908565 
   25000    1254.8521   -121.04932    1.1354166   -119.91391     798.2011    4.3011475    4.3011475    4.3011475     798.2011     45252.23   -11520.983   -31336.644    22716.292   -5919.1756   -19098.337    79.570671 
   25100    1750.7862   -121.46497    1.5841482   -119.88082    -43387.08    4.3335285    4.3335285    4.3335285    -43387.08   -2313.4803   -35749.382   -92098.376   -3064.5297    1954.0023   -39798.112    81.381366 
   25200    1943.3341   -121.62734    1.7583695   -119.86897    13779.575    4.3040692    4.3040692    4.3040692    13779.575    32523.528    15735.999    -6920.803   -6822.4668   -508.61074   -3874.7935    79.732934 
   25300    1293.4545   -121.05303    1.1703448   -119.88269    20973.477    4.2985516    4.2985516    4.2985516    20973.477    25805.455     21825.78    15289.195    29981.298    2461.0782    21865.528    79.426682 
   25400    1609.5826   -121.34678    1.4563842   -119.89039   -19243.291    4.3188434    4.3188434    4.3188434   -19243.291   -6705.4269   -8231.8727   -42792.573    9399.7838    5264.3109   -20066.292    80.556828 
   25500    1566.6267   -121.30062    1.4175168   -119.88311    14445.576    4.3202744    4.3202744    4.3202744    14445.576    47177.348    56715.103   -60555.722   -19647.414    14404.994   -19668.406     80.63693 
   25600    1684.8847   -121.40369    1.5245191   -119.87917   -288.16806    4.3195229    4.3195229    4.3195229   -288.16806    31488.871   -15927.829   -16425.547     5467.967    19738.425    4820.8622    80.594858 
   25700    1627.3977   -121.35198    1.4725036   -119.87947   -5328.2493     4.310798     4.310798     4.310798   -5328.2493   -2918.6812   -34753.071    21687.005    12620.626   -6652.6873   -2117.9428    80.107472 
   25800    1799.3748   -121.50691    1.6281122    -119.8788    1649.8467    4.3079303    4.3079303    4.3079303    1649.8467    20096.603    3401.0899   -18548.153    11904.123   -6032.1795   -22809.383    79.947704 
   25900     1865.258   -121.56965    1.6877246   -119.88192   -8195.7853    4.3184178    4.3184178    4.3184178   -8195.7853    34575.076    3812.4968   -62974.929   -2861.0079    16915.791   -17714.946    80.533018 
   26000    1400.6795   -121.15259    1.2673643   -119.88523    730.52789    4.3173561    4.3173561    4.3173561    730.52789   -1745.1607    13252.207    -9315.463    9085.6862    5887.8585    3189.7702    80.473633 
   26100    1008.2462    -120.8002   0.91228237   -119.88792    11665.337    4.3153343    4.3153343    4.3153343    11665.337   -9320.5027    20304.047    24012.465     32275.34   -9694.0334   -303.95786    80.360628 
   26200    1637.1593   -121.36794    1.4813361   -119.88661   -1927.4479    4.3202777    4.3202777    4.3202777   -1927.4479    41117.225   -16293.776   -30605.793   -12081.472    3794.5621   -18969.904    80.637115 
   26300     2107.667   -121.78212    1.9070614   -119.87506   -5751.3705    4.3194049    4.3194049    4.3194049   -5751.3705    42640.951   -27246.751   -32648.311    12413.321    14570.275   -6630.0326    80.588253 
   26400     1508.095   -121.25155    1.3645561     -119.887   -20537.679    4.3130116    4.3130116    4.3130116   -20537.679   -2997.2016   -60821.806    2205.9704    42388.282    -8158.502     8908.073     80.23094 
   26500    1037.5431    -120.8338   0.93879083     -119.895   -13156.359    4.2950241    4.2950241    4.2950241   -13156.359   -35925.521   -27572.925     24029.37   -4884.2835   -3863.4564   -9388.6775    79.231304 
   26600     1505.526    -121.2643    1.3622316   -119.90207    19510.661    4.2981395    4.2981395    4.2981395    19510.661    63299.806   -12552.904     7785.081   -29816.255    2573.4041   -11180.773    79.403844 
   26700    2089.0067    -121.7803    1.8901772   -119.89013   -17406.261    4.3303621    4.3303621    4.3303621   -17406.261     11306.08   -13913.918   -49610.945    4326.4824   -4511.4936    1850.3967    81.203106 
   26800    1622.8765   -121.35441    1.4684128     -119.886   -6626.6792    4.3186184    4.3186184    4.3186184   -6626.6792     28447.21   -20313.324   -28013.923    13098.421   -3649.8687    6839.9415    80.544242 
   26900    972.80751   -120.75624   0.88021668   -119.87603     32505.35    4.2890398    4.2890398    4.2890398     32505.35    36593.774    27593.323    33328.953   -24520.751     178.8676   -10237.593    78.900585 
   27000    1546.2503   -121.29376    1.3990798   -119.89468    1427.1145    4.3047979    4.3047979    4.3047979    1427.1145    14278.583   -1205.1808   -8792.0588   -31100.472   -3351.5473    -7399.589    79.773434 
   27100    1665.7514   -121.38296    1.5072069   -119.87575    10993.227    4.3244121    4.3244121    4.3244121    10993.227    39599.314    43605.032   -50224.664    11303.836      9902.15    16990.196    80.868842 
   27200    1443.2479   -121.18368     1.305881   -119.87779   -22605.114    4.3188855    4.3188855    4.3188855   -22605.114     5757.478   -29278.336   -44294.485    2523.5306    10121.764    9264.0727    80.559185 
   27300    1143.1967   -120.91029    1.0343884    -119.8759   -7746.0214    4.3070428    4.3070428    4.3070428   -7746.0214   -10319.456   -22601.954    9683.3453   -29724.666   -2753.0736   -18810.896    79.898305 
   27400    1197.5649   -120.96497    1.0835819   -119.88138    1477.6017    4.3113304    4.3113304    4.3113304    1477.6017   -75.592192    20263.562   -15755.165   -8173.8534    5624.6912    5719.7398    80.137153 
   27500    1412.0495   -121.16223     1.277652   -119.88458   -4288.0161    4.3169755    4.3169755    4.3169755   -4288.0161     35563.12     7838.928   -56266.096     12624.62     21916.78    29184.235    80.452355 
   27600    1163.0941   -120.93769     1.052392    -119.8853    11379.286    4.3176696    4.3176696    4.3176696    11379.286    32519.844     22252.67   -20634.655    1831.8434   -7191.9897    5505.3789    80.491166 
   27700    1280.8579   -121.04488    1.1589471   -119.88593   -8598.2748    4.3194218    4.3194218    4.3194218   -8598.2748    23630.109   -34186.879   -15238.055   -16561.505   -4305.6728   -25003.117    80.589203 
   27800    956.47399   -120.75249   0.86543776   -119.88705    10746.071    4.3145335    4.3145335    4.3145335    10746.071    35642.171    38336.679   -41740.637    3354.6306    3572.8669    13204.787      80.3159 
   27900    1510.2569   -121.25669    1.3665122   -119.89018    -32765.84    4.3228258    4.3228258    4.3228258    -32765.84    13575.609   -40769.691   -71103.438    18850.475    19265.559    34606.718    80.779878 
   28000    2022.0533   -121.70225    1.8295964   -119.87265    -10747.72    4.3215519    4.3215519    4.3215519    -10747.72    15002.994   -22439.946    -24806.21   -10087.049     3602.759   -2655.8114    80.708486 
   28100    1663.3973   -121.37479    1.5050769   -119.86971   -7275.5409    4.3176269    4.3176269    4.3176269   -7275.5409    4851.8638   -24109.297   -2569.1894   -42419.628    3228.2632    8158.1913    80.488781 
   28200     1369.684   -121.11087    1.2393188   -119.87155   -26479.471    4.3260299    4.3260299    4.3260299   -26479.471    3460.9447   -28531.807   -54367.549   -16333.537    16766.609    29648.046    80.959636 
   28300    1870.6459   -121.55546    1.6925998   -119.86286    -12069.28    4.3170873    4.3170873    4.3170873    -12069.28    16440.069    5741.5994    -58389.51    8595.8347    9238.6251    18419.089    80.458605 
   28400    1887.4354   -121.56913    1.7077912   -119.86134    23734.442    4.2985657    4.2985657    4.2985657    23734.442    2824.7657    44299.853    24078.706   -15751.184   -4077.2101   -18469.915    79.427468 
   28500    1383.6618   -121.13975    1.2519663   -119.88778   -24415.712    4.3125412    4.3125412    4.3125412   -24415.712    4624.6902   -50691.545    -27180.28   -22166.449    957.54674    30920.875    80.204691 
   28600    1136.1229   -120.91516    1.0279879   -119.88717   -30806.704    4.3195873    4.3195873    4.3195873   -30806.704    7157.2967   -20619.628   -78957.782   -2930.5391    20976.526    54702.149    80.598466 
   28700    1655.1574   -121.37038    1.4976212   -119.87276    3612.6588    4.3075214    4.3075214    4.3075214    3612.6588   -13982.517    43771.297   -18950.804    8582.9254    7870.1207   -12264.239    79.924945 
   28800    1700.4244   -121.41427    1.5385797   -119.87569   -25274.733     4.313478     4.313478     4.313478   -25274.733   -43450.555   -25575.157   -6798.4889   -27538.741   -14528.212    1262.5058    80.256969 
   28900      928.144    -120.7254    0.8398042    -119.8856   -10879.311    4.3119822    4.3119822    4.3119822   -10879.311   -869.17924   -8378.1635   -23390.591   -31890.453    9697.5242    41925.797    80.173504 
   29000    1413.7443   -121.16687    1.2791855   -119.88768   -4916.3293    4.3125398    4.3125398    4.3125398   -4916.3293   -9340.6049    36264.722   -41673.105   -456.20134    14590.603     17742.46     80.20461 
   29100    2138.6898   -121.80771    1.9351315   -119.87258   -18694.648    4.3291622    4.3291622    4.3291622   -18694.648   -43023.728    18610.655   -31670.872    9571.7685    6680.9235   -17604.449     81.13562 
   29200     1947.039    -121.6301    1.7617218   -119.86837   -26649.667    4.3224402    4.3224402    4.3224402   -26649.667   -29709.351   -19932.649   -30307.001   -25130.924    5326.7371    17977.535    80.758266 
   29300    1358.9366   -121.10173    1.2295944   -119.87213    4054.8173     4.299238     4.299238     4.299238    4054.8173    28535.586   -7113.8807   -9257.2536   -26421.855   -2674.1205    53599.176    79.464739 
   29400     1878.193   -121.58462    1.6994285   -119.88519    56.799991      4.30432      4.30432      4.30432    56.799991   -3481.8623    6301.6341   -2649.3718   -3634.4832    27527.975    4659.8367     79.74687 
   29500    2106.9252   -121.79484    1.9063902   -119.88845   -3141.3194    4.3214889    4.3214889    4.3214889   -3141.3194   -22231.127   -2423.3558    15230.524    2143.7078    15998.402   -23652.368    80.704959 
   29600     1906.451   -121.61299    1.7249969   -119.88799    13472.843    4.3059516    4.3059516    4.3059516    13472.843    27522.646   -5220.3483    18116.232    3018.0126   -10875.101    14035.143    79.837594 
   29700    1009.8959   -120.80704   0.91377507   -119.89326     22826.43    4.3032615    4.3032615    4.3032615     22826.43    1155.2703    5070.6445    62253.374   -26047.942    14587.688    51201.709    79.688052 
   29800     1580.499   -121.32043    1.4300687   -119.89036   -6378.9576    4.3295904    4.3295904    4.3295904   -6378.9576   -49630.481    18988.165    11505.443   -9497.2491    6900.6725    544.89245    81.159703 
   29900    2072.4188   -121.72487    1.8751681    -119.8497    3958.2342    4.3283615    4.3283615    4.3283615    3958.2342    8278.8806   -20995.782    24591.604    11621.158    -1420.847   -5404.7702    81.090609 
   30000    1197.5032    -120.9327    1.0835261   -119.84918    12624.712     4.305713     4.305713     4.305713    12624.712    -3019.423    19390.415    21503.143   -5612.1344    6562.5744    41473.947     79.82432 
   30100    1061.4846   -120.83172   0.96045361   -119.87127   -25825.529    4.3114566    4.3114566    4.3114566   -25825.529   -9213.1665   -34445.993   -33817.429   -32415.973    8268.7377    15226.102    80.144195 
   30200    1645.4274   -121.37009    1.4888173   -119.88127   -632.81689    4.3067416    4.3067416    4.3067416   -632.81689   -14271.244    4926.0325    7446.7608   -19186.883    19985.106   -9888.8344    79.881542 
   30300    1963.5983   -121.66474     1.776705   -119.88804    23090.156    4.3031783    4.3031783    4.3031783    23090.156    20520.059    10755.573    37994.837    25344.905   -11253.983    4464.7944    79.683432 
   30400     1494.567   -121.24857    1.3523157   -119.89625   -39678.374    4.3298522    4.3298522    4.3298522   -39678.374   -21577.848   -73185.381   -24271.893   -19786.479    2265.1002    28281.156    81.174423 
   30500    1283.6746   -121.04785    1.1614957   -119.88636   -18399.013    4.3177413    4.3177413    4.3177413   -18399.013    -24663.33    -57982.32     27448.61    -44349.27    14861.489    1857.2375    80.495174 
   30600    1963.2705    -121.6385    1.7764084   -119.86209     28870.04    4.2939642    4.2939642    4.2939642     28870.04   -9445.0247    9890.5721    86164.571    20450.595   -1923.6973   -6886.3797    79.172664 
   30700    1930.9008   -121.62891    1.7471197   -119.88179   -11540.716    4.3173031    4.3173031    4.3173031   -11540.716   -20474.304   -35514.299    21366.453    14160.233    -2209.514    20369.091    80.470668 
   30800    1287.7498   -121.04952    1.1651831   -119.88433   -39722.794    4.3357837    4.3357837    4.3357837   -39722.794   -41630.207   -76803.213   -734.96027   -33236.338    1645.2221    27148.366    81.508483 
   30900    1439.1863   -121.17832     1.302206   -119.87612   -19810.655    4.3218993    4.3218993    4.3218993   -19810.655   -25964.772   -19084.122   -14383.072   -19373.647    16656.502    6228.3555    80.727951 
   31000    2132.5066   -121.78823    1.9295368   -119.85869   -661.62492    4.3008348    4.3008348    4.3008348   -661.62492   -12085.104    21504.566   -11404.337    14784.828    26134.239   -20023.762    79.553313 
   31100    1760.6983   -121.46457    1.5931168   -119.87145   -5256.7093    4.3012622    4.3012622    4.3012622   -5256.7093    -15369.68    -15919.91    15519.462   -13805.857    7139.5732    27253.149    79.577033 
   31200    918.50489   -120.72353   0.83108252   -119.89244   -37274.837    4.3200293    4.3200293    4.3200293   -37274.837   -43204.623   -77261.147    8641.2583   -36370.215   -5941.5718    32577.186    80.623207 
   31300    1264.3938   -121.03087    1.1440501   -119.88682    -19639.58    4.3121013    4.3121013    4.3121013    -19639.58   -10923.552   -20900.354   -27094.833   -9699.6258    36132.072    10790.987    80.180148 
   31400    1670.9007   -121.38903    1.5118661   -119.87716    30875.697    4.2971786    4.2971786    4.2971786    30875.697    9855.1414    33620.606    49151.342    21547.802    12475.986   -11356.851    79.350599 
   31500    1148.4352   -120.92857    1.0391283   -119.88945   -4616.8679    4.3156522    4.3156522    4.3156522   -4616.8679   -37455.653   -28734.359    52339.408   -22814.206   -7916.3811    18123.932    80.378392 
   31600    1006.9922   -120.79023    0.9111477   -119.87908   -11861.676    4.3242847    4.3242847    4.3242847   -11861.676   -32099.593    -4374.863    889.42654   -32134.071   -3590.8675    36485.351    80.861697 
   31700    1603.6551   -121.31684    1.4510208   -119.86581    31462.261    4.3164043    4.3164043    4.3164043    31462.261    26389.741    21362.835    46634.208    16038.936    2556.5862    14563.674    80.420424 
   31800    1872.8271   -121.55628    1.6945733   -119.86171    26402.075    4.3152442    4.3152442    4.3152442    26402.075    8165.4466    15532.873    55507.904    5463.3534    8432.5284    4014.5619    80.355595 
   31900    1336.2106   -121.08272    1.2090314   -119.87369    12507.853    4.3108508    4.3108508    4.3108508    12507.853    9076.8156    2211.7772    26234.967   -27727.043    -9907.457     35049.65    80.110414 
   32000    1215.4274   -120.97542    1.0997443   -119.87568    25952.106    4.3099887    4.3099887    4.3099887    25952.106    43654.135   -5671.9625    39874.145    -10248.43   -9911.1677    25422.656    80.062359 
   32100    1681.1381   -121.39026     1.521129   -119.86914     18464.58    4.3201808    4.3201808    4.3201808     18464.58     38424.73    27288.798   -10319.788    14246.015    15366.535   -8325.1252    80.631694 
   32200    1648.4366   -121.35294    1.4915401    -119.8614    28579.231    4.3168172    4.3168172    4.3168172    28579.231    52264.713    34896.381    -1423.403    8205.6346    7759.9014    3102.0211    80.443501 
   32300    1431.8798   -121.16599    1.2955949   -119.87039    9464.4585    4.3150482    4.3150482    4.3150482    9464.4585    37880.045   -12430.299    2943.6286   -29184.343   -10422.623    31192.708    80.344647 
   32400    1443.9143   -121.18305     1.306484   -119.87657   -25639.446    4.3172461    4.3172461    4.3172461   -25639.446   -24721.514   -15173.495   -37023.328   -28248.728    11464.758    20528.672    80.467482 
   32500    1423.0444   -121.16952    1.2876005   -119.88192     4222.762     4.296135     4.296135     4.296135     4222.762    2457.9128    38148.412   -27938.039    14374.422      21196.3   -15089.841    79.292804 
   32600    1526.7128   -121.27066    1.3814018   -119.88926   -221.79204    4.2989674    4.2989674    4.2989674   -221.79204     8879.652    16591.191   -26136.219    2571.5528    8679.0974   -23310.333    79.449738 
   32700    1344.0777   -121.10163    1.2161497   -119.88548   -48193.335     4.330255     4.330255     4.330255   -48193.335    -34431.79   -67966.348   -42181.866   -25391.441   -5754.2116    10732.346     81.19708 
   32800    1429.8382   -121.16503    1.2937477   -119.87128   -22439.041    4.3165027    4.3165027    4.3165027   -22439.041   -16277.091   -26064.236   -24975.795   -32494.867   -152.25883    12408.426     80.42592 
   32900    1279.3262   -121.01926    1.1575612    -119.8617    30886.619    4.2909997    4.2909997    4.2909997    30886.619    48283.601    50965.584   -6589.3291    8215.4805    28959.455   -13721.823      79.0088 
   33000    1470.5796   -121.21292    1.3306113   -119.88231   -8409.9931    4.3042112    4.3042112    4.3042112   -8409.9931   -7992.2499   -678.68654   -16559.043   -2451.0203    6231.4623   -12970.584    79.740825 
   33100    1585.9808   -121.31521    1.4350287   -119.88018    6364.1462    4.3104145    4.3104145    4.3104145    6364.1462    56583.021   -47142.604    9652.0218   -27199.065   -8859.5743    7477.8389    80.086092 
   33200    1559.6104    -121.2934    1.4111682   -119.88223    18004.676    4.3077499    4.3077499    4.3077499    18004.676   -13552.467    23832.018    43734.477   -9731.1867    18774.027     3875.072    79.937663 
   33300     903.3324   -120.71384   0.81735414   -119.89649    314.93544    4.3190651    4.3190651    4.3190651    314.93544   -15331.681    37580.967   -21304.479     7740.301    26126.526   -18309.453    80.569238 
   33400    1682.1423   -121.41118    1.5220377   -119.88914   -28519.367    4.3124544    4.3124544    4.3124544   -28519.367   -27125.247   -27203.805   -31229.047    11032.541   -7298.4721   -28129.109    80.199851 
   33500    2172.5867   -121.84423    1.9658021   -119.87842    35478.213    4.2796835    4.2796835    4.2796835    35478.213    20114.685     7676.736    78643.217    368.17226   -12868.451    3527.8393    78.385359 
   33600     1611.791   -121.36763    1.4583823   -119.90925    8107.7435     4.293542     4.293542     4.293542    8107.7435   -9800.4225    36207.729   -2084.0764   -4975.6843    39466.559    17050.465    79.149311 
   33700    1365.9999   -121.12962    1.2359854   -119.89364   -47043.939    4.3289696    4.3289696    4.3289696   -47043.939   -60746.973   -12212.085    -68172.76   -359.31262     34102.72   -1568.3971    81.124796 
   33800    1924.4476   -121.61438    1.7412807    -119.8731    529.76154    4.3117394    4.3117394    4.3117394    529.76154   -22077.109   -14235.779    37902.173    9748.4449    -22785.47   -10326.672    80.159963 
   33900    1666.9479   -121.37748    1.5082895   -119.86919    21910.386    4.2940493    4.2940493    4.2940493    21910.386    5803.3508    13794.709    46133.097    19118.307    5885.7961   -1472.5958    79.177373 
   34000    1547.6509   -121.28643    1.4003471   -119.88608   -9809.5651     4.302238     4.302238     4.302238   -9809.5651   -14845.521    8726.4214   -23309.596   -7402.6615    49731.815    24912.266    79.631206 
   34100    1238.3204   -121.01426    1.1204583    -119.8938    11522.213    4.3160585    4.3160585    4.3160585    11522.213   -15623.484   -3540.6326    53730.755     929.7611    11281.024   -10360.614    80.401097 
   34200    1519.9405   -121.26183    1.3752741   -119.88655   -24183.136    4.3188008    4.3188008    4.3188008   -24183.136   -42620.416   -19768.749   -10160.244    26776.156   -19047.762   -9872.2867    80.554444 
   34300    1276.4115   -121.03736    1.1549239   -119.88244    9279.0631    4.3012567    4.3012567    4.3012567    9279.0631   -13449.977    28478.771    12808.396    12569.451    3752.8768    6965.7195    79.576728 
   34400    1646.6362   -121.36776     1.489911   -119.87785    23478.963    4.3003335    4.3003335    4.3003335    23478.963   -5221.3446    65610.384    10047.849   -13925.369    20492.757   -11488.594      79.5255 
   34500    1536.9925   -121.27511    1.3907031   -119.88441    1770.8078    4.3204223    4.3204223    4.3204223    1770.8078   -20154.497    40811.686   -15344.766    15346.134   -12875.408    767.87922    80.645216 
   34600    807.02879   -120.62037   0.73021661   -119.89016   -22382.938    4.3206597    4.3206597    4.3206597   -22382.938   -67988.169    18026.691   -17187.335    15928.166   -22425.312   -1778.7947    80.658511 
   34700    1097.7098   -120.87917   0.99323093   -119.88594   -3055.1969    4.2982658    4.2982658    4.2982658   -3055.1969   -43682.049    4881.6555    29634.803   -16558.257    9864.1784     7919.133    79.410845 
   34800     1990.417   -121.69186    1.8009712   -119.89089    13301.585    4.2997976    4.2997976    4.2997976    13301.585   -14572.147    62842.303   -8365.4022   -13576.789    3893.0446    11174.208    79.495772 
   34900    1954.1786   -121.65549    1.7681819   -119.88731   -22635.386    4.3180302    4.3180302    4.3180302   -22635.386   -51530.647    24937.623   -41313.134    12734.131   -34233.819   -12082.201    80.511333 
   35000     1422.117   -121.17883    1.2867614   -119.89207    13626.827    4.3014087    4.3014087    4.3014087    13626.827    -40254.26    75650.551    5484.1906   -4035.1716   -17531.603   -7436.0986    79.585167 
   35100    1533.7774   -121.28124    1.3877941   -119.89344    9982.1338    4.2993352    4.2993352    4.2993352    9982.1338   -46779.268    37531.672    39193.998   -24095.101     8581.927    5106.8775    79.470127 
   35200    1650.4306    -121.3834    1.4933443   -119.89005   -20464.924    4.3152335    4.3152335    4.3152335   -20464.924   -52000.924    10793.846   -20187.695   -7001.5121    -27111.31   -7662.6857    80.354999 
   35300    1806.3938   -121.51115    1.6344631   -119.87669   -899.78716    4.3043621    4.3043621    4.3043621   -899.78716   -40974.638    76642.952   -38367.675    5355.9798   -39665.613   -5310.7797    79.749209 
   35400    1538.1285   -121.27671     1.391731   -119.88498    2453.0083    4.3037148    4.3037148    4.3037148    2453.0083   -34185.146    4682.8092    36861.361   -10906.943    4367.3377    922.47846    79.713239 
   35500    1057.9839   -120.84733   0.95728604   -119.89004   -20223.532    4.3120817    4.3120817    4.3120817   -20223.532   -68500.527   -17450.601    25280.532   -9618.2924   -3994.6565    1554.3994    80.179059 
   35600    971.75861   -120.76559   0.87926761   -119.88632    5972.4185    4.3129483    4.3129483    4.3129483    5972.4185   -65745.748    115088.97   -31425.964    13506.234   -38276.593    1600.1259    80.227407 
   35700    1738.2027   -121.43715    1.5727623   -119.86439    11374.935    4.3191256    4.3191256    4.3191256    11374.935   -29685.872    67477.835   -3667.1584    4863.1832   -3690.3019    8207.2273    80.572622 
   35800    1278.0291   -121.02062    1.1563876   -119.86424   -10183.486    4.3205643    4.3205643    4.3205643   -10183.486   -57475.785    26901.661    23.665714   -15175.896     9510.721    13626.774    80.653167 
   35900    774.18256   -120.56669   0.70049665   -119.86619   -34929.406    4.3133445    4.3133445    4.3133445   -34929.406   -77345.782   -33908.306     6465.871    1311.6789   -24387.631    3540.5457    80.249522 
   36000    1792.6522   -121.47714    1.6220294   -119.85511    16398.464    4.2941292    4.2941292    4.2941292    16398.464   -8899.3817    53323.576    4771.1985    12850.775    -1391.159    5284.3155    79.181791 
   36100    1724.2736   -121.43205     1.560159   -119.87189   -4718.0067     4.310483     4.310483     4.310483   -4718.0067   -26850.524    26040.269   -13343.766   -6312.0307    29904.734    10817.827    80.089909 
   36200    935.96136   -120.72073   0.84687751   -119.87386   -14096.622    4.3232186    4.3232186    4.3232186   -14096.622   -70919.214    35437.345   -6807.9978   -17592.412    5003.5269   -104.59151    80.801901 
   36300    1231.6062   -120.97964    1.1143831   -119.86526    3981.1173    4.3149886    4.3149886    4.3149886    3981.1173   -29499.548    51315.558   -9872.6577    -302.5256   -23640.134    12702.277    80.341318 
   36400    1484.0222   -121.20915    1.3427744   -119.86638   -453.08436    4.3073076    4.3073076    4.3073076   -453.08436   -10972.221    54068.421   -44455.453    13090.629    38623.452   -4143.0701    79.913042 
   36500    1280.9118   -121.02902    1.1589959   -119.87003    15230.439    4.3038046    4.3038046    4.3038046    15230.439   -22724.812    75314.454   -6898.3267   -375.07331    48925.386   -8527.4072     79.71823 
   36600    1862.2966   -121.55402    1.6850451   -119.86898   -11046.483    4.3132792    4.3132792    4.3132792   -11046.483   -6302.4338   -10227.814   -16609.202   -13865.694    -27768.29    6666.5305    80.245872 
   36700    1021.1807   -120.80662   0.92398578   -119.88264   -15685.635    4.3175629    4.3175629    4.3175629   -15685.635   -18710.994   -11146.782   -17199.129   -8174.7533    19052.168   -6192.8194    80.485199 
   36800    915.29861   -120.71271   0.82818141   -119.88453    5714.7336    4.3050065    4.3050065    4.3050065    5714.7336    -42864.45    37983.969    22024.682    13286.677    63888.693   -5072.4747    79.785033 
   36900    1946.0269   -121.64278     1.760806   -119.88197    19764.125    4.3005439    4.3005439    4.3005439    19764.125     11149.58    5622.7304    42520.065   -2723.2319     70.80604    5005.1897    79.537173 
   37000    2182.2244   -121.85583    1.9745225   -119.88131    5849.7114    4.3064603    4.3064603    4.3064603    5849.7114   -16889.136   -12717.532    47155.803   -11798.139    -5604.176    2212.6817    79.865892 
   37100    1121.2437   -120.91268    1.0145248   -119.89815   -29120.254    4.3140829    4.3140829    4.3140829   -29120.254   -69585.802    6523.9578   -24298.919    508.75948    70971.045   -5507.6774     80.29074 
   37200    1161.0901   -120.93879    1.0505787   -119.88821   -23797.114     4.311147     4.311147     4.311147   -23797.114   -64270.673   -312.91516   -6807.7542   -5934.1172    45180.644    5085.1696    80.126929 
   37300    2069.6565   -121.74508    1.8726687   -119.87242    11103.778    4.3006515    4.3006515    4.3006515    11103.778   -4106.7714    28849.423    8568.6813    5811.4826   -46058.076     11535.88    79.543143 
   37400    1759.5753     -121.479    1.5921007    -119.8869   -3488.1279    4.3050293    4.3050293    4.3050293   -3488.1279   -33877.297    14496.904    8916.0088    6036.3408    7573.2618   -21067.364    79.786303 
   37500    1266.7354   -121.04329    1.1461688   -119.89712    10307.415    4.3055663    4.3055663    4.3055663    10307.415   -12401.886    38720.209    4603.9238   -10391.578    68634.997   -5262.6533    79.816163 
   37600    1631.1374   -121.36903    1.4758874   -119.89314    9111.6692    4.3115092    4.3115092    4.3115092    9111.6692   -8057.7066   -7912.4952    43305.209    13780.702     8283.859    2012.6372    80.147124 
   37700    1821.7615    -121.5299    1.6483681   -119.88154   -4247.8029    4.3172947    4.3172947    4.3172947   -4247.8029   -6974.9336    15092.282   -20860.757    2293.0629    -45826.48   -387.55586    80.470203 
   37800    1666.3603   -121.38555    1.5077578   -119.87779   -3779.1438    4.3052342    4.3052342    4.3052342   -3779.1438   -12117.914    32164.791   -31384.308   -10135.723    14791.116    12641.267    79.797696 
   37900    1787.6494   -121.49716    1.6175028   -119.87966   -3627.1176     4.305064     4.305064     4.305064   -3627.1176   -29180.249    30281.927    -11983.03     13273.85    58403.848     -1943.74    79.788234 
   38000    1924.8156   -121.61902    1.7416136    -119.8774   -21269.221    4.3148797    4.3148797    4.3148797   -21269.221     -31531.7   -24310.494   -7965.4683   -19459.513    5450.0691    903.58214    80.335235 
   38100    1584.0686    -121.3144    1.4332985    -119.8811   -11402.309    4.3125691    4.3125691    4.3125691   -11402.309   -18855.514   -4068.6646   -11282.747   -10527.832    -33743.74    5465.8113    80.206248 
   38200    1626.7465   -121.34911    1.4719144    -119.8772   -14832.859    4.3072184    4.3072184    4.3072184   -14832.859   -29891.851    32340.161   -46946.887    12953.169    16663.973   -13945.771    79.908075 
   38300    1689.4932   -121.40611     1.528689   -119.87742   -2226.4387    4.3135702    4.3135702    4.3135702   -2226.4387   -15277.044    20944.888    -12347.16   -16164.435    43284.679   -4160.9511    80.262114 
   38400    1312.9707    -121.0677    1.1880035    -119.8797    2826.9714     4.317719     4.317719     4.317719    2826.9714   -11903.266   -16909.761    37293.941    3093.9571   -13497.645    575.26906    80.493928 
   38500    1351.4268   -121.10044    1.2227993   -119.87764   -5502.0772    4.3090769    4.3090769    4.3090769   -5502.0772    3778.1549   -7053.0339   -13231.353    2279.1963   -41175.847     8013.162    80.011558 
   38600    1570.1405   -121.29579    1.4206962   -119.87509   -12733.099     4.309496     4.309496     4.309496   -12733.099   -23967.524    28410.066   -42641.838   -4700.4618     8839.736    5986.0017    80.034907 
   38700    1688.8414   -121.39862    1.5280992   -119.87052   -3621.1223    4.3074761    4.3074761    4.3074761   -3621.1223    -13964.13    8525.2153   -5424.4525    14000.283    24395.125   -11807.286    79.922419 
   38800    1215.0658   -120.98377    1.0994171   -119.88436   -4686.6188    4.3045622    4.3045622    4.3045622   -4686.6188   -46641.726   -10828.676    43410.545    16525.125   -25803.554    6251.3785    79.760335 
   38900    874.42499   -120.69151   0.79119811   -119.90032   -13867.692    4.3193969    4.3193969    4.3193969   -13867.692   -81596.003    36694.555    3298.3723   -4242.6947   -46923.719    -4675.014    80.587806 
   39000    1936.5686   -121.63111     1.752248   -119.87886   -12880.215    4.3147735    4.3147735    4.3147735   -12880.215   -34959.331    2150.3085   -5831.6233   -8823.9652    -12692.93   -10856.266    80.329303 
   39100    2061.2462   -121.73031    1.8650589   -119.86525    26537.143    4.2901189    4.2901189    4.2901189    26537.143    4599.8493    30641.979    44369.602    1388.5915    5520.5107    752.95556    78.960152 
   39200    863.50282   -120.68336    0.7813155   -119.90204   -7685.6488     4.309639     4.309639     4.309639   -7685.6488   -73320.943    11024.667    39239.331    7480.5044   -47070.584   -4805.7549    80.042873 
   39300    1162.8447   -120.94255    1.0521663   -119.89039   -32850.798    4.3251848    4.3251848    4.3251848   -32850.798   -82459.838   -2924.6727   -13167.884   -7562.4993   -30823.876     5966.605    80.912201 
   39400    1857.1512   -121.54883    1.6803894   -119.86844    14143.617    4.3046768    4.3046768    4.3046768    14143.617   -5598.7471    16745.366    31284.231   -6358.4068     33576.61   -8014.9674    79.766705 
   39500    1485.7116   -121.22423    1.3443031   -119.87993    12604.471     4.300645     4.300645     4.300645    12604.471   -18759.024     30638.14    25934.297    4254.0166    12433.447   -14297.348    79.542786 
   39600    1339.2784   -121.09768    1.2118073   -119.88587    1780.2104    4.3072309    4.3072309    4.3072309    1780.2104   -37562.762    34951.538    7951.8556   -14192.549   -30818.851    -7139.155    79.908772 
   39700    1390.8515   -121.14512    1.2584717   -119.88664   -11403.155    4.3093038    4.3093038    4.3093038   -11403.155   -29042.352   -13211.027    8043.9138   -12992.488   -8374.2848   -9603.9847    80.024199 
   39800    935.79139   -120.73845   0.84672371   -119.89172   -18902.399    4.3148288    4.3148288    4.3148288   -18902.399   -49676.406    22088.353   -29119.144   -2596.5916    52169.418    9477.9839    80.332395 
   39900    1777.9546   -121.47756    1.6087307   -119.86883   -20781.304    4.3157024    4.3157024    4.3157024   -20781.304    -50083.99    13788.921   -26048.844    6670.8008      21340.3   -825.32552    80.381196 
   40000    1687.8401   -121.38549    1.5271932    -119.8583    3436.3035    4.3174132    4.3174132    4.3174132    3436.3035   -12072.958     10914.22    11467.649    6069.4615   -23206.507   -15263.559    80.476826 
   40100    757.13837   -120.55619   0.68507471   -119.87112   -21384.592    4.3192306    4.3192306    4.3192306   -21384.592   -59565.149    25483.461   -30072.088    -7562.811    41007.415    14037.023    80.578499 
   40200     1002.081   -120.77336   0.90670396   -119.86666   -8343.4452    4.3084954    4.3084954    4.3084954   -8343.4452   -55583.539    42078.659   -11525.456   -408.33051    45622.757    6087.7566    79.979173 
   40300    1850.1222   -121.53842    1.6740295   -119.86439    12523.997    4.3095464    4.3095464    4.3095464    12523.997   -14241.808    50613.281    1200.5164    12533.449   -13082.581   -5607.8446    80.037713 
   40400    1668.3375   -121.38446    1.5095468   -119.87492   -3929.1071    4.3170104    4.3170104    4.3170104   -3929.1071    -15689.06    50962.001   -47060.263    3310.6407     23970.85   -10144.762    80.454305 
   40500    1274.1565   -121.03416    1.1528836   -119.88128   -16230.581    4.3121894    4.3121894    4.3121894   -16230.581   -58298.001    25056.907   -15450.649   -14386.419    46106.698    4201.3864    80.185064 
   40600    1213.3446   -120.98013    1.0978597   -119.88227   -12918.586    4.3054203    4.3054203    4.3054203   -12918.586   -59318.032    -17194.29    37756.564     550.8797   -7243.7179    8990.8209    79.808044 
   40700    1513.6594   -121.25207    1.3695908   -119.88248   -6641.4578    4.3062793    4.3062793    4.3062793   -6641.4578    -49769.83    44603.068   -14757.611    20687.548    547.84851   -1703.4327    79.855821 
   40800    1902.0305   -121.60505    1.7209972   -119.88406   -2170.5639    4.3064767    4.3064767    4.3064767   -2170.5639   -35838.899    56498.053   -27170.845    2399.0381    24774.873    8934.8555    79.866804 
   40900    1400.6466   -121.15395    1.2673345   -119.88661    40713.287    4.3008215    4.3008215    4.3008215    40713.287   -7653.6394    85657.732    44135.769   -20454.521    16401.546    6221.2035    79.552579 
   41000    1215.7482   -120.99732    1.1000346   -119.89728   -9918.1569       4.3199       4.3199       4.3199   -9918.1569   -42656.234   -3625.9875    16527.751   -15679.817   -7091.4227    17386.058     80.61597 
   41100    1639.2303   -121.35679      1.48321   -119.87358   -25587.835     4.327147     4.327147     4.327147   -25587.835    -53227.27   -2672.1663    -20864.07    15372.021   -11350.421    4048.6355    81.022369 
   41200    2044.3345   -121.71047    1.8497568   -119.86071    31515.322     4.296495     4.296495     4.296495    31515.322    51307.127    33057.208    10181.629    266.64374    9023.1865   -16069.595    79.312739 
   41300    1669.3239   -121.38863    1.5104393   -119.87819    27365.783    4.2880974    4.2880974    4.2880974    27365.783    28703.035     19237.22    34157.095   -26991.176    10889.587    1987.6687    78.848591 
   41400    1329.7052   -121.09893    1.2031452   -119.89579    1450.4638    4.3085161    4.3085161    4.3085161    1450.4638    -13053.45   -1992.4946    19397.337   -2228.6627    1235.5408    7196.0355    79.980321 
   41500     1645.684   -121.37494    1.4890495   -119.88589   -11283.364    4.3287229    4.3287229    4.3287229   -11283.364   -29161.182    12554.705   -17243.616    18832.408    -8870.509   -2212.3678    81.110927 
   41600    1668.2115   -121.37537    1.5094328   -119.86594   -3708.0101    4.3212611    4.3212611    4.3212611   -3708.0101    18728.613   -14224.722   -15627.922    10888.362    1819.4261   -33058.507    80.692194 
   41700    1390.1411   -121.11306    1.2578289   -119.85523    24471.745    4.2944651    4.2944651    4.2944651    24471.745    12080.593    13642.885    47691.756   -23879.463    16580.905   -25210.812    79.200372 
   41800    1363.3489    -121.1029    1.2335867   -119.86932    10431.069    4.2993576    4.2993576    4.2993576    10431.069   -18785.464   -36.775347    50115.446   -30055.457    -853.9346    20019.598     79.47137 
   41900    1334.5026   -121.08156     1.207486   -119.87407   -20580.111    4.3186403    4.3186403    4.3186403   -20580.111   -16396.727   -33922.067   -11421.538    4135.2421   -16629.092   -27300.384    80.545466 
   42000    1237.7428   -120.99566    1.1199357   -119.87573   -29316.123    4.3172231    4.3172231    4.3172231   -29316.123   -1722.7921    -34539.43   -51686.146   -311.25014    3480.3706   -59116.065    80.466195 
   42100    1220.5628   -120.97926    1.1043909   -119.87487   -1391.7342    4.3056733    4.3056733    4.3056733   -1391.7342   -10239.595    17485.159   -11420.767   -37240.691    2128.9832    15098.231    79.822114 
   42200    1588.0949   -121.30702    1.4369416   -119.87008    4960.8947    4.2944113    4.2944113    4.2944113    4960.8947    2343.3844   -6954.6625    19493.962    -16529.51   -5955.2937    8097.3561      79.1974 
   42300    1192.3901   -120.96775    1.0788996   -119.88885   -3199.1134    4.3033911    4.3033911    4.3033911   -3199.1134    31315.144    24111.054   -65023.538    8218.8552   -8935.1986   -53719.672    79.695254 
   42400    1474.7763   -121.22101    1.3344086    -119.8866   -14998.191     4.322645     4.322645     4.322645   -14998.191    1577.6507    18635.902   -65208.127    11140.762   -89.168928   -30813.315    80.769744 
   42500    2212.0639   -121.86027    2.0015219   -119.85875   -4584.1419    4.3153916    4.3153916    4.3153916   -4584.1419   -10355.117    2503.8289   -5901.1382   -14675.415    9090.4466    1489.7765    80.363832 
   42600    1581.3687   -121.28615    1.4308557   -119.85529    16153.465    4.3103828    4.3103828    4.3103828    16153.465    58235.094    6330.4601   -16105.158   -4394.8572    772.02044    -35063.27    80.084324 
   42700    1692.3072   -121.38308    1.5312351   -119.85185   -32303.754    4.3242737    4.3242737    4.3242737   -32303.754    19356.458   -47981.302   -68286.417    16665.996   -14149.372   -48136.508    80.861077 
   42800    1923.0749   -121.59526    1.7400386   -119.85522     1916.666    4.3049906    4.3049906    4.3049906     1916.666    18241.769    -3274.223   -9217.5483    3878.8082   -6922.1393    2609.3183    79.784152 
   42900     1441.087   -121.17421    1.3039258   -119.87029     31590.54    4.2971939    4.2971939    4.2971939     31590.54    18177.786    67176.825    9417.0092    3473.8805    1016.4557    2833.7174    79.351446 
   43000    1039.3944   -120.83489   0.94046594   -119.89442   -13975.367    4.3289828    4.3289828    4.3289828   -13975.367      39446.9   -2870.2814   -78502.719   -4645.8009   -11888.826    -57931.49    81.125534 
   43100    1555.4311   -121.27011    1.4073867   -119.86273   -14485.114    4.3290691    4.3290691    4.3290691   -14485.114    16571.506    9192.4642   -69219.311    9458.9651   -1277.6279   -34791.869     81.13039 
   43200    2003.6302   -121.64762    1.8129267   -119.83469    34190.086    4.2921384    4.2921384    4.2921384    34190.086    7435.5311    57760.509    37374.219     19183.05    11058.713    16806.222    79.071714 
   43300    923.12493   -120.71276   0.83526284   -119.87749   -16678.759    4.3082705    4.3082705    4.3082705   -16678.759    39876.175   -71303.378   -18609.074    2351.4335    3144.1072   -61671.846    79.966649 
   43400    1351.6967   -121.09443    1.2230436   -119.87138   -43828.724      4.32539      4.32539      4.32539   -43828.724    15194.998   -89530.683   -57150.487    1111.1077    8096.4401    -70669.49    80.923715 
   43500    2659.5366   -122.25543    2.4064046   -119.84903    16681.958    4.2961315    4.2961315    4.2961315    16681.958    16967.939   -6431.8855    39509.821    1767.9221    9231.1048    26846.546     79.29261 
   43600    1871.3298   -121.56689    1.6932186   -119.87368   -19309.133    4.3017097    4.3017097    4.3017097   -19309.133     12049.02   -53209.173   -16767.245    8729.4957    6703.5593   -38265.729    79.601876 
   43700    1200.6845   -120.97508    1.0864046   -119.88867   -39818.431    4.3118345    4.3118345    4.3118345   -39818.431     12190.57   -82623.924   -49021.939   -133.24944    559.00364   -81870.721    80.165268 
   43800     1831.019   -121.53062    1.6567445   -119.87387    19031.129    4.2965557    4.2965557    4.2965557    19031.129    71204.477   -12203.641   -1907.4489   -4720.7521   -3227.2509    10127.257      79.3161 
   43900    1761.8043   -121.47809    1.5941176   -119.88398   -9689.7713    4.3138255    4.3138255    4.3138255   -9689.7713    22004.823   -29533.962   -21540.175    5550.3735    6037.3894    16532.476    80.276371 
   44000    1255.9977   -121.02081    1.1364531   -119.88436    -25294.66    4.3160428    4.3160428    4.3160428    -25294.66    29021.207   -41632.756   -63272.431    5098.4799    3869.1174   -45800.288    80.400216 
   44100    1537.1144   -121.26225    1.3908134   -119.87144    42932.972    4.2850567    4.2850567    4.2850567    42932.972    76156.279    40600.163    12042.474   -5118.4635    465.06951   -35251.496    78.680971 
   44200    1873.6576   -121.57958    1.6953248   -119.88426    3678.1853    4.3031695    4.3031695    4.3031695    3678.1853    15727.448    3205.9957   -7898.8877   -580.92532   -2610.5888    10967.225     79.68294 
   44300    1178.1809   -120.94249    1.0660429   -119.87644    -26111.31    4.3238475    4.3238475    4.3238475    -26111.31    17729.026   -19621.292   -76441.665    3460.3154    4327.4852    -8823.794    80.837171 
   44400    843.30797   -120.63412   0.76304277   -119.87108    29702.424    4.3009506    4.3009506    4.3009506    29702.424    60598.806     79200.26   -50691.794    5450.0563    6089.8253   -26553.006     79.55974 
   44500    1478.2501   -121.21216    1.3375518    -119.8746    10433.922      4.29535      4.29535      4.29535    10433.922    24466.738    7557.5501   -722.52295   -14995.898   -4129.3172    1538.1355    79.249342 
   44600    1370.9048   -121.12667    1.2404235   -119.88625   -4185.1163    4.3046532    4.3046532    4.3046532   -4185.1163   -23163.968    22203.598    -11594.98   -27400.632   -4591.8154    7443.0735    79.765393 
   44700    1170.8162   -120.94883    1.0593791   -119.88945   -6712.9029    4.3090686    4.3090686    4.3090686   -6712.9029    10491.683   -5968.0598   -24662.332    1771.5844   -1045.4933   -17802.268    80.011095 
   44800    1354.2788   -121.11397    1.2253799   -119.88859   -13464.436    4.3123162    4.3123162    4.3123162   -13464.436    40875.505   -36273.848   -44994.964    4096.6717    10641.587   -3970.9011    80.192139 
   44900    1867.4799   -121.57319    1.6897351   -119.88345   -6505.0265    4.3075212    4.3075212    4.3075212   -6505.0265   -7853.6702   -11312.129   -349.28043   -26114.981   -2009.0149    9574.1172    79.924929 
   45000     1741.455   -121.46154    1.5757051   -119.88584    18586.847    4.2987241    4.2987241    4.2987241    18586.847   -23860.101     36658.21    42962.433   -22146.109   -1754.0769   -679.48378    79.436248 
   45100    1738.3482   -121.46771     1.572894   -119.89481   -3295.1623    4.3016373    4.3016373    4.3016373   -3295.1623    19323.344    8793.9772   -38002.808    4454.7278    774.10833   -29196.086    79.597853 
   45200    1234.6996   -121.01831    1.1171822   -119.90113   -9389.6379    4.3114003    4.3114003    4.3114003   -9389.6379    18928.532   -26714.275   -20383.171   -692.47401   -3403.4124   -22425.238    80.141053 
   45300    1678.2921    -121.4102    1.5185539   -119.89164   -14910.164    4.3120391    4.3120391    4.3120391   -14910.164   -25259.319   -28672.905    9201.7327   -22122.408   -4216.9174    15462.646    80.176681 
   45400    1970.2842   -121.66454    1.7827545   -119.88178   -4828.3261    4.3114325    4.3114325    4.3114325   -4828.3261   -23600.951   -14442.311    23558.284   -21194.824   -7945.4767   -15094.625     80.14285 
   45500    1749.7287   -121.46118    1.5831913   -119.87799    -7364.787    4.3095856    4.3095856    4.3095856    -7364.787    24367.079   -27233.332   -19228.108    7417.0245    3345.4644   -32165.566    80.039901 
   45600    1300.3324   -121.05714    1.1765681   -119.88057   -8396.4122    4.3065184    4.3065184    4.3065184   -8396.4122    30992.204   -43006.998   -13174.442   -6445.4824    8358.2024    21481.604    79.869123 
   45700    1269.0424   -121.03425    1.1482562   -119.88599    4345.9908    4.3065315    4.3065315    4.3065315    4345.9908   -10092.138    16788.529    6341.5815   -28073.443    572.05183    35578.774    79.869851 
   45800    1519.2405   -121.25996    1.3746408   -119.88532    17122.572    4.3108127    4.3108127    4.3108127    17122.572    3516.7892    49972.009   -2121.0822    -7145.277   -13728.569   -233.47207    80.108289 
   45900    1520.9801   -121.25331    1.3762147   -119.87709    17066.821    4.3173781    4.3173781    4.3173781    17066.821    11143.332    40879.518    -822.3871    8798.5599   -1358.8407    9094.9281    80.474865 
   46000    969.78366   -120.75745   0.87748063   -119.87997    20520.484    4.3155771    4.3155771    4.3155771    20520.484    24830.601    36963.202   -232.35018   -17568.355    15722.322    35159.422    80.374195 
   46100    702.23072   -120.50972   0.63539311   -119.87433    30214.096    4.3139913    4.3139913    4.3139913    30214.096    29628.829    58252.812    2760.6456   -14372.959   -5780.2127    11350.874    80.285624 
   46200    1104.7252   -120.86563   0.99957854   -119.86605    14485.397    4.3232528    4.3232528    4.3232528    14485.397    11654.308    58656.034   -26854.152    21812.313   -25412.567   -1724.5887    80.803822 
   46300    1740.5094    -121.4298    1.5748495   -119.85495    3281.3629    4.3150631    4.3150631    4.3150631    3281.3629   -3162.9012     28836.43    -15829.44   -4080.5342     7506.484     5749.987    80.345482 
   46400    1182.2937   -120.93237    1.0697642   -119.86261     30651.38    4.2933051    4.2933051    4.2933051     30651.38    29102.459    46281.376    16570.305    -23547.29   -3477.2623    19697.071    79.136214 
   46500    652.61978   -120.48744   0.59050409   -119.89694    4976.2916    4.3051252    4.3051252    4.3051252    4976.2916    11174.444    28040.539   -24286.108   -12127.442   -37787.498    11732.281    79.791635 
   46600    1334.5529   -121.09178    1.2075315   -119.88425   -15146.286    4.3235913    4.3235913    4.3235913   -15146.286   -13417.229    14434.587   -46456.216    17067.714   -11346.157    2935.5572    80.822799 
   46700    1816.6349   -121.51019    1.6437294   -119.86646    24167.605    4.3054665    4.3054665    4.3054665    24167.605    31426.946    28120.932    12954.936    3256.5918    12706.054   -1842.7109    79.810612 
   46800    1459.5318   -121.19706    1.3206151   -119.87645    7131.3679    4.2986237    4.2986237    4.2986237    7131.3679   -6306.5333    44896.466   -17195.829   -25319.751   -32601.781    7270.5026    79.430679 
   46900     1212.876   -120.98525    1.0974357   -119.88781    -2701.633    4.3065754    4.3065754    4.3065754    -2701.633   -28181.322    43639.399   -23562.977   -6769.8574   -36779.939     16871.18    79.872293 
   47000    1762.7614   -121.47679    1.5949836   -119.88181     5856.825    4.3021617    4.3021617    4.3021617     5856.825    27386.459    14369.837   -24185.821   -1345.9994    9324.5616   -13623.004     79.62697 
   47100      1289.16   -121.05595    1.1664591   -119.88949   -4878.2301    4.3104673    4.3104673    4.3104673   -4878.2301     19518.35    26805.703   -60958.743   -2642.6851    -17393.94   -31534.078    80.089035 
   47200    1587.4145   -121.31409     1.436326   -119.87776   -15068.126    4.3179975    4.3179975    4.3179975   -15068.126   -32335.226    39318.219   -52187.371   -4966.3936   -40576.234   -10173.507    80.509505 
   47300    2089.9842   -121.76003    1.8910617   -119.86896   -5236.3178     4.309026     4.309026     4.309026   -5236.3178   -19688.086    24213.502    -20234.37    2850.0762    18568.404    17514.879    80.008724 
   47400    1756.0825   -121.46729    1.5889404   -119.87835   -12422.078    4.2939753    4.2939753    4.2939753   -12422.078    13586.729   -13041.313    -37811.65   -1428.4063    27621.662   -21913.329    79.173279 
   47500    1549.6854   -121.28894     1.402188   -119.88675    5337.3149    4.2900886    4.2900886    4.2900886    5337.3149    37023.033    10073.325   -31084.413   -4721.0537   -29889.046   -30497.846     78.95848 
   47600    1328.2274   -121.10442    1.2018081   -119.90261   -7891.5679    4.3147096    4.3147096    4.3147096   -7891.5679   -22950.829    49669.286    -50393.16     -1464.95   -2955.2844   -522.14084    80.325737 
   47700    1463.8031   -121.21803    1.3244798   -119.89355   -31040.395    4.3212882    4.3212882    4.3212882   -31040.395   -52985.031    22954.586    -63090.74   -10805.644     51825.34    4525.2627    80.693715 
   47800    1995.8907   -121.68705    1.8059239   -119.88113    24895.703    4.2886948    4.2886948    4.2886948    24895.703    45809.894    18035.655     10841.56    8535.1477    17161.143   -10466.943    78.881545 
   47900    2056.8251   -121.74262    1.8610586   -119.88156    34443.046    4.2857355    4.2857355    4.2857355    34443.046    63773.772    27031.853    12523.515    6969.4659   -9050.1351   -16868.885    78.718369 
   48000    840.42233   -120.67054   0.76043179   -119.91011   -17329.982    4.3125847    4.3125847    4.3125847   -17329.982   -11438.064    31450.118       -72002    -7634.692    52992.155   -515.08126    80.207118 
   48100    430.44084    -120.2935   0.38947192   -119.90403   -6224.8616    4.3173715    4.3173715    4.3173715   -6224.8616      30194.8    31022.669   -79892.054    2926.1465    28737.829    7452.1588    80.474493 
   48200     1618.621   -121.34673    1.4645623   -119.88217   -8006.1539    4.3113631    4.3113631    4.3113631   -8006.1539    22407.882   -4495.1068   -41931.237   -6380.6146   -32795.087    10733.628     80.13898 
   48300    1646.0568   -121.36437    1.4893868   -119.87498    6013.9783    4.2995608    4.2995608    4.2995608    6013.9783    38269.363    5587.0903   -25814.518   -4986.7629    11427.528   -6002.6502    79.482639 
   48400    1455.8424   -121.19847    1.3172768   -119.88119    13650.699     4.290455     4.290455     4.290455    13650.699    15264.918     52742.38     -27055.2    11817.564    41847.484    1685.6139    78.978714 
   48500    968.19461   -120.77664   0.87604283    -119.9006   -9134.0967    4.3126135    4.3126135    4.3126135   -9134.0967   -12506.937    46785.748   -61681.101   -7854.1504   -25232.938    16122.993    80.208723 
   48600    1054.0511    -120.8428   0.95372756   -119.88907   -34877.397    4.3197203    4.3197203    4.3197203   -34877.397     -11144.3     -9091.76    -84396.13    3742.1049   -47830.785    5690.5611    80.605908 
   48700    1486.7648   -121.22661    1.3452561   -119.88136    16125.098    4.2905348    4.2905348    4.2905348    16125.098    64328.846    8409.0655   -24362.616    1213.8521    12947.326   -24962.769    78.983118 
   48800    1948.7809   -121.64792    1.7632979   -119.88462    14979.919    4.2906316    4.2906316    4.2906316    14979.919    18000.573    38101.105   -11161.921   -12012.172   -9535.2382    -16972.62    78.988465 
   48900    1841.7977    -121.5577    1.6664973    -119.8912   -11179.732    4.3113172    4.3113172    4.3113172   -11179.732   -24714.088     41320.33   -50145.438    12555.232   -39856.219    13898.504    80.136421 
   49000    1359.2104    -121.1188    1.2298421   -119.88896   -1209.5879    4.3145435    4.3145435    4.3145435   -1209.5879    31145.986    26138.486   -60913.235     3014.448   -18678.878   -15241.329    80.316457 
   49100    1334.7054   -121.09222    1.2076695   -119.88455    -16909.68    4.3154913    4.3154913    4.3154913    -16909.68    50677.289   -32176.641   -69229.689    2038.8776    1994.0239   -27958.955    80.369404 
   49200    1858.7394   -121.55696    1.6818265   -119.87513    2917.1559    4.2977838    4.2977838    4.2977838    2917.1559    9779.5364    24175.907   -25203.976   -1727.8889    2199.1541    4382.9476    79.384132 
   49300    2230.1269   -121.89019    2.0178657   -119.87232    27497.293    4.2777499    4.2777499    4.2777499    27497.293    12265.617    50848.158    19378.103   -14669.095    206.30384   -2701.0454    78.279164 
   49400    1380.3277   -121.15793    1.2489495   -119.90898   -3660.6243    4.3010312    4.3010312    4.3010312   -3660.6243    18585.161   -3493.6223   -26073.412   -2268.4786   -27.304472   -49352.901    79.564214 
   49500    1052.1336   -120.85637   0.95199257   -119.90438   -24461.943    4.3168975    4.3168975    4.3168975   -24461.943    20100.806    -11441.95   -82044.686    3805.6229    13980.157    -11178.34    80.447991 
   49600    1581.9801   -121.32829    1.4314089   -119.89688    10112.608    4.2969865    4.2969865    4.2969865    10112.608    20164.512    38383.828   -28210.515     539.0893    21596.391    42471.746    79.339956 
   49700    2203.2487   -121.87961    1.9935457   -119.88607    16275.572    4.2898021    4.2898021    4.2898021    16275.572    3175.0921     44033.73    1617.8938   -15121.444     5042.349   -5122.4882    78.942661 
   49800    2154.8076   -121.83813    1.9497152   -119.88841    -16890.32    4.3072735    4.3072735    4.3072735    -16890.32    14178.146   -13201.435   -51647.672   -10728.506    -9428.515   -29078.484    79.911143 
   49900    1351.2155   -121.11537    1.2226081   -119.89276   -9931.2184    4.3089588    4.3089588    4.3089588   -9931.2184    34647.582    -10525.85   -53915.387    4411.0693    5241.9261    24457.793    80.004979 
   50000    1035.4557   -120.82694   0.93690209   -119.89004    620.53976    4.3038916    4.3038916    4.3038916    620.53976    11533.713     31531.04   -41203.133   -1312.1505    24945.018    30180.087    79.723061 
   50100    1647.0273   -121.37441    1.4902649   -119.88414   -11891.462    4.3073563    4.3073563    4.3073563   -11891.462    265.35714    22216.823   -58156.566   -811.22274   -7740.1923   -17692.466    79.915755 
   50200    1740.1257   -121.45053    1.5745023   -119.87603    3539.3289    4.3020872    4.3020872    4.3020872    3539.3289    29178.645    35551.756   -54112.415   -4005.2031   -18765.373    10751.067    79.622833 
   50300    1389.7585   -121.13945    1.2574827   -119.88197    3131.7843    4.3050691    4.3050691    4.3050691    3131.7843    25720.099    21173.032   -37497.779   -3625.5734    7294.5615    32365.263    79.788514 
   50400    885.60556   -120.69107   0.80131452   -119.88976   -17349.924    4.3095751    4.3095751    4.3095751   -17349.924   -5307.7422    5243.3035   -51985.334    4696.8679    19603.712    -2685.667    80.039314 
   50500     753.4979    -120.5815   0.68178073   -119.89971   -7643.6621    4.2903265    4.2903265    4.2903265   -7643.6621   -12772.631    57119.007   -67277.362   -4200.3423   -21838.386   -16438.441    78.971616 
   50600    1591.8295   -121.33427    1.4403208   -119.89395    22045.877    4.2857853    4.2857853    4.2857853    22045.877    42233.325    53817.277   -29912.972    10854.264   -27259.843   -4900.8001    78.721114 
   50700     1988.623   -121.69065    1.7993479    -119.8913   -4816.4376    4.3115313    4.3115313    4.3115313   -4816.4376    19530.134    3980.9904   -37960.437    -1147.658    15520.495    4049.8818     80.14836 
   50800    1094.4192   -120.89051   0.99025347   -119.90026   -11873.564    4.3113637    4.3113637    4.3113637   -11873.564   -40139.533    64313.384   -59794.543   -5298.3311    8144.7228   -1830.9154    80.139012 
   50900    1056.5624   -120.84239   0.95599988   -119.88639    12800.168    4.2942222    4.2942222    4.2942222    12800.168    7062.0589    70505.431   -39166.986    15916.028    -27242.15    -22802.89    79.186937 
   51000     2002.007   -121.68755     1.811458   -119.87609    8639.6865    4.2996771    4.2996771    4.2996771    8639.6865    38877.504    22541.228   -35499.674   -11343.259   -11553.977   -6569.9021    79.489089 
   51100    1560.6575   -121.29613    1.4121157   -119.88402   -2671.2067    4.3071741    4.3071741    4.3071741   -2671.2067   -15459.994    39302.436   -31856.062   -10128.232    15861.936    32790.462     79.90561 
   51200    1243.1769   -121.01611    1.1248526   -119.89126    -5277.877    4.3038978    4.3038978    4.3038978    -5277.877   -5210.7482    7064.8286   -17687.711   -8205.2432   -14974.579    12261.901    79.723405 
   51300    2111.1056   -121.79469    1.9101727   -119.88452     -2162.52    4.3041269    4.3041269    4.3041269     -2162.52    -13767.09    13003.331    -5723.801     10555.27   -24642.721   -15930.369    79.736137 
   51400    2276.0249   -121.94055    2.0593951   -119.88116    8352.0341    4.3034826    4.3034826    4.3034826    8352.0341    6459.8571    41255.537   -22659.292   -2434.8843     3586.094    7140.6152    79.700336 
   51500    1506.9951    -121.2593    1.3635608   -119.89574    10466.508    4.2912149    4.2912149    4.2912149    10466.508    19900.096    23066.468   -11567.041   -16541.222    13987.957    16230.324    79.020685 
   51600    1119.3008   -120.92111    1.0127669   -119.90834     1987.363    4.2992626    4.2992626    4.2992626     1987.363   -14587.371    27634.349   -7084.8887   -3457.7673   -4529.2524    9845.4287    79.466102 
   51700    1625.9591   -121.36074     1.471202   -119.88954   -14833.097    4.3180328    4.3180328    4.3180328   -14833.097   -4598.2787    12173.889   -52074.902    10800.383    -12892.45   -24139.793     80.51148 
   51800    1503.7312   -121.23991    1.3606075    -119.8793    3366.4156    4.3056151    4.3056151    4.3056151    3366.4156    38260.084    32531.997   -60692.835    18941.927    19882.535   -30891.181    79.818878 
   51900    1580.4298   -121.30442    1.4300061   -119.87442    2713.7046    4.2915898    4.2915898    4.2915898    2713.7046   -7687.8828    40343.292   -24514.295   -30300.067    5500.2067    12807.113    79.041398 
   52000    1304.8423   -121.06967    1.1806487   -119.88903   -10443.711    4.2995331    4.2995331    4.2995331   -10443.711   -16119.457    14582.246   -29793.922   -19890.907   -19629.917   -3844.2041    79.481102 
   52100    1248.2396   -121.01918    1.1294335   -119.88974   -16725.228    4.3110195    4.3110195    4.3110195   -16725.228    15263.296   -4350.5225   -61088.458   -2812.0056   -2900.4085   -46598.527    80.119821 
   52200    1411.2925   -121.16231    1.2769671   -119.88534   -14609.346    4.3141326    4.3141326    4.3141326   -14609.346    20240.805    10100.831   -74169.674     4859.399    12420.831   -23821.802    80.293517 
   52300    1497.2683   -121.24229    1.3547598   -119.88753    1699.1839    4.2933547    4.2933547    4.2933547    1699.1839    -19361.35    76047.525   -51588.624    7268.8813    1745.4557    24706.047    79.138952 
   52400    922.61294   -120.72718   0.83479958   -119.89238    16969.897    4.2814536    4.2814536    4.2814536    16969.897    12903.867    61648.102    -23642.28   -30123.648   -25130.771   -17436.124    78.482664 
   52500    1250.1287   -121.03831    1.1311427   -119.90717   -11230.952    4.3094969    4.3094969    4.3094969   -11230.952    23387.338   -16318.161   -40762.034   -21787.361    3514.6888   -39159.828    80.034955 
   52600    1650.3398   -121.37159    1.4932621   -119.87833   -19191.573    4.3232583    4.3232583    4.3232583   -19191.573    5404.4286    4678.4446   -67657.593    5889.0551     4523.758    290.30218    80.804128 
   52700    1376.8126   -121.12479    1.2457689   -119.87902    1364.2883    4.2971253    4.2971253    4.2971253    1364.2883    11067.583     39947.51   -46922.228    125.50177   -34621.564    20788.921    79.347646 
   52800    1046.6776   -120.82858   0.94705593   -119.88152    11539.786    4.2820385    4.2820385    4.2820385    11539.786    18832.218    15901.563   -114.42348   -23334.848   -23339.764   -9693.2837    78.514831 
   52900    1385.3173   -121.14862    1.2534642   -119.89516   -12412.844    4.2946435    4.2946435    4.2946435   -12412.844   -8243.3811   -40700.714    11705.564   -22878.471    3604.9647   -18484.536    79.210242 
   53000    1573.7535   -121.31718    1.4239652   -119.89322   -10748.307    4.3124652    4.3124652    4.3124652   -10748.307   -646.99657   -18482.637   -13115.287    26126.466     2596.516    12003.263    80.200449 
   53100    1886.1593   -121.58336    1.7066366   -119.87673   -22017.436    4.3182792    4.3182792    4.3182792   -22017.436   -10858.667   -15890.344   -39303.299    9737.9713   -19931.957    5412.2058    80.525264 
   53200    1420.0318   -121.16151    1.2848746   -119.87664    5069.4894    4.2986884    4.2986884    4.2986884    5069.4894    26470.064   -11919.737    658.14138   -22289.563    3778.7874   -21306.557    79.434269 
   53300    875.21176   -120.67645   0.79190999   -119.88454    14783.713    4.2904081    4.2904081    4.2904081    14783.713    47434.686   -39525.886    36442.338    19943.835      10950.5   -12211.108    78.976126 
   53400    1777.1634   -121.49637    1.6080148   -119.88836   -8060.1857    4.3046133    4.3046133    4.3046133   -8060.1857    9863.4791   -47073.891    13029.855    26494.719   -3018.2473    15159.604    79.763175 
   53500    2409.4273   -122.05503    2.1801005   -119.87493   -4063.9587    4.3095743    4.3095743    4.3095743   -4063.9587    33155.339   -14678.695    -30668.52   -872.98479    5143.9238   -11538.221    80.039272 
   53600     1752.168   -121.46954    1.5853984   -119.88414   -11925.858    4.3066392    4.3066392    4.3066392   -11925.858    20447.359   -41761.719   -14463.214    5937.0307    2001.3457    -30169.08    79.875847 
   53700    1370.4744   -121.12969    1.2400341   -119.88966    2712.2235    4.2928814    4.2928814    4.2928814    2712.2235      14508.5   -32252.235    25880.405    25813.901    18154.056   -1717.8334    79.112786 
   53800    1440.1449   -121.19568    1.3030734   -119.89261    16189.803    4.2926232    4.2926232    4.2926232    16189.803    47133.191   -9021.5641    10457.784    7187.6501    10310.732    7389.3342    79.098512 
   53900     1353.279   -121.12384    1.2244753   -119.89937   -21259.693    4.3128015    4.3128015    4.3128015   -21259.693    26347.247   -26468.641   -63657.684   -23012.305    -19746.09   -30880.643    80.219214 
   54000    1311.2765    -121.0847    1.1864706   -119.89823   -6014.1026    4.3025782    4.3025782    4.3025782   -6014.1026    55784.755   -23205.665   -50621.398    2453.0304   -12815.287   -34698.084    79.650099 
   54100    2059.3448   -121.74566    1.8633385   -119.88232    20049.459    4.2827401    4.2827401    4.2827401    20049.459    36895.814   -2625.3308    25877.894    20107.783    3175.9566    8619.9263    78.553433 
   54200    1566.0417   -121.31774    1.4169874   -119.90075   -6077.1527    4.2989902    4.2989902    4.2989902   -6077.1527     12643.67   -26685.571   -4189.5566    8193.7877    6503.5431    5899.0877    79.450999 
   54300    966.44022   -120.77782   0.87445542   -119.90336    -21737.31    4.3077136    4.3077136    4.3077136    -21737.31    13663.232    -40948.13   -37927.031   -12430.464   -19022.533   -42071.459    79.935643 
   54400    1313.5667   -121.08573    1.1885428   -119.89719    15426.857    4.3042069    4.3042069    4.3042069    15426.857    45643.053   -3999.2096    4636.7281   -8843.0785   -20710.911   -31992.921    79.740582 
   54500    2444.4527   -122.09029    2.2117921    -119.8785   -887.86449    4.3074954    4.3074954    4.3074954   -887.86449    11672.152   -4072.6496   -10263.096    11815.685    9594.5337    20131.183    79.923497 
   54600    1711.8407   -121.43924    1.5489094   -119.89033    16086.918    4.2924603    4.2924603    4.2924603    16086.918    74207.797   -36160.619    10213.577   -1825.8705   -5163.5575   -9193.8156    79.089505 
   54700    923.42193   -120.73926   0.83553156   -119.90373    4166.5111    4.2924165    4.2924165    4.2924165    4166.5111    43913.502   -27187.098   -4226.8704   -11417.097   -16870.135   -44406.989    79.087085 
   54800    1431.0272   -121.19134    1.2948235   -119.89652   -23586.594    4.3138966    4.3138966    4.3138966   -23586.594   -40160.531   -36352.511     5753.259     2183.029   -20129.901   -7623.7856     80.28034 
   54900    2139.6039   -121.82251    1.9359586   -119.88655   -4527.4302     4.301818     4.301818     4.301818   -4527.4302   -14166.489   -49057.817    49642.015    13209.099   -4791.5675    8081.0409    79.607886 
   55000    1959.2783    -121.6601    1.7727962    -119.8873    25370.921    4.2817637    4.2817637    4.2817637    25370.921    63697.936   -30498.847    42913.673     10016.53    5231.4597   -25351.638    78.499718 
   55100    1511.7871   -121.27066    1.3678967   -119.90277    9695.3418    4.2941283    4.2941283    4.2941283    9695.3418    17612.889   -3116.7989    14589.936   -9532.2385   -19643.132   -23389.384    79.181739 
   55200    1056.6015   -120.86377   0.95603522   -119.90774   -7359.0065    4.3084768    4.3084768    4.3084768   -7359.0065    1746.6492   -41230.682    17407.014   -16.020217   -17858.904    10340.441    79.978137 
   55300     1502.761   -121.25943    1.3597297    -119.8997    4760.5912     4.305528     4.305528     4.305528    4760.5912    24983.569   -51257.805    40556.009     21501.42    2744.4526    19995.743    79.814035 
   55400     2351.707   -122.01139    2.1278739   -119.88351     15451.21     4.297911     4.297911     4.297911     15451.21      3630.27   -4798.4587    47521.818    12213.646    6396.5831   -11515.159    79.391179 
   55500    1987.2055   -121.68702    1.7980653   -119.88895    7402.3626    4.2946769    4.2946769    4.2946769    7402.3626    12426.041    14377.369   -4596.3229   -11501.489   -13351.255   -7434.1845    79.212092 
   55600    1162.0368   -120.95519    1.0514353   -119.90375   -21544.405    4.3001868    4.3001868    4.3001868   -21544.405   -37287.581   -33084.802    5739.1688   -1947.8172    -20072.49    29451.323    79.517362 
   55700    1316.5405   -121.09371    1.1912335   -119.90247   -8803.6607    4.2962399    4.2962399    4.2962399   -8803.6607    -6100.684   -47306.279    26995.981    10508.674    5496.6602    16875.018    79.298611 
   55800    1623.2055   -121.36709    1.4687105   -119.89838    6108.5176     4.293281     4.293281     4.293281    6108.5176    26507.219   -27410.805    19229.139    7358.7368    3206.9429   -22416.024    79.134878 
   55900    1606.6983    -121.3552    1.4537744   -119.90143   -3052.8935    4.2963359    4.2963359    4.2963359   -3052.8935   -7235.2438   -21811.361    19887.924   -6709.9048   -16186.763   -27914.012    79.303925 
   56000    1486.5392    -121.2504    1.3450519   -119.90535    3313.1848    4.2916233    4.2916233    4.2916233    3313.1848   -45478.397    11180.344    44237.607    8679.0983    -12890.86    2039.7852    79.043247 
   56100    1217.7234   -121.00952    1.1018217    -119.9077    732.65168    4.2897861    4.2897861    4.2897861    732.65168   -38608.284    1126.7153    39679.523    28422.091    17726.812    4927.9945    78.941779 
   56200     1258.581   -121.04498    1.1387905   -119.90619   -25666.095    4.3042775    4.3042775    4.3042775   -25666.095   -10737.628   -53347.599   -12913.057    5659.2485    12669.905    -37724.87    79.744509 
   56300    1503.2691    -121.2544    1.3601894   -119.89421   -24897.422    4.3034086    4.3034086    4.3034086   -24897.422   -13048.988   -46927.287   -14715.992   -15331.226   -12832.785   -30261.903    79.696223 
   56400    1128.0154    -120.9122    1.0206521   -119.89154    -5031.646    4.2898981    4.2898981    4.2898981    -5031.646   -47939.371    9925.4648    22918.968     19863.27    6513.3129    10319.616    78.947964 
   56500    1097.7155   -120.89082   0.99323605   -119.89758    -13560.44     4.301585     4.301585     4.301585    -13560.44   -59495.193   -8193.7855     27007.66    34918.717    23603.298   -1615.6223     79.59495 
   56600    1975.7279    -121.6655    1.7876801   -119.87782   -11902.351    4.3107412    4.3107412    4.3107412   -11902.351    -21588.04   -29660.485    15541.473   -14793.864     4665.625   -18976.898    80.104306 
   56700    1773.2144   -121.48288    1.6044417   -119.87844   -422.51196    4.2991192    4.2991192    4.2991192   -422.51196   -29088.561   -32962.936    60783.961   -43122.163   -3357.2122    -8477.432    79.458151 
   56800    1227.4477   -120.99862    1.1106204     -119.888   -13638.832    4.2976066    4.2976066    4.2976066   -13638.832   -46431.105   -9362.3985    14877.009     14947.45    19749.783    1266.5228    79.374313 
   56900    1539.5607   -121.28292    1.3930269   -119.88989   -7731.9668    4.2975622    4.2975622    4.2975622   -7731.9668   -9618.9204   -349.98967    -13226.99    36312.518    9322.1073    22725.043    79.371851 
   57000    1697.3236   -121.42519    1.5357741   -119.88941   -1979.1735    4.2955177    4.2955177    4.2955177   -1979.1735   -1830.6514   -11635.605    7528.7356   -28549.902   -8494.4756    24578.792    79.258623 
   57100    1519.4639   -121.26936    1.3748428   -119.89451   -3799.0514    4.3026894    4.3026894    4.3026894   -3799.0514    -24785.68   -2846.3165    16234.842   -49881.912   -2628.6966    -8672.814    79.656277 
   57200    1445.1782   -121.19946    1.3076276   -119.89183    2477.9522     4.298119     4.298119     4.298119    2477.9522    2280.4437    8647.0743   -3493.6615    8023.9196    9587.5076   -8100.2067    79.402707 
   57300    1023.9829   -120.82349   0.92652121   -119.89697    2830.8133     4.290217     4.290217     4.290217    2830.8133    33985.547    7738.9649   -33232.072    26518.233    18542.597    23213.843    78.965573 
   57400    1226.7011   -121.00916    1.1099449   -119.89921   -12254.639    4.3012906    4.3012906    4.3012906   -12254.639   -8293.8427   -22820.278   -5649.7957   -21848.992    1924.4625    28807.241    79.578613 
   57500    1840.0888   -121.54528    1.6649511   -119.88032   -1042.8841    4.3046502    4.3046502    4.3046502   -1042.8841   -10705.616    4250.6349     3326.329   -24924.783   -14903.103   -4711.2475    79.765226 
   57600    1329.6194   -121.08973    1.2030675   -119.88667   -1791.4275    4.2982102    4.2982102    4.2982102   -1791.4275    24387.065    1901.0427    -31662.39    5571.5546    1166.5574   -16640.151    79.407761 
   57700    1143.7554   -120.92714    1.0348939   -119.89225   -22754.114    4.2992273    4.2992273    4.2992273   -22754.114    10446.842   -49935.314    -28773.87    24804.378    15823.108    23160.023    79.464145 
   57800    1725.7002   -121.45268    1.5614498   -119.89123    9118.8235    4.2895173    4.2895173    4.2895173    9118.8235    8711.3514   -7846.1342    26491.253    28226.992   -1053.2298    24281.729     78.92694 
   57900    2204.4129   -121.88776    1.9945991   -119.89316     13506.67    4.2891937    4.2891937    4.2891937     13506.67    9114.4301    16145.653    15259.926   -4746.7171    -31725.84    -12602.74    78.909081 
   58000    1812.6126   -121.53554      1.64009   -119.89545   -23335.808    4.3093164    4.3093164    4.3093164   -23335.808   -21964.503   -25428.213   -22614.709    3770.8068   -6406.2992   -20898.451    80.024899 
   58100     1290.361   -121.06028    1.1675458   -119.89273   -9030.4786    4.3027201    4.3027201    4.3027201   -9030.4786    -12619.79   -45480.191    31008.546    36504.309    31721.454    2725.9992    79.657981 
   58200    1265.8089   -121.02945    1.1453305   -119.88412    1094.4964    4.2876677    4.2876677    4.2876677    1094.4964   -11386.809   -26522.157    41192.455    17177.888   -8712.8187    21699.662    78.824886 
   58300    1444.2394   -121.19383    1.3067781   -119.88705   -18776.461    4.2962672    4.2962672    4.2962672   -18776.461   -28623.483   -5010.9595   -22694.941   -27440.996    -47256.31    9864.6024    79.300122 
   58400    1545.6344   -121.28729    1.3985225   -119.88877   -10903.641    4.3013727    4.3013727    4.3013727   -10903.641   -17360.995    282.41669   -15632.344   -3783.1517    10881.894   -923.01743    79.583169 
   58500    1675.1796   -121.40477    1.5157377   -119.88903   -1645.1203    4.2965069    4.2965069    4.2965069   -1645.1203   -11436.612   -7463.0893     13964.34    19548.308    38042.783      1280.77    79.313396 
   58600     1360.901   -121.12601    1.2313718   -119.89464   -11531.362    4.2968803    4.2968803    4.2968803   -11531.362    1316.9232   -9835.5654   -26075.444   -7144.2844   -23475.321    8011.0993    79.334077 
   58700     869.5422   -120.68875   0.78678006   -119.90197   -7110.2548    4.2960098    4.2960098    4.2960098   -7110.2548    19112.229   -19652.324   -20790.669   -20927.186   -41765.961    3698.0786    79.285866 
   58800    1679.3703   -121.41985    1.5195295   -119.90032   -5801.2163    4.2988111    4.2988111    4.2988111   -5801.2163    -3134.887    -18506.81    4238.0484   -14341.682    11422.385   -3168.9499    79.441069 
   58900     2500.634   -122.14704    2.2626262   -119.88442    1040.6713    4.3041807    4.3041807    4.3041807    1040.6713      2917.78    1788.5595   -1584.3255     2959.631    19548.909    1516.1438    79.739128 
   59000     1502.839   -121.25216    1.3598003   -119.89236   -9367.3548    4.3046023    4.3046023    4.3046023   -9367.3548    5101.6384    439.02835   -33642.731    3407.9626   -36481.373    8538.0337     79.76256 
   59100    1117.5566   -120.90142    1.0111887   -119.89023    267.10028    4.2999093    4.2999093    4.2999093    267.10028    1698.8102    15953.354   -16850.863   -24660.253    -21511.21   -1991.6119     79.50197 
   59200    1913.5536   -121.60299    1.7314235   -119.87157    3344.2731    4.3097502    4.3097502    4.3097502    3344.2731   -16997.598   -1492.1678    28522.585   -2467.3885    17777.305   -4737.8627    80.049069 
   59300    1550.3043   -121.26968    1.4027479   -119.86693   -16993.426    4.3160579    4.3160579    4.3160579   -16993.426   -46688.835    1664.7769   -5956.2207    32570.694   -21109.901   -7505.0386    80.401063 
   59400    1024.6664   -120.80274   0.92713969    -119.8756    11112.317    4.2981128    4.2981128    4.2981128    11112.317    4879.9111    46936.977   -18479.937    9133.5497   -34256.501   -9413.2417    79.402361 
   59500     1762.096   -121.46789    1.5943815   -119.87351     9524.743    4.2908322    4.2908322    4.2908322     9524.743    25857.276     6836.769   -4119.8161   -13868.122   -7682.1015    12097.241    78.999544 
   59600    1825.1442   -121.53478    1.6514289   -119.88335    8910.8827    4.2940908    4.2940908    4.2940908    8910.8827    13977.883    5813.2275    6941.5379    882.40132    13282.996    10574.369    79.179667 
   59700      1052.44   -120.85441   0.95226984   -119.90214    4795.6575    4.2989636    4.2989636    4.2989636    4795.6575   -3004.1348    31455.609   -14064.502     25724.67   -17309.053   -7331.0274    79.449527 
   59800    844.12944   -120.66635   0.76378606   -119.90257   -13755.006    4.3059778    4.3059778    4.3059778   -13755.006   -31677.675     19566.15   -29153.492    23679.725   -25897.563   -2411.2944    79.839051 
   59900    1368.6064   -121.12528    1.2383439   -119.88694    1609.5147    4.2960403    4.2960403    4.2960403    1609.5147   -2832.4235     2839.034    4821.9335   -23350.383    14788.497    5630.9982    79.287556 
   60000    1478.2448   -121.22232     1.337547   -119.88478    -3827.171    4.2925499    4.2925499    4.2925499    -3827.171   -21818.745   -6117.1789    16454.411   -36596.869   -6800.3061    6779.8216    79.094457 
   60100    1391.6414   -121.14619    1.2591864     -119.887    -6315.144    4.3000695    4.3000695    4.3000695    -6315.144   -23243.864    29896.584   -25598.151   -451.90086   -39627.745   -3477.0432    79.510854 
   60200    1568.2135    -121.3029    1.4189525   -119.88395    7275.8897    4.2918175    4.2918175    4.2918175    7275.8897    2385.8909    34696.956   -15255.178    12018.602   -12232.664   -2153.6149    79.053979 
   60300    1122.4013   -120.90765    1.0155723   -119.89208    -7603.804    4.2958841    4.2958841    4.2958841    -7603.804    5265.8441   -23816.734   -4260.5224   -42701.472    12514.115    793.05262    79.278909 
   60400     935.4327   -120.73827   0.84639916   -119.89188   -26775.714    4.3059952    4.3059952    4.3059952   -26775.714    -22960.56   -23877.601   -33488.981   -46239.365    -10086.99   -944.43605    79.840019 
   60500     1371.758   -121.12593    1.2411955   -119.88474    10094.432    4.2917562    4.2917562    4.2917562    10094.432    31039.738    36544.613   -37301.055    14350.689   -41549.953   -2610.8993    79.050594 
   60600    1603.0595   -121.33429    1.4504819   -119.88381    17434.379    4.2868791    4.2868791    4.2868791    17434.379    32111.999     37326.19   -17135.052    291.74578    2504.7734   -6174.1981    78.781403 
   60700    1328.3624   -121.09538    1.2019302   -119.89345    1942.2989    4.2968858    4.2968858    4.2968858    1942.2989    23308.035    -3437.839   -14043.299   -42176.952     34646.27    2881.8246     79.33438 
   60800    1125.1943   -120.91325    1.0180995   -119.89515   -5356.9213    4.3003081    4.3003081    4.3003081   -5356.9213    1212.2267   -13155.348   -4127.6428   -21865.779   -33674.069    10209.917    79.524092 
   60900    1170.1988   -120.95126    1.0588205   -119.89244   -2792.2121    4.3010914    4.3010914    4.3010914   -2792.2121   -5652.3989    571.44581   -3295.6833    7659.2201   -40936.033    3163.4319    79.567558 
   61000    1729.8417   -121.44803    1.5651971   -119.88283    5209.9065    4.2962418    4.2962418    4.2962418    5209.9065    3588.9465    9584.4302    2456.3426    6989.6156    27061.343   -5014.8518    79.298716 
   61100    2059.3438   -121.74295    1.8633376   -119.87961    14512.144    4.2886295    4.2886295    4.2886295    14512.144   -2139.9041     9453.361    36222.977   -11945.146    17097.928    5990.0412    78.877944 
   61200    1298.7214   -121.07454    1.1751105   -119.89943    4560.4243       4.2923       4.2923       4.2923    4560.4243    31860.977   -2510.2845   -15669.419    -13115.46   -36567.645    16033.323    79.080648 
   61300    1072.8065   -120.87217   0.97069786   -119.90147   -15199.373    4.2990763    4.2990763    4.2990763   -15199.373    17239.977   -30052.722   -32785.373    11548.488   -40411.589   -110.70802    79.455776 
   61400     1851.856   -121.56944    1.6755982   -119.89384    4078.5733    4.2992056    4.2992056    4.2992056    4078.5733    18892.279   -30961.458    24304.899    10912.701    11378.436   -27806.542    79.462944 
   61500    2314.4116   -121.97793    2.0941283   -119.88381    13142.685    4.2942478    4.2942478    4.2942478    13142.685    17337.797   -5595.4002     27685.66    1253.0551    11463.858   -4635.1796    79.188354 
   61600    1478.6315   -121.22872    1.3378969   -119.89082    12759.936    4.2920384    4.2920384    4.2920384    12759.936    21596.288    5241.1043    11442.414   -1389.7669   -47503.334    25621.061    79.066187 
   61700    1383.0937   -121.14529    1.2514522   -119.89383   -5029.8647    4.3000224    4.3000224    4.3000224   -5029.8647    49491.423   -38072.444   -26508.573   -4490.8295   -17594.323   -182.50362    79.508241 
   61800    2221.3515   -121.88577    2.0099255   -119.87585   -186.24686     4.302423     4.302423     4.302423   -186.24686    33202.979    -30390.31   -3371.4097    8624.8372    8734.3697   -16494.926    79.641481 
   61900    1815.8519   -121.52219    1.6430209   -119.87917    6438.5152    4.2957435    4.2957435    4.2957435    6438.5152    11995.971    11925.058   -4605.4835    4426.4958   -20833.692    748.00816    79.271125 
   62000    930.07731   -120.73738    0.8415535   -119.89583   -23228.742    4.2976799    4.2976799    4.2976799   -23228.742   -8789.9718    6717.0454   -67613.299   -6674.8161   -26697.917    19461.572    79.378371 
   62100    1476.4638   -121.23128    1.3359355   -119.89535    2152.7906    4.2953615    4.2953615    4.2953615    2152.7906    64033.941   -17769.976   -39805.594    -79.45824    2498.3687    10983.119    79.249981 
   62200    2345.4913   -122.00285    2.1222498    -119.8806    18959.338    4.2890143    4.2890143    4.2890143    18959.338    50832.533    2370.0017    3675.4802    2121.5292    8416.1781   -7197.3747    78.899181 
   62300     1155.849   -120.94443    1.0458365    -119.8986   -11113.084    4.2974708    4.2974708    4.2974708   -11113.084    2882.4116    10647.317    -46868.98    4984.6322   -44450.559    7275.7958    79.366788 
   62400     616.8535   -120.46014   0.55814201     -119.902    -28537.47    4.3028621    4.3028621    4.3028621    -28537.47   -923.08158     12633.73   -97323.058    2372.4411   -10926.723     27596.43    79.665864 
   62500    1657.2367   -121.38176    1.4995026   -119.88226    6549.6839    4.2924627    4.2924627    4.2924627    6549.6839    37136.774    10491.066   -27978.789   -3622.2219     25084.48    6557.4416    79.089638 
   62600     1660.555   -121.38166    1.5025051   -119.87916    6068.4287    4.2921931    4.2921931    4.2921931    6068.4287    29766.522   -8328.9551   -3232.2803    6722.8196   -12540.608   -10852.718     79.07474 
   62700    658.05239   -120.48788   0.59541963   -119.89246   -15208.885    4.3015594    4.3015594    4.3015594   -15208.885    6443.8682   -3071.6918    -48998.83    11356.495    -42601.32    5765.4473    79.593532 
   62800    1095.2824   -120.87416   0.99103452   -119.88313    1201.2973    4.3046553    4.3046553    4.3046553    1201.2973     30724.87    13765.105   -40886.083   -3621.0673   -7996.9095    16204.147    79.765511 
   62900    2137.8816   -121.79533    1.9344002   -119.86093    2459.2953    4.3005658    4.3005658    4.3005658    2459.2953    5140.0247    4950.2817   -2712.4204   -9481.9305    29353.872    -7441.309    79.538389 
   63000    976.37573   -120.76136   0.88344528   -119.87792   -13929.413    4.2984356    4.2984356    4.2984356   -13929.413    17711.734   -15121.812   -44378.159   -1440.4429   -31821.863   -15104.683    79.420252 
   63100    1032.9936   -120.82582   0.93467429   -119.89114   -12404.592    4.2939167    4.2939167    4.2939167   -12404.592    8225.9737   -4303.1496   -41136.601    7488.7977   -38552.125    4136.3059    79.170038 
   63200    2196.7352   -121.86756    1.9876522   -119.87991    25928.689    4.2923297    4.2923297    4.2923297    25928.689    30852.309    16229.828    30703.929   -119.91064    510.49733    13041.865    79.082289 
   63300    2070.0353   -121.75731    1.8730115    -119.8843    8810.3314    4.2993826    4.2993826    4.2993826    8810.3314   -5314.5737    10484.854    21260.714    -14207.21    13533.081   -1620.2995     79.47276 
   63400    1196.5638   -120.97682    1.0826761   -119.89414    2043.5109    4.3026053    4.3026053    4.3026053    2043.5109    7161.7628    508.88914   -1540.1193    -5572.745   -28165.331   -23537.044    79.651606 
   63500    1921.6567   -121.61332    1.7387554   -119.87456    966.18311    4.3004697    4.3004697    4.3004697    966.18311   -6460.3005    914.73853    8444.1113    5221.6083   -40892.372   -5875.8033    79.533057 
   63600    1920.0777   -121.60651    1.7373266   -119.86919    3727.1671    4.2969612    4.2969612    4.2969612    3727.1671   -8927.5412    8973.5836    11135.459   -3014.1431    35918.739    10446.693    79.338556 
   63700    1090.0034   -120.86667   0.98625794   -119.88041   -6823.5719    4.2983065    4.2983065    4.2983065   -6823.5719    -49861.37    13637.947    15752.707   -13855.387    41220.003   -2349.4993    79.413097 
   63800    1614.4611   -121.33525    1.4607984   -119.87445   -9829.2453    4.3054488    4.3054488    4.3054488   -9829.2453   -4175.3445    876.19135   -26188.583   -11144.444   -26318.276   -5975.9149    79.809628 
   63900    2008.1443   -121.68188    1.8170112   -119.86487    -20504.44    4.3062818    4.3062818    4.3062818    -20504.44   -17216.489   -6578.6881   -37718.145    8403.7936    1443.5942   -7386.6838    79.855963 
   64000    804.64418   -120.61205   0.72805897   -119.88399   -7740.4063    4.2925312    4.2925312    4.2925312   -7740.4063   -55632.838    40180.089   -7768.4697    3810.0247    53813.141   -1086.3537    79.093426 
   64100    982.61366    -120.7802   0.88908949   -119.89111    2258.1959    4.2920172    4.2920172    4.2920172    2258.1959    -48547.87    41941.076    13381.381   -23840.483    23017.545    3776.4529    79.065018 
   64200    1895.7296   -121.59243     1.715296   -119.87714   -8157.0732    4.3087667    4.3087667    4.3087667   -8157.0732    18047.177   -4918.6561   -37599.741   -6162.9419   -15516.963   -17561.785    79.994279 
   64300    1343.3609   -121.09219    1.2155012   -119.87669   -20232.836    4.3129179    4.3129179    4.3129179   -20232.836   -19690.127    32421.196   -73429.577    8435.8597    22430.926    9327.9109    80.225713 
   64400    646.67676   -120.46175   0.58512672   -119.87662   -14761.028      4.30453      4.30453      4.30453   -14761.028   -33189.726    29848.198   -40941.555   -8980.0469    47674.666    9713.2712    79.758542 
   64500     1561.579   -121.28126    1.4129495   -119.86831    14574.471     4.294296     4.294296     4.294296    14574.471    37433.886   -2547.8003    8837.3265   -9677.5321    261.91363    4991.7132    79.191019 
   64600    1987.6623   -121.66929    1.7984786   -119.87081    5557.1494    4.2934162    4.2934162    4.2934162    5557.1494    28901.737    31304.193   -43534.481     758.4822   -10290.312    4574.7865    79.142353 
   64700    1138.2049   -120.92407    1.0298717    -119.8942   -16069.483    4.3012231    4.3012231    4.3012231   -16069.483   -24992.184     46940.01   -70156.276    1992.6828    23861.435   -9296.5848    79.574867 
   64800    1402.8718   -121.16362    1.2693479   -119.89427   -10573.036    4.3027351    4.3027351    4.3027351   -10573.036   -3565.8053    10476.962   -38630.265    775.10737    19206.928    6912.0637    79.658811 
   64900    2363.9151   -122.02019    2.1389201   -119.88127    23185.824    4.2964984    4.2964984    4.2964984    23185.824    53782.849    1229.5303    14545.094   -5822.0809   -7671.9315    6173.3802    79.312923 
   65000    1869.5852   -121.58687      1.69164   -119.89523    12879.259    4.2929171    4.2929171    4.2929171    12879.259    36449.722    34099.424   -31911.369   -8032.2982    25430.926   -3656.1741    79.114758 
   65100    687.59438   -120.53267   0.62214984   -119.91053    2514.9971    4.3016739    4.3016739    4.3016739    2514.9971    6147.6067    52309.007   -50911.622    3474.5527    35503.921   -997.23148    79.599886 
   65200     1804.084   -121.52463    1.6323731   -119.89225   -14864.788    4.3128005    4.3128005    4.3128005   -14864.788   -9228.2263    6047.0735   -41413.211   -2489.3919   -20298.755   -1973.0085    80.219162 
   65300     2295.966   -121.94366    2.0774383   -119.86622   -2553.0658    4.3049532    4.3049532    4.3049532   -2553.0658    15489.734   -18510.836   -4638.0954    -7984.261   -2460.8604    12764.731    79.782069 
   65400    1423.3731   -121.16496    1.2878979   -119.87706   -13345.209    4.2934257    4.2934257    4.2934257   -13345.209   -38939.302    21648.267   -22744.591   -12299.259    49773.605    3046.1945    79.142879 
   65500    1192.5977   -120.96212    1.0790875   -119.88304    3899.8954    4.2926253    4.2926253    4.2926253    3899.8954   -35228.613    60030.886   -13102.587   -1794.2833    9001.4352   -4132.0919    79.098625 
   65600    1929.1789   -121.62298    1.7455616   -119.87742   -8289.8067    4.3009331    4.3009331    4.3009331   -8289.8067     7808.478    8296.8935   -40974.792    3345.3878   -28455.005    17001.555    79.558772 
   65700     1271.639   -121.03666    1.1506057   -119.88605   -9792.8722    4.3050703    4.3050703    4.3050703   -9792.8722   -16953.456    16190.276   -28615.437   -596.48886    12420.797    11417.699    79.788582 
   65800    588.92155   -120.42543   0.53286859   -119.89256   -6822.2186    4.3011038    4.3011038    4.3011038   -6822.2186   -33003.792    39493.323   -26956.187   -7399.6943    42225.577    8815.7277    79.568242 
   65900    1399.7226   -121.15291    1.2664984   -119.88641    4635.4335    4.2984727    4.2984727    4.2984727    4635.4335    14500.544    15564.881   -16159.125     7676.174    337.75007    -14410.43     79.42231 
   66000     2028.035    -121.7111    1.8350087   -119.87609    12221.359    4.2936188    4.2936188    4.2936188    12221.359     21074.63     38867.52   -23278.072     109.2921   -15399.561   -15498.858    79.153558 
   66100    1057.2906   -120.85056   0.95665876    -119.8939   -14539.288    4.2979108    4.2979108    4.2979108   -14539.288   -39426.936    10125.926   -14316.854   -4013.4461     32968.44    11736.456     79.39117 
   66200    825.28443   -120.63883    0.7467347   -119.89209   -15416.629    4.3085166    4.3085166    4.3085166   -15416.629   -39500.469   -13666.501    6917.0845   -1462.2202    39564.833    6491.4875    79.980349 
   66300     1707.262   -121.40966    1.5447665   -119.86489    -4094.506    4.3099384    4.3099384    4.3099384    -4094.506   -624.30633   -3312.9368   -8346.2749    3608.8644   -6070.8136   -19894.985    80.059557 
   66400    1261.2398   -121.01163    1.1411962   -119.87044    11667.276    4.2979941    4.2979941    4.2979941    11667.276     14809.48    42840.639   -22648.291    7500.4469    4926.6571   -21243.438    79.395784 
   66500    1009.8718   -120.79172   0.91375319   -119.87797    22202.411    4.2934043    4.2934043    4.2934043    22202.411   -2685.7007     61472.46    7820.4744   -15410.961     40183.67    10344.406    79.141696 
   66600    1596.9684   -121.32117    1.4449705    -119.8762    11403.873    4.3084105    4.3084105    4.3084105    11403.873    -8697.394    22002.291    20906.722   -16912.129    12092.314    12763.705    79.974446 
   66700    1704.7521   -121.41109    1.5424955    -119.8686    -3050.294    4.3171315    4.3171315    4.3171315    -3050.294    4310.7332    3399.6337   -16861.249   -2486.2098   -15168.304   -13853.646    80.461073 
   66800     1280.197   -121.03043    1.1583492   -119.87209    -7559.576    4.3071055    4.3071055    4.3071055    -7559.576    4833.7955    3394.9392   -30907.463    6085.8056    13013.514   -22319.842    79.901793 
   66900       1353.2   -121.09438    1.2244038   -119.86997     1509.462    4.2956882    4.2956882    4.2956882     1509.462    5251.9972   -10444.308    9720.6971   -25875.124    34217.458     6624.854    79.268065 
   67000    1593.0785   -121.31753    1.4414509   -119.87608    9584.1407    4.2923765    4.2923765    4.2923765    9584.1407    13319.541   -14089.225    29522.106   -36152.075    4969.7006    25859.237    79.084874 
   67100    1571.1678   -121.30539    1.4216256   -119.88376    25843.628    4.2966172    4.2966172    4.2966172    25843.628    58351.303    15547.988    3631.5927   -6564.7768   -4430.2545    7146.9198    79.319506 
   67200    1499.7899   -121.24175    1.3570414   -119.88471    10794.437    4.3119985    4.3119985    4.3119985    10794.437     15088.83    17901.941   -607.46041     -177.769    10399.674   -16613.569    80.174418 
   67300    953.99047   -120.74223   0.86319063   -119.87904    6475.0592    4.3171743    4.3171743    4.3171743    6475.0592   -11063.363    12168.587    18319.953   -24516.182    12294.319    18038.683    80.463468 
   67400    1515.0639   -121.22198    1.3708616   -119.85112    17707.278    4.3088018    4.3088018    4.3088018    17707.278    40168.473   -5002.0555    17955.416   -9285.2934    2412.2144    34971.158    79.996236 
   67500    1804.7089   -121.47412    1.6329385   -119.84118    8985.2178    4.3105021    4.3105021    4.3105021    8985.2178    5350.3782    33270.311   -11665.036    16976.459    13848.681   -8238.0411    80.090975 
   67600    1328.2424   -121.05663    1.2018216   -119.85481   -11834.765    4.3103982    4.3103982    4.3103982   -11834.765   -36387.644    29954.333   -29070.985   -6766.2217    21504.731   -3766.6716    80.085183 
   67700    1032.1914   -120.80706    0.9339485   -119.87311    10543.227    4.2909848    4.2909848    4.2909848    10543.227    27516.904    19944.496   -15831.721   -8180.5579   -5753.7506    42102.617    79.007976 
   67800    1435.0241   -121.18592    1.2984399   -119.88748     19640.26    4.2879396    4.2879396    4.2879396     19640.26    38144.767    27268.091   -6492.0763   -727.42073   -3410.5353    25296.965    78.839884 
   67900    1967.6267    -121.6709      1.78035   -119.89055    11656.153     4.299155     4.299155     4.299155    11656.153    16773.597    23820.737   -5625.8745    2167.5371    14000.865   -28526.936    79.460137 
   68000     1818.672   -121.53951    1.6455727   -119.89394    6252.2993    4.3045003    4.3045003    4.3045003    6252.2993    11025.751    17073.594   -9342.4475    4157.7065    190.20026    8304.5508    79.756893 
   68100    1046.1208   -120.84277   0.94655211   -119.89621   -10586.315    4.3050813    4.3050813    4.3050813   -10586.315    13046.423   -5621.9984    -39183.37   -17694.575   -7237.8706    53786.446    79.789195 
   68200    1163.6171   -120.94186    1.0528652   -119.88899   -1526.0714    4.2967632    4.2967632    4.2967632   -1526.0714    32626.301    3423.1971   -40627.712   -1530.8487   -9873.1893    3122.1876     79.32759 
   68300    1901.5434   -121.59684    1.7205564   -119.87628    9624.7869    4.2937742    4.2937742    4.2937742    9624.7869    37092.093    18627.671   -26845.404    13345.626    4329.5215   -37387.402    79.162157 
   68400     1393.687   -121.14446    1.2610373   -119.88342   -14613.119    4.3005266    4.3005266    4.3005266   -14613.119    4576.2939   -14499.482    -33916.17   -24325.142    6281.6909    19488.408    79.536212 
   68500     629.5833   -120.46724    0.5696602   -119.89758   -20427.306    4.2984389    4.2984389    4.2984389   -20427.306    12544.642   -32262.621   -41563.938   -17358.327   -9809.0821    57285.637    79.420436 
   68600    1518.2277   -121.26466    1.3737243   -119.89094    323.79533    4.2936079    4.2936079    4.2936079    323.79533    37869.305   -12423.705   -24474.215    3121.7054   -8739.6168    3774.9788    79.152956 
   68700    2077.3198   -121.76395    1.8796026   -119.88435    16480.974    4.2959355    4.2959355    4.2959355    16480.974    37425.355    26301.783   -14284.218    2838.2507    5949.2664   -12091.959    79.281758 
   68800    1531.8811   -121.28446    1.3860783   -119.89838   -2423.3673    4.2974723    4.2974723    4.2974723   -2423.3673    41495.782   -27257.411   -21508.473    -11991.75    20486.603      26395.3    79.366871 
   68900    1436.7303    -121.1999    1.2999838   -119.89992    4262.9189    4.2961577    4.2961577    4.2961577    4262.9189    64317.743    -43684.86   -7844.1264   -11989.385   -3120.8568     33778.02    79.294061 
   69000    2231.2015   -121.90187     2.018838   -119.88303    2817.0085    4.2973383    4.2973383    4.2973383    2817.0085    6953.1043   -12296.635    13794.556    15248.956    -2114.414   -1360.5977    79.359448 
   69100    1850.9088   -121.56281    1.6747412   -119.88807   -2388.1748    4.3014575    4.3014575    4.3014575   -2388.1748   -19567.065    14010.796   -1608.2548     15496.51    30819.315    2833.0294    79.587877 
   69200    1172.5252   -120.95392    1.0609255   -119.89299    -15812.44    4.3025577    4.3025577    4.3025577    -15812.44    21120.495   -18864.231   -49693.584   -11116.051    22557.004    54423.381    79.648958 
   69300    1480.7352   -121.23006    1.3398004   -119.89026    6637.5959    4.2957533    4.2957533    4.2957533    6637.5959     31596.56   -2108.5423   -9575.2301   -5437.3458   -12129.712    16922.649    79.271669 
   69400    2231.6243   -121.90071    2.0192206   -119.88149    4327.2358    4.2944157    4.2944157    4.2944157    4327.2358   -11490.709    12405.347     12067.07     154.1819   -9593.0275     -30040.3    79.197639 
   69500    1574.7178   -121.31336    1.4248378   -119.88852   -14672.968    4.3020246    4.3020246    4.3020246   -14672.968     2008.391    19723.388   -65750.683     370.3379    7105.8912     31157.79    79.619355 
   69600    1034.0712   -120.82758   0.93564939   -119.89193   -23033.928     4.301265     4.301265     4.301265   -23033.928     38583.22   -29742.565    -77942.44   -7314.9968    21021.545    69391.941    79.577188 
   69700    1667.8476   -121.38648    1.5091035   -119.87738   -1592.8396    4.2972925    4.2972925    4.2972925   -1592.8396    9337.2449    5424.6519   -19540.416   -14327.165     7072.159   -7171.8527    79.356907 
   69800    1678.1781   -121.39082    1.5184508   -119.87237   -15595.399    4.3016874    4.3016874    4.3016874   -15595.399   -5872.4984    -2098.241   -38815.457   -5955.4396   -28246.849    3357.8359    79.600636 
   69900    767.29137   -120.57916   0.69426136    -119.8849   -14394.342    4.3000766    4.3000766    4.3000766   -14394.342    23167.393   -26910.806   -39439.612    -269.2111    -6469.134    58564.973     79.51125 
   70000    1260.5004   -121.02137    1.1405272   -119.88085   -5588.3553    4.2990134    4.2990134    4.2990134   -5588.3553    2969.5865    -5777.568   -13957.084   -565.03679    24872.349    20808.338    79.452288 
   70100    1741.2593   -121.44744     1.575528   -119.87192   -2247.2199    4.3021851    4.3021851    4.3021851   -2247.2199   -5252.7055    23834.599   -25323.554    -12701.81    20355.652   -17919.626    79.628266 
   70200    951.83116    -120.7398   0.86123684   -119.87856   -8969.1818    4.3034449    4.3034449    4.3034449   -8969.1818    31521.022   -30371.812   -28056.756   -3221.0762   -10649.494    44218.172    79.698244 
   70300    1012.8725   -120.79372    0.9164683   -119.87725   -22683.023    4.3077382    4.3077382    4.3077382   -22683.023    7708.9838    5734.4787    -81492.53    531.30928   -23060.585    46995.587    79.937012 
   70400    1567.1534   -121.28933    1.4179933   -119.87134   -1260.7546    4.2988209    4.2988209    4.2988209   -1260.7546    -9869.905    60063.002   -53975.361   -13281.906    3750.4315   -17404.463    79.441613 
   70500    1363.8213   -121.10774    1.2340141   -119.87372    10706.944    4.2911452    4.2911452    4.2911452    10706.944    22528.685    38357.995   -28765.847   -808.27811    18408.176   -2948.7784    79.016837 
   70600    876.53585   -120.68022   0.79310806   -119.88711   -22967.856    4.3051069    4.3051069    4.3051069   -22967.856     10361.65    6557.8716    -85823.09   -8500.8522   -17319.461     33031.88    79.790618 
   70700     1245.257   -121.00571    1.1267347   -119.87897   -17135.522    4.3068225    4.3068225    4.3068225   -17135.522   -17676.958    52992.401    -86722.01    3516.0509   -44630.988     21341.92    79.886044 
   70800    2048.9733   -121.71749    1.8539541   -119.86353    3366.6393    4.3008802    4.3008802    4.3008802    3366.6393    4249.1837     27287.23   -21436.496    6861.9846   -7462.6358   -5270.1452    79.555832 
   70900    1781.1575   -121.48807    1.6116287   -119.87644   -14833.274    4.2997305    4.2997305    4.2997305   -14833.274    15282.237   -19716.694   -40065.363   -4697.6091    4334.6007    7775.2903    79.492051 
   71000    1065.5833   -120.85727   0.96416213   -119.89311   -3706.5757    4.2864183    4.2864183    4.2864183   -3706.5757    29807.693    27810.826   -68738.245    3607.6943   -55681.455    23594.627    78.755999 
   71100    1552.8434   -121.30278    1.4050454   -119.89774    5943.4107    4.2900838    4.2900838    4.2900838    5943.4107    1905.1171    51901.274   -35976.159   -558.93857    -37925.12    1707.2279    78.958215 
   71200    2046.3416   -121.73933    1.8515729   -119.88775   -17828.041    4.3106533    4.3106533    4.3106533   -17828.041    -36120.66    14189.816   -31553.279     6726.458    49476.075   -4271.8792    80.099401 
   71300    1770.3373   -121.48501    1.6018384   -119.88317   -2026.8906    4.3040362    4.3040362    4.3040362   -2026.8906    17266.824   -2309.1996   -21038.296    13369.384    15468.471    9770.3392    79.731098 
   71400    1762.7538   -121.47008    1.5949767   -119.87511    14462.365    4.2926126    4.2926126    4.2926126    14462.365    16907.982    26864.751   -385.63794   -1914.4549    -43231.22    30702.039    79.097926 
   71500    1736.8366    -121.4459    1.5715263   -119.87437    1040.0001    4.3015086    4.3015086    4.3015086    1040.0001   -5313.0836    34068.487   -25635.403     871.1902    22322.582    8811.0737     79.59071 
   71600    1598.5459   -121.31911    1.4463979   -119.87271   -13880.343    4.3117691    4.3117691    4.3117691   -13880.343   -9247.9247    7595.1631   -39988.267    13684.584    57788.243   -8995.4251    80.161623 
   71700    1735.8899   -121.44314    1.5706697   -119.87247   -1529.5606    4.3022396    4.3022396    4.3022396   -1529.5606    17913.909   -21449.506    -1053.084    25323.428   -3042.0845    14029.499    79.631295 
   71800    1194.0129   -120.96222     1.080368   -119.88185    18898.486    4.2846288    4.2846288    4.2846288    18898.486    48224.027    3214.6595    5256.7719    13594.727   -6949.7686    26320.047    78.657403 
   71900    771.11226   -120.59858   0.69771857   -119.90086   -4114.5553    4.2913799    4.2913799    4.2913799   -4114.5553     965.1013    37312.085   -50620.852   -9806.5225    44066.369    9731.4041    79.029803 
   72000     1344.799   -121.11431    1.2168024   -119.89751   -14639.736      4.30623      4.30623      4.30623   -14639.736   -13386.882    17440.189   -47972.514   -5522.9548    25583.111   -1123.2715    79.853079 
   72100    1906.0992   -121.60211    1.7246786   -119.87743     4514.127    4.3016762    4.3016762    4.3016762     4514.127    51903.261    -16468.35    -21892.53    12154.339   -21752.431    7304.1717    79.600015 
   72200    1244.3469   -121.01014    1.1259113   -119.88423   -7134.9476    4.2968264    4.2968264    4.2968264   -7134.9476    24516.413    3391.2737    -49312.53    3007.1927    38709.764    13894.644    79.331093 
   72300    943.22696    -120.7433   0.85345158   -119.88985   -12645.831    4.2999784    4.2999784    4.2999784   -12645.831   -1117.4602    10362.615   -47182.647   -2243.8102     65659.41    -1066.852    79.505802 
   72400    1790.4546   -121.49428    1.6200409   -119.87424   -5084.4011    4.3065306    4.3065306    4.3065306   -5084.4011    13227.444   -17250.785   -11229.862   -1221.8487   -248.64308   -25.515966    79.869804 
   72500    1388.4873   -121.12847    1.2563325   -119.87214   -13412.272    4.3151935    4.3151935    4.3151935   -13412.272    18152.418   -31542.535     -26846.7    14686.485   -3694.4547    12068.422    80.352764 
   72600    576.60408   -120.39402   0.52172349   -119.87229   -10869.816    4.3126497    4.3126497    4.3126497   -10869.816    29041.044    3742.8613   -65393.353     13547.13    50992.251    8192.4576    80.210747 
   72700    1491.6287   -121.21027     1.349657   -119.86062    12298.356    4.3032766    4.3032766    4.3032766    12298.356    47301.182    7621.2519   -18027.365    3056.3126    19768.838   -2258.5715    79.688893 
   72800    2083.3571   -121.74132    1.8850653   -119.85625    13571.093    4.2981607    4.2981607    4.2981607    13571.093     40836.27    -9916.859    9793.8663    11001.389   -22009.545   -1359.0352    79.405017 
   72900    986.01589   -120.78059    0.8921679   -119.88842    8588.7601    4.2971354    4.2971354    4.2971354    8588.7601    23158.858    3056.6837   -449.26188    13802.559    23963.144    11591.571    79.348209 
   73000    687.03617    -120.5239   0.62164477   -119.90225   -17814.813    4.3042532    4.3042532    4.3042532   -17814.813   -11192.951   -6448.4178   -35803.071     5678.069    67375.179    6194.1915    79.743156 
   73100    1773.3145   -121.49573    1.6045322    -119.8912    -7985.074    4.2981955    4.2981955    4.2981955    -7985.074    30283.088   -31101.862   -23136.448   -915.41252   -332.37584   -8780.7484    79.406947 
   73200    2158.5679   -121.83388    1.9531176   -119.88077    4909.4567    4.2931054    4.2931054    4.2931054    4909.4567    24858.896   -3802.9638   -6327.5625   -1464.7517   -16067.767   -6652.3316    79.125172 
   73300    1331.3836   -121.09721    1.2046638   -119.89255   -22026.826    4.3044239    4.3044239    4.3044239   -22026.826   -48061.757    26790.612   -44809.334    7954.0954    57656.994    9587.8251    79.752648 
   73400    1475.3575   -121.21809    1.3349345   -119.88315   -20531.079    4.3056404    4.3056404    4.3056404   -20531.079   -10172.759    -2681.468   -48739.008    1927.1465    33429.437     15558.88    79.820285 
   73500    2134.0018   -121.80135    1.9308897   -119.87046    5428.2812    4.2992528    4.2992528    4.2992528    5428.2812    50351.411   -36850.842    2784.2742    -5110.666   -15406.645    3255.4738    79.465559 
   73600    1701.3835   -121.42167    1.5394476   -119.88222   -3082.5312    4.2927278    4.2927278    4.2927278   -3082.5312   -419.45106    5483.1851   -14311.328    302.76519    39196.167   -1718.4648    79.104291 
   73700    1053.3614   -120.85145    0.9531035   -119.89835   -2552.3025    4.2898186    4.2898186    4.2898186   -2552.3025   -770.55472    39356.811   -46243.164   -2622.5218    53551.747    9812.1625    78.943573 
   73800    1690.3284   -121.42846    1.5294446   -119.89901   -9097.9577    4.3020206    4.3020206    4.3020206   -9097.9577    10501.869    791.52771    -38587.27    5881.4021   -31317.706    14283.833    79.619136 
   73900    2210.7807   -121.87532    2.0003608   -119.87496   -14768.664    4.3092687    4.3092687    4.3092687   -14768.664   -5463.1665   -5804.2193   -33038.607    4915.9604   -13650.691    5211.9852    80.022246 
   74000    1624.1093   -121.33946    1.4695282   -119.86993   -9107.6457    4.3030096    4.3030096    4.3030096   -9107.6457   -29893.584     38217.36   -35646.714    -5849.251    75649.846   -9363.7207    79.674057 
   74100    1340.7001   -121.07973    1.2130936   -119.86664   -1712.3725    4.2975493    4.2975493    4.2975493   -1712.3725    -32407.52    45918.613    -18648.21    605.62506     4296.754    3161.7993     79.37114 
   74200    1571.0004   -121.28868    1.4214742   -119.86721   -3579.7667    4.2975556    4.2975556    4.2975556   -3579.7667   -12923.677    22164.922   -19980.545    2159.2834   -58235.846    17469.712    79.371486 
   74300    1533.5345   -121.26137    1.3875743   -119.87379    -5523.282    4.3036011    4.3036011    4.3036011    -5523.282   -3937.1738    1073.8469   -13706.519    9144.9156    17516.481    -2055.723    79.706919 
   74400    1810.0712   -121.50536    1.6377904   -119.86757   -6337.2978    4.3046746    4.3046746    4.3046746   -6337.2978      13727.6    2505.0279   -35244.521    2497.5928    35189.722   -114.12939    79.766581 
   74500    952.95465   -120.74458   0.86225339   -119.88233   -8171.1861    4.2977501    4.2977501    4.2977501   -8171.1861    29010.214    18896.654   -72420.425   -11357.365   -45449.858    14215.887    79.382263 
   74600    517.64211   -120.36799   0.46837346   -119.89961   -22569.379    4.2972298    4.2972298    4.2972298   -22569.379   -6608.2683   -10629.085   -50470.784    5688.7119   -48576.339    2944.3087    79.353439 
   74700    1498.9426   -121.25194    1.3562748   -119.89566   -6282.0021    4.2913833    4.2913833    4.2913833   -6282.0021     17339.95   -29024.741   -7161.2151    25264.413    14274.831   -8133.3638    79.029986 
   74800    1876.6908   -121.58902    1.6980692   -119.89095    1526.4187    4.2955693    4.2955693    4.2955693    1526.4187     22299.34    15174.326    -32894.41    4760.8883    3188.6419   -2344.5534     79.26148 
   74900    1080.2332   -120.87324    0.9774177   -119.89582    -19977.31    4.3103432    4.3103432    4.3103432    -19977.31   -8894.5439     4710.407   -55747.794   -3209.3644   -43391.689    10915.519    80.082117 
   75000     1215.021   -120.98007    1.0993765   -119.88069   -5881.4758    4.3020722    4.3020722    4.3020722   -5881.4758    15439.697   -20650.555   -12433.569    16510.414   -23667.626    7297.9733    79.621999 
   75100    1625.2082   -121.34343    1.4705225   -119.87291    3690.7292    4.2906939    4.2906939    4.2906939    3690.7292    17.328013   -13631.575    24686.434      16869.3    21139.376    -5014.424    78.991909 
   75200    1408.4291   -121.15838    1.2743762     -119.884   -11406.784    4.2951324    4.2951324    4.2951324   -11406.784   -23809.926     6336.708   -16747.134   -2607.4748    29236.645    10613.984    79.237298 
   75300    1794.7436   -121.50729    1.6239217   -119.88337    -10056.97    4.2986265    4.2986265    4.2986265    -10056.97    7963.2776   -9210.0171   -28924.171   -2191.7026   -11133.054    21528.958    79.430834 
   75400    1947.0106   -121.64331    1.7616961   -119.88162   -16141.901    4.3020111    4.3020111    4.3020111   -16141.901   -21188.268   -50415.033    23177.599    22619.154   -14971.193    4687.4247     79.61861 
   75500    1210.8525   -120.98681    1.0956047    -119.8912   -11341.832    4.2991726    4.2991726    4.2991726   -11341.832   -31300.841   -23628.318    20903.662    19751.081    32111.231   -19475.624    79.461112 
   75600    1460.1712   -121.21241    1.3211936   -119.89122     7635.449    4.2994635    4.2994635    4.2994635     7635.449    33906.916     633.6428   -11634.212   -16969.631    38845.822   -969.05503    79.477242 
   75700    2437.1577   -122.07445    2.2051915   -119.86925    77.248804    4.3088125    4.3088125    4.3088125    77.248804     38187.63   -30372.298    -7583.586   -6888.5457   -15052.827    11085.767     79.99683 
   75800    1539.6792   -121.26047    1.3931341   -119.86734   -6343.1741    4.3134029    4.3134029    4.3134029   -6343.1741    21286.425    -42691.47    2375.5229    35368.394   -4324.4451    -12078.39    80.252776 
   75900    1355.0892   -121.09324    1.2261132   -119.86712   -25016.896    4.3115847    4.3115847    4.3115847   -25016.896   -43084.089   -29815.824   -2150.7735   -2599.3761     34250.94   -4330.4031    80.151335 
   76000    1966.7142   -121.64733    1.7795243    -119.8678    2232.6121    4.2930107    4.2930107    4.2930107    2232.6121    4714.3522   -1413.2676    3396.7518    -31175.62    15852.416    3823.2794    79.119935 
   76100    1720.6679   -121.43678    1.5568965   -119.87989    31314.043    4.2795266    4.2795266    4.2795266    31314.043    57826.022    22585.378     13530.73    -2314.622   -40155.964   -9593.4074    78.376738 
   76200    951.57234   -120.77001   0.86100265   -119.90901    16896.334     4.294351     4.294351     4.294351    16896.334    47776.868    14577.189   -11665.056    21698.852   -21019.688   -14448.968    79.194063 
   76300    1392.6185   -121.15554    1.2600705   -119.89547   -16857.062    4.3169264    4.3169264    4.3169264   -16857.062   -3.1655764   -22021.865   -28546.155    11021.193    29678.352   -8719.0922    80.449608 
   76400    1691.1369   -121.41143    1.5301762   -119.88125   -7159.5744    4.3046087    4.3046087    4.3046087   -7159.5744     223.9531    2621.6112   -24324.287   -6984.2086   -1845.9533    9927.6318    79.762917 
   76500    1166.0584   -120.93681    1.0550741   -119.88174    4603.9739    4.2770978    4.2770978    4.2770978    4603.9739    5883.8515    42499.917   -34571.847   -9415.7337   -61485.781    4556.5697    78.243367 
   76600    1182.2228   -120.96521    1.0697001   -119.89551   -7826.0639    4.2828512    4.2828512    4.2828512   -7826.0639    6741.3135    14904.083   -45123.588    10907.954   -27354.624    -17847.55    78.559547 
   76700    1747.6566   -121.47403    1.5813164   -119.89271   -12995.141    4.3037632    4.3037632    4.3037632   -12995.141   -22262.372    -17150.48    427.42864    37804.987    27323.158   -14250.086     79.71593 
   76800    1886.7626   -121.59256    1.7071824   -119.88538     -15214.9    4.3085493    4.3085493    4.3085493     -15214.9   -38689.081    20817.191    -27772.81    9525.8233   -21159.899    3876.3021    79.982174 
   76900    1616.9962    -121.3482    1.4630922   -119.88511    -7704.049    4.2976462    4.2976462    4.2976462    -7704.049   -4566.8126    39036.016   -57581.351   -8534.3681   -49064.645   -3176.1924    79.376505 
   77000    1615.4943   -121.34743    1.4617332    -119.8857    6684.9279     4.282633     4.282633     4.282633    6684.9279    2090.7125    14335.486    3628.5858    14889.058   -5810.0303   -24237.972    78.547539 
   77100    1482.4714   -121.23728    1.3413713    -119.8959    3848.0257     4.284565     4.284565     4.284565    3848.0257   -6738.2558   -17870.399    36152.732    19631.783    4977.8566   -13702.589    78.653889 
   77200    1127.7983   -120.92549    1.0204556   -119.90503   -14286.168    4.3049281    4.3049281    4.3049281   -14286.168   -39780.804    10980.256   -14057.955   -1812.2608   -41065.144    12202.667    79.780676 
   77300    1625.6668   -121.36357    1.4709375   -119.89263   -14347.655    4.3061772    4.3061772    4.3061772   -14347.655   -55204.442    25136.646   -12975.168   -15791.943   -40327.521    8710.1356    79.850143 
   77400    1842.2364   -121.54817    1.6668942   -119.88127    23112.881     4.285615     4.285615     4.285615    23112.881    17543.777      11152.1    40642.767    15427.032     21543.93    2490.5324     78.71173 
   77500    1330.5917   -121.09764    1.2039473   -119.89369    3741.7238    4.2864065    4.2864065    4.2864065    3741.7238   -13359.246    15076.289    9508.1287    19947.934    9775.9372   -15196.876    78.755352 
   77600    1159.4681   -120.94642    1.0491111   -119.89731   -13284.542    4.2990354    4.2990354    4.2990354   -13284.542   -50240.298    18087.565   -7700.8933    6738.2908   -44845.175   -15370.741    79.453506 
   77700    1652.8459   -121.38053    1.4955297     -119.885   -794.15125    4.2995146    4.2995146    4.2995146   -794.15125    2999.8844    5720.4491   -11102.787   -6352.3417   -27771.002    30248.799    79.480079 
   77800    1525.5863   -121.26535    1.3803825   -119.88497    -20097.42    4.3013628    4.3013628    4.3013628    -20097.42    10967.169     -22009.4   -49250.029   -1307.6754    19500.782    34305.897    79.582616 
   77900    1620.2396    -121.3508    1.4660268   -119.88477   -12551.456    4.2937715    4.2937715    4.2937715   -12551.456   -16912.469    7764.7027   -28506.602    16195.088    16777.417   -28936.204    79.162003 
   78000    1603.5062   -121.33854    1.4508861   -119.88765    2450.4764    4.2859678    4.2859678    4.2859678    2450.4764    15056.816    12307.186   -20012.573    5183.3524   -12476.955   -11499.587    78.731171 
   78100    1190.7767   -120.97758    1.0774397   -119.90014   -8726.9341    4.2933342    4.2933342    4.2933342   -8726.9341    48185.207    -4879.429    -69486.58   -6231.6821   -11008.753    68855.204    79.137822 
   78200    1663.8239   -121.40018    1.5054628   -119.89472   -12767.063    4.2988786    4.2988786    4.2988786   -12767.063   -1500.5174    1385.0192   -38185.691    6581.3794    1502.7183    42700.836    79.444815 
   78300    2047.2235   -121.73591    1.8523709   -119.88354   -1377.6745     4.300753     4.300753     4.300753   -1377.6745   -35091.954    19774.891    11184.039     9347.376    -739.1497    -22842.19    79.548777 
   78400     927.2276   -120.73791   0.83897502   -119.89894   -5691.0284    4.2964323    4.2964323    4.2964323   -5691.0284    25904.084    4493.1472   -47470.317    4761.5961   -12447.293     40778.09    79.309263 
   78500    607.04739   -120.44892   0.54926924   -119.89965    2996.1782    4.2920423    4.2920423    4.2920423    2996.1782     38185.37    10324.412   -39521.247   -3729.8873   -7425.0765     51542.47    79.066405 
   78600    1846.1221    -121.5513    1.6704101   -119.88089    5405.2946    4.3037769    4.3037769    4.3037769    5405.2946    11362.985     9843.955   -4991.0561   -12623.373   -6659.3125   -27964.838    79.716688 
   78700    1911.6868   -121.60423    1.7297344   -119.87449    8721.7766    4.3035543    4.3035543    4.3035543    8721.7766    22884.014    10356.782   -7075.4667    -6810.614    3675.5711    19520.332    79.704318 
   78800    1525.1516   -121.26045    1.3799892   -119.88046    13997.329     4.292984     4.292984     4.292984    13997.329    36892.205     19598.36   -14498.578    8783.0609    3301.0755    68314.368    79.118459 
   78900    1840.6243   -121.54948    1.6654355   -119.88405     6398.983    4.2905734    4.2905734    4.2905734     6398.983    35935.504    -10035.61   -6702.9452    11116.462   -15013.087    3389.9701    78.985251 
   79000     1879.655   -121.58985    1.7007514    -119.8891    27496.644    4.2840196    4.2840196    4.2840196    27496.644    35379.186    29822.675     17288.07   -14889.167   -6459.6706    -31987.25    78.623856 
   79100    1260.8473   -121.04504    1.1408412    -119.9042    1854.3557    4.2965706    4.2965706    4.2965706    1854.3557    1318.8337   -8577.4429    12821.676   -32788.284    12943.134    25386.355    79.316925 
   79200    1152.7933   -120.93505    1.0430716   -119.89198   -26403.473    4.3112328    4.3112328    4.3112328   -26403.473   -221.65143   -42920.046   -36068.723    9932.1572    2294.1856     41530.82    80.131713 
   79300     1429.757   -121.17007    1.2936742    -119.8764    4506.9737    4.2941191    4.2941191    4.2941191    4506.9737    8978.9516    13913.262    -9371.292     40568.75   -14312.974   -1528.2919    79.181233 
   79400     1301.815   -121.05439    1.1779096   -119.87648    13815.572    4.2901728    4.2901728    4.2901728    13815.572   -1219.0892    28262.048    14403.758   -14285.016   -5201.6738   -3071.1022    78.963129 
   79500    1347.1443   -121.09953    1.2189245    -119.8806   -13644.708     4.302119     4.302119     4.302119   -13644.708    16674.653   -32161.615   -25447.162   -42250.806     8826.811     31131.46    79.624598 
   79600    1325.2423   -121.08558    1.1991071   -119.88647   -5672.5134    4.2979971    4.2979971    4.2979971   -5672.5134    22192.772   -30061.017   -9149.2955    25034.655    801.54494    19463.482    79.395952 
   79700    1538.0493    -121.2784    1.3916593   -119.88674     5469.044    4.2948325    4.2948325    4.2948325     5469.044    4093.7861    495.24497    11818.101    61996.231   -27222.264   -5028.2703    79.220704 
   79800    1997.2461   -121.68937    1.8071502   -119.88222    7710.6505    4.2977122    4.2977122    4.2977122    7710.6505     18438.99    4638.4577    54.503993   -8017.7839   -10789.236   -1670.1281    79.380162 
   79900    1692.7617   -121.41477    1.5316464   -119.88312   -9403.7169    4.3044556    4.3044556    4.3044556   -9403.7169    11815.952   -28075.758   -11951.345   -20025.672    3795.9246    22181.799    79.754406 
   80000    1120.1292   -120.90079    1.0135164   -119.88727   -9293.3651     4.299674     4.299674     4.299674   -9293.3651   -1342.0417   -35765.142    9227.0886    50258.519   -2512.1279    31345.718    79.488917 
   80100    1806.9229   -121.51218    1.6349418   -119.87723    12681.132    4.2895938    4.2895938    4.2895938    12681.132    26447.828    10049.266    1546.3029    42113.736    2919.2309   -6632.3999    78.931165 
   80200    1686.2551   -121.40704    1.5257591   -119.88128    394.56255    4.2945389    4.2945389    4.2945389    394.56255    43962.624    9915.9891   -52694.925   -24610.044    1062.0449    -15734.64    79.204457 
   80300    886.50662   -120.69811   0.80212982   -119.89598   -20565.734    4.2971665    4.2971665    4.2971665   -20565.734    40852.644   -39139.985   -63409.863    4974.5372    1813.2967    20633.311    79.349929 
   80400    1247.7895   -121.01653    1.1290262    -119.8875   -3524.4132    4.2947208    4.2947208    4.2947208   -3524.4132    20234.132   -10807.144   -20000.227    38451.616   -279.82095    28506.916     79.21452 
   80500    1730.6443   -121.44577    1.5659234   -119.87985   -10379.727    4.3016816    4.3016816    4.3016816   -10379.727    8497.0166   -1083.7974   -38552.399    2379.0508   -8282.2797   -33570.802    79.600313 
   80600    1439.3297   -121.19066    1.3023358   -119.88832   -13430.353    4.2925287    4.2925287    4.2925287   -13430.353    43391.172   -23738.717   -59943.514   -7497.6418   -5458.8808    -35547.67    79.093287 
   80700    1455.4417    -121.2026    1.3169142   -119.88569    19447.853    4.2830654    4.2830654    4.2830654    19447.853    55517.049    27321.502   -24494.993    1617.1956    3340.2944    38805.333     78.57133 
   80800    2044.9421   -121.73353    1.8503066   -119.88323   -3096.3909    4.3028352    4.3028352    4.3028352   -3096.3909    5672.9852    5699.9098   -20662.068      6809.75   -756.58118    29130.233    79.664373 
   80900    1795.1063   -121.50594    1.6242499   -119.88169    4289.9397    4.2997522    4.2997522    4.2997522    4289.9397    6690.6092     18842.55    -12663.34    8921.2478   -12689.176   -48135.522    79.493253 
   81000    1146.8967   -120.92072    1.0377362   -119.88298    16055.073    4.2873291    4.2873291    4.2873291    16055.073    47587.924    23741.421   -23164.125   -2220.8198   -13136.603   -30595.053    78.806214 
   81100    1525.9837   -121.26404    1.3807421    -119.8833     -5846.42    4.2988334    4.2988334    4.2988334     -5846.42    23851.198   -27843.701   -13546.757   -6159.9623    3611.4699    54272.939    79.442307 
   81200    1891.6959   -121.58323    1.7116462   -119.87158    2635.9855    4.2966824    4.2966824    4.2966824    2635.9855   -10210.162    1922.4361    16195.682     4986.426    1135.4979    15364.323    79.323117 
   81300    1021.5638   -120.81013   0.92433244    -119.8858    -6224.492    4.2958611    4.2958611    4.2958611    -6224.492   -12539.418    22115.414   -28249.472    2229.6883   -16927.539   -49484.721    79.277636 
   81400    1057.9846    -120.8472   0.95728667   -119.88991   -11619.114    4.2983264    4.2983264    4.2983264   -11619.114    459.63537   -5396.8647   -29920.114   -3875.5487   -3602.6703   -19961.251    79.414203 
   81500    2226.8221   -121.88854    2.0148754   -119.87366    14342.988    4.2897313    4.2897313    4.2897313    14342.988    -1767.588    2644.7693    42151.784   -8211.7291    4468.2456    22336.982    78.938756 
   81600    1653.2903   -121.38666    1.4959319   -119.89073   -13284.503    4.2965017    4.2965017    4.2965017   -13284.503   -21094.218   -2402.6473   -16356.644   -5814.4947   -10193.611   -11289.011    79.313108 
   81700    498.64726   -120.35674   0.45118652   -119.90555    -29728.03    4.3002415    4.3002415    4.3002415    -29728.03   -17456.191   -16180.137   -55547.762    7325.4633   -10381.026   -48945.541    79.520398 
   81800    1426.3767   -121.18768    1.2906156   -119.89707    812.56235    4.2914116    4.2914116    4.2914116    812.56235    -6479.163    15797.603   -6880.7525    9062.3198   -3854.0651   -16232.359     79.03155 
   81900    2170.7945   -121.84368    1.9641805    -119.8795   -2837.9362     4.296584     4.296584     4.296584   -2837.9362     6088.607    1733.0719   -16335.488    1938.3255    492.68339    28797.824    79.317664 
   82000    1036.7382   -120.82584    0.9380625   -119.88777   -21576.976    4.3005688    4.3005688    4.3005688   -21576.976    27192.338   -17658.685   -74264.581    4766.5051   -4810.4652   -10377.769    79.538557 
   82100    960.79017   -120.75469   0.86934314   -119.88535   -9658.8014    4.2930449    4.2930449    4.2930449   -9658.8014    9191.8944    33892.883   -72061.181   -2503.9347   -12894.435   -45051.417    79.121827 
   82200    1791.0296   -121.49615    1.6205612   -119.87559    6095.6424      4.29383      4.29383      4.29383    6095.6424    1990.3394    42052.687     -25756.1    2359.3618   -11051.732    6306.3215    79.165242 
   82300    1551.7684   -121.28843    1.4040727   -119.88436   -6188.0428    4.2966691    4.2966691    4.2966691   -6188.0428    17064.967    11577.833   -47206.927   -1379.2491     11191.33    39548.485    79.322375 
   82400    686.98671   -120.51902   0.62160001   -119.89742   -8532.4933     4.292605     4.292605     4.292605   -8532.4933    51040.337    12764.562   -89402.379   -8636.4169   -2655.5504   -30894.783    79.097507 
   82500    1370.7815   -121.13694    1.2403119   -119.89663   -3638.2498    4.2947344    4.2947344    4.2947344   -3638.2498    15145.318    16356.366   -42416.433    7482.4665   -16389.898   -51080.684    79.215276 
   82600    2329.3112    -121.9867    2.1076097   -119.87909    10390.351    4.2958415    4.2958415    4.2958415    10390.351   -12516.353    42189.491    1497.9151    2816.2617    2297.9067    8800.3231    79.276552 
   82700    1563.8885   -121.30636    1.4150392   -119.89132   -2272.2052    4.2931324    4.2931324    4.2931324   -2272.2052    8758.1199    31906.994    -47481.73   -2962.9748    16721.913   -11655.633    79.126663 
   82800    1055.8766   -120.85224   0.95537935   -119.89686   -11890.332    4.2964871    4.2964871    4.2964871   -11890.332     42624.42   -30635.643   -47659.775    1294.6673   -490.28253   -44210.429    79.312299 
   82900    2088.9468   -121.77073    1.8901229   -119.88061    125.91405    4.2983226    4.2983226    4.2983226    125.91405    2886.2783    5126.1299   -7634.6661   -7309.1991   -5727.8106    254.55641    79.413989 
   83000    2077.5108   -121.75423    1.8797754   -119.87446    4461.5144    4.2975086    4.2975086    4.2975086    4461.5144   -27297.926    37177.446    3505.0236    15118.179    18038.872    2702.0953    79.368884 
   83100    1166.2503    -120.9418    1.0552477   -119.88656   -20230.716    4.2968348    4.2968348    4.2968348   -20230.716   -7893.4654   -24802.714   -27995.969    14587.248    19449.557   -61948.733    79.331556 
   83200    1294.7597   -121.06013    1.1715258   -119.88861    2081.8871    4.2912457    4.2912457    4.2912457    2081.8871     29178.79   -6019.4731   -16913.655    -12814.81   -3898.8142   -30981.914    79.022389 
   83300     2160.687   -121.83306     1.955035   -119.87803    4069.1867    4.2966384    4.2966384    4.2966384    4069.1867   -16041.101    21518.767    6729.8939    2945.7221    3338.8642    36969.309    79.320677 
   83400    1409.5617   -121.16552    1.2754011   -119.89012   -12239.879    4.2982791    4.2982791    4.2982791   -12239.879   -10387.942     1634.381   -27966.075     7658.062    18044.995   -12784.379    79.411577 
   83500    554.90293   -120.40204   0.50208784   -119.89995    6955.2894      4.28811      4.28811      4.28811    6955.2894    30771.535    27510.153    -37415.82    2757.7704    15655.381   -70422.318    78.849286 
   83600    1625.2192   -121.36297    1.4705325   -119.89244    1893.0234     4.300886     4.300886     4.300886    1893.0234    4355.2569    3135.0735   -1811.2601    3248.6419   -821.87527   -15801.438    79.556158 
   83700     2093.895   -121.76507    1.8946002   -119.87047   -6536.5635    4.3085921    4.3085921    4.3085921   -6536.5635   -3216.7036   -2453.9988   -13938.988   -14933.152   -16826.753    16862.426    79.984554 
   83800    762.15898   -120.56524   0.68961746   -119.87562    4565.0073    4.2998592    4.2998592    4.2998592    4565.0073    61589.753    7804.7877   -55699.518    3609.2884    14018.898   -56003.831    79.499189 
   83900    1215.3554   -120.96797    1.0996791   -119.86829   -944.17217    4.3046366    4.3046366    4.3046366   -944.17217    50755.481    730.99904   -54318.997   -997.94068    15845.706   -29651.219    79.764472 
   84000    2093.8375   -121.74781    1.8945481   -119.85326    14041.273     4.300261     4.300261     4.300261    14041.273    34475.066    21748.217   -14099.463    2032.8269   -8182.2153    26931.839    79.521478 
   84100    1277.1525   -121.02938    1.1555944   -119.87378    15222.226    4.2886897    4.2886897    4.2886897    15222.226    78879.103    7677.0284   -40889.455    2904.2717   -3015.9812   -22716.741    78.881265 
   84200    781.45124   -120.59842    0.7070735   -119.89134   -20001.368    4.2985806    4.2985806    4.2985806   -20001.368    39166.339   -17010.468   -82159.976   -2925.2536    32276.393   -53243.719    79.428294 
   84300     1736.499   -121.44935    1.5712208   -119.87813   -2411.7278    4.3015827    4.3015827    4.3015827   -2411.7278   -723.28696    33747.211   -40259.107    501.23507     30391.65   -4367.9702    79.594824 
   84400    1842.5595   -121.53959    1.6671865    -119.8724    10852.746    4.3030298    4.3030298    4.3030298    10852.746    42800.555    22473.466   -32715.783    -10094.06   -9832.8606    733.42903     79.67518 
   84500    991.75855   -120.77293   0.89736398   -119.87557   -25500.196    4.3134719    4.3134719    4.3134719   -25500.196     21977.47   -29325.704   -69152.354   -4600.9061     9067.371   -38888.624    80.256631 
   84600    1698.7021   -121.40023    1.5370214   -119.86321   -1093.2111    4.2985664    4.2985664    4.2985664   -1093.2111    6636.2504    22849.539   -32765.423   -8838.9571    30506.104   -4502.9849    79.427506 
   84700    2035.7287   -121.69884    1.8419701   -119.85687    35613.034    4.2844044    4.2844044    4.2844044    35613.034    34618.369    66138.766    6081.9685   -8685.1106     4614.754    13621.502    78.645047 
   84800    864.40649   -120.67058   0.78213316   -119.88844   -5473.0372    4.3005253    4.3005253    4.3005253   -5473.0372    16526.977    6294.2923    -39240.38   -4568.8661   -26565.626   -43622.326    79.536143 
   84900    1113.0286   -120.89201    1.0070916   -119.88492   -19310.358    4.3088412    4.3088412    4.3088412   -19310.358    11399.683   -21386.049   -47944.707    646.33744    -8684.687   -25106.361    79.998432 
   85000    2378.4502   -122.01686    2.1520718   -119.86479    25317.982    4.2937315    4.2937315    4.2937315    25317.982    29022.709    45200.234    1731.0037    6417.6829    5397.7824    27954.177    79.159794 
   85100    1768.7166   -121.47733     1.600372   -119.87696    14867.249    4.2966638    4.2966638    4.2966638    14867.249    27433.611     19440.98   -2272.8427   -16374.428   -15252.722   -20340.726    79.322087 
   85200    1118.1515   -120.89404    1.0117269   -119.88231   -18535.141    4.3102604    4.3102604    4.3102604   -18535.141    21398.112   -35326.281   -41677.255   -19.361514   -17267.609    -45732.59    80.077503 
   85300    2171.9746   -121.82832    1.9652483   -119.86307    1068.6859    4.3018899    4.3018899    4.3018899    1068.6859    18812.317   -10990.969   -4615.2906    1913.1764    3466.8741    5939.6881    79.611877 
   85400    2351.0832   -121.98899    2.1273095   -119.86168    6739.5031    4.2927406    4.2927406    4.2927406    6739.5031     322.4582    849.18349    19046.868   -17561.288     19607.15    12672.468    79.105001 
   85500     1039.693    -120.8311   0.94073609   -119.89037   -17929.089    4.2943663    4.2943663    4.2943663   -17929.089    -10510.89   -23784.376   -19492.002   -15332.438   -1914.7981   -50160.874    79.194907 
   85600    1127.3327   -120.92296    1.0200343   -119.90293   -2497.5546    4.2949139    4.2949139    4.2949139   -2497.5546   -9178.9911    14205.764   -12519.436    2766.7064   -23927.344   -43290.451    79.225206 
   85700    2321.6688   -121.98805    2.1006947   -119.88736    8699.9215     4.299898     4.299898     4.299898    8699.9215   -8033.7379     16628.52    17504.982    10162.905    -2672.628    19794.913    79.501343 
   85800    1689.7976   -121.41598    1.5289644   -119.88702    12792.778    4.2987132    4.2987132    4.2987132    12792.778   -9010.3222    27169.923    20218.732   -5267.5322     2584.886    9749.1036    79.435645 
   85900    779.03349    -120.5998   0.70488587   -119.89491   -8629.4396    4.2974385    4.2974385    4.2974385   -8629.4396   -9540.8333   -19176.586    2829.1008   -18629.527   -19639.316   -46461.476    79.364996 
   86000    1369.6855   -121.11927    1.2393203   -119.87995   -6173.1932    4.3013274    4.3013274    4.3013274   -6173.1932   -9189.6987   -1852.5529   -7477.3279    4409.8065   -13917.972   -22565.168    79.580654 
   86100    1733.6855   -121.42945    1.5686751   -119.86077   -16863.023    4.3085332    4.3085332    4.3085332   -16863.023    -22907.06   -10422.665   -17259.343    16281.599     8007.577    33065.948    79.981278 
   86200    734.85186   -120.53005   0.66490941   -119.86514   -35504.878    4.3102889    4.3102889    4.3102889   -35504.878    -2085.802   -59014.582   -45414.249   -22512.812    967.14009   -7566.2122     80.07909 
   86300    1212.5855   -120.96063    1.0971729   -119.86346   -11483.392    4.2928035    4.2928035    4.2928035   -11483.392   -11885.166    9988.7463   -32553.757   -22609.718   -17229.552   -27704.462    79.108476 
   86400    1789.1421   -121.48263    1.6188534   -119.86378     10375.59    4.2827698    4.2827698    4.2827698     10375.59    5579.8504    33239.622   -7692.7039    25383.919   -2352.7967     6508.584    78.555065 
   86500    1293.8145   -121.05735    1.1706706   -119.88668    -6617.023    4.2916929    4.2916929    4.2916929    -6617.023    7143.2529   -21932.247   -5062.0748    28099.647    6801.5381     16957.96    79.047095 
   86600    1225.6307   -121.00304    1.1089764   -119.89406   -1498.6674    4.3029447    4.3029447    4.3029447   -1498.6674    19055.106    1818.8911   -25369.999   -29542.654   -3855.1433    -9854.907    79.670454 
   86700    2117.4284   -121.79401    1.9158938   -119.87811    7284.8587    4.3042326    4.3042326    4.3042326    7284.8587    36952.151    11596.735    -26694.31   -24609.179   -4841.8865   -7970.2786    79.742011 
   86800     1855.133   -121.55691    1.6785633   -119.87835    16619.954    4.2924862    4.2924862    4.2924862    16619.954    43064.709    374.15381    6420.9996    42200.006   -1210.2183    8728.6461    79.090938 
   86900    1194.8503   -120.97175    1.0811256   -119.89063   -13434.971    4.2945199    4.2945199    4.2945199   -13434.971   -8500.3088   -38612.588    6807.9853    25322.987    4929.4447    2238.0169    79.203404 
   87000    2035.2771   -121.72316    1.8415615    -119.8816   -12149.807    4.2958903    4.2958903    4.2958903   -12149.807    17953.476   -35149.677   -19253.219   -37489.782    12123.472   -6014.9236    79.279254 
   87100    2190.0395   -121.85688    1.9815937   -119.87528    1642.2769    4.2968444    4.2968444    4.2968444    1642.2769     21503.41    -7303.161   -9273.4185    13631.512    768.73713     3619.827    79.332085 
   87200    1209.4682   -120.97974    1.0943522   -119.88539   -14569.916    4.3013171    4.3013171    4.3013171   -14569.916    2440.4218   -47589.976    1439.8053    57333.494   -2913.0756    7772.2632    79.580081 
   87300     1089.361   -120.87341   0.98567673   -119.88773     1350.668    4.2955425    4.2955425    4.2955425     1350.668    38832.378   -30632.367    -4148.006   -6250.7645    6700.0202    3954.1097    79.259996 
   87400    1797.0813   -121.49975     1.626037   -119.87371    13656.064    4.2926206    4.2926206    4.2926206    13656.064     24958.35     25919.01   -9909.1668   -34442.934    3361.8111    432.71022    79.098368 
   87500    1286.8086   -121.04565    1.1643315   -119.88132    -9758.116    4.3023541    4.3023541    4.3023541    -9758.116   -24144.762   -3406.9197   -1722.6663    43564.735    -4346.671     1496.068    79.637655 
   87600    759.03906   -120.56828   0.68679449   -119.88148   -25672.435    4.3071779    4.3071779    4.3071779   -25672.435   -36223.457    -32150.19   -8643.6572    55686.655    904.34244    3624.9287    79.905821 
   87700    1740.7336   -121.43561    1.5750524   -119.86056    4779.7816    4.2986337    4.2986337    4.2986337    4779.7816    4894.9178    15334.269   -5889.8424   -23681.327    10108.867    3559.7384    79.431235 
   87800     1597.938   -121.30645    1.4458479    -119.8606   -8318.4437    4.3025568    4.3025568    4.3025568   -8318.4437   -39435.068   -14226.704    28706.441    17565.401    1687.2663    2784.5581     79.64891 
   87900    567.76624   -120.38321   0.51372683   -119.86948    -16034.41    4.3036976    4.3036976    4.3036976    -16034.41   -46428.925   -48433.584    46759.279    72576.085   -15850.611    4114.8086     79.71228 
   88000    1548.6568   -121.25984    1.4012572   -119.85858    14541.838    4.2970551    4.2970551    4.2970551    14541.838    595.78578    13998.305    29031.423    1848.4374   -1846.3344    -3289.712    79.343757 
   88100    1819.3235   -121.50421    1.6461621   -119.85804    4232.8607    4.3020307    4.3020307    4.3020307    4232.8607   -16977.795    7842.5665     21833.81    976.01159    12068.551   -6965.6472    79.619695 
   88200    984.71416   -120.77126   0.89099006   -119.88027   -9277.7185    4.2959814    4.2959814    4.2959814   -9277.7185   -53467.482   -25404.551    51038.877    72342.271    -10375.26    1748.9339    79.284299 
   88300    1120.9418   -120.89451    1.0142517   -119.88026    22525.046    4.2866029    4.2866029    4.2866029    22525.046       -18580    44632.434    41522.704    23903.618    -17758.54    5483.0339    78.766173 
   88400     1796.494   -121.50442    1.6255056   -119.87892    2014.2509    4.2975656    4.2975656    4.2975656    2014.2509    10330.439    3352.7548   -7640.4408   -29844.738    -5970.834    1117.5882    79.372038 
   88500      1662.38   -121.38481    1.5041563   -119.88065   -2902.1827    4.3000499    4.3000499    4.3000499   -2902.1827    51.912427   -27346.481     18588.02    13980.712    11297.638    1478.0458    79.509766 
   88600    1657.6756   -121.37846    1.4998997   -119.87856    12039.857    4.2924005    4.2924005    4.2924005    12039.857   -14684.558    4175.8719    46628.257    45450.255   -9945.5021   -2654.6318    79.086203 
   88700    1761.0513   -121.47219    1.5934362   -119.87875   -8681.0876    4.2986186    4.2986186    4.2986186   -8681.0876   -4112.8748    1873.7317    -23804.12    8316.1061   -40990.804    7153.6241    79.430399 
   88800     1711.836   -121.42757    1.5489052   -119.87867    431.49261    4.2956484    4.2956484    4.2956484    431.49261    42382.288   -24539.108   -16548.702   -17190.479   -2080.9208    10444.671     79.26586 
   88900     1982.865   -121.66883    1.7941379   -119.87469    8844.9764    4.2899926    4.2899926    4.2899926    8844.9764    12558.319   -25827.194    39803.805    -4415.185    6999.0575    3506.8204    78.953181 
   89000    1867.7052   -121.56588    1.6899389   -119.87594   -9552.4271    4.3023022    4.3023022    4.3023022   -9552.4271   -10763.838    3245.9784   -21139.421    15854.403    -10801.73    2398.0304    79.634772 
   89100    1611.6558   -121.33459      1.45826   -119.87633   -7747.1738    4.2984356    4.2984356    4.2984356   -7747.1738    25654.947   -3881.7658   -45014.702     530.9738   -16156.951    6658.2985    79.420253 
   89200    1431.0761     -121.173    1.2948677   -119.87814     6829.735    4.2864881    4.2864881    4.2864881     6829.735    8352.3628   -12883.236    25020.079   -38325.056   -6719.0123    6544.4608    78.759847 
   89300    1565.3486   -121.30068    1.4163603   -119.88432    3389.1385     4.293397     4.293397     4.293397    3389.1385   -17158.466   -5295.2202    32621.102    -22882.57    14535.138     3356.903    79.141293 
   89400    1841.8593   -121.54194     1.666553   -119.87538     872.5097    4.2986361    4.2986361    4.2986361     872.5097   -21956.091    31632.721   -7059.1009     13518.63   -2186.4821   -5565.0321    79.431368 
   89500    1068.7618   -120.85113    0.9670381    -119.8841   -3370.6063    4.2984358    4.2984358    4.2984358   -3370.6063    -28866.49   -1822.0157    20576.687   -24273.714   -15499.454    267.90706    79.420263 
   89600    1010.6024   -120.79602   0.91441431   -119.88161   -5180.0957    4.3001169    4.3001169    4.3001169   -5180.0957   -18455.743   -53441.315    56356.771   -47254.277    211.00544    7151.7994    79.513487 
   89700    1600.7236    -121.3098    1.4483684   -119.86143   -1052.8136    4.2978575    4.2978575    4.2978575   -1052.8136   -33120.987   -2270.9509    32233.497    9877.2638    7776.3977    1470.5939    79.388214 
   89800    827.88492    -120.6211   0.74908768   -119.87201   -16579.724     4.299354     4.299354     4.299354   -16579.724   -86261.374    3797.2849    32724.917    11479.934    1578.7896   -4123.4267    79.471173 
   89900     1082.389   -120.85634   0.97936827   -119.87698   -14228.049    4.2977584    4.2977584    4.2977584   -14228.049   -59626.248   -18376.418     35318.52    -31185.15   -23502.927   -1216.8019    79.382723 
   90000    1911.8257   -121.59616      1.72986    -119.8663    15856.082     4.289554     4.289554     4.289554    15856.082    -8758.022   -468.76362    56795.032   -5035.9037    6996.3564   -2207.5042    78.928965 
   90100    1099.3488   -120.88208   0.99471389   -119.88737   -11059.216    4.2930958    4.2930958    4.2930958   -11059.216    -80341.28    9989.6597    37173.974    38244.127    15962.292    5091.9516    79.124636 
   90200    836.42834   -120.65098   0.75681794   -119.89416   -29706.226    4.3001626    4.3001626    4.3001626   -29706.226   -87023.423    25763.448   -27858.704    14764.474   -12397.223   -3423.0012    79.516022 
   90300    2057.7844    -121.7376    1.8619265   -119.87567   -131.41481    4.3004124    4.3004124    4.3004124   -131.41481   -24501.281    11432.078    12674.959   -4966.7936   -15956.849   -6041.2027    79.529876 
   90400    2035.4571    -121.7145    1.8417243   -119.87278   -5428.2181    4.2991935    4.2991935    4.2991935   -5428.2181   -26204.334   -29489.232    39408.912    23953.417    2343.3139    2540.6463    79.462271 
   90500    1143.1988   -120.91554    1.0343903   -119.88115   -303.89727    4.2919282    4.2919282    4.2919282   -303.89727   -17611.356   -8150.9148    24850.579    34487.568    2940.4516    273.84807    79.060098 
   90600    1617.7086   -121.34527    1.4637367   -119.88154     4879.089    4.2950977    4.2950977    4.2950977     4879.089     -9349.65    18609.298    5377.6188    5767.3402    -2134.895    3018.0077    79.235381 
   90700    2122.0412   -121.79553    1.9200675   -119.87547    2368.1208     4.298804     4.298804     4.298804    2368.1208    8497.2785    -24094.19    22701.274   -18802.079    7702.3495    -3187.686    79.440675 
   90800    1583.3911   -121.31346    1.4326856   -119.88078    13816.521    4.2915931    4.2915931    4.2915931    13816.521     36493.71   -52518.593    57474.447   -7486.7874   -3787.7922    520.07269     79.04158 
   90900    1571.1316   -121.30584    1.4215929   -119.88425    1132.5231    4.2964634    4.2964634    4.2964634    1132.5231    7802.4051   -28140.037    23735.202    16305.418    12827.267    9065.9767    79.310984 
   91000    1907.6934   -121.60198    1.7261211   -119.87586    9659.6328    4.2951728    4.2951728    4.2951728    9659.6328    20775.681     1464.119    6739.0981    1976.7162    12511.937   -7262.4992    79.239537 
   91100    1620.7166   -121.34843    1.4664584   -119.88197    3680.8717    4.2900817    4.2900817    4.2900817    3680.8717    28569.542   -43310.992    25784.066   -40892.888   -7907.0025   -10350.487      78.9581 
   91200    1324.2661   -121.08627    1.1982238   -119.88804   -8922.2613     4.296603     4.296603     4.296603   -8922.2613   -20050.825   -55274.727    48558.768   -22043.978    5500.1415   -1177.0514    79.318718 
   91300    1977.4471   -121.66341    1.7892357   -119.87418    1961.4304    4.2942891    4.2942891    4.2942891    1961.4304   -8930.1117    5993.8528    8820.5501    28829.087    3539.1919    1147.4338    79.190637 
   91400    1462.6475   -121.20274    1.3234342   -119.87931   -1180.0481    4.2955507    4.2955507    4.2955507   -1180.0481   -12845.828    516.20948    8789.4741    -19935.69    8306.9339    4769.1176     79.26045 
   91500    941.61496   -120.73886   0.85199301   -119.88687   -28544.265    4.3005771    4.3005771    4.3005771   -28544.265    -67236.22   -49274.018    30877.444    -74960.51     2725.737   -15789.375    79.539017 
   91600     1644.727   -121.36468    1.4881836   -119.87649    3863.2963    4.2889435    4.2889435    4.2889435    3863.2963   -25656.363    11980.254    25265.998   -7980.3273   -3424.4486   -13585.037     78.89527 
   91700    1788.9472   -121.49436     1.618677   -119.87569   -273.69062    4.2925243    4.2925243    4.2925243   -273.69062    -31792.51    34260.957   -3289.5193    10982.734    6863.1625    8319.7226    79.093043 
   91800     449.5754   -120.29727   0.40678527   -119.89048   -39805.819    4.3064222    4.3064222    4.3064222   -39805.819   -113424.17   -27174.416    21181.127   -78152.925   -1234.7848   -165.82716    79.863771 
   91900      1042.25   -120.82733   0.94304974   -119.88428   -9342.0182    4.2886841    4.2886841    4.2886841   -9342.0182   -47265.708   -5988.4789    25228.132   -41950.524    5104.8558   -2788.5378     78.88096 
   92000    1868.4258   -121.56344    1.6905909   -119.87285    13755.834    4.2851016    4.2851016    4.2851016    13755.834    7215.7171    11543.387    22508.398    38233.868   -4832.9515   -11047.535    78.683445 
   92100    1175.9824   -120.94886    1.0640536   -119.88481     -28607.7    4.3013903    4.3013903    4.3013903     -28607.7   -79530.985   -31432.378    25140.263   -22498.961   -698.30452   -7275.5692    79.584142 
   92200    1396.1085   -121.14432    1.2632283   -119.88109   -7168.4404    4.2940361    4.2940361    4.2940361   -7168.4404   -28099.734     -19342.4    25936.812   -58725.102    12029.489    2266.2208    79.176638 
   92300    1852.0705   -121.55111    1.6757924   -119.87532    11342.493    4.2911085    4.2911085    4.2911085    11342.493     40552.47   -2881.2809   -3643.7091    2304.0759   -6013.0807    12001.821     79.01481 
   92400    1339.4111   -121.09671    1.2119273   -119.88479   -5133.8887    4.2950623    4.2950623    4.2950623   -5133.8887    14017.629   -21744.532   -7674.7635    31521.725   -3699.6944    7387.2788    79.233418 
   92500    1423.6336   -121.17109    1.2881336   -119.88296    14319.533    4.2929849    4.2929849    4.2929849    14319.533    31246.051   -2757.3351    14469.883    1737.5796    3193.2543   -7962.1398    79.118505 
   92600     2222.246   -121.88309    2.0107349   -119.87236    7113.3958    4.2982927    4.2982927    4.2982927    7113.3958    43091.243    7220.3394   -28971.395   -23998.066   -549.62442    13862.451    79.412333 
   92700    1293.5705   -121.05589    1.1704498   -119.88544   -9360.5031    4.3011662    4.3011662    4.3011662   -9360.5031    46230.787   -10568.827   -63743.469    5481.1462    4197.2277    27066.167    79.571708 
   92800    1039.7624   -120.82545   0.94079883   -119.88465   -4365.6833     4.293777     4.293777     4.293777   -4365.6833    26383.461   -21247.143   -18233.368      45402.1   -656.60548    1482.8784    79.162311 
   92900    1987.0729   -121.67336    1.7979453   -119.87541    8265.0727    4.2911227    4.2911227    4.2911227    8265.0727    2025.3399    10989.604    11780.274    23952.478   -1746.9712   -13623.686    79.015591 
   93000    1804.6161   -121.50932    1.6328546   -119.87647   -10052.308    4.3017986    4.3017986    4.3017986   -10052.308    12465.709    -539.3273   -42083.306    -15601.39   -4033.6243    33050.224    79.606807 
   93100    1058.5677   -120.84081   0.95781426   -119.88299   -16833.035    4.2997653    4.2997653    4.2997653   -16833.035   -6065.7359   -6984.9862   -37448.383    12255.233   -937.88606     34194.57    79.493982 
   93200    1398.6358   -121.13959    1.2655151   -119.87407    4773.4637    4.2925328    4.2925328    4.2925328    4773.4637   -30053.582    21105.697    23268.276    42927.714   -866.65519   -18988.578    79.093511 
   93300    1634.9443   -121.34671    1.4793319   -119.86738    -9731.101    4.3025273    4.3025273    4.3025273    -9731.101   -46230.906    8082.2979     8955.305   -16911.559    397.15013    6230.9435    79.647269 
   93400    965.49942   -120.74989   0.87360416   -119.87628   -16196.927    4.3014595    4.3014595    4.3014595   -16196.927   -22685.971   -5819.6454   -20085.166   -40011.819    4746.7992    36997.886    79.587988 
   93500    1393.0868   -121.13323    1.2604942   -119.87273    2898.2562    4.2877591    4.2877591    4.2877591    2898.2562    11298.104    10861.505    -13464.84    15342.095   -6105.2511   -3074.2812    78.829928 
   93600    2022.3408   -121.70171    1.8298564   -119.87186   -3318.5012    4.2946514    4.2946514    4.2946514   -3318.5012   -13996.136    1314.5913    2726.0407    1593.8905   -459.56611   -17718.832    79.210682 
   93700    1426.5138    -121.1783    1.2907397   -119.88757   -20873.912    4.2988801    4.2988801    4.2988801   -20873.912    -23973.24   -33660.781   -4987.7141   -57313.889    8229.4025    15776.037    79.444897 
   93800    1077.6265   -120.86952   0.97505911   -119.89447     7068.527    4.2861967    4.2861967    4.2861967     7068.527     43932.06   -12972.276   -9754.2021   -31751.524    4384.6783    25881.955    78.743786 
   93900    2004.6192   -121.70198    1.8138215   -119.88816    10215.237    4.2953289    4.2953289    4.2953289    10215.237     47612.73    13599.375   -30566.394     14681.46   -3453.1709   -3322.7265    79.248178 
   94000    2165.2292   -121.83707    1.9591449   -119.87792   -1059.3045    4.3011882    4.3011882    4.3011882   -1059.3045    10258.915   -12296.356   -1140.4721   -3521.5606   -2042.6596   -11657.634     79.57293 
   94100    1224.4965   -120.99055    1.1079502    -119.8826    13930.339    4.2926372    4.2926372    4.2926372    13930.339    14357.118    125.16584    27308.732   -44641.944    9636.1833     18432.45    79.099286 
   94200     1670.237   -121.38981    1.5112655   -119.87855    26.857061      4.29956      4.29956      4.29956    26.857061    41570.818   -13396.612   -28093.634    -3970.681    6844.8787     38067.71    79.482594 
   94300    2245.5499   -121.89862    2.0318208    -119.8668     7723.488    4.2960691    4.2960691    4.2960691     7723.488    45278.675   -19007.085   -3101.1259    7644.4792   -9470.5319    8557.5221    79.289151 
   94400    1531.0896   -121.25908    1.3853621   -119.87372     7515.339    4.2846322    4.2846322    4.2846322     7515.339   -7994.8802   -18554.113     49095.01   -46060.509    12109.671   -13740.542    78.657588 
   94500      888.128   -120.69562   0.80359688   -119.89203   -21494.193    4.2979179    4.2979179    4.2979179   -21494.193    -21771.72   -39127.455   -3583.4024   -24833.104    17356.423    27083.022    79.391563 
   94600    1610.3724   -121.33628    1.4570988   -119.87918   -19382.601    4.2999685    4.2999685    4.2999685   -19382.601    5967.8624   -30720.522   -33395.144    12500.227    2736.1725    41686.537    79.505254 
   94700    1567.0941   -121.29023    1.4179396   -119.87229    19659.111     4.283651     4.283651     4.283651    19659.111    18002.638   -2677.6492    43652.343   -20458.166   -9740.4761    2853.9696    78.603567 
   94800    872.35215   -120.67438   0.78932256   -119.88505   -11049.159    4.2960399    4.2960399    4.2960399   -11049.159    -60333.62   -23998.702    51184.845    -42765.75   -3300.9154   -10033.351    79.287535 
   94900    1382.9805   -121.12427    1.2513499   -119.87292   -22721.725    4.3030348    4.3030348    4.3030348   -22721.725   -51281.405   -22815.184     5931.416    12991.627    23648.385    16347.306     79.67546 
   95000    1553.6316   -121.26901    1.4057586   -119.86325    16079.083    4.2904833    4.2904833    4.2904833    16079.083    23108.642    7395.9925    17732.615    7647.2279    919.63363    8864.2043    78.980275 
   95100    921.46024   -120.71069   0.83375659   -119.87693   -8046.7088    4.2967173    4.2967173    4.2967173   -8046.7088   -32837.855   -24191.739    32889.468   -62525.235   -16309.033   -5874.9095     79.32505 
   95200     1175.156   -120.94271    1.0633058   -119.87941   -20277.781    4.2984078    4.2984078    4.2984078   -20277.781   -44932.089   -38260.364     22359.11   -12598.589    6301.2263   -10475.614    79.418715 
   95300    1770.0368    -121.4771    1.6015665   -119.87553    16741.232    4.2849357    4.2849357    4.2849357    16741.232    19228.352    4015.3517    26979.992    46189.256    12503.042    779.93212    78.674305 
   95400    1647.6015   -121.37472    1.4907845   -119.88393    4529.4723    4.2903346    4.2903346    4.2903346    4529.4723     3465.272   -8824.8615    18948.006   -19674.782   -11379.512    5981.9294    78.972065 
   95500    1116.2838   -120.89892     1.010037   -119.88888    -16371.71    4.2981362    4.2981362    4.2981362    -16371.71   -27491.689   -30507.627    8884.1861   -50358.348   -29135.922   -4445.7064    79.403661 
   95600    1359.5045   -121.11276    1.2301083   -119.88265    2729.1313    4.2963148    4.2963148    4.2963148    2729.1313    7757.5092   -14517.822    14947.707    24807.387   -899.55117    1390.3472    79.302755 
   95700    1826.0286   -121.52309    1.6522291   -119.87086   -10292.867    4.3005556    4.3005556    4.3005556   -10292.867    1636.4519    -25873.12   -6641.9331    30062.814     10766.33   -23.927505    79.537824 
   95800    1415.6724   -121.15723    1.2809301    -119.8763   -14909.309    4.2931175    4.2931175    4.2931175   -14909.309   -16301.824   -10552.456   -17873.647   -46217.835    -36320.37   -1159.5643    79.125839 
   95900    1400.1298   -121.14575    1.2668669   -119.87888    11496.378    4.2821705    4.2821705    4.2821705    11496.378   -3751.6693     18003.76    20237.042   -32016.055   -17736.869    4193.5537    78.522095 
   96000    1778.2246   -121.49094    1.6089749   -119.88197   -1812.8213    4.2956548    4.2956548    4.2956548   -1812.8213    -8132.652   -13130.395    15824.583      37049.1    20032.823   -12711.077    79.266216 
   96100    1738.1353   -121.45106    1.5727014   -119.87835   -8894.4983    4.3025239    4.3025239    4.3025239   -8894.4983   -13071.641   -17344.539    3732.6842    8431.7296   -558.10356   -4901.8881    79.647081 
   96200    1520.2808   -121.25241     1.375582   -119.87682    8576.9729    4.2911417    4.2911417    4.2911417    8576.9729   -17745.184    17931.562     25544.54   -42861.259   -18478.577    5490.4009    79.016643 
   96300    1667.4463   -121.38673    1.5087404   -119.87799     5576.479    4.2922554    4.2922554    4.2922554     5576.479   -32141.522    6600.5721    42270.387    1187.8238     5862.069    369.79608     79.07818 
   96400    1892.0475   -121.58668    1.7119644   -119.87472    4018.0525    4.2930768    4.2930768    4.2930768    4018.0525   -29129.771    15580.864    25603.065    29761.488    21770.333   -3936.4996    79.123588 
   96500    1563.2475    -121.2929    1.4144592   -119.87844    14862.786    4.2888524    4.2888524    4.2888524    14862.786   -27835.927    27494.665    44929.621   -34315.097   -9156.1471   -5635.1107    78.890244 
   96600    1132.3758    -120.9119    1.0245974    -119.8873   -13457.496    4.2987217    4.2987217    4.2987217   -13457.496     -58201.4    -14980.91    32809.823   -52744.103   -13276.834    8955.4706    79.436111 
   96700    1435.8787   -121.17641    1.2992132   -119.87719   -6477.9978    4.2968299    4.2968299    4.2968299   -6477.9978   -44066.681    28265.278   -3632.5901    21769.909    19032.024    6087.3431    79.331286 
   96800     1398.579   -121.13902    1.2654637   -119.87356    3368.4359    4.2862919    4.2862919    4.2862919    3368.4359   -34658.182    30146.384    14617.106    3583.7104    18099.404    -6580.694    78.749033 
   96900    924.85453   -120.72298   0.83682782   -119.88615   -24844.256    4.2926043    4.2926043    4.2926043   -24844.256   -68042.023   -49661.479    43170.734   -77325.915   -7991.5106    5663.4792    79.097464 
   97000     1460.667   -121.20156    1.3216422   -119.87992   -14941.982    4.2941317    4.2941317    4.2941317   -14941.982   -42303.859   -7206.9691    4684.8818   -24920.798   -1047.2382        13047     79.18193 
   97100    1753.0046   -121.45982    1.5861554   -119.87366   -9696.8508    4.2968072    4.2968072    4.2968072   -9696.8508   -18700.478    17409.493   -27799.567    13017.654     21924.36    11242.124    79.330027 
   97200    940.16689   -120.73435   0.85068276   -119.88367   -30867.689    4.3036647    4.3036647    4.3036647   -30867.689   -68705.245   -56174.946    32277.124   -73198.883    17265.211    267.57597    79.710456 
   97300    1618.2117   -121.34299     1.464192    -119.8788    -424.5426    4.2898662    4.2898662    4.2898662    -424.5426   -45101.916   -2163.5678    45991.856    -34676.36   -6356.9054    -11087.05      78.9462 
   97400    2397.6228   -122.03823    2.1694195   -119.86881    22971.931    4.2828519    4.2828519    4.2828519    22971.931    28641.991    34039.415     6234.387    35934.707   -5189.2043      10352.1    78.559584 
   97500     1605.579   -121.34278    1.4527616   -119.89002   -6426.0434    4.2916555    4.2916555    4.2916555   -6426.0434    -24995.38   -5460.4832    11177.733   -46692.632     394.3294    12172.401    79.045028 
   97600     1206.502   -120.98897    1.0916684    -119.8973   -5640.8287    4.2934844    4.2934844    4.2934844   -5640.8287   -32727.205    -10959.66    26764.379   -83149.857    8630.5425     633.6022     79.14613 
   97700    2053.1463   -121.74282    1.8577299   -119.88509    8173.2179    4.2959046    4.2959046    4.2959046    8173.2179    20730.572     4731.707   -942.62507    16572.729    10399.614   -5428.0222    79.280043 
   97800    2024.9156   -121.71451    1.8321862   -119.88232    4062.4181    4.2942342    4.2942342    4.2942342    4062.4181    25562.761    -19851.81    6476.3024    14729.338   -4750.9303   -6247.9305      79.1876 
   97900    949.45558   -120.75064   0.85908736   -119.89155    8551.5421    4.2878447    4.2878447    4.2878447    8551.5421    9638.0318   -38786.309    54802.904   -75677.999    1542.6887    6781.5153    78.834651 
   98000    1530.5494    -121.2716    1.3848733   -119.88673    4801.2124    4.2970718    4.2970718    4.2970718    4801.2124    12441.953   -9789.7178    11751.402   -17967.321    13888.606    9005.1214    79.344683 
   98100    2169.2734    -121.8223    1.9628042   -119.85949    5676.9492    4.3039226    4.3039226    4.3039226    5676.9492    33738.218    7583.5336   -24290.904    9718.5147    8907.0367    628.11231    79.724783 
   98200    1436.6525   -121.16408    1.2999134   -119.86416   -666.61904    4.2974888    4.2974888    4.2974888   -666.61904   -11638.161   -20408.444    30046.748   -80867.514   -4051.5771   -1791.2646    79.367783 
   98300    1376.3165   -121.11302    1.2453201    -119.8677   -1312.5383    4.2910891    4.2910891    4.2910891   -1312.5383   -21403.539   -4567.7741    22033.698   -31206.011     276.4954    5145.9034    79.013738 
   98400    1549.8102   -121.27038    1.4023009   -119.86808    -1101.305    4.2886009    4.2886009    4.2886009    -1101.305   -21138.723    26249.418     -8414.61     34125.52    12715.174    1813.9729    78.876365 
   98500    996.58936   -120.78134     0.901735   -119.87961    1033.5217    4.2937415    4.2937415    4.2937415    1033.5217   -48673.185    32004.446    19769.304   -24297.663    10950.575    842.28816    79.160349 
   98600    1509.9669   -121.23827    1.3662498   -119.87202   -13048.192    4.3014269    4.3014269    4.3014269   -13048.192   -55609.365   -6649.1129    23113.903   -42040.586   -6931.3775   -2480.1287    79.586175 
   98700    1077.7082   -120.85149   0.97513299   -119.87636   -11416.735     4.293695     4.293695     4.293695   -11416.735   -35842.577    12654.435   -11062.062   -5199.4361    -4990.682   -7086.1879    79.157777 
   98800    619.92054   -120.44614   0.56091713   -119.88522   -7059.1334    4.2853258    4.2853258    4.2853258   -7059.1334   -38898.078    20923.402   -3202.7239    25464.984     9090.815    1068.0958    78.695795 
   98900    1667.4709   -121.38947    1.5087627   -119.88071     1108.136    4.2940869    4.2940869    4.2940869     1108.136   -20298.381   -4018.3099    27641.099    11236.558    12027.776    -1594.608    79.179451 
   99000    1926.3485   -121.61655    1.7430006   -119.87355   -5209.1356    4.3025957    4.3025957    4.3025957   -5209.1356    5686.0179   -14578.099    -6735.326   -12458.372   -8437.6412   -1984.7454    79.651072 
   99100    787.51011   -120.59412    0.7125557   -119.88156   -13537.732    4.3031887    4.3031887    4.3031887   -13537.732    3566.3632   -15776.955   -28402.605    12435.683   -3908.6876   -6474.6081    79.684006 
   99200    1697.7742   -121.40361    1.5361818   -119.86743   -4283.3926    4.2959932    4.2959932    4.2959932   -4283.3926    2508.0814   -19498.804    4140.5448    24462.299    13061.873   -3584.5985    79.284952 
   99300    2238.6707   -121.88429    2.0255963   -119.85869    15048.958    4.2887731    4.2887731    4.2887731    15048.958    28263.773   -10963.206    27846.307    -802.8143   -4206.2697    1291.3681     78.88587 
   99400     1132.435   -120.90653     1.024651   -119.88188   -10977.203    4.2934672    4.2934672    4.2934672   -10977.203    22498.117   -25479.075   -29950.652   -21643.358   -7084.5478    544.54452    79.145178 
   99500    1484.6508   -121.23135    1.3433433   -119.88801   -10050.807    4.2979382    4.2979382    4.2979382   -10050.807    29669.887   -19945.463   -39876.845   -5380.3074   -6952.3676    3029.9025    79.392688 
   99600    2679.2271   -122.29579     2.424221   -119.87157    14073.058    4.2943727    4.2943727    4.2943727    14073.058     30809.22   -8221.1829    19631.137    7757.8614   -3427.6912    528.76875    79.195263 
   99700    1557.4184   -121.29487    1.4091849   -119.88569    9560.4693    4.2925304    4.2925304    4.2925304    9560.4693    6582.1357   -457.30242    22556.575    -13554.76    1096.0594   -1146.4746    79.093381 
   99800    959.42315   -120.75694   0.86810623   -119.88884   -5524.8851    4.2982818    4.2982818    4.2982818   -5524.8851    26167.417   -25036.977   -17705.095   -13287.542   -22036.259    3949.6519    79.411728 
   99900    1785.8244   -121.48352    1.6158514   -119.86767    2292.9354    4.3019994    4.3019994    4.3019994    2292.9354    13173.794   -15469.452    9174.4649    22516.976   -1994.4903    6787.0166    79.617956 
  100000    1396.2551   -121.12599    1.2633609   -119.86263   -3461.0736    4.2970147    4.2970147    4.2970147   -3461.0736   -40528.365   -1839.2329    31984.377      27305.1    15043.675    -2673.986    79.341521 
Loop time of 22.4057 on 1 procs for 100000 steps with 8 atoms

Pair  time (%) = 7.02814 (31.3677)
Kspce time (%) = 5.40517 (24.1241)
Neigh time (%) = 0.0923243 (0.412058)
Comm  time (%) = 1.10596 (4.93607)
Outpt time (%) = 0.0251701 (0.112338)
Other time (%) = 8.74889 (39.0477)

Nlocal:    8 ave 8 max 8 min
Histogram: 1 0 0 0 0 0 0 0 0 0
Nghost:    2189 ave 2189 max 2189 min
Histogram: 1 0 0 0 0 0 0 0 0 0
Neighs:    2251 ave 2251 max 2251 min
Histogram: 1 0 0 0 0 0 0 0 0 0

Total # of neighbors = 2251
Ave neighs/atom = 281.375
Neighbor list builds = 1049
Dangerous builds = 0
unfix 20
unfix 21
print "seeds:5127948"
seeds:5127948
