LAMMPS (10 Feb 2015)
# ---- initialize simulations
clear
units metal
dimension 3
boundary p p p
atom_style charge
atom_modify map array
# ---- create atoms
read_data /Users/eugeneragasa/pyflamestk_git/pypospack/tests/tests_integration/workflow/WorkflowLammpsThermalExpansion/MgO_NaCl_unit.npt.T500/lammps.structure
  triclinic box = (0 0 0) to (4.2565 4.2565 4.2565) with tilt (0 0 0)
  1 by 1 by 1 MPI processor grid
  reading atoms ...
  8 atoms
# ---- define interatomic potential
include potential.mod
mass 1 24.305
mass 2 15.999

group Mg type 1
4 atoms in group Mg
group O type 2
4 atoms in group O

set group Mg charge 2.0
  4 settings made for charge
set group O charge -2.0
  4 settings made for charge

variable R_cut equal 10.0

pair_style buck/coul/long ${R_cut}
pair_style buck/coul/long 10
pair_coeff 1 1 0.0 0.5 0.0 ${R_cut}
pair_coeff 1 1 0.0 0.5 0.0 10
pair_coeff 1 2 1279.69 0.29969 0.0 ${R_cut}
pair_coeff 1 2 1279.69 0.29969 0.0 10
pair_coeff 2 2 9547.96 0.21916 32.0 ${R_cut}
pair_coeff 2 2 9547.96 0.21916 32.0 10

kspace_style pppm 1.0e-5

neighbor 1.0 bin
neigh_modify every 1 delay 0 check yes
# ---- define settings
compute eng all pe/atom
compute eatoms all reduce sum c_eng
# ---- run minimization
reset_timestep 0
fix 1 all box/relax iso 0.0 vmax 0.001
thermo 10
thermo_style custom step pe lx ly lz xy xz yz press pxx pyy pzz pxy pxz pyz c_eatoms
min_style cg
minimize 1e-25 1e-25 5000 10000
PPPM initialization ...
  G vector (1/distance) = 0.354854
  grid = 8 8 8
  stencil order = 5
  estimated absolute RMS force accuracy = 5.34408e-05
  estimated relative force accuracy = 3.71126e-06
  using double precision FFTs
  3d grid and FFT values/proc = 3375 512
Neighbor list info ...
  1 neighbor list requests
  update every 1 steps, delay 0 steps, check yes
  master list distance cutoff = 11
Memory usage per processor = 4.06549 Mbytes
Step PotEng Lx Ly Lz Xy Xz Yz Press Pxx Pyy Pzz Pxy Pxz Pyz eatoms 
       0    -164.6599       4.2565       4.2565       4.2565            0            0            0   -75586.685   -75586.685   -75586.685   -75586.685 9.4798587e-11 1.6226154e-10 -3.4446142e-11    -164.6599 
      10   -164.72135     4.213935     4.213935     4.213935            0            0            0   -8637.4527   -8637.4527   -8637.4527   -8637.4527 -1.5549588e-10 2.0227431e-10 -1.1495762e-10   -164.72135 
      15   -164.72214      4.20883      4.20883      4.20883            0            0            0    5.5876567    5.5876567    5.5876567    5.5876567 2.0554645e-10 4.244052e-10 1.3955449e-10   -164.72214 
Loop time of 0.029089 on 1 procs for 15 steps with 8 atoms

Minimization stats:
  Stopping criterion = linesearch alpha is zero
  Energy initial, next-to-last, final = 
        -164.659901251     -164.722138416     -164.722138416
  Force two-norm initial, final = 10.9148 0.000791362
  Force max component initial, final = 10.9148 0.000788889
  Final line search alpha, max atom move = 0.015625 1.23264e-05
  Iterations, force evaluations = 15 55

Pair  time (%) = 0.00789571 (27.1433)
Kspce time (%) = 0.00530291 (18.23)
Neigh time (%) = 0 (0)
Comm  time (%) = 0.000963688 (3.3129)
Outpt time (%) = 3.38554e-05 (0.116386)
Other time (%) = 0.0148928 (51.1975)

Nlocal:    8 ave 8 max 8 min
Histogram: 1 0 0 0 0 0 0 0 0 0
Nghost:    2189 ave 2189 max 2189 min
Histogram: 1 0 0 0 0 0 0 0 0 0
Neighs:    2344 ave 2344 max 2344 min
Histogram: 1 0 0 0 0 0 0 0 0 0

Total # of neighbors = 2344
Ave neighs/atom = 293
Neighbor list builds = 0
Dangerous builds = 0
unfix 1
# ---- define output variables ----
variable natoms equal "count(all)"
variable tot_energy equal "c_eatoms"
variable length_x equal "lx"
variable length_y equal "ly"
variable length_z equal "lz"
variable tilt_xy equal "xy"
variable tilt_xz equal "xz"
variable tilt_yz equal "yz"
variable tot_press equal "press"
variable press_xx equal "pxx"
variable press_yy equal "pyy"
variable press_zz equal "pzz"
variable press_xy equal "pxy"
variable press_xz equal "pxz"
variable press_yz equal "pyz"

# ---- output ----
print "pypospack:output_section:begin"
pypospack:output_section:begin
print "tot_energy = ${tot_energy}"
tot_energy = -164.722138415744
print "num_atoms = ${natoms}"
num_atoms = 8
print "xx = ${length_x}"
xx = 4.20883001371435
print "yy = ${length_y}"
yy = 4.20883001371435
print "zz = ${length_z}"
zz = 4.20883001371435
print "xy = ${tilt_xy}"
xy = 0
print "xz = ${tilt_xz}"
xz = 0
print "yz = ${tilt_yz}"
yz = 0
print "tot_press = ${tot_press}"
tot_press = 5.58765665687492
print "pxx = ${press_xx}"
pxx = 5.58765665651822
print "pyy = ${press_yy}"
pyy = 5.58765665647238
print "pzz = ${press_zz}"
pzz = 5.58765665763416
print "pxy = ${press_xy}"
pxy = 2.0554645346851e-10
print "pxz = ${press_xz}"
pxz = 4.24405202668874e-10
print "pyz = ${press_yz}"
pyz = 1.39554488680613e-10
print "pypospack:output_section:done"
pypospack:output_section:done
print "pypospack:lammps_sim:done"
pypospack:lammps_sim:done
#------------------------------------------------------------------------------
# RUN THERMOSTAT
# running using an NPT Nose-Hoover style thermostat
#------------------------------------------------------------------------------
variable tempdamp equal 0.1
variable pressdamp equal 1.0
# set initial velocities
velocity all create 500 5179535 mom yes dist gaussian loop all
# fix for Nose-Hoover style thermostat
fix 20 all npt temp 500 500 0.1 aniso 0.0 0.0 1.0 drag 1.0 couple xyz
variable boxx equal lx
variable boxy equal ly
variable boxz equal lz
variable boxp equal press
variable boxt equal temp
# calculate averages every 10000 steps
reset_timestep 0
fix 21 all ave/time 10 10 100 v_boxx v_boxy v_boxz v_boxp v_boxt file lattice.out
thermo_style custom step temp pe ke etotal press lx ly lz press pxx pyy pzz pxy pxz pyz vol
thermo_modify flush yes
thermo 100
run 100000
PPPM initialization ...
  G vector (1/distance) = 0.355405
  grid = 8 8 8
  stencil order = 5
  estimated absolute RMS force accuracy = 5.20839e-05
  estimated relative force accuracy = 3.61703e-06
  using double precision FFTs
  3d grid and FFT values/proc = 3375 512
Memory usage per processor = 3.06549 Mbytes
Step Temp PotEng KinEng TotEng Press Lx Ly Lz Press Pxx Pyy Pzz Pxy Pxz Pyz Volume 
       0          500   -164.72213   0.45241051   -164.26972    6487.8694      4.20883      4.20883      4.20883    6487.8694    6183.2239    6990.7537    6289.6306    379.75726   -473.56965   -1387.9759    74.556267 
     100    491.45407   -164.64378   0.44467797    -164.1991   -9271.5906    4.2211955    4.2211955    4.2211955   -9271.5906    -5889.335   -10106.896    -11818.54     62.48279   -4249.5357    -2677.107    75.215338 
     200    478.08634   -164.51439   0.43258257   -164.08181    12117.012    4.2100477    4.2100477    4.2100477    12117.012    15166.771     13470.49     7713.777    3.8720853    2599.3584    869.66322    74.620996 
     300     453.7475   -164.38583   0.41056028   -163.97527   -12156.341    4.2265471    4.2265471    4.2265471   -12156.341   -12318.968   -13389.033   -10761.021     336.1861    2553.4768    2669.1339     75.50177 
     400    322.26998    -164.1854   0.29159665   -163.89381    12055.307    4.2125015    4.2125015    4.2125015    12055.307    16452.127    9853.5509    9860.2435   -1372.5989    6206.4707     7672.594    74.751548 
     500    142.26297   -163.97365   0.12872252   -163.84493   -4543.2049     4.222632     4.222632     4.222632   -4543.2049    3804.4467   -7292.4397   -10141.622   -1538.7805    17976.557    12751.335    75.292149 
     600    152.49476   -163.95796   0.13798046   -163.81998    10050.395    4.2202636    4.2202636    4.2202636    10050.395    10661.163     4617.109    14872.914   -928.13708    10812.497    12841.357    75.165534 
     700    227.05682   -164.01723   0.20544578   -163.81179   -7793.1492     4.223656     4.223656     4.223656   -7793.1492   -3928.8455   -2278.1197   -17172.483   -1156.8316    16223.989    14786.897    75.346942 
     800    288.56342   -164.07278   0.26109824   -163.81168    7615.3398    4.2163098    4.2163098    4.2163098    7615.3398    28988.315   -2031.7877   -4110.5082   -2645.7984    9424.6169    12012.414    74.954472 
     900    393.89418   -164.16898   0.35640373   -163.81257   -9933.7445    4.2282246    4.2282246    4.2282246   -9933.7445   -2586.6589   -10178.935   -17035.639   -2809.0081    5855.9584     12093.51    75.591703 
    1000    536.14022   -164.29634   0.48511094   -163.81123    -2830.643    4.2169263    4.2169263    4.2169263    -2830.643    324.72896     4586.928   -13403.586    3069.3736    973.24345    8381.7236    74.987352 
    1100    583.55527   -164.34002   0.52801308   -163.81201   -5839.6155    4.2227532    4.2227532    4.2227532   -5839.6155     7401.727   -10138.128   -14782.446   -2369.7744   -10378.184    4824.7435    75.298636 
    1200    638.36117    -164.3897    0.5776026    -163.8121    478.82553    4.2205351    4.2205351    4.2205351    478.82553    3600.7713    3925.4154   -6089.7102   -1359.0753   -7583.4012    2556.2263    75.180039 
    1300    667.34279   -164.41548   0.60382578   -163.81165   -4885.7958    4.2229664    4.2229664    4.2229664   -4885.7958   -5691.5751   -1320.2069   -7645.6052    1401.9693   -16218.198   -3808.4256    75.310042 
    1400    634.39987    -164.3858   0.57401834   -163.81179    7017.1188    4.2165917    4.2165917    4.2165917    7017.1188     2282.893    11602.976    7165.4873    1021.2008   -9337.3189   -3543.4868    74.969504 
    1500     554.0576   -164.31488   0.50132296   -163.81356   -2306.5488    4.2242644    4.2242644    4.2242644   -2306.5488   -435.38614   -1311.0862   -5173.1741    395.72298    -6301.787   -2883.5478    75.379503 
    1600    533.79218   -164.29552   0.48298638   -163.81254    3888.7015    4.2194336    4.2194336    4.2194336    3888.7015     4753.118      6304.78     608.2065   -3475.7232   -2090.0415    -4734.704     75.12119 
    1700    500.22592   -164.26508   0.45261492   -163.81246   -4519.4181    4.2239252    4.2239252    4.2239252   -4519.4181   -8817.7605   -2750.4513   -1990.0423    4701.6458    5013.5792   -585.59335    75.361349 
    1800    492.52446   -164.25754   0.44564648    -163.8119    3382.2312    4.2187643    4.2187643    4.2187643    3382.2312    13104.613   -1293.1985   -1664.7209   -5508.1642    9645.5855     4182.299     75.08545 
    1900     523.7692   -164.28599   0.47391738   -163.81207   -6374.3763    4.2228111    4.2228111    4.2228111   -6374.3763   -3982.8601   -481.38093   -14658.888    96.656073    12395.335    9995.5355     75.30173 
    2000    506.35827   -164.27098    0.4581636   -163.81281   -1038.4232    4.2202666    4.2202666    4.2202666   -1038.4232    1630.5159   -3518.3797   -1227.4056   -137.76134    12212.719    10264.814    75.165691 
    2100    485.43493   -164.25277   0.43923172   -163.81354   -5580.0849    4.2222403    4.2222403    4.2222403   -5580.0849    11064.727   -9900.2767   -17904.705   -1965.1151    8282.9907    16409.514    75.271202 
    2200     503.7898   -164.26937    0.4558396   -163.81353   -2544.4146     4.219656     4.219656     4.219656   -2544.4146    7415.5771   -884.06557   -14164.755   -803.35685    3415.5791    18197.793    75.133071 
    2300    448.39633   -164.21994   0.40571843   -163.81422   -8881.9705    4.2215762    4.2215762    4.2215762   -8881.9705    2566.7714   -8535.3461   -20677.337   -1665.3707   -5076.0089    14211.941    75.235689 
    2400     346.6766   -164.12883   0.31368027   -163.81515    2268.2128    4.2195396    4.2195396    4.2195396    2268.2128    13718.958     7397.087   -14311.407    2983.1128   -9399.5834     15061.74    75.126854 
    2500    334.87098   -164.11776    0.3029983   -163.81476    -3182.327    4.2222044    4.2222044    4.2222044    -3182.327    5105.3175    -723.7742   -13928.524   -4395.3523   -15651.795    6735.4259    75.269282 
    2600    370.37892   -164.14887   0.33512663   -163.81374   -2375.3272    4.2209732    4.2209732    4.2209732   -2375.3272    4534.8053    1709.8692   -13370.656    4161.2656   -16359.161    5081.5329    75.203455 
    2700    404.80722   -164.17993   0.36627808   -163.81365    4490.0581    4.2198248    4.2198248    4.2198248    4490.0581    1238.1766    12461.626   -229.62812    1306.8268    -13893.97   -874.31843    75.142088 
    2800    445.24111   -164.21661   0.40286351   -163.81374    2129.5574    4.2204431    4.2204431    4.2204431    2129.5574   -476.24407     7503.321   -638.40462    -3781.694   -15713.498   -7404.0089    75.175125 
    2900    577.59884   -164.33537   0.52262357   -163.81275    2648.8398    4.2228997    4.2228997    4.2228997    2648.8398    -2952.233    5324.6938    5574.0587    1802.2955   -8771.8826   -5152.7855     75.30647 
    3000    735.36967   -164.47674   0.66537793   -163.81136   -1970.3859    4.2195351    4.2195351    4.2195351   -1970.3859    -9781.022    2787.6017    1082.2627   -2129.9047   -1048.3781   -7963.0376    75.126612 
    3100    745.30672     -164.486   0.67436919   -163.81163   -1977.0325    4.2208118    4.2208118    4.2208118   -1977.0325    632.63254   -356.85245   -6206.8775    1816.7968   -2202.9336   -1863.9186    75.194826 
    3200    729.01634   -164.47179    0.6596293   -163.81216     1948.675    4.2215406    4.2215406    4.2215406     1948.675   -36.362878    2147.3236    3735.0642   -6594.6523    4431.6556   -4157.3568    75.233783 
    3300    759.14054   -164.49875   0.68688632   -163.81186   -9452.1788    4.2215282    4.2215282    4.2215282   -9452.1788   -6306.4142   -7071.3271   -14978.795    2725.6276    3777.4244     8457.298     75.23312 
    3400    640.06894   -164.39332   0.57914782   -163.81417   -647.32865    4.2183261    4.2183261    4.2183261   -647.32865    8751.4168   -3762.5665   -6930.8362   -1795.8821    6044.5226    13285.238    75.062056 
    3500    454.70106   -164.22804   0.41142308   -163.81661   -2422.9325    4.2214328    4.2214328    4.2214328   -2422.9325    12846.156   -6141.3887   -13973.565   -2404.9924   -426.25977    17297.285    75.228024 
    3600    345.89077   -164.12977   0.31296924    -163.8168   -980.57163    4.2219437    4.2219437    4.2219437   -980.57163    11161.456    -1517.477   -12585.694    732.18292    140.85572    24172.157    75.255336 
    3700    251.23755   -164.04421   0.22732502   -163.81688    3504.9368    4.2190749    4.2190749    4.2190749    3504.9368    6966.5588    4939.0057   -1390.7542   -519.62323    -6824.291    20470.172    75.102035 
    3800    172.62648   -163.97326   0.15619607   -163.81706   -190.39978     4.220391     4.220391     4.220391   -190.39978    16012.223   -3669.6061   -12913.816    2267.2062   -11954.294    25497.291    75.172341 
    3900    172.58952   -163.97316   0.15616262   -163.81699    7066.3427    4.2232046    4.2232046    4.2232046    7066.3427    16373.639    1638.0022    3187.3874    -2349.011   -8509.7821    18818.398    75.322785 
    4000    268.52541   -164.05843   0.24296743   -163.81546    2031.5596    4.2186194    4.2186194    4.2186194    2031.5596   -3707.2616    10576.898   -774.95725    2160.5666   -15948.623    14084.743    75.077711 
    4100    442.33281   -164.21478   0.40023202   -163.81455   -1365.3387    4.2216866    4.2216866    4.2216866   -1365.3387   -1947.2131    3363.0977   -5511.9007   -548.71734   -7908.6813    11554.841     75.24159 
    4200    553.01966   -164.31378   0.50038381    -163.8134    839.02044    4.2232712    4.2232712    4.2232712    839.02044    3136.8978   -1931.8357    1311.9992   -2387.1845   -5231.5877     4345.159    75.326348 
    4300    629.99406   -164.38207   0.57003187   -163.81204   -3835.1144    4.2194437    4.2194437    4.2194437   -3835.1144   -6685.5151   -2642.7772   -2177.0511    -1445.204   -1600.3944   -632.74891    75.121731 
    4400    777.32033   -164.51491   0.70333577   -163.81158    1354.0671    4.2199103    4.2199103    4.2199103    1354.0671    -9162.792    6732.9347    6492.0586   -2971.9643    2018.3216   -7066.2182    75.146656 
    4500    808.74827   -164.54371   0.73177243   -163.81194   -9343.7543    4.2245684    4.2245684    4.2245684   -9343.7543   -11415.245   -10844.498   -5771.5197   -265.21422    4484.1959    -6350.557    75.395779 
    4600     786.8532   -164.52346   0.71196131    -163.8115    2610.3762    4.2189122    4.2189122    4.2189122    2610.3762    4760.8989   -3421.0137    6491.2433    -4508.084     10600.88   -9053.8742    75.093349 
    4700    782.20995    -164.5196      0.70776   -163.81184    -1741.723    4.2213839    4.2213839    4.2213839    -1741.723   -6234.6537    611.07805    398.40673    1708.9769   -2228.5071   -6741.8741    75.225407 
    4800    675.16758   -164.42458   0.61090582   -163.81368   -2704.7997    4.2215962    4.2215962    4.2215962   -2704.7997   -2504.2977   -8215.2735    2605.1721    -2880.134    4005.7914    3235.9323    75.236756 
    4900    561.09555    -164.3223   0.50769104    -163.8146    667.02222     4.220806     4.220806     4.220806    667.02222    3266.8472   -1601.2045    335.42391    1064.9613   -7039.3999    2651.6247    75.194518 
    5000    454.14561   -164.22509   0.41092049   -163.81417   -1814.5519    4.2215578    4.2215578    4.2215578   -1814.5519    4695.1564    -7186.986    -2951.826   -835.22693   -7448.9997    12265.994    75.234706 
    5100    301.84592   -164.08906   0.27311653   -163.81594    -893.9805    4.2209174    4.2209174    4.2209174    -893.9805    12141.302   -12191.873   -2631.3708   -300.44537    -9457.479    19982.923    75.200473 
    5200    224.55393   -164.01972   0.20318111   -163.81654   -1390.0318    4.2196662    4.2196662    4.2196662   -1390.0318    8280.0038    -5244.175    -7205.924   -867.73587   -12557.527    22533.207    75.133617 
    5300    181.10273   -163.98077   0.16386556   -163.81691   -183.26288    4.2239993    4.2239993    4.2239993   -183.26288    9260.1953   -14340.127    4530.1432   -293.14078   -6012.2386    25678.443    75.365312 
    5400    207.72096   -164.00365   0.18795029    -163.8157    193.44225    4.2193586    4.2193586    4.2193586    193.44225    14908.145   -9305.9396   -5021.8788    128.32424   -5599.7351    27244.308    75.117184 
    5500    300.74459   -164.08829   0.27212003   -163.81617    893.92468    4.2207908    4.2207908    4.2207908    893.92468    9295.0023   -9155.6282    2542.3999   -3043.3042    3513.9873    25952.843    75.193707 
    5600    334.66372   -164.11919   0.30281077   -163.81638    2137.7625    4.2226216    4.2226216    4.2226216    2137.7625    17130.616   -10347.918   -369.41127    1172.0086   -602.32194     18770.79    75.291593 
    5700    462.41417    -164.2329   0.41840206    -163.8145   -1665.9911     4.220723     4.220723     4.220723   -1665.9911     9915.626   -11518.361   -3395.2385   -1713.6447    5653.4979    16425.616    75.190079 
    5800    577.92978   -164.33598   0.52292301   -163.81305    -2087.567    4.2206446    4.2206446    4.2206446    -2087.567    6919.3012    -8477.993   -4704.0092    733.32728    5691.2602    7817.1669    75.185892 
    5900    578.22384   -164.33606   0.52318908   -163.81287    543.13044    4.2198685    4.2198685    4.2198685    543.13044    8086.4122   -2876.9495   -3580.0713   -2081.5759   -2900.1668    -896.9895    75.144424 
    6000    688.25672   -164.43483   0.62274915   -163.81208   -6269.2099    4.2229184    4.2229184    4.2229184   -6269.2099    2544.6765   -13603.028    -7749.278    192.00354   -1369.1657   -4789.1478    75.307472 
    6100     774.2205   -164.51161   0.70053098   -163.81108   -3936.2316    4.2197757    4.2197757    4.2197757   -3936.2316   -6209.9274    659.15249   -6257.9198     2033.222   -6533.0541    -11791.24    75.139466 
    6200    681.17547   -164.42879   0.61634188   -163.81245   -3966.4126    4.2205538    4.2205538    4.2205538   -3966.4126   -8067.3593    456.50386   -4288.3825   -4148.6376   -9380.7417   -9397.5001     75.18104 
    6300    625.36217    -164.3784   0.56584084   -163.81256    3227.5357    4.2211941    4.2211941    4.2211941    3227.5357    8186.9143   -1331.2915    2826.9843    3664.1011   -10535.808   -9968.7011    75.215263 
    6400     629.3813   -164.38194   0.56947743   -163.81246   -2994.4356    4.2222363    4.2222363    4.2222363   -2994.4356   -14135.732    493.83933    4658.5856   -2716.8545   -5113.3904   -4305.2197    75.270988 
    6500    558.95571   -164.31852   0.50575487   -163.81277    1618.0855    4.2184041    4.2184041    4.2184041    1618.0855   -7884.2455    6071.1131    6667.3891    3144.4095   -5863.8088    2752.6044    75.066217 
    6600    442.99901    -164.2141   0.40083482   -163.81326     6256.328    4.2223637    4.2223637    4.2223637     6256.328    9034.7965   -1700.3517    11434.539   -3827.1487   -633.64491    6965.9084    75.277798 
    6700    423.92676   -164.19645   0.38357784   -163.81287     3404.224    4.2220368    4.2220368    4.2220368     3404.224     8974.496   -2761.3231    3999.4991    1671.4136    1534.5069    14384.093    75.260315 
    6800    485.06314   -164.25188   0.43889533   -163.81299    1397.5696    4.2188997    4.2188997    4.2188997    1397.5696    2054.0653    2863.7863   -725.14281   -260.02819    3442.0097    16728.317    75.092682 
    6900    458.43657   -164.22878   0.41480305   -163.81397   -1613.8268    4.2217754    4.2217754    4.2217754   -1613.8268    12999.967   -8200.9977   -9640.4493   -2682.1601    5193.9236    15494.972    75.246341 
    7000    407.11525   -164.18256   0.36836643   -163.81419   -1394.4976     4.222576     4.222576     4.222576   -1394.4976    22288.208   -6067.6089   -20404.092   -492.56883    1966.1641    15067.978    75.289154 
    7100    423.97333   -164.19738   0.38361998   -163.81376   -1965.2757    4.2193369    4.2193369    4.2193369   -1965.2757    15596.572   -1668.8899   -19823.509   -2808.8482    1411.3134    10032.052    75.116028 
    7200    445.55263   -164.21691   0.40314538   -163.81377   -7267.5916    4.2213965    4.2213965    4.2213965   -7267.5916    15483.707   -12768.306   -24518.175    3185.2957   -3130.4495    6210.0647    75.226083 
    7300    426.46926   -164.20026   0.38587835   -163.81438   -2056.1485    4.2219493    4.2219493    4.2219493   -2056.1485     16265.67    -3542.633   -18891.482   -1686.9702   -1025.4408    -2451.477    75.255636 
    7400    424.78417   -164.19839   0.38435364   -163.81404   -1744.6096    4.2204288    4.2204288    4.2204288   -1744.6096    11960.293   -2566.1274   -14627.994    1589.7286   -5287.6868    -3392.536     75.17436 
    7500    435.74867   -164.20746   0.39427456   -163.81319    -132.4108    4.2213213    4.2213213    4.2213213    -132.4108    4220.7632   -2490.5783   -2127.4174    34.165236   -4694.6495   -7797.4541    75.222063 
    7600    415.45205    -164.1894   0.37590975   -163.81349    3242.7981    4.2209314    4.2209314    4.2209314    3242.7981    11583.982    6412.0889   -8267.6765    397.83682    865.28677    -7890.545    75.201217 
    7700    460.44319   -164.23058   0.41661868   -163.81396   -171.96681    4.2210088    4.2210088    4.2210088   -171.96681   -2440.9363    5186.5376   -3261.5017     1272.096    2733.0381   -5732.6901    75.205354 
    7800    503.07499   -164.26817   0.45519283   -163.81297   -1134.2702    4.2219345    4.2219345    4.2219345   -1134.2702    -15032.34    6726.7979    4902.7318   -1496.5648     6709.872   -5696.3405    75.254847 
    7900    450.75675   -164.22081   0.40785418   -163.81295    4490.5377    4.2206109    4.2206109    4.2206109    4490.5377    11824.425    9545.5716   -7898.3834    291.03982    7632.8579   -244.60873    75.184088 
    8000    549.21238   -164.30942    0.4969389   -163.81248    15.592166    4.2218608    4.2218608    4.2218608    15.592166   -7696.0971    5155.3973    2587.4763    105.57442    9998.0044    631.84125    75.250905 
    8100    717.47802   -164.46065   0.64918919   -163.81146   -5822.8873    4.2212647    4.2212647    4.2212647   -5822.8873   -13915.888    1749.0771   -5301.8511    2259.3318    6021.1218    3769.5381    75.219037 
    8200    699.86159   -164.44415   0.63324948    -163.8109   -5366.3742    4.2219593    4.2219593    4.2219593   -5366.3742   -2527.1987   -3880.1745   -9691.7495   -2262.2315    4920.2292    7256.5588    75.256174 
    8300    680.32546   -164.42628   0.61557277   -163.81071    322.28603    4.2206144    4.2206144    4.2206144    322.28603    7796.2587   -2696.9594   -4132.4412    3100.9681     5934.546    5418.8532    75.184277 
    8400    703.10922   -164.44761     0.636188   -163.81142   -5518.5897    4.2217583    4.2217583    4.2217583   -5518.5897    4970.4871   -9649.2631   -11876.993   -337.20329   -5200.0473    3705.4428    75.245425 
    8500    631.52333   -164.38384   0.57141558   -163.81243   -2753.6571    4.2217022    4.2217022    4.2217022   -2753.6571    9350.8717   -7685.0731   -9926.7698      2020.05     461.3601    1809.3176    75.242427 
    8600    537.59117   -164.30008   0.48642379   -163.81366    1029.9744    4.2218266    4.2218266    4.2218266    1029.9744    19976.882   -7541.3288   -9345.6299   -1699.0335   -2525.6464   -2264.9826    75.249074 
    8700    497.58915   -164.26433   0.45022912    -163.8141    -3414.593    4.2209663    4.2209663    4.2209663    -3414.593    2813.1185   -9216.5525   -3840.3448    2050.2128   -4318.7194   -8062.4737    75.203084 
    8800    311.04465   -164.09789   0.28143974   -163.81645       5813.5    4.2222194    4.2222194    4.2222194       5813.5     25614.23   -3411.8842   -4761.8454    780.72284   -2248.9498   -8962.0119    75.270084 
    8900    228.01488   -164.02271   0.20631265    -163.8164    6098.4076    4.2223586    4.2223586    4.2223586    6098.4076     17616.93   -1197.0028     1875.296   -1188.2135    2810.6821   -11389.109    75.277527 
    9000    295.55345   -164.08309   0.26742297   -163.81567   -3259.8295    4.2194304    4.2194304    4.2194304   -3259.8295    -116.2034   -668.15373   -8995.1314   -439.95517     2661.954   -15456.304    75.121023 
    9100     241.9439   -164.03548   0.21891593   -163.81656   -2708.5651    4.2232227    4.2232227    4.2232227   -2708.5651   -1844.1159   -2038.1986   -4243.3808   -4223.4732    8246.2302   -10970.187    75.323753 
    9200    195.28431   -163.99289   0.17669735   -163.81619    123.15833    4.2216645    4.2216645    4.2216645    123.15833    3561.9897    3509.7904   -6702.3051   -476.32726    13349.824   -10257.483    75.240409 
    9300    295.17676   -164.08261   0.26708213   -163.81553   -4987.3334    4.2212033    4.2212033    4.2212033   -4987.3334    9037.0079   -1933.0691   -22065.939    -2124.717    4521.9929   -8772.9974    75.215755 
    9400    408.24057   -164.18435   0.36938465   -163.81496   -3137.7689    4.2203743    4.2203743    4.2203743   -3137.7689   -6640.8832    3855.5204   -6627.9439   -1500.2138    14117.766    -1239.865    75.171447 
    9500    514.64132   -164.28075   0.46565828   -163.81509   -3618.0506    4.2229513    4.2229513    4.2229513   -3618.0506    4264.5668   -723.88965   -14394.829   -1118.6034    11484.449   -682.96656    75.309232 
    9600    641.42388   -164.39413   0.58037381   -163.81376   -4599.4276    4.2218618    4.2218618    4.2218618   -4599.4276   -4512.6978   -4986.6439   -4298.9412    188.50538    1809.5523     4260.256    75.250957 
    9700    648.02774   -164.39878   0.58634912   -163.81243    3809.4981    4.2206701    4.2206701    4.2206701    3809.4981    5924.6435    648.23811    4855.6126    2559.7343    7897.6931    5441.8584    75.187252 
    9800    646.57155    -164.3967   0.58503153   -163.81167    9092.3931     4.221492     4.221492     4.221492    9092.3931    25061.802   -5489.3635    7704.7404   -1940.0682   -4260.9518    6654.2091    75.231187 
    9900    744.90864   -164.48535     0.674009   -163.81134    902.25682    4.2220035    4.2220035    4.2220035    902.25682    689.90643   -8441.0019    10457.866    200.10293   -1301.9328    8954.9764    75.258534 
   10000    729.20315   -164.47246   0.65979833   -163.81266    8114.4895    4.2193138    4.2193138    4.2193138    8114.4895    7748.9791   -5561.2582    22155.748   -905.22176   -927.02574     3787.837    75.114795 
   10100    662.79953   -164.41259   0.59971495   -163.81287     99.08593    4.2213886    4.2213886    4.2213886     99.08593    10302.804   -12119.657    2114.1107    435.88346   -174.86478    2449.2017     75.22566 
   10200    650.21806   -164.40081   0.58833096   -163.81248    436.15942    4.2232283    4.2232283    4.2232283    436.15942    7518.3337   -6936.7409    726.88539   -4718.9487   -704.11289   -3407.2395    75.324054 
   10300    582.67737   -164.34018   0.52721873   -163.81296   -461.22236    4.2192645    4.2192645    4.2192645   -461.22236   -1541.7597   -6862.3709    7020.4635    1144.1761    2991.9138   -8630.7305     75.11216 
   10400    528.49739   -164.29146   0.47819555   -163.81326   -6323.9412    4.2219157    4.2219157    4.2219157   -6323.9412    6628.7066   -3895.7636   -21704.767   -2837.2178    6541.9518   -10876.692    75.253841 
   10500    554.57888    -164.3151   0.50179463   -163.81331    -6891.068    4.2231265    4.2231265    4.2231265    -6891.068   -11902.223   -6153.7279   -2617.2526    1946.5112    5058.8416   -13645.267    75.318607 
   10600     458.9242    -164.2299   0.41524426   -163.81466   -9085.2427    4.2202573    4.2202573    4.2202573   -9085.2427   -3313.8183   -7377.4505   -16564.459   -2913.7922    10953.725   -15421.964    75.165195 
   10700     347.0128   -164.12862   0.31398447   -163.81464    5253.6179    4.2219904    4.2219904    4.2219904    5253.6179    27160.676    3632.4106   -15032.233    2221.4286    3390.2754   -11724.735    75.257838 
   10800      430.638   -164.20291   0.38965031   -163.81326    -6613.432    4.2245604    4.2245604    4.2245604    -6613.432   -6220.2912   -10635.351   -2984.6537    985.30247     3496.316   -7701.0721     75.39535 
   10900    456.10319   -164.22588   0.41269175   -163.81318    357.95546    4.2176094    4.2176094    4.2176094    357.95546    9349.1726   -586.04191   -7689.2643    574.37305    30.530048   -2284.9473    75.023804 
   11000     404.9664   -164.18036   0.36642211   -163.81394    2383.9092    4.2232375    4.2232375    4.2232375    2383.9092    18067.746   -3217.8753   -7698.1433    3687.7601    557.57972    4812.0277    75.324543 
   11100     422.4174   -164.19458   0.38221214   -163.81237   -4828.4896      4.22415      4.22415      4.22415   -4828.4896    13398.978   -14512.333   -13372.114   -1162.9137   -1697.3351    13779.881    75.373379 
   11200    413.06382   -164.18558   0.37374882   -163.81183    2972.6586    4.2184654    4.2184654    4.2184654    2972.6586    18565.215   -5092.1372   -4555.1019    118.88928   -2944.7719    17364.501    75.069491 
   11300    379.07109   -164.15578   0.34299148   -163.81279   -1435.1495     4.224204     4.224204     4.224204   -1435.1495    34078.921   -18534.262   -19850.108   -1528.2887   -2653.9558    23680.256    75.376271 
   11400    492.46099   -164.25753   0.44558906   -163.81194   -7396.6191    4.2233227    4.2233227    4.2233227   -7396.6191    9406.0368   -23057.758   -8538.1367   -1200.4234   -1039.3791    25537.792    75.329104 
   11500     507.3383   -164.27141   0.45905036   -163.81236   -7970.8688    4.2191348    4.2191348    4.2191348   -7970.8688    6828.3369   -16683.442   -14057.501   -2246.3535    1915.6927    26092.316    75.105232 
   11600    360.62725   -164.14114   0.32630311   -163.81484   -409.67114    4.2228339    4.2228339    4.2228339   -409.67114    43171.964    -23535.46   -20865.518   -461.77085   -2718.2324    23863.436    75.302953 
   11700    399.33933   -164.17531   0.36133061   -163.81398   -5528.3932    4.2252938    4.2252938    4.2252938   -5528.3932     5355.731   -25740.634    3799.7236    2094.7488    3741.3808    17790.105    75.434627 
   11800    491.79984   -164.25713   0.44499083   -163.81214   -5146.7641    4.2169874    4.2169874    4.2169874   -5146.7641    12436.922   -13035.441   -14841.773   -2472.8111     3201.527    12934.134    74.990613 
   11900    486.35549   -164.25357   0.44006467    -163.8135   -4016.1157    4.2239887    4.2239887    4.2239887   -4016.1157    13208.922   -22965.196   -2292.0728    272.63111    3827.8448    5512.5322    75.364745 
   12000    498.16513   -164.26398   0.45075028   -163.81323   -479.70746    4.2232128    4.2232128    4.2232128   -479.70746    13114.037   -19428.397    4875.2386    1526.1499    1200.7266   -2322.3506    75.323222 
   12100    596.01476   -164.35087   0.53928668   -163.81158    3098.0809    4.2178331    4.2178331    4.2178331    3098.0809    13590.208   -8625.4988    4329.5339     1652.509   -2290.0675   -4319.1105    75.035741 
   12200    659.01185   -164.40854   0.59628777   -163.81226    6947.3943    4.2230563    4.2230563    4.2230563    6947.3943    12765.184   -12947.748    21024.747   -2908.6952    2395.6887    -9531.511    75.314849 
   12300    746.25031   -164.48718   0.67522296   -163.81196    82.098395    4.2232892    4.2232892    4.2232892    82.098395     7547.853   -13582.768    6281.2101     814.6316   -5133.9317   -12847.409    75.327313 
   12400    832.16482   -164.56395   0.75296022   -163.81099     4808.327    4.2169241    4.2169241    4.2169241     4808.327    -3560.519    636.01093    17349.489   -4155.9535    4127.0633   -7622.7568    74.987237 
   12500    700.65724   -164.44762    0.6339694   -163.81365   -1507.1491    4.2240397    4.2240397    4.2240397   -1507.1491    10820.279   -16212.546    870.81987   -2048.2591    -2198.858   -8733.9171    75.367478 
   12600    596.58531   -164.35421   0.53980293    -163.8144   -10.490299     4.220227     4.220227     4.220227   -10.490299   -191.02097   -15144.005    15303.555   -6495.4533    6903.9314   -2545.8817    75.163575 
   12700    592.08754   -164.35037   0.53573324   -163.81464    -2577.792    4.2184515    4.2184515    4.2184515    -2577.792     6340.627   -7140.2769   -6933.7262   -1645.4889    3797.8241    1375.7719    75.068749 
   12800    536.87836    -164.3001   0.48577882   -163.81432   -10982.977    4.2248328    4.2248328    4.2248328   -10982.977   -1745.1664   -26985.504   -4218.2616   -3690.2872    5290.7455    6673.7133    75.409937 
   12900    400.78923    -164.1764   0.36264251   -163.81376   -1032.5619    4.2207905    4.2207905    4.2207905   -1032.5619    16778.042   -14878.372   -4997.3564   -2507.2626    10346.335    14166.611     75.19369 
   13000    388.37735   -164.16453   0.35141199   -163.81312    1715.2618     4.219052     4.219052     4.219052    1715.2618    24759.231   -11698.236   -7915.2095    1124.3679   -237.80001    15352.176    75.100812 
   13100    375.81508   -164.15392   0.34004539   -163.81387   -3936.2607    4.2234408    4.2234408    4.2234408   -3936.2607    7497.3684    -27810.77    8504.6197    103.62762    3797.0008    24846.923    75.335424 
   13200    320.70323   -164.10494   0.29017902   -163.81477    6197.9324     4.220137     4.220137     4.220137    6197.9324    31217.104   -7703.1621   -4920.1452    846.83404   -4906.3383    23018.344     75.15877 
   13300    382.48787   -164.15988   0.34608306    -163.8138    4993.9141    4.2200325    4.2200325    4.2200325    4993.9141    19670.393   -16605.824    11917.173    127.58151    34.061681    24631.352    75.153185 
   13400    402.24154   -164.17783    0.3639566   -163.81387   -1505.3259    4.2226066    4.2226066    4.2226066   -1505.3259    19611.594   -26961.278    2833.7069    1865.8358   -1939.7455    26359.625    75.290792 
   13500    360.30039   -164.14046   0.32600737   -163.81445    10077.709    4.2184674    4.2184674    4.2184674    10077.709    15676.491    203.90027    14352.736   -3315.9569   -4178.6718    13966.351    75.069596 
   13600    403.86899    -164.1795   0.36542915   -163.81407   -321.30134    4.2214048    4.2214048    4.2214048   -321.30134    14804.272   -18561.987    2793.8115   -2815.9266    3127.7674    12302.732    75.226523 
   13700    469.98489   -164.23922    0.4252522   -163.81397   -6320.3447    4.2226523    4.2226523    4.2226523   -6320.3447   -3672.5963   -14287.441   -1000.9971   -4069.0691    2431.8437    6790.2942    75.293239 
   13800    420.77017   -164.19481   0.38072169   -163.81409    1932.3128    4.2193482    4.2193482    4.2193482    1932.3128   -557.88195    4940.0142    1414.8062   -3851.8225    8207.7657   -239.20936     75.11663 
   13900    390.14677   -164.16708     0.353013   -163.81407   -6545.2422    4.2225254    4.2225254    4.2225254   -6545.2422    11469.615   -13574.996   -17530.346   -4129.3139    4919.0567   -6204.6227    75.286447 
   14000    456.50859   -164.22767   0.41305857   -163.81461   -4158.1398    4.2214127    4.2214127    4.2214127   -4158.1398   -17878.796    -1099.254    6503.6306    553.19046    5693.7384   -11538.057     75.22695 
   14100    444.10008     -164.216   0.40183109   -163.81417   -2220.9556    4.2189524    4.2189524    4.2189524   -2220.9556    2490.1714    3413.7088   -12566.747    40.386747    2686.5085    -8145.466    75.095492 
   14200    488.21154   -164.25591   0.44174406   -163.81416   -4456.0372    4.2242915    4.2242915    4.2242915   -4456.0372    2570.5784   -15965.588    26.897549   -544.45862   -1757.8152   -12589.432    75.380954 
   14300    611.21958   -164.36649   0.55304432   -163.81345    -1524.269    4.2198967    4.2198967    4.2198967    -1524.269   -7616.3409   -1748.1966    4791.7304    3562.3734    1778.1395    -5924.478    75.145929 
   14400    632.24967   -164.38511   0.57207279   -163.81303    2696.3543    4.2194125    4.2194125    4.2194125    2696.3543    6352.1042   -930.97531     2667.934    2855.1964   -7247.6494   -4315.4987    75.120064 
   14500    632.78236   -164.38413   0.57255478   -163.81158    2773.0636    4.2261057    4.2261057    4.2261057    2773.0636    9619.6668    -17381.32    16080.844    1897.5744   -2453.1354   -937.14202    75.478117 
   14600    727.25008   -164.46835   0.65803115   -163.81032    2339.7676    4.2190576    4.2190576    4.2190576    2339.7676    4537.0394   -7719.1819    10201.445   -1891.2851   -4118.5027    5798.9499    75.101112 
   14700    734.31649   -164.47553   0.66442499    -163.8111    4097.4914    4.2201564    4.2201564    4.2201564    4097.4914   -1291.4344   -1689.8969    15273.806    325.36195   -570.46245    827.02809    75.159806 
   14800    622.17786   -164.37502    0.5629596   -163.81206   -792.48248    4.2270851    4.2270851    4.2270851   -792.48248    15904.641   -17831.321   -450.76777   -836.83263    3462.1895    5989.5828    75.530605 
   14900    648.48298    -164.3992   0.58676103   -163.81244     7324.102    4.2167718    4.2167718    4.2167718     7324.102    1645.1743   -189.60248    20516.734   -5985.4867    2707.4911    3990.3188    74.979111 
   15000    577.96679   -164.33874    0.5229565   -163.81578   -4723.2866    4.2205301    4.2205301    4.2205301   -4723.2866   -11936.364    3592.2095   -5825.7053   -4733.8722    8494.9684   -403.45672     75.17977 
   15100    439.17461   -164.21422   0.39737442   -163.81684   -2737.8953    4.2274554    4.2274554    4.2274554   -2737.8953   -2902.0065   -13161.063    7849.3836   -4862.3093    7664.4105    1224.1355    75.550456 
   15200    414.77903    -164.1911   0.37530078    -163.8158   -3558.1057    4.2159635    4.2159635    4.2159635   -3558.1057   -9634.8374    5694.3533    -6733.833   -2351.4769    16652.847   -8094.6786    74.936005 
   15300    367.23783   -164.14932    0.3322845   -163.81703    -7984.252    4.2212407    4.2212407    4.2212407    -7984.252   -9417.5728    2037.2263   -16572.409   -3007.7645    2751.0504   -4755.2114    75.217751 
   15400    274.15009   -164.06427   0.24805676   -163.81621    -6576.471    4.2282026    4.2282026    4.2282026    -6576.471   -9815.9868   -13701.153    3787.7263    540.63025    4171.5576   -7475.1345    75.590526 
   15500    281.00524   -164.06835   0.25425945   -163.81409    475.65625    4.2137659    4.2137659    4.2137659    475.65625     4465.944    9007.2778   -12046.253    2217.4589    3908.3645   -9560.8682    74.818882 
   15600    365.04485   -164.14464   0.33030025   -163.81434    -3806.862    4.2242206    4.2242206    4.2242206    -3806.862   -10550.412   -7021.1958    6151.0221    3872.8522   -3693.6882   -4173.6309     75.37716 
   15700    369.81126   -164.14774     0.334613   -163.81312   -2836.4532    4.2252397    4.2252397    4.2252397   -2836.4532    4806.9065   -8272.9663   -5043.2998    1572.0178    605.99736   -7639.4689     75.43173 
   15800    430.93954     -164.203   0.38992315   -163.81307    7854.1006    4.2154094    4.2154094    4.2154094    7854.1006    17664.635     139.7955    5757.8713    6912.2799   -10348.228    750.85713    74.906461 
   15900    517.31847   -164.28249   0.46808062   -163.81441    1471.0982    4.2213696    4.2213696    4.2213696    1471.0982    348.96567   -8061.9075    12126.236    2684.7488   -740.46823    5720.1347    75.224645 
   16000    472.35575   -164.24208   0.42739741   -163.81469    228.33977    4.2268201    4.2268201    4.2268201    228.33977    6395.9239   -13947.058    8236.1531   -132.47947   -1456.0677    7674.9296    75.516401 
   16100    495.76238   -164.26109   0.44857622   -163.81251    11585.498     4.213331     4.213331     4.213331    11585.498    29702.098   -4201.0218    9255.4178    2862.9726    1991.8387    16950.432    74.795717 
   16200    602.23107   -164.35701   0.54491132    -163.8121    -8747.903    4.2254742    4.2254742    4.2254742    -8747.903   -5068.7922   -16311.273   -4863.6434   -1896.3597    2799.8987    10918.076     75.44429 
   16300    597.70348   -164.35244   0.54081467   -163.81163    85.873346    4.2224123    4.2224123    4.2224123    85.873346   -4155.7098   -4115.7855    8529.1153    305.03098    2661.8111    12827.545    75.280401 
   16400    502.98926   -164.26727   0.45511525   -163.81215   -1303.6835    4.2178221    4.2178221    4.2178221   -1303.6835    17233.241   -6413.8418    -14730.45   -2860.4872    9625.4655      9601.48    75.035156 
   16500    563.26579   -164.32235   0.50965473   -163.81269    2128.6915    4.2225833    4.2225833    4.2225833    2128.6915   -4476.5875   -5354.4791    16217.141    3665.6859   -263.22651    3401.5998    75.289545 
   16600      611.074    -164.3654   0.55291259   -163.81248   -16560.135    4.2244918    4.2244918    4.2244918   -16560.135   -20448.512   -7521.0042   -21710.888   -896.57397    8003.3477   -2589.8541    75.391678 
   16700    582.90573   -164.33933   0.52742535   -163.81191    7056.6526    4.2163448    4.2163448    4.2163448    7056.6526    9076.9005    3530.7094    8562.3478    1499.1715    71.524917   -4679.7035    74.956337 
   16800    615.15595   -164.36905   0.55660603   -163.81244   -7721.9715    4.2251111    4.2251111    4.2251111   -7721.9715   -8556.6519   -16584.351    1975.0884    4239.7088     352.2032   -6493.0307     75.42484 
   16900    679.17803   -164.42642   0.61453455   -163.81189   -2360.1235    4.2202791    4.2202791    4.2202791   -2360.1235   -5447.9382   -5495.8096    3863.3774    2877.0869   -334.13602   -10535.962    75.166361 
   17000    636.41764   -164.38758   0.57584405   -163.81174    5460.4738    4.2214017    4.2214017    4.2214017    5460.4738    3228.3938   -4729.0816    17882.109    3518.7143   -2392.2126   -5730.7533    75.226358 
   17100     617.3649   -164.37042   0.55860474   -163.81181    808.23963    4.2219026    4.2219026    4.2219026    808.23963    12084.898    -17679.11    8018.9301    1165.2317    2138.3014   -1201.9147    75.253143 
   17200    642.58376   -164.39398   0.58142329   -163.81256    1770.3095    4.2211045    4.2211045    4.2211045    1770.3095    1645.8468   -5865.7253    9530.8069    2661.1742   -5393.2388    4755.9665    75.210474 
   17300    505.11283   -164.27171    0.4570367   -163.81467   -2813.5863    4.2211747    4.2211747    4.2211747   -2813.5863    4505.8221   -9159.4227   -3787.1582   -8.5801612    2752.8001    12943.339    75.214222 
   17400    308.28105   -164.09534   0.27893918    -163.8164    4737.1741    4.2230398    4.2230398    4.2230398    4737.1741    25723.942   -26250.716    14738.296    120.58611    1358.4565    17549.187    75.313966 
   17500    295.88519   -164.08335   0.26772314   -163.81563   -123.33685     4.219148     4.219148     4.219148   -123.33685    11620.995   -2261.3731   -9729.6325   -1604.0857    1984.2833    22175.376    75.105938 
   17600    322.57108   -164.10751   0.29186909   -163.81564   -5484.8397    4.2238738    4.2238738    4.2238738   -5484.8397   -2430.4754   -17872.625     3848.581   -1111.3209     2708.764    26209.257    75.358597 
   17700    258.23272   -164.05084   0.23365439   -163.81718   -3108.4708    4.2184003    4.2184003    4.2184003   -3108.4708    29468.845   -21349.897   -17444.361   -974.25938   -4408.7366    32082.369    75.066018 
   17800    329.18283   -164.11501   0.29785154   -163.81716    1315.6917    4.2217343    4.2217343    4.2217343    1315.6917    23423.896   -4753.9613    -14722.86    487.30647    7514.1408    23414.404     75.24414 
   17900    484.42876   -164.25296   0.43832132   -163.81464    -11999.95    4.2246503    4.2246503    4.2246503    -11999.95   -5534.9679   -20516.277   -9948.6062    1960.9253    -3351.276    23125.913    75.400166 
   18000    490.65463   -164.25767   0.44395462   -163.81372   -4009.8494    4.2176239    4.2176239    4.2176239   -4009.8494    19202.475   -16448.386   -14783.638    2079.3257    3037.6568    17406.289    75.024573 
   18100    452.58402   -164.22388   0.40950753   -163.81437    5105.9824    4.2219361    4.2219361    4.2219361    5105.9824    24757.372   -6864.6893    -2574.736    5154.2481   -2869.3525     6990.431    75.254934 
   18200    535.79407   -164.29683   0.48479774   -163.81204   -13050.375    4.2257928    4.2257928    4.2257928   -13050.375   -1796.9379   -23810.291   -13543.897    3062.6648   -3456.9146    978.62859    75.461357 
   18300    566.62023   -164.32476    0.5126899   -163.81207    2519.0378    4.2168706    4.2168706    4.2168706    2519.0378    12125.118   -10733.359    6165.3543     3566.243    4677.2423   -5639.9923    74.984385 
   18400    470.93426   -164.24069   0.42611122   -163.81458    -749.0442    4.2216652    4.2216652    4.2216652    -749.0442    7229.7537   -7843.2316   -1633.6547    3134.8218   -4830.0686   -10458.118    75.240449 
   18500    444.91585   -164.21602   0.40256921   -163.81345    2456.2099    4.2259796    4.2259796    4.2259796    2456.2099    -929.9663    -15905.63    24204.226    537.89303    2171.9509   -11467.561    75.471362 
   18600    513.66889   -164.27598   0.46477841    -163.8112     5689.265    4.2161207    4.2161207    4.2161207     5689.265    6268.2171    2326.3563    8473.2214    1492.2433   -2176.3522   -12068.775    74.944384 
   18700    507.50322   -164.27153   0.45919958   -163.81233    2551.4341    4.2232356    4.2232356    4.2232356    2551.4341    3072.4859   -4932.5641    9514.3806   -5797.7178    4933.9514   -8912.9957    75.324442 
   18800    513.19995   -164.27673    0.4643541   -163.81237    1680.7445    4.2240542    4.2240542    4.2240542    1680.7445    3977.2628   -8517.8537    9582.8246   -583.31314    1099.1165   -4083.8306     75.36825 
   18900    603.64325   -164.35724    0.5461891   -163.81106    629.89612    4.2167376    4.2167376    4.2167376    629.89612    858.58481    2638.5716    -1607.468   -5203.5216   -2393.3847    2441.4807    74.977291 
   19000      637.954   -164.38932   0.57723419   -163.81208    523.14979    4.2222939    4.2222939    4.2222939    523.14979    3858.0155   -10854.178    8565.6119    647.43001    4500.5682     3946.704    75.274069 
   19100    715.89119   -164.45987    0.6477534   -163.81211   -8374.6245    4.2239262    4.2239262    4.2239262   -8374.6245   -1278.9183   -8405.6583   -15439.297   -2825.8764   -5593.1944     9695.521      75.3614 
   19200    813.75323   -164.54787   0.73630102   -163.81157    1267.3937    4.2162144    4.2162144    4.2162144    1267.3937    5075.2019   -3052.8906    1779.8698    3194.2707    6346.6787    7904.0233    74.949384 
   19300    730.91433   -164.47522   0.66134665   -163.81388   -6157.4083    4.2205383    4.2205383    4.2205383   -6157.4083    1414.8816   -15798.781   -4088.3257    4579.1892   -5158.1112    5823.8341     75.18021 
   19400    622.66523    -164.3788   0.56340058    -163.8154   -62.174453     4.222772     4.222772     4.222772   -62.174453    5751.2552   -5390.1609   -547.61768    5062.7205    1844.1358    1770.0595     75.29964 
   19500    570.84361    -164.3313    0.5165113   -163.81479   -2131.5606    4.2194156    4.2194156    4.2194156   -2131.5606    8058.1925   -12623.931   -1828.9432    5493.8655   -274.70375   -7891.8707    75.120232 
   19600    426.45235   -164.20119   0.38586304   -163.81532   -3844.6119    4.2220215    4.2220215    4.2220215   -3844.6119   -5284.2107   -17958.809    11709.184    4914.8883      243.286   -3722.3177      75.2595 
   19700    287.69177    -164.0757   0.26030956   -163.81539    4238.4742    4.2220359    4.2220359    4.2220359    4238.4742    15810.154    -1954.881   -1139.8502    2840.8151    3352.2221   -13959.458    75.260266 
   19800    257.95588   -164.04921    0.2334039    -163.8158   -3116.8703    4.2187393    4.2187393    4.2187393   -3116.8703    5816.7394   -11628.155   -3539.1953    874.38351   -2716.3466    -15577.36    75.084114 
   19900    201.10696   -163.99922   0.18196581   -163.81725   -1134.3959    4.2234833    4.2234833    4.2234833   -1134.3959   -8137.3011   -13861.998    18596.112   -774.47769    4422.1135   -14615.811    75.337697 
   20000    158.65985   -163.96128   0.14355876   -163.81773    1844.7922    4.2207185    4.2207185    4.2207185    1844.7922    12143.364    3723.2709   -10332.258   -4990.8827   -6680.8958   -14874.774    75.189841 
   20100    296.38507   -164.08571   0.26817544   -163.81753   -2863.7503    4.2200475    4.2200475    4.2200475   -2863.7503   -3487.1181   -10897.155    5793.0224   -1045.7822    1283.4235   -9739.2412    75.153984 
   20200    405.37103   -164.18389   0.36678822    -163.8171   -1744.6514    4.2206121    4.2206121    4.2206121   -1744.6514     4503.314   -2451.0797   -7286.1884   -5156.3729    141.61239   -8103.1229    75.184154 
   20300    468.10953   -164.23953   0.42355534   -163.81597    3273.5591    4.2221649    4.2221649    4.2221649    3273.5591    12588.835    2247.1693   -5015.3271    307.59825   -7264.9453    2447.4907    75.267169 
   20400    608.06615   -164.36332   0.55019103   -163.81313   -4721.7718     4.221904     4.221904     4.221904   -4721.7718    1777.9826   -12330.112   -3613.1856    -2450.433     1422.936    6124.3656    75.253217 
   20500    701.00303    -164.4462   0.63428228   -163.81192    -596.1828    4.2194456    4.2194456    4.2194456    -596.1828    104.92558    1364.0803   -3257.5543    3989.7481   -3889.3411    12094.405    75.121831 
   20600    667.50053   -164.41595   0.60396851   -163.81198   -964.28145    4.2228137    4.2228137    4.2228137   -964.28145    12567.991   -7050.3178    -8410.518    1974.0883    3348.9129    13228.199    75.301872 
   20700    673.73813   -164.42068   0.60961242   -163.81106    -2834.524     4.222142     4.222142     4.222142    -2834.524    16361.718   -15089.682   -9775.6078    159.43696   -2914.4821    12446.581    75.265944 
   20800     691.0155   -164.43767   0.62524535   -163.81242    924.97394    4.2181191    4.2181191    4.2181191    924.97394    490.19503   -3417.7915    5702.5183    3736.1674    1600.7837    11928.818    75.051004 
   20900    572.33533    -164.3319   0.51786103   -163.81404   -4896.3211    4.2231582    4.2231582    4.2231582   -4896.3211    12977.022   -18167.271    -9498.715   -2550.4185   -672.43633    1816.9308      75.3203 
   21000    492.87151   -164.25918    0.4459605   -163.81322     2907.314    4.2230293    4.2230293    4.2230293     2907.314     8385.013   -12918.438    13255.367    -1310.083    731.95115   -1122.3569    75.313404 
   21100    506.47593   -164.27088   0.45827007   -163.81261    1755.4676    4.2176403    4.2176403    4.2176403    1755.4676    4623.4504   -3141.1243    3784.0768   -5749.5918    4397.4249   -10816.005    75.025454 
   21200    488.55917   -164.25491   0.44205861   -163.81285   -1582.9057    4.2245725    4.2245725    4.2245725   -1582.9057    10517.934    -12058.33   -3208.3207   -894.14178   -6888.3764   -14069.224       75.396 
   21300    484.07144   -164.24979   0.43799801    -163.8118    3841.3912    4.2227648    4.2227648    4.2227648    3841.3912     3019.725   -5613.1116     14117.56   -7556.6351    3078.7567   -13613.464    75.299254 
   21400    483.61439   -164.24895   0.43758447   -163.81136   -639.81013    4.2186768    4.2186768    4.2186768   -639.81013    4485.1701   -1646.7386   -4757.8619   -2971.7908    2406.9679   -18677.826     75.08078 
   21500    517.85445   -164.28088   0.46856559   -163.81232    814.61656    4.2229863    4.2229863    4.2229863    814.61656    8727.7842   -3682.3947   -2601.5398   -440.80876   -2457.9795   -9547.4588    75.311107 
   21600    566.59905   -164.32468   0.51267073   -163.81201   -5334.9674    4.2246368    4.2246368    4.2246368   -5334.9674    9239.9897    -14019.96   -11224.932   -677.30469   -5.5157548     -6110.44    75.399443 
   21700    552.50377   -164.31122   0.49991703    -163.8113    2759.8402    4.2176934    4.2176934    4.2176934    2759.8402    8065.3725   -5143.8396    5357.9878     2090.898    2801.4495    1535.8503    75.028282 
   21800    507.71039    -164.2719   0.45938703   -163.81251   -299.21291    4.2237306    4.2237306    4.2237306   -299.21291    14217.566   -7519.3012    -7595.904    200.50699    2090.4558    14159.464    75.350932 
   21900     463.5066    -164.2327   0.41939051   -163.81331    562.61705    4.2238444    4.2238444    4.2238444    562.61705    24889.074   -18424.861   -4776.3619    5667.9733   -1877.5846    13246.409    75.357024 
   22000    428.37617   -164.20082   0.38760376   -163.81322    4055.7232    4.2163958    4.2163958    4.2163958    4055.7232    18808.121   -12746.347    6105.3949    -1319.674    3487.3783    28515.949    74.959059 
   22100    359.86679   -164.14057   0.32561503   -163.81495   -6191.0129     4.225416     4.225416     4.225416   -6191.0129    10818.897   -21854.635   -7537.3011      1127.38   -2506.8684    26178.171    75.441168 
   22200    253.03754   -164.04469   0.22895369   -163.81574    1760.8018    4.2225487    4.2225487    4.2225487    1760.8018    20180.178   -22481.217    7583.4453   -660.31643    4130.2122    25849.865    75.287693 
   22300    237.33441   -164.03049   0.21474516   -163.81575   -1534.0538     4.215962     4.215962     4.215962   -1534.0538    27172.867   -21931.997   -9843.0312   -5513.0916    676.83495    27993.782    74.935926 
   22400    316.30476   -164.10225    0.2861992   -163.81605   -6771.1043    4.2259075    4.2259075    4.2259075   -6771.1043   -1122.3272   -27161.161    7970.1754   -3993.7321   -3066.2559    17466.567    75.467497 
   22500    347.23305   -164.12914   0.31418376   -163.81496   -5912.2607    4.2216442    4.2216442    4.2216442   -5912.2607    5011.6194   -17361.094   -5387.3077    -7749.054    2893.9884    14995.443    75.239324 
   22600    482.56833   -164.25107   0.43663797   -163.81443    3482.3142    4.2158427    4.2158427    4.2158427    3482.3142    22656.515   -12214.641    5.0682479   -330.44647   -942.18496    8857.4295    74.929563 
   22700    678.28154   -164.42809   0.61372339   -163.81437   -4363.5193    4.2242743    4.2242743    4.2242743   -4363.5193   -5610.4114   -16001.167    8521.0206   -7532.8759    3339.2392    1592.2474    75.380036 
   22800     713.0451   -164.45864   0.64517819   -163.81346   -2080.7452    4.2224473    4.2224473    4.2224473   -2080.7452    5922.0821   -11418.417   -745.90086    5155.6534   -5105.8506   -2570.3517    75.282271 
   22900    702.66408   -164.44868   0.63578523   -163.81289    11724.308    4.2154411    4.2154411    4.2154411    11724.308    17834.434   -2191.7437    19530.235    2118.1646    3237.7184   -9241.6379    74.908151 
   23000    713.08613   -164.45908   0.64521531   -163.81387   -4740.5067    4.2254468    4.2254468    4.2254468   -4740.5067    4995.3662    -13409.91   -5806.9765     6696.587   -2793.3798   -6138.6635    75.442822 
   23100    599.78801   -164.35709    0.5427008   -163.81439    4043.9802    4.2205761    4.2205761    4.2205761    4043.9802    2311.6214   -3043.6198    12863.939    6071.5532   -3051.2043   -8369.1609    75.182229 
   23200    482.99468   -164.25112   0.43702374   -163.81409    4854.2071     4.217201     4.217201     4.217201    4854.2071     10891.44    -1943.271    5614.4526     4167.011    1743.2071   -5526.2119    75.002008 
   23300    424.48517   -164.19949    0.3840831   -163.81541   -1417.2011    4.2238958    4.2238958    4.2238958   -1417.2011    10466.222   -13947.983   -769.84206    5414.4316   -7500.5228     4087.463    75.359772 
   23400    358.60884   -164.14067   0.32447682    -163.8162   -2289.4295    4.2219785    4.2219785    4.2219785   -2289.4295   -4414.0264   -1862.5564   -591.70573   -4756.4282    2285.9383    5331.2591    75.257199 
   23500    377.87493   -164.15751   0.34190918    -163.8156    3387.8785    4.2151419    4.2151419    4.2151419    3387.8785    19402.649   -4952.6607   -4286.3527    1912.4341    -3104.142    17750.351    74.892202 
   23600    458.49084   -164.23073   0.41485214   -163.81587    -11418.92    4.2250916    4.2250916    4.2250916    -11418.92   -239.28254   -23755.573   -10261.904   -10873.827    2627.5687     18436.85    75.423796 
   23700    470.83405   -164.24106   0.42602055   -163.81504   -441.20065    4.2209438    4.2209438    4.2209438   -441.20065     8716.856    6872.7129   -16913.171   -1126.7963    1637.6784    17529.032    75.201884 
   23800     503.2096   -164.26961   0.45531462    -163.8143    -5418.229    4.2177793    4.2177793    4.2177793    -5418.229    19551.367   -20523.577   -15282.477   -3517.2577    2838.2016    22730.327    75.032871 
   23900    581.25055   -164.33957   0.52592771   -163.81364   -8221.1261    4.2241507    4.2241507    4.2241507   -8221.1261    4365.7288   -9905.4176   -19123.689    -3104.744    4676.0812    15444.495    75.373417 
   24000    552.26912   -164.31306    0.4997047   -163.81335   -5009.8089    4.2220018    4.2220018    4.2220018   -5009.8089    4906.5621    3169.0626   -23105.051    6249.6486   -2297.8318    13386.319    75.258447 
   24100     548.1128   -164.30874   0.49594398    -163.8128   -515.20469    4.2156569    4.2156569    4.2156569   -515.20469    18797.498   -10691.046   -9652.0664    1210.4975    4479.0181    4868.2842    74.919655 
   24200    568.29962   -164.32757   0.51420943   -163.81336   -716.17074    4.2247735    4.2247735    4.2247735   -716.17074    5848.3824    7312.5771   -15309.472    7933.7239   -6480.8059    678.38694    75.406764 
   24300    501.78056   -164.26721   0.45402159   -163.81319    7.4686934    4.2215944    4.2215944    4.2215944    7.4686934    11204.197   -1957.8887   -9223.9026    4495.1739   -3118.5086   -2826.1151    75.236662 
   24400    498.48101   -164.26395   0.45103609   -163.81292    10995.319    4.2180391    4.2180391    4.2180391    10995.319    32517.859    4995.4299   -4527.3325    5728.0093   -3290.9898   -8164.3959    75.046736 
   24500    527.02557   -164.29044   0.47686381   -163.81358   -1557.9607    4.2223373    4.2223373    4.2223373   -1557.9607   -684.04006    2365.0416   -6354.8835   -4556.3332   -5703.5672   -3694.7986    75.276388 
   24600    450.24614   -164.22142   0.40739217   -163.81403    3028.7854    4.2230261    4.2230261    4.2230261    3028.7854    7204.5536    2430.9895    -549.1869   -1402.1746   -1514.9843   -5352.8019    75.313235 
   24700     475.2333   -164.24299   0.43000107   -163.81299    8805.2129     4.217354     4.217354     4.217354    8805.2129    20450.754    7775.5515   -1810.6664   -3262.4106    929.53267    599.14316    75.010176 
   24800      506.216   -164.27163   0.45803488   -163.81359   -7979.8576    4.2230315    4.2230315    4.2230315   -7979.8576   -4019.4709   -9624.7933   -10295.309   -13111.043    6155.3771     2067.093    75.313523 
   24900    456.04877   -164.22754   0.41264251   -163.81489    2009.4654    4.2206634    4.2206634    4.2206634    2009.4654    2986.2143    7740.0482   -4697.8664   -2117.1815    4296.0449    7223.8518    75.186897 
   25000    485.33694   -164.25434   0.43914306    -163.8152   -4487.9581    4.2177452    4.2177452    4.2177452   -4487.9581    3713.0515   -1590.1391   -15586.787     -10004.3    10953.431    11164.293    75.031051 
   25100    502.56724   -164.27044    0.4547334   -163.81571   -6193.1614     4.222659     4.222659     4.222659   -6193.1614    1655.5167    1891.6685   -22126.669    2002.2071    10221.372    6402.2514    75.293594 
   25200    465.88143   -164.23677   0.42153931   -163.81523   -5333.4808    4.2215846    4.2215846    4.2215846   -5333.4808    5822.2396    1905.8109   -23728.493    5.3816643    6230.0974     11281.81    75.236137 
   25300    521.74637   -164.28635   0.47208708   -163.81426   -4912.8113    4.2180217    4.2180217    4.2180217   -4912.8113    14673.968   -4275.3205   -25137.081    3773.9574    6778.0954    6903.4828    75.045809 
   25400    532.54824   -164.29637   0.48186084   -163.81451   -3962.5728    4.2217082    4.2217082    4.2217082   -3962.5728    6523.1951    6097.5665    -24508.48    2170.3933    1572.8893    6320.6718    75.242745 
   25500    507.72694    -164.2743   0.45940201    -163.8149    835.21498    4.2218285    4.2218285    4.2218285    835.21498    11867.292     10599.49   -19961.137    2866.8811    675.95576    650.92739     75.24918 
   25600    597.99596   -164.35458   0.54107931    -163.8135   -2681.9079    4.2198926    4.2198926    4.2198926   -2681.9079    7104.7736   -3398.1556   -11752.342   -1403.0079   -4545.4799    1091.8718    75.145709 
   25700    552.32155   -164.31343   0.49975215   -163.81368    423.97576    4.2225588    4.2225588    4.2225588    423.97576    17178.629   -3952.5643   -11954.137   -10209.122   -2153.7297   -3806.1795    75.288238 
   25800    505.22974   -164.27127   0.45714248   -163.81413    3130.1286    4.2225986    4.2225986    4.2225986    3130.1286     12956.95    7639.1915   -11205.756   -1233.7862   -2434.5761   -3801.6232    75.290363 
   25900    572.89548   -164.33175   0.51836787   -163.81338   -1798.8767    4.2195314    4.2195314    4.2195314   -1798.8767    417.00933   -6252.0657    438.42628   -21211.028   -2859.7934   -1142.8206    75.126413 
   26000    523.79679   -164.28758   0.47394234   -163.81364     1211.643    4.2235736    4.2235736    4.2235736     1211.643    7570.8493    3859.1735   -7795.0937   -5710.2674    2876.5231   -5187.0199     75.34253 
   26100    553.73656   -164.31353   0.50103248    -163.8125     72.28603    4.2218183    4.2218183    4.2218183     72.28603    3117.8617    3879.6788   -6780.6824   -8307.5086    4330.9212    30.358136    75.248632 
   26200    599.21568   -164.35448   0.54218294    -163.8123   -1486.9727    4.2193158    4.2193158    4.2193158   -1486.9727    5676.5363   -5285.4604   -4851.9941   -13962.854      3546.23   -2353.7602    75.114901 
   26300    532.26635   -164.29501   0.48160578    -163.8134   -998.11415    4.2224307    4.2224307    4.2224307   -998.11415    6636.3677    7741.0264   -17371.737    3864.5028    6794.6699    5840.3551    75.281385 
   26400    554.86893   -164.31561   0.50205706   -163.81355   -2804.4682    4.2215913    4.2215913    4.2215913   -2804.4682    3366.7742    5783.0184   -17563.197   -5653.9861    8688.3063    1825.4562    75.236495 
   26500    538.30801   -164.30161    0.4870724   -163.81454   -1923.4338    4.2182309    4.2182309    4.2182309   -1923.4338     16913.31   -4176.2846   -18507.327    8308.6093    4327.3341    7123.6683    75.056974 
   26600    467.11665    -164.2383   0.42265696   -163.81564    -2889.598    4.2221764    4.2221764    4.2221764    -2889.598    15796.205    2938.8217    -27403.82   -221.64874    3659.0499    8367.5535    75.267784 
   26700     481.7582   -164.25134   0.43590495   -163.81543   -6465.2851    4.2219964    4.2219964    4.2219964   -6465.2851    6513.7725    15.871206   -25925.499    5272.7698      1763.16    4036.9691    75.258159 
   26800    427.27571    -164.2023   0.38660804   -163.81569    558.97302    4.2174194    4.2174194    4.2174194    558.97302    16127.587    4710.9533   -19161.622    352.48562   -511.63156     8710.149    75.013666 
   26900    369.66575   -164.15101   0.33448134   -163.81653   -2392.8945    4.2223684    4.2223684    4.2223684   -2392.8945   -246.95324    11252.164   -18183.895   -1529.0258   -4587.1116    3532.0592    75.278053 
   27000    440.46642   -164.21336   0.39854327   -163.81482   -7076.5085    4.2223133    4.2223133    4.2223133   -7076.5085    3989.2425   -8144.5535   -17074.215   -2910.2904   -6679.8056    3030.6217    75.275106 
   27100    366.29089   -164.14609   0.33142769   -163.81466    2121.1187    4.2190313    4.2190313    4.2190313    2121.1187    10333.276    4220.0565   -8189.9766   -16824.185   -3628.6826    375.10103    75.099709 
   27200    338.40155   -164.12136   0.30619284   -163.81517    1861.7025    4.2213907    4.2213907    4.2213907    1861.7025   -5224.7101    13929.063   -3119.2453     856.2507   -9201.2232    1816.6854     75.22577 
   27300    480.38952   -164.24911   0.43466654   -163.81444   -2533.5851    4.2236446    4.2236446    4.2236446   -2533.5851    11823.997   -12644.369   -6780.3829    -15452.71   -3577.6833    -2629.434    75.346332 
   27400    521.72567   -164.28566   0.47206835   -163.81359    43.397693    4.2184722    4.2184722    4.2184722    43.397693    1378.2399   -2445.1522    1197.1054   -6874.7058    -3138.325   -4134.4792    75.069852 
   27500    560.00139   -164.32028   0.50670102   -163.81358    7783.5134    4.2213902    4.2213902    4.2213902    7783.5134    18402.444    9983.0134   -5034.9175   -2878.5633   -1409.0448   -711.33929    75.225746 
   27600    668.05612   -164.41715   0.60447122   -163.81268   -3992.8765    4.2239292    4.2239292    4.2239292   -3992.8765    7400.3949   -8571.6509   -10807.373   -6040.1042    1874.0692   -960.76763    75.361562 
   27700    635.07337   -164.38627   0.57462773   -163.81164    7593.0127    4.2185726    4.2185726    4.2185726    7593.0127    24596.093   -289.68177   -1527.3731    6996.7666    4046.3621    272.11472    75.075213 
   27800    623.92871   -164.37634   0.56454381    -163.8118    4874.5077    4.2227269    4.2227269    4.2227269    4874.5077    25440.897    5323.2759   -16140.649    314.46867    3640.3728   -185.18385    75.297227 
   27900    606.86267   -164.36244    0.5491021   -163.81333    -380.4349    4.2210893    4.2210893    4.2210893    -380.4349    17936.023    388.96511   -19466.293    4682.0953    872.51592    8369.6266    75.209657 
   28000    495.13066   -164.26323   0.44800462   -163.81523    7791.4402     4.218268     4.218268     4.218268    7791.4402     34160.82    2399.9651   -13186.465   -1061.5061    1958.0548    5753.1998    75.058954 
   28100    497.59926   -164.26619   0.45023827   -163.81596   -4569.2347    4.2228401    4.2228401    4.2228401   -4569.2347    10231.072   -1149.3775   -22789.399    2567.1488   -3877.8769    8663.0081    75.303281 
   28200    449.14157   -164.22255   0.40639273   -163.81616   -1102.1528    4.2212453    4.2212453    4.2212453   -1102.1528    24721.194   -11096.857   -16930.795   -5290.0625    -5405.931    8201.3043    75.217998 
   28300    392.89917   -164.17159   0.35550342   -163.81608   -2199.1283    4.2177663    4.2177663    4.2177663   -2199.1283    6111.7032   -4610.3684   -8098.7197   -9076.8985   -5614.6489    5938.1902    75.032177 
   28400    427.23406   -164.20227   0.38657036    -163.8157   -6805.8818    4.2244063    4.2244063    4.2244063   -6805.8818    12949.901   -16626.241   -16741.305    -6173.645   -3847.1324    8301.7074      75.3871 
   28500    394.87337   -164.17279   0.35728973    -163.8155   -4786.0069    4.2200967    4.2200967    4.2200967   -4786.0069    10525.965    -24572.58   -311.40567   -8779.4389   -2853.6121    2729.5706    75.156614 
   28600    460.42824   -164.23148   0.41660515   -163.81488     -6125.33    4.2192426    4.2192426    4.2192426     -6125.33   -18.274782   -13664.799   -4692.9162   -5825.6756   -875.64073     4267.384    75.110989 
   28700    463.72127   -164.23443   0.41958475   -163.81484   -7568.3457    4.2254088    4.2254088    4.2254088   -7568.3457    9894.1922   -17357.996   -15241.233   -8075.6638    5912.1885   -1291.4296    75.440783 
   28800    445.97075   -164.21791    0.4035237   -163.81439   -2787.6158    4.2191389    4.2191389    4.2191389   -2787.6158    1229.5661    -16667.82    7075.4068   -1949.1974    2337.6667   -2301.2936    75.105454 
   28900    588.28238   -164.34566   0.53229026   -163.81337   -1913.0086     4.219998     4.219998     4.219998   -1913.0086    7251.7081   -6238.0244   -6752.7095   -4806.4499    10792.313   -1364.3103    75.151344 
   29000    585.93033    -164.3433   0.53016207   -163.81314   -10651.386    4.2255175    4.2255175    4.2255175   -10651.386   -5207.7134   -8134.9446     -18611.5    5436.3025     9197.649   -4340.3745    75.446606 
   29100    600.71154   -164.35598   0.54353642   -163.81244    5505.4438    4.2185423    4.2185423    4.2185423    5505.4438    14344.234    1205.3641    966.73368   -6771.8522    8376.0255   -1557.1976    75.073598 
   29200    687.42036   -164.43464   0.62199239   -163.81265   -4039.3796    4.2207601    4.2207601    4.2207601   -4039.3796    4288.3831   -4354.4609   -12052.061     7116.861    6938.3902   -2829.3712    75.192066 
   29300    595.12427   -164.35193   0.53848094   -163.81345    1430.5385    4.2230011    4.2230011    4.2230011    1430.5385    25339.053   -4083.8348   -16963.603   -1722.9339    8896.5728    2529.4812    75.311895 
   29400    629.01473   -164.38273   0.56914574   -163.81358    3208.9688    4.2204049    4.2204049    4.2204049    3208.9688    13832.237    1943.7208   -6149.0511    2217.7502    919.14562    4569.3276    75.173082 
   29500    595.05937   -164.35215   0.53842222   -163.81372   -5207.6152    4.2225583    4.2225583    4.2225583   -5207.6152    11104.641   -15057.418   -11670.069    1415.7096    815.13267    3503.2274    75.288206 
   29600    488.68049   -164.25646   0.44216838   -163.81429    3921.9533    4.2208114    4.2208114    4.2208114    3921.9533    29704.075   -11470.961   -6467.2539   -6001.6115    2658.2098    9442.1577    75.194805 
   29700    492.56203   -164.26003   0.44568048   -163.81435   -2961.5064    4.2225253    4.2225253    4.2225253   -2961.5064    6355.1015   -10166.073   -5073.5478    1189.3271   -5291.4838    7152.9476    75.286443 
   29800    368.00987   -164.14784   0.33298307   -163.81486    2664.8638    4.2221691    4.2221691    4.2221691    2664.8638    34135.244   -21857.842   -4282.8103   -5581.3432   -1266.4789    9555.6882    75.267394 
   29900    403.49598   -164.17931   0.36509164   -163.81422    1363.8281    4.2209396    4.2209396    4.2209396    1363.8281    22531.243   -15188.891   -3250.8675   -4487.1409    -3808.874    5610.8278     75.20166 
   30000    436.46934   -164.20883   0.39492664   -163.81391   -1876.7755    4.2223681    4.2223681    4.2223681   -1876.7755    17203.135     -14620.8   -8212.6611   -6673.2745    892.80794    4805.2946    75.278034 
   30100    341.89799   -164.12358   0.30935649   -163.81423    1357.8606    4.2240694    4.2240694    4.2240694    1357.8606    18497.843     -9947.05   -4477.2115    -2187.109   -875.55327    2079.5932    75.369069 
   30200    474.80434   -164.24249   0.42961294   -163.81288    4146.9468    4.2185207    4.2185207    4.2185207    4146.9468    18377.171    1392.8611   -7329.1916   -2852.0946    2381.9718   -4797.7908    75.072446 
   30300    490.57282   -164.25714    0.4438806   -163.81326    -7862.816    4.2236285    4.2236285    4.2236285    -7862.816    8412.4696   -13190.966   -18809.951    1358.2843    7962.7285   -3002.6719    75.345467 
   30400    372.70512   -164.15093   0.33723142    -163.8137    7806.1164    4.2231168    4.2231168    4.2231168    7806.1164    19200.312    5406.0598   -1188.0226    256.03857    243.28063   -7987.6383    75.318089 
   30500    509.64291    -164.2735   0.46113562   -163.81236   -4746.1588    4.2209528    4.2209528    4.2209528   -4746.1588    2818.2743    1976.8229   -19033.573    2127.3777    8543.2857   -7396.4646    75.202364 
   30600    512.28547   -164.27697   0.46352666   -163.81344   -3246.5471    4.2204272    4.2204272    4.2204272   -3246.5471    8428.0143   -5202.3229   -12965.333    474.89807    4290.4613   -6779.2352    75.174273 
   30700    412.35152   -164.18779   0.37310432   -163.81469    3614.9216    4.2261657    4.2261657    4.2261657    3614.9216     15994.89     997.4463   -6147.5711    1625.1044    4065.6174      -4061.8    75.481333 
   30800    526.60614   -164.28969    0.4764843    -163.8132   -4329.9375    4.2196465    4.2196465    4.2196465   -4329.9375    -3728.615    3975.2409   -13236.438   -1029.6028    3244.9895   -62.379256    75.132566 
   30900    493.90001   -164.26125   0.44689111   -163.81436     4305.581    4.2193224    4.2193224    4.2193224     4305.581    11776.232    999.15026    141.36034   -5380.3433   -1548.3014    -2331.026    75.115254 
   31000    485.63923   -164.25432   0.43941658   -163.81491   -830.85237     4.223136     4.223136     4.223136   -830.85237    3184.3097   -8194.9189    2518.0522    2739.7049   -757.53628    5717.9307    75.319115 
   31100    579.63314    -164.3376   0.52446424   -163.81314   -5840.0147    4.2233773    4.2233773    4.2233773   -5840.0147   -8634.4654    -2117.411   -6768.1676   -7773.0205   -4913.7074    3496.3627    75.332025 
   31200    539.16846    -164.3006   0.48785095   -163.81275    7038.0336    4.2182986    4.2182986    4.2182986    7038.0336    20922.249   -3757.5975    3949.4495    3884.3236    188.57254     1730.736    75.060585 
   31300    602.77967   -164.35869   0.54540771   -163.81328   -5771.8814    4.2232833    4.2232833    4.2232833   -5771.8814    4383.6288    -18274.52   -3424.7524   -3958.7419   -5530.0809     4267.118    75.326995 
   31400    650.08704   -164.40094   0.58821242   -163.81273   -5703.5921    4.2240813    4.2240813    4.2240813   -5703.5921    2903.9966   -10431.601   -9583.1724    1553.2087    1099.6777   -2485.4719    75.369703 
   31500    587.04382   -164.34356   0.53116959   -163.81239    1076.7246    4.2199258    4.2199258    4.2199258    1076.7246    28876.825   -17673.976   -7972.6745    670.26345    516.01897   -1367.7918    75.147481 
   31600    685.35388   -164.43235   0.62012259   -163.81222   -5843.6965    4.2217607    4.2217607    4.2217607   -5843.6965    6014.9706   -10347.874   -13198.187    3926.1431    2173.4103    -10422.16    75.245554 
   31700    619.86156   -164.37488   0.56086377   -163.81401    -7814.663    4.2250372    4.2250372    4.2250372    -7814.663    8719.7069   -13232.385    -18931.31   -1524.5411    1516.6095   -8734.0653    75.420882 
   31800    499.41407   -164.26634   0.45188035   -163.81446    5521.5668    4.2182047    4.2182047    4.2182047    5521.5668    40190.008   -13200.111   -10425.196    -257.5648     2213.375   -15329.804    75.055574 
   31900    529.24046   -164.29366   0.47886789   -163.81479   -6762.3395    4.2244776    4.2244776    4.2244776   -6762.3395   -1195.8346     1316.267   -20407.451    3836.2849   -234.15448   -14042.154    75.390917 
   32000    397.93028   -164.17585   0.36005568    -163.8158    3725.0528    4.2231865    4.2231865    4.2231865    3725.0528    23567.038    19.742336   -12411.622   -6648.8242   -3041.6215   -10439.595    75.321815 
   32100    387.39174    -164.1652   0.35052019   -163.81468   -550.45095    4.2212596    4.2212596    4.2212596   -550.45095    22872.592   -13698.761   -10825.184   -1214.4598   -1002.5704   -12762.119    75.218765 
   32200     407.2036   -164.18301   0.36844637   -163.81457   -5716.6406    4.2224374    4.2224374    4.2224374   -5716.6406    1489.5273   -4179.7861   -14459.663    1542.8023    -8678.863   -7326.0665    75.281742 
   32300    268.81621   -164.06002   0.24323056   -163.81679   -534.02819     4.222329     4.222329     4.222329   -534.02819    4163.3845    -4677.482    -1087.987   -3976.6648    -1983.947   -6776.8311    75.275946 
   32400    377.15365   -164.15787   0.34125655   -163.81661   -3855.1856    4.2198565    4.2198565    4.2198565   -3855.1856   -3967.5917   -8739.9246    1141.9595    1782.4997   -6998.3089   -683.99936    75.143784 
   32500    467.25172   -164.23891   0.42277917   -163.81613   -6619.0006    4.2237471    4.2237471    4.2237471   -6619.0006    4724.2309   -15668.246    -8912.987    7803.9567   -3317.8677    1835.2637    75.351817 
   32600    407.18984   -164.18362   0.36843392   -163.81519    467.13211    4.2221797    4.2221797    4.2221797    467.13211     5680.417   -8053.4252    3774.4046   -8824.9541   -3985.4853    3607.3458    75.267957 
   32700    541.37895   -164.30345   0.48985105    -163.8136    1429.1118    4.2204928    4.2204928    4.2204928    1429.1118    2024.3739    2441.1425   -178.18102    6037.1281    1844.7374    8409.4888     75.17778 
   32800    639.62749   -164.39062   0.57874839   -163.81187   -1794.6888    4.2227212    4.2227212    4.2227212   -1794.6888    14615.685   -7773.9283   -12225.823    1698.2904    1082.9119    4136.0376    75.296923 
   32900    566.43608    -164.3243   0.51252327   -163.81178    6669.4512    4.2227628    4.2227628    4.2227628    6669.4512    27635.444   -5978.4856   -1648.6044   -3467.9489    603.55077    7792.5634    75.299147 
   33000    589.38833   -164.34449   0.53329095    -163.8112    5958.9788    4.2226483    4.2226483    4.2226483    5958.9788    16915.125    7984.6723    -7022.861    -3696.924    4834.3427    2122.6481    75.293024 
   33100    598.09323   -164.35353   0.54116732   -163.81236    2551.5617    4.2199836    4.2199836    4.2199836    2551.5617    21969.881   -5289.0058   -9026.1896    1374.5474    1705.9803    1985.7945     75.15057 
   33200    519.39848    -164.2841   0.46996266   -163.81414    4935.1914    4.2206858    4.2206858    4.2206858    4935.1914    29672.722   -11539.831   -3327.3165     703.6095    3742.4921   -3523.3599    75.188091 
   33300    478.07812   -164.24686   0.43257513   -163.81428   -2479.3888     4.224554     4.224554     4.224554   -2479.3888    14936.397   -12120.206   -10254.358   -5117.4809   -2200.7459   -11036.283    75.395007 
   33400    442.91169    -164.2152    0.4007558   -163.81445    2082.4231    4.2214637    4.2214637    4.2214637    2082.4231    21562.474    -6155.177   -9160.0281    7085.1548    465.64374   -6620.1668    75.229674 
   33500    497.44431   -164.26369   0.45009806    -163.8136   -271.59211    4.2209713    4.2209713    4.2209713   -271.59211    22913.769   -16221.399   -7507.1455   -5241.9366   -5336.7557   -15760.715    75.203352 
   33600    543.45197   -164.30531   0.49172676   -163.81358   -9485.3164    4.2242083    4.2242083    4.2242083   -9485.3164   -305.16041   -17432.722   -10718.067    670.13445   -5350.7811   -10934.619    75.376502 
   33700    461.58615    -164.2325   0.41765285   -163.81484   -804.67538    4.2221734    4.2221734    4.2221734   -804.67538    10653.661   -3569.2825   -9498.4051    3882.6024   -5263.0705   -13673.648    75.267624 
   33800    498.67401    -164.2656   0.45121072   -163.81439   -4841.0029    4.2202071    4.2202071    4.2202071   -4841.0029    5887.4322    -9745.783   -10664.658   -3485.0267   -7071.7277   -5750.4306    75.162512 
   33900    519.26284   -164.28383   0.46983993   -163.81399   -8155.3383    4.2247319    4.2247319    4.2247319   -8155.3383   -7426.5747   -7737.0868   -9302.3533   -354.01367    -1207.806   -3127.2788    75.404535 
   34000    456.34337   -164.22709   0.41290907   -163.81418   -2047.5991    4.2226033    4.2226033    4.2226033   -2047.5991    7169.6736    893.57104   -14206.042    3963.2894   -4090.8033    583.00762    75.290617 
   34100    538.93818   -164.30169   0.48764259   -163.81405   -2971.5352    4.2195717    4.2195717    4.2195717   -2971.5352    5991.1352   -3972.3142   -10933.426   -609.19257    7481.2491    9066.8896    75.128571 
   34200    508.82798   -164.27543   0.46039825   -163.81503   -6720.2143    4.2260159    4.2260159    4.2260159   -6720.2143   -11308.554    4827.0969   -13679.186   -3104.2553    1446.9532    5845.1264    75.473306 
   34300     373.5907   -164.15349   0.33803271   -163.81546    4996.7829    4.2227223    4.2227223    4.2227223    4996.7829    23139.838    9193.1142   -17342.603    5273.7063     12564.75    11614.338    75.296982 
   34400    473.33606   -164.24299   0.42828442   -163.81471   -5549.7434     4.220595     4.220595     4.220595   -5549.7434    1207.2343    -7710.737   -10145.727    -988.5831    7726.6319    10619.744     75.18324 
   34500    474.04102   -164.24339   0.42892227   -163.81447   -4947.2415    4.2242073    4.2242073    4.2242073   -4947.2415    1896.6632   -8312.0541   -8426.3335   -893.72292    8958.8342    9075.3319    75.376448 
   34600    397.15965   -164.17454   0.35935839   -163.81518   -734.92429     4.223966     4.223966     4.223966   -734.92429     15205.76   -3487.8528    -13922.68    3546.8147      8990.94    8699.9594     75.36353 
   34700    545.27623   -164.30762   0.49337739   -163.81425   -3603.5937    4.2207427    4.2207427    4.2207427   -3603.5937   -2809.2977   -6675.2427   -1326.2406   -2091.0954     3666.541    3098.1479    75.191134 
   34800    603.20602   -164.35885   0.54579348   -163.81306   -6620.6599    4.2254552    4.2254552    4.2254552   -6620.6599     11897.95   -19012.508   -12747.422   -4488.7104    3541.1825    3557.3198     75.44327 
   34900    622.57714    -164.3755   0.56332088   -163.81218    1485.9074    4.2208879    4.2208879    4.2208879    1485.9074    10818.619   -2808.1927   -3552.7041    10397.424   -4482.5692   -1969.7273    75.198896 
   35000    735.72432   -164.47753   0.66569883   -163.81183    4452.3629    4.2201424    4.2201424    4.2201424    4452.3629   -184.26635     14183.18   -641.82517   -2323.6055   -3098.2669   -1429.4953    75.159056 
   35100    744.63295   -164.48593   0.67375954   -163.81217   -2370.2375    4.2242132    4.2242132    4.2242132   -2370.2375    9419.0577   -7138.1032    -9391.667   -2086.0966   -9557.8406    -4881.569    75.376761 
   35200    622.58231   -164.37587   0.56332556   -163.81254    5296.1585    4.2234331    4.2234331    4.2234331    5296.1585    17428.916    4998.4357    -6538.876    5888.7594   -6738.3587   -2361.2592    75.335009 
   35300    540.15311   -164.30249   0.48874188   -163.81375    9100.0225    4.2200603    4.2200603    4.2200603    9100.0225    2390.6173    32328.143   -7418.6929    2716.5144   -8439.3467   -631.99694    75.154667 
   35400    517.85423   -164.28384   0.46856539   -163.81527    2194.5254    4.2244461    4.2244461    4.2244461    2194.5254    9763.0713     4515.368   -7694.8631   -4002.6124   -1801.4772   -298.30407     75.38923 
   35500    457.37864   -164.22934   0.41384581   -163.81549    2957.7686    4.2220294    4.2220294    4.2220294    2957.7686     9626.676    7673.6263   -8426.9966     575.3787    5924.6266    6380.1869     75.25992 
   35600    287.07019   -164.07683   0.25974714   -163.81709    3985.3502    4.2206288    4.2206288    4.2206288    3985.3502       3247.9    22146.366   -13438.216    2719.5653    3290.0872    6005.1124    75.185046 
   35700    223.11201   -164.01909   0.20187644   -163.81722    1805.5572    4.2233682    4.2233682    4.2233682    1805.5572   -909.99533    18575.082   -12248.415   -8095.2438    17024.197    12062.219    75.331536 
   35800    298.96377   -164.08706    0.2705087   -163.81655   -7211.5903    4.2216518    4.2216518    4.2216518   -7211.5903   -6156.8594    207.64222   -15685.554    4082.9799    13895.172    9833.2538    75.239728 
   35900    252.02071   -164.04447   0.22803364   -163.81644   -2991.6562    4.2219948    4.2219948    4.2219948   -2991.6562   -5377.1418    9082.6994   -12680.526   -2173.6495    13072.911    11150.032    75.258072 
   36000    254.26426   -164.04699   0.23006364   -163.81692   -2334.6272    4.2241697    4.2241697    4.2241697   -2334.6272   -1550.2937    14173.426   -19627.014   -1641.7002     17906.98    4581.7335    75.374437 
   36100    402.37775    -164.1791   0.36407985   -163.81502   -8117.4719    4.2213961    4.2213961    4.2213961   -8117.4719   -2916.1217   -10377.937   -11058.356    6075.0697    10352.824    5623.4161    75.226057 
   36200     502.5253   -164.26852   0.45469546   -163.81382   -3745.7214    4.2223779    4.2223779    4.2223779   -3745.7214   -5458.4194    4634.1218   -10412.867   -307.20575    11884.733   -113.04695    75.278559 
   36300     602.4105   -164.35979   0.54507368   -163.81471   -8125.7342     4.224025     4.224025     4.224025   -8125.7342   -5415.2991   -774.51369    -18187.39    1231.2424     2252.001   -6921.3829    75.366688 
   36400      738.844   -164.48263   0.66852158   -163.81411    1302.3926     4.218309     4.218309     4.218309    1302.3926    8303.2415   -4581.0696    185.00578   -1794.9461    2378.3848    -1788.605    75.061143 
   36500     752.0666   -164.49551   0.68048567   -163.81503   -139.09362     4.222726     4.222726     4.222726   -139.09362   -1296.8671    13000.806    -12121.22    6603.6652   -4583.8108     -10470.7     75.29718 
   36600    764.48017   -164.50465   0.69171773   -163.81293   -6932.4479     4.225431     4.225431     4.225431   -6932.4479   -5127.4646   -6189.0056   -9480.8736   -6983.4976    -3926.834   -2220.5442    75.441975 
   36700    711.40653   -164.45545   0.64369557   -163.81175     4248.421    4.2189779    4.2189779    4.2189779     4248.421    13156.932    1723.4643   -2135.1331    3232.2798    -3078.053   -4536.1461    75.096855 
   36800    604.27118   -164.35997   0.54675726   -163.81321   -1601.4532    4.2219798    4.2219798    4.2219798   -1601.4532    2695.4044    5329.9546   -12829.719   -1975.4047    -4271.542    7947.2783    75.257267 
   36900    578.97018   -164.33764   0.52386438   -163.81378   -4798.9415    4.2259198    4.2259198    4.2259198   -4798.9415    4045.2045    -10032.65   -8409.3793   -2495.8884    1.5032906    4088.1933    75.468156 
   37000    474.08617   -164.24306   0.42896313    -163.8141    994.77284    4.2203331    4.2203331    4.2203331    994.77284    17851.097   -939.18272   -13927.596    7014.5912    1861.9899    13927.007    75.169248 
   37100     369.5123    -164.1496    0.3343425   -163.81526   -709.07526    4.2218556    4.2218556    4.2218556   -709.07526   -2400.5852    11707.973   -11434.614   -3554.6405    9016.1183     13099.19     75.25063 
   37200    348.81421   -164.13193   0.31561443   -163.81632   -687.56623    4.2253598    4.2253598    4.2253598   -687.56623    5767.9121     3280.041   -11110.652    1048.9369    9321.0892    12296.783    75.438158 
   37300    328.65014   -164.11328   0.29736956   -163.81591   -1064.5457    4.2201957    4.2201957    4.2201957   -1064.5457    6604.7482    7068.4953   -16866.881    1592.0899    9951.8711    18133.639    75.161902 
   37400    329.96022   -164.11433   0.29855494   -163.81577    3340.3098    4.2218675    4.2218675    4.2218675    3340.3098   -12287.491    32458.992   -10150.571    1631.6649    13840.729     6363.753    75.251265 
   37500    365.70944   -164.14564   0.33090159   -163.81473   -2542.1384     4.225264     4.225264     4.225264   -2542.1384   -4977.3206     14167.57   -16816.665   -6471.7248    11002.499    6495.4311    75.433027 
   37600    329.39394   -164.11193   0.29804256   -163.81389    3169.8872    4.2201271    4.2201271    4.2201271    3169.8872     3254.826    15168.737   -8913.9011   -173.87545    11498.227    963.06902     75.15824 
   37700    453.89733   -164.22423   0.41069584   -163.81354    8027.5051    4.2195748    4.2195748    4.2195748    8027.5051   -3146.4476    33836.286   -6607.3231    2243.5528    6170.9557   -3704.7387    75.128734 
   37800    577.54586   -164.33639   0.52257564   -163.81381   -7423.5066    4.2241303    4.2241303    4.2241303   -7423.5066   -13529.934    9271.0078   -18011.594   -3526.6138    4783.1566   -13126.357    75.372324 
   37900    502.73775   -164.26856   0.45488768   -163.81367      11567.2     4.220873     4.220873     4.220873      11567.2    1296.9472     31711.07    1693.5816    4860.6607   -2535.0127    -5992.541    75.198095 
   38000    563.36323   -164.32292   0.50974289   -163.81318    1439.8086    4.2220753    4.2220753    4.2220753    1439.8086    2124.9012    14769.211   -12574.686    135.59198   -4706.7773   -9536.6759    75.262374 
   38100    659.18326   -164.40971   0.59644286   -163.81327   -1815.9425    4.2206604    4.2206604    4.2206604   -1815.9425   -8834.7944    8106.8109   -4719.8438    371.71641   -5343.7875   -4226.2472    75.186733 
   38200    560.93249   -164.32128   0.50754351   -163.81373    3162.5881     4.223028     4.223028     4.223028    3162.5881   -5947.3289    13738.367    1696.7263    1609.0521   -9470.0023    4395.9489    75.313336 
   38300    585.09238    -164.3418   0.52940388   -163.81239    -6800.523    4.2227091    4.2227091    4.2227091    -6800.523    6870.7894   -8299.7871   -18972.571    5129.5462   -6320.6918    1717.7419    75.296277 
   38400    616.90012   -164.37058   0.55818419    -163.8124   -1089.9102    4.2201298    4.2201298    4.2201298   -1089.9102   -61.224099   -2875.0459   -333.46064   -3998.3874   -4358.5083    14376.472    75.158381 
   38500    545.08346    -164.3065   0.49320297    -163.8133   -7053.6613    4.2250365    4.2250365    4.2250365   -7053.6613   -12398.727    8650.4207   -17412.678    1092.5856   -426.52712    8715.9912    75.420845 
   38600    543.84672   -164.30559   0.49208394   -163.81351   -3369.5556    4.2228917    4.2228917    4.2228917   -3369.5556    2875.3561    1983.2158   -14967.239    4924.9341    4541.0473    18274.439    75.306044 
   38700    501.84135   -164.26775    0.4540766   -163.81368    1466.7526    4.2203187    4.2203187    4.2203187    1466.7526    2319.4119    6949.4117   -4868.5657   -4195.8271    8731.8218    3398.5919    75.168478 
   38800    494.27401   -164.26107   0.44722951   -163.81384   -3943.2077    4.2249842    4.2249842    4.2249842   -3943.2077   -13724.341    22746.811   -20852.093   -1953.6701    13531.032    14076.213    75.418047 
   38900    530.36256   -164.29263   0.47988319   -163.81274   -5988.7593    4.2230407    4.2230407    4.2230407   -5988.7593     -8164.38    57.147916   -9859.0458    1569.6469    12651.059     3038.186    75.314014 
   39000    356.25133   -164.13634   0.32234369     -163.814    552.18175    4.2208714    4.2208714    4.2208714    552.18175    -10209.98    24030.252   -12163.726   -2286.3692    15189.379   -555.51729    75.198015 
   39100    380.99068   -164.15955   0.34472837   -163.81482    465.74413      4.22341      4.22341      4.22341    465.74413   -11510.087    22992.457   -10085.138   -4660.0369    13548.615   -961.91029    75.333775 
   39200    485.04213   -164.25397   0.43887631   -163.81509   -7836.1842    4.2214528    4.2214528    4.2214528   -7836.1842   -22524.507    5964.8049   -6948.8503     5529.511    6262.9032   -8848.4883    75.229093 
   39300    421.43168   -164.19703   0.38132024   -163.81571    682.96988    4.2210146    4.2210146    4.2210146    682.96988   -20326.769    34282.094   -11906.415   -6081.9803    4745.0504   -245.00183    75.205665 
   39400    421.63392   -164.19674   0.38150323   -163.81523    295.61076    4.2238926    4.2238926    4.2238926    295.61076   -14987.057    19559.809   -3685.9194   -822.50709   -5597.6134   -4402.3181    75.359603 
   39500    491.00721   -164.25845   0.44427364   -163.81417   -421.40968    4.2197421    4.2197421    4.2197421   -421.40968   -13790.752     16597.03   -4070.5072   -140.28254   -5562.8569    4376.9408    75.137673 
   39600    451.44074   -164.22242   0.40847307   -163.81394     3954.092     4.220859     4.220859     4.220859     3954.092   -11477.671    27744.343   -4404.3967    861.49993   -11108.114   -2501.2674     75.19735 
   39700    441.05632   -164.21202   0.39907703   -163.81294    3157.1022    4.2241364    4.2241364    4.2241364    3157.1022   -11537.403     28038.45   -7029.7406   -2487.4295   -12963.521    9627.6753    75.372652 
   39800    506.72827   -164.27054   0.45849839   -163.81204    7544.7488    4.2196589    4.2196589    4.2196589    7544.7488     11456.08     10134.22    1043.9466    -668.8839   -6682.5391     4490.989    75.133227 
   39900    561.78977   -164.32036   0.50831919   -163.81204    1503.6545    4.2225534    4.2225534    4.2225534    1503.6545   -7135.7492    13511.147   -1864.4339    5118.0857   -7628.8457    685.79581    75.287946 
   40000    599.40412    -164.3549   0.54235345   -163.81255     3427.483    4.2219023    4.2219023    4.2219023     3427.483   -6015.1244    22219.693   -5922.1191   -4742.8743   -1489.5166    4670.7199    75.253123 
   40100    581.30174   -164.34005   0.52597403   -163.81408    5412.2515      4.22265      4.22265      4.22265    5412.2515    15648.555     376.6178    211.58163    3894.9931    5897.3529    -1549.274    75.293111 
   40200    567.00693   -164.32665   0.51303979   -163.81361    2612.3425    4.2236212    4.2236212    4.2236212    2612.3425   -13541.362    28048.781    -6670.391    2288.2228    7734.3405   -2796.9937    75.345076 
   40300    644.79277   -164.39567   0.58342205   -163.81225   -7440.7384    4.2227764    4.2227764    4.2227764   -7440.7384   -19836.447    3111.1596   -5596.9274   -2380.5239    10112.955   -6598.3525    75.299877 
   40400    528.64422    -164.2916    0.4783284   -163.81327   -1184.1986    4.2206491    4.2206491    4.2206491   -1184.1986    10.883805    5353.1519   -8916.6315    2602.5867    8268.9582     -3140.84    75.186133 
   40500    383.07873    -164.1608   0.34661769   -163.81418   -2136.1898    4.2252748    4.2252748    4.2252748   -2136.1898   -22944.608    26550.704   -10014.665    2927.8527    12269.457   -10727.495     75.43361 
   40600    484.63693   -164.25166   0.43850968   -163.81315   -2117.2924    4.2208901    4.2208901    4.2208901   -2117.2924   -22460.156    15317.911    790.36724    2014.3976    5378.1837    3385.5207    75.199012 
   40700    496.07939   -164.26299   0.44886306   -163.81413   -8974.8404    4.2212084    4.2212084    4.2212084   -8974.8404   -22905.374    9822.7825   -13841.929   -5782.7756     -2097.34   -815.50975    75.216027 
   40800    401.17184   -164.17849   0.36298871    -163.8155    427.81458    4.2257506    4.2257506    4.2257506    427.81458   -19897.935     24061.52   -2880.1408    6158.4392    202.43221   -511.15003    75.459092 
   40900    469.15427    -164.2385   0.42450064     -163.814    -2177.373    4.2207065    4.2207065    4.2207065    -2177.373   -20415.785    26131.784   -12248.118    709.04161   -10748.067    5657.3944    75.189198 
   41000    521.41422   -164.28442   0.47178654   -163.81263     -6530.83    4.2209321    4.2209321    4.2209321     -6530.83   -23765.004    6758.7598   -2586.2459   -3164.7847   -11547.186    2685.0151    75.201257 
   41100    450.23387   -164.22044   0.40738107   -163.81305   -1695.4001    4.2270751    4.2270751    4.2270751   -1695.4001    -16199.99    19461.906   -8348.1162    1778.2547   -8699.2102    4323.0403    75.530073 
   41200    537.15501   -164.29798   0.48602915   -163.81195   -2097.5066    4.2180025    4.2180025    4.2180025   -2097.5066   -10868.679    13013.995   -8437.8358    2300.7913   -17212.364   -5694.5953     75.04478 
   41300    607.38835   -164.36268   0.54957774    -163.8131   -5326.9853    4.2219952    4.2219952    4.2219952   -5326.9853   -7776.8139   -9438.5109    1234.3688   -39.810878   -8807.2892   -593.10896    75.258094 
   41400    517.44449   -164.28239   0.46819465   -163.81419   -5134.8702    4.2250999    4.2250999    4.2250999   -5134.8702   -7521.3188    7506.9449   -15390.237      2169.26   -4482.7865   -16182.024    75.424241 
   41500      491.465   -164.25917   0.44468786   -163.81449    1345.2556    4.2180876    4.2180876    4.2180876    1345.2556   -459.59541   -921.03077     5416.393    3603.8511   -2485.3728     -6954.19    75.049323 
   41600    486.40758   -164.25481    0.4401118    -163.8147    3691.6829    4.2201603    4.2201603    4.2201603    3691.6829    13179.404    6962.1214   -9066.4764   -356.03646    4357.6833   -13589.143    75.160014 
   41700    449.73497   -164.22102   0.40692965   -163.81409   -3403.4713    4.2267215    4.2267215    4.2267215   -3403.4713   -11127.372    10306.123   -9389.1654    447.33399    6216.7612    -15590.65    75.511117 
   41800    496.08781   -164.26132   0.44887068   -163.81245    4779.6982    4.2190705    4.2190705    4.2190705    4779.6982    1079.8733    9254.7487    4004.4726    2362.1161    12755.045   -8822.8525    75.101802 
   41900    470.98167     -164.239   0.42615411   -163.81285    767.89577    4.2205827    4.2205827    4.2205827    767.89577    4030.2129    13203.627   -14930.152    414.32025    7317.0753    -6114.015    75.182582 
   42000     428.6826   -164.20171   0.38788103   -163.81382    7352.9862    4.2256187    4.2256187    4.2256187    7352.9862   -20381.076    25217.733    17222.301   -3905.2303    6463.2294   -1599.9327    75.452029 
   42100    584.21452   -164.34171   0.52860957    -163.8131    704.11265    4.2180115    4.2180115    4.2180115    704.11265   -14369.663     24940.09   -8458.0894    507.47041    7788.5701   -679.78465     75.04526 
   42200    658.17832   -164.40915   0.59553358   -163.81361   -2449.0226    4.2214599    4.2214599    4.2214599   -2449.0226   -15216.455    11957.151   -4087.7641   -3079.2502   -3856.0492    6832.5819    75.229468 
   42300    530.11854   -164.29385    0.4796624   -163.81419    2679.2704    4.2247908    4.2247908    4.2247908    2679.2704    -16504.57    23156.274    1386.1075   -1998.5623   -3035.9504   -37.118003    75.407689 
   42400    528.95274   -164.29201   0.47860756    -163.8134   -2720.6972     4.220081     4.220081     4.220081   -2720.6972   -18590.821    13169.049    -2740.319    194.79088   -10257.911    5103.6031    75.155775 
   42500    515.55452   -164.28043   0.46648457   -163.81395    1380.7224    4.2210167    4.2210167    4.2210167    1380.7224   -7552.2842    7067.8611    4626.5904    2009.9166   -7735.2256    2795.9927    75.205779 
   42600    400.92461   -164.17681   0.36276501   -163.81404    -3747.562      4.22583      4.22583      4.22583    -3747.562   -693.61747    2162.9917    -12712.06    3918.7706   -8317.7193   -8749.3224    75.463348 
   42700     400.2717   -164.17552   0.36217424   -163.81335     364.9563    4.2199168    4.2199168    4.2199168     364.9563   -10837.859   -387.26092    12319.989    2309.8262   -11682.229    -7576.177    75.147004 
   42800    435.83015   -164.20843   0.39434827   -163.81408   -4539.0182    4.2217483    4.2217483    4.2217483   -4539.0182    9942.7008   -15027.342    -8532.413    7325.9959   -1961.1159   -13118.166    75.244888 
   42900    354.04906   -164.13522   0.32035103   -163.81487   -3927.2691     4.223232     4.223232     4.223232   -3927.2691     4305.441   -9082.1306   -7005.1178   -924.17543   -4336.5753   -14748.694    75.324248 
   43000    425.01962   -164.19927   0.38456669    -163.8147    2227.2137     4.221293     4.221293     4.221293    2227.2137   -2179.6196    10626.574   -1765.3138     3767.928    887.16638   -19047.745    75.220548 
   43100    572.64651   -164.33197    0.5181426   -163.81383   -6742.6539     4.220369     4.220369     4.220369   -6742.6539    14453.176   -18201.098   -16480.039    3543.3629    4479.5613   -13871.968    75.171163 
   43200    589.11904   -164.34634   0.53304728   -163.81329   -3625.7817     4.223555     4.223555     4.223555   -3625.7817   -1944.1127    30.967742   -8964.2003   -5772.7609    3495.9557   -13679.839    75.341535 
   43300    617.97127   -164.37183   0.55915339   -163.81268    3896.0637    4.2218776    4.2218776    4.2218776    3896.0637    5513.4203    9443.9096   -3269.1387    609.52041    3885.4007    -7032.393    75.251804 
   43400    608.26205   -164.36283   0.55036829   -163.81246    -5796.084    4.2225234    4.2225234    4.2225234    -5796.084   -2688.9975   -9961.7033   -4737.5512   -2335.4647   -103.97979   -3078.9368     75.28634 
   43500    587.34489   -164.34345     0.531442     -163.812    4761.7765    4.2245485    4.2245485    4.2245485    4761.7765    5530.4426    14930.677   -6175.7897    -1982.121    5140.6367    1239.3081    75.394713 
   43600    605.34027   -164.35959    0.5477246   -163.81187   -2928.4833    4.2221451    4.2221451    4.2221451   -2928.4833    -4980.134   -7167.5936    3362.2778    -3467.392    -4362.147     2117.256     75.26611 
   43700      472.255   -164.24142   0.42730625   -163.81412    3562.6592    4.2195683    4.2195683    4.2195683    3562.6592   -11087.889    7131.7793    14644.087   -99.681249   -7297.0933     5861.848    75.128388 
   43800    362.54849   -164.14328   0.32804149   -163.81523    4914.8841    4.2247604    4.2247604    4.2247604    4914.8841    6258.8513    11631.287   -3145.4863    671.50135    -3772.918    4154.7227    75.406063 
   43900    372.01817   -164.15166   0.33660986   -163.81505    -6205.979    4.2218007    4.2218007    4.2218007    -6205.979   -20131.335   -2215.1156    3728.5134   -901.80156   -10954.643   -2762.2076    75.247689 
   44000     331.4398   -164.11605   0.29989369   -163.81616    4066.8626    4.2187577    4.2187577    4.2187577    4066.8626    4065.7355   -2584.9359    10719.788    7083.2802   -9236.4686     -931.379    75.085096 
   44100    359.97722   -164.14287   0.32571495   -163.81716   -6887.3566    4.2243185    4.2243185    4.2243185   -6887.3566    -6917.398   -9331.6479   -4413.0239    652.06279   -7167.1034   -7110.8906    75.382401 
   44200    426.67105   -164.20114   0.38606093   -163.81508   -4820.4277    4.2233588    4.2233588    4.2233588   -4820.4277   -16450.807    8654.6005   -6665.0763    7106.6614   -5694.6663   -10960.408    75.331036 
   44300    472.13662   -164.24076   0.42719914   -163.81356    4576.1318    4.2178134    4.2178134    4.2178134    4576.1318    17965.981   -8539.8161    4302.2308    5493.9781   -2882.8889    -10135.44    75.034686 
   44400    587.92051   -164.34573   0.53196283   -163.81376   -6833.3972    4.2251943    4.2251943    4.2251943   -6833.3972   -10677.826   -12442.194    2619.8282    2742.3989   -1860.8428   -6165.1766    75.429295 
   44500    720.49545   -164.46386   0.65191942   -163.81194   -3397.0651    4.2228998    4.2228998    4.2228998   -3397.0651   -3223.6592    6473.4577   -13440.994    3266.3471    4772.8628    -4597.932    75.306478 
   44600    645.00823   -164.39522     0.583617    -163.8116    4713.5189    4.2187761    4.2187761    4.2187761    4713.5189    11422.319    897.16969    1821.0682   -4198.5695     2158.181   -6520.1922    75.086081 
   44700    636.53874   -164.38729   0.57595363   -163.81133    5187.0349    4.2252198    4.2252198    4.2252198    5187.0349   -2537.3459     13039.55    5058.9003    830.72355    921.37946     7146.211     75.43066 
   44800    745.61432   -164.48535    0.6746475   -163.81071    -3922.312    4.2236961    4.2236961    4.2236961    -3922.312   -194.80786   -9298.1062   -2274.0219   -5061.8389    3269.3191    973.09219    75.349086 
   44900    625.61677    -164.3787    0.5660712   -163.81263    5228.5375     4.215405     4.215405     4.215405    5228.5375    5152.9204    11267.073   -734.38074   -2691.3311   -1730.7229    9105.3224    74.906229 
   45000    426.68039   -164.20238   0.38606939   -163.81631    2151.1378    4.2257565    4.2257565    4.2257565    2151.1378   -8741.2725    14454.455    740.23149    1928.3647   -3625.1761    6704.8513    75.459412 
   45100    428.12608   -164.20438   0.38737747     -163.817   -3709.4673    4.2234917    4.2234917    4.2234917   -3709.4673   -9130.6727   -8102.5655    6104.8363   -3087.7621   -7973.5991   -100.87474    75.338145 
   45200    443.69864    -164.2184   0.40146786   -163.81693   -1598.4313    4.2162532    4.2162532    4.2162532   -1598.4313   -10241.121    7904.3201   -2458.4933      5269.22     -10160.3   -2185.4039    74.951452 
   45300    321.06064   -164.10814   0.29050241   -163.81764   -3568.4273    4.2261941    4.2261941    4.2261941   -3568.4273   -13686.617   -13894.054    16875.389      2580.18   -9322.5205   -3476.4755    75.482857 
   45400    299.33476   -164.08619   0.27084438   -163.81535   -2164.2504     4.224452     4.224452     4.224452   -2164.2504   -10585.671    5078.5157   -985.59585    7843.0609   -13481.662   -3714.7689    75.389546 
   45500    411.63395   -164.18513   0.37245505   -163.81267    2378.4903    4.2162105    4.2162105    4.2162105    2378.4903   -2191.8759    1504.5168    7822.8301    3377.8823    -5021.902   -12072.527    74.949175 
   45600    468.69186    -164.2368   0.42408225   -163.81272   -7908.9614    4.2254464    4.2254464    4.2254464   -7908.9614   -12418.019   -13584.666    2275.8008     2110.854    -5430.656   -2001.7142    75.442798 
   45700    474.65577   -164.24135   0.42947852   -163.81187    2916.4942    4.2239823    4.2239823    4.2239823    2916.4942   -8902.6485    14006.339    3645.7927    7151.1426   -2926.7977    459.44283    75.364406 
   45800      545.737   -164.30456   0.49379431   -163.81076    3158.2624    4.2164846    4.2164846    4.2164846    3158.2624    12429.851   -4542.8298    1587.7658   -3539.9309    1601.7251    3981.2528    74.963791 
   45900     574.7921   -164.33308   0.52008397     -163.813   -1330.5599    4.2221198    4.2221198    4.2221198   -1330.5599   -1123.2168   -2369.7751   -498.68769    2276.2694    4548.0896    13386.052    75.264754 
   46000    540.97057   -164.30265   0.48948154   -163.81317    -2471.604     4.226525     4.226525     4.226525    -2471.604   -10317.598   -10747.326    13650.112   -2423.8716    4814.0777    11735.521    75.500587 
   46100    507.46583   -164.27209   0.45916574   -163.81292   -1525.5379    4.2155654    4.2155654    4.2155654   -1525.5379    22671.129   -19245.163   -8002.5794   -1728.9226    1947.1249    25294.962    74.914777 
   46200    390.58283   -164.16895   0.35340756   -163.81554     5861.589    4.2224245    4.2224245    4.2224245     5861.589    1273.0901    -3877.353     20189.03   -1668.2008    2942.6362    16262.368    75.281053 
   46300    464.48327   -164.23392   0.42027423   -163.81365    -10794.28     4.226936     4.226936     4.226936    -10794.28   -6733.1963   -20246.437   -5403.2052   -2819.4493   -1555.1455    13513.183    75.522615 
   46400       407.69   -164.18156   0.36888648   -163.81268    466.16515     4.218604     4.218604     4.218604    466.16515    14767.985   -14598.811    1229.3214    3379.4232   -7729.2967    18055.761    75.076894 
   46500    309.09358   -164.09377   0.27967437   -163.81409    10202.924    4.2179112    4.2179112    4.2179112    10202.924   -873.84615    13993.033    17489.585   -2206.1708   -9130.2291    5290.6492    75.039911 
   46600    461.87208   -164.23102   0.41791156   -163.81311   -11591.835    4.2289058    4.2289058    4.2289058   -11591.835   -10698.099   -18018.899   -6058.5086    1600.5835   -9616.7583    7850.4406    75.628247 
   46700    516.50072    -164.2783   0.46734071   -163.81096    3720.3468    4.2181144    4.2181144    4.2181144    3720.3468   -1389.8852     3115.067    9435.8585    3068.5729   -11548.488   -1547.8205    75.050755 
   46800    453.36901   -164.22141   0.41021781    -163.8112    1371.9986    4.2188569    4.2188569    4.2188569    1371.9986   -17888.373    14262.873    7741.4958     2875.729   -10373.868   -3736.0335    75.090395 
   46900     565.2019   -164.32298   0.51140656   -163.81158   -2037.0626    4.2274075    4.2274075    4.2274075   -2037.0626   -11399.592   -8830.8592    14119.263    2836.4086   -6235.8813   -1182.2826    75.547891 
   47000    665.56134   -164.41343   0.60221389   -163.81121   -2351.7441    4.2196894    4.2196894    4.2196894   -2351.7441   -14452.293    9077.6564   -1680.5961   -497.39478   -3070.9461   -9884.6393    75.134855 
   47100    601.22521   -164.35571    0.5440012    -163.8117   -275.18612    4.2195235    4.2195235    4.2195235   -275.18612   -11816.815   -918.62563    11909.882    6989.3374   -2407.7859    181.13085    75.125993 
   47200    565.02234   -164.32336   0.51124408   -163.81212    1445.9393    4.2263491    4.2263491    4.2263491    1445.9393   -4152.8467    5623.9841    2866.6805   -2643.0492    3074.8148    1354.4388    75.491162 
   47300    542.27521   -164.30367   0.49066201   -163.81301     4998.262    4.2187239    4.2187239    4.2187239     4998.262    4724.4914    5939.9947    4330.2999    -1180.018    3673.6952    4305.1357    75.083292 
   47400    514.94367   -164.27981   0.46593185   -163.81388     1498.263     4.219048     4.219048     4.219048     1498.263    12169.276   -14197.149    6522.6619    1656.4412    1404.4329    14967.001    75.100597 
   47500    413.36417   -164.18897   0.37402059   -163.81495     1987.223    4.2263781    4.2263781    4.2263781     1987.223   -20.393204    7442.4572   -1460.3951   -4487.2753     5984.299    16401.996    75.492717 
   47600    375.23815    -164.1542   0.33952337   -163.81468    4309.7266    4.2196908    4.2196908    4.2196908    4309.7266    22124.974   -9959.0963    763.30181    205.14018   -2244.8376    20265.524    75.134928 
   47700    429.69729   -164.20255   0.38879914   -163.81375    1155.8653     4.218096     4.218096     4.218096    1155.8653     13305.15   -2590.3487   -7247.2051   -1633.2996   -3701.0522    19248.862    75.049771 
   47800    393.14273   -164.16923   0.35572381    -163.8135   -3274.3745     4.226264     4.226264     4.226264   -3274.3745   -16137.464    1614.3217    4700.0191    3759.6803   -2269.8964    19416.756    75.486599 
   47900    378.93085   -164.15608    0.3428646   -163.81322   -529.65295    4.2191757    4.2191757    4.2191757   -529.65295    16407.351   -1501.7432   -16494.566     1.803463   -9272.0714    14860.016    75.107417 
   48000    461.09407   -164.23028    0.4172076   -163.81307   -2544.3776    4.2197591    4.2197591    4.2197591   -2544.3776   -10158.757    1466.9569     1058.667    4170.7865   -8510.6699    8800.9164     75.13858 
   48100    486.80344   -164.25424   0.44046998   -163.81377   -8282.4307    4.2244794    4.2244794    4.2244794   -8282.4307   -19687.223   -2014.4828   -3145.5865    7586.7086   -11975.048    803.20514    75.391017 
   48200    436.83254   -164.20974   0.39525527   -163.81448    1006.1118    4.2201701    4.2201701    4.2201701    1006.1118    766.70307     7240.214   -4988.5815   -355.26521   -5204.0691   -2914.3664    75.160536 
   48300     531.9612   -164.29474   0.48132968   -163.81341    2479.0333    4.2187754    4.2187754    4.2187754    2479.0333   -13054.739   -166.84047    20658.679    8046.5203   -7864.7245   -7202.4584     75.08604 
   48400    606.56305   -164.36268     0.548831   -163.81385   -2397.6551     4.223986     4.223986     4.223986   -2397.6551   -6817.3991    6764.7122   -7140.2783    53.712119   -4029.8105    -9814.972    75.364605 
   48500    585.11582   -164.34249   0.52942509   -163.81307     5829.844    4.2213971    4.2213971    4.2213971     5829.844   -5977.4791    15876.272    7590.7395    2901.3469     3136.685   -9085.7873    75.226115 
   48600    648.78984   -164.39858   0.58703868   -163.81154   -3930.6816    4.2211273    4.2211273    4.2211273   -3930.6816   -5511.2473   -8508.7227    2227.9252   -466.10897   -1702.8936   -6042.6966    75.211693 
   48700    595.66925   -164.35203   0.53897405   -163.81305    8682.9553     4.220851     4.220851     4.220851    8682.9553    1141.6403    12263.675     12643.55   -1183.1509    6522.2476    5503.3476     75.19692 
   48800    569.35869   -164.32837   0.51516771    -163.8132   -4124.2069    4.2224275    4.2224275    4.2224275   -4124.2069   -4761.2878    593.88517   -8205.2181   -388.33744    3231.5863    6118.5843    75.281213 
   48900    598.34583   -164.35403   0.54139588   -163.81264   -5400.0407    4.2218368    4.2218368    4.2218368   -5400.0407    4211.7558    -9585.776   -10826.102   -3050.9615    2465.8799    16038.377     75.24962 
   49000    430.43471   -164.20358   0.38946637   -163.81411    3554.0211    4.2199106    4.2199106    4.2199106    3554.0211    999.03687    802.94613    8860.0803     3310.356    3164.3887    15503.101     75.14667 
   49100    360.55256   -164.14117   0.32623554   -163.81493   -2887.8848     4.221894     4.221894     4.221894   -2887.8848    9489.9981    536.25531   -18689.908   -106.79547   -4933.3868     19240.13     75.25268 
   49200    469.76811   -164.23901   0.42505605   -163.81396   -1823.4329    4.2234714    4.2234714    4.2234714   -1823.4329   -3897.3635    504.62325   -2077.5585    1040.2302   -3256.7185    19139.707     75.33706 
   49300    380.60491   -164.15889   0.34437932   -163.81451   -2054.4768    4.2192991    4.2192991    4.2192991   -2054.4768   -10012.421    14564.998   -10716.007    4730.6016   -13175.278    10212.246    75.114007 
   49400    325.18919   -164.10981   0.29423801   -163.81557    5490.5652    4.2227868    4.2227868    4.2227868    5490.5652    7560.5535    19334.382    -10423.24     3791.764   -9690.9101    9357.9885    75.300431 
   49500    441.37601    -164.2133   0.39936629   -163.81394   -2801.9841    4.2234211    4.2234211    4.2234211   -2801.9841   -21364.106    3544.8389    9413.3147    3887.4092   -10897.788    -1318.631    75.334371 
   49600    442.24533    -164.2137   0.40015287   -163.81355   -5345.8933     4.219298     4.219298     4.219298   -5345.8933   -22386.009    16991.386   -10643.057    3067.5519    -16669.16   -225.79542    75.113947 
   49700    426.79411   -164.20042   0.38617228   -163.81425    6263.8189     4.221927     4.221927     4.221927    6263.8189   -7177.5994    18234.155    7734.9008    1088.0531   -5714.2848   -12150.264    75.254443 
   49800    567.15062   -164.32678    0.5131698   -163.81361    -13046.36    4.2242534    4.2242534    4.2242534    -13046.36   -27366.679   -8973.7948   -2798.6065    2058.4087   -9025.5922   -4634.7905    75.378914 
   49900    538.23802   -164.30159   0.48700907   -163.81458    5875.6766    4.2181353    4.2181353    4.2181353    5875.6766   -11345.459    19021.633    9950.8567     165.8699    108.65261   -2650.4059    75.051871 
   50000    507.99519   -164.27519   0.45964472   -163.81554    708.05813    4.2229063    4.2229063    4.2229063    708.05813   -7792.2118    7422.0096    2494.3765   -1988.9509    5555.1227   -4230.1873    75.306824 
   50100     624.9696   -164.37915   0.56548563   -163.81366   -5252.8803    4.2235978    4.2235978    4.2235978   -5252.8803   -8351.0563   -6123.9639   -1283.6206   -713.02134    3013.3117    11307.936    75.343823 
   50200    589.22292   -164.34644   0.53314128    -163.8133    5507.8604    4.2173647    4.2173647    4.2173647    5507.8604    564.14023    5624.2549    10335.186   -5742.0751    11161.167    4045.2903    75.010742 
   50300    537.30394   -164.30055    0.4861639   -163.81438   -213.18795    4.2214934    4.2214934    4.2214934   -213.18795   -4159.5486    4729.6973   -1209.7126    962.20915    4691.1486    14581.885    75.231264 
   50400    588.18601   -164.34564   0.53220306   -163.81344   -1439.3435    4.2251157    4.2251157    4.2251157   -1439.3435    -3902.154   -6240.7101    5824.8338   -3208.4186    3709.3803    9959.2626    75.425088 
   50500    541.32683   -164.30325   0.48980389   -163.81344    2219.2497    4.2175961    4.2175961    4.2175961    2219.2497   -4291.1542    6634.1579    4314.7454   -888.15358    -2302.332    10800.783     75.02309 
   50600    520.74494   -164.28494   0.47118096   -163.81376    1237.8584    4.2209032    4.2209032    4.2209032    1237.8584   -9568.1459    17982.633   -4700.9119    2927.3963   -7651.6272    1571.6812    75.199711 
   50700    542.64546   -164.30485   0.49099702   -163.81385   -4754.7534    4.2255553    4.2255553    4.2255553   -4754.7534   -12930.393   -2544.3324    1210.4654   -1058.2111   -8914.9385   -767.05854    75.448631 
   50800    424.09652   -164.19837   0.38373144   -163.81464    4730.3971    4.2179038    4.2179038    4.2179038    4730.3971   -14531.571    18517.071    10205.692    5639.0959   -19008.192    813.57228    75.039513 
   50900    356.61318   -164.13765    0.3226711   -163.81498     3573.334    4.2231524    4.2231524    4.2231524     3573.334   -14358.443    32314.741   -7236.2957   -1206.2052   -14647.897   -10243.499    75.319994 
   51000    403.70377   -164.17915   0.36527966   -163.81387   -3267.2092    4.2257035    4.2257035    4.2257035   -3267.2092   -22947.138    6698.8307    6446.6799    1483.1982    -12990.95    965.48557    75.456572 
   51100     349.3461   -164.13026   0.31609569   -163.81417   -4041.9756    4.2168409    4.2168409    4.2168409   -4041.9756   -25832.395    13029.306    677.16237     618.3023   -19582.327   -5601.5088    74.982796 
   51200    310.53001   -164.09717   0.28097408    -163.8162    3289.2087    4.2219385    4.2219385    4.2219385    3289.2087   -17695.226    26172.441    1390.4112   -5091.8415   -8409.2608    430.94474    75.255058 
   51300    409.81426   -164.18558   0.37080856   -163.81477   -8531.9338    4.2274373    4.2274373    4.2274373   -8531.9338   -33885.704    2437.7307    5852.1718   -3471.5544   -5299.2988    7236.5236    75.549489 
   51400    504.14029   -164.26923   0.45615673   -163.81307   -3294.3778     4.216241     4.216241     4.216241   -3294.3778    -19303.61    11398.772   -1978.2953   -5697.4413   -9144.9804    3309.0477      74.9508 
   51500    554.01224   -164.31525   0.50128192   -163.81397    7069.4102    4.2212509    4.2212509    4.2212509    7069.4102    -6993.704    12040.385    16161.549   -789.39271     447.4132    8289.0001    75.218299 
   51600    640.63436   -164.39239   0.57965943   -163.81273   -11130.981    4.2275475    4.2275475    4.2275475   -11130.981   -23094.755   -3499.1957   -6798.9913   -8150.9182    295.96972    231.32682    75.555399 
   51700    664.56375   -164.41287   0.60131125   -163.81156    7717.1711    4.2170499    4.2170499    4.2170499    7717.1711    1073.2722    4380.2682    17697.973   -1670.9357    4911.3981    2405.0788     74.99395 
   51800    614.33298   -164.36814   0.55586139   -163.81228   -2781.7011    4.2237777    4.2237777    4.2237777   -2781.7011   -2701.4693   -519.78814   -5123.8458    2385.1157     2521.281   -10757.393    75.353454 
   51900    558.32929     -164.318   0.50518807   -163.81282   -2232.6153    4.2248203    4.2248203    4.2248203   -2232.6153   -17091.671    2574.0651    7819.7601   -1162.6554    1798.1061   -1443.6058    75.409265 
   52000    563.51337   -164.32367   0.50987874   -163.81379   -60.164724    4.2175409    4.2175409    4.2175409   -60.164724   -4788.7727   -1369.2906    5977.5691     676.1936    7350.1633    -12154.32    75.020147 
   52100    483.64393   -164.25327   0.43761119   -163.81566   -7738.3759    4.2249912    4.2249912    4.2249912   -7738.3759   -14912.191    7625.7779   -15928.714    6094.5794   -2801.9986   -13300.647    75.418418 
   52200    342.73862   -164.12699   0.31011711   -163.81688     2817.048    4.2239927    4.2239927    4.2239927     2817.048   -22621.564    14858.291    16214.417    1201.1125   -3888.7179   -1710.8153    75.364959 
   52300    422.26013   -164.19785   0.38206984   -163.81578   -381.03212    4.2159162    4.2159162    4.2159162   -381.03212   -16046.584    20827.718   -5924.2306    2351.0567     -4932.31   -9510.1921     74.93348 
   52400    373.02752   -164.15384   0.33752314   -163.81631    1421.8867    4.2253665    4.2253665    4.2253665    1421.8867   -26938.934    20049.307    11155.287    118.52795   -12836.939    3199.3983     75.43852 
   52500    327.17301   -164.11105   0.29603301   -163.81502    1792.0921    4.2245016    4.2245016    4.2245016    1792.0921   -18018.391    30167.584    -6772.917    222.23521   -11453.386    3395.2533    75.392205 
   52600    485.86548   -164.25155    0.4396213   -163.81193    6653.4693    4.2148537    4.2148537    4.2148537    6653.4693   -14411.491    29487.132    4884.7663    549.53373   -19320.302    6835.9452     74.87684 
   52700    551.20523   -164.31204   0.49874207    -163.8133   -3703.6975    4.2247703    4.2247703    4.2247703   -3703.6975   -26222.414    10683.652     4427.669   -6738.7393   -14218.485    633.49016     75.40659 
   52800    499.57698   -164.26606   0.45202775   -163.81403    5691.5839    4.2224949    4.2224949    4.2224949    5691.5839    1145.1956    15690.743    238.81344    3080.8275    -7862.156    3940.9962    75.284818 
   52900    627.73488    -164.3804   0.56798771   -163.81241   -1575.1935    4.2187436    4.2187436    4.2187436   -1575.1935   -11294.919    6378.9438    190.39477   -3628.5299   -10460.056   -3500.3793    75.084344 
   53000     651.9714   -164.40271   0.58991742   -163.81279   -8244.7142    4.2229372    4.2229372    4.2229372   -8244.7142   -10595.272   -8572.9131   -5565.9578    768.26584    1245.0286   -13759.535    75.308475 
   53100    441.27341   -164.21498   0.39927345   -163.81571   -638.55175    4.2211258    4.2211258    4.2211258   -638.55175    4765.6385   -10056.541    3375.2477    3345.9649    4802.4187     -9858.26     75.21161 
   53200    428.45022     -164.203   0.38767076   -163.81532   -3954.0463    4.2191963    4.2191963    4.2191963   -3954.0463   -9455.6619    2130.0835   -4536.5606    771.10537    9241.8771   -16777.789    75.108518 
   53300    475.94192   -164.24547   0.43064226   -163.81483   -8296.1358    4.2249828    4.2249828    4.2249828   -8296.1358    -6809.779   -20761.813     2683.185    6169.3498    12147.698   -11783.423    75.417971 
   53400    364.00834   -164.14459    0.3293624   -163.81522    788.81207     4.220115     4.220115     4.220115    788.81207   -4218.8308    10741.378   -4156.1108   -693.93187    6465.6015   -10543.522    75.157591 
   53500    455.72904   -164.22702   0.41235322   -163.81467    808.72202     4.222879     4.222879     4.222879    808.72202     -13554.7    15857.571    123.29541    4947.4555    9147.8452   -2045.6181    75.305363 
   53600    608.65323   -164.36414   0.55072223   -163.81342   -4139.8419    4.2218321    4.2218321    4.2218321   -4139.8419   -11404.015   -3886.5664    2871.0555   -2405.5182    3215.0171   -1632.9162    75.249369 
   53700    542.31781   -164.30453   0.49070055   -163.81382    3190.3565    4.2219218    4.2219218    4.2219218    3190.3565   -19325.499    22215.986    6680.5821   -1134.0165   -4113.5469    7052.8327    75.254168 
   53800    643.52559    -164.3951   0.58227548   -163.81282    1006.6734    4.2224862    4.2224862    4.2224862    1006.6734   -16836.696    9506.8637    10349.852     181.4082   -2134.7451    9131.2677    75.284352 
   53900    703.49647   -164.44919   0.63653839   -163.81265   -7110.2822    4.2219523    4.2219523    4.2219523   -7110.2822   -20657.185    18.043441   -691.70504    -5236.664   -11355.411   -2621.8497      75.2558 
   54000    523.02574   -164.28801   0.47324468   -163.81476    6398.8262    4.2205766    4.2205766    4.2205766    6398.8262   -4676.0464    11165.914    12706.611    58.474647   -7456.0054    5094.3701    75.182255 
   54100     533.8623   -164.29769   0.48304983   -163.81464   -1214.4891    4.2238474    4.2238474    4.2238474   -1214.4891   -7413.6145    7460.2782   -3690.1309    2.2481571   -6336.1179   -3175.8275    75.357182 
   54200    543.91462   -164.30662   0.49214538   -163.81447   -1610.8021    4.2200477    4.2200477    4.2200477   -1610.8021   -6045.3177   -6429.3166    7642.2281    5699.8902   -6027.3217   -12301.072    75.153996 
   54300    364.11388   -164.14584   0.32945789   -163.81638    1561.8672    4.2202376    4.2202376    4.2202376    1561.8672    15967.471   -6409.7019   -4872.1679    2816.4125    1628.1008   -13220.168    75.164144 
   54400    340.16898   -164.12481   0.30779204   -163.81702   -2026.4058    4.2236204    4.2236204    4.2236204   -2026.4058   -6377.4804    4756.3005   -4458.0374    7095.1924   -382.79926   -19448.289    75.345035 
   54500    389.01665   -164.16824   0.35199044   -163.81625   -7518.4297    4.2209085    4.2209085    4.2209085   -7518.4297   -7300.0437    -15868.13    612.88425    4866.2127    8427.6693   -16510.819    75.199993 
   54600    250.82171   -164.04367   0.22694875   -163.81672    -1571.912    4.2215002    4.2215002    4.2215002    -1571.912    3868.3922   -3288.2634   -5295.8647    2386.1272    10416.157   -15611.366    75.231625 
   54700      351.212   -164.13451     0.317784   -163.81673   -8076.8483    4.2220499    4.2220499    4.2220499   -8076.8483   -16437.073    -13085.08    5291.6082    3205.0079    8386.0694   -8503.8318    75.261018 
   54800    539.51131   -164.30455   0.48816117   -163.81639   -5408.1097    4.2181436    4.2181436    4.2181436   -5408.1097   -10390.851   -2883.2765   -2950.2014   -115.81204     13585.76   -8087.9983    75.052312 
   54900    483.61221   -164.25433   0.43758249   -163.81675    2699.8387    4.2248372    4.2248372    4.2248372    2699.8387   -11569.999    10392.397    9277.1184   -2588.1902    5410.5583     4395.126    75.410172 
   55000    594.26361   -164.35166   0.53770221   -163.81395     1448.013     4.222208     4.222208     4.222208     1448.013   -8045.5063     13185.87   -796.32509   -3275.6079    8048.6556    6486.9113     75.26947 
   55100    747.39779   -164.48903   0.67626123   -163.81277    6282.2214    4.2176358    4.2176358    4.2176358    6282.2214   -3885.0586    10089.558    12642.165    30.375157     3222.185    2514.4318     75.02521 
   55200    642.33887   -164.39464   0.58120171   -163.81344    1451.6665    4.2245148    4.2245148    4.2245148    1451.6665   -13340.121    9738.2469    7956.8738   -7049.5691   -2498.8432    8535.4946    75.392913 
   55300    615.35453   -164.36906   0.55678571   -163.81228    4514.8108    4.2242775    4.2242775    4.2242775    4514.8108   -115.76853    14919.755    -1259.554   -91.093079    3795.7371    28.122527    75.380207 
   55400      661.465   -164.41092   0.59850744   -163.81242   -1049.1261    4.2178611    4.2178611    4.2178611   -1049.1261   -2269.7613   -8965.4404    8087.8234    3809.0789   -7326.4638   -7646.2931    75.037237 
   55500    454.56754   -164.22689   0.41130226   -163.81559    -1710.288    4.2245039    4.2245039    4.2245039    -1710.288   -9659.7477    13756.168   -9227.2841    4586.2199    -2303.044   -6906.0615    75.392327 
   55600    389.26689   -164.16751   0.35221686   -163.81529    3319.2725    4.2242698    4.2242698    4.2242698    3319.2725    12005.896     -7916.12    5868.0414     769.5477    964.83124   -13235.611    75.379796 
   55700    442.21123   -164.21401   0.40012201   -163.81389    -7572.318    4.2207555    4.2207555    4.2207555    -7572.318    3072.1427   -16210.642   -9578.4543     6766.733   -2183.4865   -21219.208    75.191817 
   55800    316.38037   -164.10179   0.28626761   -163.81552    1012.5255    4.2220947    4.2220947    4.2220947    1012.5255    2049.5118    9043.0259   -8054.9612    11104.816    1917.3009   -17684.756    75.263416 
   55900     310.6039    -164.0968   0.28104094   -163.81575     134.4494    4.2236833    4.2236833    4.2236833     134.4494    9897.6947   -12936.007     3441.661   -3222.9027    1202.0953   -12559.698      75.3484 
   56000    412.53289   -164.18742   0.37326843   -163.81415   -2986.5341    4.2211693    4.2211693    4.2211693   -2986.5341    7683.6896   -1345.6504   -15297.642    3826.0798    10499.755   -15699.977    75.213937 
   56100    457.31073   -164.22835   0.41378436   -163.81457    2331.6995    4.2214061    4.2214061    4.2214061    2331.6995    2498.6816    2667.2631    1829.1538   -4630.7794    3034.4098   -2928.7513    75.226596 
   56200    584.10772   -164.34241   0.52851294    -163.8139   -3297.1826    4.2237767    4.2237767    4.2237767   -3297.1826   -4569.1885    171.31479   -5493.6741   -4014.5805    6476.3881    303.56135    75.353397 
   56300     665.8345   -164.41567   0.60246105   -163.81321   -697.55647    4.2195528    4.2195528    4.2195528   -697.55647    3598.9787    916.99734   -6608.6454   -3225.0204    10583.688    1071.8838     75.12756 
   56400    620.04107   -164.37555   0.56102619   -163.81453    5455.1123    4.2203183    4.2203183    4.2203183    5455.1123    -2603.553    22118.153   -3149.2633   -3158.9398   -1837.1105    9452.5269    75.168453 
   56500    699.60872    -164.4457   0.63302067   -163.81268   -10822.267    4.2273855    4.2273855    4.2273855   -10822.267   -18119.819   -2214.9245   -12132.057   -1041.3823    3459.0261     5509.249     75.54671 
   56600    640.77147   -164.39131   0.57978349   -163.81152   -3381.3349    4.2219184    4.2219184    4.2219184   -3381.3349   -11168.093    10631.569   -9607.4803    -2588.987   -1735.2417    4240.5807    75.253984 
   56700    509.86388   -164.27375   0.46133556   -163.81242    8438.7201    4.2165716    4.2165716    4.2165716    8438.7201    8897.1142    21585.528   -5166.4816    12775.298   -451.66277   -3376.7728    74.968436 
   56800    604.11473   -164.36039    0.5466157   -163.81378   -13781.325    4.2273391    4.2273391    4.2273391   -13781.325   -11532.823   -10458.621   -19352.531    2116.3478   -5962.2229    -2770.029    75.544226 
   56900    537.02181   -164.30011   0.48590862    -163.8142   -438.22797    4.2209383    4.2209383    4.2209383   -438.22797   -884.28899    5585.1978   -6015.5927    5334.4804   -5018.9526   -12404.639    75.201589 
   57000    356.43011   -164.13779   0.32250546   -163.81529    5736.8084    4.2180712    4.2180712    4.2180712    5736.8084    10762.616    9386.6727   -2938.8634    10702.956    1013.2939   -17396.963    75.048448 
   57100    408.79609   -164.18466   0.36988729   -163.81477   -4283.5213    4.2278324    4.2278324    4.2278324   -4283.5213   -2383.4965    8229.4848   -18696.552    2227.5865   -4255.1725   -12589.364    75.570672 
   57200    428.44739   -164.20098    0.3876682   -163.81331   -1753.9961    4.2198358    4.2198358    4.2198358   -1753.9961   -419.49424    -4317.334   -525.15998   -3059.7297    2799.2288   -21682.067    75.142678 
   57300      351.462   -164.13148    0.3180102   -163.81347    6901.0547    4.2198826    4.2198826    4.2198826    6901.0547    1323.2885     24526.44   -5146.5644    1123.5579    3730.5811   -14494.469    75.145178 
   57400     471.8815   -164.23959    0.4269683   -163.81263   -7692.2345    4.2270187    4.2270187    4.2270187   -7692.2345    6914.9588   -10089.397   -19902.266   -2654.9495     4329.703   -9970.2584    75.527049 
   57500    487.01551   -164.25321   0.44066187   -163.81255    3586.1352    4.2194421    4.2194421    4.2194421    3586.1352    3297.2736    14475.161   -7014.0286    -8224.591    6744.1198   -5666.3399    75.121644 
   57600    450.73369   -164.22133   0.40783331    -163.8135   -1170.2949    4.2224366    4.2224366    4.2224366   -1170.2949   -4985.1825    20756.753   -19282.455   -530.00989    4309.9408    698.93223    75.281701 
   57700    484.41391    -164.2531   0.43830788    -163.8148    201.36544    4.2240402    4.2240402    4.2240402    201.36544    20234.826   -2606.9214   -17023.808    457.45856    6880.0858    4635.0126    75.367505 
   57800    440.62444   -164.21449   0.39868626    -163.8158   -1194.1215    4.2188472    4.2188472    4.2188472   -1194.1215   -9156.4515    22242.996   -16668.908    1222.1272   -3694.4555    10900.413    75.089879 
   57900    413.85128   -164.19002   0.37446133   -163.81556   -629.55483    4.2232999    4.2232999    4.2232999   -629.55483    -5604.053    22630.972   -18915.583    6112.2367   -1812.8112    5714.0507    75.327884 
   58000    452.87385   -164.22388   0.40976978   -163.81411   -4378.6155    4.2252848    4.2252848    4.2252848   -4378.6155    4816.2744   -3683.7698   -14268.351    7074.6455   -6970.7001    5994.0584    75.434145 
   58100    441.70985   -164.21275   0.39966836   -163.81308   -1781.3318    4.2182116    4.2182116    4.2182116   -1781.3318   -9483.6228    17780.906   -13641.279   -2308.4938   -10750.586    6187.3954    75.055941 
   58200    478.12769   -164.24654   0.43261999   -163.81392    4904.6239    4.2232377    4.2232377    4.2232377    4904.6239    5501.6562    21957.644   -12745.429     5805.216   -10765.172   -3179.8825    75.324558 
   58300     606.0347    -164.3619   0.54835293   -163.81355   -8438.3776    4.2242334    4.2242334    4.2242334   -8438.3776   -524.36345   -11643.866   -13146.903   -1585.2377    -8189.263   -6630.7072    75.377844 
   58400    610.23653   -164.36512   0.55215483   -163.81297    3926.0673    4.2193066    4.2193066    4.2193066    3926.0673   -1823.0525    18863.292   -5262.0374   -8057.9593   -7253.5666   -730.35269    75.114407 
   58500    649.07484   -164.40037   0.58729655   -163.81307     333.7019    4.2225096    4.2225096    4.2225096     333.7019    3644.8929    9325.8209   -11969.608    1873.2964   -3549.4597   -6804.0675    75.285602 
   58600    663.67675   -164.41275   0.60050867   -163.81224   -5295.0408    4.2244575    4.2244575    4.2244575   -5295.0408    3647.5558   -8712.7512   -10819.927   -7099.9516     4954.527   -3373.7336    75.389842 
   58700     554.3957   -164.31387   0.50162888   -163.81224    7233.5838    4.2210305    4.2210305    4.2210305    7233.5838    9768.0002    13736.185   -1803.4341   -2998.3942    4257.2642    2812.9002    75.206517 
   58800    520.04091   -164.28251   0.47054394   -163.81197   -957.46835    4.2237006    4.2237006    4.2237006   -957.46835    -7926.548     23812.99   -18758.847   -3865.0031    11619.252    3606.9936    75.349325 
   58900    540.43255     -164.302   0.48899473   -163.81301   -3361.8666    4.2220227    4.2220227    4.2220227   -3361.8666    10080.826   -12809.468   -7356.9574    4995.7439    8128.7261    8557.7168    75.259563 
   59000    413.40912   -164.18868   0.37406126   -163.81462   -1984.2528    4.2226767    4.2226767    4.2226767   -1984.2528    5339.2569    6715.8229   -18007.838   -2465.2905     11053.55    10289.913    75.294541 
   59100    402.63232   -164.17971   0.36431018    -163.8154   -2115.5091    4.2226842    4.2226842    4.2226842   -2115.5091   -11087.897      30590.5    -25849.13    6061.6762    8617.9366    14460.542    75.294941 
   59200       475.06   -164.24564   0.42984428    -163.8158   -7446.9789    4.2234576    4.2234576    4.2234576   -7446.9789    7525.3554   -7975.3609   -21890.931    8028.9392    -319.6823    5000.6846     75.33632 
   59300    375.32012   -164.15568   0.33959753   -163.81608     4990.896    4.2207219    4.2207219    4.2207219     4990.896    -2460.992    40644.506   -23210.826   -1605.7136    4975.1005     7338.733    75.190024 
   59400    468.28477   -164.23938    0.4237139   -163.81567   -5368.0035    4.2239322    4.2239322    4.2239322   -5368.0035   -14171.797    15242.504   -17174.717    4883.9917   -3963.0382    5905.6469    75.361725 
   59500     525.7622   -164.28929   0.47572069   -163.81357   -882.51078    4.2227637    4.2227637    4.2227637   -882.51078    3987.6681    1650.6784   -8285.8789     2236.142   -6159.8492   -1747.2619    75.299196 
   59600    422.98205   -164.19503   0.38272304    -163.8123   -2140.0757    4.2221665    4.2221665    4.2221665   -2140.0757   -12535.714    18000.587   -11885.099   -6596.2584   -6942.1815   -4762.2172    75.267251 
   59700    518.44797   -164.28098   0.46910262   -163.81188    4343.2745    4.2213969    4.2213969    4.2213969    4343.2745   -3137.8461    21774.166   -5606.4958   -6841.2018   -10101.383   -807.00479    75.226103 
   59800     606.4002   -164.36031   0.54868364   -163.81162    -5293.662    4.2224381    4.2224381    4.2224381    -5293.662   -5012.5268   -5211.0028   -5657.4565    -2799.513   -6893.1271   -4819.1099    75.281777 
   59900    538.23577   -164.29923   0.48700704   -163.81223   -710.38583    4.2231899    4.2231899    4.2231899   -710.38583   -15624.238    19855.396    -6362.315   -15060.136   -10294.417    -5420.105    75.321999 
   60000    652.44531   -164.40293   0.59034622   -163.81258   -1741.9806    4.2211844    4.2211844    4.2211844   -1741.9806    9371.8057   -2275.2452   -12322.502   -6495.2419   -2623.5517    305.97052    75.214743 
   60100    674.83088   -164.42359   0.61060116   -163.81299    -10139.67    4.2234848    4.2234848    4.2234848    -10139.67   -8586.6436   -7145.4402   -14686.926   -5388.0019   -2267.2075    2826.8445    75.337777 
   60200    490.86068   -164.25796   0.44414106   -163.81381    5491.8074    4.2232759    4.2232759    4.2232759    5491.8074   -6804.0297    24924.103   -1644.6507    2475.6333   -899.42961   -1934.9612    75.326599 
   60300    512.82919   -164.27701   0.46401863   -163.81299   -1478.7256    4.2204183    4.2204183    4.2204183   -1478.7256    15547.566   -5694.8572   -14288.886   -1491.9867    7083.6625    11178.797      75.1738 
   60400    516.85941   -164.28106   0.46766526   -163.81339    159.60412    4.2233545    4.2233545    4.2233545    159.60412   -2745.4963    12173.595   -8949.2864    10858.322    7129.4942    6708.0929    75.330808 
   60500    461.04302   -164.23037   0.41716142   -163.81321    177.00196    4.2229208    4.2229208    4.2229208    177.00196   -9055.4157    9811.6697   -225.24817    5077.0868    11162.772    -878.5303    75.307599 
   60600      501.896    -164.2672   0.45412604   -163.81308    940.69753    4.2186823    4.2186823    4.2186823    940.69753    728.48612    11139.657   -9046.0501    3196.5638    10445.329    8182.1976     75.08107 
   60700    463.43655   -164.23277   0.41932713   -163.81344   -4506.2947      4.22513      4.22513      4.22513   -4506.2947   -7302.5668    9128.2519   -15344.569    12002.876    12609.094    1306.6346    75.425854 
   60800    400.59395   -164.17539   0.36246582   -163.81293    995.63976    4.2236917    4.2236917    4.2236917    995.63976   -18944.569    40471.508    -18540.02   -2336.4663    12863.052   -144.63224    75.348848 
   60900    468.23388   -164.23554   0.42366785   -163.81188    -603.9392    4.2176758    4.2176758    4.2176758    -603.9392    289.01238    8612.0298    -10712.86    1073.6104    5876.3351   -5352.2679    75.027348 
   61000    449.41541    -164.2202   0.40664051   -163.81356   -6911.5058    4.2243167    4.2243167    4.2243167   -6911.5058   -10743.704    7983.0414   -17973.855   -4245.5477    4908.2259   -2236.8884    75.382307 
   61100      386.641   -164.16487   0.34984091   -163.81503   -1816.4598    4.2223326    4.2223326    4.2223326   -1816.4598   -18093.202    29757.648   -17113.826   -6378.2148    47.773423   -2680.8107    75.276137 
   61200    428.87042    -164.2024   0.38805097   -163.81435    1301.2253    4.2199277    4.2199277    4.2199277    1301.2253    11092.447   -1787.9031   -5400.8683   -9947.6504   -4894.0576   -12031.481    75.147583 
   61300    451.53074   -164.22259    0.4085545   -163.81404   -400.24588    4.2245364    4.2245364    4.2245364   -400.24588   -14321.993    23604.224   -10482.968   -5168.1868   -8334.0931    2499.4713    75.394065 
   61400    567.61101   -164.32834   0.51358637   -163.81475    1432.6955    4.2199346    4.2199346    4.2199346    1432.6955   -4543.3858     11943.93   -3102.4582    -6999.518   -7798.1649   -7048.0643    75.147957 
   61500    693.16094   -164.44096   0.62718659   -163.81377    5089.4074    4.2188553    4.2188553    4.2188553    5089.4074    10300.045     4947.386    20.790614    -5889.857   -8570.7882   -550.91662    75.090307 
   61600    665.65896    -164.4147   0.60230221    -163.8124   -6594.5193    4.2259653    4.2259653    4.2259653   -6594.5193   -13043.844    2594.6494    -9334.363    6590.6317   -10341.515    3652.5727    75.470595 
   61700    706.47178   -164.45046   0.63923052   -163.81123    5829.8163    4.2198906    4.2198906    4.2198906    5829.8163   -1795.0779    20110.824   -826.29684   -2120.0381   -3183.4571    1954.6674    75.145605 
   61800    752.69247   -164.49272   0.68105196   -163.81167   -11278.107      4.22182      4.22182      4.22182   -11278.107   -8370.6042    -8767.501   -16696.216    7654.7072    3038.1759    -402.3941    75.248722 
   61900    539.90302   -164.30259    0.4885156   -163.81407     1826.767    4.2256856    4.2256856    4.2256856     1826.767   -9502.3909    27174.591   -12191.899    4437.0223    2434.2336    3359.7487    75.455611 
   62000    523.34786   -164.28826   0.47353614   -163.81472    1614.1593     4.218877     4.218877     4.218877    1614.1593   -3286.7524    11638.292   -3509.0616    4940.0757    10550.412   -29.463051    75.091465 
   62100    567.48842   -164.32915   0.51347545   -163.81568   -13189.581    4.2244698    4.2244698    4.2244698   -13189.581   -18726.762    4687.1177   -25529.098   -4124.1683    16570.157   -3477.6673    75.390501 
   62200    363.65809   -164.14474   0.32904548   -163.81569    2833.6626    4.2247589    4.2247589    4.2247589    2833.6626    -12638.94    33774.984   -12635.056    3877.7545    14269.421   -835.55199    75.405978 
   62300    320.77303   -164.10457   0.29024218   -163.81433   -279.58888      4.21943      4.21943      4.21943   -279.58888   -7092.4782    14440.715   -8187.0032   -7190.7708    16437.684   -1723.9682    75.121002 
   62400    350.73591   -164.13176   0.31735322    -163.8144   -3889.2169    4.2247431    4.2247431    4.2247431   -3889.2169   -10302.149    23992.722   -25358.224   -6117.5197    19245.026   -4413.2295    75.405134 
   62500    287.47739   -164.07474   0.26011559   -163.81463   -3507.3027    4.2240617    4.2240617    4.2240617   -3507.3027   -13875.197    24929.858   -21576.569   -1190.0117    12250.553   -4089.6853    75.368652 
   62600    373.06778   -164.15132   0.33755957   -163.81376    1685.6249    4.2194756    4.2194756    4.2194756    1685.6249   -4183.9514    26731.923   -17491.097   -2935.6344    10699.904    5422.7164    75.123435 
   62700    479.73689   -164.24765   0.43407602   -163.81358   -12458.819    4.2255409    4.2255409    4.2255409   -12458.819    -15665.77    645.33334    -22356.02    1277.5898    7106.0643   -4046.6098    75.447863 
   62800    389.37914   -164.16614   0.35231843   -163.81382    6245.7724    4.2223933    4.2223933    4.2223933    6245.7724   -3078.0704    41401.694   -19586.306   -1924.7276    2456.8705    2081.7505    75.279385 
   62900    467.84618   -164.23645   0.42331705   -163.81313   -2548.7674    4.2230082    4.2230082    4.2230082   -2548.7674   -396.05473    17334.117   -24584.365    5544.4991   -3398.7529    10157.446    75.312278 
   63000    578.17911   -164.33621   0.52314861   -163.81306    1803.5855    4.2217341    4.2217341    4.2217341    1803.5855   -2587.3845    13077.562   -5079.4209   -2878.9172    -5614.857    4228.1007    75.244128 
   63100    555.82246   -164.31737   0.50291984   -163.81445    4252.5187     4.222607     4.222607     4.222607    4252.5187    5496.1013    19640.423   -12378.968    4471.8915   -4800.0975    3374.0701    75.290815 
   63200    591.86367   -164.34897   0.53553069   -163.81344    4068.7627    4.2219222    4.2219222    4.2219222    4068.7627    9528.4389    8027.3745   -5349.5253    1040.3829   -8348.7299    6675.5809    75.254191 
   63300      632.485   -164.38394   0.57228572   -163.81165    2848.0578    4.2248834    4.2248834    4.2248834    2848.0578    2102.1509    8081.9936   -1639.9712   -5909.5129   -5730.2623    4748.4236    75.412645 
   63400    592.36301   -164.34748    0.5359825    -163.8115    5961.7163    4.2188866    4.2188866    4.2188866    5961.7163    883.99444    16643.375    357.77974   -3075.6038   -934.34283   -2811.3598    75.091978 
   63500    594.49556   -164.35078   0.53791207   -163.81287     2673.048    4.2226584    4.2226584    4.2226584     2673.048    6643.4879    11508.639   -10132.982    -3881.487    1993.7874    1953.1401    75.293564 
   63600    611.86629   -164.36796   0.55362948   -163.81433   -3263.0707    4.2230709    4.2230709    4.2230709   -3263.0707    197.30891    4123.1987    -14109.72   -3547.0264    4587.4182   -2342.9549    75.315629 
   63700    489.65116   -164.25871   0.44304666   -163.81567   -2456.9116    4.2222763    4.2222763    4.2222763   -2456.9116   -12364.825     21814.16   -16820.069   -7108.3637    9009.5196   -5968.2673    75.273128 
   63800    373.75503   -164.15366   0.33818141   -163.81548    778.96551    4.2210313    4.2210313    4.2210313    778.96551    12012.209    15261.585   -24936.898     6316.182    14229.937   -1213.9711    75.206561 
   63900    392.01867    -164.1704   0.35470673   -163.81569   -7590.8063    4.2230065    4.2230065    4.2230065   -7590.8063   -5149.1437    14655.779   -32279.054    -4209.298    12089.834    750.20822    75.312187 
   64000    334.34354   -164.11876   0.30252106   -163.81624   -2372.2755     4.222629     4.222629     4.222629   -2372.2755    182.73567    15879.097    -23178.66     3294.704    15355.869    490.90279    75.291993 
   64100    315.50087   -164.10171   0.28547182   -163.81624    2419.1705    4.2224639    4.2224639    4.2224639    2419.1705    10963.306    20093.877   -23799.672    6334.6537     15790.75    3145.6074    75.283162 
   64200    474.66183   -164.24392     0.429484   -163.81443   -8939.8674    4.2231531    4.2231531    4.2231531   -8939.8674   -6625.0239    8897.2967   -29091.875   -2489.0297    15633.272    4033.8889    75.320031 
   64300    503.52722   -164.26914   0.45560201   -163.81354     2397.844    4.2208381    4.2208381    4.2208381     2397.844     9902.528    15821.379   -18530.375    743.16962    11961.156    7100.8739    75.196231 
   64400    453.35178   -164.22422   0.41020222   -163.81401    1556.9242    4.2254625    4.2254625    4.2254625    1556.9242    9478.6893    17618.329   -22426.246   -769.21188    8992.0344   -862.29937    75.443661 
   64500    633.72807    -164.3855   0.57341048   -163.81209   -4991.6033    4.2205301    4.2205301    4.2205301   -4991.6033    3787.6585   -7708.4381    -11054.03   -4267.2624    8536.1373   -184.34638    75.179772 
   64600    653.12579   -164.40321   0.59096194   -163.81225   -3674.8902    4.2228409    4.2228409    4.2228409   -3674.8902    1835.6628   -4484.3562   -8375.9771    -9593.605   -2800.9819    1472.2078    75.303325 
   64700    467.60795    -164.2365    0.4231015    -163.8134    4598.6228    4.2217664    4.2217664    4.2217664    4598.6228    23414.769    911.84927    -10530.75    2042.2853   -5130.1079   -9152.2678    75.245858 
   64800    502.17879   -164.26757   0.45438192   -163.81318    3343.8293    4.2234943    4.2234943    4.2234943    3343.8293    9316.2826    5111.8612   -4396.6558   -5203.0643   -7106.7617   -4715.3858    75.338285 
   64900    579.23875   -164.33679   0.52410739   -163.81269   -2163.2905    4.2212755    4.2212755    4.2212755   -2163.2905    5883.6639   -6177.7805   -6195.7548    -5148.954   -13445.818   -5800.2665    75.219612 
   65000    448.23374   -164.21955   0.40557131   -163.81398   -97.978914    4.2225272    4.2225272    4.2225272   -97.978914    17209.989    4703.1839    -22207.11    3441.9722   -11387.647   -5192.3803    75.286545 
   65100    412.29003   -164.18715   0.37304869    -163.8141     8040.766    4.2219043    4.2219043    4.2219043     8040.766    3233.3302     31261.94   -10372.972    492.01524   -3807.8927   -5963.5915    75.253233 
   65200    495.41235   -164.26175   0.44825951   -163.81349   -9078.9926    4.2242933    4.2242933    4.2242933   -9078.9926   -2771.7091   -8720.9822   -15744.286   -85.432113   -3787.3478   -3535.6428    75.381053 
   65300    500.54529    -164.2662    0.4529039    -163.8133   -1945.7704    4.2224738    4.2224738    4.2224738   -1945.7704     9536.878    7009.3006    -22383.49    807.07751    524.31635    6491.4966    75.283689 
   65400    502.07124   -164.26681   0.45428461   -163.81252   -2126.7127    4.2213144    4.2213144    4.2213144   -2126.7127   -7857.9566    19484.172   -18006.353    4036.9004     15310.71   -3053.4544     75.22169 
   65500    537.15549   -164.29743   0.48602957    -163.8114   -4232.1813    4.2260139    4.2260139    4.2260139   -4232.1813   -4718.2085   -2639.6286   -5338.7067   -3656.8946    10990.873   -811.33602    75.473201 
   65600    628.81168   -164.37951   0.56896202   -163.81055   -1065.8941    4.2210466    4.2210466    4.2210466   -1065.8941    6360.4464   -722.22611   -8835.9027   -773.52226    11187.563    2603.4873    75.207379 
   65700    637.67767   -164.38932   0.57698416   -163.81233   -3839.9696    4.2206461    4.2206461    4.2206461   -3839.9696   -561.98056    1751.8873   -12709.816    1530.8621     17630.72   -549.37451     75.18597 
   65800    478.41037   -164.24627   0.43287576   -163.81339    7796.4479    4.2262894    4.2262894    4.2262894    7796.4479    -3677.878    5104.2134    21963.008   -5693.5942    7444.9685   -5036.3411    75.487961 
   65900    473.01067   -164.24083   0.42798999   -163.81284    3989.8903    4.2209423    4.2209423    4.2209423    3989.8903    24172.539   -6305.6968   -5897.1715   -5260.2402   -722.81006   -7412.5418    75.201803 
   66000    560.67062   -164.32024   0.50730656   -163.81293   -2704.7078    4.2213511    4.2213511    4.2213511   -2704.7078    9427.4988   -7839.8533    -9701.769   -1323.1468   -1815.8547   -1272.0974    75.223654 
   66100    409.96767   -164.18544   0.37094736    -163.8145   -932.47301    4.2276862    4.2276862    4.2276862   -932.47301    -8819.873    2698.8622    3323.5917   -1141.0972   -10005.856   -9466.8002    75.562832 
   66200    248.01555    -164.0395   0.22440968   -163.81509    10046.195     4.220011     4.220011     4.220011    10046.195    39388.919    260.16818   -9510.5031   -5367.7261    -19984.09   -13128.886    75.152034 
   66300    383.62698   -164.16147   0.34711375   -163.81435   -5867.7566    4.2223838    4.2223838    4.2223838   -5867.7566    4261.1314    1425.3999   -23289.801   -1015.6297   -11092.258   -3682.6754    75.278873 
   66400    402.18414   -164.17722   0.36390466   -163.81332   -10830.705     4.228179     4.228179     4.228179   -10830.705   -1891.4587    2379.0676   -32979.724    1120.1066    -12812.62   -5531.2606    75.589262 
   66500    294.46087   -164.08085   0.26643439   -163.81441   -550.71895    4.2194427    4.2194427    4.2194427   -550.71895    13727.084    5553.6165   -20932.857   -1377.9852   -14007.636   -10372.329    75.121679 
   66600    469.88849   -164.24015   0.42516498   -163.81498    6301.8247    4.2189596    4.2189596    4.2189596    6301.8247    2466.7689    29933.024   -13494.319   -1653.3937   -7132.1682   -7505.3576    75.095878 
   66700    716.02075    -164.4621   0.64787062   -163.81423   -15710.734    4.2291937    4.2291937    4.2291937   -15710.734   -7360.0283   -9151.1206   -30621.052    3473.5838    737.46509    4518.0342    75.643693 
   66800    659.48621   -164.41068   0.59671698   -163.81396    6132.5667    4.2186974    4.2186974    4.2186974    6132.5667    14135.776    14858.523   -10596.599   -1861.6685    146.28894   -194.59433    75.081878 
   66900    582.96769   -164.34182   0.52748142   -163.81434    10784.801    4.2197379    4.2197379    4.2197379    10784.801    12522.804    19361.903    469.69454   -8365.6209   -1135.4054     1340.141    75.137447 
   67000    670.57425   -164.41858   0.60674968   -163.81183   -11177.083    4.2302177    4.2302177    4.2302177   -11177.083   -13367.677    -6177.017   -13986.554    1875.8856    6376.7664    8165.1059    75.698652 
   67100     619.3379   -164.37153   0.56038994   -163.81114    495.69022    4.2196509    4.2196509    4.2196509    495.69022    6396.2006    4148.4947   -9057.6247   -4336.2351    4365.5943    10052.499    75.132798 
   67200    401.86244   -164.17644   0.36361358   -163.81283    1931.1863    4.2212482    4.2212482    4.2212482    1931.1863    13692.462   -5337.7826   -2561.1207   -6827.6525    1348.5018    1457.3921    75.218154 
   67300    405.01564   -164.17788   0.36646666   -163.81141   -652.96835    4.2286513    4.2286513    4.2286513   -652.96835   -849.40085    9890.5782   -11000.082   -6574.0854   -1391.6794   -782.41178    75.614593 
   67400    509.83683   -164.27191   0.46131107   -163.81059    -8333.236     4.219988     4.219988     4.219988    -8333.236   -4657.8847   -9060.3159   -11281.507    417.44738    1558.4136    6996.0037    75.150805 
   67500    452.96701   -164.22233   0.40985407   -163.81247    -1338.765    4.2207201    4.2207201    4.2207201    -1338.765    6935.0093    2587.5895   -13538.894   -5002.8294    -3938.303   -8457.8883    75.189924 
   67600    437.23941   -164.21001   0.39562341   -163.81439   -1068.4326    4.2264506    4.2264506    4.2264506   -1068.4326   -7477.6936    11464.366   -7191.9705   -2604.8269   -14460.694   -11800.394    75.496601 
   67700    551.19298    -164.3126     0.498731   -163.81387   -5594.6858    4.2202635    4.2202635    4.2202635   -5594.6858   -10529.965   -4947.7228   -1306.3695    3365.1021   -9713.8021   -4147.9628    75.165527 
   67800    577.45035   -164.33558   0.52248921   -163.81309    155.74958    4.2211283    4.2211283    4.2211283    155.74958   -4457.0523    14745.673   -9821.3718    2722.3084   -10313.408   -6149.4383    75.211743 
   67900     464.2782   -164.23287   0.42008867   -163.81278   -4897.8585    4.2275536    4.2275536    4.2275536   -4897.8585   -19092.083    82.090718    4316.4165     3117.301   -14096.082   -4878.1456    75.555721 
   68000     483.9578   -164.24959   0.43789519   -163.81169    7443.3272    4.2181984    4.2181984    4.2181984    7443.3272    7092.1662    5078.0793    10159.736    4118.1063   -14359.055   -1853.3237    75.055236 
   68100    543.84967   -164.30468   0.49208661    -163.8126   -3208.8999    4.2232928    4.2232928    4.2232928   -3208.8999   -7579.3241   -393.59234   -1653.7832    7083.0869   -2719.6775     7653.726    75.327506 
   68200    466.11482   -164.23409   0.42175048   -163.81234   -4050.3963    4.2260748    4.2260748    4.2260748   -4050.3963   -18465.262    683.00431    5631.0688   -1316.1012   -5815.1174    5587.9081     75.47646 
   68300    432.50502   -164.20408   0.39133963   -163.81275    11655.617    4.2173633    4.2173633    4.2173633    11655.617    17638.505     4318.213    13010.133   -2907.1999   -3338.6765    9058.2197    75.010669 
   68400    504.22968   -164.26965   0.45623761   -163.81341   -1884.3585    4.2225871    4.2225871    4.2225871   -1884.3585    2882.5458   -11323.138     2787.517   -2498.3531    5910.0624    11052.043    75.289749 
   68500    508.73542    -164.2742    0.4603145   -163.81389   -1508.9594    4.2258139    4.2258139    4.2258139   -1508.9594   -9962.0223    643.07213    4792.0719   -8738.3284       4699.3    949.48685    75.462484 
   68600    494.18283    -164.2609   0.44714701   -163.81375    5551.8338    4.2175449    4.2175449    4.2175449    5551.8338    8751.9564   -9283.3837    17186.929   -10975.251   -912.21672    7032.8538    75.020362 
   68700     548.6122   -164.30993   0.49639585   -163.81354   -3143.3403    4.2227292    4.2227292    4.2227292   -3143.3403    11034.158   -13501.516   -6962.6631   -6394.9836     232.3302   -2252.0572    75.297348 
   68800    561.37074   -164.32079   0.50794004   -163.81285   -3763.7235    4.2264116    4.2264116    4.2264116   -3763.7235   -7505.6012   -1677.7459   -2107.8236     -1599.53    616.68328   -3103.6412    75.494509 
   68900    468.27793   -164.23618   0.42370771   -163.81248    1308.8274    4.2180119    4.2180119    4.2180119    1308.8274    3342.8248    617.88591   -34.228597   -6022.5911   -10852.904   -4312.5387    75.045284 
   69000    422.29478   -164.19613   0.38210119   -163.81403    2550.9004    4.2230156    4.2230156    4.2230156    2550.9004    13930.138    -7093.732    816.29492    6361.9689   -7507.0152   -7450.7134    75.312671 
   69100    424.77518   -164.19707   0.38434551   -163.81273    -5495.176    4.2254599    4.2254599    4.2254599    -5495.176   -16625.492    3709.2128   -3569.2484    9866.8389   -7590.2754   -2122.0592    75.443523 
   69200    294.22614   -164.07924   0.26622199   -163.81301    3209.6029    4.2189465    4.2189465    4.2189465    3209.6029   -5241.4565    18463.151   -3592.8859    5960.7435    -14371.57   -10665.572     75.09518 
   69300    251.44101   -164.04268   0.22750911   -163.81517    8050.4722    4.2224041    4.2224041    4.2224041    8050.4722    11514.989   -5928.8272    18565.255    11459.981    -11348.02     378.4578    75.279962 
   69400    488.38103   -164.25673   0.44189742   -163.81483   -12840.682    4.2251391    4.2251391    4.2251391   -12840.682    -21916.16   -1649.0797   -14956.806    10933.012   -4722.3735     233.0218    75.426338 
   69500    527.40124   -164.29126   0.47720372   -163.81406    4539.2158    4.2194496    4.2194496    4.2194496    4539.2158    2191.0224    7306.8683    4119.7567     4576.473   -5691.5942   -3291.6957    75.122044 
   69600    487.94052    -164.2556   0.44149884    -163.8141    2780.4225    4.2235735    4.2235735    4.2235735    2780.4225    16005.656    -19832.44    12168.051    1045.8507   -5244.4481    3906.6548    75.342523 
   69700    752.91126   -164.49315   0.68124993    -163.8119   -7044.9007     4.223526     4.223526     4.223526   -7044.9007   -8213.8263   -1858.0594   -11062.816   -1458.4738    2502.3239    367.12579    75.339981 
   69800    766.98432   -164.50541   0.69398353   -163.81143    1278.4582    4.2216871    4.2216871    4.2216871    1278.4582     6732.233   -1833.9424    -1062.916   -3891.1684    3068.6929    3901.7424    75.241616 
   69900    613.01188   -164.36678   0.55466603   -163.81212    5618.1376    4.2235434    4.2235434    4.2235434    5618.1376    28592.252   -8539.7413   -3198.0983   -6058.6576   -1702.5153   -2218.0773    75.340912 
   70000    726.65144   -164.46944    0.6574895   -163.81195    1763.0212    4.2228674    4.2228674    4.2228674    1763.0212   -6901.2392    5745.8181    6444.4846   -3572.1251    1912.3399   -1212.8364    75.304742 
   70100       656.53   -164.40847   0.59404214   -163.81443    -4304.082    4.2227773    4.2227773    4.2227773    -4304.082   -225.09449   -1083.0422   -11604.109   -479.09445    4728.2285    982.60921    75.299924 
   70200    414.42806   -164.19189   0.37498321   -163.81691    5525.9666    4.2219102    4.2219102    4.2219102    5525.9666    21370.038   -1983.5799    -2808.558   -2267.8167   -6140.9708   -8661.1179    75.253546 
   70300    353.68958   -164.13738   0.32002576   -163.81735   -2057.6726    4.2234857    4.2234857    4.2234857   -2057.6726   -19030.903    3704.5719    9153.3137    10675.575   -2655.7066   -2888.7934    75.337827 
   70400    339.55226   -164.12352   0.30723402   -163.81628   -7626.4571    4.2237155    4.2237155    4.2237155   -7626.4571   -13973.575    4242.0455   -13147.842    7065.4105   -5507.5323   -6268.0435    75.350123 
   70500    221.66084   -164.01665   0.20056338   -163.81609   -2902.6866     4.223279     4.223279     4.223279   -2902.6866    5790.9125   -12607.433   -1891.5397    10027.762   -10927.981   -6081.1962    75.326766 
   70600    217.29462   -164.01257   0.19661274   -163.81596   -2150.9092    4.2212038    4.2212038    4.2212038   -2150.9092   -20724.539    1265.6635    13006.148    13580.273     -11544.5   -3130.9383    75.215778 
   70700    377.62602    -164.1567   0.34168395   -163.81502   -7602.2139    4.2229527    4.2229527    4.2229527   -7602.2139   -18796.304    5813.1102   -9823.4477    9484.5318   -10192.639   -4838.2521    75.309305 
   70800    449.65655   -164.22182    0.4068587   -163.81496   -1866.8687      4.22287      4.22287      4.22287   -1866.8687    5062.3816   -11808.018    1145.0304    6657.7623   -8828.6921    908.41367     75.30488 
   70900     501.6824   -164.26882   0.45393278   -163.81489    5063.3213    4.2221207    4.2221207    4.2221207    5063.3213    -7554.501    6148.1553     16596.31    2126.7779   -12483.266   -3245.1556    75.264802 
   71000    642.83705   -164.39479   0.58165247   -163.81314   -3116.5496    4.2237857    4.2237857    4.2237857   -3116.5496   -12683.549    -605.3783    3939.2784    3011.5431    -1060.769    8496.4188    75.353882 
   71100    700.85108   -164.44551   0.63414478   -163.81136   -286.39935     4.223141     4.223141     4.223141   -286.39935    6042.2501    -7044.836    143.38781   -3656.5972    803.99337    3367.0956     75.31938 
   71200    613.13247   -164.36682   0.55477514   -163.81204    8841.4119    4.2205623    4.2205623    4.2205623    8841.4119    6311.0085    130.79625    20082.431   -3877.2168   -1317.9344   -1007.0341    75.181494 
   71300    653.42667   -164.40291   0.59123418   -163.81167   -3550.6735      4.22439      4.22439      4.22439   -3550.6735   -10456.935   -11334.887    11139.801   -3681.8455     7853.926     6593.137    75.386228 
   71400    674.75418    -164.4229   0.61053176   -163.81237   -1040.1836    4.2229697    4.2229697    4.2229697   -1040.1836   -5960.4082    2810.9683    28.889236   -3052.4679    6717.6804   -895.12211    75.310216 
   71500    456.73082   -164.22755   0.41325964   -163.81429    3445.6142    4.2202716    4.2202716    4.2202716    3445.6142    4310.6949   -8159.2139    14185.362   -481.76285    4342.0573   -7668.0257    75.165959 
   71600    451.70939   -164.22287   0.40871615   -163.81416   -1718.0547    4.2236358    4.2236358    4.2236358   -1718.0547   -11295.898   -3478.9301    9620.6638     1103.864   -2036.0937   -3346.7078    75.345856 
   71700     554.3569   -164.31423   0.50159377   -163.81264   -8580.5136    4.2240959    4.2240959    4.2240959   -8580.5136   -19621.821    3006.9692   -9126.6893    7881.9831    3345.7193   -5708.2154    75.370483 
   71800    386.94557   -164.16349   0.35011648   -163.81337    -1481.078    4.2224662    4.2224662    4.2224662    -1481.078   -11374.194   -15021.781    21952.741    7992.9654   -7531.2251   -6408.5904    75.283282 
   71900    377.03397   -164.15475   0.34114826    -163.8136    6430.0376    4.2219943    4.2219943    4.2219943    6430.0376   -432.71427    12281.448    7441.3792     6655.754   -15780.676   -5465.8959    75.258042 
   72000    511.70105   -164.27547   0.46299786   -163.81248   -9038.0218    4.2253547    4.2253547    4.2253547   -9038.0218   -6902.0744    -6347.392   -13864.599    9293.0368   -4855.5867    1971.9862    75.437888 
   72100    467.08864   -164.23497   0.42263162   -163.81234   -3649.6031    4.2214123    4.2214123    4.2214123   -3649.6031   -10671.466   -8939.1884    8661.8453    13175.551   -8265.4431    3358.1872    75.226925 
   72200    356.62521   -164.13597   0.32268199   -163.81329    7905.1905    4.2233557    4.2233557    4.2233557    7905.1905    11920.692    8773.7636    3021.1158    3367.1707   -11843.418    1206.2009    75.330872 
   72300    494.60426   -164.25984   0.44752833   -163.81231   -5960.9062    4.2230992    4.2230992    4.2230992   -5960.9062        15078   -19619.116   -13341.603   -1350.3593   -1994.0358    13227.082    75.317148 
   72400    595.53147   -164.35094   0.53884939   -163.81209   -5895.3808    4.2224807    4.2224807    4.2224807   -5895.3808   -9486.9223    -1539.508   -6659.7121    1223.8264    7081.3077    7995.2559    75.284058 
   72500    444.45789   -164.21539   0.40215484   -163.81323    4616.2039    4.2228944    4.2228944    4.2228944    4616.2039    17465.217   -7092.7915     3476.186   -6699.1855   -31.603348    7322.3493    75.306187 
   72600    472.07485    -164.2403   0.42714325   -163.81315    244.86217    4.2234595    4.2234595    4.2234595    244.86217    16578.855   -17855.422    2011.1538   -8720.9746    2977.6526    8282.8952    75.336424 
   72700    645.41235   -164.39521   0.58398266   -163.81123   -1088.7574    4.2219938    4.2219938    4.2219938   -1088.7574   -2632.3508     6838.559   -7472.4805   -4514.1957    10943.629    3297.5733    75.258015 
   72800    553.41025   -164.31245   0.50073722   -163.81171    -4227.571    4.2251827    4.2251827    4.2251827    -4227.571    9416.2052   -16536.747   -5562.1714   -4673.8683   -1170.4243    3467.0572    75.428673 
   72900    487.26241   -164.25229   0.44088527    -163.8114    10283.733    4.2213571    4.2213571    4.2213571    10283.733    21134.726    3903.1074    5813.3649   -2317.0847   -6609.8793    -3797.354    75.223975 
   73000    596.07037   -164.35032     0.539337   -163.81099   -2347.7158    4.2222392    4.2222392    4.2222392   -2347.7158    1443.6743    217.52635    -8704.348    4886.0072   -3547.4576   -4659.6626    75.271143 
   73100    556.23164   -164.31631   0.50329007   -163.81302   -6451.7974    4.2221737    4.2221737    4.2221737   -6451.7974   -4728.0577   -8280.1265    -6347.208    6192.3981    -6195.533   -5791.0504    75.267637 
   73200      425.471    -164.1998    0.3849751   -163.81482    4423.2315    4.2218335    4.2218335    4.2218335    4423.2315    5603.0443    989.86619    6676.7841    9395.0597   -15767.045    -6685.916    75.249446 
   73300    464.99446   -164.23536   0.42073676   -163.81462   -5526.2661    4.2218719    4.2218719    4.2218719   -5526.2661   -4014.8877    -15411.94    2848.0296    12361.131    -6852.844   -2434.4576    75.251497 
   73400    483.20537    -164.2506   0.43721437   -163.81339   -10131.872       4.2252       4.2252       4.2252   -10131.872   -5879.2175   -5155.6378    -19360.76    8048.7384   -1397.2296   -2398.2786    75.429602 
   73500    410.82279   -164.18529    0.3717211   -163.81356    2851.1074    4.2187942    4.2187942    4.2187942    2851.1074    7713.4313   -5974.8432    6814.7342    9469.3273   -7470.0524    5810.4924    75.087048 
   73600    440.53047   -164.21336   0.39860123   -163.81476   -922.07022    4.2231313    4.2231313    4.2231313   -922.07022    2283.8062   -17781.862    12731.845    4477.4844    1181.6644    6704.1749     75.31886 
   73700    546.18308   -164.30646   0.49419793   -163.81226   -2587.8457    4.2265186    4.2265186    4.2265186   -2587.8457   -1228.4529    9366.0009   -15901.085    2341.4574    4618.1121    10880.743    75.500244 
   73800    544.89251   -164.30475    0.4930302   -163.81172   -1205.0181    4.2201167    4.2201167    4.2201167   -1205.0181    17372.388   -15494.294   -5493.1484   -4812.9702    3313.6203    12040.205     75.15768 
   73900    544.97157   -164.30511   0.49310173     -163.812    5452.9332    4.2205005    4.2205005    4.2205005    5452.9332    14673.046   -9621.7429    11307.497   -3116.2006   -1355.4143    15937.378    75.178189 
   74000    605.63014   -164.35971   0.54798687   -163.81173   -2399.3463    4.2262965    4.2262965    4.2262965   -2399.3463   -4471.5741     4730.134   -7456.5988   -2423.3637    3374.0323    8690.3357     75.48834 
   74100    608.79107   -164.36308   0.55084696   -163.81224   -3587.9164    4.2212165    4.2212165    4.2212165   -3587.9164    6115.4565    -9435.931   -7443.2746   -7267.3196   -2482.8865    4744.7559    75.216459 
   74200    504.12042   -164.26951   0.45613875   -163.81338    6394.9963    4.2199211    4.2199211    4.2199211    6394.9963    6094.9865   -5297.7415    18387.744     1726.921   -9119.2689    1659.2297    75.147231 
   74300    474.86009    -164.2425   0.42966339   -163.81283   -3523.3134    4.2283594    4.2283594    4.2283594   -3523.3134    1494.1499   -7387.5469   -4676.5431       635.87   -5808.9355    2214.1286    75.598934 
   74400    443.65949   -164.21284   0.40143243   -163.81141   -2788.8144    4.2201819    4.2201819    4.2201819   -2788.8144   -14107.255    20642.523   -14901.711    3705.5987   -6466.6441   -1977.2803    75.161166 
   74500    348.22225   -164.12852   0.31507881   -163.81344    3028.6134    4.2224173    4.2224173    4.2224173    3028.6134   -3547.4065   -2910.9506    15544.197    7478.9966   -8858.3342   -6257.2176    75.280664 
   74600    353.58356   -164.13365   0.31992983   -163.81372   -3131.8075    4.2271573    4.2271573    4.2271573   -3131.8075   -8793.4704   -303.89614   -298.05604     10520.92   -11010.961    958.40655    75.534477 
   74700    388.94013   -164.16543    0.3519212    -163.8135   -975.49165     4.220906     4.220906     4.220906   -975.49165   -22970.517    32577.613   -12533.571    11534.763   -4220.0075   -2595.2722    75.199862 
   74800    440.60496   -164.21177   0.39866863    -163.8131    1442.6081    4.2208316    4.2208316    4.2208316    1442.6081    6023.8678   -1585.6389    -110.4047    3365.6121   -5553.0746    461.78324    75.195884 
   74900    387.82688   -164.16394   0.35091391   -163.81303   -5042.4167    4.2282962    4.2282962    4.2282962   -5042.4167   -16979.949     10232.97   -8380.2714    10571.216   -9279.1557    4907.9636    75.595548 
   75000    454.80087     -164.224   0.41151338   -163.81249    6224.2805    4.2194686    4.2194686    4.2194686    6224.2805   -4379.5318    11814.379    11237.995    3257.8267   -2694.3983    2797.6668     75.12306 
   75100    633.96199   -164.38485   0.57362213   -163.81123   -3841.1359     4.220311     4.220311     4.220311   -3841.1359    3003.8818   -2403.4622   -12123.827   -2128.6646    13.836904    4242.5867    75.168066 
   75200    601.47139   -164.35529   0.54422396   -163.81106   -6310.0803     4.228845     4.228845     4.228845   -6310.0803   -11672.064   -5973.5284   -1284.6484   -1688.9373    383.03328    3116.3896    75.624983 
   75300    528.45054   -164.28843   0.47815316   -163.81028    11553.489    4.2203588    4.2203588    4.2203588    11553.489    7095.9281    12270.406    15294.134   -5555.9738   -2221.6756    5799.2982     75.17062 
   75400    640.45391   -164.38986   0.57949616   -163.81036   -4019.1898     4.221228     4.221228     4.221228   -4019.1898    9004.6485   -3435.4949   -17626.723   -2653.6449    6126.1922   -5508.6473    75.217074 
   75500    608.12899   -164.36222   0.55024789   -163.81198   -3680.8928    4.2277229    4.2277229    4.2277229   -3680.8928   -9590.8949   -12817.379    11365.596   -9538.6643    4901.4407   -1283.7961    75.564799 
   75600    505.82002   -164.27054   0.45767659   -163.81287    4771.4081    4.2197811    4.2197811    4.2197811    4771.4081    5925.4429    18226.064   -9837.2828    6910.1959    1287.0758    971.54485    75.139755 
   75700    574.99733    -164.3333   0.52026966   -163.81303   -4455.4777    4.2218708    4.2218708    4.2218708   -4455.4777    14268.001    -5678.813   -21955.621    1679.1673    2231.5385   -6715.0226    75.251438 
   75800    561.96918   -164.32097   0.50848153   -163.81249   -3076.8686    4.2270142    4.2270142    4.2270142   -3076.8686   -10237.915   -4457.1065    5464.4161    2205.0831    2098.2473   -2918.8609    75.526809 
   75900    448.85821    -164.2186   0.40613634   -163.81246    402.07168    4.2208937    4.2208937    4.2208937    402.07168   -4888.9784    13995.918    -7900.725    9546.4073   -4048.4657   -6301.5437    75.199203 
   76000    477.07822   -164.24352    0.4316704   -163.81185     3660.592    4.2207615    4.2207615    4.2207615     3660.592    3283.0293     20235.92   -12537.173    10409.311   -8318.3603    3168.1945    75.192138 
   76100    527.14047   -164.28893   0.47696778   -163.81196   -10540.091    4.2256421    4.2256421    4.2256421   -10540.091   -9506.9469   -9438.0026   -12675.322    4658.5618   -7971.5988    470.29627    75.453281 
   76200    443.70021   -164.21425   0.40146927   -163.81278   -1114.5324    4.2216519    4.2216519    4.2216519   -1114.5324   -14679.293    9883.3437    1452.3526    243.19082   -9797.9357    4199.2791    75.239734 
   76300     349.6047   -164.12892   0.31632968   -163.81259    5160.6109    4.2225007    4.2225007    4.2225007    5160.6109   -254.90941    31458.228   -15721.486    6397.7416    -17155.55    3400.3179    75.285127 
   76400     423.4459   -164.19498   0.38314275   -163.81183   -7724.3117    4.2248127    4.2248127    4.2248127   -7724.3117    4567.3909    -11493.74   -16246.585   -7190.5467   -10015.892    1120.1119    75.408859 
   76500    483.45953   -164.24971   0.43744434   -163.81227   -3439.5806    4.2230432    4.2230432    4.2230432   -3439.5806   -18892.056    5106.5066     3466.807   -9543.3108   -9133.4564    4773.6362     75.31415 
   76600    386.21835   -164.16319   0.34945848   -163.81374    3460.3903    4.2211054    4.2211054    4.2211054    3460.3903    19789.477     4188.052   -13596.358   -3920.5691   -9001.4755   -3221.4105    75.210519 
   76700    470.97672   -164.23997   0.42614963   -163.81382   -1357.0719    4.2241152    4.2241152    4.2241152   -1357.0719    10731.444   -14255.958   -546.70153   -10000.582   -2304.8004   -1590.9081    75.371515 
   76800    583.71411   -164.33963    0.5281568   -163.81147   -2699.0579    4.2237141    4.2237141    4.2237141   -2699.0579   -8396.2716    -2095.025    2394.1229   -5403.4061    1338.5979   -5547.1952    75.350048 
   76900    513.68722   -164.27592   0.46479499   -163.81112     -777.194    4.2234029    4.2234029    4.2234029     -777.194    21763.625   -6176.8911   -17918.316    516.78558    3489.7751   -9052.4979    75.333395 
   77000    561.35014   -164.31905    0.5079214   -163.81113    6247.7417    4.2207267    4.2207267    4.2207267    6247.7417    28826.691   -11381.575    1298.1092    3162.5095    2378.3764   -6408.9186    75.190276 
   77100    707.21787   -164.45135   0.63990559   -163.81144    -10304.98    4.2236506    4.2236506    4.2236506    -10304.98   -6485.8086   -16924.879    -7504.252   -1897.1748    5584.7059   -16318.956    75.346648 
   77200     617.1104    -164.3711   0.55837446   -163.81272   -35.775573    4.2232271    4.2232271    4.2232271   -35.775573    17019.484    2901.9521   -20028.763    9116.6884    3162.5212   -4192.6792    75.323989 
   77300    503.41306   -164.26791   0.45549872   -163.81241    6214.3343    4.2218072    4.2218072    4.2218072    6214.3343    24670.486   -2263.5469   -3763.9366    3516.5926     -9186.18   -6931.0903    75.248037 
   77400    549.25022   -164.30821   0.49697314   -163.81123   -9755.4232    4.2259211    4.2259211    4.2259211   -9755.4232   -15776.968   -19141.836     5652.535   -3071.1853   -3411.4799   -4487.0033     75.46823 
   77500    433.80689   -164.20509   0.39251759   -163.81257   -745.83758    4.2223738    4.2223738    4.2223738   -745.83758    1362.6383    13084.539    -16684.69   -45.574404   -6670.1183   -2664.9148    75.278343 
   77600      296.266   -164.08258    0.2680677   -163.81451     1661.968    4.2193414    4.2193414    4.2193414     1661.968    3754.6996    5399.1313   -4167.9267   -5537.7615   -20371.697    2661.5465    75.116266 
   77700    373.65755   -164.15277    0.3380932   -163.81468   -29.455348    4.2262825    4.2262825    4.2262825   -29.455348   -10223.251   -6564.1487    16699.034   -6443.2274   -15917.372    4506.9618     75.48759 
   77800    471.52582    -164.2393   0.42664647   -163.81265   -8413.5086    4.2240676    4.2240676    4.2240676   -8413.5086   -20561.245    9569.6879   -14248.968   -8497.6436   -12618.646   -1684.1279    75.368969 
   77900    421.98805   -164.19424   0.38182365   -163.81242    8084.6097    4.2181542    4.2181542    4.2181542    8084.6097    2309.8317    16263.453    5680.5447   -785.84284   -12915.364    9135.6825    75.052879 
   78000    438.71768   -164.21047   0.39696098   -163.81351    2836.3243    4.2261367    4.2261367    4.2261367    2836.3243    10797.781   -10056.331    7767.5234   -5302.7412   -12373.172    1375.8401     75.47978 
   78100    565.98756   -164.32377   0.51211744   -163.81165   -7485.8987    4.2240055    4.2240055    4.2240055   -7485.8987   -19886.762    7457.9078   -10028.841   -3136.1319   -5490.3616   -2954.3655    75.365647 
   78200    595.01492   -164.34891   0.53838201   -163.81053    4389.2469    4.2204792    4.2204792    4.2204792    4389.2469    15296.517     3146.105   -5274.8808    5256.4825     806.3946   -1548.8411    75.177054 
   78300    575.04746   -164.33099   0.52031502   -163.81068   -3317.3738    4.2264419    4.2264419    4.2264419   -3317.3738    6003.6825   -20060.732    4104.9285    986.99587   -3950.1163   -7103.7285    75.496134 
   78400    601.41643   -164.35425   0.54417422   -163.81007    1892.9761     4.224122     4.224122     4.224122    1892.9761   -6467.7994    8867.5098     3279.218    2676.0661    3806.8066   -7769.3275    75.371884 
   78500     665.9034   -164.41251   0.60252339   -163.80998   -1006.2808    4.2198112    4.2198112    4.2198112   -1006.2808    7669.7819   -2850.7688   -7837.8553    1312.2618    4955.3142   -16358.239    75.141363 
   78600    549.37651   -164.30868   0.49708741   -163.81159   -3908.4127    4.2250092    4.2250092    4.2250092   -3908.4127   -2639.4663   -12020.609    2934.8368    3372.8929    1258.3248   -8373.9174    75.419384 
   78700    445.02878   -164.21436   0.40267139   -163.81168    4244.0502    4.2252183    4.2252183    4.2252183    4244.0502    849.20851   -1308.2135    13191.156   -2760.2388   -1428.0632   -14014.292     75.43058 
   78800    479.93936   -164.24588   0.43425921   -163.81162   -5521.3667    4.2197354    4.2197354    4.2197354   -5521.3667   -8194.6627    6475.3694   -14844.807   -6260.1506   -1767.9269   -11709.325    75.137312 
   78900    411.28567   -164.18668   0.37213992   -163.81454    1736.0261    4.2250208    4.2250208    4.2250208    1736.0261   -13903.503    5563.5355    13548.046   -941.88184    -5130.223    2418.1081    75.420002 
   79000    408.07776   -164.18268   0.36923733   -163.81344     1896.151    4.2260562    4.2260562    4.2260562     1896.151   -4895.3788   -11808.503    22392.335   -10104.211    -12588.37   -2418.2088    75.475467 
   79100    444.04236    -164.2143   0.40177886   -163.81252   -734.17878    4.2213736    4.2213736    4.2213736   -734.17878   -15026.638    26391.558   -13567.456   -10193.556   -11634.885   -987.61087    75.224855 
   79200    434.91731   -164.20621   0.39352232   -163.81269    888.84066    4.2240191    4.2240191    4.2240191    888.84066   -12610.806    8020.5463    7256.7813   -7891.0328    -7772.141    7886.1674    75.366375 
   79300    433.02008   -164.20391   0.39180567    -163.8121   -2748.1228    4.2268946    4.2268946    4.2268946   -2748.1228   -16225.016   -3230.8204    11211.468   -5764.7523   -14082.612    3871.7739    75.520394 
   79400    425.09843   -164.19567     0.384638   -163.81103   -63.556879    4.2207871    4.2207871    4.2207871   -63.556879    -6475.247    13590.789   -7306.2122   -7505.6693   -15143.051   -1155.8106    75.193506 
   79500    454.57642   -164.22266   0.41131029   -163.81135    -324.5163    4.2202493    4.2202493    4.2202493    -324.5163    43.286423    5342.1561   -6358.9915   -8487.0595   -5626.3549   -307.24201    75.164768 
   79600    494.44211   -164.25902   0.44738161   -163.81164   -6783.2062    4.2281225    4.2281225    4.2281225   -6783.2062   -13814.863    2699.1422   -9233.8983    4548.2489   -4348.5595   -1747.1968     75.58623 
   79700     501.8008   -164.26551    0.4540399   -163.81147    3477.4126    4.2203049    4.2203049    4.2203049    3477.4126    12400.866      194.347   -2162.9755   -1704.2223   -6860.5371   -11260.431    75.167736 
   79800    561.72479   -164.32036   0.50826039    -163.8121    317.37024    4.2209115    4.2209115    4.2209115    317.37024    12558.343      7845.88   -19452.112    2835.8506    3431.7929   -8834.1626    75.200158 
   79900    710.63298   -164.45409   0.64299566   -163.81109   -10853.248    4.2272946    4.2272946    4.2272946   -10853.248    -9167.755   -11280.953   -12111.038      5538.38    2988.1333   -7099.6095    75.541838 
   80000    627.53771   -164.37968   0.56780931   -163.81188    2125.6136    4.2222256    4.2222256    4.2222256    2125.6136    10364.264   -2114.9337   -1872.4898    2611.3194   -654.11422     -10121.3    75.270412 
   80100    490.42556   -164.25571   0.44374735   -163.81196    8084.9607    4.2210929    4.2210929    4.2210929    8084.9607    25342.104    15877.942   -16965.164   -2793.9899    742.70816   -8962.8988    75.209853 
   80200    606.32034    -164.3599   0.54861139   -163.81129   -8869.8492     4.227641     4.227641     4.227641   -8869.8492   -3689.6312   -9689.6059    -13230.31    796.13745     3921.079    -1889.546    75.560412 
   80300    606.64642   -164.35988   0.54890643   -163.81098   -3267.6306    4.2227184    4.2227184    4.2227184   -3267.6306    9934.4824   -11011.472   -8725.9023   -2203.9283   -384.88103    -3596.717    75.296775 
   80400    402.59928   -164.17646   0.36428029   -163.81218    5829.4894    4.2200891    4.2200891    4.2200891    5829.4894    5121.3329    21620.696   -9253.5609    -15112.46   -7512.9849   -6199.2158    75.156209 
   80500    435.57598   -164.20691    0.3941183    -163.8128   -2011.2745    4.2269612    4.2269612    4.2269612   -2011.2745   -4583.3838    4726.1536   -6176.5933   -9434.3675   -2300.7022    3133.9816    75.523965 
   80600    468.17827   -164.23639   0.42361754   -163.81278   -7277.3566    4.2217735    4.2217735    4.2217735   -7277.3566    116.23145   -8400.2931   -13548.008   -5159.9434   -5352.2516    6867.0699    75.246236 
   80700    272.39574   -164.06101   0.24646939   -163.81454    4508.9826    4.2219292    4.2219292    4.2219292    4508.9826    -13698.77    42949.874   -15724.156   -13011.046   -11375.645    2905.1925    75.254561 
   80800     334.9183    -164.1175   0.30304112   -163.81446    849.25816    4.2253996    4.2253996    4.2253996    849.25816    3487.8999    2090.2951   -3030.4205   -9554.9498    -10062.62   -736.87046    75.440292 
   80900    539.28544   -164.29949    0.4879568   -163.81153   -10638.664    4.2237436    4.2237436    4.2237436   -10638.664   -17081.728   -4425.9003   -10408.362   -87.727563   -11531.394    5840.6861    75.351627 
   81000    519.86445   -164.28089   0.47038428   -163.81051   -4899.2693    4.2236269    4.2236269    4.2236269   -4899.2693   -11837.166    21776.763   -24637.405   -2055.9409   -9033.4417    2932.5426    75.345383 
   81100     487.1769   -164.25149    0.4408079   -163.81068    6475.2692    4.2230044    4.2230044    4.2230044    6475.2692    3661.5015    12479.434    3284.8722   -1392.3538   -16078.142   -10348.258    75.312072 
   81200    614.10547   -164.36638   0.55565554   -163.81072   -1893.8837    4.2230622    4.2230622    4.2230622   -1893.8837   -10887.666    4756.6734    449.34133    4233.9638   -9547.4032   -2576.8095    75.315168 
   81300    693.11445   -164.43692   0.62714452   -163.80977   -7107.6345    4.2234949    4.2234949    4.2234949   -7107.6345   -4208.1187   -76.992108   -17037.793     5962.832   -3492.4397   -4002.1395    75.338318 
   81400    516.52058   -164.27841   0.46735867   -163.81105    6673.8853    4.2240124    4.2240124    4.2240124    6673.8853    6098.8457    5144.5561    8778.2541   -16.228441   -2273.9734   -10166.813    75.366016 
   81500    485.95509   -164.25049   0.43970238   -163.81078    4713.5244    4.2218172    4.2218172    4.2218172    4713.5244    4982.9131    -3791.906    12949.566   -3117.9315   -720.65336   -7641.0801    75.248574 
   81600    649.83845   -164.39886   0.58798749   -163.81088   -3593.5162    4.2226584    4.2226584    4.2226584   -3593.5162     1023.216   -9169.4528   -2634.3117    2448.7102    3443.6043    2112.1224    75.293561 
   81700    600.48401     -164.355   0.54333055   -163.81167   -2946.5415    4.2245856    4.2245856    4.2245856   -2946.5415   -4448.5986   -11220.957    6829.9312   -6248.1642    8036.5773   -681.49035    75.396698 
   81800     393.2809   -164.16897   0.35584882   -163.81312    6831.4492     4.221528     4.221528     4.221528    6831.4492   -4211.4762   -9958.1624    34663.986   -13349.207   -1519.3223   -1431.2731     75.23311 
   81900    474.01337   -164.24131   0.42889726   -163.81241    3094.6987    4.2245581    4.2245581    4.2245581    3094.6987    9442.2214   -9442.6433    9284.5179   -10471.171     683.4236    6097.6456    75.395229 
   82000    563.33852   -164.32144   0.50972053   -163.81172   -15942.091    4.2248052    4.2248052    4.2248052   -15942.091   -26114.997   -22432.949    721.67398   -11347.533    4498.1045    2553.5969     75.40846 
   82100    345.90314   -164.12683   0.31298043   -163.81385      7681.84     4.223359     4.223359     4.223359      7681.84    14448.793   -14196.334    22793.062   -12644.968   -11786.543    2253.6642    75.331047 
   82200    325.10904   -164.10685   0.29416549   -163.81268    3336.8874    4.2239714    4.2239714    4.2239714    3336.8874    4714.7096    5174.5776    121.37511   -12745.979   -16032.179   -4003.7496    75.363823 
   82300    506.16024   -164.26949   0.45798443   -163.81151   -9482.5347    4.2237916    4.2237916    4.2237916   -9482.5347   -22963.326   -6569.5747    1085.2966   -7609.0538     -8202.65    2784.3677    75.354196 
   82400    430.27179   -164.20177   0.38931896   -163.81246   -3428.9491    4.2231568    4.2231568    4.2231568   -3428.9491     4204.364   -12829.493   -1661.7183    -1588.594   -10649.179    341.00591    75.320229 
   82500    304.39465   -164.08966   0.27542268   -163.81424    2468.0037    4.2210931    4.2210931    4.2210931    2468.0037   -9181.5525    13869.639    2715.9243   -3105.6236   -22699.136    -7875.551    75.209863 
   82600    410.35476    -164.1855   0.37129761    -163.8142   -1279.0644    4.2240662    4.2240662    4.2240662   -1279.0644    282.39271   -590.46338   -3529.1225    499.30025    -6397.164   -1173.1299    75.368896 
   82700    553.19029    -164.3125    0.5005382   -163.81196   -7399.0919    4.2220396    4.2220396    4.2220396   -7399.0919   -8225.0299   -7310.2956   -6661.9503    8832.6247   -5330.9362    -2548.597    75.260464 
   82800    525.50327   -164.28745    0.4754864   -163.81196    1748.9737    4.2207737    4.2207737    4.2207737    1748.9737    647.18017     95.21723    4504.5238    4608.7994   -10785.923     1779.597    75.192791 
   82900    534.07774   -164.29578   0.48324476   -163.81253    9021.5823    4.2247507    4.2247507    4.2247507    9021.5823      13397.4    10590.194    3077.1521   -800.66511    635.89383   -5518.8116    75.405541 
   83000     690.5205    -164.4351   0.62479746    -163.8103     -7744.86    4.2242756    4.2242756    4.2242756     -7744.86   -13349.605    2763.1626   -12648.138    2758.8815    5026.9569    4450.9852    75.380105 
   83100    691.51041   -164.43552   0.62569315   -163.80983    1978.5301    4.2211967    4.2211967    4.2211967    1978.5301   -3353.1163   -8803.3543    18092.061   -1391.1916    3059.2913    3761.8097    75.215401 
   83200    520.25844   -164.28261   0.47074077   -163.81187    6189.9479    4.2225631    4.2225631    4.2225631    6189.9479   -4948.0393    12302.905    11214.978   -7171.4452    2123.4727   -4035.8998    75.288464 
   83300    562.34523   -164.32009   0.50882178   -163.81127    -7945.914    4.2255011    4.2255011    4.2255011    -7945.914   -23740.367     5901.723   -5999.0975   -7586.0205    5614.1902    5720.5473    75.445729 
   83400    615.83442    -164.3687   0.55721992   -163.81148   -1438.4996    4.2210059    4.2210059    4.2210059   -1438.4996   -15946.723    -2362.952    13994.177   -5741.6241    6791.0589    2016.5729    75.205201 
   83500      429.417   -164.20158   0.38854553   -163.81303    -1267.611    4.2209807    4.2209807    4.2209807    -1267.611   -21360.855    14612.251    2945.7715   -9227.7012   -5589.5495   -738.54097    75.203855 
   83600    415.37692     -164.189   0.37584177   -163.81316    3801.9465    4.2248511    4.2248511    4.2248511    3801.9465     -18553.8    14929.392    15030.247   -10100.869    -2559.359   -1619.1808    75.410919 
   83700    597.26477   -164.35198   0.54041772   -163.81157   -4124.3229    4.2208649    4.2208649    4.2208649   -4124.3229    -11624.77    2158.5107   -2906.7096   -3007.8174   -4909.6797     586.6316    75.197663 
   83800     501.1374   -164.26487   0.45343966   -163.81143   -2699.6809    4.2232174    4.2232174    4.2232174   -2699.6809   -21488.273    15365.491   -1976.2612   -2926.8404   -11963.556   -1856.3884    75.323472 
   83900    418.66287   -164.18965   0.37881496   -163.81084    10857.113    4.2253419    4.2253419    4.2253419    10857.113   -3144.3702     24950.16    10765.548   -5548.1055   -10058.402   -5577.2237      75.4372 
   84000    611.29545   -164.36233   0.55311297   -163.80922   -6621.5668    4.2198391    4.2198391    4.2198391   -6621.5668   -4682.2013    97.959934   -15280.459   -579.58773   -12539.656    4432.9703    75.142853 
   84100    616.55121   -164.36907   0.55786849    -163.8112   -2440.0543    4.2213241    4.2213241    4.2213241   -2440.0543   -8587.7287    7936.2811   -6668.7154     4127.763   -3901.0061    618.17304    75.222211 
   84200    455.27275   -164.22481   0.41194035   -163.81287    4815.2768    4.2258428    4.2258428    4.2258428    4815.2768    761.84955    23832.096   -10148.115   -1002.9577   -3772.2186   -1508.7235    75.464034 
   84300    527.48439   -164.28927   0.47727896   -163.81199   -4339.7175     4.221142     4.221142     4.221142   -4339.7175   -4748.9666     2586.722   -10856.908    2065.1524   -1414.0182    7508.7219    75.212475 
   84400    527.71435   -164.29077   0.47748703   -163.81329   -1653.3395    4.2205601    4.2205601    4.2205601   -1653.3395   -3320.2394    5122.8366   -6762.6156    4758.0703    8897.1599    1635.5241    75.181374 
   84500    350.32594   -164.13177   0.31698227   -163.81478   -3019.4605    4.2258983    4.2258983    4.2258983   -3019.4605   -9728.9764    22668.757   -21998.162   -4472.9387    9225.0294     2810.619    75.467005 
   84600    305.32477   -164.09055   0.27626427   -163.81429    206.72644    4.2222805    4.2222805    4.2222805    206.72644     477.0475    2279.6105   -2136.4787     -4543.36     7451.272     510.1886    75.273351 
   84700    317.05304   -164.10062   0.28687625   -163.81374   -2598.4235    4.2205048    4.2205048    4.2205048   -2598.4235    773.61614   -192.91811   -8375.9685    -4600.632    12179.776    1064.8948    75.178423 
   84800    303.15947   -164.08894   0.27430506   -163.81463   -7874.3991    4.2243812    4.2243812    4.2243812   -7874.3991   -22726.347    10605.703   -11502.553   -11013.588    14031.569    377.87441    75.385758 
   84900    322.25797   -164.10753   0.29158579   -163.81595    5491.6469    4.2214546    4.2214546    4.2214546    5491.6469    13981.401   -6371.1435    8864.6835   -13982.617    3893.7332   -3297.9502    75.229185 
   85000    471.38258   -164.24207   0.42651686   -163.81555   -3308.9967    4.2227164    4.2227164    4.2227164   -3308.9967   -8418.2709    330.16189    -1838.881   -7302.0727    4852.2493    341.12395    75.296664 
   85100    537.34169    -164.3005   0.48619805   -163.81431    3391.5488    4.2224043    4.2224043    4.2224043    3391.5488   -3708.0219    10424.784    3457.8845   -11171.155   -19.968586   -3404.5188    75.279971 
   85200    574.77022   -164.33303   0.52006418   -163.81296    3730.0854    4.2234495    4.2234495    4.2234495    3730.0854     14214.47    -1236.677   -1787.5367   -12598.103    -3301.415   -1322.9829    75.335886 
   85300    763.44848   -164.50124   0.69078423   -163.81045   -4672.5934    4.2221848    4.2221848    4.2221848   -4672.5934   -5447.4408   -3894.4955   -4675.8439   -263.75989   -109.34465    1314.4985    75.268233 
   85400    767.82831    -164.5061   0.69474719   -163.81136    711.95848    4.2218979    4.2218979    4.2218979    711.95848    6422.2007     4997.059   -9283.3843   -2269.7071   -6894.5012   -1283.9665    75.252892 
   85500    708.01282   -164.45172   0.64062487   -163.81109    822.42792    4.2234789    4.2234789    4.2234789    822.42792     12483.98    1577.1797   -11593.876   -1403.4547    774.85865    1684.0586    75.337464 
   85600    797.86297    -164.5325   0.72192318   -163.81058   -1893.0732    4.2227544    4.2227544    4.2227544   -1893.0732    7059.2202   -6034.6851   -6703.7545    6256.1977   -2839.7381    373.57684      75.2987 
   85700    701.26249   -164.44776   0.63451704   -163.81324   -4378.7323    4.2190895    4.2190895    4.2190895   -4378.7323   -598.31169    345.56275   -12883.448    7995.4918    10165.661    5139.9129    75.102816 
   85800     481.6624    -164.2504   0.43581826   -163.81458    2446.1493    4.2234086    4.2234086    4.2234086    2446.1493    4128.7685     8700.589   -5490.9095    952.80438    4418.0634    1434.9149    75.333703 
   85900     472.0256   -164.24085   0.42709868   -163.81375   -3111.5458    4.2222743    4.2222743    4.2222743   -3111.5458   -1957.5403   -2228.9159   -5148.1813    2570.4774    11313.002    2069.8401    75.273021 
   86000    422.16447   -164.19655   0.38198328   -163.81457   -8278.8485    4.2216124    4.2216124    4.2216124   -8278.8485   -5240.4794   -5512.4517   -14083.614    498.23625    16260.213    4636.3696    75.237623 
   86100    246.40224   -164.03913   0.22294993   -163.81618    6650.3266     4.223613     4.223613     4.223613    6650.3266    2764.2211    14015.558    3171.2008   -12241.127    6663.6071   -2248.3073    75.344636 
   86200    303.44579   -164.08914   0.27456412   -163.81457   -6160.7196    4.2222586    4.2222586    4.2222586   -6160.7196   -8175.4867   -2986.7356   -7319.9366   -10640.447    9242.9938    869.24472    75.272178 
   86300    384.97917   -164.16191   0.34833724   -163.81358   -5303.2782    4.2215318    4.2215318    4.2215318   -5303.2782   -8793.9362   -810.04848   -6305.8497   -11781.621    5780.3891    212.28002    75.233317 
   86400     283.1284   -164.06997   0.25618052   -163.81379    818.48666    4.2234187    4.2234187    4.2234187    818.48666    1193.6044   -3338.2686    4600.1241   -22684.917    3028.2154   -832.20177    75.334242 
   86500     303.9873   -164.08888    0.2750541   -163.81383     1802.261    4.2204699    4.2204699    4.2204699     1802.261    7624.4737   -2292.1057    74.415131   -15114.958   -3537.9677    -614.8566    75.176556 
   86600    464.79232   -164.23319   0.42055386   -163.81264    4723.5914    4.2214946    4.2214946    4.2214946    4723.5914   -1785.8231    7383.5995    8572.9979   -10092.825   -2368.4848   -3537.3842    75.231326 
   86700    507.54589   -164.27169   0.45923819   -163.81245   -1223.5483    4.2234891    4.2234891    4.2234891   -1223.5483    5524.4754   -6909.6923   -2285.4281   -14679.704   -4844.1641    197.14938     75.33801 
   86800     550.3268   -164.31031   0.49794725   -163.81236    8379.0504    4.2205083    4.2205083    4.2205083    8379.0504    4292.0406    25143.382   -4298.2716   -7602.6554   -8811.6451   -1644.6943    75.178607 
   86900    747.53513   -164.48788    0.6763855    -163.8115   -2064.8466    4.2230035    4.2230035    4.2230035   -2064.8466    -4983.457   -2950.8147    1739.7318    3725.9347   -3425.5789   -1665.8305    75.312024 
   87000     748.5515   -164.48884   0.67730513   -163.81153   -4275.9576    4.2237163    4.2237163    4.2237163   -4275.9576   -974.62889    5514.8532   -17368.097     -1369.77   -3801.6883    3078.1569    75.350169 
   87100    659.42626     -164.407   0.59666274   -163.81034    8635.3588    4.2203831    4.2203831    4.2203831    8635.3588    -502.5727    31782.612   -5373.9626    2042.8062    535.48539    -2390.815    75.171919 
   87200     721.9116   -164.46331   0.65320079   -163.81011   -6155.5318    4.2238322    4.2238322    4.2238322   -6155.5318   -15401.879    5694.7975   -8759.5137    6262.3188    1963.1192    1949.9268     75.35637 
   87300    636.77106   -164.38806   0.57616383    -163.8119   -5367.0219     4.222604     4.222604     4.222604   -5367.0219   -3542.4934    2797.2684   -15355.841    4356.8057    7592.4105    2741.9305    75.290653 
   87400    429.24445   -164.20214    0.3883894   -163.81375    8291.7302    4.2200286    4.2200286    4.2200286    8291.7302   -5795.7753    25605.679    5065.2866   -7792.0788     11768.51    1922.4441    75.152977 
   87500    436.16436   -164.20901   0.39465068   -163.81436   -5376.0488      4.22315      4.22315      4.22315   -5376.0488   -15193.752    9930.8526   -10865.247   -1383.2514    14264.203   -371.60344    75.319863 
   87600    417.72416   -164.19234    0.3779656   -163.81437    -5937.733    4.2250916    4.2250916    4.2250916    -5937.733   -2822.2253    -5452.206   -9538.7678   -6248.1038    13845.831   -4664.7514    75.423795 
   87700     215.3226   -164.00931   0.19482841   -163.81448    7993.2388    4.2201165    4.2201165    4.2201165    7993.2388    -11016.95    34380.394    616.27219   -17544.061    14086.288    1918.1261    75.157674 
   87800    279.14734   -164.06677   0.25257838    -163.8142   -5582.6918    4.2238378    4.2238378    4.2238378   -5582.6918   -4682.2945    8058.8618   -20124.643   -10224.512    13257.317     -1633.32    75.356667 
   87900    418.99849   -164.19212   0.37911864     -163.813   -9905.4893    4.2246782    4.2246782    4.2246782   -9905.4893   -12274.711   -7995.0343   -9446.7225   -10113.473     7404.797   -3895.0574     75.40166 
   88000    344.28361   -164.12489   0.31151505   -163.81338    1233.4826    4.2210792    4.2210792    4.2210792    1233.4826   -17408.681    32092.429     -10983.3   -11242.298    3441.7382   -2136.3839    75.209119 
   88100    449.84554   -164.22095    0.4070297   -163.81392    409.92378    4.2224351    4.2224351    4.2224351    409.92378    8291.4442    8542.2489   -15603.922   -7004.9549   -2973.0055    524.16614    75.281617 
   88200    651.85443   -164.40185   0.58981159   -163.81204   -5426.1227    4.2235295    4.2235295    4.2235295   -5426.1227   -10412.212   -4071.8897   -1794.2661    1591.5859   -5046.4968    1463.7808    75.340171 
   88300    648.41529   -164.39802   0.58669978   -163.81132    -1427.532    4.2229875    4.2229875    4.2229875    -1427.532   -9317.0642     21356.32   -16321.852   -507.25623   -9847.9847   -3890.8484    75.311168 
   88400    675.20453   -164.42248   0.61093925   -163.81154    3522.4533      4.22054      4.22054      4.22054    3522.4533    2916.5679     20363.99   -12713.198    -821.6979   -12686.103    1931.8223    75.180299 
   88500    751.17777   -164.49151   0.67968143   -163.81183   -6716.2105    4.2239095    4.2239095    4.2239095   -6716.2105   -5039.6097   -6606.7898   -8502.2321    7107.7419   -5987.0125    2181.8109     75.36051 
   88600    665.25175    -164.4144   0.60193376   -163.81247    77.267949    4.2225432    4.2225432    4.2225432    77.267949   -6429.0805    17579.612   -10918.728      1328.62   -9143.8495   -1193.1629      75.2874 
   88700    583.77594   -164.34109   0.52821274   -163.81287    4531.2891    4.2217527    4.2217527    4.2217527    4531.2891    9674.3482    14065.225   -10145.706   -5050.9067    2069.0539   -69.840078    75.245123 
   88800    576.56428   -164.33575   0.52168748   -163.81407   -3873.0631    4.2216011    4.2216011    4.2216011   -3873.0631   -2940.0701   -6872.3481   -1806.7712   -3949.8632    5670.0032   -1625.0689    75.237017 
   88900    442.49796   -164.21617   0.40038145   -163.81579   -5884.5989    4.2259022    4.2259022    4.2259022   -5884.5989   -4581.4586   -6832.3856   -6239.9525   -7288.8183    8997.2118   -1392.1629    75.467213 
   89000    245.40453   -164.03787   0.22204717   -163.81583    7018.8919    4.2177893    4.2177893    4.2177893    7018.8919    2914.1168    22661.196    -4518.637   -20115.879    18861.002   -1292.5943    75.033401 
   89100     236.6297    -164.0304   0.21410752   -163.81629   -6161.2806    4.2234226    4.2234226    4.2234226   -6161.2806   -9791.6793    1287.6479   -9979.8104   -12761.441    14038.121   -3412.3758    75.334449 
   89200     258.0184   -164.04795   0.23346047   -163.81449   -5490.5688    4.2256211    4.2256211    4.2256211   -5490.5688    2739.5556   -12001.167   -7210.0952   -10311.013    20062.517   -1033.3127    75.452154 
   89300    216.13332   -164.01091   0.19556197   -163.81535     1712.203    4.2181257    4.2181257    4.2181257     1712.203   -7978.1346    26417.579   -13302.835    -16297.55    18041.663   -1074.2693    75.051358 
   89400    384.78973   -164.16438   0.34816583   -163.81622     3794.085    4.2232612    4.2232612    4.2232612     3794.085    16033.666    9171.2451   -13822.656   -8128.6262    13318.378   -284.55825    75.325814 
   89500    627.45893    -164.3808   0.56773802   -163.81306   -14466.848    4.2271627    4.2271627    4.2271627   -14466.848   -17717.563   -14568.532    -11114.45    140.38971     14148.01    1089.9721    75.534769 
   89600     620.6404   -164.37274   0.56156847   -163.81117     1550.246    4.2184556    4.2184556    4.2184556     1550.246    4556.6579    12871.045   -12776.965    1639.2825    4122.0032   -4625.8181    75.068969 
   89700    653.81723   -164.40296   0.59158757   -163.81137    3914.1395    4.2214068    4.2214068    4.2214068    3914.1395    5714.2476    18088.413   -12060.242     2767.272     7538.335    5647.9185    75.226629 
   89800     767.8516   -164.50624   0.69476827   -163.81147   -9089.8454    4.2260561    4.2260561    4.2260561   -9089.8454   -4310.0017   -9953.8039   -13005.731    9823.3444   -5021.8283   -974.64753    75.475459 
   89900    709.71157   -164.45397   0.64216194   -163.81181    4143.9522    4.2188407    4.2188407    4.2188407    4143.9522    6377.5023    1656.1755    4398.1788    5376.6044   -3624.2688   -1493.0405    75.089528 
   90000    574.61523   -164.33404   0.51992394   -163.81411    3590.0753    4.2226091    4.2226091    4.2226091    3590.0753    5124.3588    13077.059   -7431.1919   -1582.6242   -2814.8669   -3158.3838    75.290924 
   90100    612.16941    -164.3667   0.55390375    -163.8128   -781.08657    4.2253806    4.2253806    4.2253806   -781.08657   -1453.2824   -1746.0286    856.05123   -1115.9364    -4558.546     2777.832    75.439272 
   90200    564.05038   -164.32283   0.51036464   -163.81246   -816.57516    4.2195539    4.2195539    4.2195539   -816.57516   -7461.2173   -13327.884    18339.376    -8131.173    530.80909   -2112.5418     75.12762 
   90300    338.89152   -164.12154   0.30663617   -163.81491    3619.2223    4.2228952    4.2228952    4.2228952    3619.2223    668.44078    11477.921   -1288.6948   -17964.043   -214.10628   -7559.6178     75.30623 
   90400    330.29716   -164.11336   0.29885981    -163.8145   -1273.8591    4.2257104    4.2257104    4.2257104   -1273.8591   -20421.485    8398.5563    8201.3513   -15940.331    7167.0516    4460.6932    75.456941 
   90500     347.8253   -164.12868   0.31471964   -163.81396   -8054.5671    4.2219482    4.2219482    4.2219482   -8054.5671   -16845.425   -14167.578    6849.3015   -19928.579    7253.8517   -2285.2151    75.255581 
   90600    238.81395   -164.03052   0.21608388   -163.81444    3449.8518    4.2216203    4.2216203    4.2216203    3449.8518   -12792.265      27812.5   -4670.6788   -20253.332    10355.631   -459.18519    75.238045 
   90700    342.85454   -164.12437   0.31022199   -163.81415   -7570.7276    4.2253658    4.2253658    4.2253658   -7570.7276   -25473.099    2350.9537    409.96209   -15843.438    15456.956    3622.7006     75.43848 
   90800    436.79085   -164.20832   0.39521754    -163.8131   -4749.3656    4.2217138    4.2217138    4.2217138   -4749.3656   -9510.0527    -4146.844   -591.20022   -11018.085    9556.6031   -2362.6432    75.243045 
   90900     392.7196   -164.16862   0.35534095   -163.81328    2719.3346    4.2227277    4.2227277    4.2227277    2719.3346   -21201.887    26833.638    2526.2536   -4380.1929    15119.386    -1671.901    75.297269 
   91000    465.80939    -164.2341   0.42147412   -163.81262   -857.60703    4.2232319    4.2232319    4.2232319   -857.60703   -11080.726     12849.98   -4342.0753   -4585.4875    10119.639    2108.3224    75.324245 
   91100    608.68908   -164.36137   0.55075467   -163.81061    -1896.698    4.2233799    4.2233799    4.2233799    -1896.698   -4652.5586    1110.2146     -2147.75    5413.3069    11027.542    1940.1079    75.332167 
   91200     621.9206   -164.37319   0.56272682   -163.81046   -413.37744    4.2233847    4.2233847    4.2233847   -413.37744   -15070.899    12691.323    1139.4432     8586.049    4489.6835   -7140.7105    75.332421 
   91300    660.66613   -164.40849    0.5977846    -163.8107    5257.0764    4.2235543    4.2235543    4.2235543    5257.0764    9179.9513    19156.412   -12565.134     172.5609   -2693.9916    -1481.297      75.3415 
   91400    803.99808   -164.53772   0.72747436   -163.81024   -2587.1685    4.2221512    4.2221512    4.2221512   -2587.1685    3981.0517   -7102.7914   -4639.7659    7577.1553    4470.9284    3780.4163    75.266437 
   91500    733.15641   -164.47485   0.66337533   -163.81148     152.8554    4.2221177    4.2221177    4.2221177     152.8554   -7171.2525    7507.8876    121.93114    1818.6989   -6156.6794   -6556.4496    75.264641 
   91600    582.42402   -164.34013   0.52698949   -163.81314    6865.2043    4.2231919    4.2231919    4.2231919    6865.2043    19171.784    8373.4183   -6949.5888   -5351.2238   -4392.8346   -4456.9091    75.322102 
   91700    603.55227   -164.35879   0.54610677   -163.81269   -4270.5796    4.2231162    4.2231162    4.2231162   -4270.5796   -3555.2295   -6375.3679   -2881.1413   -10336.784   -1871.7688   -273.35824    75.318054 
   91800    515.03381   -164.27993   0.46601341   -163.81392     -1379.41    4.2202159    4.2202159    4.2202159     -1379.41   -9279.8944   -221.56339    5363.2277   -13005.563    369.48265    -365.1934    75.162982 
   91900    287.54565   -164.07577   0.26017734   -163.81559    3079.2767    4.2237349    4.2237349    4.2237349    3079.2767   -8038.2522     8281.885    8994.1972   -20939.882    3321.7326   -1959.1504    75.351161 
   92000    260.70279   -164.05069   0.23588936    -163.8148     3184.746    4.2208585    4.2208585    4.2208585     3184.746   -4584.1885     3365.309    10773.117   -27602.397     1400.278   -865.22558    75.197324 
   92100    350.72541   -164.13205   0.31734372   -163.81471     -6724.23    4.2234757    4.2234757    4.2234757     -6724.23   -13564.816   -7742.6032    1134.7289   -15834.705    15078.894    2792.2803    75.337289 
   92200    262.83325   -164.05235   0.23781705   -163.81453   -312.68964    4.2239192    4.2239192    4.2239192   -312.68964   -16232.951    10860.342    4434.5408   -24254.573    7961.6944   -2231.3668    75.361026 
   92300    261.14931   -164.05175   0.23629338   -163.81546   -2369.2895    4.2207598    4.2207598    4.2207598   -2369.2895   -4003.6783   -6265.8437    3161.6536   -23188.428    10595.831   -609.49471    75.192046 
   92400    439.21396   -164.21234   0.39741002   -163.81493   -1391.5951    4.2198054    4.2198054    4.2198054   -1391.5951   -5113.3024    7865.9816   -6927.4644   -9586.7056    14447.833    4828.2325     75.14105 
   92500    466.76655   -164.23606   0.42234018   -163.81372   -3406.1532    4.2271203    4.2271203    4.2271203   -3406.1532    6935.9261   -164.80909   -16989.577   -7535.8507    5849.5008   -2572.8918    75.532495 
   92600    509.92012   -164.27412   0.46138644   -163.81273    3307.1004    4.2214901    4.2214901    4.2214901    3307.1004    8801.6753    4956.4353   -3836.8093    -6240.213    5250.8942   -3244.4143    75.231086 
   92700    729.43019   -164.47113   0.66000376   -163.81113    5433.2227    4.2193852    4.2193852    4.2193852    5433.2227    6892.6261    6892.3754    2514.6666    5235.2646   -1808.8792   -3972.8972    75.118608 
   92800    748.15544   -164.48741   0.67694677   -163.81046   -10038.703    4.2289061    4.2289061    4.2289061   -10038.703    5602.6561   -15858.382   -19860.385    9188.4736    2573.9815    2367.6964    75.628264 
   92900    635.20065   -164.38534    0.5747429    -163.8106    13205.231    4.2211008    4.2211008    4.2211008    13205.231    24960.259    19931.559   -5276.1254    1177.7222   -5863.3345    -5267.591    75.210276 
   93000    718.76535   -164.46084   0.65035399   -163.81049    2840.8988    4.2197487    4.2197487    4.2197487    2840.8988    2273.1827    2359.0807    3890.4331    4936.7866    -4940.457   -7036.2097    75.138023 
   93100    724.97248   -164.46797   0.65597033     -163.812   -13725.083    4.2294397    4.2294397    4.2294397   -13725.083   -9575.5666   -20156.105   -11443.577    6052.7703    2920.3863    1026.3152    75.656897 
   93200    546.71236   -164.30855   0.49467683   -163.81387    8633.4917    4.2195684    4.2195684    4.2195684    8633.4917    17929.753    17996.133   -10025.411   -10236.165   -3151.8519    886.09862    75.128394 
   93300    476.12089   -164.24544   0.43080418   -163.81464    -5892.849    4.2215878    4.2215878    4.2215878    -5892.849   -15803.291      41.0545   -1916.3104   -10004.214    4677.4565   -4230.3241    75.236307 
   93400    449.95063   -164.22137   0.40712478   -163.81424   -3696.0478    4.2287319    4.2287319    4.2287319   -3696.0478   -6004.2464   -7562.2096    2478.3127   -11643.477    5772.5689   -429.86442    75.618916 
   93500    358.09603     -164.138   0.32401281   -163.81399   -5431.2441     4.220604     4.220604     4.220604   -5431.2441   -10932.207   -3494.9252   -1866.6001   -22517.403    12658.054    2801.0997     75.18372 
   93600    277.39706   -164.06546   0.25099469   -163.81446   -3025.4204    4.2188591    4.2188591    4.2188591   -3025.4204    -12061.05    345.12587    2639.6628   -26316.347    9506.3112    632.20585    75.090514 
   93700    241.34924   -164.03292   0.21837786   -163.81454   -3693.3234    4.2289015    4.2289015    4.2289015   -3693.3234   -15593.017   -518.46892    5031.5158   -18512.197    6625.5842   -4054.7175    75.628017 
   93800    226.80921   -164.01863   0.20522174   -163.81341   -5283.6722    4.2221521    4.2221521    4.2221521   -5283.6722   -20772.116   -1895.8552    6816.9548   -24016.202    15010.369    4518.1197    75.266481 
   93900    331.23781   -164.11377   0.29971093   -163.81406    4699.5803    4.2185904    4.2185904    4.2185904    4699.5803    5313.0678    6748.3446    2037.3285   -24401.659    3645.2725   -11.272718    75.076164 
   94000    521.91304   -164.28674   0.47223788    -163.8145   -10631.146    4.2268547    4.2268547    4.2268547   -10631.146   -13236.503   -10562.919   -8094.0154   -7268.8631     1438.964    -5523.217    75.518258 
   94100    501.22849   -164.26694   0.45352207   -163.81342    1668.1017    4.2231524    4.2231524    4.2231524    1668.1017   -4646.5698    6907.5644    2743.3104   -9055.9531    2886.8281    891.34608    75.319991 
   94200    488.14889   -164.25438   0.44168738   -163.81269    13092.914    4.2195232    4.2195232    4.2195232    13092.914    24159.787    17273.674   -2154.7204   -5249.3179   -529.01816   -6575.0059    75.125979 
   94300    736.18242   -164.47688   0.66611332   -163.81077   -7857.6772    4.2270278    4.2270278    4.2270278   -7857.6772    3492.0142   -5868.3764   -21196.669    4074.9797   -4249.1422   -690.85279    75.527536 
   94400    815.83814   -164.54699   0.73818749   -163.80881   -8622.3589      4.22532      4.22532      4.22532   -8622.3589   -5948.8197   -6208.2581   -13709.999    8499.0396   -8277.9639   -5876.1695    75.436027 
   94500    636.10309    -164.3838   0.57555944   -163.80824    12749.643    4.2189052    4.2189052    4.2189052    12749.643    29327.778    18542.316   -9621.1637    1422.4034     690.4473     224.0121    75.092974 
   94600    647.05533    -164.3951   0.58546926   -163.80963    2117.7935    4.2265963    4.2265963    4.2265963    2117.7935    8949.0799    14489.717   -17085.417    3889.5723    1420.4875    1422.8508    75.504405 
   94700    722.16329   -164.46537   0.65342852   -163.81194   -5993.4367    4.2238587    4.2238587    4.2238587   -5993.4367   -5170.4461   -2765.1765   -10044.687    5378.7341   -2450.4306   -2501.7206    75.357786 
   94800    562.56628   -164.32344   0.50902179   -163.81441    4651.3745     4.218961     4.218961     4.218961    4651.3745      12873.5    10955.152   -9874.5283   -11143.089    6155.9531    1725.1902    75.095951 
   94900     457.0246   -164.22845   0.41352546   -163.81492   -6431.3373    4.2266452    4.2266452    4.2266452   -6431.3373   -8555.6078   -4008.9646   -6729.4396   -10271.106     10388.31    3106.9528    75.507029 
   95000    380.88063   -164.15845   0.34462879   -163.81382    451.17959    4.2237829    4.2237829    4.2237829    451.17959   -8315.0128    725.62303    8942.9285   -11545.671     9594.733     2390.386    75.353733 
   95100    305.90762   -164.09101   0.27679164   -163.81422   -2678.6976    4.2192729    4.2192729    4.2192729   -2678.6976   -5787.3939    1434.0537   -3682.7526   -22581.143     7269.416   -588.66223    75.112612 
   95200     333.3675   -164.11607   0.30163792   -163.81443   -4937.2119    4.2264172    4.2264172    4.2264172   -4937.2119    -6155.868   -5409.8574   -3245.9102   -22055.711     11690.18    272.55428    75.494811 
   95300    311.47161   -164.09436   0.28182606   -163.81254   -481.43852    4.2253638    4.2253638    4.2253638   -481.43852   -11693.497    -7467.738     17716.92   -17940.817    9501.2671    3554.1583    75.438373 
   95400    288.11892   -164.07141   0.26069605   -163.81072    123.59958    4.2204754    4.2204754    4.2204754    123.59958    -5911.814    -11249.74    17532.353   -18711.478   -1688.2786   -2116.0606    75.176849 
   95500    368.29189   -164.14407   0.33323824   -163.81083   -2279.6592    4.2263318    4.2263318    4.2263318   -2279.6592    7225.5138   -9900.2942   -4164.1971   -21224.056    2410.4694     33.52678    75.490234 
   95600    458.51417   -164.22685   0.41487326   -163.81198   -3098.1654    4.2231948    4.2231948    4.2231948   -3098.1654   -12097.215   -16503.963    19306.681   -13253.613   -400.51925   -802.06162    75.322262 
   95700    456.33207   -164.22547   0.41289884   -163.81257    2871.1272    4.2209824    4.2209824    4.2209824    2871.1272   -4934.9743   -13106.631    26654.987   -7107.2363   -9123.8442   -1057.7924    75.203946 
   95800    565.44823   -164.32328   0.51162944   -163.81165   -3895.6763     4.227033     4.227033     4.227033   -3895.6763    9597.4134   -10486.654   -10797.788   -9425.9858   -5371.9849    265.61968    75.527816 
   95900     651.7514   -164.40079   0.58971836   -163.81107    -1798.628    4.2236916    4.2236916    4.2236916    -1798.628   -11604.427   -10959.291    17167.833   -827.28633    2015.8727    1236.2261    75.348844 
   96000    632.98812   -164.38403   0.57274096   -163.81129    6305.4144    4.2207554    4.2207554    4.2207554    6305.4144   -1569.6486   -1981.0458    22466.938    4238.9571   -4044.2083    2468.6462    75.191814 
   96100    690.65916   -164.43644   0.62492292   -163.81152    -8845.776    4.2272443    4.2272443    4.2272443    -8845.776    3168.4235   -12416.627   -17289.125    6718.4761    4293.8794   -1778.2634     75.53914 
   96200    654.70839   -164.40297   0.59239391   -163.81058   -1824.7951     4.223449     4.223449     4.223449   -1824.7951   -7025.8461   -2706.6577    4258.1185     4190.714    12185.078    4504.2716    75.335865 
   96300    553.97504   -164.31158   0.50124825   -163.81033    4456.4765    4.2203989    4.2203989    4.2203989    4456.4765   -8327.8143    4245.8615    17451.382    8056.5412    6640.5976    1105.1025    75.172764 
   96400    594.60707   -164.34812   0.53801297   -163.81011   -7958.5525    4.2277209    4.2277209    4.2277209   -7958.5525   -3603.1522   -7876.7019   -12395.803    6237.2805    8933.2728   -1781.0738    75.564696 
   96500    607.08142   -164.36004   0.54930003   -163.81074   -2850.1367    4.2225881    4.2225881    4.2225881   -2850.1367   -9967.1401    5518.0457   -4101.3157   -492.11257    12107.432   -1092.1775    75.289804 
   96600    466.35718   -164.23423   0.42196977   -163.81226    4106.6332    4.2198353    4.2198353    4.2198353    4106.6332   -12909.226   -2919.9314    28149.057    -4025.706    8106.3167    2763.2274    75.142649 
   96700    490.66246   -164.25623   0.44396171   -163.81227   -774.25019    4.2263736    4.2263736    4.2263736   -774.25019    3906.4941   -4636.9705   -1592.2741   -5920.1121   -3136.8184   -2502.1379    75.492474 
   96800    564.97362   -164.32256       0.5112   -163.81136   -5931.7322    4.2244067    4.2244067    4.2244067   -5931.7322   -6509.7058   -8461.8694   -2823.6213   -14336.111     6021.971   -2326.4556    75.387123 
   96900    394.68746   -164.16929   0.35712151   -163.81217    3768.0425    4.2206485    4.2206485    4.2206485    3768.0425   -10425.385    -20622.68    42352.192   -18566.431   -6244.8508    1379.4191    75.186099 
   97000    360.11703   -164.13894   0.32584145    -163.8131    1662.2972    4.2259909    4.2259909    4.2259909    1662.2972    6494.1236   -12183.224    10675.992   -15786.451   -8929.1617    2864.9244    75.471968 
   97100    505.26801   -164.27008   0.45717711    -163.8129   -9883.4684    4.2222469    4.2222469    4.2222469   -9883.4684   -10546.062   -22758.879     3654.536   -22907.574    1157.5727    -3691.883    75.271553 
   97200    409.48947   -164.18446   0.37051468   -163.81395   -405.54775    4.2222775    4.2222775    4.2222775   -405.54775   -7362.3629   -17230.689    23376.408   -21244.019   -3297.8451    2024.3077    75.273189 
   97300    307.07782   -164.09218   0.27785046   -163.81433    1595.2385    4.2268472    4.2268472    4.2268472    1595.2385   -6701.0555   -10138.805    21625.576   -11757.483   -2118.3765    5190.3975    75.517856 
   97400    489.55451   -164.25572   0.44295921   -163.81276   -7816.9957     4.220169     4.220169     4.220169   -7816.9957    -14344.61   -20206.536    11100.159   -18753.372    3691.9969   -1110.9313    75.160479 
   97500    531.36759   -164.29292   0.48079257   -163.81212   -3087.1481    4.2221807    4.2221807    4.2221807   -3087.1481   -412.84839   -7370.3352   -1478.2606   -8850.8859    11408.105    510.47041     75.26801 
   97600    400.15738   -164.17392   0.36207081   -163.81185    439.39459    4.2281329    4.2281329    4.2281329    439.39459   -6395.2015   -7087.0959    14800.481    229.92801    1500.3027    2361.7821    75.586787 
   97700    525.80843   -164.28616   0.47576252    -163.8104    3837.4446    4.2192763    4.2192763    4.2192763    3837.4446   -3712.0858    3927.1168    11297.303   -3129.5241    6272.6948    2933.9962    75.112793 
   97800    733.56898   -164.47366   0.66374863   -163.80991    23.390667    4.2214978    4.2214978    4.2214978    23.390667    1434.8312    3966.6014   -5331.2606    2558.9945    7013.4982   -3265.2476    75.231495 
   97900    644.68758   -164.39299   0.58332687   -163.80966   -2697.2639    4.2291568    4.2291568    4.2291568   -2697.2639    637.24042   -11229.759    2500.7268    6392.7849   -2542.1359       2613.4    75.641712 
   98000    578.87682   -164.33346   0.52377991   -163.80968    13793.809     4.220497     4.220497     4.220497    13793.809    14213.045    20457.085    6711.2976    11149.487   -4594.5146    4712.6434    75.178003 
   98100    736.87151   -164.47641   0.66673683   -163.80968   -2085.0659    4.2217781    4.2217781    4.2217781   -2085.0659   -6215.5914   -1233.9759    1194.3697    780.99539   -2548.4363   -2761.7259    75.246483 
   98200    640.50201   -164.39188   0.57953968   -163.81234   -9507.8664    4.2290636    4.2290636    4.2290636   -9507.8664   -2626.7241   -19162.889   -6733.9865    2297.0084   -3230.5773    -1253.023    75.636713 
   98300    429.41984   -164.20154   0.38854809     -163.813    12225.455    4.2212556    4.2212556    4.2212556    12225.455    7579.1935    1938.8982    27158.272    2876.1788    -11615.59    6139.0876    75.218549 
   98400      503.397   -164.26733   0.45548418   -163.81185   -5033.9848    4.2240105    4.2240105    4.2240105   -5033.9848   -23034.774   -7925.9245    15858.744   -11112.558    400.23852    3129.8284    75.365915 
   98500     498.3684    -164.2625    0.4509342   -163.81156   -10432.109    4.2296393    4.2296393    4.2296393   -10432.109   -8865.8409   -11326.907   -11103.578    -12491.83     3454.075   -4648.5123    75.667606 
   98600    360.42657   -164.13868   0.32612154   -163.81256    5398.9006    4.2184682    4.2184682    4.2184682    5398.9006   -3240.8787   -15698.869    35136.449   -16652.451   -2566.4167    1816.5292    75.069643 
   98700    332.83734   -164.11503   0.30115822   -163.81387   -3460.3955    4.2240768    4.2240768    4.2240768   -3460.3955   -25717.711   -10301.394    25637.918   -21081.133     5415.062    5124.9491    75.369465 
   98800    384.78292   -164.15986   0.34815967    -163.8117    -4431.871    4.2299128    4.2299128    4.2299128    -4431.871   -7244.7033   -4895.6726   -1155.2372   -23001.836    7501.8261   -2487.4485    75.682288 
   98900    384.31553   -164.15759   0.34773677   -163.80986   -7676.1678    4.2193677    4.2193677    4.2193677   -7676.1678   -11551.705   -23481.325    12004.526   -26269.305    3968.8111   -2869.3845    75.117674 
   99000    290.18734   -164.07455   0.26256761   -163.81198    3412.5867     4.223136     4.223136     4.223136    3412.5867   -23229.607       3005.1    30462.267   -16752.923    195.08048    5559.2441    75.319117 
   99100    374.73159   -164.15212   0.33906502   -163.81305   -753.98407    4.2278048    4.2278048    4.2278048   -753.98407   -5018.2877   -8645.0015    11401.337   -16872.719    3213.7703    3173.4429    75.569195 
   99200    545.51741   -164.30446   0.49359562   -163.81087   -7762.0434    4.2221278    4.2221278    4.2221278   -7762.0434   -3351.9528   -14260.522   -5673.6555   -14878.254   -3368.7013    -3544.554    75.265182 
   99300    561.39351   -164.31804   0.50796064   -163.81008    158.85823    4.2237311    4.2237311    4.2237311    158.85823   -10886.271    3371.1683    7991.6774   -2054.8856   -10953.479    543.49525     75.35096 
   99400    478.59247    -164.2436   0.43304052   -163.81056    3171.9396    4.2270458    4.2270458    4.2270458    3171.9396    3201.6057    3504.7883    2809.4248   -1263.6543   -1774.5088    6895.4864    75.528498 
   99500    533.09585   -164.29227   0.48235633   -163.80992    7464.8122    4.2195307    4.2195307    4.2195307    7464.8122    19860.656    5902.0587    -3368.278   -1659.1813    -5507.227   -1602.6618    75.126379 
   99600    715.42962   -164.45708   0.64733575   -163.80974   -6796.0959    4.2254928    4.2254928    4.2254928   -6796.0959    4774.2012   -10309.017   -14853.472    7687.9902   -6927.5516   -2415.6554    75.445283 
   99700    658.17746   -164.40466    0.5955328   -163.80913   -8077.5731    4.2284348    4.2284348    4.2284348   -8077.5731   -4213.5491   -3178.4815   -16840.689    6744.6325   -1337.5001    1169.1236     75.60298 
   99800    500.60333     -164.262   0.45295641   -163.80904    15516.783    4.2177604    4.2177604    4.2177604    15516.783    20708.668    18930.735    6910.9462   -200.37835    9626.5612    2289.1618    75.031858 
   99900    654.49024   -164.40226   0.59219652   -163.81006   -3929.8532    4.2261444    4.2261444    4.2261444   -3929.8532    2550.0558   -875.86558    -13463.75    1644.1348    6997.8733    1564.5571    75.480192 
  100000    709.17656   -164.45238   0.64167786    -163.8107   -12943.325    4.2277006    4.2277006    4.2277006   -12943.325   -12033.764   -12455.487   -14340.723    3043.2591    3766.0819   -5832.4915    75.563604 
Loop time of 35.1251 on 1 procs for 100000 steps with 8 atoms

Pair  time (%) = 11.8744 (33.8059)
Kspce time (%) = 8.24539 (23.4743)
Neigh time (%) = 0 (0)
Comm  time (%) = 1.6848 (4.79656)
Outpt time (%) = 0.0978093 (0.27846)
Other time (%) = 13.2228 (37.6448)

Nlocal:    8 ave 8 max 8 min
Histogram: 1 0 0 0 0 0 0 0 0 0
Nghost:    2189 ave 2189 max 2189 min
Histogram: 1 0 0 0 0 0 0 0 0 0
Neighs:    2472 ave 2472 max 2472 min
Histogram: 1 0 0 0 0 0 0 0 0 0

Total # of neighbors = 2472
Ave neighs/atom = 309
Neighbor list builds = 0
Dangerous builds = 0
unfix 20
unfix 21
print "seeds:5179535"
seeds:5179535
