LAMMPS (10 Feb 2015)
# ---- initialize simulations
clear
units metal
dimension 3
boundary p p p
atom_style charge
atom_modify map array
# ---- create atoms
read_data /Users/eugeneragasa/pyflamestk_git/pypospack/tests/tests_integration/workflow/WorkflowLammpsThermalExpansion/param_2424/MgO_NaCl_unit.npt.T1500/lammps.structure
  triclinic box = (0 0 0) to (4.2565 4.2565 4.2565) with tilt (0 0 0)
  1 by 1 by 1 MPI processor grid
  reading atoms ...
  8 atoms
# ---- define interatomic potential
include potential.mod
mass 1 24.305
mass 2 15.999

group Mg type 1
4 atoms in group Mg
group O type 2
4 atoms in group O

set group Mg charge 1.67924051174
  4 settings made for charge
set group O charge -1.67924051174
  4 settings made for charge

variable R_cut equal 10.0

pair_style buck/coul/long ${R_cut}
pair_style buck/coul/long 10
pair_coeff 1 1 0.0 0.5 0.0 ${R_cut}
pair_coeff 1 1 0.0 0.5 0.0 10
pair_coeff 1 2 1306.98043044 0.288034123545 0.0 ${R_cut}
pair_coeff 1 2 1306.98043044 0.288034123545 0.0 10
pair_coeff 2 2 2032.48006166 0.252585756474 14.8401495582 ${R_cut}
pair_coeff 2 2 2032.48006166 0.252585756474 14.8401495582 10

kspace_style pppm 1.0e-5

neighbor 1.0 bin
neigh_modify every 1 delay 0 check yes
# ---- define settings
compute eng all pe/atom
compute eatoms all reduce sum c_eng
# ---- run minimization
reset_timestep 0
fix 1 all box/relax iso 0.0 vmax 0.001
thermo 10
thermo_style custom step pe lx ly lz xy xz yz press pxx pyy pzz pxy pxz pyz c_eatoms
min_style cg
minimize 1e-25 1e-25 5000 10000
PPPM initialization ...
  G vector (1/distance) = 0.352997
  grid = 8 8 8
  stencil order = 5
  estimated absolute RMS force accuracy = 4.02799e-05
  estimated relative force accuracy = 2.79728e-06
  using double precision FFTs
  3d grid and FFT values/proc = 3375 512
Neighbor list info ...
  1 neighbor list requests
  update every 1 steps, delay 0 steps, check yes
  master list distance cutoff = 11
Memory usage per processor = 4.06549 Mbytes
Step PotEng Lx Ly Lz Xy Xz Yz Press Pxx Pyy Pzz Pxy Pxz Pyz eatoms 
       0   -114.09861       4.2565       4.2565       4.2565            0            0            0    83013.551    83013.551    83013.551    83013.551 1.023811e-10 -6.100653e-11 -2.0427431e-10   -114.09861 
      10   -114.17745     4.299065     4.299065     4.299065            0            0            0    27173.213    27173.213    27173.213    27173.213 -1.7620305e-11 8.177727e-11 3.0587737e-11   -114.17745 
      19   -114.18814    4.3219883    4.3219883    4.3219883            0            0            0 -0.014642896 -0.014642896 -0.014642896 -0.014642896 -4.2788838e-11 1.5607732e-10 -4.5124802e-11   -114.18814 
Loop time of 0.00851989 on 1 procs for 19 steps with 8 atoms

Minimization stats:
  Stopping criterion = linesearch alpha is zero
  Energy initial, next-to-last, final = 
        -114.098610965     -114.188144107     -114.188144107
  Force two-norm initial, final = 11.9872 7.95763e-05
  Force max component initial, final = 11.9872 1.65313e-05
  Final line search alpha, max atom move = 0.5 8.26564e-06
  Iterations, force evaluations = 19 24

Pair  time (%) = 0.00233936 (27.4577)
Kspce time (%) = 0.00132728 (15.5786)
Neigh time (%) = 0 (0)
Comm  time (%) = 0.000248909 (2.92151)
Outpt time (%) = 1.69277e-05 (0.198685)
Other time (%) = 0.00458741 (53.8436)

Nlocal:    8 ave 8 max 8 min
Histogram: 1 0 0 0 0 0 0 0 0 0
Nghost:    2189 ave 2189 max 2189 min
Histogram: 1 0 0 0 0 0 0 0 0 0
Neighs:    2344 ave 2344 max 2344 min
Histogram: 1 0 0 0 0 0 0 0 0 0

Total # of neighbors = 2344
Ave neighs/atom = 293
Neighbor list builds = 0
Dangerous builds = 0
unfix 1
# ---- define output variables ----
variable natoms equal "count(all)"
variable tot_energy equal "c_eatoms"
variable length_x equal "lx"
variable length_y equal "ly"
variable length_z equal "lz"
variable tilt_xy equal "xy"
variable tilt_xz equal "xz"
variable tilt_yz equal "yz"
variable tot_press equal "press"
variable press_xx equal "pxx"
variable press_yy equal "pyy"
variable press_zz equal "pzz"
variable press_xy equal "pxy"
variable press_xz equal "pxz"
variable press_yz equal "pyz"

# ---- output ----
print "pypospack:output_section:begin"
pypospack:output_section:begin
print "tot_energy = ${tot_energy}"
tot_energy = -114.188144106894
print "num_atoms = ${natoms}"
num_atoms = 8
print "xx = ${length_x}"
xx = 4.32198834005221
print "yy = ${length_y}"
yy = 4.32198834005221
print "zz = ${length_z}"
zz = 4.32198834005221
print "xy = ${tilt_xy}"
xy = 0
print "xz = ${tilt_xz}"
xz = 0
print "yz = ${tilt_yz}"
yz = 0
print "tot_press = ${tot_press}"
tot_press = -0.0146428956780545
print "pxx = ${press_xx}"
pxx = -0.0146428956419126
print "pyy = ${press_yy}"
pyy = -0.0146428958165915
print "pzz = ${press_zz}"
pzz = -0.0146428955756593
print "pxy = ${press_xy}"
pxy = -4.27888380608005e-11
print "pxz = ${press_xz}"
pxz = 1.56077321107314e-10
print "pyz = ${press_yz}"
pyz = -4.51248020389503e-11
print "pypospack:output_section:done"
pypospack:output_section:done
print "pypospack:lammps_sim:done"
pypospack:lammps_sim:done
#------------------------------------------------------------------------------
# RUN THERMOSTAT
# running using an NPT Nose-Hoover style thermostat
#------------------------------------------------------------------------------
variable tempdamp equal 0.1
variable pressdamp equal 1.0
# set initial velocities
velocity all create 1500 8439522 mom yes dist gaussian loop all
# fix for Nose-Hoover style thermostat
fix 20 all npt temp 1500 1500 0.1 aniso 0.0 0.0 1.0 drag 1.0 couple xyz
variable boxx equal lx
variable boxy equal ly
variable boxz equal lz
variable boxp equal press
variable boxt equal temp
# calculate averages every 10000 steps
reset_timestep 0
fix 21 all ave/time 10 10 100 v_boxx v_boxy v_boxz v_boxp v_boxt file lattice.out
thermo_style custom step temp pe ke etotal press lx ly lz press pxx pyy pzz pxy pxz pyz vol
thermo_modify flush yes
thermo 100
run 100000
PPPM initialization ...
  G vector (1/distance) = 0.35233
  grid = 8 8 8
  stencil order = 5
  estimated absolute RMS force accuracy = 4.15437e-05
  estimated relative force accuracy = 2.88505e-06
  using double precision FFTs
  3d grid and FFT values/proc = 3375 512
Memory usage per processor = 3.06549 Mbytes
Step Temp PotEng KinEng TotEng Press Lx Ly Lz Press Pxx Pyy Pzz Pxy Pxz Pyz Volume 
       0         1500   -114.18815    1.3572315   -112.83092    17954.679    4.3219883    4.3219883    4.3219883    17954.679    11543.488    25230.872    17089.677   -1423.1187    1948.1524   -5506.1266    80.732941 
     100    1033.6434   -113.57791    0.9352623   -112.64265    13202.873    4.3457048    4.3457048    4.3457048    13202.873    9347.4114    18515.159    11746.049   -2869.7995    1090.3429    100.01033    82.069286 
     200    1403.3158   -113.55189    1.2697496   -112.28214    -25743.19    4.3732047    4.3732047    4.3732047    -25743.19   -27151.593   -21051.896   -29026.081   -1592.4059     5706.398    12951.934    83.637185 
     300    1604.7948    -113.4004     1.452052   -111.94835    14169.116    4.3701073    4.3701073    4.3701073    14169.116    -15448.52    28497.507     29458.36    3104.2296    1773.0586    6252.3658    83.459599 
     400    1760.1763   -113.29136    1.5926445   -111.69871    1134.9747    4.3603443    4.3603443    4.3603443    1134.9747    1560.4939   -10729.989    12574.419    2.4940929   -6567.1302   -3163.6722    82.901495 
     500    808.00495   -112.26846   0.73109986   -111.53736    5085.7853     4.364484     4.364484     4.364484    5085.7853    11064.677    -41520.99    45713.669   -6492.9571    12041.868    16102.145    83.137835 
     600    1187.1529   -112.53762    1.0741609   -111.46346   -25000.974     4.381192     4.381192     4.381192   -25000.974   -28886.568    -56257.18    10140.826    3997.3002    1269.8715    2580.3039    84.096292 
     700    998.74497   -112.32932   0.90368544   -111.42563    7867.7376     4.382126     4.382126     4.382126    7867.7376    10411.617   -13105.887    26297.483    2683.2456   -9332.3545   -3386.7279    84.150087 
     800    778.46931   -112.12789   0.70437539   -111.42352    16732.162     4.368511     4.368511     4.368511    16732.162   -4027.1119    4756.9859    49466.611    4399.0689    12150.993    12041.496    83.368177 
     900     715.9974   -112.08711   0.64784949   -111.43926   -15768.838    4.3785785    4.3785785    4.3785785   -15768.838   -39217.404   -49589.313    41500.201    1806.1978    231.31137   -3578.4468    83.945888 
    1000    1548.9993   -112.83156    1.4015671   -111.42999   -39310.288     4.385916     4.385916     4.385916   -39310.288    -37597.93   -64705.452   -15627.484    -7788.321   -6580.9055    113.14209    84.368619 
    1100    1358.8324   -112.66194    1.2295001   -111.43244    22117.635    4.3678514    4.3678514    4.3678514    22117.635    43657.518   -14771.014    37466.402    8159.8842    9822.4535    24258.363    83.330421 
    1200    1646.0804   -112.92945    1.4894081   -111.44004    11191.983    4.3653564    4.3653564    4.3653564    11191.983   -27885.036    38524.178    22936.806    6077.9717    8553.1557     1360.635    83.187702 
    1300    1941.9906   -113.20734    1.7571539   -111.45018   -2370.0572    4.3797275    4.3797275    4.3797275   -2370.0572   -33602.396   -3845.1641    30337.388   -4781.7566   -6525.9374   -5308.8937    84.011992 
    1400    2253.9139   -113.48586    2.0393887   -111.44647   -10994.103    4.3808416    4.3808416    4.3808416   -10994.103    -17345.68    1330.0523   -16966.682   -3842.7921   -5380.6697    10027.045    84.076117 
    1500    1990.2413   -113.24334    1.8008122   -111.44252    6923.9523    4.3702979    4.3702979    4.3702979    6923.9523   -1241.3058    9430.7304    12582.432   -10262.915    8421.2391    11533.985    83.470519 
    1600    2124.9131   -113.36379     1.922666   -111.44113    5635.4771    4.3658791    4.3658791    4.3658791    5635.4771     23901.41   -1851.9594   -5143.0192   -279.19135   -9385.6352    3776.9499    83.217587 
    1700    2151.3814   -113.39491    1.9466151    -111.4483    7085.2706    4.3743883    4.3743883    4.3743883    7085.2706    4203.9376    7361.7255    9690.1487    3048.3191    4506.6263   -19752.641    83.705115 
    1800    1748.0029   -113.03056    1.5816298   -111.44893   -11931.665    4.3896404    4.3896404    4.3896404   -11931.665    12037.929   -25468.974   -22363.949   -7196.8078    14534.906   -5858.6846    84.583729 
    1900    1369.7033   -112.67406    1.2393363   -111.43472   -9981.6495    4.3824771    4.3824771    4.3824771   -9981.6495   -3300.1405   -46036.421    19391.613   -5345.5495   -13810.747    8969.6803     84.17032 
    2000    1478.1368   -112.75814    1.3374493    -111.4207   -7560.4234    4.3644006    4.3644006    4.3644006   -7560.4234    7628.1101   -38661.418    8352.0373   -217.66123     -5637.73    5551.9936    83.133069 
    2100     685.7425   -112.06151   0.62047423   -111.44103    2098.9952    4.3737299    4.3737299    4.3737299    2098.9952   -11217.315   -27740.808    45255.109    1645.7893    15868.711   -8662.0482    83.667323 
    2200    957.05712   -112.30025    0.8659654   -111.43429   -29232.312    4.3900095    4.3900095    4.3900095   -29232.312   -35042.988   -49146.321   -3507.6281    1171.2841   -1561.0134    7113.4235    84.605069 
    2300    1131.0926   -112.45209    1.0234364   -111.42866    9079.8515    4.3756987    4.3756987    4.3756987    9079.8515   -1201.1096    -3559.914    32000.578   -6429.9703    1204.6296   -5267.0661     83.78036 
    2400    1089.0686    -112.4176   0.98541211   -111.43219     8723.467     4.359096     4.359096     4.359096     8723.467   -15548.286    15733.592    25985.095    7302.6049    19425.463   -717.97523    82.830311 
    2500     1027.999   -112.38994   0.93015506   -111.45978   -6089.3849    4.3725584    4.3725584    4.3725584   -6089.3849   -32483.878   -20860.892    35076.616    6805.0409    5835.2214    14765.235    83.600112 
    2600    1636.8228   -112.92374    1.4810317   -111.44271   -27147.801     4.392911     4.392911     4.392911   -27147.801   -42978.879   -23826.916   -14637.609    8000.8406    333.32696   -13546.732    84.772935 
    2700    1846.4298   -113.09905    1.6706885   -111.42836   -7106.8169    4.3781788    4.3781788    4.3781788   -7106.8169   -14080.205    4992.8253    -12233.07    358.61053    4288.4364    896.60605    83.922902 
    2800    1935.9186    -113.1771    1.7516599   -111.42544    17523.813    4.3626978    4.3626978    4.3626978    17523.813    16441.493    17409.931    18720.014   -17519.492   -2036.3618    17767.525    83.035801 
    2900    2202.7439   -113.43285    1.9930889   -111.43976    4992.6581    4.3783386    4.3783386    4.3783386    4992.6581    19574.755   -9526.4574    4929.6764    715.07612    1826.2642   -13321.099    83.932089 
    3000    2315.1251   -113.52701    2.0947738   -111.43224   -18519.319    4.3865837    4.3865837    4.3865837   -18519.319    -10050.68   -11770.025   -33737.252      9750.18    21566.692    211.82302    84.407156 
    3100    1782.9674   -113.04521    1.6132663   -111.43195    4336.8503    4.3835415    4.3835415    4.3835415    4336.8503    14749.393    8.3025198   -1747.1443   -1338.5551    17009.402    7687.9034    84.231664 
    3200    2302.0382   -113.51157    2.0829326   -111.42863   -410.60452    4.3677928    4.3677928    4.3677928   -410.60452    43175.757   -23088.027   -21319.544   -15037.355   -9987.2807   -2663.6095    83.327064 
    3300    1607.4406   -112.89551    1.4544461   -111.44106    50341.833    4.3513001    4.3513001    4.3513001    50341.833    32985.591    83281.789    34758.118   -7542.7568   -3477.7375   -2509.8717    82.386701 
    3400    1472.4111   -112.80081    1.3322685   -111.46854    -11658.21    4.3840108    4.3840108    4.3840108    -11658.21   -8554.1821    -9430.298   -16990.149    9773.8936    15814.668    2795.2672    84.258718 
    3500    1587.6566   -112.87445     1.436545   -111.43791   -32994.395    4.3891103    4.3891103    4.3891103   -32994.395   -35772.395   -39357.781   -23853.009    5968.8717    523.22558    2028.1528    84.553091 
    3600    956.63162   -112.29073    0.8655804   -111.42515    42369.866    4.3432449    4.3432449    4.3432449    42369.866    24613.009    52152.162    50344.428   -12111.876    8611.3107   -282.06149    81.929999 
    3700    914.88603   -112.28299   0.82780811   -111.45518    15265.964    4.3540873    4.3540873    4.3540873    15265.964   -30969.725    52948.089    23819.528   -5272.8085    18520.774    8154.3691    82.545117 
    3800    1025.4628   -112.36806   0.92786028    -111.4402   -40860.925    4.3909314    4.3909314    4.3909314   -40860.925   -80044.412   -32547.727   -9990.6345    3483.8873    -11266.22    18087.358    84.658383 
    3900    878.38409   -112.21914   0.79478038   -111.42436   -8380.8918    4.3745902    4.3745902    4.3745902   -8380.8918   -46980.484     3939.808        17898     5196.965    2506.8572   -5509.2419    83.716705 
    4000    795.06048   -112.14389   0.71938743    -111.4245    14085.494    4.3654199    4.3654199    4.3654199    14085.494   -14133.612   -61.033999    56451.127    1531.2011    16509.094   -3583.2267    83.191331 
    4100    1496.4412   -112.78939    1.3540114   -111.43538   -22418.318    4.3758071    4.3758071    4.3758071   -22418.318   -34097.863   -30684.136   -2472.9557   -12613.921   -15982.883    1711.6701    83.786589 
    4200    1345.2262   -112.65988     1.217189    -111.4427    6288.0939    4.3732953    4.3732953    4.3732953    6288.0939   -2312.2093   -24189.837    45366.328   -8175.6492    606.40515     -7157.26    83.642388 
    4300    1733.2234   -113.01203     1.568257   -111.44377   -16127.877    4.3818562    4.3818562    4.3818562   -16127.877    5109.3497   -37124.111   -16368.871    13635.755    28795.065   -726.86612    84.134548 
    4400    1836.8544   -113.09399    1.6620244   -111.43196   -6748.7042    4.3766596    4.3766596    4.3766596   -6748.7042    13771.784   -47025.922    13008.025    4848.5367    4275.9845   -6925.4679    83.835566 
    4500    2117.6577   -113.34392    1.9161012   -111.42782   -8450.5114    4.3624097    4.3624097    4.3624097   -8450.5114    -12060.34   -12454.327   -836.86711   -14154.075   -7698.5465    4212.3654    83.019355 
    4600     1909.341   -113.17067    1.7276119   -111.44306    3652.5211    4.3723261    4.3723261    4.3723261    3652.5211    2607.3288    11738.204   -3387.9693   -2330.5295    3933.5727    5427.9596    83.586789 
    4700    2090.3749   -113.33025    1.8914151   -111.43884    -19950.89     4.382757     4.382757     4.382757    -19950.89   -17703.799   -21189.878   -20958.991    9903.7898    585.08509   -16278.423    84.186449 
    4800    1491.8448   -112.78217    1.3498526   -111.43232    14010.861    4.3757752    4.3757752    4.3757752    14010.861    -18944.97    28231.243    32746.309    314.86771   -5396.5198   -5479.7477    83.784758 
    4900    1986.8722   -113.22058    1.7977637   -111.42281    -9587.862    4.3724858    4.3724858    4.3724858    -9587.862   -52118.071    26533.519   -3179.0339   -10835.838    6865.6376   -3422.2921    83.595945 
    5000    1638.4219   -112.91036    1.4824786   -111.42788   -8032.4905    4.3720998    4.3720998    4.3720998   -8032.4905   -19961.463   -12376.609    8240.6012   -2212.5401   -920.15452   -9670.3137    83.573809 
    5100    1141.9858   -112.47419    1.0332928    -111.4409   -7016.7105    4.3765516    4.3765516    4.3765516   -7016.7105   -16658.843   -1108.7333   -3282.5552   -4137.0505   -8888.3791    3324.9371     83.82936 
    5200    1332.4592    -112.6402    1.2056371   -111.43456    428.63884    4.3745964    4.3745964    4.3745964    428.63884   -17181.311    19923.317   -1456.0902    5630.5364     7936.104   -6475.7039    83.717061 
    5300        943.2   -112.28932   0.85342718   -111.43589    16890.274    4.3626421    4.3626421    4.3626421    16890.274    43890.887   -22207.781    28987.716    2085.0384    -7311.957   -17651.974    83.032621 
    5400    603.58483   -111.99536   0.54613624   -111.44922   -21455.871    4.3752967    4.3752967    4.3752967   -21455.871    9865.3741   -72889.103   -1343.8842   -8635.0308   -10537.837    -2031.217    83.757275 
    5500    1030.8122   -112.37043   0.93270057   -111.43773   -37098.143    4.3810772    4.3810772    4.3810772   -37098.143   -18898.262   -89589.769   -2806.3998    12276.186    -8263.616      8835.64    84.089686 
    5600    1139.7356   -112.46165    1.0312567   -111.43039    12996.481    4.3638988    4.3638988    4.3638988    12996.481    75697.332   -48046.248     11338.36    6731.2871    4827.9348   -20107.126    83.104401 
    5700    1407.2062   -112.72023    1.2732697   -111.44696   -5836.0984    4.3724495    4.3724495    4.3724495   -5836.0984   -29350.836    13681.221   -1838.6808   -9252.7415   -14815.446   -11224.103    83.593863 
    5800    1679.8159   -112.96728    1.5199327   -111.44735   -16983.135    4.3737667    4.3737667    4.3737667   -16983.135   -20766.083    8376.7246   -38560.047   -678.96789   -35579.426   -34.425378    83.669434 
    5900    2007.2132   -113.25578    1.8161687   -111.43962    21671.776     4.355889     4.355889     4.355889    21671.776    17725.541   -443.52076    47733.308    19304.219    7485.1695   -10484.277     82.64763 
    6000    2188.6598   -113.43244    1.9803454    -111.4521    4286.6946     4.371881     4.371881     4.371881    4286.6946   -1216.8444    16458.535   -2381.6064    5032.2391   -8056.6113     3339.959    83.561263 
    6100    2094.6128   -113.33243    1.8952497   -111.43718   -18335.474    4.3852052    4.3852052    4.3852052   -18335.474   -33288.222     3103.269    -24821.47   -12280.924   -21391.514     4156.914    84.327604 
    6200    1993.5875   -113.22628    1.8038399   -111.42244    320.03298    4.3659464    4.3659464    4.3659464    320.03298    13420.814   -26127.118    13666.403   -11065.638    14438.845   -21107.377    83.221432 
    6300    1628.5099   -112.90025      1.47351   -111.42674   -6714.2984     4.366122     4.366122     4.366122   -6714.2984    -7116.278   -37878.102    24851.485   -2260.4976   -13866.654   -2680.2692    83.231478 
    6400    1342.1458   -112.65015    1.2144017   -111.43575   -25763.665    4.3767095    4.3767095    4.3767095   -25763.665   -30969.875   -25955.112   -20366.009    10871.999   -20773.581    10833.829    83.838437 
    6500    848.90308   -112.20556   0.76810535   -111.43745   -6805.6133    4.3744957    4.3744957    4.3744957   -6805.6133   -6711.1586   -45096.151     31390.47    9021.6618    5781.4929   -8472.6116    83.711282 
    6600    1118.8504   -112.44783    1.0123593   -111.43547   -22913.934    4.3729323    4.3729323    4.3729323   -22913.934   -10957.391    -88147.46     30363.05   -5237.5559   -5843.2146   -4539.3349    83.621558 
    6700    764.65841   -112.13021     0.691879   -111.43833   -1591.3576    4.3678773    4.3678773    4.3678773   -1591.3576    176.15872   -63399.772     58449.54    -3689.563   -21427.704     9873.919    83.331902 
    6800    1217.6907   -112.54513    1.1017921   -111.44334   -3730.0793    4.3673777    4.3673777    4.3673777   -3730.0793   -9375.9587   -54112.487    52298.208    1395.5705    5101.5659   -12591.544    83.303308 
    6900    1638.7695   -112.92584    1.4827931   -111.44305   -5464.3724    4.3768685    4.3768685    4.3768685   -5464.3724   -17295.465   -13461.236    14363.584    10210.552    3525.9222   -16478.247    83.847572 
    7000    2097.3788   -113.32962    1.8977524   -111.43187    -510.7623    4.3719761    4.3719761    4.3719761    -510.7623   -36883.172    37399.686   -2048.8002    10562.512   -10718.866    4958.5277    83.566719 
    7100    2070.2384   -113.30901    1.8731952   -111.43582   -3608.9214    4.3687534    4.3687534    4.3687534   -3608.9214   -8756.5599    9126.6427   -11196.847   -8637.5403   -11139.446     -20581.4    83.382057 
    7200    2080.6645   -113.31712     1.882629   -111.43449    4198.8469    4.3686216    4.3686216    4.3686216    4198.8469    14714.918    18426.496   -20544.873    -9503.777    5309.2852   -12566.665    83.374508 
    7300    2052.5778   -113.29201    1.8572155    -111.4348    -20053.42    4.3778439    4.3778439    4.3778439    -20053.42   -24084.945   -15464.401   -20610.913   -7226.6036   -238.14309    5488.5881     83.90364 
    7400    1143.6981   -112.47743    1.0348421   -111.44258   -36965.609     4.380458     4.380458     4.380458   -36965.609   -7829.1349    -83761.92   -19305.771   -845.64746   -14997.341    -24796.59    84.054036 
    7500    1131.7791   -112.45748    1.0240575   -111.43342   -4797.8566     4.352834     4.352834     4.352834   -4797.8566    28351.556   -72203.536     29458.41    22924.907    1059.1418    1097.4347    82.473859 
    7600    820.09953   -112.19827   0.74204329   -111.45623    16253.895       4.3626       4.3626       4.3626    16253.895    10313.821   -17476.631    55924.495   -9809.8717    5407.0736    6600.0015     83.03022 
    7700    555.86623   -111.95016   0.50295945    -111.4472   -26463.554    4.3944563    4.3944563    4.3944563   -26463.554   -28558.136   -79549.079    28716.554   -2319.7023   -9258.1604   -12084.107    84.862428 
    7800    1380.5494   -112.67281    1.2491501   -111.42366   -5082.1875    4.3746262    4.3746262    4.3746262   -5082.1875   -8854.8524   -58135.659    51743.949    20039.694    4691.5271   -3266.2095    83.718771 
    7900    1785.8316   -113.03528    1.6158579   -111.41942    21417.365    4.3584599    4.3584599    4.3584599    21417.365    18034.253   -7536.4666     53754.31   -489.09041    12494.602     4057.393    82.794059 
    8000    1903.8644   -113.16299    1.7226565   -111.44033   -3705.0884    4.3731062    4.3731062    4.3731062   -3705.0884   -26691.066   -1058.6368    16634.437    11167.387     5619.022    7147.6688    83.631533 
    8100    1900.5657   -113.15351    1.7196718   -111.43384    6938.0049    4.3801036    4.3801036    4.3801036    6938.0049   -5711.8083    11429.533     15096.29    11360.468    4996.1159    310.21289    84.033637 
    8200    2215.7914   -113.42808    2.0048946   -111.42318   -15863.186    4.3806989    4.3806989    4.3806989   -15863.186   -21607.146   -20426.612    -5555.801    -16226.58    4516.0188     16476.44    84.067904 
    8300    1248.8854   -112.55255    1.1300177   -111.42253   -10534.793    4.3801248    4.3801248    4.3801248   -10534.793   -31337.872   -26202.571    25936.063    9686.5977    3012.3334    15775.333    84.034853 
    8400    1041.3991   -112.35805   0.94227982   -111.41577   -5264.3347    4.3708216    4.3708216    4.3708216   -5264.3347   -14904.826   -22105.204    21217.026    15412.293     147.5481   -3070.3235     83.50053 
    8500    1019.2227   -112.34641   0.92221415    -111.4242   -18906.869     4.371742     4.371742     4.371742   -18906.869   -1284.5476   -70240.477    14804.419   -4738.1328    1108.1773    10670.321    83.553296 
    8600    824.44274   -112.17966   0.74597312   -111.43369   -19347.935    4.3780071    4.3780071    4.3780071   -19347.935    16720.925   -85393.026    10628.295    17674.812    5547.8353      18042.2    83.913028 
    8700    1477.7099   -112.76505     1.337063   -111.42798   -17747.844    4.3828939    4.3828939    4.3828939   -17747.844   -3584.1605   -56168.907    6509.5337    7955.9032    6958.8191   -8116.7551    84.194338 
    8800    1832.0287   -113.07853     1.657658   -111.42088   -2430.8504    4.3817586    4.3817586    4.3817586   -2430.8504     5672.256    2187.2709   -15152.078    111.04974   -3218.1794     10842.95    84.128923 
    8900    1928.4626   -113.16516    1.7449135   -111.42024    13838.607    4.3679805    4.3679805    4.3679805    13838.607    14621.608    21382.402    5511.8107    22892.772   -6536.9351     28040.56     83.33781 
    9000    2101.8157   -113.33159     1.901767   -111.42983    6510.4205    4.3716078    4.3716078    4.3716078    6510.4205   -6333.3239    22260.708    3603.8776    11624.587    1457.1474   -8198.4439    83.545601 
    9100    1855.6545   -113.10902    1.6790352   -111.42998   -663.53169    4.3805246    4.3805246    4.3805246   -663.53169   -3446.9041    26579.318   -25123.009    7734.8567   -3678.1132   -38.797867    84.057866 
    9200    1435.2183   -112.72682    1.2986157    -111.4282   -6361.4718    4.3757078    4.3757078    4.3757078   -6361.4718   -19973.705   -21604.073    22493.363    17048.839    9805.6745    17522.946    83.780882 
    9300    1283.0173   -112.59083     1.160901   -111.42992   -7678.9873    4.3754794    4.3754794    4.3754794   -7678.9873   -5142.5395   -38621.885    20727.463     3752.833   -103.43565    9926.3192    83.767766 
    9400    1181.5471   -112.49856    1.0690886   -111.42947     3856.321    4.3648638    4.3648638    4.3648638     3856.321    20277.252   -25483.639     16775.35   -925.05414   -13303.889   -6774.1221    83.159543 
    9500    531.03267   -111.92148   0.48048952   -111.44099      40775.1    4.3590451    4.3590451    4.3590451      40775.1    24040.072    30596.994    67688.234    16830.726    18321.932    515.76928     82.82741 
    9600    1049.1348   -112.39541   0.94927924   -111.44613   -9970.3666    4.3891261    4.3891261    4.3891261   -9970.3666   -2612.5002   -36239.052    8940.4525    15169.002    2485.8748   -4492.6159    84.554001 
    9700    1383.3491   -112.67679    1.2516834   -111.42511   -36579.878    4.3874589    4.3874589    4.3874589   -36579.878   -21485.904   -49922.448   -38331.282    557.16503   -8292.1988    -1486.474    84.457687 
    9800    1315.8172   -112.60727     1.190579   -111.41669     14313.62    4.3426727    4.3426727    4.3426727     14313.62    43483.777    -18038.02    17495.103     2765.922     6938.018    31396.688    81.897622 
    9900    1390.9081   -112.71045    1.2585229   -111.45192    26621.842    4.3527608    4.3527608    4.3527608    26621.842    35629.472    25454.651    18781.402    21981.765    600.28194   -3887.9856      82.4697 
   10000    1999.7579   -113.25103     1.809423   -111.44161   -25202.154    4.3860611    4.3860611    4.3860611   -25202.154   -15004.439   -9337.8808   -51264.143     12315.16   -4826.6101   -9185.2116     84.37699 
   10100    1742.0039   -113.00498    1.5762017   -111.42878   -9324.1068    4.3800819    4.3800819    4.3800819   -9324.1068    30796.927   -25574.655   -33194.592    16885.326    8807.7426    9244.2449    84.032384 
   10200    2003.8754   -113.23111    1.8131486   -111.41796    19119.557     4.363921     4.363921     4.363921    19119.557    3272.2789    18463.316    35623.078    10651.166    1152.9868   -3287.4526    83.105665 
   10300    2303.7179   -113.50905    2.0844524    -111.4246     2423.738    4.3609783    4.3609783    4.3609783     2423.738    2410.1472    13507.015   -8645.9481   -6449.6143   -5248.9841    5655.2575    82.937657 
   10400     1760.432    -113.0406    1.5928758   -111.44773    6228.1837    4.3625214    4.3625214    4.3625214    6228.1837    41936.681   -5294.5642   -17957.565    4673.6883    1889.8039    18277.664    83.025731 
   10500    1651.3233   -112.95368    1.4941521   -111.45953    14527.104    4.3766185    4.3766185    4.3766185    14527.104   -3281.7626    20646.667    26216.408    11711.637    6535.4116   -3627.3361    83.833206 
   10600    1730.7472   -112.99717    1.5660164   -111.43116   -9292.0208    4.3883259    4.3883259    4.3883259   -9292.0208   -25019.366   -24765.723    21909.027    2543.1009    2451.9292   -8126.2138    84.507766 
   10700     1400.434   -112.69466    1.2671421   -111.42752   -9337.9482    4.3620645    4.3620645    4.3620645   -9337.9482    17289.568    -61917.33    16613.918    2954.0601    5385.3938    11976.657    82.999647 
   10800    1030.4278   -112.35997   0.93235271   -111.42762    14327.394    4.3513492    4.3513492    4.3513492    14327.394    7528.0271   -56708.898    92163.054    12418.401    1300.5022   -3040.4186    82.389488 
   10900    1609.5567   -112.90088    1.4563608   -111.44452    -38356.51    4.3867136    4.3867136    4.3867136    -38356.51   -21699.459   -89097.391   -4272.6795    1317.3641   -9323.2701   -7442.3649    84.414656 
   11000     1213.591   -112.51912    1.0980827   -111.42104   -30939.206    4.3920907    4.3920907    4.3920907   -30939.206    1746.7038   -68550.594   -26013.729   -1590.9946   -703.43022    8335.4711    84.725455 
   11100    1386.6364   -112.66178    1.2546577   -111.40713    25500.388    4.3546585    4.3546585    4.3546585    25500.388    26088.556    14980.863    35431.744    7687.5359    8705.2682   -4362.4377     82.57761 
   11200     1905.862   -113.14933     1.724464   -111.42487    26644.475    4.3523037    4.3523037    4.3523037    26644.475    28220.964    2725.0872    48987.375    3806.1068   -11644.555     2506.269    82.443721 
   11300    1728.6314   -113.01107     1.564102   -111.44697   -8898.5546    4.3775341    4.3775341    4.3775341   -8898.5546    2273.1735   -6445.1382   -22523.699   -4381.7839   -817.52096    9664.5688    83.885831 
   11400    1481.1828   -112.78104    1.3402053   -111.44084   -8198.0323    4.3800283    4.3800283    4.3800283   -8198.0323   -4498.7803   -3609.5576   -16485.759    3138.4197    4524.1901   -19822.743    84.029303 
   11500    1586.8071   -112.86796    1.4357764   -111.43218    12056.515    4.3610876    4.3610876    4.3610876    12056.515    10259.408    7990.0361    17920.102   -6904.4383   -8272.2365    -18823.74    82.943898 
   11600     1497.198   -112.79047    1.3546962   -111.43577    13718.907    4.3517116    4.3517116    4.3517116    13718.907    18569.429    891.52512    21695.767   -6421.9206   -2999.6052    22173.321    82.410075 
   11700    835.56256   -112.21487   0.75603456   -111.45883   -15324.938    4.3709209    4.3709209    4.3709209   -15324.938    826.64492   -21404.283   -25397.175    17547.894    17666.794    1560.1432    83.506225 
   11800    1165.6412   -112.49476    1.0546967   -111.44007   -10510.487    4.3775214    4.3775214    4.3775214   -10510.487   -23818.003    181.37873    -7894.837   -653.04634   -12583.115   -22481.448    83.885102 
   11900     1601.971   -112.87667     1.449497   -111.42717   -4474.6069    4.3626645    4.3626645    4.3626645   -4474.6069    13341.941   -28531.084    1765.3224   -5988.1696   -2252.3853   -5591.5104    83.033901 
   12000     1064.905   -112.40621   0.96354841   -111.44266   -6772.6235    4.3630781    4.3630781    4.3630781   -6772.6235   -3114.8417   -44767.793    27564.764    9153.7009    30859.845    2008.2841    83.057519 
   12100    1658.3658   -112.94183    1.5005242   -111.44131   -16126.233    4.3730217    4.3730217    4.3730217   -16126.233   -18048.479   -50523.153    20192.933    -8699.838    4251.7369   -643.50678    83.626687 
   12200    1949.4511   -113.19506    1.7639043   -111.43115   -4348.0811     4.378806     4.378806     4.378806   -4348.0811    -9910.626   -29357.538    26223.921     7281.493   -4174.6353   -3646.5244    83.958972 
   12300    1730.5211   -112.99488    1.5658118   -111.42907    9969.1569    4.3713613    4.3713613    4.3713613    9969.1569   -15068.595   -14963.786    59939.851      16923.8     7655.034   -5317.4722    83.531469 
   12400    1842.7371   -113.09769    1.6673472   -111.43035    10469.312    4.3647848    4.3647848    4.3647848    10469.312    7789.0465   -19668.589    43287.479   -6668.2319   -9415.3482    2347.4275    83.155028 
   12500    1624.5596   -112.91025    1.4699357   -111.44031     1934.281    4.3727915    4.3727915    4.3727915     1934.281   -140.53213   -18126.465     24069.84    8456.1579    -11745.76   -2650.6421    83.613485 
   12600    1645.2133   -112.92285    1.4886236   -111.43423    206.97047    4.3727297    4.3727297    4.3727297    206.97047    3000.5515   -4864.8495    2485.2095    2171.6521     5717.322   -1311.2108     83.60994 
   12700    1567.2589     -112.856    1.4180888   -111.43791   -11170.353     4.374065     4.374065     4.374065   -11170.353   -2015.1502   -11176.664   -20319.245   -16169.261    -3334.784   -2479.4731    83.686559 
   12800    1410.2101   -112.71105    1.2759877   -111.43506   -270.23365    4.3702499    4.3702499    4.3702499   -270.23365     11048.17   -7094.5555   -4764.3159   -1813.0052   -5235.3665    2177.9104     83.46777 
   12900    1420.2229   -112.71599    1.2850476   -111.43094    5630.4084    4.3652765    4.3652765    4.3652765    5630.4084     35480.78     9710.291   -28299.846    9221.1285   -1869.3327    8084.3532    83.183131 
   13000    1076.5262   -112.41181   0.97406356   -111.43774   -35322.836    4.3785167    4.3785167    4.3785167   -35322.836    10419.767   -57243.062   -59145.212   -4471.1767   -6578.5534   -3822.7814    83.942331 
   13100    1280.8294   -112.59001    1.1589214   -111.43109   -36700.612    4.3670198    4.3670198    4.3670198   -36700.612    1920.8219   -86000.836   -26021.821    353.23029   -2887.2779    7545.1339    83.282832 
   13200    1387.2838   -112.67774    1.2552435    -111.4225    30277.886    4.3485223    4.3485223    4.3485223    30277.886    30412.389    13905.187    46516.081    4522.9251   -3683.0673    6516.7605    82.229019 
   13300    1030.5184   -112.38213    0.9324347    -111.4497   -18922.522    4.3776546    4.3776546    4.3776546   -18922.522   -4680.6214   -44181.807   -7905.1369   -19277.459    5158.8864   -13197.639     83.89276 
   13400    1316.0712   -112.62728    1.1908089   -111.43647   -39537.045    4.3777161    4.3777161    4.3777161   -39537.045   -18872.595   -73743.757   -25994.785   -6473.9008    3420.1152    5627.2444    83.896296 
   13500    1742.5182   -112.99626    1.5766671   -111.41959    18386.449    4.3474838    4.3474838    4.3474838    18386.449    7126.9969    25143.474    22888.877    13455.783    3268.9159    8422.7987    82.170119 
   13600    1734.6921   -113.00952    1.5695858   -111.43994   -6451.8263    4.3607517    4.3607517    4.3607517   -6451.8263   -1848.9085   -15118.566   -2388.0045   -1825.1553    2883.1482   -27377.689     82.92473 
   13700    1642.4574   -112.92922    1.4861299   -111.44309   -11794.945    4.3659605    4.3659605    4.3659605   -11794.945   -15185.225    21700.825   -41900.436   -5817.7635   -8021.2648   -6710.3064     83.22224 
   13800    2154.5796   -113.38749    1.9495089   -111.43798    23384.867      4.36032      4.36032      4.36032    23384.867   -8805.2622    54607.194    24352.669   -7887.3305   -4408.1005    16872.462    82.900106 
   13900    2067.8036   -113.31201    1.8709921   -111.44102   -18039.356     4.374127     4.374127     4.374127   -18039.356   -18339.741   -10656.479   -25121.848   -11794.002     6245.398   -28510.658    83.690117 
   14000    1524.7779   -112.82294    1.3796511   -111.44328    -1503.123    4.3586092    4.3586092    4.3586092    -1503.123    2729.6407    9838.1923   -17077.202   -3809.1214   -3054.3825   -12058.308    82.802565 
   14100    1962.4638   -113.21596    1.7756784   -111.44028    12230.545    4.3532927    4.3532927    4.3532927    12230.545    427.92965    4945.7366     31317.97    14023.213   -456.63318    18593.522    82.499937 
   14200     1598.906   -112.89605    1.4467237   -111.44932   -7948.9775    4.3752033    4.3752033    4.3752033   -7948.9775   -11733.203   -25547.119    13433.389    2543.0862    2022.8237    -4709.545    83.751909 
   14300    993.43259   -112.34267   0.89887869   -111.44379   -1628.6521    4.3738204    4.3738204    4.3738204   -1628.6521   -5421.6098    -24633.38    25169.033   -14809.476   -14858.602    6110.8562    83.672519 
   14400    1367.1341   -112.66659    1.2370117   -111.42958   -770.99396     4.364227     4.364227     4.364227   -770.99396    -5122.836   -30236.888    33046.742    -5812.843   -668.25369    20872.263     83.12315 
   14500    1272.9613   -112.58521    1.1518021   -111.43341    -10750.42    4.3739512    4.3739512    4.3739512    -10750.42   -17935.558    -19917.45    5601.7486    4535.6813    4135.2119     878.0155    83.680022 
   14600    749.64199   -112.11611   0.67829182   -111.43782   -10459.847    4.3776135    4.3776135    4.3776135   -10459.847    -27714.14     6063.245   -9728.6461    665.84956   -10573.896     11857.99    83.890394 
   14700      893.329   -112.24109   0.80830285   -111.43278    11293.912    4.3593373    4.3593373    4.3593373    11293.912   -22178.065    15823.748    40236.053     2987.854   -3231.0527    15908.986    82.844067 
   14800    1138.6819   -112.47251    1.0303033   -111.44221    11405.171    4.3629804    4.3629804    4.3629804    11405.171   -30620.185    14506.013    50329.684    7961.9495    4732.4483    2009.1753    83.051942 
   14900     1115.366   -112.44893    1.0092066   -111.43972   -3252.3271    4.3837698    4.3837698    4.3837698   -3252.3271   -55767.322     18920.38     27089.96   -12992.089   -7856.4367    16702.276    84.244823 
   15000    1289.7028   -112.59344    1.1669502   -111.42649    29058.606    4.3735046    4.3735046    4.3735046    29058.606   -30318.378     59305.46    58188.735    4960.2453   -2453.3707    23927.622    83.654397 
   15100    1744.6462   -113.00256    1.5785926   -111.42397    31115.878    4.3653248    4.3653248    4.3653248    31115.878   -22394.062    48504.014    67237.681    4709.4264    8808.8729     22635.03    83.185893 
   15200    1913.3608   -113.16099     1.731249   -111.42974    26487.304    4.3726624    4.3726624    4.3726624    26487.304   -28256.193    50111.117    57606.988   -4549.5855    1968.0134    15133.892    83.606078 
   15300    1819.7066   -113.08189    1.6465088   -111.43538    1792.0138    4.3746331    4.3746331    4.3746331    1792.0138   -16596.826   -935.02701    22907.894    19939.464     10344.35    7400.3604    83.719168 
   15400     1637.928   -112.92083    1.4820317    -111.4388   -269.45834    4.3676716    4.3676716    4.3676716   -269.45834    420.71424   -31754.811    30525.722    6460.4111     12610.46   -4303.5804    83.320127 
   15500    1780.0815     -113.036    1.6106551   -111.42535    28412.038    4.3587055    4.3587055    4.3587055    28412.038    11074.159    31672.097    42489.856   -20632.797    -9324.757    10012.559    82.808056 
   15600    1086.2981   -112.42328   0.98290533   -111.44037   -20296.434    4.3719654    4.3719654    4.3719654   -20296.434   -29240.359   -43012.804    11363.861    10489.916   -526.74265   -7985.6024    83.566102 
   15700    784.62242   -112.14815   0.70994285   -111.43821   -36018.163    4.3722138    4.3722138    4.3722138   -36018.163   -43409.425   -68263.616    3618.5535    13943.324    10608.588   -9445.9233    83.580348 
   15800    1276.8351   -112.57688    1.1553072   -111.42157    20270.944    4.3476776    4.3476776    4.3476776    20270.944   -5024.7355     1723.627     64113.94   -6139.5206     819.0408    6927.6629    82.181107 
   15900     615.0801   -112.00848    0.5565374   -111.45194   -13761.888    4.3621849    4.3621849    4.3621849   -13761.888   -35802.512   -32391.409    26908.257    9830.4661   -2510.3647   -15331.938    83.006518 
   16000     794.9499   -112.16204   0.71928738   -111.44275   -37398.538    4.3769765    4.3769765    4.3769765   -37398.538   -57064.145   -46055.745   -9075.7224     11867.73   -713.99456   -15194.928    83.853779 
   16100    1750.8945   -113.00093    1.5842461   -111.41669    10511.325    4.3557287    4.3557287    4.3557287    10511.325    -34878.31    36790.355    29621.929   -11815.203   -5412.6563    8027.2951    82.638507 
   16200    1238.5509   -112.55511    1.1206668   -111.43445   -10579.944     4.361546     4.361546     4.361546   -10579.944   -41263.593    7464.3624    2059.3993    19338.212   -2270.4222    -5718.401    82.970054 
   16300    1868.1192   -113.12118    1.6903135   -111.43087   -25090.078    4.3710289    4.3710289    4.3710289   -25090.078   -28695.796   -14969.697   -31604.741    11929.993    9253.4022   -6825.8097    83.512412 
   16400     2407.191   -113.60012     2.178077   -111.42204    7838.0018    4.3591959    4.3591959    4.3591959    7838.0018   -6953.8566    44315.266   -13847.404   -15475.097   -1424.9127    5932.2643     82.83601 
   16500    1950.4964    -113.2066    1.7648501   -111.44175   -20248.572    4.3627612    4.3627612    4.3627612   -20248.572   -22602.522   -8399.7625   -29743.432    13530.792   -6349.0733   -11392.912    83.039424 
   16600    1865.7838   -113.12901    1.6882004   -111.44081   -3687.6562    4.3596801    4.3596801    4.3596801   -3687.6562   -6194.3729    7739.2137   -12607.809    21596.197     1843.598     1213.891    82.863611 
   16700     1902.897   -113.15941    1.7217812   -111.43763    26.696526     4.360565     4.360565     4.360565    26.696526   -5852.9823    10322.471   -4389.3995   -26400.539    -1937.199   -4073.7937    82.914079 
   16800    1260.2898   -112.58212    1.1403367   -111.44179   -33712.697    4.3741106    4.3741106    4.3741106   -33712.697   -35391.709   -46330.188   -19416.194   -5993.8196   -755.04901   -14961.734    83.689176 
   16900    1122.1918   -112.44787    1.0153828   -111.43249   -1611.0107    4.3609529    4.3609529    4.3609529   -1611.0107     6649.826   -2228.4738   -9254.3842    16855.935    1333.5157    2009.2844    82.936209 
   17000    1277.6272   -112.58837    1.1560239   -111.43235    5523.2595     4.351916     4.351916     4.351916    5523.2595    -5357.439   -6125.0985    28052.316   -15508.805   -9592.2548    2166.4789     82.42169 
   17100     924.8714   -112.28301   0.83684308   -111.44617   -31543.595    4.3682859    4.3682859    4.3682859   -31543.595   -45927.764   -60130.197    11427.175    356.39139   -7693.6378    3093.8294    83.355292 
   17200    1193.8631   -112.51527    1.0802324   -111.43504   -11449.771    4.3633906    4.3633906    4.3633906   -11449.771   -870.82982   -34950.543    1472.0606    7521.7691   -2105.1349    2728.8948    83.075366 
   17300    1208.7666   -112.53047    1.0937174   -111.43675    2013.6321    4.3565922    4.3565922    4.3565922    2013.6321   -27969.635    10861.164    23149.368   -28741.961   -6508.8696   -9721.9081    82.687666 
   17400    1409.4094   -112.72076    1.2752632    -111.4455   -26683.611     4.362073     4.362073     4.362073   -26683.611   -60117.658   -33153.244    13220.068   -7721.4132    797.66215    682.79474    83.000132 
   17500    1583.0105   -112.87802    1.4323412   -111.44568   -4989.3837    4.3602718    4.3602718    4.3602718   -4989.3837   -3981.7482   -13750.331    2763.9285    20225.358    5680.0705    15760.013    82.897358 
   17600    1594.7753   -112.88885    1.4429862   -111.44586   -9160.3779    4.3662542    4.3662542    4.3662542   -9160.3779   -22436.057   -13281.132     8236.056   -29172.495    -81.07065    2376.9417    83.239035 
   17700     1767.464   -113.04172    1.5992386   -111.44248    -2204.824    4.3605282    4.3605282    4.3605282    -2204.824    -28694.14    13545.105    8534.5629   -30012.146    1509.7958   -13583.932     82.91198 
   17800    2086.4064   -113.32293    1.8878243   -111.43511    21564.838    4.3512448    4.3512448    4.3512448    21564.838    23492.495    47748.695   -6546.6774    22689.871   -762.20672   -3146.4548    82.383561 
   17900    1741.2318   -113.02486    1.5755031   -111.44936   -4371.5109    4.3648167    4.3648167    4.3648167   -4371.5109    -25079.44    11898.873    66.034391   -21204.463   -12850.172    6827.2952    83.156849 
   18000    1800.7308   -113.07052    1.6293391   -111.44118   -7812.4767    4.3661946    4.3661946    4.3661946   -7812.4767   -28981.652    20741.351   -15197.129   -17575.067   -9095.5658    1890.1327    83.235631 
   18100    1707.4837   -112.97985    1.5449671   -111.43488    17265.486     4.359528     4.359528     4.359528    17265.486    18068.906    64563.872   -30836.322    15111.243    6407.0636   -4699.4177    82.854942 
   18200    1387.9587   -112.70086    1.2558542     -111.445   -14837.617    4.3673214    4.3673214    4.3673214   -14837.617   -16573.785     718.2379   -28657.303    -10508.46   -7219.2241    3206.2254    83.300086 
   18300    1217.7279   -112.53993    1.1018258   -111.43811    926.35173    4.3644954    4.3644954    4.3644954    926.35173   -17636.821    25093.508   -4677.6315   -8270.1521    -7652.864   -3581.6644     83.13849 
   18400    1406.4075   -112.70204    1.2725471   -111.42949    2024.5784     4.362296     4.362296     4.362296    2024.5784    7223.6704    5286.9575   -6436.8927    8193.5704    5862.8284    -383.1744    83.012865 
   18500    713.62966   -112.08606   0.64570712   -111.44035   -35608.935    4.3722666    4.3722666    4.3722666   -35608.935   -27979.841   -51178.263   -27668.701   -3586.4884   -16906.454    16140.781    83.583373 
   18600    1135.7795    -112.4564    1.0276772   -111.42873   -8728.9501    4.3614832    4.3614832    4.3614832   -8728.9501   -22478.638   -17950.334    14242.122   -2914.9405   -16021.251   -10144.234    82.966472 
   18700    1553.7478   -112.83379    1.4058637   -111.42793    9287.6756    4.3610811    4.3610811    4.3610811    9287.6756     11335.67    3814.5483    12712.808    5365.0936    7591.5247    9168.8006    82.943523 
   18800    1291.8847   -112.60804    1.1689244   -111.43912   -31009.829    4.3719117    4.3719117    4.3719117   -31009.829   -40103.154   -28596.788   -24329.546   -147.93907   -25007.845    22944.803    83.563023 
   18900     1680.512   -112.95372    1.5205626   -111.43316     4759.059    4.3532906    4.3532906    4.3532906     4759.059   -16223.512    4519.8695    25980.819   -7671.5601   -8561.4298   -1762.9425    82.499815 
   19000    2139.8786    -113.3767    1.9362072   -111.44049    1028.8146     4.356507     4.356507     4.356507    1028.8146   -3813.9277   -15403.654    22304.025    505.60566    9977.3852   -4773.2643    82.682816 
   19100    1457.6261   -112.76207    1.3188908   -111.44317   -30735.874    4.3779602    4.3779602    4.3779602   -30735.874   -41391.167   -3593.1153   -47223.341   -3039.5915   -39880.984    12006.216    83.910332 
   19200    1947.9755   -113.19828    1.7625692   -111.43572   -3412.8146    4.3569528    4.3569528    4.3569528   -3412.8146   -9266.1522    24558.453   -25530.744   -4193.9755   -17035.843    13485.865    82.708202 
   19300    2003.7305   -113.24732    1.8130175   -111.43431    9303.3756    4.3493907    4.3493907    4.3493907    9303.3756    15546.401    39647.939   -27284.214    7677.3885    13134.922     3564.956    82.278294 
   19400    1234.1285    -112.5658    1.1166654   -111.44914   -28785.875    4.3677675    4.3677675    4.3677675   -28785.875   -14715.852    14127.384   -85769.157    9739.1415   -34616.626    19604.057    83.325616 
   19500    1510.9024    -112.8081    1.3670963     -111.441    2635.9714    4.3639621    4.3639621    4.3639621    2635.9714   -5580.9539    36919.699   -23430.831   -8524.7465   -10709.851   -1190.0188    83.108016 
   19600     1781.799   -113.04399    1.6122092   -111.43178    -8481.882    4.3625307    4.3625307    4.3625307    -8481.882   -18225.616    25245.426   -32465.456   -11666.619    2059.6505   -8460.4222    83.026263 
   19700    1069.7927    -112.4096    0.9679709   -111.44163   -23287.287    4.3581363    4.3581363    4.3581363   -23287.287   -34747.823    26413.296   -61527.335     2906.467   -33516.239    25516.378    82.775619 
   19800    1465.6995   -112.76912    1.3261957   -111.44292    11929.887    4.3495826    4.3495826    4.3495826    11929.887   -7988.6407    46921.253   -3142.9512   -5948.3139   -919.30322     8546.493    82.289185 
   19900    1665.5704   -112.95139    1.5070431   -111.44434    951.36048     4.367679     4.367679     4.367679    951.36048    3731.5335   -20799.551    19922.099    6658.0306    2633.8129   -7944.6864    83.320549 
   20000    1298.7193   -112.61962    1.1751085   -111.44451   -18404.589    4.3676236    4.3676236    4.3676236   -18404.589   -29255.225   -9579.4894   -16379.052    4780.4679   -29930.813    20398.229    83.317383 
   20100    1527.0897   -112.81226    1.3817429   -111.43051    29666.709    4.3453357    4.3453357    4.3453357    29666.709   -620.52664    45939.767    43680.887   -9761.5753    1132.0734    19663.714    82.048376 
   20200      1642.12   -112.92741    1.4858247   -111.44159    10458.134    4.3583541    4.3583541    4.3583541    10458.134    3085.3211   -14614.366    42903.446    3095.3416    3766.4318   -4365.8343     82.78803 
   20300    1228.2667   -112.55034    1.1113615   -111.43898   -24137.083    4.3743437    4.3743437    4.3743437   -24137.083    -7593.975   -26293.964    -38523.31   -610.50242   -16364.736    12463.069    83.702553 
   20400    1301.8106   -112.60836    1.1779056   -111.43045    8097.3232    4.3610154    4.3610154    4.3610154    8097.3232    28319.223    10568.967   -14596.221    738.95096   -1327.5104     11297.33    82.939774 
   20500    1506.4483   -112.79294    1.3630661   -111.42988    18869.426    4.3564044    4.3564044    4.3564044    18869.426    17498.855    44552.575   -5443.1535   -2987.2594   -1189.4866   -1102.9242    82.676974 
   20600    1029.8832   -112.37434   0.93185998   -111.44248    2111.1783    4.3625833    4.3625833    4.3625833    2111.1783    29518.125    24465.844   -47650.434   -7427.0006   -6600.6512    26361.054    83.029265 
   20700    1213.5859   -112.53746     1.098078   -111.43938    2878.5509    4.3669874    4.3669874    4.3669874    2878.5509    37315.024    13121.223   -41800.594   -1214.7694    11080.293    18015.083    83.280979 
   20800    1653.0577   -112.92619    1.4957214   -111.43046     619.1895    4.3675339    4.3675339    4.3675339     619.1895    15783.859    15550.748   -29477.039   -6957.1296    6141.2133   -12863.464    83.312251 
   20900    1166.5047   -112.49187    1.0554779    -111.4364   -1575.7018    4.3617393    4.3617393    4.3617393   -1575.7018     4290.016    22749.204   -31766.325   -3188.8308   -11117.902     26981.71    82.981088 
   21000    1335.3024   -112.64628    1.2082097   -111.43807    9508.0849    4.3558858    4.3558858    4.3558858    9508.0849    2836.1204    10681.927    15006.207    719.48934   -4238.0494    27589.098     82.64745 
   21100    1895.3104   -113.15028    1.7149167   -111.43536    15042.683    4.3594364    4.3594364    4.3594364    15042.683    1620.3798    31703.834    11803.835   -9072.6585      10653.7   -7778.1626     82.84972 
   21200    1371.7741   -112.68621      1.24121     -111.445   -6086.1341    4.3704443    4.3704443    4.3704443   -6086.1341   -34735.327    16132.305    344.62033   -8313.0912    563.49157    26879.478    83.478909 
   21300    1400.1506   -112.70829    1.2668857    -111.4414   -11626.178    4.3656822    4.3656822    4.3656822   -11626.178   -35251.685   -20241.967    20615.118   -3147.3267   -1019.8619    21724.643    83.206328 
   21400    1975.3022   -113.21607     1.787295   -111.42877    3566.7696    4.3490761    4.3490761    4.3490761    3566.7696   -22379.773    8746.4794    24333.603    1798.8887    1779.5825   -6128.8253     82.26044 
   21500    1357.1998   -112.67479    1.2280229   -111.44677    11324.099    4.3561994    4.3561994    4.3561994    11324.099   -11609.973    34565.695    11016.576     1360.219   -10670.113    27722.234    82.665303 
   21600     1480.005   -112.78381    1.3391397   -111.44468    -14359.61    4.3732078    4.3732078    4.3732078    -14359.61   -3740.6994   -17098.223   -22239.907     3464.994   -5495.2825    22183.904    83.637365 
   21700    1769.1213   -113.03193    1.6007382   -111.43119    1996.4712    4.3685589    4.3685589    4.3685589    1996.4712     3335.081    23309.577   -20655.245   -11012.208    7680.4549   -14763.409    83.370918 
   21800    1310.7381   -112.61789    1.1859834   -111.43191   -7676.7427    4.3658136    4.3658136    4.3658136   -7676.7427    15333.997    1908.7939   -40273.019   -764.06962   -8800.5505    15361.942    83.213843 
   21900     1490.406    -112.7782    1.3485507   -111.42965     -5408.49    4.3570572    4.3570572    4.3570572     -5408.49    34490.296    4581.2341       -55297    12696.904   -6250.7921    19470.612    82.714146 
   22000    1682.7089    -112.9607    1.5225504   -111.43815    6239.0131    4.3553482    4.3553482    4.3553482    6239.0131    19743.524    22548.457   -23574.942    8514.5071   -9744.0355   -20556.177    82.616851 
   22100    1159.5094   -112.49779    1.0491485   -111.44865    -22096.52    4.3763176    4.3763176    4.3763176    -22096.52   -16010.801   -4139.9491   -46138.811    7041.6517   -10658.173    9387.6363    83.815914 
   22200    1816.1053   -113.07052    1.6432503   -111.42727   -21779.767    4.3695766    4.3695766    4.3695766   -21779.767   -24409.537    -3009.488   -37920.276   -4317.2349    6492.7857    7665.6268      83.4292 
   22300    1587.2393   -112.86049    1.4361675   -111.42432    3789.0757    4.3542228    4.3542228    4.3542228    3789.0757   -22574.736    37653.619   -3711.6558    2033.5488   -2244.6316   -28653.934    82.552827 
   22400    1374.5312   -112.68304    1.2437047   -111.43933   -14202.339    4.3636212    4.3636212    4.3636212   -14202.339   -40640.259    2487.0808   -4453.8401     2965.617   -9159.2233    -204.5542    83.088539 
   22500    2071.9859   -113.30529    1.8747764   -111.43051   -6856.4389    4.3670289    4.3670289    4.3670289   -6856.4389   -38804.895      7114.15    11121.429   -1912.0873    3892.1788    19918.615    83.283353 
   22600    1440.5559   -112.74719    1.3034453   -111.44375   -2453.4856    4.3644975    4.3644975    4.3644975   -2453.4856    -41336.49    6267.6017    27708.431   -4931.3213   -11533.102   -14676.601    83.138606 
   22700    1403.7096   -112.71759    1.2701059   -111.44749   -2881.9949    4.3595437    4.3595437    4.3595437   -2881.9949   -33265.105     -10705.3     35324.42   -9668.7447   -11667.809   -32651.353    82.855835 
   22800    2021.4622   -113.27023    1.8290614   -111.44117     14017.49    4.3603476    4.3603476    4.3603476     14017.49    -13344.63   -8238.0564    63635.157    3305.6717   -1176.4173   -5434.2595    82.901683 
   22900    1482.8732   -112.79194    1.3417349   -111.45021    6665.9209    4.3655081    4.3655081    4.3655081    6665.9209    13273.839   -10803.242    17527.166    2611.3357   -22994.029   -5840.8875    83.196374 
   23000    982.62003   -112.33902   0.88909525   -111.44992    7447.7978    4.3680263    4.3680263    4.3680263    7447.7978     15835.59    8850.7323   -2342.9295    6782.0997   -6178.0981   -16259.362    83.340431 
   23100    1532.2627   -112.81545    1.3864235   -111.42903    2293.5137    4.3699558    4.3699558    4.3699558    2293.5137     6877.745   -12145.082    12147.878    3109.1222    8565.7716    794.97446    83.450919 
   23200    1009.9353   -112.34741    0.9138107   -111.43359   -10284.417    4.3618435    4.3618435    4.3618435   -10284.417    28074.263   -22667.398   -36260.117   -11696.277   -18659.741   -9845.8837    82.987033 
   23300    639.00305   -112.01656   0.57818339   -111.43837    16767.335    4.3494037    4.3494037    4.3494037    16767.335    59264.646    24713.141   -33675.784   -1287.6368   -12105.225   -18688.071     82.27903 
   23400    1451.1595   -112.75727    1.3130396   -111.44423   -2742.2919    4.3657721    4.3657721    4.3657721   -2742.2919    9437.5768    6323.0892   -23987.542    2105.2857   -1985.3628   -2386.0021    83.211466 
   23500    1196.3516   -112.52227     1.082484   -111.43978   -16952.482    4.3792169    4.3792169    4.3792169   -16952.482    -5152.223   -2378.0658   -43327.158    10317.191   -10094.142    -3296.669     83.98261 
   23600    1324.5299    -112.6298    1.1984625   -111.43134    25098.632    4.3585355    4.3585355    4.3585355    25098.632    36096.997    35959.757    3239.1425     12461.83   -7183.7292   -27979.052    82.798365 
   23700    2199.4611   -113.41266    1.9901186   -111.42254    15253.771    4.3583115    4.3583115    4.3583115    15253.771    13491.383     3876.975    28392.956   -3119.0801    7304.5466    6179.1019    82.785603 
   23800    2094.5992   -113.32565    1.8952373   -111.43041   -15923.454    4.3673487    4.3673487    4.3673487   -15923.454   -21214.063   -9762.7879    -16793.51    -5875.001   -2342.5681    14315.422    83.301649 
   23900     1987.823   -113.23291     1.798624   -111.43428     8381.322    4.3548296    4.3548296    4.3548296     8381.322    19422.601    18560.485    -12839.12    3028.5473   -9451.0943   -27387.696    82.587346 
   24000     2207.188   -113.43882    1.9971101   -111.44171    10914.722    4.3646626    4.3646626    4.3646626    10914.722    7798.4619    -2867.731    27813.436    3913.9438       2491.1    2652.0742    83.148042 
   24100    1816.1782   -113.08464    1.6433162   -111.44132   -14328.168    4.3698545    4.3698545    4.3698545   -14328.168   -11333.154   -20068.626   -11582.724    7247.1963    4093.5586    10673.387    83.445118 
   24200    1407.2357   -112.70692    1.2732964   -111.43362    8044.2537    4.3488299    4.3488299    4.3488299    8044.2537    18758.723    8811.3596   -3437.3214    3510.2104   -13039.037   -25912.351    82.246472 
   24300    1325.1441    -112.6376    1.1990183   -111.43859   -4522.8265    4.3634119    4.3634119    4.3634119   -4522.8265    8441.0066   -29810.889    7801.4033   -1670.9963    3545.3991   -576.09377    83.076583 
   24400    804.79654   -112.15692   0.72819682   -111.42873   -31892.317     4.378977     4.378977     4.378977   -31892.317    -21442.96   -32202.096   -42031.895    340.37732    4359.6913    14503.888    83.968811 
   24500    785.78221   -112.13988   0.71099226   -111.42889   -7373.0006    4.3541803    4.3541803    4.3541803   -7373.0006    16100.475   -17289.709   -20929.768   -4108.1314   -8229.9987   -23335.833     82.55041 
   24600    1093.3092   -112.41856   0.98924916   -111.42931    2546.2728    4.3461298    4.3461298    4.3461298    2546.2728    23954.516    -17356.38    1040.6826    1866.6574    3495.7377   -4063.8267    82.093369 
   24700    574.17847   -111.96729   0.51952875   -111.44776   -15255.309    4.3677338    4.3677338    4.3677338   -15255.309   -17297.786   -3288.0042   -25180.137    5231.7077    6191.8181    15088.964    83.323688 
   24800    1080.0438   -112.41985   0.97724632   -111.44261   -16882.913    4.3670348    4.3670348    4.3670348   -16882.913   -11580.683   -15446.188   -23621.867   -5682.3557   -5391.3343   -21318.712    83.283689 
   24900    1797.5613   -113.05647    1.6264713      -111.43    397.12364    4.3526727    4.3526727    4.3526727    397.12364    222.95332    7807.0885   -6838.6709    -4496.953   -1275.1788   -3872.4552    82.464689 
   25000    1252.9658   -112.57755    1.1337098   -111.44384    987.86105    4.3577642    4.3577642    4.3577642    987.86105   -18340.036    16701.068    4602.5514     1922.272    2476.7001    31000.001    82.754417 
   25100    2094.2194   -113.33457    1.8948937   -111.43968   -9290.6114    4.3579691    4.3579691    4.3579691   -9290.6114   -18644.938    7637.2944   -16864.191   -6271.0919    2957.2793   -6601.0964     82.76609 
   25200    2422.2817   -113.62917    2.1917313   -111.43744    15531.163     4.355007     4.355007     4.355007    15531.163   -15640.729    26349.458     35884.76    5178.2296   -1015.5132   -4588.8794     82.59744 
   25300    1648.1319   -112.94267    1.4912644   -111.45141   -5232.7592    4.3693525    4.3693525    4.3693525   -5232.7592   -45210.885    1555.7089    27956.899    12491.761   -5148.9251    31072.963    83.416362 
   25400    2135.6885   -113.37112    1.9324158   -111.43871   -637.47779     4.363426     4.363426     4.363426   -637.47779   -38249.878    31.714038     36305.73   -5910.1432   -1543.3085      10743.5    83.077388 
   25500    2094.7592   -113.32967    1.8953821   -111.43428    24622.392    4.3492772    4.3492772    4.3492772    24622.392   -5706.9653    13488.884    66085.258    1291.4451   -6521.4703   -13315.335    82.271849 
   25600    1267.2385   -112.60138     1.146624   -111.45476   -8925.1751     4.359479     4.359479     4.359479   -8925.1751   -20664.261   -25809.615    19698.351    634.22268   -5607.6552    13570.611    82.852146 
   25700    1477.1023   -112.78003    1.3365132   -111.44352   -18287.315    4.3673988    4.3673988    4.3673988   -18287.315   -22414.811   -46069.209    13622.075   -8708.5544    7910.3592    11518.217    83.304517 
   25800    1394.3096   -112.69892    1.2616006   -111.43732   -4354.6083    4.3608755    4.3608755    4.3608755   -4354.6083    2696.8059   -29051.149    13290.518    8022.0839   -9594.6317   -15476.979    82.931795 
   25900    669.97691   -112.04884   0.60620919   -111.44263   -4112.0143    4.3553103    4.3553103    4.3553103   -4112.0143    15791.867    -30114.58    1986.6699    8718.1431   -12078.568     22137.84    82.614697 
   26000    1125.1411   -112.45561    1.0180513   -111.43756   -4658.3325     4.356835     4.356835     4.356835   -4658.3325    9564.7456   -13047.892   -10491.851   -6732.1254     5398.454    11133.439    82.701488 
   26100    1349.7776   -112.65911    1.2213071    -111.4378   -20475.204    4.3651795    4.3651795    4.3651795   -20475.204   -3485.4602   -20181.173    -37758.98   -2281.5966   -9205.6497   -8769.0579     83.17759 
   26200    1205.2581   -112.53197    1.0905428   -111.44143   -17632.945    4.3611237    4.3611237    4.3611237   -17632.945    2270.7521   -15624.742   -39544.845   -1141.3805   -12836.312    448.94948    82.945958 
   26300    1543.4002    -112.8337    1.3965009    -111.4372    22138.127    4.3553449    4.3553449    4.3553449    22138.127    2106.8192    39920.986    24386.576   -6334.1624    3207.5911   -1794.9217    82.616666 
   26400    1993.4991   -113.24333    1.8037599   -111.43957   -1789.9709    4.3578594    4.3578594    4.3578594   -1789.9709   -814.13341    32256.384   -36812.163    7941.1924   -1625.7142    4038.2891    82.759842 
   26500     1851.649   -113.12116     1.675411   -111.44575    10336.847    4.3541762    4.3541762    4.3541762    10336.847     11039.67    42252.994   -22282.122    7781.2126   -16141.951    13830.551    82.550173 
   26600    2106.5397   -113.35048    1.9060414   -111.44443    18366.259    4.3618271    4.3618271    4.3618271    18366.259   -17942.753    42023.742    31017.788   -8067.8717   -407.86752    3213.9808    82.986095 
   26700    2102.2709   -113.34512    1.9021789   -111.44294    4118.0225    4.3624984    4.3624984    4.3624984    4118.0225    1325.0123     20144.76   -9115.7047   -7831.0131    9557.3624   -10223.089    83.024418 
   26800    1722.1816   -112.99911    1.5582661   -111.44084    16882.057    4.3499168    4.3499168    4.3499168    16882.057    22722.057    12750.298    15173.815    2303.6581   -12414.399   -9001.4264     82.30815 
   26900    1759.1016   -113.03323    1.5916721   -111.44156    24237.824    4.3567821    4.3567821    4.3567821    24237.824    1819.4027     13815.82     57078.25   -1319.6866    3317.1552    5050.3335    82.698478 
   27000    1437.6031   -112.74194    1.3007735   -111.44117    5535.0682    4.3649242    4.3649242    4.3649242    5535.0682    37206.741   -13057.949   -7543.5874    240.44431    21503.412    5539.7225    83.162993 
   27100    993.86115   -112.34058   0.89926645   -111.44131    5152.3488    4.3568678    4.3568678    4.3568678    5152.3488    24218.567   -36010.179    27248.659    2969.4087    -16668.38   -2122.6548    82.703362 
   27200    1139.5486   -112.47209    1.0310876     -111.441    1540.5106    4.3553594    4.3553594    4.3553594    1540.5106    17374.024   -54027.195    41274.703    8458.1153    -5386.734   -6893.6332    82.617492 
   27300    1029.9194   -112.37582   0.93189274   -111.44392    1526.8881    4.3551362    4.3551362    4.3551362    1526.8881    38910.709    -39052.18    4722.1347   -3510.1693    28703.031    8581.1698    82.604791 
   27400     863.4954   -112.22928   0.78130879   -111.44797    848.61072    4.3569135    4.3569135    4.3569135    848.61072   -5953.1892   -7840.9922    16340.014   -1152.5332   -172.45893    4545.4101    82.705959 
   27500     1193.076   -112.52256    1.0795202   -111.44304   -679.79551    4.3615893    4.3615893    4.3615893   -679.79551    2045.2395   -18361.674    14277.048     8611.034   -10983.022   -5645.6108    82.972527 
   27600    1576.9569   -112.86535    1.4268637   -111.43849   -9172.9836    4.3591329    4.3591329    4.3591329   -9172.9836   -3093.2091     1663.696   -26089.438    4473.8527    25444.244   -589.21274    82.832413 
   27700    1572.0636   -112.86679    1.4224362   -111.44435    6743.2218    4.3525294    4.3525294    4.3525294    6743.2218   -16811.118    35617.374    1423.4092    5644.3805    5006.2386     -778.392    82.456548 
   27800    1850.8391   -113.12134    1.6746781   -111.44666    18286.813    4.3563747    4.3563747    4.3563747    18286.813    1751.6521    44275.454    8833.3317    5364.7764   -17189.951    5432.6542    82.675283 
   27900      2094.48    -113.3392    1.8951295   -111.44407   -3074.5657    4.3679547    4.3679547    4.3679547   -3074.5657   -13837.996    34571.419   -29957.121   -10233.271    19476.503    10500.847    83.336334 
   28000    1776.5274   -113.04797    1.6074393   -111.44053    5631.3114    4.3662105    4.3662105    4.3662105    5631.3114   -2320.8254    23807.536   -4592.7766    2970.5679    8179.0238   -8691.4567    83.236536 
   28100    1801.6752   -113.06348    1.6301936   -111.43329    17916.573    4.3560346    4.3560346    4.3560346    17916.573    15242.996    37848.975    657.74868    20869.395   -19205.488   -5844.6937    82.655917 
   28200    1638.5303   -112.91939    1.4825766   -111.43681    10418.788    4.3566036    4.3566036    4.3566036    10418.788    48012.477   -4989.0805   -11767.032    476.35583    11558.395    8731.8039    82.688315 
   28300    1213.4658   -112.53967    1.0979694    -111.4417   -9082.0809    4.3650259    4.3650259    4.3650259   -9082.0809    15339.786   -44759.523    2173.4937   -1103.5681     4876.257   -1263.5456    83.168808 
   28400     1036.193   -112.37587   0.93756923    -111.4383    1266.5994     4.363309     4.363309     4.363309    1266.5994    31186.975   -37264.682    9877.5052    6253.9444   -25850.179    4643.9553    83.070705 
   28500    1025.2579   -112.35989   0.92767491   -111.43221    8437.5893    4.3633441    4.3633441    4.3633441    8437.5893     58692.58   -43831.779    10451.968    4507.6179    9656.6222     6499.166    83.072713 
   28600    1294.5537   -112.60052    1.1713394   -111.42919   -17659.918      4.36469      4.36469      4.36469   -17659.918    5481.9638   -52343.771    -6117.948    7652.7539     17265.53   -557.11673     83.14961 
   28700    1238.0489   -112.55338    1.1202127   -111.43317    3453.6231    4.3529312    4.3529312    4.3529312    3453.6231    33549.577   -7559.8225   -15628.886    9996.1066   -14048.914     2185.504    82.479386 
   28800    1438.0308   -112.74445    1.3011605   -111.44329     522.5321    4.3562978    4.3562978    4.3562978     522.5321    34750.391   -22257.139   -10925.656    -4781.595   -6810.2024    5517.8842    82.670903 
   28900    1770.3782   -113.04438    1.6018754   -111.44251   -10758.481    4.3655643    4.3655643    4.3655643   -10758.481   -11764.237   -10508.851   -10002.354   -6501.9739    2979.5414   -310.73368    83.199584 
   29000    1820.3083    -113.0837    1.6470532   -111.43665   -3303.2918    4.3611842    4.3611842    4.3611842   -3303.2918   -5474.3648     40913.36    -45348.87    10041.334   -14797.148    8153.0504    82.949409 
   29100     1785.699   -113.05439     1.615738   -111.43865   -4309.1566    4.3620197    4.3620197    4.3620197   -4309.1566   -5802.6369    40613.584   -47738.417    2321.2111   -5866.6781    15604.825    82.997092 
   29200    1841.8334   -113.10162    1.6665296   -111.43509    72.254184    4.3574422    4.3574422    4.3574422    72.254184   -20945.926    35838.348   -14675.659   -6973.5252    9253.7346    4051.9101    82.736072 
   29300    1370.8565   -112.68082    1.2403798   -111.44044    22493.218    4.3498049    4.3498049    4.3498049    22493.218    1327.0474    79462.159   -13309.551    1443.8169   -11500.706   -1256.6703    82.301801 
   29400    1447.5156   -112.75712    1.3097426   -111.44738   -14716.236    4.3649306    4.3649306    4.3649306   -14716.236   -24020.071    9487.1249   -29615.761   -4212.3129   -5491.7011    7449.4991    83.163358 
   29500    1432.1417    -112.7347    1.2958319   -111.43886   -23946.845    4.3691273    4.3691273    4.3691273   -23946.845   -37878.742   -41306.868    7345.0752   -14452.745     3635.904   -3568.1733    83.403463 
   29600    1169.3828   -112.48875    1.0580821   -111.43067    5565.4748     4.354818     4.354818     4.354818    5565.4748   -1987.9682   -814.79227    19499.185    1600.0599    -15414.89    5619.7022    82.586686 
   29700    1469.7648   -112.76124    1.3298741   -111.43137    2358.9394    4.3589862    4.3589862    4.3589862    2358.9394   -19.707626     12601.53   -5505.0038   -4070.1653    -11340.58    12535.111    82.824056 
   29800    1705.4522   -112.97708     1.543129   -111.43395   -6504.2416    4.3597511    4.3597511    4.3597511   -6504.2416   -5033.2811   -27591.757    13112.313   -21659.446    4612.4449   -8794.8217    82.867664 
   29900    1504.5163   -112.80136     1.361318   -111.44004     7886.887    4.3526594    4.3526594    4.3526594     7886.887    6597.7309   -11407.111    28470.041    599.04814    -1263.177    6734.5139    82.463937 
   30000     1946.818   -113.20556    1.7615219   -111.44404    -16371.94    4.3662089    4.3662089    4.3662089    -16371.94   -266.29697   -28274.593   -20574.929    5289.0395     -13058.5    8977.4843    83.236445 
   30100    2094.3879    -113.3301    1.8950461   -111.43506   -16312.849    4.3677568    4.3677568    4.3677568   -16312.849   -6617.6383   -28398.008   -13922.901   -14367.357   -7933.3896   -12608.951    83.325002 
   30200    1802.7105   -113.06151    1.6311303   -111.43038    22128.549    4.3510539    4.3510539    4.3510539    22128.549    1197.0675    44943.368    20245.211   -3064.5088    -16350.83    11301.318    82.372717 
   30300     2238.697   -113.45693    2.0256201   -111.43131   -307.12921    4.3602016    4.3602016    4.3602016   -307.12921    5584.4878    15933.287   -22439.162    -10155.14   -5430.7717     2505.922    82.893353 
   30400    1907.0364   -113.16427    1.7255266   -111.43874   -17969.665    4.3621112    4.3621112    4.3621112   -17969.665   -17006.728   -2990.1249   -33912.141   -8551.0744    13416.507   -21250.602    83.002314 
   30500     1676.708   -112.95899    1.5171207   -111.44187    5858.8383    4.3475138    4.3475138    4.3475138    5858.8383   -20931.441    28625.614    9882.3418     5380.943   -1739.5796    1094.2909    82.171822 
   30600     1942.895   -113.20324    1.7579722   -111.44526   -6415.2775    4.3659932    4.3659932    4.3659932   -6415.2775   -14672.909    13361.981   -17934.904    1277.7569   -7466.5147    2152.5244    83.224109 
   30700    1333.0163   -112.65147    1.2061411   -111.44533   -24134.346    4.3671606    4.3671606    4.3671606   -24134.346     -25399.2   -29520.867   -17482.972   -7805.1147   -5156.8609   -11423.403    83.290889 
   30800    969.80657   -112.31441   0.87750136   -111.43691     23988.75    4.3402749    4.3402749    4.3402749     23988.75    6975.1829    35531.703    29459.363   -15514.249   -41.911817    1588.6428    81.762039 
   30900    1378.3493   -112.69035    1.2471594   -111.44319   -4754.2236     4.356396     4.356396     4.356396   -4754.2236   -18101.998    12160.134   -8320.8063    4681.7266   -2012.4053   -2715.1667    82.676494 
   31000    838.05794   -112.20215   0.75829243   -111.44386   -35639.422    4.3668126    4.3668126    4.3668126   -35639.422   -40554.713    -53805.25   -12558.302    11895.461   -2724.3934   -5089.4448    83.270977 
   31100    552.93361   -111.94004   0.50030595   -111.43974     22432.09    4.3492546    4.3492546    4.3492546     22432.09    24145.305    781.56159    42369.402   -11905.964    2983.7052   -1921.7276    82.270568 
   31200    1098.1124   -112.43127   0.99359521   -111.43768    1704.5118    4.3600207    4.3600207    4.3600207    1704.5118   -6178.6139    3308.8372    7983.3122    4016.7376    -3831.927    3921.5705    82.883037 
   31300    823.46347   -112.18916   0.74508705   -111.44408   -18268.781    4.3607546    4.3607546    4.3607546   -18268.781   -29608.665   -31287.019    6089.3392    15019.847     125.5335    10732.605    82.924899 
   31400    1018.0985   -112.36339   0.92119691   -111.44219    14444.291    4.3479238    4.3479238    4.3479238    14444.291   -11176.942    14948.628    39561.188   -11103.308    6801.8093    -6739.753    82.195069 
   31500    1517.3586   -112.81712     1.372938   -111.44418   -6575.1049     4.362773     4.362773     4.362773   -6575.1049   -14760.234   -9470.0751    4504.9946   -2256.1125   -1547.0123    2482.9122    83.040097 
   31600    1459.5982   -112.76677    1.3206751   -111.44609   -520.43774    4.3573458    4.3573458    4.3573458   -520.43774    2181.5278   -7927.7563    4184.9152    14356.778   -10522.829    17006.416    82.730582 
   31700    1875.4227   -113.13665    1.6969219   -111.43973    24562.101    4.3447709    4.3447709    4.3447709    24562.101   -8869.4876    44686.352    37869.439    1776.0786   -2284.6254    2961.2398    82.016391 
   31800    2129.5806   -113.37371    1.9268893   -111.44682   -4760.7847    4.3623924    4.3623924    4.3623924   -4760.7847   -18961.316    6914.2631   -2235.3014    2336.7245    9375.7549    6849.2726    83.018367 
   31900    1950.4677    -113.2108    1.7648242   -111.44597   -5237.9895     4.362024     4.362024     4.362024   -5237.9895   -3946.3515   -799.05591   -10968.561    13068.276    453.88006    13772.093    82.997334 
   32000    2249.4496   -113.47323    2.0353493   -111.43788    19902.224    4.3479601    4.3479601    4.3479601    19902.224    17466.788    17167.132    25072.751   -8181.4646    2984.5348   -3782.7946    82.197127 
   32100    2357.6416   -113.57518    2.1332436   -111.44193    -3761.033    4.3594066    4.3594066    4.3594066    -3761.033    5945.9221   -2852.0984   -14376.923   -11059.658    3130.1435     5681.157     82.84802 
   32200     1718.386   -113.00061    1.5548318   -111.44578    2807.0906    4.3622707    4.3622707    4.3622707    2807.0906    28823.129   -9211.5745   -11190.283    21530.572   -5874.6802    16882.768     83.01142 
   32300    1917.2551   -113.17186    1.7347727   -111.43709    7429.7349    4.3575149    4.3575149    4.3575149    7429.7349   -3618.1523   -729.93325     26637.29    1687.1522   -853.99928    5047.2744    82.740213 
   32400    1687.0114   -112.96265    1.5264434   -111.43621   -16014.526     4.362471     4.362471     4.362471   -16014.526   -17537.012   -25784.672   -4721.8935     -6550.87   -2170.8585    2211.6673    83.022854 
   32500    929.67888   -112.28304   0.84119299   -111.44185   -13355.643    4.3564026    4.3564026    4.3564026   -13355.643   -14445.187   -28019.244    2397.5012    16313.498    851.18915    6241.9006    82.676867 
   32600    1117.8122   -112.44996      1.01142   -111.43854    3194.1754    4.3534634    4.3534634    4.3534634    3194.1754   -2802.3482   -18331.738    30716.613     2765.957    4093.4495    3991.3423    82.509638 
   32700    1150.5411   -112.47882    1.0410338   -111.43778   -4761.6427    4.3603016    4.3603016    4.3603016   -4761.6427    7480.0665   -37671.129    15906.134   -3682.3919   -7474.0875   -607.49755    82.899057 
   32800    547.76136   -111.94231   0.49562599   -111.44668   -9049.9784    4.3562957    4.3562957    4.3562957   -9049.9784   -20583.901   -42270.009    35703.974    18317.236   -668.12332    6794.0549    82.670784 
   32900    883.60345     -112.245   0.79950297    -111.4455    -9220.042    4.3543512    4.3543512    4.3543512    -9220.042   -36034.153   -20627.154    29001.181    8708.9828    677.32132    4646.2724    82.560132 
   33000    1366.5929   -112.67826     1.236522   -111.44174   -8583.1384    4.3572916    4.3572916    4.3572916   -8583.1384   -24124.774   -26983.881    25359.241   -3321.3323   -9753.3267   -9975.7321    82.727493 
   33100    889.73771   -112.25473   0.80505338   -111.44968    1486.7453    4.3571301    4.3571301    4.3571301    1486.7453    2452.6969   -37356.167    39363.706    15345.645    5617.3508    13534.466    82.718295 
   33200    1478.4691    -112.7837    1.3377499   -111.44595    6357.4708     4.358798     4.358798     4.358798    6357.4708   -4531.1196   -12865.188     36468.72    13177.602    2953.1126    13056.814    82.813329 
   33300    2036.2109   -113.27782    1.8424064   -111.43542    3349.8949    4.3577837    4.3577837    4.3577837    3349.8949   -13315.315   -5181.7944    28546.794   -3246.6046   -227.09533   -8937.1474    82.755527 
   33400    1515.4466   -112.81716     1.371208   -111.44595    3103.0948     4.353133     4.353133     4.353133    3103.0948    2292.0968   -19351.862    26369.049    11427.454   -2512.9211    15180.553    82.490859 
   33500    1951.1604   -113.21287     1.765451   -111.44742    2006.8676    4.3551422    4.3551422    4.3551422    2006.8676   -1579.8112    901.10051    6699.3135    17476.427   -4132.0075    -626.1766    82.605127 
   33600    2287.0538   -113.50915    2.0693744   -111.43978       5645.4    4.3595381    4.3595381    4.3595381       5645.4    23006.837    5789.2091   -11859.846   -2987.4266   -113.80234   -4622.0408    82.855515 
   33700    1563.8255   -112.86522    1.4149821   -111.45024   -8604.5305    4.3602967    4.3602967    4.3602967   -8604.5305    32869.567   -17400.643   -41282.515    4856.1544   -7585.4885    30511.892    82.898778 
   33800    1656.7712   -112.94301    1.4990814   -111.44393    10186.048    4.3546514    4.3546514    4.3546514    10186.048    32280.657   -6257.7036     4535.191    2945.7716    1406.9037    5507.4938    82.577205 
   33900    1891.6183   -113.14887     1.711576    -111.4373    12256.601    4.3530775    4.3530775    4.3530775    12256.601    48234.665   -8141.5266   -3323.3351   -10262.433    6482.5894   -10738.725    82.487703 
   34000    1239.4311   -112.57107    1.1214633   -111.44961    -16552.85    4.3607689    4.3607689    4.3607689    -16552.85    43539.251   -43652.921    -49544.88    7623.0548   -10539.094     22976.25    82.925711 
   34100    1414.0379   -112.72022    1.2794512   -111.44076   -14789.028    4.3648371    4.3648371    4.3648371   -14789.028    30885.057   -41296.979   -33955.163    4425.2426    2944.4171    5386.9706    83.158013 
   34200    1539.4711   -112.82588    1.3929458   -111.43293     12434.89    4.3565825    4.3565825    4.3565825     12434.89    50164.859   -15140.446    2280.2561   -17949.316    1300.3107   -3502.9647    82.687115 
   34300    1149.5537   -112.48286    1.0401403   -111.44272   -3099.2148    4.3528213    4.3528213    4.3528213   -3099.2148     34890.16   -48710.818    4523.0129   -7767.9022    370.25752    33264.245    82.473138 
   34400    1612.8632   -112.90327    1.4593526   -111.44392   -13323.352    4.3556578    4.3556578    4.3556578   -13323.352    10193.053   -37367.858    -12795.25    17100.848   -6200.4728     11893.55    82.634471 
   34500    1609.1266    -112.9022    1.4559715   -111.44622   -10209.329    4.3605196    4.3605196    4.3605196   -10209.329    2305.6531   -50738.298    17804.657   -10761.963   -9100.0738   -2838.7817    82.911494 
   34600    1358.4906   -112.67273    1.2291908   -111.44354   -21179.524    4.3641431    4.3641431    4.3641431   -21179.524    1973.5261   -59161.267   -6350.8314   -17275.592    1301.5709    26420.083    83.118357 
   34700    1748.7237   -113.01712    1.5822819   -111.43484   -691.12694    4.3543156    4.3543156    4.3543156   -691.12694   -25634.622   -87.049695     23648.29     7556.761   -577.89161   -1430.8046    82.558106 
   34800    1464.7405   -112.76381     1.325328   -111.43848   -4962.5302    4.3512189    4.3512189    4.3512189   -4962.5302   -51674.223   -13093.733    49880.366   -18758.246    467.02668   -3978.8634    82.382091 
   34900    1170.8507   -112.50733    1.0594103   -111.44792   -12317.879    4.3618944    4.3618944    4.3618944   -12317.879    -21180.71   -28031.078    12258.152   -13784.994    4680.6064    27305.897    82.989938 
   35000    1638.8477   -112.91824    1.4828638   -111.43537    475.13427    4.3631226    4.3631226    4.3631226    475.13427   -23841.863    14684.647     10582.62    10378.487   -9204.2428    3634.5671    83.060061 
   35100    1431.3828   -112.73034    1.2951453    -111.4352   -3504.2544    4.3544906    4.3544906    4.3544906   -3504.2544   -41159.852    8854.3987     21792.69   -28628.775   -971.39923    972.19103     82.56806 
   35200    1009.4499   -112.36036   0.91337151   -111.44699   -6974.3048    4.3557296    4.3557296    4.3557296   -6974.3048   -15417.468   -7222.2235    1716.7769   -17926.385    3651.8905    25687.303    82.638559 
   35300    1958.3929   -113.21205     1.771995   -111.44006    17.139223    4.3570725    4.3570725    4.3570725    17.139223   -9768.7865    29642.416   -19822.212    11379.436   -4080.3033    1156.8009    82.715016 
   35400     1684.865   -112.96839    1.5245013   -111.44389     21571.85    4.3530171    4.3530171    4.3530171     21571.85    43711.663   -240.49239    21244.381   -22291.977   -3268.1715    3023.0288    82.484265 
   35500     1475.012   -112.78385    1.3346218   -111.44923    2344.8673    4.3602031    4.3602031    4.3602031    2344.8673    38826.346   -27963.276   -3828.4677   -26587.936   -8949.0644    22971.233    82.893436 
   35600    2188.2221   -113.41448    1.9799493   -111.43453   -7803.4357     4.361966     4.361966     4.361966   -7803.4357    34177.279   -18588.222   -38999.364    7634.7934    2974.3685   -318.44553    82.994026 
   35700     1676.642   -112.95452    1.5170609   -111.43746    6484.3628    4.3512648    4.3512648    4.3512648    6484.3628    44466.657   -24884.598   -128.97048   -20000.413     5818.464   -3505.2926    82.384697 
   35800    1482.2959   -112.78591    1.3412125    -111.4447   -812.14924     4.352746     4.352746     4.352746   -812.14924    26653.303    -20830.19   -8259.5603   -21996.166   -4436.6503    12323.049    82.468857 
   35900    1714.0977   -112.99182    1.5509516   -111.44087   -1565.6494    4.3579125    4.3579125    4.3579125   -1565.6494    20515.865   -24309.402   -903.41067    9466.1074   -4016.0496    9395.9628    82.762865 
   36000    1213.8632   -112.54154    1.0983289   -111.44321   -2217.3973     4.355062     4.355062     4.355062   -2217.3973    11909.049   -39530.003    20968.762   -28640.035   -5196.2763   -4909.3951    82.600566 
   36100    943.59224    -112.2982   0.85378209   -111.44442   -171.36406    4.3594555    4.3594555    4.3594555   -171.36406    8212.0507   -19876.769    11150.626   -13987.467    -2478.982    8132.4361    82.850808 
   36200    1271.2368   -112.58642    1.1502417   -111.43618   -3740.9287    4.3556178    4.3556178    4.3556178   -3740.9287   -22251.841    16793.096   -5764.0412    18291.552    10550.508    12939.851    82.632194 
   36300    868.55146   -112.22555   0.78588362   -111.43967    3383.2212    4.3472315    4.3472315    4.3472315    3383.2212   -43586.566    9089.5611    44646.669   -30861.631   -3887.7447   -11813.861    82.155813 
   36400    1047.1032   -112.39773   0.94744101   -111.45029   -19882.823    4.3596347    4.3596347    4.3596347   -19882.823   -61999.436   -15862.145    18213.111   -15380.527   -6816.3523    10563.629    82.861025 
   36500    1466.7754   -112.76587    1.3271692    -111.4387    2122.2726    4.3576324    4.3576324    4.3576324    2122.2726   -8949.6915    15767.657   -451.14751    10555.862    5258.7688    17442.675    82.746909 
   36600    1455.4144   -112.75465    1.3168895   -111.43776    15579.868    4.3495196    4.3495196    4.3495196    15579.868   -4033.2829    14448.255    36324.632   -29112.417    8675.6215   -14714.195    82.285608 
   36700    1718.6813    -113.0002     1.555099    -111.4451   -15352.963    4.3640229    4.3640229    4.3640229   -15352.963   -34793.846   -581.76692   -10683.278   -3312.9937   -2391.9864    181.23064     83.11149 
   36800    2126.2129   -113.35799    1.9238421   -111.43415   -8951.9198    4.3612315    4.3612315    4.3612315   -8951.9198   -15269.919     4813.486   -16399.326   -3540.1093    -6958.545    9093.4693    82.952108 
   36900    1858.3033    -113.1187    1.6814319   -111.43727    18489.272    4.3526115    4.3526115    4.3526115    18489.272    32238.616    1236.1742    21993.025   -27711.744   -2571.9082   -13829.688    82.461212 
   37000     2077.713   -113.31814    1.8799584   -111.43818   -3121.0679     4.357957     4.357957     4.357957   -3121.0679    17029.604   -18517.518   -7875.2903     1871.919   -12232.763    7532.3395    82.765401 
   37100    1944.8484   -113.19919    1.7597397   -111.43945    7069.5713    4.3509996    4.3509996    4.3509996    7069.5713     46571.38   -19522.399   -5840.2664   -331.49462    671.80284     15906.88    82.369634 
   37200    1632.8181   -112.92452    1.4774081   -111.44711    9226.6116    4.3552167    4.3552167    4.3552167    9226.6116    63226.411   -39364.063     3817.487   -15344.778    5792.0185   -16019.121    82.609371 
   37300    1550.1369    -112.8437    1.4025964    -111.4411   -17919.998    4.3703167    4.3703167    4.3703167   -17919.998    22775.157   -47555.872   -28979.278   -1766.2621   -6140.7335   -2654.1227    83.471596 
   37400    1231.1331     -112.551    1.1139551   -111.43704     2556.337    4.3562509    4.3562509    4.3562509     2556.337    38857.638   -16496.501   -14692.126    8502.5872   -613.99577    15474.392    82.668234 
   37500    1081.0268   -112.41643   0.97813574   -111.43829     15926.25    4.3490168    4.3490168    4.3490168     15926.25    56888.401     -25427.7    16318.051   -14750.491    1193.0382   -11238.677    82.257071 
   37600    1150.0284   -112.48323    1.0405699   -111.44266   -17463.077    4.3617242    4.3617242    4.3617242   -17463.077    8165.2626   -46700.165   -13854.328   -3055.6897    9372.6736    4516.1703    82.980222 
   37700    966.65414   -112.31511   0.87464898   -111.44046   -19743.124    4.3616115    4.3616115    4.3616115   -19743.124   -5982.6988   -33790.977   -19455.697    1715.7048   -5199.6478    18421.087    82.973793 
   37800    1056.6105   -112.39357   0.95604342   -111.43752   -15694.149    4.3609301    4.3609301    4.3609301   -15694.149   -26299.606   -10334.167   -10448.674   -10189.622    3843.6663   -30809.321    82.934907 
   37900    1034.8898   -112.37299   0.93639003    -111.4366     3143.717    4.3560845    4.3560845    4.3560845     3143.717    6909.6813    16012.576   -13491.106     5307.219    3726.8441    4163.5422    82.658761 
   38000    1002.8611    -112.3492   0.90740978   -111.44179    6767.5058    4.3482307    4.3482307    4.3482307    6767.5058   -6505.4508    12351.752    14456.217   -914.63289   -6512.9648    31037.854    82.212478 
   38100    1116.7837   -112.45878    1.0104893   -111.44829   -17826.135    4.3621592    4.3621592    4.3621592   -17826.135   -59367.132    3116.9319    2771.7936    -15897.13    10373.163   -22188.266    83.005052 
   38200    1252.4748   -112.56933    1.1332655   -111.43606   -28547.491     4.370175     4.370175     4.370175   -28547.491   -53067.153    1677.3213   -34252.643   -2109.9979    589.91505    11784.914    83.463482 
   38300    1218.5159     -112.537    1.1025388   -111.43446    7548.1326    4.3521897    4.3521897    4.3521897    7548.1326   -1053.0179    16941.099     6756.317    1659.0119   -3709.1433    26040.511    82.437241 
   38400    1521.5295   -112.81303    1.3767119   -111.43631    17807.619    4.3473586    4.3473586    4.3473586    17807.619    12751.077    24700.063    15971.718     882.9709   -4749.1406   -33908.395    82.163023 
   38500    1543.8215   -112.84114    1.3968822   -111.44426   -1617.5876    4.3602006    4.3602006    4.3602006   -1617.5876   -5586.1973    25124.268   -24390.833   -8315.0886   -1573.2879    10785.508    82.893296 
   38600    1584.3362   -112.87972    1.4335407   -111.44618   -5149.3771     4.364615     4.364615     4.364615   -5149.3771   -4831.3814   -3869.3153   -6747.4345   -9065.8889    5323.0875    35383.253    83.145323 
   38700    1958.6418   -113.20837    1.7722202   -111.43615    1192.7609    4.3617312    4.3617312    4.3617312    1192.7609    24036.661   -25393.617    4935.2391   -4188.8533    2372.5634   -18193.013    82.980622 
   38800    1793.6222   -113.06022     1.622907   -111.43731    4028.5932    4.3516397    4.3516397    4.3516397    4028.5932    76333.854   -32058.587   -32189.488   -1742.9446    2605.4606    16090.181    82.405991 
   38900    1812.2294   -113.08394    1.6397433    -111.4442    19064.589     4.347071     4.347071     4.347071    19064.589    65749.221    5989.7155   -14545.171    8614.9729   -9356.2802    31606.942    82.146714 
   39000    2147.6567    -113.3879     1.943245   -111.44466    6415.8138    4.3626846    4.3626846    4.3626846    6415.8138    49719.163   -30154.888   -316.83422    4121.2114   -7871.8191   -15630.627    83.035047 
   39100    1728.6369   -113.00988     1.564107   -111.44577   -22352.526    4.3691336    4.3691336    4.3691336   -22352.526    46106.504   -54083.156   -59080.926   -39.336385    4562.4699    28507.762    83.403828 
   39200    1723.3197   -113.00084    1.5592958   -111.44154   -487.55651    4.3532528    4.3532528    4.3532528   -487.55651    54105.628   -17473.186   -38095.112    698.34341    5467.8463    33098.009    82.497669 
   39300    2099.1575   -113.33248    1.8993618   -111.43312    27025.112    4.3437875    4.3437875    4.3437875    27025.112     49597.89    22299.302    9178.1425   -1045.4082     9180.936   -11134.908     81.96071 
   39400    1378.3652   -112.70231    1.2471738   -111.45514   -3778.6527    4.3582072    4.3582072    4.3582072   -3778.6527    39641.355   -4859.7707   -46117.542    3952.0248   -4028.9721    33644.955    82.779655 
   39500    1427.2239   -112.73922    1.2913822   -111.44784   -17660.459    4.3677192    4.3677192    4.3677192   -17660.459     9138.787   -7545.6729   -54574.491   -10032.299    -5331.748    20845.946    83.322854 
   39600    1630.8506   -112.90835    1.4756279   -111.43273     -1563.76    4.3564681    4.3564681    4.3564681     -1563.76   -18897.492    28946.501   -14740.289    10284.967   -1898.0339   -9787.3041    82.680598 
   39700    1004.4654   -112.34797   0.90886142   -111.43911   -10939.021    4.3536676    4.3536676    4.3536676   -10939.021   -7500.6936    9333.8242   -34650.193    14189.837     1000.008    40590.087    82.521251 
   39800    1092.3851   -112.42661   0.98841298   -111.43819    6621.4501     4.357397     4.357397     4.357397    6621.4501    22882.597    15058.834   -18077.081    1421.0908   -173.19117    6395.5229    82.733498 
   39900    1352.1998   -112.66237    1.2234988   -111.43887   -15510.537    4.3589223    4.3589223    4.3589223   -15510.537   -64669.197    17396.013    741.57365    338.05677    9299.1665   -3869.1969     82.82041 
   40000    770.07373   -112.14614    0.6967789   -111.44936   -24846.035    4.3626709    4.3626709    4.3626709   -24846.035   -46810.664    -313.6742   -27413.765    3998.9741     1985.655    44319.984     83.03427 
   40100    1418.4555   -112.72196    1.2834484   -111.43851    6012.3481    4.3553389    4.3553389    4.3553389    6012.3481    13066.582    2161.8862    2808.5767    12880.895   -10713.797   -804.38637    82.616322 
   40200    1539.6675   -112.82955    1.3931235   -111.43642    8272.3841    4.3518171    4.3518171    4.3518171    8272.3841    11746.809   -3482.3637    16552.707   -6805.8248    1801.6083    994.53515    82.416071 
   40300    980.88855   -112.34251   0.88752858   -111.45498   -18705.209    4.3665667    4.3665667    4.3665667   -18705.209    1060.9624   -39114.891   -18061.697   -103.44895    2812.0513     34743.65    83.256911 
   40400    2130.0284   -113.36506    1.9272944   -111.43777   -13000.724     4.362559     4.362559     4.362559   -13000.724   -10284.481   -20208.901   -8508.7907   -2184.3739    11461.752    -14196.27    83.027878 
   40500    1482.9562   -112.78046    1.3418099   -111.43865    31604.512    4.3504053    4.3504053    4.3504053    31604.512    90059.712    6391.1192   -1637.2939    1895.1511   -1143.5999    13125.669    82.335882 
   40600    1497.9468    -112.8059    1.3553738   -111.45053   -14593.502      4.35994      4.35994      4.35994   -14593.502    25002.976   -31570.552    -37212.93    6713.8027    7238.3086    36001.984    82.878436 
   40700    1935.8771   -113.19257    1.7516223   -111.44095   -5165.4117     4.365063     4.365063     4.365063   -5165.4117    47592.683   -23581.858    -39507.06    8284.7508   -2419.5185    -13814.29    83.170929 
   40800    1427.1575    -112.7355    1.2913221   -111.44417   -8167.5806    4.3590437    4.3590437    4.3590437   -8167.5806    64696.078   -14738.321     -74460.5   -3646.9974    1123.5579    22251.449    82.827334 
   40900    1246.7876   -112.57527    1.1281196   -111.44715   -11457.735    4.3544772    4.3544772    4.3544772   -11457.735    36331.892   -5600.3816   -65104.715    4523.6184    8740.8052    25651.524    82.567296 
   41000    1666.3698   -112.94659    1.5077664   -111.43882    18008.664    4.3541717    4.3541717    4.3541717    18008.664    55585.207    22384.038   -23943.254    17936.819   -2571.9915   -11836.557    82.549916 
   41100     1502.286   -112.80491       1.3593   -111.44561    -7580.768    4.3639122    4.3639122    4.3639122    -7580.768    38533.342    -14651.24   -46624.406    -6875.062     4025.634    38653.008    83.105162 
   41200    1566.7433   -112.85826    1.4176223   -111.44064   -25832.715    4.3691344    4.3691344    4.3691344   -25832.715   -23294.526   -15360.546   -38843.073     3365.276    11205.441    19409.702    83.403869 
   41300     1915.276   -113.16244     1.732982   -111.42945   -3944.5578    4.3557596    4.3557596    4.3557596   -3944.5578   -22607.735    1682.1643    9091.8975    3194.4332    6844.8691   -10420.981    82.640267 
   41400    1639.9041   -112.92372    1.4838197    -111.4399    10135.178    4.3486257    4.3486257    4.3486257    10135.178    34221.604   -14188.029    10371.959    5360.2208   -9930.0818    34691.289    82.234884 
   41500     1717.124   -112.99911    1.5536899   -111.44542   -2223.6104    4.3577189    4.3577189    4.3577189   -2223.6104   -5492.8883    -12973.14    11795.197   -141.13335    12679.057     14520.44    82.751834 
   41600    1681.8584   -112.96295    1.5217808   -111.44116    -14290.94    4.3655729    4.3655729    4.3655729    -14290.94   -59276.224   -753.13319    17156.538    5900.7959    14174.617   -2052.3191     83.20008 
   41700    1277.0228   -112.59405    1.1554771   -111.43857    -17405.78    4.3616017    4.3616017    4.3616017    -17405.78   -30627.531   -25901.055     4311.245    7006.3977   -6983.1782    34700.808    82.973232 
   41800    1254.4525    -112.5693     1.135055   -111.43424   -218.01174    4.3554584    4.3554584    4.3554584   -218.01174    1886.4457    155.03568   -2695.5165   -11772.938    10317.728    15169.429    82.623126 
   41900    1097.8904   -112.42983   0.99339428   -111.43644   -700.53344    4.3573131    4.3573131    4.3573131   -700.53344    5086.4615    13754.507   -20942.569    9992.7928    5382.0542   -6272.2944     82.72872 
   42000    958.38111   -112.30571   0.86716336   -111.43854   -24836.212    4.3609687    4.3609687    4.3609687   -24836.212   -3370.9847   -23582.155   -47555.497    15132.129   -794.45401    25854.005    82.937112 
   42100    1124.9546   -112.45562    1.0178826   -111.43774   -10185.081     4.358488     4.358488     4.358488   -10185.081   -222.93383    10610.326   -40942.636   -7634.0439    5844.4127    9751.0385    82.795659 
   42200    1322.4782   -112.63507    1.1966061   -111.43847    967.69076    4.3554478    4.3554478    4.3554478    967.69076    11406.479    8123.8537   -16627.261    2098.6627    1326.9205   -1815.0365    82.622522 
   42300    1291.1638   -112.61289    1.1682721   -111.44462    3656.6097    4.3564055    4.3564055    4.3564055    3656.6097    45320.786   -20983.166   -13367.791    7156.7807    2576.3904     24563.81    82.677036 
   42400    1949.7468   -113.20713    1.7641719   -111.44296   -1656.6604    4.3608332    4.3608332    4.3608332   -1656.6604    22913.423   -9672.6567   -18210.748    1735.5482     5504.006   -81.302054    82.929381 
   42500    1979.8392   -113.23253    1.7914001   -111.44113    9358.6533    4.3568193    4.3568193    4.3568193    9358.6533    20471.552   -5915.6268    13520.034   -679.98233    8933.9422    -6105.506    82.700597 
   42600    1876.6823   -113.14123    1.6980616   -111.44317    16852.172    4.3512541    4.3512541    4.3512541    16852.172    40480.107   -20978.346    31054.756    11261.959   -8811.4917    24283.919    82.384087 
   42700    2360.0862   -113.57998    2.1354556   -111.44452    3158.3597    4.3615741    4.3615741    4.3615741    3158.3597    12987.184   -25177.752    21665.647   -1386.1157   -8802.3943    4180.7903    82.971658 
   42800    2069.4944   -113.31581     1.872522   -111.44328    22720.724    4.3570898    4.3570898    4.3570898    22720.724    28722.341    -3783.078     43222.91   -2080.8507    9474.6408    4401.1987    82.716001 
   42900    1474.0274   -112.78341     1.333731   -111.44968    25982.719    4.3512056    4.3512056    4.3512056    25982.719    42348.725   -1191.2621    36790.694    9915.2368    4112.3261    27375.202    82.381331 
   43000    1513.0194   -112.81427    1.3690117   -111.44526    -9309.124    4.3657421    4.3657421    4.3657421    -9309.124   -36240.075   -4072.9533    12385.656   -2111.9603   -13317.316   -5388.2952     83.20975 
   43100    1267.1402   -112.58217    1.1465351   -111.43564   -5697.4639    4.3630837    4.3630837    4.3630837   -5697.4639   -35161.104    -3798.337    21867.049    1728.3641   -5468.1634   -3333.0162    83.057842 
   43200    734.93938   -112.10448    0.6649886   -111.43949    9074.6115    4.3520364    4.3520364    4.3520364    9074.6115    17074.264    19578.081   -9428.5111    10971.893    5944.6905     22312.53    82.428533 
   43300    802.17133   -112.16964   0.72582148   -111.44382    7591.1157      4.35435      4.35435      4.35435    7591.1157   -4500.4982    30839.296   -3565.4505    8772.2294   -13127.999   -4621.9367    82.560062 
   43400    1292.6674   -112.60813    1.1696326    -111.4385     2913.846    4.3571245    4.3571245    4.3571245     2913.846   -17003.319   -34.983522     25779.84   -1413.6786   -8887.2374   -967.39667    82.717976 
   43500    992.29837   -112.34794   0.89785242   -111.45008   -23461.933    4.3655947    4.3655947    4.3655947   -23461.933   -14504.864   -13277.282   -42603.651    1044.3445   -2935.2329    20226.556    83.201322 
   43600    1253.7595   -112.57988    1.1344279   -111.44545   -15117.656    4.3632777    4.3632777    4.3632777   -15117.656   -17510.936    622.83034   -28464.862    6657.6034   -10756.303   -6171.2027    83.068922 
   43700    1981.4558   -113.22587    1.7928629   -111.43301    27995.637    4.3482512    4.3482512    4.3482512    27995.637    36688.008    7547.5943    39751.309    1843.5879    8100.0033     146.7388    82.213639 
   43800    1828.8114   -113.09891     1.654747   -111.44416   -3714.3246    4.3564946    4.3564946    4.3564946   -3714.3246    31891.908   -31137.518   -11897.364    12889.701    3752.0118    24471.839    82.682111 
   43900     1637.576   -112.92764    1.4817132   -111.44593   -9931.3398    4.3662993    4.3662993    4.3662993   -9931.3398   -3507.8175   -20062.275   -6223.9264    8252.7531   -14493.741   -981.61733    83.241616 
   44000    2147.4617    -113.3764    1.9430685   -111.43333   -2903.0401    4.3580693    4.3580693    4.3580693   -2903.0401    2985.7723   -20195.086    8500.1936   -13163.555   -13301.923   -2408.2483    82.771799 
   44100    1723.6519   -112.99976    1.5595965   -111.44016   -4231.1561    4.3533978    4.3533978    4.3533978   -4231.1561    16604.726   -24312.829   -4985.3661    4190.4277    -956.5804    20976.527    82.505911 
   44200    1555.1392   -112.85121    1.4071226   -111.44408   -1554.7913    4.3570942    4.3570942    4.3570942   -1554.7913   -24675.677    12678.384    7332.9185    8029.4839    15483.576    1961.8701    82.716254 
   44300    1703.9428   -112.98146    1.5417632    -111.4397   -9661.8455    4.3643865    4.3643865    4.3643865   -9661.8455   -38223.896    3068.9397    6169.4199   -8676.9151     5883.931    6714.5953    83.132266 
   44400    1201.0315   -112.52801    1.0867186   -111.44129   -16828.242    4.3639738    4.3639738    4.3639738   -16828.242   -3917.3085   -29134.805   -17432.612    4871.4165   -11701.519    41591.523    83.108685 
   44500    1328.0363   -112.64294    1.2016352    -111.4413   -12571.877    4.3496005    4.3496005    4.3496005   -12571.877     -52198.5    22824.262   -8341.3938    2756.0487    2696.4148    16257.505    82.290199 
   44600    1424.3012   -112.73248    1.2887376   -111.44375   -5218.4458    4.3493122    4.3493122    4.3493122   -5218.4458   -63477.141    52439.331   -4617.5275   -3348.5839    5413.4564    -14782.13    82.273839 
   44700    1130.2772   -112.47344    1.0226986   -111.45074   -23769.546    4.3664547    4.3664547    4.3664547   -23769.546   -29386.563   -18300.406   -23621.671    8357.3854    3164.0658     30540.84    83.250504 
   44800    1373.2471   -112.68005    1.2425428   -111.43751   -8796.9703    4.3654106    4.3654106    4.3654106   -8796.9703   -20117.088    9087.3526   -15361.175    9686.1631    6015.6733    16939.296    83.190801 
   44900    1368.3146   -112.66893    1.2380798   -111.43085   -11386.534    4.3589746    4.3589746    4.3589746   -11386.534   -34766.293    20464.982   -19858.293    8166.6075   -7874.2472   -4614.2664    82.823395 
   45000    1158.8915    -112.4855    1.0485894   -111.43691   -22617.064    4.3548107    4.3548107    4.3548107   -22617.064    2305.3808   -32135.089   -38021.484     -3753.61   -5534.1547    34723.188    82.586271 
   45100    1355.2107   -112.66644    1.2262231   -111.44022   -1817.4714     4.350594     4.350594     4.350594   -1817.4714    21065.361   -24703.588   -1814.1874   -4938.2642    15750.435    7782.2937    82.346598 
   45200    1170.1977   -112.50606    1.0588195   -111.44724   -1483.6834    4.3613955    4.3613955    4.3613955   -1483.6834    7832.4443   -5027.8331   -7255.6614    3499.5581     19987.49    -10941.38    82.961466 
   45300    1250.2045   -112.57509    1.1312113   -111.44387   -21100.394    4.3659015    4.3659015    4.3659015   -21100.394    15791.476   -51888.918   -27203.741   -7139.0161   -7431.5134    24892.677     83.21887 
   45400    1347.0752   -112.65573    1.2188619   -111.43686    1587.7935    4.3541265    4.3541265    4.3541265    1587.7935    47464.968   -45037.697    2336.1095   -5581.7298   -388.99223    13066.874    82.547347 
   45500    1195.6834   -112.52381    1.0818794   -111.44193   -293.12528    4.3526416    4.3526416    4.3526416   -293.12528    18611.395   -28078.315    8587.5439    4764.5485    24524.692   -5910.3398    82.462921 
   45600    1467.3135    -112.7719    1.3276561   -111.44424   -8577.6647     4.363284     4.363284     4.363284   -8577.6647    10012.018   -48105.852     12360.84    7996.0651   -3304.1847    15165.488    83.069277 
   45700    1610.5334   -112.89551    1.4572445   -111.43826    -5315.847    4.3666991    4.3666991    4.3666991    -5315.847    15858.154   -33737.494    1931.7991    488.33543    15656.987    13377.484    83.264483 
   45800    1401.4302   -112.70588    1.2680435   -111.43784    4103.4502    4.3581936    4.3581936    4.3581936    4103.4502    12253.231    3185.0807   -3127.9607    1749.3779    31750.063    -7672.835    82.778881 
   45900      1953.53   -113.20551     1.767595   -111.43792    85.577411    4.3543023    4.3543023    4.3543023    85.577411    6126.9203   -7913.9765    2043.7885   -1453.4913   -19544.746    5916.4299    82.557345 
   46000    2036.8147   -113.28414    1.8429528   -111.44119    4055.4895    4.3598607    4.3598607    4.3598607    4055.4895    1071.0827    9097.0103    1998.3756   -2295.8619    4763.9012    15494.727    82.873912 
   46100    1721.0538   -113.00246    1.5572457   -111.44522   -9603.3693    4.3655035    4.3655035    4.3655035   -9603.3693   -24851.713     21540.65   -25499.045   -670.70167    41072.234    1339.1999    83.196113 
   46200    2206.3944   -113.43399     1.996392    -111.4376     -10977.3    4.3613656    4.3613656    4.3613656     -10977.3   -25791.423    13906.858   -21047.333    5655.1044   -10792.407   -4717.1386     82.95976 
   46300    1931.9832   -113.18554     1.748099   -111.43744    14444.441    4.3530652    4.3530652    4.3530652    14444.441    7368.0811    38359.401    -2394.159   -877.86944    9073.1561    6446.6729    82.487003 
   46400     1782.157   -113.05504    1.6125331   -111.44251     108.1777    4.3531987    4.3531987    4.3531987     108.1777    5985.2278    29740.684   -35401.379   -1484.1006    35937.973    1779.2593    82.494589 
   46500    1811.9854   -113.08383    1.6395225   -111.44431   -23653.144    4.3665696    4.3665696    4.3665696   -23653.144   -18912.798   -15411.796   -36634.837    3331.0397    -17569.71    4060.7227     83.25708 
   46600    1292.8234   -112.61006    1.1697738   -111.44029    -19295.79    4.3680512    4.3680512    4.3680512    -19295.79   -9769.2015   -20896.558   -27221.611   -689.75864   -2336.7365    9132.5748    83.341852 
   46700    1175.3764    -112.4954    1.0635053    -111.4319    1134.7632    4.3560688    4.3560688    4.3560688    1134.7632     19891.18    -12520.67   -3966.2209     945.8956    41149.777   -117.56734    82.657864 
   46800     1149.833   -112.47469    1.0403931    -111.4343   -9989.7715    4.3576418    4.3576418    4.3576418   -9989.7715    8385.2806   -52133.079    13778.484    354.70096   -9661.5082   -4378.2069    82.747445 
   46900    741.14236   -112.11427   0.67060118   -111.44367   -13739.904    4.3586215    4.3586215    4.3586215   -13739.904    1781.1906   -58099.706    15098.802    5483.4543   -10875.631    2818.8007    82.803264 
   47000     854.8158   -112.21727    0.7734553   -111.44381   -5885.0264    4.3612016    4.3612016    4.3612016   -5885.0264    11727.852   -39032.069    9649.1381    2783.9489    22372.074     3932.422    82.950403 
   47100    1067.1112    -112.4054   0.96554465   -111.43986   -11101.811    4.3654178    4.3654178    4.3654178   -11101.811   -1658.0846   -40581.465    8934.1153   -11178.877    -1744.849   -3943.1086     83.19121 
   47200    1061.1609   -112.40438   0.96016068   -111.44422   -1028.1348    4.3516918    4.3516918    4.3516918   -1028.1348    691.63526   -36579.456    32803.417    5510.0664   -12311.646    13.897705    82.408949 
   47300    1296.7599   -112.62299    1.1733356   -111.44965    12824.912    4.3523011    4.3523011    4.3523011    12824.912    32080.018   -16668.459    23063.176      20065.2    12875.883    7382.3531    82.443573 
   47400    1753.4045    -113.0307    1.5865173   -111.44418   -9783.2526     4.370026     4.370026     4.370026   -9783.2526   -4660.5562   -28039.404    3350.2024   -16564.515    8578.9426   -7802.8879    83.454942 
   47500    1733.5045   -113.00984    1.5685113   -111.44133    9963.2126    4.3639168    4.3639168    4.3639168    9963.2126    5537.4144    10482.122    13870.101    -12861.68   -7216.7022    -9618.979    83.105424 
   47600    2072.2701   -113.31018    1.8750335   -111.43514    28109.034    4.3552813    4.3552813    4.3552813    28109.034    30007.694     46588.99    7730.4178    14859.595    6168.0563    916.20303    82.613043 
   47700    2178.3143   -113.41013    1.9709845   -111.43914    17353.063    4.3588191    4.3588191    4.3588191    17353.063    10540.664    25199.359    16319.166   -3569.7403    12972.684      -1570.1    82.814529 
   47800    1683.3688   -112.96722    1.5231475   -111.44408    15685.455    4.3643535    4.3643535    4.3643535    15685.455    5019.3362     4267.125    37769.903   -11347.295    3789.9945   -5325.6284     83.13038 
   47900    1599.7356   -112.88477    1.4474744    -111.4373    1478.4112      4.36457      4.36457      4.36457    1478.4112    -461.0033   -5853.3145    10749.551    15830.287   -2797.0898   -7343.1567    83.142753 
   48000    1363.1928   -112.66698    1.2334455   -111.43353    2503.8917    4.3579831    4.3579831    4.3579831    2503.8917    29031.796   -36751.433    15231.313   -11035.894    537.18338   -5831.2858    82.766889 
   48100    1168.1002   -112.49506    1.0569216   -111.43814   -6928.9649    4.3606153    4.3606153    4.3606153   -6928.9649    1537.3199   -66445.548    44121.334   -8859.5301    391.67534    1170.3331    82.916952 
   48200    943.31408   -112.28979    0.8535304   -111.43626     862.5409    4.3628969    4.3628969    4.3628969     862.5409   -525.08721   -24604.247    27716.957    25156.451    -6645.355    6549.1823    83.047171 
   48300    1211.2051   -112.53086    1.0959238   -111.43494   -10688.592    4.3570829    4.3570829    4.3570829   -10688.592    21159.284   -68341.438    15116.378   -6099.8331     4919.984    6487.0718    82.715611 
   48400     1461.345   -112.76176    1.3222557   -111.43951   -18890.578     4.355982     4.355982     4.355982   -18890.578   -11414.061   -74083.276    28825.602   -19553.938    14774.403   -2873.1627    82.652927 
   48500    1364.9715   -112.68005    1.2350549     -111.445    -9255.239    4.3550113    4.3550113    4.3550113    -9255.239   -20071.871   -26513.849    18820.003    21867.845   -13432.183   -2588.8525    82.597682 
   48600    1690.3676   -112.97701    1.5294801   -111.44753   -1202.2411    4.3576226    4.3576226    4.3576226   -1202.2411    2769.5855    2283.9324   -8660.2412    1148.2842   -10791.603   -107.10268    82.746347 
   48700    2040.3748   -113.28745     1.846174   -111.44127   -4497.3259    4.3655585    4.3655585    4.3655585   -4497.3259   -4990.1292    6632.8265   -15134.675   -22952.345    7058.7754   -2228.3864    83.199254 
   48800    1636.0887   -112.92311    1.4803675   -111.44274   -3838.3814    4.3575278    4.3575278    4.3575278   -3838.3814   -16321.387    29990.011   -25183.768    24937.317    2274.6345    4902.7859    82.740949 
   48900    1437.4414   -112.74707    1.3006272   -111.44645     13313.01    4.3506441    4.3506441    4.3506441     13313.01    53166.305    29716.275   -42943.549    10247.948   -4689.7394   -6554.0798    82.349445 
   49000    2001.6778   -113.25022    1.8111602   -111.43906    3682.5805    4.3591362    4.3591362    4.3591362    3682.5805     24222.67    17481.925   -30656.854   -23212.876    3469.3183   -8828.2471    82.832606 
   49100    1116.8048   -112.45448    1.0105085   -111.44398    8443.4177    4.3634686    4.3634686    4.3634686    8443.4177    44069.101    9565.7119    -28304.56    19303.444    3430.4779    10574.593    83.079822 
   49200    1136.9002   -112.46932    1.0286912   -111.44063   -16727.424    4.3675982    4.3675982    4.3675982   -16727.424    33787.088   -29572.677   -54396.682    17229.908   -4765.3728   -2988.6551    83.315927 
   49300    1663.4352   -112.93477    1.5051112   -111.42965    7292.5794    4.3540037    4.3540037    4.3540037    7292.5794    23867.152    15017.559   -17006.973   -8242.7065   -550.05872   -3647.4285    82.540363 
   49400    1249.7385   -112.56989    1.1307897    -111.4391    18855.165    4.3438153    4.3438153    4.3438153    18855.165    51198.651   -8644.0855    14010.928    18949.954   -1419.0285    10214.865    81.962282 
   49500    1189.0782   -112.53044    1.0759029   -111.45454   -33846.441    4.3689032    4.3689032    4.3689032   -33846.441   -18498.924   -73664.427   -9375.9717    13248.134   -9066.4439    -8228.539     83.39063 
   49600    1740.6295    -113.0095    1.5749582   -111.43454   -16938.582    4.3672343    4.3672343    4.3672343   -16938.582   -3513.5164   -51771.917     4469.687   -2262.8999    288.31398    -689.0534    83.295107 
   49700    1477.5091   -112.76837    1.3368813   -111.43149    18344.348    4.3477829    4.3477829    4.3477829    18344.348    7147.4266     1791.386    46094.233    19268.754   -515.09108    20367.463    82.187079 
   49800    1616.5719   -112.90476    1.4627082   -111.44205   -10368.554    4.3588667    4.3588667    4.3588667   -10368.554   -36844.317   -10578.188    16316.844    16767.415   -1034.8694    3378.2427    82.817242 
   49900    2072.4872   -113.30952      1.87523   -111.43429   -7602.3243    4.3619499    4.3619499    4.3619499   -7602.3243   -11675.189    -13124.71    1992.9257   -2086.1421     578.9946    3655.0137    82.993109 
   50000    1486.1994   -112.78621    1.3447444   -111.44147    5492.1844    4.3577131    4.3577131    4.3577131    5492.1844   -7321.7654    769.18886     23029.13    9699.4311   -2289.4884    13115.373    82.751505 
   50100    1541.5136    -112.8347    1.3947939   -111.43991   -10786.119     4.366212     4.366212     4.366212   -10786.119   -30821.496    18425.572   -19962.432    25250.128   -15103.776    5386.1727    83.236626 
   50200    1684.8787   -112.95499    1.5245137   -111.43047   -2567.6121    4.3622935    4.3622935    4.3622935   -2567.6121    4295.5031    26876.876   -38875.215    2214.7741   -4132.1233    2920.8713     83.01272 
   50300     1206.509   -112.52775    1.0916747   -111.43607    8862.7513    4.3499498    4.3499498    4.3499498    8862.7513    16084.922    24185.996   -13682.664   -2004.3824    11692.045    16729.417    82.310028 
   50400    1115.3173   -112.45725    1.0091625   -111.44808   -3372.7758     4.355346     4.355346     4.355346   -3372.7758    -14641.77     43602.94   -39079.498    19736.929   -11150.112    1459.1638    82.616726 
   50500    1214.7778   -112.54726    1.0991565    -111.4481   -8684.4351    4.3622377    4.3622377    4.3622377   -8684.4351    25055.076   -778.98081     -50329.4    1439.8542    -9592.044   -13904.057    83.009537 
   50600    1154.8444   -112.48667    1.0449275   -111.44174    5833.5184    4.3575852    4.3575852    4.3575852    5833.5184    23988.856    14212.721   -20701.022   -5920.2519   -560.18372    13472.903    82.744222 
   50700    1388.5461   -112.69784    1.2563857   -111.44146   -14433.644    4.3634663    4.3634663    4.3634663   -14433.644   -33754.037    3789.2556    -13336.15    9183.9703     -3846.13    14734.228    83.079694 
   50800    1490.6425    -112.7887    1.3487647   -111.43994   -3650.0042    4.3613405    4.3613405    4.3613405   -3650.0042   -26.751827   -8860.6167    -2062.644    4319.6036    9179.0183   -10040.814    82.958327 
   50900    1836.3721   -113.09722     1.661588   -111.43563    14961.183    4.3501898    4.3501898    4.3501898    14961.183    41924.696    -17308.47    20267.323   -1993.0441   -216.88337    -998.2062    82.323649 
   51000    2076.9255   -113.32177    1.8792459   -111.44252   -10691.986    4.3608599    4.3608599    4.3608599   -10691.986   -28196.619   -28975.356    25096.019     -1912.91   -18945.492   -2993.7003    82.930904 
   51100    1863.8897   -113.12997    1.6864865   -111.44348   -12315.303    4.3653331    4.3653331    4.3653331   -12315.303   -14365.245   -51396.029    28815.365   -651.42796   -10927.687   -17670.058    83.186371 
   51200     2042.318   -113.28434    1.8479323   -111.43641    15172.905    4.3532071    4.3532071    4.3532071    15172.905    25882.406    2295.2643    17341.043    2239.3165    14371.253   -3855.7536     82.49507 
   51300    2087.4486   -113.32721    1.8887674   -111.43844   -5752.2697    4.3543838    4.3543838    4.3543838   -5752.2697   -19050.623    3613.9191   -1820.1056   -12109.422    11158.463    11141.497    82.561986 
   51400    1310.3633   -112.63462    1.1856442   -111.44897   -7484.1331    4.3625402    4.3625402    4.3625402   -7484.1331    12282.842   -26983.033   -7752.2087   -8888.8423   -11315.223   -14995.674    83.026806 
   51500    1699.0071    -112.9757    1.5372974    -111.4384   -11482.714    4.3626623    4.3626623    4.3626623   -11482.714    11948.647   -2478.9338   -43917.854     9757.966   -8045.1359   -16811.156    83.033778 
   51600    1416.7943   -112.72048    1.2819452   -111.43854   -5567.2865    4.3589167    4.3589167    4.3589167   -5567.2865    4703.5354    15329.128   -36734.523   -13398.194    1106.5975    2697.5044    82.820092 
   51700    862.51412   -112.22527    0.7804209   -111.44484    -13361.42    4.3570927    4.3570927    4.3570927    -13361.42    24338.392   -14709.713    -49712.94   -17011.336   -3265.3733   -18431.749    82.716166 
   51800    1401.4789   -112.70748    1.2680876   -111.43939    -12672.77    4.3596716    4.3596716    4.3596716    -12672.77    24392.632    4563.8265    -66974.77    10655.926    -3723.277   -9011.0361    82.863129 
   51900    1367.3998   -112.67411    1.2372521   -111.43686   -9364.7976    4.3714933    4.3714933    4.3714933   -9364.7976     19166.43    7987.6704   -55248.494   -11029.567   -1643.5858   -639.53463    83.539032 
   52000    1288.2389   -112.60372    1.1656256   -111.43809   -21820.741    4.3699523    4.3699523    4.3699523   -21820.741    12346.579   -50226.341   -27582.462   -14591.023   -2688.9851   -27421.638    83.450723 
   52100    2072.4074   -113.30808    1.8751578   -111.43293    12637.586    4.3434978    4.3434978    4.3434978    12637.586     25061.33   -129.61876    12981.046    13057.996    8705.9349   -2537.2065    81.944315 
   52200    2091.3221   -113.33418    1.8922722   -111.44191    31878.955    4.3449055    4.3449055    4.3449055    31878.955    42209.919    28874.053    24552.894   -1682.0575    1710.9617     17364.17    82.024013 
   52300    1903.9608   -113.17477    1.7227438   -111.45203   -4017.6913    4.3697815    4.3697815    4.3697815   -4017.6913    -5526.336   -29703.655    23176.917   -19865.123   -9622.3211   -19409.913    83.440937 
   52400    2311.4708    -113.5257    2.0914673   -111.43423   -1941.8747    4.3662694    4.3662694    4.3662694   -1941.8747   -19245.161    2903.0406    10516.497   -1561.0369    -2844.033   -3565.5388    83.239906 
   52500    1835.7776   -113.09146    1.6610502   -111.43041    17529.039    4.3514724    4.3514724    4.3514724    17529.039     42283.35    32046.026   -21742.259    4571.7387    3579.5533    18707.262    82.396487 
   52600    1394.7507   -112.70138    1.2619997   -111.43938   -2336.0936    4.3542238    4.3542238    4.3542238   -2336.0936    13230.631    7651.5189    -27890.43   -1022.3302   -3773.3347   -8706.6365    82.552882 
   52700    1333.1029   -112.64623    1.2062195   -111.44001    7907.9525    4.3581202    4.3581202    4.3581202    7907.9525    11338.783    41539.522   -29154.447   -8044.1298    10969.444   -8154.6372      82.7747 
   52800    1082.1592   -112.42226   0.97916037    -111.4431   -669.71405    4.3617676    4.3617676    4.3617676   -669.71405    50104.521     24785.37   -76899.033     2384.099    6030.9202    8847.7243    82.982699 
   52900    772.51593   -112.14407   0.69898865   -111.44508   -7439.9341    4.3597507    4.3597507    4.3597507   -7439.9341    25830.101    33724.601   -81874.504    1727.1587   -12434.277    5338.9828    82.867639 
   53000    1005.5939   -112.35123   0.90988251   -111.44134   -5552.1445    4.3535519    4.3535519    4.3535519   -5552.1445    22268.975    23764.668   -62690.076   -16050.133    3154.3929   -1191.7687    82.514672 
   53100    1158.3735   -112.49164    1.0481207   -111.44352    3522.5259    4.3570987    4.3570987    4.3570987    3522.5259    56020.626    17018.229   -62471.277    5682.5031    6338.4642    308.46898    82.716506 
   53200      1334.28    -112.6522    1.2072846   -111.44491     2084.034    4.3649659    4.3649659    4.3649659     2084.034    16170.927    23411.942   -33330.766    2403.2992   -9673.1319   -3686.4496    83.165376 
   53300    1827.2487   -113.09143     1.653333    -111.4381     7825.545     4.360532     4.360532     4.360532     7825.545     14415.26   -2203.9908    11265.366    -9604.592   -2811.4681    5306.1226    82.912199 
   53400    1975.7768   -113.22624    1.7877244   -111.43852    8547.0036     4.355335     4.355335     4.355335    8547.0036    20249.222   -6257.7007    11649.489    284.64425    6116.3158    18819.032    82.616103 
   53500    2048.6774    -113.2975    1.8536864   -111.44381   -182.69431    4.3594209    4.3594209    4.3594209   -182.69431   -27013.912     17975.48    8490.3492   -2222.9662   -12101.661    2616.1403    82.848837 
   53600    2418.8082   -113.62544    2.1885885   -111.43685    724.23797    4.3610182    4.3610182    4.3610182    724.23797   -13431.948   -5610.5839    21215.246   -4026.7954   -6208.4411   -9750.4745    82.939937 
   53700    1987.3618   -113.23964    1.7982067   -111.44143    -13163.89    4.3631649    4.3631649    4.3631649    -13163.89   -13380.726   -22785.249   -3325.6959   -2422.5918    2073.9743   -6325.9111    83.062479 
   53800    1272.2431   -112.59696    1.1511523   -111.44581   -13357.786    4.3588096    4.3588096    4.3588096   -13357.786   -21611.596    21994.472   -40456.234   -1840.5689   -9142.4332     -1882.91     82.81399 
   53900    1436.3885   -112.73802    1.2996745   -111.43834    8772.0456    4.3533906    4.3533906    4.3533906    8772.0456    20235.395    30325.083   -24244.341   -441.41334   -9502.7017    4702.7973      82.5055 
   54000    1216.9887   -112.54433     1.101157   -111.44317   -12066.813     4.362947     4.362947     4.362947   -12066.813    17423.947    8439.3017   -62063.687   -14491.138   -6737.9215    2678.8062    83.050031 
   54100    386.24617   -111.79418   0.34948366    -111.4447   -17862.835    4.3680751    4.3680751    4.3680751   -17862.835    8001.4956    36480.013   -98070.013   -44.178023   -11733.861   -5810.7479    83.343225 
   54200     997.3872   -112.33481    0.9024569   -111.43236   -3873.6362    4.3636638    4.3636638    4.3636638   -3873.6362    30027.838    24370.768   -66019.514   -3717.2823    6878.3347    -2309.063    83.090973 
   54300    1443.9202    -112.7361    1.3064893   -111.42961    2023.8162    4.3608382    4.3608382    4.3608382    2023.8162    25541.574    17471.157   -36941.282   -1055.0416   -2331.2221   -800.66308    82.929668 
   54400    1342.6655   -112.65678     1.214872   -111.44191    14431.392    4.3525628    4.3525628    4.3525628    14431.392    30469.022    27742.183   -14917.029    4635.8532   -23676.808   -2159.1233    82.458447 
   54500    1947.5288    -113.2087     1.762165   -111.44654    11203.669    4.3566039    4.3566039    4.3566039    11203.669   -3023.8728    21877.879        14757   -1538.8837    3164.7495   -10893.386    82.688331 
   54600    2143.4153    -113.3812    1.9394072   -111.44179   -9920.0377    4.3725208    4.3725208    4.3725208   -9920.0377   -18407.278   -14117.783    2764.9483     5080.527    14063.917   -12275.931    83.597954 
   54700    1841.5104   -113.10742    1.6662373   -111.44119    915.26714    4.3614757    4.3614757    4.3614757    915.26714    1800.7305     5839.963   -4894.8921    2610.7649   -16545.409    619.10405    82.966041 
   54800    2073.4176   -113.30592    1.8760718   -111.42984    18628.098     4.346494     4.346494     4.346494    18628.098   -7811.4074    43621.462    20074.238    3543.3058   -16089.967    5423.7859    82.114011 
   54900    1541.1913   -112.84085    1.3945023   -111.44635   -2511.5018    4.3617154    4.3617154    4.3617154   -2511.5018   -9443.0758    13049.596   -11141.026    9520.9643    7735.9682   -4032.0033    82.979723 
   55000    779.94571   -112.15583   0.70571127   -111.45012   -10982.515    4.3651414    4.3651414    4.3651414   -10982.515    10074.988    15474.704   -58497.236    3637.5762   -8324.3712      2450.04    83.175412 
   55100    1106.2762   -112.43727    1.0009819   -111.43629    12762.947    4.3615301    4.3615301    4.3615301    12762.947    19132.193    37482.364   -18325.717    6537.0878   -6949.6584   -4355.5707    82.969149 
   55200    1311.4724   -112.61993    1.1866478   -111.43328   -11036.598     4.363561     4.363561     4.363561   -11036.598    21917.279     22249.02   -77276.094    3737.2857    3743.2692   -7308.7885    83.085101 
   55300      864.095   -112.22321   0.78185131   -111.44136    6485.8345    4.3518265    4.3518265    4.3518265    6485.8345    35580.765    27940.765   -44064.027   -912.42188   -18790.102    7143.7855    82.416605 
   55400    1434.7925   -112.74652    1.2982304   -111.44829     19438.22    4.3621333    4.3621333    4.3621333     19438.22    21407.231    32411.015    4496.4146   -1397.2694    800.05933   -8818.3151    83.003578 
   55500    2126.1687    -113.3539    1.9238021    -111.4301   -6846.4142    4.3760414    4.3760414    4.3760414   -6846.4142   -20306.942   -173.70676   -58.594167    12896.787    19602.057    -8447.152    83.800047 
   55600    1580.0386   -112.86311    1.4296521   -111.43346    14620.208    4.3542548    4.3542548    4.3542548    14620.208   -11787.912    6081.3761     49567.16     13820.94   -19070.207    11150.079    82.554647 
   55700    1549.6817   -112.84308    1.4021846    -111.4409    23737.446    4.3497568    4.3497568    4.3497568    23737.446   -1255.6846    43337.773    29130.249   -4510.3144   -8604.2473    781.34611    82.299071 
   55800    1878.3576   -113.13757    1.6995775   -111.43799   -1533.9073    4.3640986    4.3640986    4.3640986   -1533.9073   -41885.587    30074.803     7209.062    151.22419     19833.09   -3905.9823    83.115817 
   55900    1098.3067   -112.43275   0.99377099   -111.43898    1110.8024    4.3656305    4.3656305    4.3656305    1110.8024   -34501.897    39512.161   -1677.8567    5335.6877   -16779.002    3070.1143     83.20337 
   56000     801.6261   -112.16544   0.72532814   -111.44011   -12556.023    4.3672711    4.3672711    4.3672711   -12556.023   -29221.856    34249.539   -42695.753    1104.0745   -2630.6151    2981.3296    83.297212 
   56100    1226.3839   -112.54094     1.109658   -111.43128   -8646.8292    4.3600101    4.3600101    4.3600101   -8646.8292    -25167.51    31317.804   -32090.781   -9207.6067    16529.031   -10157.057     82.88243 
   56200    1103.2327   -112.43323   0.99822812     -111.435    18040.689    4.3532249    4.3532249    4.3532249    18040.689    35441.619    39226.104   -20545.657    1093.7128   -13277.024    4896.9959     82.49608 
   56300    1151.7837   -112.48753    1.0421581   -111.44537   -5944.7529    4.3648543    4.3648543    4.3648543   -5944.7529    25220.024    15796.302   -58850.584    1038.5788    3064.3687    6295.5092    83.159002 
   56400    1948.1395   -113.19876    1.7627175   -111.43605   -15066.249    4.3624135    4.3624135    4.3624135   -15066.249    11820.131   -7129.3862   -49889.494    2888.1717    11786.528   -16331.475    83.019571 
   56500    1865.4205   -113.12589    1.6878716   -111.43802    14418.035    4.3497099    4.3497099    4.3497099    14418.035    54270.492    21512.395   -32528.781    17675.973   -23285.785    3577.4842    82.296406 
   56600    1876.4648   -113.14722    1.6978648   -111.44935      8931.36    4.3551094    4.3551094    4.3551094      8931.36     37880.29     1183.214   -12269.424   -4277.9361   -6405.5652    15343.799    82.603261 
   56700    2062.4049   -113.30962    1.8661073   -111.44352   -5081.8581    4.3652568    4.3652568    4.3652568   -5081.8581   -4742.4292   -7999.1231   -2504.0221   -19707.066    12427.148   -13604.302    83.182009 
   56800    1727.5201   -113.00187    1.5630965   -111.43877   -2827.4218    4.3643483    4.3643483    4.3643483   -2827.4218     -3798.76    9096.5377   -13780.043    5706.3879   -10009.571    -3044.119    83.130079 
   56900    1262.4449   -112.57791    1.1422867   -111.43562    4980.8529     4.360966     4.360966     4.360966    4980.8529   -4.2642832    9023.6346    5923.1884    20333.993   -2847.8541    12014.292    82.936956 
   57000     1179.655   -112.50098    1.0673767   -111.43361   -5593.1922    4.3573626    4.3573626    4.3573626   -5593.1922   -31754.687    16481.289   -1506.1788   -4446.2848   -318.14574   -11139.659    82.731541 
   57100     850.9718   -112.20915   0.76997717   -111.43917    1189.3268    4.3563301    4.3563301    4.3563301    1189.3268   -28357.772    61118.259   -29192.507   -2608.9262    -12352.62   -4573.1246    82.672742 
   57200    831.36468   -112.19908   0.75223624   -111.44685   -7382.3012    4.3680624    4.3680624    4.3680624   -7382.3012   -23166.069    44098.757   -43079.592    17488.454    823.02538    10860.134    83.342494 
   57300    1067.0283   -112.40164   0.96546962   -111.43617   -4884.8909     4.371444     4.371444     4.371444   -4884.8909   -5960.6408    26659.094   -35353.126    2868.3156    3920.0325   -10520.495    83.536207 
   57400    1291.7718   -112.59676    1.1688223   -111.42793    28659.206    4.3563072    4.3563072    4.3563072    28659.206    53686.451    43665.561   -11374.394    1326.4758   -18561.192   -8017.8752     82.67144 
   57500    1569.2697   -112.85056    1.4199082   -111.43065    18972.809    4.3601495    4.3601495    4.3601495    18972.809    56591.416    30675.709   -30348.698    11261.201   -643.14792    15835.345    82.890379 
   57600    1808.0287   -113.07083    1.6359424   -111.43489   -1518.9883    4.3683509    4.3683509    4.3683509   -1518.9883    40258.675   -3587.8512   -41227.789    2747.0991    5283.3471    8533.0296    83.359011 
   57700    1895.9043   -113.14804    1.7154541   -111.43258    22189.235    4.3615539    4.3615539    4.3615539    22189.235    44133.833     30935.85   -8501.9781      8431.34    -11124.46   -9334.2053    82.970507 
   57800    1743.2558   -113.01383    1.5773344   -111.43649     8374.832    4.3667731    4.3667731    4.3667731     8374.832    26317.094    19977.342    -21169.94    7423.0138    5994.9129    20109.633    83.268716 
   57900    1610.1785   -112.88915    1.4569234   -111.43223   -2523.9874     4.362991     4.362991     4.362991   -2523.9874    7180.2162    5078.1318    -19830.31    2324.4958   -1400.4692    19504.012    83.052543 
   58000    1448.0213   -112.73997    1.3102001   -111.42977     21703.01     4.349996     4.349996     4.349996     21703.01    9403.8728    58494.419   -2789.2608    6604.6302   -27589.299   -12789.805    82.312647 
   58100    1097.2863   -112.44212    0.9928477   -111.44927   -15872.078    4.3669639    4.3669639    4.3669639   -15872.078   -12959.135    -514.1145   -34142.984    7157.0439    8605.6364    26431.228    83.279632 
   58200    940.42955    -112.2937   0.85092042   -111.44278   -8670.5714    4.3652461    4.3652461    4.3652461   -8670.5714   -9694.7925    15318.133   -31635.054    8190.4397    8469.3347    27112.595    83.181394 
   58300    1465.0846   -112.75487    1.3256394   -111.42923    8412.1334    4.3484537    4.3484537    4.3484537    8412.1334   -30598.932    62551.554   -6716.2217   -6279.1444   -15444.449   -9777.0704    82.225125 
   58400     931.2613   -112.29052   0.84262479   -111.44789    -33769.95      4.36589      4.36589      4.36589    -33769.95   -33938.154    5306.6866   -72678.382   -672.75701    4827.6128    33983.148    83.218209 
   58500     1107.257   -112.44533    1.0018694   -111.44347   -20664.363    4.3622544    4.3622544    4.3622544   -20664.363    -809.0865    17395.153   -78579.154    13447.481    13076.535    15296.172    83.010485 
   58600    1893.7051   -113.14741    1.7134642   -111.43395    11099.133    4.3506697    4.3506697    4.3506697    11099.133   -16381.016    69458.798   -19780.384    7617.1929   -5885.6608   -17875.172    82.350897 
   58700    1519.8196   -112.82294    1.3751647   -111.44778   -12300.446    4.3678206    4.3678206    4.3678206   -12300.446   -14423.977    21684.408    -44161.77    1011.5554    5505.9383     25822.72    83.328658 
   58800    1372.5196   -112.68554    1.2418845   -111.44366    569.53311    4.3624464    4.3624464    4.3624464    569.53311   -8.1318701    44759.606   -43042.875    3896.1709    16650.504    12891.478    83.021452 
   58900    1948.9495   -113.19725    1.7634505    -111.4338    11083.142    4.3528821    4.3528821    4.3528821    11083.142    11970.418    23614.151   -2335.1418    42.941416   -5515.5792   -13837.512    82.476594 
   59000    1708.7731   -112.98971    1.5461338   -111.44358   -22321.681    4.3661789    4.3661789    4.3661789   -22321.681   -1308.1874    -47134.29   -18522.565   -1999.8883    2921.9056     34220.06    83.234729 
   59100     1395.105   -112.70092    1.2623204    -111.4386   -2520.6375    4.3603997    4.3603997    4.3603997   -2520.6375    7963.8297    7537.2894   -23063.032    3948.9421     20301.55    4095.6264    82.904655 
   59200    1418.0691   -112.71953    1.2830987   -111.43643    7410.7782     4.359217     4.359217     4.359217    7410.7782    17884.523    3874.7611       473.05    2996.1784    3154.8172    -29970.27    82.837213 
   59300    1563.3971      -112.85    1.4145945   -111.43541   -18635.119    4.3622564    4.3622564    4.3622564   -18635.119    2622.6652   -40593.913   -17934.108    9625.2212    7173.1318    30099.627    83.010603 
   59400    1135.4935    -112.4644    1.0274183   -111.43698    16670.099    4.3502141    4.3502141    4.3502141    16670.099    30803.044    33623.771   -14416.519    3928.5676    11121.863    11234.167     82.32503 
   59500    1315.7878   -112.63844    1.1905524   -111.44789    7512.1352    4.3616661    4.3616661    4.3616661    7512.1352    25043.655     14524.42   -17031.669   -14508.769   -6588.3439    -32556.69    82.976905 
   59600      1741.29   -113.01135    1.5755558    -111.4358   -4578.6638    4.3677214    4.3677214    4.3677214   -4578.6638    4086.2263    28889.131   -46711.349    3151.9921   -1202.3509    6563.9676    83.322977 
   59700    1388.6426   -112.69207     1.256473    -111.4356    498.62734    4.3555337    4.3555337    4.3555337    498.62734    1706.5294    67139.126   -67349.773    12329.051    13556.842    2726.5073    82.627409 
   59800    1677.8211   -112.96105    1.5181278   -111.44292   -10291.609    4.3570872    4.3570872    4.3570872   -10291.609    22644.144    6367.3881   -59886.361    1726.2343   -667.80964   -35880.999    82.715851 
   59900    2060.7985    -113.3049    1.8646538   -111.44024    9824.6466    4.3597319    4.3597319    4.3597319    9824.6466   -12286.129    64804.897   -23044.828   -2201.5402   -2092.9837    1487.5116    82.866566 
   60000    1700.9349     -112.989    1.5390416   -111.44996   -11905.827    4.3690946    4.3690946    4.3690946   -11905.827   -30019.619    34913.098    -40610.96   -10552.003    6885.7455   -7942.5198    83.401594 
   60100    1734.2862   -113.01051    1.5692186    -111.4413   -17465.852    4.3675407    4.3675407    4.3675407   -17465.852   -10994.773    7203.8698   -48606.652    1816.7474   -4653.9679   -32346.125    83.312638 
   60200    2059.5823   -113.29309    1.8635533   -111.42954    19866.243    4.3428738    4.3428738    4.3428738    19866.243   -8630.3751    68733.959   -504.85443     10284.33   -16280.058    1195.3584    81.909003 
   60300    1816.6634   -113.09802    1.6437552   -111.45426    3774.9028    4.3517089    4.3517089    4.3517089    3774.9028   -10306.721    37429.546   -15798.117    6569.1207    10632.936   -231.52443    82.409923 
   60400    1370.6001   -112.69308    1.2401478   -111.45293    -14789.65     4.374029     4.374029     4.374029    -14789.65   -20129.476    3862.6011   -28102.074    994.94248    7256.1356   -9549.9287    83.684493 
   60500    1376.4029   -112.68244    1.2453983   -111.43704   -8573.1877    4.3695827    4.3695827    4.3695827   -8573.1877   -40040.823    32412.474   -18091.214   -3280.4606   -24120.538    8168.4349    83.429549 
   60600    1304.8557   -112.61067    1.1806608   -111.43001   -7469.8421     4.355573     4.355573     4.355573   -7469.8421    12406.125   -9183.0545   -25632.597   -8497.3386   -1445.4872   -18831.807    82.629647 
   60700    835.84526   -112.19449   0.75629036    -111.4382    7052.4145    4.3495062    4.3495062    4.3495062    7052.4145    38300.584   -9033.5679   -8109.7728    2599.1145   -3459.5097     -34230.4    82.284849 
   60800    955.93042   -112.31122   0.86494593   -111.44628   -11198.859    4.3658731    4.3658731    4.3658731   -11198.859   -18325.694    20370.674   -35641.557    3530.6837   -26965.102     13809.81    83.217244 
   60900    1216.3515   -112.53549    1.1005804   -111.43491   -37345.574    4.3754414    4.3754414    4.3754414   -37345.574   -6060.4182   -48787.271   -57189.033   -4301.6991   -602.86634   -10624.909    83.765581 
   61000    1019.6481   -112.35323   0.92259899   -111.43063    2895.1404    4.3471834    4.3471834    4.3471834    2895.1404    45305.936     208.6686   -36829.183   -1216.3868   -208.08262   -38567.706    82.153085 
   61100    1354.5186   -112.66436    1.2255969   -111.43876    9047.2777    4.3451562    4.3451562    4.3451562    9047.2777    4069.7986    37223.883   -14151.848   -10747.721   -22698.921    11146.271     82.03821 
   61200    1578.9304   -112.86879    1.4286494   -111.44014   -14060.863    4.3720136    4.3720136    4.3720136   -14060.863   -17014.359    -16310.22   -8858.0099   -8561.3456   -2127.9819   -653.04881    83.568867 
   61300    1685.9941   -112.95787    1.5255229   -111.43235    4775.8713     4.362524     4.362524     4.362524    4775.8713    27323.147   -812.93673   -12182.596    1282.1548   -8373.8691   -29556.211    83.025881 
   61400    1769.1248   -113.03118    1.6007413   -111.43044    3188.1038    4.3552377    4.3552377    4.3552377    3188.1038   -17390.278    23508.019    3446.5703    7032.6954   -18948.837    16332.834    82.610565 
   61500    1998.4739    -113.2372    1.8082611   -111.42894   -17001.426    4.3682906    4.3682906    4.3682906   -17001.426   -32973.316   -8609.7285   -9421.2327     1305.219    4379.3404    2204.8934    83.355558 
   61600    1742.7105   -113.00368    1.5768411   -111.42684    5885.2902    4.3603457    4.3603457    4.3603457    5885.2902    3065.9372    6613.5868    7976.3465   -6857.0005   -6277.5177   -24345.312     82.90157 
   61700    1637.3227   -112.91626     1.481484   -111.43477   -6324.4093    4.3582373    4.3582373    4.3582373   -6324.4093   -18064.534    12134.658   -13043.352   -10866.008   -24449.643    16623.098    82.781371 
   61800    1575.0609   -112.86322    1.4251482   -111.43807   -18147.035    4.3691263    4.3691263    4.3691263   -18147.035   -15944.238   -7927.1244   -30569.742     5603.011    8444.7413    622.32383    83.403408 
   61900    1487.6674   -112.77593    1.3460727   -111.42986    3735.1093    4.3646914    4.3646914    4.3646914    3735.1093    19389.169   -2180.1922   -6003.6485    4438.4703    2410.9404   -18520.395     83.14969 
   62000    1224.4869    -112.5395    1.1079415   -111.43155    2688.7716     4.358149     4.358149     4.358149    2688.7716    49885.124   -6310.7046   -35508.104   -5194.7867   -26433.682    16345.838    82.776341 
   62100    1087.5255   -112.42284    0.9840159   -111.43882   -2838.4684    4.3642014    4.3642014    4.3642014   -2838.4684    77100.764   -24452.416   -61163.753    160.80735    3862.2424   -5984.3726    83.121687 
   62200     1461.016   -112.75436     1.321958    -111.4324   -6197.1068    4.3703008    4.3703008    4.3703008   -6197.1068    69501.775   -33753.288   -54339.807    -3640.632    5656.6208   -5365.6606     83.47069 
   62300     1450.625   -112.73946     1.312556    -111.4269    17590.879     4.363605     4.363605     4.363605    17590.879    86886.733   -31957.476   -2156.6189    -1412.482   -27593.835    19041.972    83.087612 
   62400     1642.777   -112.91835    1.4864192   -111.43193    8904.1297    4.3630873    4.3630873    4.3630873    8904.1297    40729.057   -9070.3055   -4946.3624    9757.3209     9132.909   -10452.281    83.058046 
   62500     1787.938     -113.051    1.6177638   -111.43324    20866.283    4.3561268    4.3561268    4.3561268    20866.283    64822.362    706.24166   -2929.7543    6970.3473    12959.881    3623.4555    82.661166 
   62600    1852.1583   -113.11545    1.6758718   -111.43957    15927.909     4.358565     4.358565     4.358565    15927.909    23231.779   -14856.133    39408.081   -2390.3199   -20182.491    22048.611    82.800048 
   62700     1840.955   -113.10338    1.6657347   -111.43764   -21064.147    4.3727539    4.3727539    4.3727539   -21064.147    -37416.86   -3397.1704   -22378.411   -4196.1255      12016.2    -19961.18    83.611328 
   62800    1490.8779   -112.78886    1.3489776   -111.43988     12542.21    4.3499873    4.3499873    4.3499873     12542.21    3486.8983    40420.303   -6280.5705     739.9437    18362.515    970.23407    82.312155 
   62900    1752.9404   -113.02297    1.5860973   -111.43688    22293.926    4.3399014    4.3399014    4.3399014    22293.926    18539.123    33066.114    15276.543     9748.345   -7309.5394    29738.701    81.740935 
   63000    1610.1528   -112.90248    1.4569001   -111.44558   -17379.482    4.3687954    4.3687954    4.3687954   -17379.482   -35384.113    24985.471   -41739.805    7027.1327    4766.7254   -16933.112    83.384459 
   63100    1138.3508   -112.47014    1.0300038   -111.44014    2073.6874    4.3619998    4.3619998    4.3619998    2073.6874   -18140.484    59770.681   -35409.134    4133.9637    8468.9685    3236.2332    82.995952 
   63200    1266.4854   -112.57868    1.1459426   -111.43273    20352.416    4.3459345    4.3459345    4.3459345    20352.416    31662.989    49989.372   -20595.113   -7697.6412   -5820.3479    32352.958    82.082303 
   63300     1654.616   -112.93039    1.4971314   -111.43326   -7583.0212    4.3600627    4.3600627    4.3600627   -7583.0212   -14651.815    37973.285   -46070.534   -4896.0686    2357.8776   -13910.553    82.885434 
   63400    986.61157   -112.32851   0.89270688    -111.4358   -6812.9771    4.3645866    4.3645866    4.3645866   -6812.9771   -18540.749    32748.628    -34646.81     293.2321    9290.5871    12071.815      83.1437 
   63500    1103.4372   -112.43233   0.99841316   -111.43392    20938.057     4.355677     4.355677     4.355677    20938.057    20960.187    14823.514     27030.47    5848.0018    -3436.019    35547.236    82.635564 
   63600    1857.8565   -113.11014    1.6810276   -111.42911   -3219.8414    4.3602727    4.3602727    4.3602727   -3219.8414    -10220.77   -11449.769    12011.015    7911.8894   -3179.0743   -8910.8443     82.89741 
   63700    1031.5812   -112.37461   0.93339638   -111.44121   -19823.494    4.3611339    4.3611339    4.3611339   -19823.494    2331.1419   -55707.213   -6094.4112   -2079.7178    13378.571    20210.234    82.946538 
   63800    1191.5835   -112.51892    1.0781698   -111.44075    2706.0844     4.349601     4.349601     4.349601    2706.0844    13585.978   -18011.472    12543.747   -4191.7237    8005.6077    29639.113    82.290229 
   63900    1743.5935   -113.01808    1.5776401   -111.44044    11127.384    4.3581721    4.3581721    4.3581721    11127.384   -6360.2644    1149.4099    38593.007   -958.82874    3320.8168   -9104.4939    82.777654 
   64000    1189.2925   -112.52038    1.0760969   -111.44428   -19936.768    4.3719437    4.3719437    4.3719437   -19936.768    4671.7651   -52917.125   -11564.946   -4268.8571    11853.458    22093.253     83.56486 
   64100    1443.1717    -112.7335    1.3058121   -111.42769    6555.1372    4.3608432    4.3608432    4.3608432    6555.1372    9765.3746    9465.8273    434.20976    3175.3955     454.9851    14761.445    82.929955 
   64200    1783.7213   -113.03506    1.6139485   -111.42111    9218.0239    4.3594335    4.3594335    4.3594335    9218.0239   -6751.9818    33744.195    661.85825    1917.6384   -8613.8056   -618.08775    82.849553 
   64300    1306.6225   -112.61442    1.1822595   -111.43216   -10358.673    4.3614419    4.3614419    4.3614419   -10358.673    16501.993    13997.916   -61575.929    1493.0682    38.967666    43173.224    82.964112 
   64400     1517.696   -112.80342    1.3732432   -111.43018    15168.438    4.3517982    4.3517982    4.3517982    15168.438    29382.791    57052.421   -40929.897     2728.432     1197.057    14973.136    82.414996 
   64500    1659.7343   -112.94102    1.5017624   -111.43926    5671.3879    4.3668703    4.3668703    4.3668703    5671.3879   -2681.5844    49606.745   -29910.997   -1914.3895   -15526.348   -8745.2986    83.274277 
   64600     1244.522   -112.56083    1.1260697   -111.43476   -14622.341    4.3741359    4.3741359    4.3741359   -14622.341    33.297793    8522.6221   -52422.944   -1682.5648   -55.003763    38601.743    83.690629 
   64700    1564.9785   -112.84166    1.4160255   -111.42563    25803.566    4.3454042    4.3454042    4.3454042    25803.566    43452.207     39839.62   -5881.1285    5313.8973    10110.027    21095.551    82.052257 
   64800    1639.5719   -112.91789    1.4835191   -111.43438    24026.166     4.347901     4.347901     4.347901    24026.166    27894.951    46851.444   -2667.8985    5029.5101   -11504.484   -2708.2533    82.193776 
   64900    1349.3335   -112.66278    1.2209053   -111.44187   -17638.145    4.3733221    4.3733221    4.3733221   -17638.145    3816.5281   -28803.265   -27927.698   -948.20427   -13088.879    37494.597    83.643922 
   65000    1442.6657   -112.73803    1.3053543   -111.43268    8673.0222    4.3645102    4.3645102    4.3645102    8673.0222    27608.956   -28366.521    26776.632    -1119.033    16896.363    17244.359    83.139332 
   65100    1634.8935     -112.907     1.479286   -111.42771    17170.185    4.3486109    4.3486109    4.3486109    17170.185    8425.3611   -1136.5655    44221.759   -3186.4095    4988.3072    1986.4091    82.234047 
   65200    1360.3486   -112.67176     1.230872   -111.44089    7320.8877    4.3536094    4.3536094    4.3536094    7320.8877     20250.92   -40737.206    42448.949    2076.1176   -10647.166    28144.178     82.51794 
   65300    1430.0877   -112.73407    1.2939734   -111.44009   -821.47327    4.3657556    4.3657556    4.3657556   -821.47327    25458.442    -48368.38    20445.519    1465.2887      19453.9    11405.827    83.210526 
   65400    1576.3421   -112.85618    1.4263074   -111.42987   -5731.2136     4.367128     4.367128     4.367128   -5731.2136    6570.5659   -21253.874   -2510.3326   -7865.6647    1340.4337    1824.7539     83.28902 
   65500    1168.9505   -112.49076     1.057691   -111.43307   -7181.8264    4.3581386    4.3581386    4.3581386   -7181.8264    22570.954   -23933.544   -20182.889   -3453.8706   -19178.325    32574.674    82.775746 
   65600    1290.2167    -112.6021    1.1674152   -111.43468     10141.46    4.3495063    4.3495063    4.3495063     10141.46    34923.782    14020.385   -18519.786   -4661.2843    19234.839    8166.5071    82.284851 
   65700    1364.0134   -112.67517     1.234188   -111.44098    9737.7307    4.3570589    4.3570589    4.3570589    9737.7307    20681.103    35133.097   -26601.008   -5506.2154    8999.6222   -2016.0552    82.714239 
   65800    922.47642   -112.28237   0.83467605   -111.44769    -15242.16    4.3714967    4.3714967    4.3714967    -15242.16   -8525.5433    41744.214   -78945.149     1389.017   -19818.592     29982.66    83.539231 
   65900    1446.6752   -112.75008    1.3089822    -111.4411   -7064.5422    4.3628363    4.3628363    4.3628363   -7064.5422    10841.564    39930.274   -71965.464   -1214.9918    5880.9751    6507.1079     83.04371 
   66000    1955.5331   -113.19512    1.7694075   -111.42572    29955.659    4.3414066    4.3414066    4.3414066    29955.659    29325.802    83834.813   -23293.638   -10694.285    3906.4067   -4026.6079    81.826013 
   66100    1420.7109   -112.74142    1.2854891   -111.45593   -1843.9557    4.3547348    4.3547348    4.3547348   -1843.9557   -7539.5839    21406.065   -19398.348   -10104.728   -14178.391    37599.615    82.581949 
   66200    1980.8285   -113.23974    1.7922953   -111.44744   -10762.329    4.3683293    4.3683293    4.3683293   -10762.329   -11589.684   -985.43352   -19711.868   -3441.6528   -6542.9204    7742.4316    83.357776 
   66300    2591.3825   -113.77459    2.3447373   -111.42986     4851.503    4.3554883    4.3554883    4.3554883     4851.503   -9650.4723    20166.512    4038.4693    9924.2337    -9016.654   -1890.0548    82.624827 
   66400    1437.6944   -112.74749    1.3008561   -111.44664   -19827.719     4.359034     4.359034     4.359034   -19827.719   -15885.246   -29343.364   -14254.546     1296.232   -20441.858    32747.733    82.826779 
   66500    1770.4054   -113.04324       1.6019   -111.44134   -11436.241    4.3545035    4.3545035    4.3545035   -11436.241   -21154.501   -9751.6263   -3402.5949   -14446.617    -13491.72    999.93607    82.568793 
   66600    2114.1086   -113.34727    1.9128899   -111.43438    5214.6659    4.3478843    4.3478843    4.3478843    5214.6659    11536.658   -1825.7618    5933.1013    -4691.549    10328.518    9483.0171    82.192831 
   66700    984.99427   -112.34802   0.89124352   -111.45678   -25936.327    4.3654354    4.3654354    4.3654354   -25936.327    13803.228   -52420.922   -39191.287   -3153.4161     -13699.5    34137.732    83.192218 
   66800    1421.8757   -112.72831     1.286543   -111.44177   -16424.077    4.3593537    4.3593537    4.3593537   -16424.077   -7553.6645   -27582.837    -14135.73    9027.4579   -26109.436    -6326.746    82.845002 
   66900    1408.2095   -112.70591    1.2741775   -111.43173    6811.6922    4.3501736    4.3501736    4.3501736    6811.6922    54611.587   -15818.416   -18358.095    4561.4472    19187.734    5847.0308    82.322728 
   67000    866.70298   -112.22861   0.78421107    -111.4444   -21065.604    4.3642292    4.3642292    4.3642292   -21065.604    37822.786   -40107.577    -60912.02   -1577.0125    -524.6013    24025.574    83.123277 
   67100    1495.5283   -112.78859    1.3531854   -111.43541   -10998.907    4.3566811    4.3566811    4.3566811   -10998.907    18823.033   -1308.5179   -50511.236   -4893.4125   -29244.075    -2918.187    82.692729 
   67200    1463.5964   -112.76069    1.3242928    -111.4364    17287.673    4.3475639    4.3475639    4.3475639    17287.673    62295.279    2913.9788   -13346.239   -9687.0588    14669.747    2538.2252    82.174661 
   67300    1130.8671   -112.47681    1.0232323   -111.45358   -10634.467    4.3652142    4.3652142    4.3652142   -10634.467    32759.066   -36264.589   -28397.876    2200.5296    11861.037    16779.238    83.179571 
   67400    2042.6804    -113.2842    1.8482601   -111.43594   -13232.328    4.3614758    4.3614758    4.3614758   -13232.328    4107.0838   -15996.164   -27807.905    49.315455   -14005.392    2973.2169    82.966046 
   67500    1837.5269   -113.09631     1.662633   -111.43367    16727.448     4.349829     4.349829     4.349829    16727.448    17571.505    30907.681    1703.1569    2503.8017    13720.851    4033.1255    82.303166 
   67600    1630.9122   -112.92062    1.4756837   -111.44494   -18973.631    4.3636008    4.3636008    4.3636008   -18973.631    -13824.56    -11250.57   -31845.763   -1366.4987    11229.829    18817.853    83.087375 
   67700    2390.1938   -113.59814    2.1626976   -111.43544   -4232.1421    4.3578526    4.3578526    4.3578526   -4232.1421   -11231.124   -5430.4974    3965.1949   -6024.5773   -15622.323    2143.2946    82.759453 
   67800    2018.0045   -113.26757    1.8259328   -111.44164    25449.205    4.3487148    4.3487148    4.3487148    25449.205   -333.60372     42068.99    34612.229    5309.1771    18551.723   -3637.8941    82.239939 
   67900    1614.4668   -112.91176    1.4608035   -111.45096   -15920.667    4.3652182    4.3652182    4.3652182   -15920.667   -20274.188   -1291.8867   -26195.928    586.65768    23151.162    27282.292    83.179801 
   68000    2101.7659   -113.33658    1.9017219   -111.43486   -8103.1256    4.3633676    4.3633676    4.3633676   -8103.1256   -27017.881    1414.0325    1294.4715    8273.5175   -10624.512    704.55045    83.074055 
   68100    1639.7536    -112.9193    1.4836835   -111.43562    8933.3284    4.3519319    4.3519319    4.3519319    8933.3284   -16194.537    41211.672    1782.8496    448.51506    19371.359    833.42456    82.422592 
   68200    1048.8787    -112.3972    0.9490475   -111.44815   -9311.2571    4.3552959    4.3552959    4.3552959   -9311.2571    11242.385    20626.397   -59802.554   -4369.3235    20039.589    28027.989    82.613876 
   68300     1529.698   -112.82172    1.3841029   -111.43762   -1829.0158    4.3582175    4.3582175    4.3582175   -1829.0158    9215.7334   -10977.063   -3725.7179    4964.7756   -16236.952    1173.4061    82.780241 
   68400    1068.4139   -112.40621   0.96672338   -111.43949   -7073.2353    4.3644841    4.3644841    4.3644841   -7073.2353   -10229.711   -10690.725   -299.27023    112.08605    11678.668    11980.353     83.13784 
   68500    545.42513   -111.93791   0.49351212    -111.4444   -27392.463    4.3642784    4.3642784    4.3642784   -27392.463    5294.6771   -20982.074    -66489.99    1457.1577    20482.012    26761.275    83.126086 
   68600     1039.362   -112.37285   0.94043659   -111.43241     11372.27    4.3487308    4.3487308    4.3487308     11372.27    27344.834    18556.245   -11784.268    2846.4275   -10376.876   -6784.4382    82.240846 
   68700    1131.7106   -112.46335    1.0239955   -111.43936   -4940.4615    4.3525458    4.3525458    4.3525458   -4940.4615    -4566.518   -14918.365     4663.498   -1543.7604     6720.469    7272.4896    82.457477 
   68800    737.84383   -112.12125    0.6676166   -111.45363    -32279.75    4.3618125    4.3618125    4.3618125    -32279.75   -7755.0162   -48234.775   -40849.459    -712.1706    21590.861    34181.858    82.985266 
   68900    1571.5264   -112.86637    1.4219501   -111.44442   -10714.622    4.3562283    4.3562283    4.3562283   -10714.622    1013.1214   -43594.371    10437.382    99.988518   -9877.3828    1675.6357    82.666947 
   69000    1633.7294    -112.9234    1.4782327   -111.44516   -834.52475    4.3584813    4.3584813    4.3584813   -834.52475   -22987.469    4931.2462    15552.648    5817.1319    6290.4686   -3326.7032    82.795279 
   69100    1648.8616    -112.9369    1.4919246   -111.44497    420.63094    4.3577581    4.3577581    4.3577581    420.63094   -15547.041    11839.619    4969.3143    -1678.102    27879.614    23010.129    82.754066 
   69200    2044.7335   -113.29036    1.8501178   -111.44025     4998.909    4.3618047    4.3618047    4.3618047     4998.909   -15385.798   -8753.8253    39136.351   -5175.5799   -3156.0774   -9175.9436     82.98482 
   69300    2139.7752    -113.3737    1.9361136   -111.43759   -11356.666    4.3630248    4.3630248    4.3630248   -11356.666   -34153.379   -3080.4454    3163.8266   -7174.6043   -64.614204    -4236.939    83.054475 
   69400     1937.175   -113.19172    1.7527966   -111.43892    5649.7305     4.349578     4.349578     4.349578    5649.7305   -13068.158    19099.385    10917.964   -10729.778    12551.556    24889.102    82.288923 
   69500    1986.7096   -113.24459    1.7976166   -111.44697    1227.5269    4.3514028    4.3514028    4.3514028    1227.5269    -5350.141    16273.759   -7241.0371    6966.2898   -2499.2981    1672.2992    82.392536 
   69600    1739.5387   -113.02694    1.5739712   -111.45297   -8562.6656    4.3603024    4.3603024    4.3603024   -8562.6656   -26936.125    -1494.741    2742.8697     3822.129    1853.7261   -9999.3023    82.899105 
   69700    1433.4384   -112.74584    1.2970051   -111.44883    93.234045    4.3632765    4.3632765    4.3632765    93.234045   -20136.328    24057.137   -3641.1072   -3015.1893    11752.312     3331.527    83.068851 
   69800    1387.6159   -112.69505     1.255544    -111.4395   -11655.059    4.3652442    4.3652442    4.3652442   -11655.059    5697.3414   -17405.728   -23256.791   -178.48183    5306.6018   -10266.135    83.181285 
   69900    885.65614   -112.24031   0.80136028   -111.43895    -5127.922    4.3529019    4.3529019    4.3529019    -5127.922    8536.5281   -18901.748   -5018.5458   -17661.344    1797.5348     1617.148    82.477719 
   70000    885.08274   -112.24225   0.80084146   -111.44141     6669.958    4.3514971    4.3514971    4.3514971     6669.958   -1346.4068    32689.073   -11332.792   -1571.4869   -6194.7352    16185.988    82.397891 
   70100    1158.2607   -112.48918    1.0480186   -111.44116   -10132.785    4.3670331    4.3670331    4.3670331   -10132.785    16712.395    3974.1634   -51084.914    12024.939   -5188.2838   -5994.6475     83.28359 
   70200    884.04064   -112.23994   0.79989855   -111.44004   -11527.451    4.3668173    4.3668173    4.3668173   -11527.451    1683.6111    7207.3016   -43473.267   -12255.496   -1743.7969   -10031.407    83.271244 
   70300    1193.6584   -112.52138    1.0800472   -111.44133   -14542.291    4.3572768    4.3572768    4.3572768   -14542.291   -21938.303   -18959.772   -2728.7979   -11588.974    988.79429   -1003.9548    82.726654 
   70400    1566.4805      -112.86    1.4173845   -111.44262     23133.55     4.349082     4.349082     4.349082     23133.55    23163.952    61490.112   -15253.413    9947.0081    4674.0044   -4606.3736    82.260771 
   70500    1792.0496   -113.07603    1.6214841   -111.45455   -8087.6057    4.3616022    4.3616022    4.3616022   -8087.6057   -6204.6095    17243.506   -35301.714    -6586.424    3691.5826    -5318.873    82.973263 
   70600     1532.998    -112.8395    1.3870888   -111.45242   -7126.6194    4.3679882    4.3679882    4.3679882   -7126.6194    -37898.61     24613.38   -8094.6289   -4898.3131   -498.84417    9739.9564     83.33825 
   70700    2159.2854   -113.39704    1.9537668   -111.44327    5277.4988    4.3572157    4.3572157    4.3572157    5277.4988   -30230.436    42188.462    3874.4698     10374.45    -7125.476    6326.5543    82.723172 
   70800    2220.3224   -113.45377    2.0089943   -111.44477    4973.6973    4.3530669    4.3530669    4.3530669    4973.6973   -5562.0659    29766.969   -9283.8111   -11489.477    12556.158    -18284.62    82.487096 
   70900    1836.7777   -113.11515    1.6619551   -111.45319   -852.55072    4.3522753    4.3522753    4.3522753   -852.55072   -36233.616    16082.349    17593.614   -2456.0686    13837.823   -6028.7884    82.442103 
   71000    1857.9495   -113.13885    1.6811118   -111.45774    1985.7011    4.3605032    4.3605032    4.3605032    1985.7011   -30666.348    12391.468    24231.983    15455.926     2721.612    11413.635    82.910559 
   71100    1842.6306   -113.11355    1.6672509    -111.4463   -22637.642     4.373724     4.373724     4.373724   -22637.642   -44713.642    6236.0599   -29435.344   -2239.8119    22105.105   -2656.5379    83.666987 
   71200    1577.5696   -112.87366    1.4274181   -111.44624   -609.56585    4.3506494    4.3506494    4.3506494   -609.56585   -1673.8315   -1451.1487    1296.2827   -9805.1689    8402.5053    -107.8466    82.349743 
   71300     1348.033   -112.66261    1.2197286   -111.44288    26871.028    4.3392674    4.3392674    4.3392674    26871.028     15339.32    35252.974    30020.789    3679.9827   -10571.727    9392.1311    81.705115 
   71400    1141.4424   -112.49055     1.032801   -111.45775   -21195.394    4.3682406    4.3682406    4.3682406   -21195.394   -40904.009    14133.737   -36815.909    9431.2272    32113.851   -1410.5199    83.352694 
   71500    1265.0203   -112.58895    1.1446169   -111.44433   -7036.0599    4.3646902    4.3646902    4.3646902   -7036.0599    -2759.107    6218.3686   -24567.441    1801.9421    16499.782   -1738.6599     83.14962 
   71600    1293.4652   -112.60695    1.1703545    -111.4366      6103.61    4.3469352    4.3469352    4.3469352      6103.61    8595.4771    13760.072   -4044.7193    1246.9623   -5578.0255    10116.266    82.139015 
   71700    625.28991   -112.02178   0.56577545     -111.456   -25873.877     4.358855     4.358855     4.358855   -25873.877   -13896.502   -7949.2811   -55775.847    10199.375    28979.602    2076.8359    82.816573 
   71800    981.90037   -112.34261   0.88844409   -111.45417   -15572.266    4.3573539    4.3573539    4.3573539   -15572.266   -20807.822    5540.9192   -31449.894     7658.617   -4039.0614     4609.501    82.731041 
   71900    1093.9873   -112.44179   0.98986274   -111.45192    7305.3908    4.3568318    4.3568318    4.3568318    7305.3908    23945.275   -471.80862   -1557.2943    1090.2393   -6713.9004    1975.6072    82.701306 
   72000    894.38135   -112.26563   0.80925504   -111.45638   -20266.592    4.3620899    4.3620899    4.3620899   -20266.592   -21204.261   -3058.8604   -36536.655    6493.1158    31957.211    2010.5039    83.001097 
   72100    1057.8187   -112.40838   0.95713656   -111.45125   -7361.8092    4.3515341    4.3515341    4.3515341   -7361.8092   -24168.372    9986.1331   -7903.1882    3897.6567    2054.6185   -2338.3231     82.39999 
   72200    1307.6347   -112.63599    1.1831753   -111.45282    6163.7452    4.3573831    4.3573831    4.3573831    6163.7452   -19102.884   -12452.103    50046.223    -11082.49   -20355.142    5080.4654    82.732709 
   72300    1541.7739   -112.84797    1.3950294   -111.45294    -17029.69    4.3645135    4.3645135    4.3645135    -17029.69   -23568.228   -20143.768   -7377.0744    1120.1272     11166.66    5361.2026    83.139523 
   72400    1498.3549   -112.80533     1.355743   -111.44959    25259.992    4.3482724    4.3482724    4.3482724    25259.992    9638.5868    36837.642    29303.747    11092.195    19940.164   -4695.7218    82.214843 
   72500    1815.9789   -113.09915    1.6431359   -111.45602   -3938.7324    4.3594374    4.3594374    4.3594374   -3938.7324   -29276.382    1002.0491    16458.136   -224.56618   -25586.927    12515.012    82.849773 
   72600    1919.6016   -113.18851    1.7368958   -111.45161   -19807.075    4.3665215    4.3665215    4.3665215   -19807.075   -32328.089   -33173.427    6080.2924   -14882.025   -12364.905    18268.186    83.254324 
   72700    2036.0682   -113.28956    1.8422773   -111.44728    15860.186    4.3448752    4.3448752    4.3448752    15860.186    4870.8016    17753.984    24955.773   -3452.2201    16172.711   -5523.5069    82.022293 
   72800    2219.5364   -113.46456    2.0082832   -111.45628    3044.8971     4.354172     4.354172     4.354172    3044.8971   -10427.542    20093.866   -531.63233    9235.1871   -10442.319   -15267.643    82.549934 
   72900    1914.7237   -113.18365    1.7324823   -111.45117    -23927.33    4.3722698    4.3722698    4.3722698    -23927.33   -23920.463    -36591.25   -11270.277   -19959.349    -7347.722    13427.876     83.58356 
   73000    2338.9043   -113.55554    2.1162898   -111.43925   -4363.1935    4.3559403    4.3559403    4.3559403   -4363.1935   -5366.9831    -9861.034    2138.4366   -19677.386    14476.752    15087.376    82.650551 
   73100     2338.619   -113.55705    2.1160316   -111.44101    14708.442    4.3528252    4.3528252    4.3528252    14708.442     2753.603    48295.073   -6923.3495     7238.713   -4017.9536   -6499.0419    82.473359 
   73200    1856.6102   -113.13452    1.6798999   -111.45462   -9302.5088    4.3601522    4.3601522    4.3601522   -9302.5088   -19471.691   -10704.478    2268.6424   -19328.481   -10763.064   -581.35975    82.890539 
   73300     1776.113   -113.06043    1.6070644   -111.45336    3998.0322      4.35946      4.35946      4.35946    3998.0322   -6409.4128    8905.3227    9498.1866   -17791.878   -649.19974    8824.5906    82.851066 
   73400    2329.5338   -113.55524    2.1078112   -111.44743   -4238.0942    4.3639784    4.3639784    4.3639784   -4238.0942    -11408.18    8103.3331   -9409.4356    9876.2534   -8850.2047     2866.227    83.108944 
   73500     1563.655   -112.87072    1.4148279   -111.45589    14628.084    4.3528152    4.3528152    4.3528152    14628.084   -25303.841    38637.696    30550.396    -14724.44   -7249.6892    8812.4555    82.472789 
   73600    1138.0407    -112.4924    1.0297231   -111.46268    7463.2733    4.3556423    4.3556423    4.3556423    7463.2733    13823.029    5774.1719    2792.6186   -31852.831   -149.87442    4856.4867    82.633589 
   73700    1849.9863   -113.12504    1.6739064   -111.45113   -22227.679    4.3668963    4.3668963    4.3668963   -22227.679   -3364.2031     -37132.2   -26186.632    6753.9366    7670.4121   -3760.0204    83.275765 
   73800    1395.8518   -112.71261     1.262996   -111.44962    8030.0585    4.3558191    4.3558191    4.3558191    8030.0585   -9705.7558    11565.303    22230.629   -12822.384   -4744.6515    1653.1289    82.643654 
   73900    960.65871   -112.32572   0.86922419    -111.4565   -10458.588    4.3597197    4.3597197    4.3597197   -10458.588    8100.1368   -30496.457   -8979.4435   -28111.434   -9585.8178    24000.175    82.865874 
   74000    1380.0079   -112.69497    1.2486602   -111.44631   -22642.602    4.3638177    4.3638177    4.3638177   -22642.602    7922.7231   -27925.218   -47925.311    15481.946    2238.3601    1718.0292    83.099768 
   74100    1352.3531   -112.66931    1.2236375   -111.44568   -9067.7405     4.354378     4.354378     4.354378   -9067.7405    19978.985   -9136.1946   -38046.012   -3144.2744    4707.2727   -13531.216    82.561651 
   74200    657.23694   -112.05193   0.59468179   -111.45725   -844.10886    4.3571659    4.3571659    4.3571659   -844.10886    32470.096   -35939.999    937.57656     -21480.3   -7497.2692    26098.585    82.720335 
   74300    914.08338   -112.28363   0.82708185   -111.45654   -16670.222    4.3650654    4.3650654    4.3650654   -16670.222    18300.495   -29420.417   -38890.744   -107.64949   -16590.407    19611.909    83.171067 
   74400    1467.0533   -112.77181    1.3274206   -111.44439    12302.109    4.3530196    4.3530196    4.3530196    12302.109    16815.972    8401.5375    11688.819   -3786.1943    4582.7094   -9333.4091    82.484407 
   74500    879.43374   -112.25734   0.79573013   -111.46161     331.6953    4.3547304    4.3547304    4.3547304     331.6953     29156.86   -12800.687   -15361.087   -8571.3113   -564.21551    25729.088      82.5817 
   74600     1074.051   -112.43173    0.9718239    -111.4599   -13523.622    4.3671417    4.3671417    4.3671417   -13523.622    14009.895   -23023.051    -31557.71   -2596.2175    -15836.85    32197.411    83.289809 
   74700    1987.6744   -113.23683    1.7984896   -111.43834    3979.9501    4.3619991    4.3619991    4.3619991    3979.9501   -2960.6911     3404.063    11496.478    3527.1393      5182.46   -2221.8344    82.995913 
   74800    1442.7826    -112.7544      1.30546   -111.44894   -13300.923    4.3602988    4.3602988    4.3602988   -13300.923    1269.3233   -4785.3193   -36386.774    -232.4778    1460.9339     28466.75    82.898896 
   74900    1365.7099   -112.68965     1.235723   -111.45392   -14250.627    4.3585016    4.3585016    4.3585016   -14250.627   -9435.8903   -16795.968   -16520.022   -15988.069   -3145.0839    21661.696    82.796432 
   75000    2000.9477   -113.25452    1.8104995   -111.44403    20170.015    4.3569288    4.3569288    4.3569288    20170.015     39866.22   -279.62543     20923.45   -1578.5759    -1505.356   -15018.196    82.706833 
   75100    1685.7951   -112.97181    1.5253428   -111.44646   -23638.168    4.3713022    4.3713022    4.3713022   -23638.168   -23248.613   -36570.774   -11095.116     1058.576    419.33734    18569.799    83.528077 
   75200    1021.4448   -112.37119   0.92422476   -111.44696   -17689.546    4.3646333    4.3646333    4.3646333   -17689.546   -28054.324   -20342.223     -4672.09   -11591.047   -6334.6327    21130.757     83.14637 
   75300    1540.9327   -112.83293    1.3942683   -111.43866    1265.5736    4.3537849    4.3537849    4.3537849    1265.5736   -12764.846   -6368.8344    22930.401    5681.7511   -10574.578   -9857.8507     82.52792 
   75400    1610.6355   -112.90226    1.4573368   -111.44492    10206.092    4.3537135    4.3537135    4.3537135    10206.092    47843.042   -26958.253    9733.4877    974.21756    8840.6942    7805.6165    82.523863 
   75500    1208.3907   -112.54706    1.0933773   -111.45368    17881.074    4.3554889    4.3554889    4.3554889    17881.074    30919.577   -24398.784     47122.43    4036.8071   -8793.6859    20138.662    82.624857 
   75600    1245.3388   -112.58389    1.1268087   -111.45709   -9456.9251    4.3758774    4.3758774    4.3758774   -9456.9251   -7295.5841   -32343.207    11268.016    4202.5767   -12584.409   -10867.911    83.790624 
   75700    1789.4142   -113.05821    1.6190996   -111.43911   -21317.599    4.3692411    4.3692411    4.3692411   -21317.599    29271.981   -54787.362   -38437.417   -4126.4575    14277.946   -5456.5443    83.409984 
   75800    1798.2382   -113.05497    1.6270837   -111.42788    31097.708    4.3333666    4.3333666    4.3333666    31097.708    57312.579    7191.2864    28789.258   -4167.3052   -5169.3135    19600.211    81.372245 
   75900    1600.8747   -112.90546     1.448505   -111.45695    7948.2251    4.3502374    4.3502374    4.3502374    7948.2251    23766.451    11089.039   -11010.815   -5122.5632   -24325.326   -3494.5798    82.326353 
   76000    1787.7141   -113.06158    1.6175613   -111.44402   -15028.527      4.37417      4.37417      4.37417   -15028.527    17054.408   -30027.516   -32112.471    5844.0935    7339.1553   -14688.889    83.692583 
   76100    1781.7834   -113.04597    1.6121951   -111.43378     10850.62    4.3609542    4.3609542    4.3609542     10850.62     23929.66    6808.4762    1813.7229    8893.2399    9192.4504    17621.277    82.936288 
   76200    1565.3666   -112.85253    1.4163766   -111.43615   -6373.2388    4.3569438    4.3569438    4.3569438   -6373.2388   -36266.975    34410.868    -17263.61   -9528.5689   -6784.1964   -845.74083    82.707684 
   76300    1218.3462   -112.54528    1.1023853    -111.4429   -1763.6385    4.3526241    4.3526241    4.3526241   -1763.6385   -26447.214    26029.806   -4873.5076    133.58415     -719.788   -30279.617    82.461927 
   76400    1188.3137   -112.52401    1.0752112    -111.4488    17064.102    4.3535621    4.3535621    4.3535621    17064.102    11406.846     33302.45    6483.0104    9979.1537   -204.52771    8008.1896    82.515255 
   76500    1062.9158   -112.40708   0.96174852   -111.44533   -14086.055    4.3719447    4.3719447    4.3719447   -14086.055   -47086.422    15594.994   -10766.736   -2053.0772   -5844.6355    11325.714    83.564916 
   76600     843.1487   -112.20523   0.76289866   -111.44233   -9955.7158    4.3576855    4.3576855    4.3576855   -9955.7158   -26792.172     7244.178   -10319.154    1783.2909    660.00007   -24256.077    82.749934 
   76700    672.57979   -112.05236   0.60856433    -111.4438    10764.993    4.3416246    4.3416246    4.3416246    10764.993   -5392.8061    30156.181    7531.6038    7769.2764    12271.473   -5318.3934     81.83834 
   76800    1409.6618   -112.72724    1.2754916   -111.45174   -13894.513    4.3586428    4.3586428    4.3586428   -13894.513   -30302.134    2436.8037   -13818.208    2741.6209    3212.2876    17110.215    82.804479 
   76900     1298.128   -112.61977    1.1745735    -111.4452    14838.862    4.3634612    4.3634612    4.3634612    14838.862    41848.149    6934.5846   -4266.1466   -4431.2785   -3573.4609   -12627.944    83.079402 
   77000    1385.0474   -112.70172      1.25322    -111.4485    -285.9908    4.3634689    4.3634689    4.3634689    -285.9908   -1740.6139     19488.72   -18606.079    6109.2652    9004.7168   -12425.138    83.079843 
   77100    2280.6194   -113.49753    2.0635523   -111.43398   -1691.5914    4.3618709    4.3618709    4.3618709   -1691.5914    25213.832   -1496.5092   -28792.097    4164.4549    8980.1769    14524.722      82.9886 
   77200    2337.9202   -113.54794    2.1153993   -111.43254    380.53979    4.3585094    4.3585094    4.3585094    380.53979    37287.299   -18532.388   -17613.292   -8891.4054    6269.9302     -11142.2    82.796879 
   77300    1794.7694   -113.06768     1.623945   -111.44373   -9993.8484    4.3617583    4.3617583    4.3617583   -9993.8484    22745.062   -22401.589   -30325.018    11017.468    7804.3865   -8754.4564    82.982169 
   77400    1887.3222   -113.14868    1.7076888   -111.44099    8412.2938    4.3554293    4.3554293    4.3554293    8412.2938    29910.139    1793.8266   -6467.0839   -1614.8299   -2250.4902    13621.346    82.621465 
   77500    1775.6972   -113.04964    1.6066881   -111.44295    8260.3947    4.3553007    4.3553007    4.3553007    8260.3947     50281.35   -21076.665   -4423.5015   -10897.254   -4778.5116   -7621.8365    82.614147 
   77600    1210.5769   -112.55182    1.0953555   -111.45647   -17900.789     4.364123     4.364123     4.364123   -17900.789   -3736.6237     -43097.9   -6867.8421    6185.5066    2736.6241   -13675.388    83.117211 
   77700    1132.8172   -112.47481    1.0249968   -111.44982    19429.223    4.3507169    4.3507169    4.3507169    19429.223    20072.714    13916.867    24298.088    9748.1148    6518.1985    4006.8316    82.353577 
   77800     1467.504   -112.77713    1.3278285   -111.44931    6594.9883    4.3535916    4.3535916    4.3535916    6594.9883     633.0342      6061.64    13090.291   -6720.3008   -2320.3459   -5098.2404    82.516928 
   77900    1066.3495   -112.41628   0.96485547   -111.45142   -35165.327    4.3690867    4.3690867    4.3690867   -35165.327     -62910.4   -41301.812   -1283.7689    3843.5995    986.12428   -11007.391    83.401138 
   78000    1227.6446   -112.55299    1.1107986   -111.44219   -3429.5576    4.3534904    4.3534904    4.3534904   -3429.5576   -25933.489   -4418.6077    20063.424    4346.9417   -6237.9716    3212.3206    82.511173 
   78100    1370.2883   -112.68171    1.2398656   -111.44184    17612.451    4.3494931    4.3494931    4.3494931    17612.451    30188.936    26929.359   -4280.9408   -849.96383     -10169.9   -6190.2734    82.284101 
   78200    1151.5156   -112.49257    1.0419155   -111.45065   -4422.1718       4.3589       4.3589       4.3589   -4422.1718    21131.396   -11912.227   -22485.685    9169.0097    2251.8497   -14601.566    82.819141 
   78300     1467.482   -112.77792    1.3278086   -111.45011   -2498.3956    4.3581028    4.3581028    4.3581028   -2498.3956    4947.6273   -8503.6115   -3939.2024    7405.3143    5645.3084    3326.4911    82.773708 
   78400       1588.4   -112.88697    1.4372177   -111.44975   -4075.0975    4.3630604    4.3630604    4.3630604   -4075.0975    19386.768    4645.1487   -36257.209    -8060.137   -3815.5191   -4418.0895     83.05651 
   78500     1395.792   -112.71261    1.2629419   -111.44967    5452.6253    4.3546677    4.3546677    4.3546677    5452.6253    56554.318    1587.5116   -41783.954    2480.0553   -4539.1838   -11142.104    82.578131 
   78600    1674.4701    -112.9665    1.5150958   -111.45141    6292.1436    4.3514911    4.3514911    4.3514911    6292.1436    28143.085    1452.9596   -10719.614    27869.588    1871.3293    7963.3508    82.397552 
   78700     1973.194   -113.23666    1.7853874   -111.45128    8674.4993    4.3609172    4.3609172    4.3609172    8674.4993    39277.277    11532.941    -24786.72    1232.9471    1444.9031   -2001.1217    82.934175 
   78800    1769.2274   -113.05387    1.6008341   -111.45303    6397.4659    4.3573821    4.3573821    4.3573821    6397.4659    41527.817    16635.743   -38971.163   -5226.4451   -2108.4199   -13053.171    82.732652 
   78900     1334.468    -112.6654    1.2074547   -111.45795    14445.219    4.3557622    4.3557622    4.3557622    14445.219    55600.795    5492.0292   -17757.168    29398.228    9271.6345    7409.0732    82.640417 
   79000    2054.2868   -113.30633    1.8587618   -111.44756    319.55934    4.3643703    4.3643703    4.3643703    319.55934    8290.6386   -4162.2229   -3169.7377    10989.764    11719.431    3892.5641    83.131342 
   79100    1965.8632   -113.22043    1.7787544   -111.44167    21810.555     4.358768     4.358768     4.358768    21810.555    32516.919    39694.482   -6779.7362    137.62118   -9916.0602   -6527.8135    82.811616 
   79200    1675.8032   -112.96545    1.5163019   -111.44915   -9478.7045    4.3593814    4.3593814    4.3593814   -9478.7045   -4898.4908   -1618.7102   -21918.912    5550.2275   -5555.9978    10430.447     82.84658 
   79300    1627.3543   -112.92348    1.4724644   -111.45102    -17453.29    4.3590083    4.3590083    4.3590083    -17453.29   -54917.395    14609.397   -12051.871    8577.5866    21814.326   -905.60717    82.825312 
   79400    2170.4206   -113.40775    1.9638422   -111.44391    14150.904    4.3507939    4.3507939    4.3507939    14150.904   -13385.793    38196.364     17642.14    4242.5434    2965.1318   -10663.391    82.357952 
   79500    1817.1883   -113.10083    1.6442302    -111.4566   -5091.2657    4.3618845    4.3618845    4.3618845   -5091.2657    6095.8947   -10197.842    -11171.85    16545.339    9867.1959    10477.831    82.989371 
   79600    1421.8242   -112.74406    1.2864965   -111.45756   -14639.302    4.3603599    4.3603599    4.3603599   -14639.302   -34637.911     16981.05   -26261.045    10783.387    25411.165    16630.597    82.902384 
   79700    1935.2777   -113.19761      1.75108   -111.44653    10175.209    4.3555188    4.3555188    4.3555188    10175.209   -9407.1316    40394.117   -461.35849   -8361.5547   -6770.6412    -1650.404    82.626561 
   79800    1954.0229   -113.21577     1.768041   -111.44773   -10376.651    4.3633138    4.3633138    4.3633138   -10376.651   -9315.8065   -18412.704   -3401.4414    6024.6596   -1499.7119   -3739.6155    83.070984 
   79900    1281.9074   -112.61984    1.1598968   -111.45995    5798.6366    4.3477932    4.3477932    4.3477932    5798.6366    14935.964   -2763.8263    5223.7723    26106.241    30334.114    1653.2484    82.187663 
   80000    1370.9347   -112.70377    1.2404506   -111.46332    20174.424    4.3495332    4.3495332    4.3495332    20174.424    39601.352    14941.975    5979.9453    1038.1746    13894.492    3286.7637    82.286379 
   80100    1905.4388   -113.17654     1.724081   -111.45245   -8462.5557    4.3664753    4.3664753    4.3664753   -8462.5557    19646.529   -36026.549   -9007.6465   -5820.0504   -4994.5558   -776.55123    83.251682 
   80200    891.61967   -112.26447   0.80675621   -111.45772    27342.837    4.3547432    4.3547432    4.3547432    27342.837    30207.521     10485.46    41335.529    15738.761    26360.767    3962.0356    82.582427 
   80300    962.03394   -112.32164   0.87046852   -111.45117    6915.5856    4.3604387    4.3604387    4.3604387    6915.5856    32001.949   -37292.262     26037.07    10480.286    22262.632    -6783.256    82.906877 
   80400    1597.5302   -112.87987    1.4454789    -111.4344   -13228.718     4.365088     4.365088     4.365088   -13228.718    25446.198   -57482.553   -7649.7988   -2478.6261   -12719.056   -3890.1481    83.172355 
   80500    695.04123   -112.07484   0.62888791   -111.44595    20735.797    4.3456342    4.3456342    4.3456342    20735.797    18855.406    1389.3289    41962.656    11779.709    21906.275    7487.1948     82.06529 
   80600    647.74468    -112.0495     0.586093    -111.4634   -5418.2221    4.3560636    4.3560636    4.3560636   -5418.2221    9918.1434   -32701.642    6528.8328    16126.806    27664.238     3652.298    82.657571 
   80700    1371.4604   -112.68931    1.2409262   -111.44839   -9676.7931     4.363258     4.363258     4.363258   -9676.7931    18051.589   -18543.106   -28538.862    1066.6687   -10995.857    -11541.58    83.067792 
   80800    938.40996   -112.29878   0.84909305   -111.44969    8307.0253    4.3488203    4.3488203    4.3488203    8307.0253    40841.321     15309.51   -31229.755    2471.3907    24613.009    -6778.997    82.245924 
   80900    533.46078   -111.94499   0.48268652   -111.46231   -23454.985    4.3565804    4.3565804    4.3565804   -23454.985    2041.2636   -28479.217   -43927.002    18629.552    30741.154    13378.114    82.686993 
   81000    1041.4892   -112.39402   0.94236129   -111.45166   -5864.7214    4.3562451    4.3562451    4.3562451   -5864.7214    33008.467   -28440.954   -22161.677    13996.458   -11745.226    10338.085    82.667901 
   81100    1199.3581   -112.53382    1.0852044   -111.44861    -3174.501    4.3527951    4.3527951    4.3527951    -3174.501    29615.005    20709.667   -59848.175   -4069.5059    14820.831   -6011.2623    82.471648 
   81200     704.2723   -112.09335   0.63724038   -111.45611   -40886.152    4.3663115    4.3663115    4.3663115   -40886.152   -26267.384   -13130.845   -83260.227    20466.689    34509.518     6659.426    83.242313 
   81300    1302.3933    -112.6253    1.1784328   -111.44686   -19519.233    4.3534572    4.3534572    4.3534572   -19519.233    6928.9198   -23254.387   -42232.231    11605.594    1225.8267    9195.4878     82.50929 
   81400    1758.6435   -113.03474    1.5912576   -111.44348     5103.211    4.3459465    4.3459465    4.3459465     5103.211    16524.444    21569.086   -22783.897   -20142.152    4581.9151   -3292.8127     82.08298 
   81500    1357.6265   -112.68347     1.228409   -111.45506   -21252.706     4.362378     4.362378     4.362378   -21252.706   -33230.678    1893.7047   -32421.143    15158.941    16054.563    5259.1984    83.017543 
   81600    1684.6045   -112.98085    1.5242655   -111.45658   -11508.641    4.3534827    4.3534827    4.3534827   -11508.641   -10422.301    -7967.977   -16135.645    30255.007    6964.1164    5022.4303     82.51074 
   81700    2308.8984   -113.54132    2.0891398   -111.45218    12926.084    4.3498828    4.3498828    4.3498828    12926.084    19182.521    15864.322    3731.4096   -889.75078   -5360.9321    2894.4883    82.306222 
   81800    2293.8219   -113.53182    2.0754983   -111.45633   -1461.4242     4.356346     4.356346     4.356346   -1461.4242   -13273.983   -5359.7778    14249.488    6099.8337    3236.4421    977.77928    82.673645 
   81900    1670.2005   -112.97657    1.5112325   -111.46534    28923.504    4.3459753    4.3459753    4.3459753    28923.504    42755.011    3872.6736    40142.828    19964.722     2716.636    17881.325    82.084617 
   82000    2124.1159   -113.38481    1.9219447   -111.46287    9042.8323    4.3581636    4.3581636    4.3581636    9042.8323    4974.0826    12790.596    9363.8183   -35.243879   -2081.2896    10873.107    82.777173 
   82100    2496.8851   -113.70694    2.2592341   -111.44771   -2952.7915    4.3606829    4.3606829    4.3606829   -2952.7915   -7172.6498   -19762.886    18077.162    -3123.932    11030.116   -16376.932    82.920807 
   82200    1631.0951   -112.92876    1.4758491   -111.45291    24677.548    4.3436984    4.3436984    4.3436984    24677.548    36163.887   -644.05906    38512.817    22062.167    1943.4232     8424.984    81.955665 
   82300    1558.7574   -112.87183    1.4103965   -111.46143   -5814.3335    4.3563735    4.3563735    4.3563735   -5814.3335    5186.9048    1851.6759   -24481.581    5241.7242   -1541.3646    24581.597    82.675212 
   82400    2058.0553   -113.30939    1.8621717   -111.44722   -7848.9507    4.3596925    4.3596925    4.3596925   -7848.9507   -3408.8982   -11381.805   -8756.1491   -3375.9763    7330.8423    -589.4833     82.86432 
   82500    1477.2144   -112.78656    1.3366147   -111.44995    13842.318    4.3477287    4.3477287    4.3477287    13842.318    21413.666   -3353.1769    23466.465    25806.482   -1732.0739    6711.7625    82.184004 
   82600    1042.0361   -112.40175   0.94285612    -111.4589   -16249.519    4.3538961    4.3538961    4.3538961   -16249.519    9921.0309   -18503.665   -40165.923   -716.99875    6365.2864     18209.48    82.534246 
   82700    1352.1326   -112.67633     1.223438   -111.45289   -15491.737    4.3533337    4.3533337    4.3533337   -15491.737    12136.255   -8855.5963    -49755.87   -11414.066    5774.5139   -2611.7891    82.502263 
   82800    1357.9225   -112.67999    1.2286768   -111.45132    4062.9974    4.3526198    4.3526198    4.3526198    4062.9974     32097.74   -16546.823   -3361.9246    15642.603   -7450.9893    4762.3467    82.461686 
   82900    949.23381   -112.31217    0.8588867   -111.45329   -9098.1171    4.3638249    4.3638249    4.3638249   -9098.1171    29428.033   -27894.781   -28827.603    5203.9908    10506.581     24485.04    83.100177 
   83000    1126.4076   -112.46711    1.0191973   -111.44792   -15566.521    4.3568551    4.3568551    4.3568551   -15566.521    5020.0468    3530.8301   -55250.439   -6188.3993    10940.902   -400.54531    82.702637 
   83100    1366.4242   -112.67994    1.2363693   -111.44357     3781.804    4.3452361    4.3452361    4.3452361     3781.804    45626.788   -4062.3607   -30219.015    672.14164   -6646.5325    1865.8203    82.042737 
   83200     1381.013   -112.70129    1.2495696   -111.45172    1596.5285    4.3490819    4.3490819    4.3490819    1596.5285    46073.339   -24852.231   -16431.523    5065.5774   -2538.2977    22404.828    82.260769 
   83300    1071.9105    -112.4302   0.96988717   -111.46031    10699.108    4.3567536    4.3567536    4.3567536    10699.108    35983.075    2099.4577   -5985.2097   -7063.4927    17219.807    6645.8989    82.696858 
   83400    1489.5995   -112.80081    1.3478209   -111.45299   -4622.1654    4.3640462    4.3640462    4.3640462   -4622.1654    8263.6854    7021.0983    -29151.28    -4432.654    -3953.018   -4189.5169    83.112817 
   83500    1711.7108   -112.99023    1.5487919   -111.44144   -2271.8558    4.3586476    4.3586476    4.3586476   -2271.8558    14317.156    -6051.786   -15080.937    3166.3391   -13099.406    10400.779    82.804751 
   83600     1619.082    -112.9087    1.4649794   -111.44372     5345.339    4.3501914    4.3501914    4.3501914     5345.339   -13864.662    21250.308    8650.3707   -8618.0539    20329.793    4896.3719    82.323742 
   83700    1421.9519     -112.741    1.2866119   -111.45439    8519.3859    4.3488914    4.3488914    4.3488914    8519.3859   -23050.784     34476.26    14132.681   -6452.8574   -1180.5359   -5753.9343    82.249961 
   83800    1773.2672   -113.05784    1.6044894   -111.45335   -307.00991    4.3528785    4.3528785    4.3528785   -307.00991   -16294.361    4675.2315      10698.1   -1490.4734   -22410.277    15470.863    82.476389 
   83900    1786.6258   -113.06628    1.6165766   -111.44971   -12355.505    4.3652937    4.3652937    4.3652937   -12355.505   -36569.116    4118.2468   -4615.6448   -8751.1279    13908.724    12612.392    83.184119 
   84000     1657.548   -112.95021    1.4997843   -111.45042   -15578.089    4.3557538    4.3557538    4.3557538   -15578.089   -42012.121    10220.233    -14942.38   -2541.2698   -1020.7237   -8850.3489    82.639936 
   84100    1350.3797   -112.67279    1.2218519   -111.45094    19742.139    4.3346956    4.3346956    4.3346956    19742.139    41401.027    2956.7084     14868.68    13545.463     -25170.2    12886.084    81.447135 
   84200    1816.5079   -113.10631    1.6436145    -111.4627    1019.9793    4.3500511    4.3500511    4.3500511    1019.9793    22769.365    -15289.95   -4419.4776    6444.8806    9543.6289    16795.307    82.315775 
   84300     2036.064   -113.29275    1.8422735   -111.45047   -1168.1783    4.3626724    4.3626724    4.3626724   -1168.1783    12953.003    -18120.32    1662.7823   -6647.8672    8561.8985   -3875.6422    83.034354 
   84400    1296.1499   -112.62431    1.1727836   -111.45153    8568.1529    4.3573265    4.3573265    4.3573265    8568.1529    44469.466   -19362.465    597.45788    2401.3143   -18453.042    16763.528    82.729481 
   84500     1560.824   -112.85715    1.4122664   -111.44488   -10843.639    4.3600989    4.3600989    4.3600989   -10843.639    31678.339   -39588.572   -24620.685    3980.6625    2640.1796    10800.761    82.887495 
   84600    1976.3489   -113.21931     1.788242   -111.43107    4801.0586    4.3525735    4.3525735    4.3525735    4801.0586    36603.783   -19559.347   -2641.2604   -9841.9284    -533.9248   -12683.814    82.459052 
   84700    1125.0648   -112.46779    1.0179823   -111.44981    3267.6177     4.355432     4.355432     4.355432    3267.6177    24552.371   -4556.0613   -10193.457    6172.2015    -23011.12    13069.359    82.621621 
   84800    938.03977    -112.2986    0.8487581   -111.44984   -15108.763    4.3625848    4.3625848    4.3625848   -15108.763   -12600.931   -24165.858   -8559.5017   -2199.3357    3294.5428    14997.808    83.029349 
   84900    1430.0073   -112.73563    1.2939007   -111.44173    1483.1444    4.3463702    4.3463702    4.3463702    1483.1444    -12209.31    428.98422    16229.759   -7952.4743      4559.35   -8853.6063    82.106994 
   85000    1077.6488   -112.43064   0.97507931   -111.45556   -7501.0015    4.3462774    4.3462774    4.3462774   -7501.0015   -13494.557    5088.0941   -14096.541     12849.37   -11747.967    6784.4775    82.101731 
   85100     655.3513   -112.05604   0.59297563   -111.46307   -14621.474     4.357526     4.357526     4.357526   -14621.474   -23345.137   -12418.432   -8100.8526   -1127.8271    -8444.596    19755.168    82.740845 
   85200    1250.3994   -112.58117    1.1313876   -111.44978    11254.783    4.3554443    4.3554443    4.3554443    11254.783   -16699.065   -1661.6482    52125.063   -7452.5166    12918.951   -9178.1685     82.62232 
   85300    1549.2827   -112.85109    1.4018236   -111.44927   -8127.3916    4.3565778    4.3565778    4.3565778   -8127.3916   -17241.119   -10448.752    3307.6965    4019.5728    5988.3239    5719.9355    82.686848 
   85400    1327.8041    -112.6561    1.2014251   -111.45467    11294.386    4.3468309    4.3468309    4.3468309    11294.386    18849.284   -4612.6434    19646.516    3033.3701   -19404.975    25823.668    82.133105 
   85500    1609.1844   -112.91233    1.4560239    -111.4563    16815.582    4.3486663    4.3486663    4.3486663    16815.582    24927.152   -9209.0145     34728.61   -6992.7547    18708.937    174.81257    82.237189 
   85600    1856.1717   -113.13252    1.6795031   -111.45301   -10501.469    4.3633739    4.3633739    4.3633739   -10501.469   -8946.6741   -31717.729    9159.9955   -3583.9657    24285.299    2946.8756    83.074414 
   85700    1799.3959   -113.07686    1.6281312   -111.44873    2845.4753     4.352438     4.352438     4.352438    2845.4753    31078.439   -20547.246   -1994.7669    5274.1876   -22085.723    14483.823     82.45135 
   85800    1758.9911   -113.04079    1.5915721   -111.44921    16430.031    4.3503937    4.3503937    4.3503937    16430.031    34.001345   -12082.178     61338.27   -9255.1556   -4628.8513   -6016.2936    82.335228 
   85900    1732.4057   -113.02079    1.5675171   -111.45327   -12783.627    4.3572034    4.3572034    4.3572034   -12783.627    8182.6936   -32702.449   -13831.126    -7486.825    16882.537     5643.705    82.722472 
   86000    1605.6349   -112.90451    1.4528122    -111.4517    7462.9773     4.344872     4.344872     4.344872    7462.9773    55472.532   -20385.951   -12697.649   -2602.6216    6226.2112    28028.888    82.022115 
   86100    1778.2139   -113.06978    1.6089653   -111.46082    6276.3057    4.3583007    4.3583007    4.3583007    6276.3057    38542.435   -10239.761   -9473.7572   -4977.0858   -7385.9118   -4879.4523    82.784986 
   86200    1746.9926   -113.02917    1.5807156   -111.44845   -6007.5304    4.3664045    4.3664045    4.3664045   -6007.5304    27891.798   -23109.024   -22805.365    -3754.757   -4781.2842    3620.5127    83.247631 
   86300    1451.3093   -112.75633    1.3131751   -111.44315        22269    4.3486891    4.3486891    4.3486891        22269    79784.337   -23751.936    10774.598    4744.4346    7400.5222    29384.274    82.238483 
   86400    1627.9556   -112.91905    1.4730085   -111.44604   -8110.8475    4.3581287    4.3581287    4.3581287   -8110.8475    32608.711   -15733.598   -41207.655    9193.7723    -13496.67   -15094.663    82.775184 
   86500    1485.9864    -112.7878    1.3445517   -111.44325   -6442.4384     4.361467     4.361467     4.361467   -6442.4384    33388.055   -14032.288   -38683.082   -5352.3202   -11073.851    -2888.087    82.965548 
   86600    1384.5557   -112.69718    1.2527751   -111.44441    1480.3664     4.350832     4.350832     4.350832    1480.3664    27532.587   -22511.899     -579.589    3131.5013    8734.1953    37783.284    82.360117 
   86700    1105.6914   -112.45019    1.0004528   -111.44974   -21811.963    4.3625454    4.3625454    4.3625454   -21811.963   -41989.247   -22408.627   -1038.0153    1559.9439   -6784.7791   -13718.614    83.027099 
   86800     1191.446   -112.52314    1.0780453   -111.44509    -27233.88    4.3614868    4.3614868    4.3614868    -27233.88   -61086.405   -10509.708   -10105.527    -6651.397   -5624.4575   -9986.8978    82.966674 
   86900    854.26994   -112.22204   0.77296139   -111.44908    12720.616    4.3503084    4.3503084    4.3503084    12720.616    37022.789   -1808.2955    2947.3529    7422.3979   -3542.8797    33890.982    82.330384 
   87000    1198.3893   -112.53481    1.0843279   -111.45048   -19380.869    4.3539225    4.3539225    4.3539225   -19380.869   -51837.613   -10780.215    4475.2217   -3078.1736    2678.7987   -5265.8178    82.535746 
   87100    1176.3308    -112.5142    1.0643688   -111.44983   -13456.698    4.3560178    4.3560178    4.3560178   -13456.698   -53629.054    7854.6806    5404.2799   -6071.6004   -7318.9833   -16658.709    82.654962 
   87200     1208.987   -112.54553    1.0939168   -111.45161   -7054.6124    4.3624026    4.3624026    4.3624026   -7054.6124    8510.3391   -6923.5904   -22750.586   -139.62493    -4331.615     21719.29    83.018946 
   87300    1772.2556     -113.051    1.6035741   -111.44742   -6028.2473    4.3601536    4.3601536    4.3601536   -6028.2473    4159.2479   -5259.7728   -16984.217    10504.597    11017.413    3321.0443    82.890616 
   87400    1851.1437   -113.11722    1.6749538   -111.44227     23486.11     4.346439     4.346439     4.346439     23486.11     62923.65    4131.0161    3403.6649    8068.2031   -17523.988    -10633.96    82.110889 
   87500    1531.4965   -112.84254    1.3857302   -111.45681    -11581.76    4.3543864    4.3543864    4.3543864    -11581.76    18492.582   -20557.804    -32680.06   -10564.847   -5027.0698    19591.135    82.562129 
   87600    1661.0627   -112.95632    1.5029645   -111.45335   -7987.7855    4.3593942    4.3593942    4.3593942   -7987.7855    23637.452   -29869.063   -17731.745    3692.8402    26877.261     9767.763    82.847314 
   87700    1930.1503    -113.1888    1.7464406   -111.44236    9.8402115    4.3582882    4.3582882    4.3582882    9.8402115    54194.868   -50051.526   -4113.8214   -1620.2737   -1031.3278   -9415.3718    82.784273 
   87800    1149.5117    -112.4922    1.0401023    -111.4521   -31725.916    4.3628778    4.3628778    4.3628778   -31725.916    9100.9643   -66301.875   -37976.837   -19541.367   -12914.685     11593.44    83.046081 
   87900    894.54192   -112.26629   0.80940033   -111.45688   -2250.7638    4.3406707    4.3406707    4.3406707   -2250.7638    30337.018   -23043.486   -14045.824   -5119.0622     23555.65    9315.2849    81.784408 
   88000    1414.3934   -112.73934    1.2797729   -111.45957    16714.465    4.3454135    4.3454135    4.3454135    16714.465    78541.628   -32954.986    4556.7514    8572.6491    11768.398   -3374.5722    82.052787 
   88100    1399.4038   -112.71943      1.26621   -111.45322   -38930.549    4.3716519    4.3716519    4.3716519   -38930.549   -7220.6945   -82686.274   -26884.678   -7870.7294   -6942.3977    10819.313    83.548125 
   88200    761.98022   -112.14589   0.68945572   -111.45644    13500.745    4.3496533    4.3496533    4.3496533    13500.745    92163.275   -20043.885   -31617.153   -10628.464    23248.812    8272.2414    82.293197 
   88300    1582.4746   -112.88798    1.4318563   -111.45613    8735.5451     4.345759     4.345759     4.345759    8735.5451    28304.746    12609.896   -14708.007    17420.672    13146.923   -7782.0172    82.072359 
   88400     1939.367   -113.20665    1.7547801   -111.45187    2302.3382    4.3548345    4.3548345    4.3548345    2302.3382    24330.346   -3734.9481   -13688.383    12520.975   -14158.568    6570.2495    82.587625 
   88500     1849.524   -113.13239    1.6734882    -111.4589    5205.8441    4.3518493    4.3518493    4.3518493    5205.8441    39845.666    11728.174   -35956.308    -16729.04    24241.319    5499.6989    82.417899 
   88600    1593.4213   -112.90679    1.4417611   -111.46503   -19069.649    4.3649465    4.3649465    4.3649465   -19069.649   -24719.126    27364.585   -59854.404   -5305.1736    20522.342   -11874.519    83.164269 
   88700    2260.8972   -113.49629    2.0457073   -111.45058   -6936.9864    4.3530985    4.3530985    4.3530985   -6936.9864   -9544.8886    25230.168   -36496.239    14112.321   -23698.621   -1194.8947    82.488893 
   88800    2080.3232   -113.33177    1.8823202   -111.44945    23740.941    4.3435771    4.3435771    4.3435771    23740.941    36347.496    33748.978    1126.3494    12165.347    15843.648     9425.021    81.948801 
   88900    1640.5039   -112.94343    1.4843624   -111.45907   -14272.811    4.3612031    4.3612031    4.3612031   -14272.811   -18305.633    14374.671   -38887.471    -9239.339    26360.399   -1800.5551    82.950489 
   89000     1511.556   -112.81832    1.3676876   -111.45063     2352.713    4.3575601    4.3575601    4.3575601     2352.713    30444.231    458.35255   -23844.444   -3739.4777   -22093.215   -7565.6924    82.742789 
   89100    1516.2728   -112.81918    1.3719555   -111.44723    7628.8207     4.354401     4.354401     4.354401    7628.8207    33249.747   -14685.288    4322.0034    14731.164    964.79819   -1842.8188     82.56296 
   89200    1442.3383   -112.75139     1.305058   -111.44633   -891.01301     4.354543     4.354543     4.354543   -891.01301    36102.459   -37756.525   -1018.9726   -2050.3658    20068.864   -1907.2489    82.571042 
   89300    1027.9923   -112.37992   0.93014906   -111.44977    4799.0308    4.3505935    4.3505935    4.3505935    4799.0308    57296.152   -49678.163    6779.1028    4407.6517   -25011.454   -3111.0733    82.346568 
   89400    1226.2091   -112.56065    1.1094998   -111.45115   -20779.365    4.3599236    4.3599236    4.3599236   -20779.365   -6852.2177   -69074.999    13589.121    11487.146   -12904.808     5795.387    82.877501 
   89500    1487.1718   -112.78828    1.3456243   -111.44266   -4194.3326    4.3590508    4.3590508    4.3590508   -4194.3326    33154.607   -61498.961    15761.356    1155.7218    11451.337     3142.074    82.827738 
   89600    1204.2607   -112.53531    1.0896404   -111.44567    6629.4081    4.3545893    4.3545893    4.3545893    6629.4081    41543.395   -25581.191    3926.0202     1113.139    -29605.74   -7497.3777    82.573671 
   89700    1275.6099    -112.6013    1.1541987    -111.4471   -10987.161    4.3573723    4.3573723    4.3573723   -10987.161    3684.5433   -34772.737   -1873.2906    8235.4908   -20120.757    577.18496     82.73209 
   89800     1656.975   -112.93937    1.4992658   -111.44011   -917.67077    4.3554729    4.3554729    4.3554729   -917.67077    46190.299   -41708.608    -7234.703    531.32391    12648.191     852.8593    82.623948 
   89900    1221.8041   -112.55655    1.1055141   -111.45104   -12779.328    4.3606458    4.3606458    4.3606458   -12779.328    22725.912    -2314.657   -58749.238    1875.8968   -36390.733   -4582.7584    82.918689 
   90000    1501.7515   -112.80618    1.3588163   -111.44736    1721.8611    4.3569639    4.3569639    4.3569639    1721.8611    12768.491    16633.052   -24235.959    12095.401   -19336.131   -43.362444    82.708832 
   90100    1817.3488   -113.08431    1.6443754   -111.43994    14618.455    4.3528079    4.3528079    4.3528079    14618.455     32338.09    8467.5779    3049.6987    -6662.178    6198.9623   -2310.9879    82.472375 
   90200    1349.9718   -112.67255    1.2214829   -111.45107   -31359.105    4.3626188    4.3626188    4.3626188   -31359.105   -39846.914    16708.878   -70939.279   -9098.2867   -37453.819   -3128.2913    83.031292 
   90300    1544.7624   -112.84433    1.3977335   -111.44659   -15686.789    4.3522277    4.3522277    4.3522277   -15686.789   -20217.212    31911.324   -58754.478    13284.743   -17110.852    1030.5704    82.439403 
   90400    1783.8687   -113.05708    1.6140819   -111.44299    11095.206    4.3479446    4.3479446    4.3479446    11095.206    26619.033    19265.248   -12598.662    5962.1946    11132.392    905.69823    82.196252 
   90500    1164.0923   -112.50863    1.0532952   -111.45534   -5053.2117    4.3623124    4.3623124    4.3623124   -5053.2117   -7423.2465    1818.6538   -9555.0424   -14862.459   -27759.774   -6582.6957    83.013801 
   90600    1606.1084   -112.89993    1.4532406   -111.44669   -1206.9796    4.3562881    4.3562881    4.3562881   -1206.9796    13186.328    -112.8274   -16694.439   -10850.774   -12181.305   -5787.6415    82.670353 
   90700    1587.6464   -112.88039    1.4365358   -111.44385    12250.155    4.3552623    4.3552623    4.3552623    12250.155    29772.109     7318.017    -339.6608    8316.3542    16631.928     411.5996    82.611966 
   90800    1353.6207   -112.67203    1.2247845   -111.44724   -21623.064    4.3648602    4.3648602    4.3648602   -21623.064    -38542.43   -12485.363     -13841.4   -2933.8658   -24404.089   -8404.1047    83.159337 
   90900    1380.1259   -112.69197     1.248767    -111.4432    8862.4733    4.3534553    4.3534553    4.3534553    8862.4733    36786.927   -22306.441    12106.933   -2148.4613   -15668.681     2008.825    82.509182 
   91000    1841.3317   -113.10589    1.6660757   -111.43981    2943.6618    4.3519732    4.3519732    4.3519732    2943.6618    15255.062   -25525.863    19101.787    3376.3412    24411.304    12343.189    82.424939 
   91100    1441.3983   -112.75257    1.3042075   -111.44836   -10518.837    4.3618468    4.3618468    4.3618468   -10518.837   -32221.017   -15879.372    16543.877   -6460.7869    -11510.94   -17674.821    82.987223 
   91200    1315.3062   -112.63722    1.1901167    -111.4471   -3004.3222    4.3602164    4.3602164    4.3602164   -3004.3222   -1374.0684   -18387.935    10749.037   -5678.7082   -10721.784    1781.1377    82.894198 
   91300     1674.552   -112.95339    1.5151699   -111.43822    587.58746    4.3622664    4.3622664    4.3622664    587.58746    38479.142   -30616.226    -6100.153    3143.2998    14881.748    22464.994    83.011172 
   91400    1706.6066   -112.98036    1.5441735   -111.43618   -18642.451    4.3627081    4.3627081    4.3627081   -18642.451   -8221.0758   -29655.575   -18050.703    1047.8425   -11007.922   -17638.063    83.036389 
   91500    1317.4517   -112.63513     1.192058   -111.44307    8422.5762    4.3522843    4.3522843    4.3522843    8422.5762    9047.7268   -12159.318     28379.32   -14722.126    -6780.572    7161.1538    82.442616 
   91600    1798.8472   -113.07362    1.6276348   -111.44599    2567.3249    4.3557796    4.3557796    4.3557796    2567.3249    23592.663   -9970.5654   -5920.1228    3660.2114   -1574.9891    17607.207    82.641403 
   91700    1952.9003   -113.21398    1.7670252   -111.44696    -5504.809    4.3611104    4.3611104    4.3611104    -5504.809    16780.538   -2204.0516   -31090.914    8975.4135   -505.58208   -16883.332    82.945198 
   91800    1477.1191   -112.78842    1.3365284   -111.45189    6857.3491     4.355803     4.355803     4.355803    6857.3491    31363.566    6578.1594   -17369.678   -12039.061   -10481.536    9049.0454    82.642739 
   91900    1721.2894   -113.00647    1.5574589   -111.44902    5665.9435    4.3580096    4.3580096    4.3580096    5665.9435    29210.495   -3836.3204   -8376.3441   -2781.1725   -4.4823892    27192.832    82.768396 
   92000    2194.2242   -113.42112    1.9853802   -111.43574    -9428.479    4.3651628    4.3651628    4.3651628    -9428.479    1580.2194   -17958.905   -11906.752    4874.2539     6675.327   -4316.2929    83.176633 
   92100    1490.5751   -112.78868    1.3487037   -111.43998    -6524.895    4.3599195    4.3599195    4.3599195    -6524.895   -12261.646   -12828.013    5514.9732    -5783.617   -3282.5242    14688.812    82.877264 
   92200    1405.4035   -112.71355    1.2716386   -111.44192    3309.5033    4.3561624    4.3561624    4.3561624    3309.5033    1746.5648    3420.7784    4761.1668   -2996.4464   -4188.6814    15536.935    82.663194 
   92300    2022.9556   -113.26608    1.8304127   -111.43567    5434.7587    4.3559071    4.3559071    4.3559071    5434.7587    3704.5224   -3521.9048    16121.658    13368.462   -8051.7216   -16774.822    82.648662 
   92400    1547.6777   -112.84887    1.4003713    -111.4485   -13842.474    4.3536496    4.3536496    4.3536496   -13842.474   -48550.432   -16017.049    23040.061   -2747.2541   -3982.4437     10201.51    82.520228 
   92500       866.04   -112.24076   0.78361119   -111.45715   -14491.368    4.3566735    4.3566735    4.3566735   -14491.368   -67714.653    9086.0964    15154.453   -10620.915   -2356.4731    26753.739    82.692294 
   92600    1649.8831   -112.93563    1.4928489   -111.44278   -14297.335    4.3619978    4.3619978    4.3619978   -14297.335   -57680.712    3044.6576    11744.051    11896.553   -11933.131   -180.23233    82.995842 
   92700    1288.8313   -112.60723    1.1661616   -111.44106    2819.8674    4.3573146    4.3573146    4.3573146    2819.8674   -1701.1314   -11007.373    21168.107   -6713.0068    3015.7839    14780.281    82.728806 
   92800    803.13945   -112.17541   0.72669745   -111.44871    3340.2142    4.3508704    4.3508704    4.3508704    3340.2142   -24270.374    18252.913    16038.103   -6199.9792    -11414.32    17446.238    82.362294 
   92900    1428.1563   -112.73978    1.2922258   -111.44755   -15359.419    4.3580521    4.3580521    4.3580521   -15359.419    -67414.13    23055.551   -1719.6769    8274.6189    -19417.26    -13705.58    82.770819 
   93000    1632.2517   -112.92117    1.4768956   -111.44428   -12240.875    4.3577476    4.3577476    4.3577476   -12240.875   -27579.855   -8504.5738   -638.19619   -8954.1376    7442.2124   -1531.9858    82.753469 
   93100    1072.1744   -112.42354   0.97012592   -111.45341    12741.486     4.353776     4.353776     4.353776    12741.486    10328.999    26823.717    1071.7436   -12202.906   -1694.1187    21838.711    82.527414 
   93200      1486.16   -112.79401    1.3447088    -111.4493    694.98694    4.3629558    4.3629558    4.3629558    694.98694    4998.3758    8398.3603   -11311.775   -3762.8773   -16455.136   -3621.5311    83.050537 
   93300    1971.8761   -113.22079    1.7841949    -111.4366   -4713.3823    4.3611464    4.3611464    4.3611464   -4713.3823     18248.65    -9796.372   -22592.425    5123.3311    4407.2801   -4589.5317     82.94725 
   93400    1417.9122   -112.72819    1.2829567   -111.44523    7146.3138    4.3554163    4.3554163    4.3554163    7146.3138    35389.703    10907.519    -24858.28   -1661.0379    -12091.66    13749.526     82.62073 
   93500    1618.3254   -112.91078    1.4642948   -111.44648   -6177.4174    4.3608106    4.3608106    4.3608106   -6177.4174    376.54484    9825.8588   -28734.656   -9833.6837   -23065.595   -3537.5705    82.928093 
   93600    1942.7198   -113.19898    1.7578137   -111.44117   -9134.6403    4.3599533    4.3599533    4.3599533   -9134.6403    3845.5055   -19412.079   -11837.347    12305.075    3283.2201    -7993.565    82.879191 
   93700    1426.7396   -112.73887     1.290944   -111.44792   -16824.713    4.3575416    4.3575416    4.3575416   -16824.713    -2699.442   -25367.536    -22407.16    1347.7582   -10103.823    11824.238    82.741735 
   93800    1273.3487   -112.59942    1.1521526   -111.44727   -617.58015     4.357118     4.357118     4.357118   -617.58015     -13538.3    29596.166   -17910.606   -9717.9627   -15727.397    12703.189    82.717608 
   93900    1621.3433   -112.90755    1.4670255   -111.44052    6173.0342    4.3605116    4.3605116    4.3605116    6173.0342   -6012.9364    32829.891   -8297.8517    14873.304    2671.5615   -10678.693    82.911036 
   94000     1317.487   -112.63417    1.1920899   -111.44208   -15284.321    4.3618726    4.3618726    4.3618726   -15284.321   -29274.192    12630.933   -29209.705    6742.0649   -10637.445    14310.396    82.988693 
   94100    1233.3151   -112.55674    1.1159295   -111.44081   -5353.1027    4.3588908    4.3588908    4.3588908   -5353.1027   -56229.381     58308.73   -18138.657   -12273.635   -13802.913     12559.58    82.818617 
   94200    1848.1318   -113.10675    1.6722285   -111.43452   -5504.2044    4.3600211    4.3600211    4.3600211   -5504.2044   -66701.475    30421.244    19767.617    15591.962    7053.8738   -13929.101    82.883057 
   94300     1678.898   -112.95809    1.5191022   -111.43898    5450.9587    4.3553447    4.3553447    4.3553447    5450.9587   -10800.398    38788.732   -11635.458    20205.228   -1897.1974    10702.496    82.616651 
   94400    1540.5731    -112.8386    1.3939429   -111.44465    14939.755    4.3541964    4.3541964    4.3541964    14939.755    13960.317    46218.616   -15359.669   -7831.2701   -11872.546    16752.683    82.551321 
   94500    1758.0379   -113.03372    1.5907097   -111.44301   -10604.808    4.3611468    4.3611468    4.3611468   -10604.808   -27684.835   -12565.895    8436.3044    7862.7078   -2543.4889   -7711.1418    82.947274 
   94600    1436.8434   -112.74081    1.3000861   -111.44073   -781.10856    4.3572756    4.3572756    4.3572756   -781.10856    2856.2632   -19502.349     14302.76    7223.6961     2452.576    5742.3547    82.726585 
   94700    1320.4821   -112.63607       1.1948   -111.44127   -4042.7281    4.3538398    4.3538398    4.3538398   -4042.7281    3030.7116   -21048.498     5889.602    2098.0802   -8924.4181    14236.947    82.531044 
   94800    1035.7628   -112.38332   0.93717992   -111.44614   -10170.597    4.3561329    4.3561329    4.3561329   -10170.597   -9435.7709   -55314.862    34238.842    17451.253     2002.026   -4306.8637    82.661515 
   94900    1242.7648   -112.56696    1.1244797   -111.44248   -7958.9559    4.3557735    4.3557735    4.3557735   -7958.9559    6246.6914   -62343.613    32220.054    3454.3262    6511.5844   -5178.0178    82.641057 
   95000    1394.0609   -112.70128    1.2613756   -111.43991   -22521.149    4.3628975    4.3628975    4.3628975   -22521.149   -7620.6689    -48122.75   -11820.028   -12829.871   -15654.841    11903.712    83.047207 
   95100    1113.1437   -112.45269    1.0071959    -111.4455   -12039.307    4.3548775    4.3548775    4.3548775   -12039.307   -20122.702   -34877.051    18881.832    8054.1821   -10359.761     3473.039     82.59007 
   95200    1600.7879   -112.89262    1.4484265   -111.44419    11348.434    4.3427127    4.3427127    4.3427127    11348.434   -4913.4409    13838.369    25120.375     20199.57    4903.8146   -24763.759    81.899887 
   95300    2019.0707   -113.27578    1.8268976   -111.44888   -3108.0531    4.3605116    4.3605116    4.3605116   -3108.0531   -14803.972    23901.645   -18421.832    5500.1223   -8536.2576   -3916.2246    82.911035 
   95400    1842.3959   -113.11255    1.6670385   -111.44551   -1889.6554    4.3615963    4.3615963    4.3615963   -1889.6554   -43965.748    41438.235   -3141.4533    777.12624   -9492.9087    3496.3144    82.972927 
   95500    1777.3098   -113.05001    1.6081473   -111.44186    4014.8071    4.3525181    4.3525181    4.3525181    4014.8071   -13698.028     41563.04   -15820.591    2436.8188    125.35646    -13543.48    82.455902 
   95600    2031.0988   -113.27727    1.8377809   -111.43949   -4391.4487    4.3567002    4.3567002    4.3567002   -4391.4487   -6724.8707    42203.539   -48653.015   -3612.6995   -4940.6492    3306.9866    82.693814 
   95700    1732.6919    -113.0097     1.567776   -111.44192    4155.0732    4.3520687    4.3520687    4.3520687    4155.0732   -19338.912    48649.503   -16845.371    13552.439   -11791.798    9254.1561    82.430365 
   95800     1220.965   -112.55652    1.1047548   -111.45176    752.06487    4.3557763    4.3557763    4.3557763    752.06487   -8794.4687    2214.5094    8836.1539    22292.625   -1160.1022   -27874.511    82.641214 
   95900    1198.7656   -112.53066    1.0846683     -111.446   -17273.796    4.3607229    4.3607229    4.3607229   -17273.796   -6783.0352   -23096.151   -21942.202   -5929.9055   -1300.8436   -3707.7428     82.92309 
   96000    1118.4235   -112.45181    1.0119731   -111.43984   -9393.5502    4.3499243    4.3499243    4.3499243   -9393.5502    3951.6243   -22105.916   -10026.359   -1116.2454   -18276.199    18744.856    82.308578 
   96100    1043.0474   -112.39183    0.9437712   -111.44806   -21247.415    4.3543934    4.3543934    4.3543934   -21247.415    8546.2151   -66591.593   -5696.8687    8980.8617   -4959.6734    -16428.64    82.562529 
   96200    1072.4645    -112.4213   0.97038843   -111.45091   -11629.269    4.3559162    4.3559162    4.3559162   -11629.269    10575.701   -56761.021    11297.514    7168.4636    4494.2793    -8335.335    82.649179 
   96300    1163.3249   -112.50332    1.0526008   -111.45072    18899.491    4.3475366    4.3475366    4.3475366    18899.491    15032.535    25296.463    16369.475    -5118.087   -14377.534    19191.648    82.173116 
   96400    1533.5091   -112.84253    1.3875513   -111.45497   -11914.068     4.361962     4.361962     4.361962   -11914.068     8978.353   -37708.869   -7011.6883   -2918.3345   -11853.362   -9226.7691    82.993797 
   96500    1920.8668   -113.17864    1.7380407    -111.4406   -9400.4535    4.3637936    4.3637936    4.3637936   -9400.4535   -2950.3303   -18452.895   -6798.1346    7303.5805    2481.5611   -5013.6412    83.098387 
   96600    1813.8923   -113.08211    1.6412479   -111.44086    17685.068    4.3493148    4.3493148    4.3493148    17685.068    5692.3145    72113.773   -24750.883    1530.8627   -13843.351    18279.705    82.273985 
   96700     2164.943   -113.40736    1.9588859   -111.44848    6701.1495    4.3519092    4.3519092    4.3519092    6701.1495   -2270.4412    38218.818   -15844.928    6927.2311   -11751.833    6950.3133    82.421305 
   96800    2478.3709   -113.68709    2.2424821    -111.4446    12038.799    4.3563119    4.3563119    4.3563119    12038.799     -6104.52    53872.233   -11651.317    16648.253    11838.489    161.27328    82.671706 
   96900     1867.245   -113.14165    1.6895225   -111.45213    -1003.454    4.3662215    4.3662215    4.3662215    -1003.454   -8605.0629    50708.522   -45113.821    -4923.674   -7142.6606    20774.873    83.237169 
   97000    1846.7797   -113.11427    1.6710051   -111.44326   -15328.443    4.3649195    4.3649195    4.3649195   -15328.443   -16540.353    3061.4466   -32506.423   -5611.8147   -14633.732    13676.377    83.162724 
   97100    1935.1177   -113.18395    1.7509352   -111.43301    7243.5791    4.3455687    4.3455687    4.3455687    7243.5791    11871.081    4087.9943    5771.6623    2353.3999    5558.8119   -13605.936    82.061576 
   97200    1302.5681   -112.63214     1.178591   -111.45355    10824.355    4.3504729    4.3504729    4.3504729    10824.355    18858.188    41890.754   -28275.877    811.32314   -5363.4245    24917.136    82.339721 
   97300    1155.2246   -112.50126    1.0452715   -111.45598   -13552.284    4.3655105    4.3655105    4.3655105   -13552.284   -5902.5511   -8168.6843   -26585.617   -3789.5573   -9600.3611    26969.423    83.196512 
   97400    1161.7791    -112.4898    1.0512021    -111.4386   -14142.123    4.3681918    4.3681918    4.3681918   -14142.123   -5364.3712   -39025.686    1963.6892   -2577.6758    6551.4469   -4481.2229    83.349904 
   97500    758.18256   -112.12369   0.68601951   -111.43767   -27124.356    4.3670641    4.3670641    4.3670641   -27124.356    13319.602   -52847.637   -41845.032    6048.1899   -5909.6115    8569.5768    83.285369 
   97600    685.62474   -112.05876   0.62036768   -111.43839     7762.383    4.3502059    4.3502059    4.3502059     7762.383    14229.313    30643.899   -21586.063     1428.066   -12882.559    19789.473    82.324565 
   97700    1201.5583   -112.52359    1.0871952   -111.43639    13388.231    4.3418899    4.3418899    4.3418899    13388.231    14319.987    16935.018    8909.6879   -11629.051    928.89056    7171.4035    81.853341 
   97800    1014.3848   -112.37616   0.91783669   -111.45833   -33218.968    4.3680156    4.3680156    4.3680156   -33218.968    8371.9145   -58072.827   -49955.991   -1723.9322   -2292.4717    1817.1617    83.339818 
   97900    1411.0343   -112.71762    1.2767335   -111.44089   -26789.973    4.3726592    4.3726592    4.3726592   -26789.973   -4534.4533    -27070.47   -48764.994    3414.7164   -1867.6497    10065.025    83.605895 
   98000    2035.8489   -113.27052    1.8420789   -111.42844    15764.201    4.3544472    4.3544472    4.3544472    15764.201   -10683.639    65354.214   -7377.9731    -5631.623    6728.4256   -12217.653    82.565591 
   98100    1870.3871   -113.12787    1.6923655    -111.4355    3214.8848    4.3484349    4.3484349    4.3484349    3214.8848    11886.924     32674.09    -34916.36    115.80247    4675.0557    1797.4709    82.224061 
   98200    1733.0829     -113.024    1.5681298   -111.45587    6443.2008    4.3548976    4.3548976    4.3548976    6443.2008    11981.442    47659.965   -40311.805    2646.1604   -552.26047    9930.3853    82.591213 
   98300     2257.164   -113.49099    2.0423294   -111.44866   -7593.3922    4.3704106    4.3704106    4.3704106   -7593.3922   -31475.819     34085.26   -25389.617   -12305.272    887.24378    -2027.932    83.476981 
   98400    2001.3079   -113.25663    1.8108254   -111.44581    -6881.319    4.3617595    4.3617595    4.3617595    -6881.319   -113.30188    1840.0395   -22370.695    5209.4065    287.02832    6834.5835    82.982241 
   98500    1459.3857   -112.76488    1.3204829   -111.44439    16044.532     4.348427     4.348427     4.348427    16044.532    36264.717    27404.577   -15535.697    2465.8519   -2883.0592   -1836.7929     82.22361 
   98600    2073.9076   -113.31605    1.8765152   -111.43953    -3871.751    4.3570213    4.3570213    4.3570213    -3871.751   -7322.2683    4633.9964   -8926.9812   -9047.5117   -1009.4309   -17905.919      82.7121 
   98700     1458.237   -112.76359    1.3194435   -111.44415   -2583.2026    4.3632923    4.3632923    4.3632923   -2583.2026    2062.6416   -3389.0829   -6423.1665    11968.051   -3064.7461    8244.4857    83.069754 
   98800    782.14498   -112.15676   0.70770122   -111.44905   -661.95028    4.3632087    4.3632087    4.3632087   -661.95028    34620.806   -8966.9103   -27639.746    14274.216   -209.43686    11173.791    83.064977 
   98900     1263.198   -112.58016    1.1429681   -111.43719    9087.4906    4.3614208    4.3614208    4.3614208    9087.4906    17072.325    31480.425   -21290.278   -2845.9068    2891.7784   -11907.967    82.962911 
   99000    1449.2847   -112.75051    1.3113433   -111.43917   -4025.0132    4.3503521    4.3503521    4.3503521   -4025.0132    18444.686   -29340.656   -1179.0694    7677.3035     3585.088    546.28278    82.332865 
   99100     816.0423   -112.19592   0.73837222   -111.45755   -8834.9136    4.3482048    4.3482048    4.3482048   -8834.9136    50209.594   -53236.199   -23478.135    3928.7114    1814.9499    12371.697    82.211006 
   99200    1341.5464   -112.67071    1.2138594   -111.45685    7078.3194    4.3598386    4.3598386    4.3598386    7078.3194    15792.268    41114.968   -35672.279   -468.02668    2149.8239    1749.5442    82.872652 
   99300    1502.5175   -112.80627    1.3595094   -111.44676   -6563.7158    4.3733929    4.3733929    4.3733929   -6563.7158   -31363.695    51529.402   -39856.855    3827.9047    513.89629    6354.5101    83.647986 
   99400     1251.366   -112.57637    1.1322623   -111.44411    4598.7906    4.3571248    4.3571248    4.3571248    4598.7906    17084.143    46643.338   -49931.109   -361.82083   -2682.8104    22797.127    82.717994 
   99500    1634.0601   -112.91855    1.4785319   -111.44002    5557.1221    4.3435905    4.3435905    4.3435905    5557.1221    7982.0615    39941.617   -31252.313    -5368.415   -3619.9591   -2448.8245    81.949559 
   99600    1808.1311   -113.08735     1.636035   -111.45132   -8869.9792    4.3571677    4.3571677    4.3571677   -8869.9792   -47775.797    24927.461   -3761.6016   -24265.291   -1058.4504       -11249    82.720438 
   99700    1787.7994   -113.07058    1.6176384   -111.45294    -20837.89    4.3666867    4.3666867    4.3666867    -20837.89   -41404.809    11333.274   -32442.134   -7666.6964    3392.6094    14982.038    83.263777 
   99800    1453.2657   -112.76513    1.3149454   -111.45018    3488.6215    4.3647115    4.3647115    4.3647115    3488.6215   -4811.6652    53980.276   -38702.746    8220.3615    2942.2688    5941.7251    83.150838 
   99900    1567.2716   -112.86575    1.4181003   -111.44765   -813.00983    4.3582571    4.3582571    4.3582571   -813.00983   -17482.964    19545.487    -4501.553   -11147.633    4257.9174   -10038.645    82.782498 
  100000    1580.4089   -112.87332    1.4299872   -111.44333    15822.003      4.34306      4.34306      4.34306    15822.003   -8410.8304    48307.019    7569.8213   -11185.483    1036.4709    20687.771    81.919535 
Loop time of 21.8592 on 1 procs for 100000 steps with 8 atoms

Pair  time (%) = 6.70138 (30.6571)
Kspce time (%) = 5.32093 (24.3419)
Neigh time (%) = 0 (0)
Comm  time (%) = 1.07129 (4.90086)
Outpt time (%) = 0.0242248 (0.110822)
Other time (%) = 8.74136 (39.9894)

Nlocal:    8 ave 8 max 8 min
Histogram: 1 0 0 0 0 0 0 0 0 0
Nghost:    2189 ave 2189 max 2189 min
Histogram: 1 0 0 0 0 0 0 0 0 0
Neighs:    2056 ave 2056 max 2056 min
Histogram: 1 0 0 0 0 0 0 0 0 0

Total # of neighbors = 2056
Ave neighs/atom = 257
Neighbor list builds = 0
Dangerous builds = 0
unfix 20
unfix 21
print "seeds:8439522"
seeds:8439522
