LAMMPS (10 Feb 2015)
# ---- initialize simulations
clear
units metal
dimension 3
boundary p p p
atom_style charge
atom_modify map array
# ---- create atoms
read_data /Users/eugeneragasa/pyflamestk_git/pypospack/tests/tests_integration/workflow/WorkflowLammpsThermalExpansion/param_1256/MgO_NaCl_unit.npt.T100/lammps.structure
  triclinic box = (0 0 0) to (4.2565 4.2565 4.2565) with tilt (0 0 0)
  1 by 1 by 1 MPI processor grid
  reading atoms ...
  8 atoms
# ---- define interatomic potential
include potential.mod
mass 1 24.305
mass 2 15.999

group Mg type 1
4 atoms in group Mg
group O type 2
4 atoms in group O

set group Mg charge 1.66039996869
  4 settings made for charge
set group O charge -1.66039996869
  4 settings made for charge

variable R_cut equal 10.0

pair_style buck/coul/long ${R_cut}
pair_style buck/coul/long 10
pair_coeff 1 1 0.0 0.5 0.0 ${R_cut}
pair_coeff 1 1 0.0 0.5 0.0 10
pair_coeff 1 2 1528.2261267 0.282600919639 0.0 ${R_cut}
pair_coeff 1 2 1528.2261267 0.282600919639 0.0 10
pair_coeff 2 2 6677.06285722 0.138925130231 8.13419383626 ${R_cut}
pair_coeff 2 2 6677.06285722 0.138925130231 8.13419383626 10

kspace_style pppm 1.0e-5

neighbor 1.0 bin
neigh_modify every 1 delay 0 check yes
# ---- define settings
compute eng all pe/atom
compute eatoms all reduce sum c_eng
# ---- run minimization
reset_timestep 0
fix 1 all box/relax iso 0.0 vmax 0.001
thermo 10
thermo_style custom step pe lx ly lz xy xz yz press pxx pyy pzz pxy pxz pyz c_eatoms
min_style cg
minimize 1e-25 1e-25 5000 10000
PPPM initialization ...
  G vector (1/distance) = 0.352851
  grid = 8 8 8
  stencil order = 5
  estimated absolute RMS force accuracy = 3.9608e-05
  estimated relative force accuracy = 2.75062e-06
  using double precision FFTs
  3d grid and FFT values/proc = 3375 512
Neighbor list info ...
  1 neighbor list requests
  update every 1 steps, delay 0 steps, check yes
  master list distance cutoff = 11
Memory usage per processor = 4.06549 Mbytes
Step PotEng Lx Ly Lz Xy Xz Yz Press Pxx Pyy Pzz Pxy Pxz Pyz eatoms 
       0   -110.92329       4.2565       4.2565       4.2565            0            0            0    120138.29    120138.29    120138.29    120138.29 1.5343687e-10 -1.0407196e-10 -1.3145771e-10   -110.92329 
      10   -111.05478     4.299065     4.299065     4.299065            0            0            0    61836.089    61836.089    61836.089    61836.089 1.0666232e-10 -5.0344756e-11 -1.3613158e-10   -111.05478 
      20   -111.10767      4.34163      4.34163      4.34163            0            0            0    10591.608    10591.608    10591.608    10591.608 -1.2465538e-10 -9.1160209e-12 2.8254225e-10   -111.10767 
      25   -111.10952     4.351169     4.351169     4.351169            0            0            0   -6.6622077   -6.6622077   -6.6622077   -6.6622077 -1.5540302e-10 -3.5403029e-11 3.0098099e-10   -111.10952 
Loop time of 0.0145471 on 1 procs for 25 steps with 8 atoms

Minimization stats:
  Stopping criterion = linesearch alpha is zero
  Energy initial, next-to-last, final = 
        -110.923293971     -111.109518965     -111.109518965
  Force two-norm initial, final = 17.348 0.0010058
  Force max component initial, final = 17.348 0.0010053
  Final line search alpha, max atom move = 0.00777135 7.8125e-06
  Iterations, force evaluations = 25 41

Pair  time (%) = 0.0040307 (27.7079)
Kspce time (%) = 0.00234842 (16.1436)
Neigh time (%) = 0 (0)
Comm  time (%) = 0.000465155 (3.19757)
Outpt time (%) = 2.38419e-05 (0.163894)
Other time (%) = 0.00767899 (52.787)

Nlocal:    8 ave 8 max 8 min
Histogram: 1 0 0 0 0 0 0 0 0 0
Nghost:    2189 ave 2189 max 2189 min
Histogram: 1 0 0 0 0 0 0 0 0 0
Neighs:    2344 ave 2344 max 2344 min
Histogram: 1 0 0 0 0 0 0 0 0 0

Total # of neighbors = 2344
Ave neighs/atom = 293
Neighbor list builds = 0
Dangerous builds = 0
unfix 1
# ---- define output variables ----
variable natoms equal "count(all)"
variable tot_energy equal "c_eatoms"
variable length_x equal "lx"
variable length_y equal "ly"
variable length_z equal "lz"
variable tilt_xy equal "xy"
variable tilt_xz equal "xz"
variable tilt_yz equal "yz"
variable tot_press equal "press"
variable press_xx equal "pxx"
variable press_yy equal "pyy"
variable press_zz equal "pzz"
variable press_xy equal "pxy"
variable press_xz equal "pxz"
variable press_yz equal "pyz"

# ---- output ----
print "pypospack:output_section:begin"
pypospack:output_section:begin
print "tot_energy = ${tot_energy}"
tot_energy = -111.109518965105
print "num_atoms = ${natoms}"
num_atoms = 8
print "xx = ${length_x}"
xx = 4.35116899821938
print "yy = ${length_y}"
yy = 4.35116899821938
print "zz = ${length_z}"
zz = 4.35116899821938
print "xy = ${tilt_xy}"
xy = 0
print "xz = ${tilt_xz}"
xz = 0
print "yz = ${tilt_yz}"
yz = 0
print "tot_press = ${tot_press}"
tot_press = -6.66220766530753
print "pxx = ${press_xx}"
pxx = -6.66220766529406
print "pyy = ${press_yy}"
pyy = -6.66220766581444
print "pzz = ${press_zz}"
pzz = -6.6622076648141
print "pxy = ${press_xy}"
pxy = -1.55403020158447e-10
print "pxz = ${press_xz}"
pxz = -3.54030294322521e-11
print "pyz = ${press_yz}"
pyz = 3.00980987063428e-10
print "pypospack:output_section:done"
pypospack:output_section:done
print "pypospack:lammps_sim:done"
pypospack:lammps_sim:done
#------------------------------------------------------------------------------
# RUN THERMOSTAT
# running using an NPT Nose-Hoover style thermostat
#------------------------------------------------------------------------------
variable tempdamp equal 0.1
variable pressdamp equal 1.0
# set initial velocities
velocity all create 100 309434 mom yes dist gaussian loop all
# fix for Nose-Hoover style thermostat
fix 20 all npt temp 100 100 0.1 aniso 0.0 0.0 1.0 drag 1.0 couple xyz
variable boxx equal lx
variable boxy equal ly
variable boxz equal lz
variable boxp equal press
variable boxt equal temp
# calculate averages every 10000 steps
reset_timestep 0
fix 21 all ave/time 10 10 100 v_boxx v_boxy v_boxz v_boxp v_boxt file lattice.out
thermo_style custom step temp pe ke etotal press lx ly lz press pxx pyy pzz pxy pxz pyz vol
thermo_modify flush yes
thermo 100
run 100000
PPPM initialization ...
  G vector (1/distance) = 0.351894
  grid = 8 8 8
  stencil order = 5
  estimated absolute RMS force accuracy = 4.14019e-05
  estimated relative force accuracy = 2.8752e-06
  using double precision FFTs
  3d grid and FFT values/proc = 3375 512
Memory usage per processor = 3.06549 Mbytes
Step Temp PotEng KinEng TotEng Press Lx Ly Lz Press Pxx Pyy Pzz Pxy Pxz Pyz Volume 
       0          100   -111.10953  0.090482101   -111.01905    1164.3325     4.351169     4.351169     4.351169    1164.3325    2350.0782    713.37295    429.54642   -488.54605    269.15815   -121.01559    82.379254 
     100    34.492318   -111.03677  0.031209375   -111.00556    3655.8147    4.3527633    4.3527633    4.3527633    3655.8147    7416.3565    2671.1241    879.96357    1032.2378    351.14366    40.872128    82.469838 
     200    81.241717   -111.05514  0.073509213   -110.98163   -383.11623    4.3536269    4.3536269    4.3536269   -383.11623    1435.1049   -699.84995   -1884.6036   -701.07329    158.21281    36.571536    82.518937 
     300    47.589046   -111.00343  0.043059569   -110.96037    2454.8851    4.3535977    4.3535977    4.3535977    2454.8851     3333.873    2709.5958    1321.1863    1420.5329    -190.2542   -28.682889    82.517274 
     400     83.84655   -111.01941  0.075866121   -110.94354   -1461.1051    4.3572299    4.3572299    4.3572299   -1461.1051    1235.6833   -1640.9463   -3978.0524   -257.30559    487.07194    219.23824    82.723979 
     500     113.3168   -111.03531   0.10253143   -110.93278   -334.57426    4.3556663    4.3556663    4.3556663   -334.57426    3510.6274    -1801.609   -2712.7412    524.67338    101.55934    76.273876    82.634957 
     600    102.26232    -111.0208  0.092529101   -110.92827    1777.0879    4.3565427    4.3565427    4.3565427    1777.0879    7032.8507    328.06429   -2029.6513    737.64387    4.9380591    4.2365487    82.684848 
     700    136.07808   -111.05027   0.12312631   -110.92714   -4009.4482    4.3584583    4.3584583    4.3584583   -4009.4482    1976.4281   -6506.2221   -7498.5504    287.29414    1464.4978    20.530947    82.793963 
     800    74.069449   -110.99465  0.067019594   -110.92763    410.69166     4.356054     4.356054     4.356054    410.69166    9.7331652     2036.001    -813.6592    1096.6168    334.88043   -134.61758    82.657024 
     900    127.44429   -111.04299   0.11531427   -110.92767   -3716.3468     4.358318     4.358318     4.358318   -3716.3468   -338.70047   -5137.2337   -5673.1062   -1229.3522   -290.53567   -131.98656    82.785971 
    1000    38.103787   -110.96299  0.034477107   -110.92851    512.01521    4.3572406    4.3572406    4.3572406    512.01521    4145.3485   -81.238354   -2528.0646    1642.8227    1063.7072   -136.40795    82.724592 
    1100    99.682452   -111.01853  0.090194777   -110.92833   -1193.0823    4.3562453    4.3562453    4.3562453   -1193.0823    2286.4107   -2165.9772   -3699.6806   -1355.8497    7.3145407   -30.316566    82.667916 
    1200    129.22911   -111.04504   0.11692921   -110.92811   -1566.2139    4.3577792    4.3577792    4.3577792   -1566.2139    1141.1411   -2087.0602   -3752.7225    1966.5532    -592.9354   -82.203923    82.755271 
    1300    117.36425   -111.03463   0.10619364   -110.92844   -344.85172    4.3562483    4.3562483    4.3562483   -344.85172    2997.8831   -552.81263   -3479.6257   -723.66885    1250.9663    136.56946    82.668085 
    1400    119.59851   -111.03652   0.10821524    -110.9283    859.47752    4.3557629    4.3557629    4.3557629    859.47752    5990.7605   -814.32115   -2598.0068    1026.9544    532.79063    44.488002    82.640452 
    1500    72.211671   -110.99364  0.065338638    -110.9283    1747.4516    4.3567902    4.3567902    4.3567902    1747.4516    6533.1344    805.12288   -2095.9026   -1270.5487   -289.19989   -23.938314    82.698942 
    1600    74.170591   -110.99548   0.06711111   -110.92837   -926.97043    4.3554443    4.3554443    4.3554443   -926.97043    816.45913   -1027.8482   -2569.5222    727.52591    855.99294    163.91176    82.622319 
    1700    98.854706   -111.01756  0.089445815   -110.92811   -699.73735    4.3561212    4.3561212    4.3561212   -699.73735   -4576.5796    3383.4243   -906.05677   -493.60582     259.6355   -133.41007    82.660851 
    1800    112.63127   -111.03015   0.10191114   -110.92824    955.71214    4.3565868    4.3565868    4.3565868    955.71214    9870.7526    -3096.073   -3907.5432   -816.30267   -462.45998   -55.024962     82.68736 
    1900    111.13274   -111.02913   0.10055524   -110.92857    1831.3173    4.3550133    4.3550133    4.3550133    1831.3173    4213.8745    2956.5584   -1676.4809     316.2629    553.89176   -15.424374    82.597795 
    2000    109.71408   -111.02754  0.099271603   -110.92827    1009.8346    4.3567011    4.3567011    4.3567011    1009.8346     9531.826   -2694.3486   -3807.9734   -252.07794     605.2552    5.3046596    82.693868 
    2100    120.99058    -111.0375   0.10947482   -110.92802   -2305.2808     4.356851     4.356851     4.356851   -2305.2808   -3994.0756   -256.79505   -2664.9717     990.1266    158.86346   -53.986281      82.7024 
    2200    57.764412   -110.98068  0.052266454   -110.92841   -340.00245    4.3555751    4.3555751    4.3555751   -340.00245    -340.4003     1162.765    -1842.372   -1463.7895    754.07639    389.57521    82.629766 
    2300    87.250894   -111.00706  0.078946442   -110.92811   -507.44214    4.3576505    4.3576505    4.3576505   -507.44214    5509.7233   -2897.9173   -4134.1324    885.32227    205.30659    18.561407    82.747942 
    2400    90.690887   -111.01029  0.082059021   -110.92824    1452.1553    4.3559875    4.3559875    4.3559875    1452.1553    5629.0138    568.98433   -1841.5321    -2288.629    66.934367    144.92635    82.653239 
    2500    125.37295   -111.04169   0.11344008   -110.92825   -1929.0524    4.3566552    4.3566552    4.3566552   -1929.0524    2916.3893   -3786.8454   -4916.7012     781.8854    273.88281    301.98802    82.691252 
    2600     133.6662   -111.04915   0.12094398    -110.9282   -1959.9469    4.3581673    4.3581673    4.3581673   -1959.9469    361.65001   -2305.6557    -3935.835   -905.24452   -134.78809   -298.15928    82.777381 
    2700    100.49054    -111.0193  0.090925955   -110.92838   -109.30224    4.3556579    4.3556579    4.3556579   -109.30224     5147.261   -2200.2145   -3274.9532     547.5512    727.99299    148.20691    82.634479 
    2800    56.052054   -110.97929  0.050717077   -110.92858    357.65633    4.3570194    4.3570194    4.3570194    357.65633    5354.9386   -1228.7015   -3053.2681   -1259.4124    922.04321   -289.23362    82.711991 
    2900    102.98272   -111.02145  0.093180934   -110.92827   -1614.0037    4.3573461    4.3573461    4.3573461   -1614.0037    1447.1658    -2525.681   -3763.4957    98.279898   -179.94065    23.476853    82.730598 
    3000    89.599472   -111.00967  0.081071485    -110.9286   -583.93277    4.3554898    4.3554898    4.3554898   -583.93277    99.647802   -386.41726   -1465.0289    63.711732    470.10347   -157.67913     82.62491 
    3100    110.90036   -111.02893   0.10034498   -110.92859   -2043.3602    4.3578394    4.3578394    4.3578394   -2043.3602    2209.8266    -2932.348   -5407.5591   -1079.9879    763.06606    142.72866    82.758698 
    3200    125.21429   -111.04155   0.11329652   -110.92825    1396.6077     4.355866     4.355866     4.355866    1396.6077    8517.7538   -1533.2422   -2794.6884   -10.617629   -787.55364     142.8423     82.64632 
    3300    102.32631   -111.02092  0.092586999   -110.92834    1698.3844    4.3554602    4.3554602    4.3554602    1698.3844    5714.6637    893.77439   -1513.2849   -1414.9812    472.77844   -49.980976    82.623227 
    3400    109.88138   -111.02751  0.099422978   -110.92809    -2615.195    4.3578939    4.3578939    4.3578939    -2615.195   -169.03313   -2327.0969   -5349.4549    901.30653    1111.8297    245.09852    82.761805 
    3500    57.158868      -110.98  0.051718545   -110.92828    1855.3385    4.3550125    4.3550125    4.3550125    1855.3385    2715.2502    2176.1941    674.57122   -1281.0317   -267.13017   -384.00431    82.597752 
    3600    101.94206   -111.02045  0.092239321   -110.92821   -2054.2312    4.3564381    4.3564381    4.3564381   -2054.2312   -920.80712    -989.0018   -4252.8848     1178.949    746.89551    193.27641    82.678889 
    3700     71.33235    -110.9931  0.064543009   -110.92856    2113.1455    4.3568092    4.3568092    4.3568092    2113.1455    8612.4151    133.18797   -2406.1666   -1745.3904    1003.0847   -324.14282    82.700022 
    3800    167.01158   -111.07909   0.15111559   -110.92797   -10.851468     4.355077     4.355077     4.355077   -10.851468     1136.108    1198.5044   -2367.1668    235.49488   -553.32119    115.58066    82.601418 
    3900    95.288262   -111.01464  0.086218822   -110.92842    1200.8342    4.3569411    4.3569411    4.3569411    1200.8342    8094.4703   -1170.3332   -3321.6345   -119.56325     -80.5176    47.104563    82.707534 
    4000    96.733368   -111.01583  0.087526384    -110.9283   -953.52794    4.3565951    4.3565951    4.3565951   -953.52794    584.79855    50.552853   -3495.9352    736.13691    784.39115    230.76554    82.687828 
    4100    88.499723   -111.00826  0.080076409   -110.92818    284.66073    4.3552284    4.3552284    4.3552284    284.66073    2382.3894   -280.80211   -1247.6051   -898.20898   -78.534774    151.95762    82.610033 
    4200    68.343425   -110.99024  0.061838567    -110.9284    -181.0529    4.3578652    4.3578652    4.3578652    -181.0529    2335.4041    648.01474   -3526.5775   -637.33202    407.47557    217.60636    82.760171 
    4300     116.1818   -111.03341   0.10512373   -110.92829   -570.44026    4.3558295    4.3558295    4.3558295   -570.44026    2658.5228   -994.75825   -3375.0854    650.33658    841.26168    413.79633    82.644245 
    4400    97.771974   -111.01682  0.088466137   -110.92835    2202.0879    4.3557576    4.3557576    4.3557576    2202.0879    7298.8952    859.32275   -1551.9543   -933.94856    108.64243   -380.85996    82.640155 
    4500    130.01157   -111.04598    0.1176372   -110.92834   -2625.0919    4.3579497    4.3579497    4.3579497   -2625.0919    2551.9161   -4157.1797   -6270.0121    599.74769    171.94374    589.06485    82.764985 
    4600    107.12538    -111.0253  0.096929297   -110.92837   -135.64471    4.3552141    4.3552141    4.3552141   -135.64471    1401.3209   -78.079387   -1730.1757     -785.731    291.82417   -479.06547    82.609222 
    4700    95.065639   -111.01427  0.086017388   -110.92826   -242.19573    4.3571056    4.3571056    4.3571056   -242.19573    2985.5985   -516.94986   -3195.2358    1756.6787   -93.492283    266.79757    82.716902 
    4800     70.13165   -110.99192  0.063456591   -110.92846   -1101.9582    4.3569331    4.3569331    4.3569331   -1101.9582    3059.8105   -2114.7152   -4250.9697   -603.41371    724.34183   -40.307611    82.707075 
    4900    65.934767   -110.98819  0.059659163   -110.92853    707.02422    4.3551336    4.3551336    4.3551336    707.02422    1698.5244    1756.5142   -1333.9659    1827.4522    537.56044    26.023074    82.604641 
    5000    141.17832   -111.05565   0.12774111   -110.92791   -2914.9699    4.3579437    4.3579437    4.3579437   -2914.9699    1136.0226   -4788.3269   -5092.6054   -997.88432    408.36338    230.04427    82.764644 
    5100    114.61904   -111.03196   0.10370972   -110.92825    22.817641    4.3560582    4.3560582    4.3560582    22.817641    3241.9837    210.92397   -3384.4548    -403.8875    1249.8859   -80.938279    82.657265 
    5200    115.77097   -111.03294     0.104752   -110.92819    1129.4776     4.355766     4.355766     4.355766    1129.4776    6869.0881   -720.31348   -2760.3417    31.617405   -293.00878    500.16556     82.64063 
    5300    92.836597   -111.01206  0.084000504   -110.92806    106.69371    4.3574174    4.3574174    4.3574174    106.69371    5255.8639   -772.06735   -4163.7154    1177.5147   -157.40029   -444.46429    82.734658 
    5400    54.999812   -110.97821  0.049764986   -110.92844    78.801597    4.3555069    4.3555069    4.3555069    78.801597    520.76134     1284.073   -1568.4295    831.61051    966.31471    453.63069    82.625884 
    5500    121.05415   -111.03754   0.10953234   -110.92801   -3114.6468    4.3569651    4.3569651    4.3569651   -3114.6468   -4389.1722   -1474.8629   -3479.9054   -295.39708    -48.49729   -561.31326    82.708902 
    5600    77.569502   -110.99857  0.070186515   -110.92838    2605.3664    4.3568326    4.3568326    4.3568326    2605.3664     9895.856    327.62215   -2407.3789    1684.1329    16.944431    268.92172    82.701352 
    5700    135.51804   -111.05103   0.12261957   -110.92841    297.00244    4.3554358    4.3554358    4.3554358    297.00244    4526.2396   -190.17128    -3445.061   -483.17654    1308.5172   -121.43348    82.621838 
    5800    96.806825   -111.01608   0.08759285   -110.92849    1961.0179    4.3568669    4.3568669    4.3568669    1961.0179    8655.1387    95.884366   -2867.9693    624.95725    110.52506    247.71615     82.70331 
    5900    128.44805   -111.04447    0.1162225   -110.92825    -2091.545    4.3567918    4.3567918    4.3567918    -2091.545   -1784.4256   -935.06117   -3555.1483   -964.90903    -533.4803    268.15152     82.69903 
    6000    77.486403   -110.99859  0.070111326   -110.92848    -607.6452      4.35575      4.35575      4.35575    -607.6452    -235.2794    220.23782    -1807.894    825.62597    839.81332    121.35501    82.639718 
    6100    60.802698   -110.98342  0.055015559    -110.9284    1268.1661    4.3573159    4.3573159    4.3573159    1268.1661    8122.8986   -880.81935   -3437.5811   -351.27498   -49.766621    470.33987    82.728879 
    6200    111.77494   -111.02935   0.10113631   -110.92822   -342.35948    4.3561205    4.3561205    4.3561205   -342.35948    2365.1427   -628.53767   -2763.6835    1988.5506   -471.87691   -195.15902    82.660809 
    6300    90.433373   -111.01034  0.081826017   -110.92851    235.47237    4.3561323    4.3561323    4.3561323    235.47237    2704.2224    822.50354   -2820.3088    757.34207    1139.4612    723.86288    82.661479 
    6400    156.04499   -111.06929   0.14119278   -110.92809   -3279.3807    4.3579608    4.3579608    4.3579608   -3279.3807    176.31511   -4239.5704   -5774.8869   -497.65679    688.98891   -602.69579    82.765615 
    6500    90.452248   -111.01035  0.081843095    -110.9285    1475.7031    4.3554907    4.3554907    4.3554907    1475.7031    5596.8162     382.6058   -1552.3126    52.671053   -248.90347    570.38725    82.624965 
    6600    89.953802    -111.0097  0.081392091   -110.92831   -1215.7929    4.3568906    4.3568906    4.3568906   -1215.7929    4041.1339   -2832.1804   -4856.3323    374.70732    797.39158   -111.30416    82.704658 
    6700    76.890036   -110.99778   0.06957172   -110.92821   -381.45568    4.3572133    4.3572133    4.3572133   -381.45568    905.92583    558.84146   -2609.1343     1427.743   -49.704994    182.85969    82.723036 
    6800     90.21704   -111.00979  0.081630273   -110.92816   -1051.3611    4.3554512    4.3554512    4.3554512   -1051.3611   -1551.0146    582.54563   -2185.6145   -1223.7902    53.700271     336.7662    82.622717 
    6900    104.13029   -111.02245  0.094219275   -110.92824   -1874.6726    4.3576441    4.3576441    4.3576441   -1874.6726    2097.8623    -2622.538   -5099.3423    1289.5617    605.29106    16.185857    82.747574 
    7000    118.68513   -111.03548    0.1073888   -110.92809    1390.7586    4.3562932    4.3562932    4.3562932    1390.7586     7741.633   -752.42455   -2816.9325    -517.9539    166.38512    377.47407    82.670641 
    7100    130.75656   -111.04646   0.11831129   -110.92815    546.54429    4.3554448    4.3554448    4.3554448    546.54429    5625.8021   -887.69569   -3098.4736    1058.3951    704.72222    -223.1917    82.622348 
    7200    87.803093   -111.00783  0.079446084   -110.92838   -534.51061    4.3578296    4.3578296    4.3578296   -534.51061    1252.2619     1326.194   -4181.9877   -145.32376    314.24829    442.17124    82.758142 
    7300    78.283325   -110.99927  0.070832397   -110.92844    257.90066    4.3553303    4.3553303    4.3553303    257.90066    1745.0075    604.11864   -1575.4242    437.65621    -290.0928   -343.83381    82.615834 
    7400    82.792332   -111.00343  0.074912242   -110.92852   -859.96483    4.3564023    4.3564023    4.3564023   -859.96483   -1488.5652    1444.1904   -2535.5196   -627.25531    393.95607    399.70365    82.676853 
    7500    87.060039   -111.00736  0.078773753   -110.92859    598.46558     4.357213     4.357213     4.357213    598.46558    8628.6519   -2841.5963   -3991.6588    835.09007    378.80872   -313.49743    82.723018 
    7600    143.84904   -111.05841   0.13015764   -110.92825    899.42378    4.3550002    4.3550002    4.3550002    899.42378    766.19401    3420.3604   -1488.2831    643.99763   -697.04552    293.81995    82.597051 
    7700    109.38029   -111.02739  0.098969584   -110.92842    274.98412    4.3572751    4.3572751    4.3572751    274.98412    6458.2499   -1330.1026   -4303.1949   -1443.8706    1019.1897     85.24243    82.726556 
    7800    91.858879   -111.01147  0.083115844   -110.92836   -419.82405    4.3564857    4.3564857    4.3564857   -419.82405    980.89447    1303.2169   -3543.5836   -389.36867    833.92869    243.48527    82.681604 
    7900    96.062568   -111.01506   0.08691943   -110.92814   -242.62329    4.3555135    4.3555135    4.3555135   -242.62329    147.47991   -47.883103   -827.46668   -245.75169   -508.58738    322.73625    82.626258 
    8000    76.410929   -110.99737  0.069138214   -110.92824   -654.43058    4.3575988    4.3575988    4.3575988   -654.43058    4042.8408   -1929.1242   -4077.0083    1585.8553      448.962    53.567318    82.744995 
    8100    95.584146   -111.01469  0.086486544   -110.92821    36.326627    4.3559411    4.3559411    4.3559411    36.326627    234.58657    1631.8537   -1757.4604   -1050.3724    490.98471    434.42125      82.6506 
    8200    104.14607   -111.02236  0.094233557   -110.92813    1254.4091    4.3558674    4.3558674    4.3558674    1254.4091    7264.6204   -559.26544   -2942.1276    1160.7465   -889.14803   -236.93601    82.646399 
    8300    121.24697   -111.03786   0.10970681   -110.92815    -1312.395     4.357405     4.357405     4.357405    -1312.395    1091.9078   -1040.7889   -3988.3038   -1278.7955    387.48367    594.40821    82.733955 
    8400     117.1063   -111.03417   0.10596024    -110.9282   -175.19897    4.3555857    4.3555857    4.3555857   -175.19897    4677.9311   -2484.5587   -2718.9692    606.46072    1161.9971   -372.20016    82.630368 
    8500    101.60577    -111.0202  0.091935037   -110.92826    134.61708    4.3566769    4.3566769    4.3566769    134.61708    2895.1945   -321.14857   -2170.1947   -712.51802   -414.61804     425.2086     82.69249 
    8600     66.99264   -110.98904  0.060616348   -110.92843   -160.18731    4.3569871    4.3569871    4.3569871   -160.18731    5139.5793   -2059.1687   -3560.9726   -334.49647    613.93688    139.05299    82.710152 
    8700    68.684406   -110.99057  0.062147094   -110.92842    531.25758    4.3551762    4.3551762    4.3551762    531.25758    390.87835    3050.4143   -1847.5199   -1015.2558    660.97821    221.59487    82.607067 
    8800    119.82763   -111.03649   0.10842255   -110.92807    -1629.043    4.3574929    4.3574929    4.3574929    -1629.043    2252.6449   -3729.3432   -3410.4307    8.6284874   -410.91218    357.94294    82.738961 
    8900    132.70962   -111.04828   0.12007845    -110.9282   -766.39702    4.3565837    4.3565837    4.3565837   -766.39702    4239.2336   -1754.9644   -4783.4603    1382.0065   -103.09218     132.7804     82.68718 
    9000    101.92389    -111.0207  0.092222873   -110.92848    2457.1015    4.3553095    4.3553095    4.3553095    2457.1015    9148.4978   -679.34187   -1097.8515   -1137.6361    381.21779    69.421018    82.614651 
    9100    123.30916   -111.03974   0.11157272   -110.92817    -1805.266     4.357801     4.357801     4.357801    -1805.266    2904.8425   -2423.3155    -5897.325   -248.22488    1.9003537   -252.78153     82.75651 
    9200    33.093555   -110.95879  0.029943744   -110.92885    1598.7678    4.3553608    4.3553608    4.3553608    1598.7678    1905.7697    3300.3864   -409.85259   -1589.8271    966.13183    389.40693    82.617569 
    9300    126.40882   -111.04252   0.11437735   -110.92814   -4135.1146    4.3570863    4.3570863    4.3570863   -4135.1146   -5249.4695   -2630.8346   -4525.0398    734.16556    311.17269   -277.58598    82.715803 
    9400    67.599911   -110.98966   0.06116582    -110.9285    2284.9456     4.357099     4.357099     4.357099    2284.9456    10253.365   -1083.4381   -2315.0905   -1145.3903       34.661     354.2844    82.716527 
    9500    138.14238   -111.05327   0.12499413   -110.92828   -549.66857    4.3553877    4.3553877    4.3553877   -549.66857    3281.2926   -1692.2099   -3238.0884     351.1388    596.83421   -168.59705    82.619099 
    9600    108.48483   -111.02648  0.098159356   -110.92832    615.98096    4.3572878    4.3572878    4.3572878    615.98096    6175.9057   -366.43238   -3961.5304   -1224.8799   -477.75479    245.57235    82.727279 
    9700     107.0862   -111.02507  0.096893844   -110.92817   -493.95592    4.3565204    4.3565204    4.3565204   -493.95592    664.18323    352.97162   -2499.0226   -31.276134    214.46396     76.47143    82.683578 
    9800    95.356157   -111.01443  0.086280255   -110.92815   -1253.1782    4.3556989    4.3556989    4.3556989   -1253.1782   -842.19301    2.0078978   -2919.3496    476.77112    801.73662    209.95111    82.636809 
    9900    50.310517   -110.97374  0.045522013   -110.92822    1740.8516    4.3575264    4.3575264    4.3575264    1740.8516    8847.8384   -2024.3984   -1600.8854   -228.97263   -162.90932    150.32756    82.740869 
   10000    133.14604   -111.04848   0.12047333     -110.928     -1925.12    4.3560708    4.3560708    4.3560708     -1925.12    62.860192   -2095.5332   -3742.6871   -570.05771   -11.849888   -133.46951    82.657981 
   10100    68.203521   -110.99032  0.061711979   -110.92861    2276.6581    4.3559379    4.3559379    4.3559379    2276.6581    5628.0136    1909.3314   -707.37067   -1124.0692    1138.5779    212.81203    82.650412 
   10200    157.69364   -111.07094   0.14268452   -110.92825   -2786.0446    4.3576374    4.3576374    4.3576374   -2786.0446   -214.86881   -2258.9689    -5884.296     1195.344   -534.53718   -185.52913    82.747192 
   10300     84.16086    -111.0049  0.076150515   -110.92875    2774.6497     4.355011     4.355011     4.355011    2774.6497    8277.8979    541.87379   -495.82259   -1018.3377   -440.10722    677.33142    82.597667 
   10400    108.14859   -111.02631  0.097855113   -110.92845     -1503.79    4.3572902    4.3572902    4.3572902     -1503.79      2591.97    -3292.232    -3811.108    45.237886    1028.1693   -208.68303    82.727415 
   10500    81.022129   -111.00164  0.073310525   -110.92833   -317.30908    4.3567693    4.3567693    4.3567693   -317.30908    2626.4038   -838.83893   -2739.4921   -1418.7039   -106.85517    221.37826    82.697752 
   10600    77.611309   -110.99847  0.070224343   -110.92825   -93.782648    4.3553775    4.3553775    4.3553775   -93.782648   -1987.1003    2285.1417   -579.38931    736.02505    32.441233    74.491699     82.61852 
   10700    96.942805   -111.01595  0.087715887   -110.92824   -1147.2423    4.3575311    4.3575311    4.3575311   -1147.2423    2833.6241    -558.5576   -5716.7934   -249.79069    1226.0084    200.43123    82.741139 
   10800    122.59612   -111.03908   0.11092755   -110.92816    839.82913    4.3561659    4.3561659    4.3561659    839.82913      5375.85   -1204.4286   -1651.9341    652.62906   -241.14014    254.23559    82.663394 
   10900    131.39374   -111.04716   0.11888782   -110.92827    229.08086    4.3559021    4.3559021    4.3559021    229.08086    6466.3886   -2092.2109    -3686.935   -608.58041    -402.6782    88.227634    82.648378 
   11000    101.82756   -111.02047  0.092135718   -110.92834   -1072.1735    4.3574981    4.3574981    4.3574981   -1072.1735    1233.8028   -866.93287   -3583.3906   -617.02122    795.71244   -34.145662    82.739258 
   11100    64.644911    -110.9869  0.058492074   -110.92841    931.69902    4.3555125    4.3555125    4.3555125    931.69902    2767.7183    1889.8693   -1862.4905    487.50921   -90.871707   -347.38324    82.626204 
   11200    85.552083   -111.00572  0.077409323   -110.92831   -1261.7073     4.356422     4.356422     4.356422   -1261.7073   -2562.9233    1827.1833   -3049.3818   -352.77351    177.16325    354.47517    82.677972 
   11300    82.787914   -111.00338  0.074908245   -110.92847    587.37847    4.3571093    4.3571093    4.3571093    587.37847    8005.7134   -2901.5152   -3342.0627   -83.545394    603.65758   -300.34712    82.717111 
   11400    148.47165   -111.06253   0.13434027   -110.92819   -248.62121     4.355487     4.355487     4.355487   -248.62121    2308.0292   -490.81342   -2563.0794   -913.44401    268.80187    311.20701     82.62475 
   11500    105.46116   -111.02384  0.095423477   -110.92842    527.30416    4.3570304    4.3570304    4.3570304    527.30416    6882.4381   -1805.3785   -3495.1471    1427.4618    93.726782   -253.09644    82.712617 
   11600    97.197274    -111.0163  0.087946136   -110.92835   -314.83186    4.3566319    4.3566319    4.3566319   -314.83186    1819.1007    1539.1137     -4302.71    180.59808     41.88735    151.69459    82.689926 
   11700    99.252675   -111.01799  0.089805906   -110.92818    -485.0381     4.355371     4.355371     4.355371    -485.0381   -2212.6648    1263.9789   -506.42842    223.37867   -600.26765   -88.944727     82.61815 
   11800    61.133567   -110.98366  0.055314936   -110.92835    341.81665    4.3574092    4.3574092    4.3574092    341.81665    7631.6107   -2520.6575   -4085.5032   -1249.7405    349.30615    117.40178    82.734192 
   11900    117.08561   -111.03405   0.10594152   -110.92811   -1577.4709    4.3563292    4.3563292    4.3563292   -1577.4709   -797.44845   -2150.1095   -1784.8547    36.663359    295.17473   -15.874014    82.672694 
   12000      83.3882   -111.00387  0.075451396   -110.92841    1972.6354     4.355711     4.355711     4.355711    1972.6354    8220.7123   -94.239268   -2208.5669   -278.71575    93.894655    -370.7708      82.6375 
   12100    139.19784   -111.05423   0.12594913   -110.92828   -2262.5905     4.357624     4.357624     4.357624   -2262.5905   -1192.0213   -820.94998   -4774.8001    781.22726    866.87358     306.4825    82.746429 
   12200    98.077415   -111.01731  0.088742506   -110.92856    1758.2295     4.355316     4.355316     4.355316    1758.2295    6196.0287    294.82746   -1216.1676   -138.13808    -15.82786   -239.79823    82.615022 
   12300    109.02578   -111.02683  0.098648819   -110.92819    -549.9828    4.3569629    4.3569629    4.3569629    -549.9828    3969.0832   -1849.9392   -3769.0923    -554.4319   -727.18437    650.33871    82.708774 
   12400    70.904355   -110.99236  0.064155751   -110.92821   -339.62739      4.35715      4.35715      4.35715   -339.62739    4597.2818   -3624.5265   -1991.6375    504.67072    640.84764   -177.94785    82.719427 
   12500    82.532151   -111.00281  0.074676825   -110.92813   -271.60758    4.3553259    4.3553259    4.3553259   -271.60758   -1360.7464     2840.745   -2294.8213    157.01898    94.101329    90.726039    82.615583 
   12600    104.17628   -111.02232  0.094260889   -110.92806   -704.99396    4.3574228    4.3574228    4.3574228   -704.99396    2095.0073   -1491.4796   -2718.5096    39.480912   -761.79975    6.6061812    82.734967 
   12700    114.34222    -111.0316   0.10345924   -110.92814    900.48231    4.3564133    4.3564133    4.3564133    900.48231    6327.2054    730.73843   -4356.4969   -1264.9304    1265.3304    51.495469    82.677479 
   12800    124.68632   -111.04098   0.11281881   -110.92816    1212.6228    4.3555149    4.3555149    4.3555149    1212.6228    7775.7754   -2485.8538   -1652.0532    900.54056    402.65457   -94.865487    82.626337 
   12900    111.65812    -111.0292   0.10103061   -110.92817   -1156.8847     4.357881     4.357881     4.357881   -1156.8847    3506.2463   -2240.5077   -4736.3926    108.44704   -556.66294    33.684031     82.76107 
   13000    70.171049     -110.992   0.06349224   -110.92851   -281.23711    4.3555997    4.3555997    4.3555997   -281.23711   -315.58039    1240.1489   -1768.2798    580.18139    431.02146    19.512358    82.631163 
   13100     85.81856   -111.00598  0.077650437   -110.92833    -1189.337    4.3564925    4.3564925    4.3564925    -1189.337   -2205.9756    1601.1015   -2963.1371   -562.20681    140.91846   -492.66678    82.681988 
   13200     74.15024   -110.99557  0.067092696   -110.92848    1273.0883    4.3574078    4.3574078    4.3574078    1273.0883    8770.3027   -596.59212   -4354.4456   -433.44453   -918.64945    468.24961    82.734116 
   13300    135.88287   -111.05132   0.12294968   -110.92837   -453.17251    4.3550627    4.3550627    4.3550627   -453.17251    3282.1256   -2407.3776   -2234.2655   -185.92003    931.51256    -382.8225    82.600607 
   13400    125.33771   -111.04183   0.11340819   -110.92842   -1119.1408    4.3576462    4.3576462    4.3576462   -1119.1408    3059.6894   -1022.3816   -5394.7303    1043.5665    571.15211    112.34298    82.747694 
   13500    102.54489   -111.02114   0.09278477   -110.92836   -733.21624    4.3567586    4.3567586    4.3567586   -733.21624     2375.233     -1523.24   -3051.6417    162.37948   -206.54547   -393.62506    82.697138 
   13600    85.001931   -111.00526  0.076911533   -110.92835   -127.20514     4.355237     4.355237     4.355237   -127.20514   -1219.3473    4055.3994   -3217.6675   -933.97446    538.24966   -11.367413    82.610527 
   13700    58.008887   -110.98071   0.05248766   -110.92823    802.80881    4.3579634    4.3579634    4.3579634    802.80881    7648.3273   -2430.5362   -2809.3647    167.22724   -81.166498    -104.4817    82.765766 
   13800    121.42791   -111.03788   0.10987052   -110.92801   -1856.3701    4.3558073    4.3558073    4.3558073   -1856.3701   -994.80713   -1194.2344   -3380.0688    454.01904     35.90037   -98.894047    82.642984 
   13900    90.438694   -111.01024  0.081830831   -110.92841     780.0504    4.3560998    4.3560998    4.3560998     780.0504    5756.2685    -1535.779   -1880.3383    68.064798   -25.880905    134.34559    82.659629 
   14000    133.73643   -111.04921   0.12100753    -110.9282   -1206.3086    4.3576984    4.3576984    4.3576984   -1206.3086     1799.468   -298.07873    -5120.315   -822.99126    172.07756   -436.98751    82.750666 
   14100    95.280154   -111.01462  0.086211486   -110.92841    2680.2976    4.3546032    4.3546032    4.3546032    2680.2976    7548.0231    1973.4239   -1480.5543    912.30199    179.72515    247.10839    82.574463 
   14200     104.7397   -111.02292  0.094770679   -110.92815   -344.91107    4.3572731    4.3572731    4.3572731   -344.91107    2760.1089   -827.85856   -2966.9835    135.76168    721.68855   -280.49892     82.72644 
   14300    88.282627    -111.0079  0.079879976   -110.92802   -689.12339    4.3568321    4.3568321    4.3568321   -689.12339    3503.0995   -2256.7014   -3313.7682    756.75091   -524.03189    408.28208    82.701328 
   14400     75.54012   -110.99653  0.068350288   -110.92818    372.24023    4.3551338    4.3551338    4.3551338    372.24023    742.76903    645.35659   -271.40493   -212.75015    263.85196   -154.59311    82.604654 
   14500    99.492775   -111.01822  0.090023154    -110.9282    -802.2524    4.3575957    4.3575957    4.3575957    -802.2524    1192.9433    1253.0318   -4852.7323   -566.71171    276.42799   -47.321552    82.744816 
   14600     112.6678   -111.03026   0.10194419   -110.92831     1586.861    4.3557908    4.3557908    4.3557908     1586.861    6735.3215    436.19338   -2410.9318   -682.41382   -789.19173   -227.60778    82.642044 
   14700    129.83853   -111.04577   0.11748063   -110.92829    767.21314    4.3558522    4.3558522    4.3558522    767.21314    4028.4725    781.84846   -2508.6815     1353.336    602.42022   -70.543526    82.645538 
   14800    109.76506   -111.02765  0.099317737   -110.92833   -1276.4867    4.3575115    4.3575115    4.3575115   -1276.4867    5029.0507   -4069.7855   -4788.7253    876.11681    959.20074   -117.93846    82.740019 
   14900     65.14214   -110.98741  0.058941978   -110.92847    503.27781     4.355583     4.355583     4.355583    503.27781    445.67934    2343.3411    -1279.187   -529.87431   -460.46683   -186.58707    82.630216 
   15000    93.384143   -111.01276  0.084495935   -110.92827   -1960.7392    4.3566399    4.3566399    4.3566399   -1960.7392    -2677.176    588.85986   -3793.9016   -16.385955    123.38645    261.30463    82.690381 
   15100    73.416807     -110.995   0.06642907   -110.92858    1172.8708    4.3568953    4.3568953    4.3568953    1172.8708    6136.6142     819.3345   -3437.3364    724.40657    1243.1763   -643.63406    82.704925 
   15200    130.97531   -111.04689   0.11850921   -110.92838    253.34195    4.3556375    4.3556375    4.3556375    253.34195    4873.5857   -1073.1935   -3040.3663    -127.6447   -1157.3015    411.79513    82.633318 
   15300    123.24312   -111.03985   0.11151296   -110.92834   -723.52472    4.3567946    4.3567946    4.3567946   -723.52472    5706.5879   -3400.6857   -4476.4764   -642.03759    516.33154   -285.38285     82.69919 
   15400    100.91723    -111.0196  0.091312027   -110.92828   -466.51002    4.3570436    4.3570436    4.3570436   -466.51002    2636.5817   -56.440952   -3979.6707    702.94584    685.64122   -143.63817    82.713372 
   15500    109.25329   -111.02686   0.09885467   -110.92801   -992.60165    4.3555089    4.3555089    4.3555089   -992.60165   -1403.5853    1038.2953    -2612.515    213.46246   -123.92688   -287.23562    82.625999 
   15600    42.102504   -110.96642   0.03809523   -110.92833    2147.3838    4.3568981    4.3568981    4.3568981    2147.3838    8699.0418    543.48433   -2800.3749    1156.4576    195.67489    -275.0911    82.705086 
   15700    118.30342   -111.03504   0.10704342     -110.928   -1871.9956    4.3568619    4.3568619    4.3568619   -1871.9956    1487.1141   -2793.2556   -4309.8453     499.9209    701.03701   -121.60655    82.703024 
   15800    82.645183   -111.00313  0.074779099   -110.92835    1419.8161    4.3553656    4.3553656    4.3553656    1419.8161    6682.8091    -1363.692   -1059.6688   -95.534864   -554.57339   -169.99127    82.617844 
   15900    153.10023   -111.06658   0.13852831   -110.92805   -3298.6304    4.3582756    4.3582756    4.3582756   -3298.6304   -800.12703   -2436.1334   -6659.6307   -1067.8541   -544.06345    336.04428    82.783552 
   16000    94.088409   -111.01357  0.085133169   -110.92844     2409.564    4.3552585    4.3552585    4.3552585     2409.564    6831.5399    1490.9534   -1093.8014    947.05821    233.11169   -285.06033    82.611747 
   16100    93.112733   -111.01247  0.084250358   -110.92822    831.37183    4.3562916    4.3562916    4.3562916    831.37183    5576.3178    392.28782   -3474.4902    1196.7919   -480.91013    77.555108    82.670551 
   16200    90.830637    -111.0103   0.08218547   -110.92811   -1684.5769    4.3580915    4.3580915    4.3580915   -1684.5769    2407.1449    -3418.686   -4042.1895   -273.97135    941.36779   -343.07197    82.773063 
   16300    69.934262   -110.99154   0.06327799   -110.92826   -22.814058    4.3547254    4.3547254    4.3547254   -22.814058   -1083.2704    1129.7441   -114.91588    117.23281   -286.07762    106.21611    82.581413 
   16400    125.41616   -111.04177   0.11347918   -110.92829   -3031.4872    4.3579904    4.3579904    4.3579904   -3031.4872   -1055.9084   -2587.8338   -5450.7195    484.83226    -5.317827    -52.73396    82.767302 
   16500     84.09915   -111.00483  0.076094679   -110.92873    3105.4764    4.3562265    4.3562265    4.3562265    3105.4764    9394.5331    1742.3384   -1820.4424    962.53591    139.03152   -253.24381    82.666843 
   16600      134.001    -111.0497   0.12124692   -110.92845    781.94608    4.3552461    4.3552461    4.3552461    781.94608    5618.3472   -181.31388   -3091.1951   -527.57146    -393.8442   -24.647916    82.611042 
   16700     107.6306   -111.02579  0.097386427    -110.9284   -1110.9678    4.3583646    4.3583646    4.3583646   -1110.9678    2979.9364   -2432.4894   -3880.3503    445.78024   -578.77264   -201.24019    82.788629 
   16800    88.425907   -111.00838  0.080009619   -110.92837   -904.81848    4.3553159    4.3553159    4.3553159   -904.81848    -976.9107    -72.02025   -1665.5245   -727.91226    812.23903     160.1794    82.615017 
   16900    78.342214   -110.99922  0.070885682   -110.92833   -506.42219    4.3565267    4.3565267    4.3565267   -506.42219    1683.8014   -302.35129   -2900.7166    512.23739   -375.83009   -260.55813    82.683936 
   17000    71.228123   -110.99276  0.064448703   -110.92831    1579.8152    4.3574376    4.3574376    4.3574376    1579.8152    7143.3145    1126.6488   -3530.5176    526.75139   -135.82738    317.34254    82.735814 
   17100    130.10608   -111.04584   0.11772272   -110.92811     616.1013    4.3548726    4.3548726    4.3548726     616.1013    4796.2807   -613.37856   -2334.5982      179.143    1281.6614   -459.08588     82.58979 
   17200    123.80271   -111.04014   0.11201929   -110.92812   -727.44933    4.3575613    4.3575613    4.3575613   -727.44933    3139.0058    -1551.365   -3769.9887   -928.71713    -829.7647   -40.913492    82.742857 
   17300    112.02926    -111.0296   0.10136643   -110.92824   -994.17422    4.3566621    4.3566621    4.3566621   -994.17422    4299.2981   -3018.7136   -4263.1071    175.64752   -836.69269    136.77803    82.691645 
   17400    88.429621    -111.0083  0.080012979   -110.92828    415.47126    4.3553368    4.3553368    4.3553368    415.47126    906.32494     2059.264   -1719.1752    1167.2696     239.2246   -344.11184    82.616206 
   17500    59.589947    -110.9822  0.053918236   -110.92828    645.45733     4.357568     4.357568     4.357568    645.45733    6109.5625    1.8061166   -4174.9966   -92.133971   -26.063878    3.5923657    82.743238 
   17600    112.23249   -111.02959   0.10155032   -110.92804    -1641.393    4.3560229    4.3560229    4.3560229    -1641.393   -1709.5293   -527.47364   -2687.1761   -29.975153   -927.92567   -435.24612    82.655256 
   17700    85.146819   -111.00551  0.077042631   -110.92847    817.25455    4.3559408    4.3559408    4.3559408    817.25455    5853.7614   -1121.2881   -2280.7097   -683.66897     1123.435     108.0711    82.650578 
   17800    138.32521   -111.05346   0.12515955    -110.9283   -2623.7815    4.3577664    4.3577664    4.3577664   -2623.7815    1114.2534   -3537.9001   -5447.6979    562.38046   -516.67331   -197.50206    82.754543 
   17900    100.26913    -111.0192  0.090725614   -110.92848    1982.0939    4.3551481    4.3551481    4.3551481    1982.0939    5855.4254    1847.6231   -1756.7668   -894.38407   -698.89822    462.69293    82.605468 
   18000    108.42629   -111.02642  0.098106384   -110.92831   -44.241153     4.356676     4.356676     4.356676   -44.241153    2994.2113    590.92238   -3717.8572    357.18702    441.00637   -200.59215    82.692438 
   18100     82.09918    -111.0026  0.074285064   -110.92831   -908.17045    4.3571793    4.3571793    4.3571793   -908.17045    1188.6919   -1170.9406   -2742.2626   -849.30514   -592.92632   -152.02101    82.721098 
   18200    67.582489   -110.98954  0.061150056   -110.92839    521.89024     4.355172     4.355172     4.355172    521.89024    3080.4319    405.08524   -1919.8465    305.38051    -417.6508   -69.031536    82.606827 
   18300    110.22078   -111.02795  0.099730079   -110.92822   -1413.0357    4.3571949    4.3571949    4.3571949   -1413.0357    218.94624   -2184.5817   -2273.4716    462.92093    146.10594   -307.70736     82.72199 
   18400    109.04251   -111.02699  0.098663955   -110.92833    1433.9999    4.3563193    4.3563193    4.3563193    1433.9999    7328.6957    748.89602   -3775.5921    438.97927    234.18559    261.00255    82.672128 
   18500    130.87556   -111.04673   0.11841896   -110.92831    1617.4397    4.3552583    4.3552583    4.3552583    1617.4397    4952.6879    1011.9431   -1112.3117   -1200.2545   -10.613192   -458.37027    82.611737 
   18600    97.320975   -111.01648  0.088058064   -110.92842    626.19174    4.3572961    4.3572961    4.3572961    626.19174    7762.0755   -1957.4852   -3926.0151   -1576.9953    62.757123    299.27797    82.727753 
   18700    85.488159   -111.00561  0.077351482   -110.92826   -763.77904    4.3559624    4.3559624    4.3559624   -763.77904     65.96531   -388.10736   -1969.1951    464.85168    -1076.693   -247.54408     82.65181 
   18800    83.065894   -111.00328  0.075159766   -110.92812   -663.57414    4.3560599    4.3560599    4.3560599   -663.57414   -293.66074   -868.39303   -828.66864   -682.31123    361.33723    445.48078    82.657361 
   18900    92.520449   -111.01195  0.083714447   -110.92823   -52.378848    4.3575247    4.3575247    4.3575247   -52.378848    5390.5501    -938.6075   -4609.0792    268.12824    7.7061276   -133.58312     82.74077 
   19000    99.093733   -111.01804  0.089662092   -110.92838    1993.2146    4.3551584    4.3551584    4.3551584    1993.2146    6083.9337    608.19083   -712.48084   -705.36106   -158.56091    145.70275    82.606052 
   19100    128.29507   -111.04418   0.11608408    -110.9281   -641.28317    4.3568612    4.3568612    4.3568612   -641.28317    5726.3696   -2497.6829   -5152.5362    809.36956    622.00759   -270.89657    82.702981 
   19200     113.4446   -111.03076   0.10264705   -110.92811   -1440.8326    4.3573567    4.3573567    4.3573567   -1440.8326    1768.5538   -3190.9526   -2900.0989    -725.2134    41.697087    -492.3172    82.731202 
   19300    110.93985   -111.02847    0.1003807   -110.92809   -1839.8207    4.3555778    4.3555778    4.3555778   -1839.8207   -2883.1394    418.48338   -3054.8059    160.38554   -1029.7862    570.51065    82.629916 
   19400    47.910156   -110.97192  0.043350116   -110.92857    1846.3068    4.3570842    4.3570842    4.3570842    1846.3068    10286.792   -2258.2521   -2489.6189   -1268.8468    500.92391   -522.14567    82.715684 
   19500    99.216194   -111.01817  0.089772898   -110.92839   -923.60284    4.3564733    4.3564733    4.3564733   -923.60284    40.783816    912.13908   -3723.7314   -1042.4525    139.11335    397.51305    82.680894 
   19600    85.271927   -111.00566  0.077155832    -110.9285    295.35891    4.3558403    4.3558403    4.3558403    295.35891    5131.5216   -2115.0031   -2130.4418    46.062826   -1331.4715     -412.727    82.644858 
   19700     148.4387   -111.06243   0.13431046   -110.92811    -2866.382    4.3578995    4.3578995    4.3578995    -2866.382   -904.86384   -2859.0034   -4835.2786    541.10619     1159.128    218.51064    82.762124 
   19800    114.41179   -111.03185   0.10352219   -110.92833    1070.2763    4.3556219    4.3556219    4.3556219    1070.2763    6809.8019   -759.71754   -2839.2555    476.91276    678.47786   -247.41222     82.63243 
   19900    77.850836   -110.99883  0.070441072   -110.92839     1836.574    4.3562797    4.3562797    4.3562797     1836.574    7962.4667   -385.07328   -2067.6715   -1752.6407   -655.82334    150.57823     82.66987 
   20000    98.986726   -111.01766   0.08956527    -110.9281   -1471.8728    4.3575057    4.3575057    4.3575057   -1471.8728    1017.2741   -525.43972   -4907.4527    1007.8246   -62.140127    53.989444    82.739689 
   20100    68.614069   -110.99032  0.062083451   -110.92823   -143.69096    4.3555948    4.3555948    4.3555948   -143.69096    -784.8975    55.146035     298.6786   -751.18557    58.302898   -552.58681    82.630889 
   20200    113.60955     -111.031   0.10279631    -110.9282    -2583.999    4.3573928    4.3573928    4.3573928    -2583.999   -589.65138   -1873.6383   -5288.7075     895.7888   -1340.3961    339.55588     82.73326 
   20300    97.981572   -111.01699  0.088655786   -110.92833    2123.9442     4.356631     4.356631     4.356631    2123.9442    10314.103   -2080.3033   -1861.9666   -1205.4071    559.50374   -429.75049    82.689873 
   20400    124.70753   -111.04103     0.112838   -110.92819    1168.9599    4.3555814    4.3555814    4.3555814    1168.9599    4252.5377    1951.5515   -2697.2095    769.48676    570.80257    485.87061    82.630125 
   20500    115.37508   -111.03262    0.1043938   -110.92823   -1331.5481    4.3576722    4.3576722    4.3576722   -1331.5481    3165.6948   -2697.2771   -4463.0622    -801.6517   -395.34559   -281.75511    82.749177 
   20600    84.605051   -111.00488  0.076552428   -110.92833   -320.39697    4.3560047    4.3560047    4.3560047   -320.39697   -1596.3763    1334.2682   -699.08277    634.55339    134.07357    304.60822    82.654215 
   20700    84.699052     -111.005  0.076637482   -110.92836   -1286.8985    4.3562225    4.3562225    4.3562225   -1286.8985     1583.655   -1920.0263   -3524.3241    346.28602    24.337411   -104.70948    82.666615 
   20800    64.561032    -110.9869  0.058416178   -110.92848    1201.1688    4.3574642    4.3574642    4.3574642    1201.1688    6675.1158   -1135.3655   -1936.2439   -754.34998   -268.34746    363.66189    82.737327 
   20900    131.07654   -111.04673   0.11860081   -110.92812    324.37244    4.3552549    4.3552549    4.3552549    324.37244    2866.2185    918.59046   -2811.6916    748.14339   -311.27792    112.98994    82.611545 
   21000    124.22156   -111.04062   0.11239828   -110.92822   -683.84324    4.3569622    4.3569622    4.3569622   -683.84324    2269.8813   -1462.1443   -2859.2667    449.67217   -342.25896   -222.67704    82.708736 
   21100    97.476402   -111.01657  0.088198697   -110.92837    86.625679     4.356921     4.356921     4.356921    86.625679    5877.3221    -1224.355     -4393.09    1502.7961    71.547846    215.42976    82.706386 
   21200    118.20906   -111.03519   0.10695804   -110.92823   -830.83173    4.3553566    4.3553566    4.3553566   -830.83173    537.16367   -1406.7987   -1622.8601     -1986.89    930.23543    -713.8062    82.617333 
   21300    44.225927   -110.96857  0.040016548   -110.92855    1678.7749    4.3573758    4.3573758    4.3573758    1678.7749    7344.4284     400.3272   -2708.4309     1136.102   -563.86686    817.19849    82.732293 
   21400    123.78063   -111.04008   0.11199932   -110.92808   -2707.7333    4.3562256    4.3562256    4.3562256   -2707.7333   -2783.3745   -1969.8916   -3369.9338    -940.8511   -104.29242   -447.68208    82.666793 
   21500    65.202212   -110.98751  0.058996332   -110.92851    2655.3547    4.3555103    4.3555103    4.3555103    2655.3547    6490.7129     2091.662   -616.31058    1419.3398   -66.704093     396.3317    82.626077 
   21600    140.85695   -111.05564   0.12745032   -110.92819   -2652.9163    4.3578878    4.3578878    4.3578878   -2652.9163     3075.973   -4506.3415   -6528.3804   -148.97037   -1071.5416   -27.272841    82.761461 
   21700    106.16459   -111.02433  0.096059954   -110.92827    1660.1506    4.3551472    4.3551472    4.3551472    1660.1506     5625.363   -54.223139   -590.68813    1520.8689   -168.54464    40.543711    82.605412 
   21800    116.83995   -111.03378   0.10571924   -110.92806   -216.16278    4.3568401    4.3568401    4.3568401   -216.16278     3826.484   -445.26821   -4029.7041    240.43594    1014.7718     52.22413    82.701783 
   21900    83.771011   -111.00403  0.075797771   -110.92823   -1198.0819    4.3570466    4.3570466    4.3570466   -1198.0819    1734.1481    -3004.658   -2323.7357    270.37683   -1199.8562   -217.81797    82.713539 
   22000    44.897734    -110.9691  0.040624413   -110.92847    1756.6661    4.3549926    4.3549926    4.3549926    1756.6661    3263.8455    3576.1616   -1570.0088    1347.1834   -413.57719    245.22472    82.596617 
   22100    131.14605   -111.04678    0.1186637   -110.92812   -2930.1194    4.3575384    4.3575384    4.3575384   -2930.1194   -676.35013   -4824.4681   -3289.5399    -1325.594    957.08969   -658.54252    82.741555 
   22200     90.72023   -111.01054   0.08208557   -110.92846    1803.5285    4.3560115    4.3560115    4.3560115    1803.5285    6380.1788    1174.9466     -2144.54    878.17627   -1323.1889    571.87847    82.654603 
   22300    150.90964   -111.06497   0.13654621   -110.92842   -351.40645    4.3558335    4.3558335    4.3558335   -351.40645    4139.4416   -2241.2363   -2952.4247   -586.04516   -772.95127     -223.194    82.644471 
   22400    85.521918   -111.00603  0.077382028   -110.92865    1770.8382    4.3569091    4.3569091    4.3569091    1770.8382    7810.9586   -667.36657   -1831.0775    2502.2669    400.18476    540.80735     82.70571 
   22500    85.634252   -111.00592  0.077483671   -110.92844   -787.41139    4.3557969    4.3557969    4.3557969   -787.41139    514.75819    349.10387   -3226.0962   -919.77027   -367.96245   -73.776826    82.642389 
   22600    89.769015   -111.00932  0.081224892    -110.9281   -1013.0083    4.3564156    4.3564156    4.3564156   -1013.0083   -1592.3125   -1045.4892   -401.22306     1477.478   -192.01721    282.73451     82.67761 
   22700    88.325964   -111.00807  0.079919188   -110.92815    371.13584    4.3571245    4.3571245    4.3571245    371.13584    5614.9743   -520.40936   -3981.1575   -755.18248     746.5388   -79.933918    82.717979 
   22800    102.49618   -111.02114  0.092740696    -110.9284     1072.309    4.3554207    4.3554207    4.3554207     1072.309     6289.022   -1955.4818   -1116.6132    614.27413   -958.81746    176.71897    82.620977 
   22900    113.15562    -111.0307   0.10238558   -110.92831    608.51064    4.3566888    4.3566888    4.3566888    608.51064    4693.9863    995.80181   -3864.2562   -56.412862   -750.62411    286.16665    82.693168 
   23000    130.54171    -111.0463   0.11811688   -110.92818   -1443.8547      4.35699      4.35699      4.35699   -1443.8547    2906.1155   -3975.7022   -3261.9774    156.48627   -116.32793   -296.34979     82.71032 
   23100    99.386003   -111.01824  0.089926544   -110.92832   -759.71541    4.3557592    4.3557592    4.3557592   -759.71541   -2912.0068    2748.2784   -2115.4178    121.68577    -7.444567    604.09158    82.640243 
   23200    67.666477   -110.98956   0.06122605   -110.92834    667.45781    4.3572354    4.3572354    4.3572354    667.45781    9734.2823   -4192.8232   -3539.0857   -854.87379   -18.455691   -586.67555    82.724293 
   23300    83.847392   -111.00412  0.075866882   -110.92825   -115.00358    4.3563073    4.3563073    4.3563073   -115.00358    476.22748    1095.0894   -1916.3276    1725.3521   -142.49148    741.50739    82.671443 
   23400    86.668986   -111.00671   0.07841992   -110.92829   -512.08871    4.3561713    4.3561713    4.3561713   -512.08871    2152.6383   -330.02477   -3358.8797    -1124.676   -359.71975   -48.811291    82.663699 
   23500     144.4106   -111.05874   0.13066575   -110.92808   -2324.3249    4.3577637    4.3577637    4.3577637   -2324.3249   -968.71948   -2114.3852   -3889.8698    1045.7445    162.66398    275.11116    82.754385 
   23600    115.07316   -111.03247   0.10412062   -110.92835    1380.9633    4.3554671    4.3554671    4.3554671    1380.9633    6127.7113    1222.0345    -3206.856   -1415.2538   -520.20689    46.503875    82.623618 
   23700    88.388705   -111.00846  0.079975958   -110.92849    731.02732    4.3567284    4.3567284    4.3567284    731.02732    7673.8173   -2686.7772   -2793.9581    1654.5942   -1149.7428    102.99656     82.69542 
   23800    90.687534   -111.01035  0.082055986   -110.92829   -926.60565    4.3572712    4.3572712    4.3572712   -926.60565      796.903     436.6743   -4013.3942    -1329.426     559.1218   -73.629472    82.726334 
   23900    80.699851   -111.00129  0.073018921   -110.92827   -1066.3398    4.3556526    4.3556526    4.3556526   -1066.3398   -1828.8582    -833.7176   -536.44373    687.49972   -349.70725   -59.354363    82.634174 
   24000    92.345711   -111.01188   0.08355634   -110.92832   -1447.3081    4.3574948    4.3574948    4.3574948   -1447.3081   -919.21776    754.67864   -4177.3851   -1234.8873   -207.73335    336.31731    82.739068 
   24100    112.93143   -111.03046   0.10218273   -110.92827    1545.4751     4.356277     4.356277     4.356277    1545.4751    11020.702   -3213.8395    -3170.437   -177.97787    851.78199   -439.97016     82.66972 
   24200    116.84726   -111.03404   0.10572586   -110.92832    1618.2503    4.3557903    4.3557903    4.3557903    1618.2503    5088.4301    1116.6688    -1350.348    57.094029   -485.79908    675.64037    82.642015 
   24300    124.04204   -111.04047   0.11223585   -110.92824   -2306.0948    4.3578582    4.3578582    4.3578582   -2306.0948    2536.6706   -3716.1673   -5738.7875   -84.883633   -1724.6199   -40.504088    82.759774 
   24400    85.657137   -111.00578  0.077504378   -110.92828    80.311298    4.3557383    4.3557383    4.3557383    80.311298    -556.2645    317.61914    479.57926    344.12336    696.06605    658.42626    82.639051 
   24500    74.499877   -110.99568  0.067409054   -110.92827   -498.15475    4.3564332    4.3564332    4.3564332   -498.15475     2027.065   -26.649512   -3494.8797   -1697.1386   -70.113371   -102.85847    82.678612 
   24600    71.303886   -110.99284  0.064517254   -110.92833    432.01924    4.3573576    4.3573576    4.3573576    432.01924    7236.3272   -3248.0814    -2692.188    1041.3609   -902.63008    472.69422    82.731255 
   24700    123.23849   -111.03956   0.11150878   -110.92805     471.4615    4.3554479    4.3554479    4.3554479     471.4615    1958.5747    1001.7346   -1545.9248    -1980.896    867.18789   -213.69878    82.622529 
   24800    136.90871   -111.05205   0.12387788   -110.92817   -2265.7707    4.3573069    4.3573069    4.3573069   -2265.7707    1768.9166   -3995.9404   -4570.2882    496.76707    235.49221     181.2267    82.728368 
   24900    84.180099    -111.0047  0.076167922   -110.92853    771.34378    4.3567504    4.3567504    4.3567504    771.34378    5415.2673   -469.18172   -2632.0542   -1549.0956    -705.8642    541.61424    82.696671 
   25000    125.08001   -111.04136   0.11317502   -110.92818   -800.21297    4.3554863    4.3554863    4.3554863   -800.21297     2061.632   -1452.9584   -3009.3125    931.40421    31.895957   -252.59173    82.624709 
   25100    44.990179   -110.96921  0.040708059    -110.9285    1619.7578    4.3572842    4.3572842    4.3572842    1619.7578    7079.0331   -439.32565   -1780.4339   -997.00655   -167.93248    1062.1509    82.727074 
   25200    123.79168   -111.04013   0.11200931   -110.92812   -3197.0977    4.3564903    4.3564903    4.3564903   -3197.0977   -3550.9199   -1788.1647   -4252.2085    543.57637   -1166.3585   -382.35618    82.681863 
   25300    72.319737   -110.99415  0.065436418   -110.92871    2001.2997    4.3553287    4.3553287    4.3553287    2001.2997    6029.6731    242.19325   -267.96735   -343.67559    509.01926    812.15655    82.615745 
   25400    121.17316    -111.0381   0.10964002   -110.92846   -1277.1894    4.3578106    4.3578106    4.3578106   -1277.1894    4017.2619   -1780.8011   -6068.0289    -1156.591    345.85114   -153.83514    82.757059 
   25500    120.19844   -111.03711   0.10875807   -110.92836    1456.4453    4.3551266    4.3551266    4.3551266    1456.4453    6334.3187   -463.86093    -1501.122   -244.10747    155.18394    375.49186    82.604243 
   25600    108.79641   -111.02655  0.098441275    -110.9281    1248.5659     4.356325     4.356325     4.356325    1248.5659    4906.4725    1409.0969   -2569.8718    -523.8537   -356.12139   -52.947742    82.672451 
   25700    100.58452   -111.01911  0.091010985    -110.9281   -2205.6945    4.3575694    4.3575694    4.3575694   -2205.6945    1565.1453   -3697.6202   -4484.6086    983.54911   -717.33924    134.47166    82.743319 
   25800    36.316028   -110.96136  0.032859506    -110.9285    2453.2078    4.3544391    4.3544391    4.3544391    2453.2078     3902.223    3090.6807    366.71969   -1420.6738   -358.93208    171.46228    82.565129 
   25900    128.25587   -111.04412   0.11604861   -110.92807   -2551.8019    4.3575911    4.3575911    4.3575911   -2551.8019   -72.724895   -2810.7305   -4771.9503     1276.126    69.375663   -196.41943    82.744554 
   26000    89.199708   -111.00915   0.08070977   -110.92844    1922.9459    4.3562438    4.3562438    4.3562438    1922.9459    6220.7293    854.70108   -1306.5927   -1272.8078   -886.30696    883.70714     82.66783 
   26100    145.71343   -111.06008   0.13184457   -110.92823    68.649716     4.355225     4.355225     4.355225    68.649716    3751.4217   -56.422088   -3489.0504    556.32519    79.077729   -625.40005    82.609841 
   26200    100.41062   -111.01917  0.090853644   -110.92832    442.30797    4.3577809    4.3577809    4.3577809    442.30797    7273.6985   -3197.4668   -2749.3078   -892.37683    414.77235    869.80695    82.755367 
   26300    76.693693   -110.99778  0.069394065   -110.92839   -548.94984    4.3555208    4.3555208    4.3555208   -548.94984    653.04178    455.55917   -2755.4505    837.62891   -1250.6923   -250.35557    82.626674 
   26400    100.51405     -111.019  0.090947223   -110.92805   -1990.8889    4.3564415    4.3564415    4.3564415   -1990.8889   -2460.0064   -1951.3709   -1561.2895   -701.62253    222.11586    564.12144    82.679083 
   26500    75.105048   -110.99626  0.067956626    -110.9283    1038.7761    4.3574883    4.3574883    4.3574883    1038.7761    5508.4102    294.28737   -2686.3693    533.27061   -174.36786   -13.940348    82.738702 
   26600    108.05891   -111.02626   0.09777397   -110.92848    442.48073    4.3548652    4.3548652    4.3548652    442.48073    5300.3582   -1446.1589   -2526.7571    1010.0622   -1322.5795    415.34615     82.58937 
   26700    109.47707   -111.02744  0.099057151   -110.92839    300.99727    4.3571704    4.3571704    4.3571704    300.99727    4732.1363   -1263.1876   -2565.9569   -923.01282    44.150703    173.62712     82.72059 
   26800    132.27622   -111.04788    0.1196863   -110.92819   -1570.3101    4.3569605    4.3569605    4.3569605   -1570.3101    3131.1367   -3201.8488   -4640.2181   -47.305842    1180.8649   -222.47534    82.708635 
   26900    105.87609   -111.02407  0.095798911   -110.92827   -574.29127    4.3553582    4.3553582    4.3553582   -574.29127   -997.09142    69.779232   -795.56162   -188.57366   -1120.1563    1180.1899    82.617419 
   27000    59.806274    -110.9825  0.054113973   -110.92839    1661.8701    4.3575318    4.3575318    4.3575318    1661.8701    10398.246   -1361.5475   -4051.0881    1420.6099   -434.96424   -531.68795    82.741177 
   27100    90.936875   -111.01058  0.082281595    -110.9283   -248.12354     4.355892     4.355892     4.355892   -248.12354    2169.1973   -921.69055   -1991.8774   -844.83628   -51.422521    1289.2897    82.647803 
   27200    78.532703   -110.99944   0.07105804   -110.92838   -213.77339    4.3561927    4.3561927    4.3561927   -213.77339    2301.0602   -309.08061   -2633.2997    1683.0082   -1009.4562   -202.97428    82.664919 
   27300    148.15268   -111.06215   0.13405166    -110.9281   -2755.8204    4.3579773    4.3579773    4.3579773   -2755.8204    95.853789   -2845.3534   -5517.9615   -384.13727   -438.81446    615.63458     82.76656 
   27400    110.73303   -111.02851   0.10019357   -110.92832    2067.4881    4.3552374    4.3552374    4.3552374    2067.4881    8036.2996   -162.35364   -1671.4817    167.84857    493.33161    112.35203    82.610546 
   27500    91.284311   -111.01095  0.082595963   -110.92835    862.89744    4.3568613    4.3568613    4.3568613    862.89744     7993.427   -560.06218   -4844.6725   -373.13313   -519.30383    11.503257    82.702989 
   27600    97.052095   -111.01587  0.087814775   -110.92806   -1244.1723      4.35732      4.35732      4.35732   -1244.1723    1055.1133   -1653.2069   -3134.4233    1100.3013   -496.93725    361.76597    82.729115 
   27700    78.682489   -110.99937  0.071193569   -110.92818     -1276.05     4.355641     4.355641     4.355641     -1276.05   -2036.7344    463.46758   -2254.8832   -152.59905    149.33828   -266.25551    82.633514 
   27800    94.334836   -111.01372  0.085356142   -110.92836   -2354.3251    4.3576879    4.3576879    4.3576879   -2354.3251   -1166.2695   -1857.2186    -4039.487    124.02477   -1164.9371    701.33774    82.750069 
   27900    99.488648   -111.01843   0.09001942   -110.92841    1940.4991    4.3563513    4.3563513    4.3563513    1940.4991    10711.863   -1187.2523   -3703.1131    1498.6495   -451.36618   -466.83793    82.673952 
   28000    121.39642   -111.03829   0.10984203   -110.92845    1238.0512    4.3556995    4.3556995    4.3556995    1238.0512    5009.7053    249.49074   -1545.0425   -45.129445   -1090.1518    1176.8775    82.636845 
   28100    124.16517   -111.04073   0.11234725   -110.92838   -2288.6868    4.3579189    4.3579189    4.3579189   -2288.6868    1008.1614   -2739.1375   -5135.0844   -46.985255    33.692071   -480.46806    82.763232 
   28200     92.19572   -111.01185  0.083420625   -110.92843    51.128679    4.3557697    4.3557697    4.3557697    51.128679    1285.8425   -188.79871   -943.65772   -658.71512    701.58882     510.5549    82.640838 
   28300     78.07707   -110.99909  0.070645774   -110.92845   -351.63074    4.3562909    4.3562909    4.3562909   -351.63074    2226.2673   -1522.5603   -1758.5992    1113.3628   -139.70112    8.7174617    82.670509 
   28400     68.05564   -110.98997  0.061578173   -110.92839    609.57224    4.3575124    4.3575124    4.3575124    609.57224    7639.6271   -1436.3562   -4374.5542   -353.04568   -800.57257   -134.02356    82.740075 
   28500    116.75449   -111.03375   0.10564192   -110.92811    832.21849    4.3554114    4.3554114    4.3554114    832.21849      1702.95   -26.092326     819.7978    1425.7174    228.85416    473.44362    82.620449 
   28600    132.68596   -111.04818   0.12005705   -110.92812    -1865.765    4.3570687    4.3570687    4.3570687    -1865.765    1457.9451   -1984.2474   -5070.9927    33.318493   -1189.0889     6.319906    82.714802 
   28700    89.475405   -111.00943  0.080959227   -110.92847    839.96682    4.3569938    4.3569938    4.3569938    839.96682    7013.1574   -2764.6686   -1728.5883   -155.18148   -706.93673    845.48183    82.710533 
   28800    127.58526   -111.04354   0.11544182   -110.92809   -259.66641    4.3553158    4.3553158    4.3553158   -259.66641    2571.6976   -904.46426   -2446.2326   -901.72902    1045.1646   -489.32561    82.615009 
   28900    56.174098   -110.97917  0.050827504   -110.92834     1052.149    4.3572551    4.3572551    4.3572551     1052.149    7488.1355   -2052.1751   -2279.5135    380.87656   -659.61722    1298.4113    82.725416 
   29000    110.47929   -111.02801  0.099963985   -110.92805   -2676.5193    4.3567516    4.3567516    4.3567516   -2676.5193   -4540.5255   -582.67659   -2906.3558   -99.655158   -387.35016   -334.95751    82.696741 
   29100    72.309886   -110.99386  0.065427504   -110.92843    1541.2504    4.3551373    4.3551373    4.3551373    1541.2504    5510.9503    333.04017   -1220.2391   -753.86722    854.10919    738.86917    82.604849 
   29200    114.47406   -111.03187   0.10357854   -110.92829   -1674.4317    4.3579793    4.3579793    4.3579793   -1674.4317    3204.4643   -3753.7167   -4474.0428    995.27678   -234.16838    472.35688    82.766672 
   29300    124.97297   -111.04129   0.11307817   -110.92821    582.33151    4.3555585    4.3555585    4.3555585    582.33151    5355.1678   -168.49131   -3439.6819     413.4445   -1844.0033   -150.32282    82.628823 
   29400    114.24747   -111.03153   0.10337351   -110.92816    892.47096     4.355975     4.355975     4.355975    892.47096    5540.9853   -1404.8315   -1458.7409   -36.658514    668.90394    711.66965    82.652524 
   29500    100.34284   -111.01902  0.090792311   -110.92823   -2406.3328    4.3579633    4.3579633    4.3579633   -2406.3328    154.53188   -1441.7185   -5931.8119   -1246.0167   -518.68645   -224.09175    82.765761 
   29600    39.885532   -110.96465  0.036089267   -110.92856    2116.6923    4.3544739    4.3544739    4.3544739    2116.6923    4034.9511    1891.1321    423.99376    149.85732   -250.98668    705.18465    82.567108 
   29700    117.76608   -111.03475   0.10655722   -110.92819   -2106.6723    4.3572807    4.3572807    4.3572807   -2106.6723    477.63738   -2453.3392    -4344.315   -1186.2549    554.39068   -285.24425    82.726875 
   29800    97.156478   -111.01637  0.087909223   -110.92846    849.61854    4.3568026    4.3568026    4.3568026    849.61854    5582.8152   -372.02748   -2661.9321    454.42821   -292.70049    715.55524    82.699645 
   29900    129.21567   -111.04535   0.11691706   -110.92843     1248.227    4.3547363    4.3547363    4.3547363     1248.227    6188.9479   -397.62615   -2046.6406    102.73957   -1000.6181   -218.39763    82.582035 
   30000    114.73751   -111.03216   0.10381691   -110.92834      159.764    4.3577143    4.3577143    4.3577143      159.764    6709.9641   -1889.6042   -4341.0679    247.80099   -9.5320844    601.11949    82.751573 
   30100    76.794278   -110.99793  0.069485077   -110.92845    492.51859    4.3556941    4.3556941    4.3556941    492.51859    2651.9345   -116.76512   -1057.6136   -964.46559   -7.0074825    235.17046     82.63654 
   30200    103.91897   -111.02203  0.094028069     -110.928   -1237.4967    4.3559226    4.3559226    4.3559226   -1237.4967   -599.64003   -819.99859   -2292.8513   -48.760035   -517.32405   -257.45386    82.649546 
   30300    77.721952   -110.99842  0.070324456    -110.9281    724.72297       4.3578       4.3578       4.3578    724.72297    5692.3506   -2246.6953   -1271.4863    77.900087    49.357611    477.10192    82.756458 
   30400    94.714807   -111.01398  0.085699947   -110.92828    752.92695    4.3548965    4.3548965    4.3548965    752.92695    4956.3107   -94.542419   -2602.9874   -1359.6978    -765.6814   -575.18094    82.591149 
   30500    113.86979   -111.03113   0.10303178   -110.92809   -79.711106    4.3569043    4.3569043    4.3569043   -79.711106    3404.7718   -2046.0836   -1597.8215   -97.002172    662.11494    543.86407     82.70544 
   30600    124.20983   -111.04041   0.11238767   -110.92803   -809.33825    4.3572775    4.3572775    4.3572775   -809.33825    3477.4214    -2388.177   -3517.2592   -356.00305   -674.58513    65.035736    82.726689 
   30700    117.69994   -111.03464   0.10649738   -110.92815   -937.19788    4.3552459    4.3552459    4.3552459   -937.19788   -979.47144   -777.82844   -1054.2938    560.99031   -814.38652    806.08485     82.61103 
   30800    58.181504   -110.98103  0.052643848   -110.92838    1664.2886    4.3574809    4.3574809    4.3574809    1664.2886    10172.138   -3225.0428   -1954.2295   -884.39503   -229.89984   -36.473262    82.738279 
   30900     100.1092   -111.01882  0.090580908   -110.92823      -1490.7    4.3562562    4.3562562    4.3562562      -1490.7   -590.11572      -759.12   -3122.8643    392.66668    296.12699     664.3436    82.668534 
   31000    70.772395   -110.99254   0.06403635    -110.9285   -145.26022    4.3559621    4.3559621    4.3559621   -145.26022    1086.3448    -1195.191   -326.93446   -927.15354   -661.67393     268.0415    82.651794 
   31100    135.11485   -111.05051   0.12225476   -110.92825    -2245.104    4.3580019    4.3580019    4.3580019    -2245.104    82.858042   -1209.9884   -5608.1817   -115.59123    594.23974   -135.47835    82.767958 
   31200    115.93533   -111.03333   0.10490072   -110.92843    1836.2408     4.355239     4.355239     4.355239    1836.2408    8136.8171   -2225.0554   -403.03932    319.47466    -336.4347     878.2972    82.610636 
   31300     93.21852   -111.01286  0.084346076   -110.92851    891.34565    4.3568057    4.3568057    4.3568057    891.34565    8253.3504   -1068.1805   -4511.1329    332.78365    -1855.106   -478.85873    82.699823 
   31400     107.2553   -111.02521  0.097046851   -110.92817   -1810.2496     4.357333     4.357333     4.357333   -1810.2496    713.68203   -2907.8962   -3236.5346   -862.98596    120.91113    555.21645    82.729855 
   31500    79.574375   -111.00022  0.072000567   -110.92822   -723.81879    4.3558195    4.3558195    4.3558195   -723.81879   -1664.4051    1331.6939   -1838.7451   -547.86009    133.87984    229.08415    82.643676 
   31600      85.8658   -111.00609   0.07769318    -110.9284   -1465.7044    4.3574019    4.3574019    4.3574019   -1465.7044    288.88358   -811.07996   -3874.9167    1033.4374   -1186.1929    536.03234    82.733778 
   31700    96.056812    -111.0152  0.086914222   -110.92829    1528.6245    4.3563948    4.3563948    4.3563948    1528.6245     9324.679   -2010.1584   -2728.6472   -767.13633   -337.58629    103.70994    82.676426 
   31800    122.85521   -111.03935   0.11116198   -110.92819    585.69584    4.3560528    4.3560528    4.3560528    585.69584     4417.129   -218.08125   -2441.9602    280.52012    885.21272    248.50045    82.656954 
   31900    124.80172   -111.04113   0.11292322   -110.92821   -2297.6089    4.3575032    4.3575032    4.3575032   -2297.6089    1426.1604   -4100.0282   -4218.9588   -187.46336   -1640.4678    28.762038    82.739549 
   32000    97.319308   -111.01636  0.088056555   -110.92831   -104.67562     4.356163     4.356163     4.356163   -104.67562    694.94043    1363.4959   -2372.4632    1322.8204   -121.40072   -190.04906     82.66323 
   32100    79.831855   -111.00056   0.07223354   -110.92833    154.16393    4.3561733    4.3561733    4.3561733    154.16393    2901.3087   -1843.6337   -595.18322   -603.11889   -802.71072    569.97388    82.663818 
   32200    65.701599    -110.9878  0.059448187   -110.92835    237.05709    4.3572878    4.3572878    4.3572878    237.05709    5512.5911   -670.22835   -4131.1915    760.16707    -1315.247   -310.50596     82.72728 
   32300    112.53985    -111.0299   0.10182842   -110.92807   -74.826687    4.3559411    4.3559411    4.3559411   -74.826687    620.25896   -1925.0852    1080.3462   -572.43898   -76.939999    355.34736    82.650597 
   32400    132.60463   -111.04802   0.11998346   -110.92804   -1906.8857    4.3566439    4.3566439    4.3566439   -1906.8857    339.20083    -2104.228   -3955.6299   -620.73606     580.7604   -185.23821    82.690611 
   32500    84.562972   -111.00508  0.076514354   -110.92857    1257.2825    4.3570108    4.3570108    4.3570108    1257.2825    7703.1898   -2155.0848   -1776.2574    618.26295   -255.17554    203.55246    82.711501 
   32600    135.30176   -111.05067   0.12242388   -110.92825   -217.03241    4.3556464    4.3556464    4.3556464   -217.03241    1996.8441    -1487.768   -1160.1733    974.24923    -543.8371    346.00078    82.633825 
   32700    55.662421   -110.97895  0.050364529   -110.92859     2045.766    4.3567973    4.3567973    4.3567973     2045.766    8965.1598   -1432.3021   -1395.5597    983.12291    -657.8506    412.52486    82.699342 
   32800    114.70046     -111.032   0.10378338   -110.92821   -3234.8585    4.3570022    4.3570022    4.3570022   -3234.8585   -5026.0828   -3446.2496   -1232.2431   -471.05611   -633.42444    183.61353    82.711014 
   32900    70.832288   -110.99262  0.064090542   -110.92853    1549.5008    4.3552432    4.3552432    4.3552432    1549.5008    5230.1528       761.48   -1343.1303    1415.2871    152.96747    97.315961    82.610878 
   33000    111.53369   -111.02924   0.10091803   -110.92832   -761.02798    4.3575971    4.3575971    4.3575971   -761.02798    4782.8305   -4347.2735    -2718.641   -485.33392   -1102.4983    483.71021    82.744895 
   33100     118.9157   -111.03595   0.10759743   -110.92835    921.18344     4.355827     4.355827     4.355827    921.18344    5459.2505    413.31316   -3109.0133    405.57954   -17.575772   -358.85114    82.644103 
   33200    113.23918   -111.03055   0.10246119   -110.92808    1145.1164    4.3559353    4.3559353    4.3559353    1145.1164    6136.4865   -2182.9685   -518.16878   -662.88096    163.48107    789.46587    82.650265 
   33300    109.01283   -111.02667  0.098637101   -110.92804   -2535.7907    4.3577577    4.3577577    4.3577577   -2535.7907    867.47948   -3893.0235    -4581.828     752.0108   -232.95937   -148.32581    82.754044 
   33400    46.593995   -110.97056  0.042159226    -110.9284    1171.7825    4.3550228    4.3550228    4.3550228    1171.7825    2246.3955    1869.7007   -600.74868    212.84939   -995.65637    3.7734796    82.598339 
   33500    117.25421   -111.03399   0.10609408    -110.9279   -2123.1315    4.3570589    4.3570589    4.3570589   -2123.1315    582.19465   -3392.5729   -3559.0163    1056.7226    113.38463    585.36402    82.714244 
   33600    84.571626   -111.00477  0.076522185   -110.92825    1195.6204    4.3567399    4.3567399    4.3567399    1195.6204    4660.5785    1476.8739   -2550.5912    1158.2626   -1673.3601    338.13568    82.696074 
   33700    126.86766   -111.04311   0.11479253   -110.92831   -46.578232    4.3552525    4.3552525    4.3552525   -46.578232    3568.2135   -2001.8001   -1706.1481   -864.06065   -391.34283    334.47904    82.611404 
   33800    115.68611   -111.03301   0.10467522   -110.92833   -364.21972    4.3575433    4.3575433    4.3575433   -364.21972    5539.8283   -2807.6022   -3824.8853    351.57162     1191.598    48.451017    82.741834 
   33900    90.601463   -111.01037  0.081978108   -110.92839    -398.7735    4.3559047    4.3559047    4.3559047    -398.7735    1431.2474   -1565.6536   -1061.9143   -139.49924   -1062.1476    8.4292197    82.648526 
   34000    100.44221   -111.01905  0.090882225   -110.92817   -1160.8231    4.3561527    4.3561527    4.3561527   -1160.8231   -660.43447    192.46603   -3014.5008    1290.1685   -848.60074   -547.44843    82.662643 
   34100    74.804818   -110.99587  0.067684971   -110.92819    1267.6978    4.3574551    4.3574551    4.3574551    1267.6978    4846.0211   -994.67664   -48.251066   -1158.3986     332.5332    539.69369    82.736806 
   34200    90.786277   -111.01048  0.082145331   -110.92834    679.49609    4.3551568    4.3551568    4.3551568    679.49609    4294.2065   -357.44142   -1898.2768    797.76164   -344.07862    133.49409    82.605963 
   34300     111.6852   -111.02934   0.10105512   -110.92828   -555.07057     4.356968     4.356968     4.356968   -555.07057    1121.9748   -2095.8811   -691.30549   -267.10038   -751.85363    95.813812    82.709066 
   34400    127.67347   -111.04366   0.11552164   -110.92813   -325.13788    4.3568996    4.3568996    4.3568996   -325.13788    6216.3187   -4633.1601   -2558.5723    762.30299    796.33825    154.28233    82.705171 
   34500    120.80985   -111.03756   0.10931129   -110.92824   -237.15995    4.3554858    4.3554858    4.3554858   -237.15995    -1280.841     1724.046   -1154.6848   -162.67505   -822.15758    139.79259    82.624682 
   34600    59.962048   -110.98271  0.054254921   -110.92845     2172.559     4.357216     4.357216     4.357216     2172.559    10386.747   -3287.2817   -581.78778   -154.99201   -56.957253    291.08887    82.723189 
   34700    100.12866   -111.01879  0.090598514   -110.92819   -889.65273     4.356013     4.356013     4.356013   -889.65273   -1079.8038     359.4154   -1948.5698   -46.629294    167.03026    239.13705     82.65469 
   34800    69.026581   -110.99081  0.062456701   -110.92836   -205.71369    4.3562137    4.3562137    4.3562137   -205.71369    1116.5357   -2830.1707     1096.494   -234.24376   -344.42689    163.77804    82.666116 
   34900    135.24463   -111.05046   0.12237218   -110.92809    -2739.356    4.3578172    4.3578172    4.3578172    -2739.356    208.82564   -2954.0992   -5472.7943    1018.2621   -1274.8805   -240.52218    82.757435 
   35000    109.47188   -111.02733  0.099052461   -110.92828    2366.4275     4.355185     4.355185     4.355185    2366.4275    7936.3801   -1188.3353    351.23758   -1596.6169    288.30081    551.70294    82.607567 
   35100    102.59165   -111.02106  0.092827082   -110.92823     408.1508    4.3569565    4.3569565    4.3569565     408.1508     6902.465   -1629.8943   -4048.1184   -37.898926    321.34476   -12.169527    82.708411 
   35200    97.373571   -111.01622  0.088105654   -110.92812   -1345.4911    4.3571513    4.3571513    4.3571513   -1345.4911    461.58888   -2390.2238   -2107.8384   -1014.6555    35.262202    574.34523    82.719506 
   35300    90.042249   -111.00951  0.081472119   -110.92803    -1526.637    4.3559467    4.3559467    4.3559467    -1526.637   -1005.8145   -2512.6829   -1061.4137    1230.4512   -182.64775    134.42317    82.650917 
   35400    86.839509   -111.00693  0.078574212   -110.92835    -2044.091    4.3575579    4.3575579    4.3575579    -2044.091   -1251.8925   -962.80176   -3917.5788   -729.46222   -1440.3275   -274.12193    82.742661 
   35500    91.938101   -111.01162  0.083187526   -110.92843      1198.57    4.3561867    4.3561867    4.3561867      1198.57    9711.1863     -3458.17   -2657.3064    133.44493   -244.20057    501.28147    82.664579 
   35600    119.82895   -111.03692   0.10842375   -110.92849    702.66762    4.3562269    4.3562269    4.3562269    702.66762    3282.4314    981.68505   -2156.1135   -688.79999   -461.27478    362.64838    82.666869 
   35700    113.69745   -111.03145   0.10287584   -110.92857    -1620.944    4.3574967    4.3574967    4.3574967    -1620.944    2715.0378   -4721.1378    -2856.732     -359.926   -396.70513    187.30854    82.739179 
   35800     111.8778   -111.02951   0.10122938   -110.92828   -1009.0391    4.3560796    4.3560796    4.3560796   -1009.0391     755.2249   -1655.1147   -2127.2275    45.896832    69.493874    39.686751     82.65848 
   35900    77.351897   -110.99827  0.069989622   -110.92828    875.77925    4.3563162    4.3563162    4.3563162    875.77925    4117.7646   -1840.2254    349.79863   -936.85271    146.04858   -12.172004    82.671952 
   36000    87.983465   -111.00774  0.079609288   -110.92813   -887.66584    4.3572787    4.3572787    4.3572787   -887.66584    4212.8814    -2105.844   -4770.0349    30.029642   -890.99601   -545.00391    82.726762 
   36100    77.844507   -110.99872  0.070435346   -110.92829    2135.0479    4.3556365    4.3556365    4.3556365    2135.0479    2884.3472    982.49583    2538.3008   -1318.7391    823.49099    537.09621    82.633261 
   36200    143.67518   -111.05798   0.13000032   -110.92798    -2481.526    4.3568859    4.3568859    4.3568859    -2481.526   -663.75649   -3363.6414   -3417.1801    1505.3805   -1424.3793    408.84609    82.704389 
   36300    76.352063   -110.99771  0.069084951   -110.92862    1681.1129    4.3567132    4.3567132    4.3567132    1681.1129    7747.6398   -2483.5992   -220.70179    -943.1008   -1538.0396    7.1492959    82.694556 
   36400    149.08703   -111.06306   0.13489708   -110.92816   -1344.1717    4.3558426    4.3558426    4.3558426   -1344.1717    1124.0922      -3663.1   -1493.5073    42.218069    638.23204    258.16278    82.644991 
   36500    64.942719   -110.98722  0.058761537   -110.92846    2017.9902    4.3567746    4.3567746    4.3567746    2017.9902    8115.1568   -539.43934   -1521.7469    -1634.146    303.22139    303.71394    82.698052 
   36600    99.929312   -111.01861  0.090418141   -110.92819   -2062.1955    4.3567907    4.3567907    4.3567907   -2062.1955   -4341.5273   -1437.6105   -407.44869     329.0125   -611.53925    172.40715    82.698966 
   36700    70.790607   -110.99252  0.064052829   -110.92846    983.46877     4.355299     4.355299     4.355299    983.46877    3718.9571    163.84119   -932.39202   -195.20667    76.090855    282.13127    82.614052 
   36800    104.99328   -111.02334  0.095000129   -110.92834   -838.09395    4.3577493    4.3577493    4.3577493   -838.09395     2861.975   -4188.7334   -1187.5235   -401.21634   -324.17943    251.45475    82.753567 
   36900    135.95998   -111.05132   0.12301945    -110.9283    -804.0325    4.3559279    4.3559279    4.3559279    -804.0325    4849.1183   -3487.0374   -3774.1784    155.89378   -1549.5815    -522.3123    82.649844 
   37000    97.634706   -111.01663  0.088341934   -110.92829     2056.823    4.3558551    4.3558551    4.3558551     2056.823    6375.9201    217.35443   -422.80563   -1133.2746    543.42561    555.99363      82.6457 
   37100    123.29874   -111.03957   0.11156329   -110.92801   -2827.8948    4.3580992    4.3580992    4.3580992   -2827.8948    181.77136   -3816.1554   -4849.3005     1073.712   -473.91494    504.09067    82.773505 
   37200    34.337126   -110.95966  0.031068953   -110.92859    2074.6975    4.3546766    4.3546766    4.3546766    2074.6975    2638.1537    2652.7162    933.22276   -616.16968   -1326.9347      564.726    82.578641 
   37300    124.12813    -111.0404   0.11231374   -110.92809   -3155.5246    4.3575183    4.3575183    4.3575183   -3155.5246   -1178.1724     -4900.56   -3387.8416    626.58168   -182.21128     263.7516    82.740411 
   37400    84.474719   -111.00484  0.076434501    -110.9284    1036.5794    4.3567651    4.3567651    4.3567651    1036.5794    6774.3803   -1579.1841   -2085.4582   -1760.1207    433.80804   -300.54593    82.697513 
   37500    125.10713   -111.04158   0.11319956   -110.92838   -201.85436    4.3550425    4.3550425    4.3550425   -201.85436    2222.8086   -546.77437   -2281.5973    1221.8355   -1551.3369    130.66129    82.599455 
   37600    110.51685   -111.02821  0.099997973   -110.92821     22.28793    4.3580163    4.3580163    4.3580163     22.28793    6626.6468   -2701.5948   -3858.1882   -271.86152    -260.6108    310.18156    82.768781 
   37700    93.487791   -111.01277  0.084589718   -110.92818    210.06527    4.3555391    4.3555391    4.3555391    210.06527    49.411785    338.79301      241.991    266.02197   -790.07217    277.90084    82.627717 
   37800    104.54962   -111.02266  0.094598697   -110.92806    -1619.885    4.3561742    4.3561742    4.3561742    -1619.885    855.94471   -3145.7242   -2569.8756   -600.86033   -405.62576    8.4635498    82.663866 
   37900    73.979985   -110.99509  0.066938645   -110.92815     855.2304    4.3578247    4.3578247    4.3578247     855.2304    4448.6592   -1454.7255   -428.24257    -121.5266    138.27152     143.0893    82.757861 
   38000    102.03963   -111.02061  0.092327602   -110.92828    187.61069    4.3547504    4.3547504    4.3547504    187.61069     4092.176   -1398.4143   -2130.9296     479.2404   -805.15168   -369.68164    82.582839 
   38100      95.0082   -111.01438  0.085965416   -110.92842    132.24482    4.3571512    4.3571512    4.3571512    132.24482    953.60038    172.38815   -729.25406   -179.57585   -632.44912    606.88353      82.7195 
   38200    123.23523   -111.03968   0.11150583   -110.92817   -160.73088     4.356939     4.356939     4.356939   -160.73088     5341.292   -4260.1454   -1563.3392    1035.4853   -848.61278     567.7863    82.707411 
   38300    128.00085   -111.04401   0.11581786   -110.92819   -337.72693    4.3553349    4.3553349    4.3553349   -337.72693    683.16936    -1363.087    -333.2631   -1335.7298    48.134069   -129.76096    82.616097 
   38400    63.243233   -110.98572  0.057223806   -110.92849    1569.8105    4.3575254    4.3575254    4.3575254    1569.8105    10098.096   -3891.6615   -1497.0024    1145.9802    64.788137    102.12483    82.740812 
   38500    113.94518    -111.0314   0.10309999    -110.9283   -1640.5923    4.3559919    4.3559919    4.3559919   -1640.5923   -809.83515    -1374.831   -2737.1108   -190.87615    118.19363    393.63398    82.653487 
   38600    57.104545   -110.98037  0.051669393    -110.9287     946.3116    4.3560358    4.3560358    4.3560358     946.3116    1292.2278     384.2152    1162.4918    927.33627   -1118.4673    236.88669    82.655986 
   38700    119.68388   -111.03667   0.10829249   -110.92838   -2312.7943    4.3577742    4.3577742    4.3577742   -2312.7943    1671.1813   -3951.3998   -4658.1644   -1221.8641    432.88895    322.73967    82.754987 
   38800    111.80486   -111.02935   0.10116338   -110.92819    1899.9509    4.3555188    4.3555188    4.3555188    1899.9509    7613.0606   -2346.1762    432.96818    453.25179   -212.39497    480.15435    82.626562 
   38900    119.16356   -111.03589   0.10782169   -110.92807   -621.41679    4.3567658    4.3567658    4.3567658   -621.41679    6756.8908   -4580.7532   -4040.3879    402.01095   -1294.1164    -649.3483    82.697552 
   39000    103.64705   -111.02187  0.093782028   -110.92809   -1951.5071    4.3573554    4.3573554    4.3573554   -1951.5071   -500.25865   -1436.2419   -3918.0207    399.70424   -944.81448    480.11962    82.731129 
   39100     77.03468    -110.9978  0.069702597   -110.92809   -47.365975    4.3558605    4.3558605    4.3558605   -47.365975    1408.5102   -1134.5701   -416.03804     531.9929    461.07389    801.23714    82.646008 
   39200    85.532122   -111.00561  0.077391261   -110.92822   -1799.5382    4.3570254    4.3570254    4.3570254   -1799.5382   -2183.0808   -173.38485   -3042.1491   -681.04024   -933.82222    522.10631    82.712334 
   39300    77.554686   -110.99849   0.07017311   -110.92831    961.01806    4.3569341    4.3569341    4.3569341    961.01806    9001.9091   -4297.8003   -1821.0546    586.93484    365.91492    335.98277    82.707133 
   39400    147.40842   -111.06142   0.13337824   -110.92804   -1172.0433    4.3558611    4.3558611    4.3558611   -1172.0433    1750.1315   -2652.8839   -2613.3776   -522.98264    580.69854   -186.34316    82.646043 
   39500     103.5995   -111.02203  0.093739008   -110.92829   -705.97342    4.3573136    4.3573136    4.3573136   -705.97342    3711.8535   -2341.6698    -3488.104    1545.9921   -2005.2008   -58.880682    82.728746 
   39600    107.96065   -111.02597  0.097685068   -110.92828   -557.97418    4.3565061    4.3565061    4.3565061   -557.97418    1876.3064   -1012.6805   -2537.5483   -964.69994   -33.254033    245.69083    82.682765 
   39700    80.668179   -111.00146  0.072990263   -110.92847    1771.2024    4.3552755    4.3552755    4.3552755    1771.2024    2503.8662    1053.3708    1756.3701    424.30265    32.933592    620.89042    82.612714 
   39800    82.432891   -111.00301  0.074587012   -110.92842    -645.9242    4.3580197    4.3580197    4.3580197    -645.9242    5649.6296   -3779.1747   -3808.2274   -161.28975    -613.1962   -131.92062    82.768973 
   39900    94.832668   -111.01426  0.085806591   -110.92845    577.92826    4.3554665    4.3554665    4.3554665    577.92826    1527.3256   -1195.2753    1401.7345    869.02589   -706.12135    207.74802    82.623587 
   40000    129.80456   -111.04557    0.1174499   -110.92812   -1128.7371    4.3564187    4.3564187    4.3564187   -1128.7371    2329.4534   -2676.3821   -3039.2826   -611.22903    951.29792   -14.567245    82.677789 
   40100    82.425368   -111.00318  0.074580205    -110.9286    1598.0141    4.3572379    4.3572379    4.3572379    1598.0141    6805.8468   -959.38199   -1052.4225   -359.07691   -118.89565    641.27919    82.724435 
   40200    132.54795   -111.04839   0.11993217   -110.92846    402.37209    4.3549765    4.3549765    4.3549765    402.37209    1431.7784   -689.08421    464.42211    436.36158    171.57064    648.32972    82.595701 
   40300    84.383011   -111.00485  0.076351522    -110.9285    1013.4653    4.3573224    4.3573224    4.3573224    1013.4653     7880.755   -3158.1824   -1682.1765    704.24785   -746.82572   -125.73802     82.72925 
   40400    91.670598   -111.01127  0.082945483   -110.92832   -2185.8598    4.3567623    4.3567623    4.3567623   -2185.8598   -2950.7288   -2338.7422   -1268.1083     902.4467   -746.96421   -87.413795    82.697352 
   40500    83.635626   -111.00389  0.075675272   -110.92821   -415.03461    4.3554167    4.3554167    4.3554167   -415.03461    2561.1564   -1578.3265   -2227.9337   -786.72594   -494.68593    283.25179     82.62075 
   40600    94.827451   -111.01382   0.08580187   -110.92801   -206.91455     4.357775     4.357775     4.357775   -206.91455     2432.032   -1679.4391   -1373.3365    384.44001    229.31137    543.69094    82.755033 
   40700    123.58792   -111.03991   0.11182494   -110.92808   -549.55106    4.3558696    4.3558696    4.3558696   -549.55106    3226.5546   -2017.9962   -2857.2116   -940.66346   -185.72564    308.92819    82.646526 
   40800    102.32273   -111.02073  0.092583753   -110.92815    1342.3276    4.3561578    4.3561578    4.3561578    1342.3276    7347.1995   -2595.8035   -724.41336    952.35578   -402.18325    833.95563    82.662931 
   40900    129.17394   -111.04487   0.11687929   -110.92799   -3274.5108    4.3578599    4.3578599    4.3578599   -3274.5108    141.95655   -4829.5947   -5135.8943   -231.06125   -355.32594   -586.25997    82.759869 
   41000    52.474767   -110.97588  0.047480272    -110.9284    311.73478    4.3553105    4.3553105    4.3553105    311.73478    1645.4503    441.36652   -1151.6125    562.60473    -698.1453    422.65811    82.614707 
   41100    105.62665   -111.02361  0.095573211   -110.92804   -1920.4014    4.3572044    4.3572044    4.3572044   -1920.4014   -1014.4649   -2189.2196   -2557.5198   -223.56709    870.50237    883.56241    82.722527 
   41200    82.364408   -111.00269  0.074525048   -110.92817    1489.5822    4.3567261    4.3567261    4.3567261    1489.5822     6487.494   -1174.7692   -843.97816    791.53683   -1347.4341    407.31206    82.695287 
   41300    105.50874   -111.02387  0.095466523   -110.92841     897.5903    4.3553875    4.3553875    4.3553875     897.5903     5641.173   -1558.2026   -1390.1995    290.05948   -457.24556    360.02363    82.619092 
   41400    142.60616   -111.05724   0.12903305   -110.92821   -1697.0067    4.3574837    4.3574837    4.3574837   -1697.0067    4144.1028   -5741.6688    -3493.454   -982.53177    183.81954   -115.84626    82.738436 
   41500    92.953317   -111.01263  0.084106115   -110.92852    961.63255    4.3559929    4.3559929    4.3559929    961.63255    3208.6077    955.46393    -1279.174    -246.4745    91.401154    11.334068    82.653548 
   41600    105.73897   -111.02416  0.095674841   -110.92849   -891.28452    4.3560113    4.3560113    4.3560113   -891.28452     335.2793   -1867.4456   -1141.6873    192.49866   -1065.0885    52.149622    82.654592 
   41700    54.545927   -110.97785  0.049354301    -110.9285    2838.1962    4.3570372    4.3570372    4.3570372    2838.1962    7215.6676    638.77984    660.14129    893.63395    260.12261    920.37003    82.713007 
   41800    101.97008   -111.02055  0.092264672   -110.92828    -270.6666    4.3556386    4.3556386    4.3556386    -270.6666    2478.7284   -2433.1563   -857.57197   -283.70575   -899.47169   -154.85761    82.633377 
   41900    108.18867   -111.02628  0.097891383   -110.92839   -1433.0642    4.3566754    4.3566754    4.3566754   -1433.0642   -291.11712   -2767.5641   -1240.5115    490.51409   -112.18689    186.87221    82.692401 
   42000    126.16572   -111.04238    0.1141574   -110.92822   -391.41771    4.3572866    4.3572866    4.3572866   -391.41771    5101.0611   -3245.1606   -3030.1537   -1014.9897    1059.4735    212.14692    82.727209 
   42100    120.61821   -111.03738    0.1091379   -110.92824     401.5189    4.3555182    4.3555182    4.3555182     401.5189    1383.6448   -182.66533    3.5772518    449.64874   -641.74361    523.63238    82.626526 
   42200    56.976697   -110.98001  0.051553713   -110.92845    1779.2886    4.3569459    4.3569459    4.3569459    1779.2886    6725.2665   -596.29781   -791.10286    207.21189   -1075.4596    454.60346    82.707809 
   42300    117.15813   -111.03384   0.10600714   -110.92783   -2641.0944    4.3570561    4.3570561    4.3570561   -2641.0944   -2089.3476   -3633.8843   -2200.0515    500.51024   -210.67358    6.0891516    82.714085 
   42400    68.936815    -110.9905  0.062375479   -110.92812   -424.62616    4.3557288    4.3557288    4.3557288   -424.62616   -641.39025   -197.42792    -435.0603   -837.55279    206.80167   -79.699898    82.638512 
   42500    117.52718   -111.03454   0.10634107    -110.9282   -2945.2485    4.3579943    4.3579943    4.3579943   -2945.2485    2033.5841   -5928.8565   -4940.4731    239.09801   -1207.7946    8.1658136    82.767529 
   42600    103.37516   -111.02181  0.093536013   -110.92827    2541.0239    4.3555922    4.3555922    4.3555922    2541.0239    7475.2682    811.05894   -663.25538    268.21084    780.12794    910.81026    82.630737 
   42700    111.10453   -111.02885   0.10052971   -110.92832    615.43037    4.3562846    4.3562846    4.3562846    615.43037    5431.0576   -2389.2063   -1195.5602   -907.96122   -644.87912    297.66086    82.670153 
   42800    109.19318   -111.02698  0.098800285   -110.92818    -2173.973    4.3577529    4.3577529    4.3577529    -2173.973    1176.0648   -2975.7893   -4722.1945   -38.213669    389.35658    860.09191    82.753774 
   42900    89.867128   -111.00938  0.081313666   -110.92806    -313.5195    4.3554655    4.3554655    4.3554655    -313.5195    724.45111   -1459.7804   -205.22917   -180.76989    40.254828   -432.96622    82.623527 
   43000    85.694304   -111.00587  0.077538007   -110.92833   -1271.7595    4.3571443    4.3571443    4.3571443   -1271.7595    2691.8644   -2840.1308    -3667.012    602.82904   -575.17493    330.44259    82.719107 
   43100    80.405921   -111.00136  0.072752967   -110.92861     1133.192    4.3565062    4.3565062    4.3565062     1133.192    6309.1193   -1091.1492   -1818.3942    141.01731    -1496.518    779.84883    82.682768 
   43200    118.77736   -111.03602   0.10747225   -110.92854    1292.3977    4.3556949    4.3556949    4.3556949    1292.3977    4235.7553   -665.00427    306.44208    523.68406    144.37905    224.32803    82.636584 
   43300    124.89124   -111.04155   0.11300421   -110.92854   -1881.3041    4.3575131    4.3575131    4.3575131   -1881.3041    1962.1646   -3239.9366   -4366.1401   -1535.6735    380.20318    355.74807    82.740113 
   43400    97.127642   -111.01643  0.087883132   -110.92855    34.570791    4.3559476    4.3559476    4.3559476    34.570791    4281.5627   -2537.9329   -1639.9174   -479.75583    425.37429   -82.290412    82.650969 
   43500     105.6898   -111.02377  0.095630352   -110.92814     38.78172    4.3563651    4.3563651    4.3563651     38.78172    1799.3041   -461.29926   -1221.6597    218.90034    199.58651    153.49305    82.674734 
   43600    73.669607   -110.99499  0.066657809   -110.92833    -218.4714     4.356949     4.356949     4.356949    -218.4714    3126.0565    -1788.896   -1992.5747    532.99088   -1060.1801   -15.188702    82.707982 
   43700    78.321669    -110.9992  0.070867092   -110.92833     584.2601     4.355983     4.355983     4.355983     584.2601    694.37369    550.83466    507.57196   -921.23063    830.53968    955.71279    82.652982 
   43800     122.2159   -111.03855   0.11058351   -110.92797   -1052.0665     4.356695     4.356695     4.356695   -1052.0665    2104.0846   -2996.5776   -2263.7064    398.74875   -647.35207   -128.85667    82.693519 
   43900    99.078733   -111.01789   0.08964852   -110.92824    27.499688    4.3566806    4.3566806    4.3566806    27.499688    5843.2413   -3138.8525   -2621.8898    307.31205   -272.21602    61.602684    82.692697 
   44000    138.96464   -111.05364   0.12573812    -110.9279   -802.83251    4.3562579    4.3562579    4.3562579   -802.83251     1233.992   -1460.7408   -2181.7486    -858.2196   -583.62992    236.73423    82.668631 
   44100    85.457479   -111.00534  0.077323723   -110.92801    2065.4119    4.3562719    4.3562719    4.3562719    2065.4119    7986.0403    -1093.532   -696.27251    6.5002401     909.9884     367.6642    82.669428 
   44200    86.925369   -111.00685  0.078651901   -110.92819   -1247.9461    4.3568178    4.3568178    4.3568178   -1247.9461   -1527.7194   -623.47973   -1592.6392   -427.96363   -552.09821    274.36998    82.700513 
   44300    61.041163   -110.98369  0.055231327   -110.92846    1106.3091     4.355663     4.355663     4.355663    1106.3091    6036.4437    -1383.535   -1333.9812   -534.89483    1249.5976    33.383345    82.634771 
   44400    124.39368   -111.04068   0.11255402   -110.92812    -1373.221    4.3571672    4.3571672    4.3571672    -1373.221    1954.1225   -3458.8082   -2614.9772   -310.60315   -316.06447    150.73535    82.720412 
   44500    116.02198   -111.03336   0.10497912   -110.92838    209.23169    4.3562409    4.3562409    4.3562409    209.23169    7292.0832   -2994.3549   -3670.0333    1200.6978   -1201.8695   -287.49919    82.667662 
   44600    107.02034   -111.02523  0.096834249    -110.9284    1823.7432    4.3557488    4.3557488    4.3557488    1823.7432     7165.533   -354.03968   -1340.2637   -874.47914    521.73756    1031.8798    82.639654 
   44700    114.07389   -111.03134   0.10321645   -110.92812   -815.71441    4.3575112    4.3575112    4.3575112   -815.71441    3821.9388   -2892.7242   -3376.3578    -571.5233    459.60515     340.5489    82.740005 
   44800    67.168199   -110.98932  0.060775198   -110.92854   -579.34943    4.3554567    4.3554567    4.3554567   -579.34943   -308.57685   -82.108615   -1347.3628    131.03732   -418.77332    825.77858    82.623026 
   44900     97.53499   -111.01658  0.088251708   -110.92833   -1862.5161    4.3571226    4.3571226    4.3571226   -1862.5161    953.08473   -2734.3303   -3806.3026    761.20979   -1166.4721   -148.42767    82.717871 
   45000    108.36605   -111.02625  0.098051877    -110.9282   -744.95969    4.3570462    4.3570462    4.3570462   -744.95969    4430.8153   -4046.2497   -2619.4447   -783.37766    1024.6991   -24.708779     82.71352 
   45100    75.882571   -110.99738  0.068660145   -110.92872    1446.0726    4.3551311    4.3551311    4.3551311    1446.0726    5653.3014    1398.0146   -2713.0981    63.601405   -1725.0482    654.93441    82.604499 
   45200    138.71761   -111.05371   0.12551461   -110.92819    -2184.694    4.3581504    4.3581504    4.3581504    -2184.694    1035.9675   -4796.5141   -2793.5356    -10.72215    1133.4223    3.3069521    82.776418 
   45300    100.89162   -111.01957  0.091288862   -110.92828    431.93494    4.3556838    4.3556838    4.3556838    431.93494    1937.1222    1066.9328   -1708.2502   -502.29594   -946.78413    571.54196    82.635951 
   45400    104.62169   -111.02287  0.094663906    -110.9282   -2060.7821    4.3565953    4.3565953    4.3565953   -2060.7821   -769.15996   -2857.8409   -2555.3456    620.91706   -263.39939    9.2659564    82.687839 
   45500    73.429054   -110.99463  0.066440151   -110.92819    906.56172     4.357601     4.357601     4.357601    906.56172    6599.2692   -1746.7751   -2132.8089    88.955142   -603.47039    347.92895    82.745119 
   45600    86.421313   -111.00636   0.07819582   -110.92816    996.55442    4.3547156    4.3547156    4.3547156    996.55442    2220.8813    836.75222   -67.970239   -297.96052    481.72944   -77.140525    82.580857 
   45700    102.49773   -111.02097  0.092742101   -110.92823   -1328.8743    4.3576518    4.3576518    4.3576518   -1328.8743     -1053.74   -1722.4623   -1210.4206   -573.77503   -653.23778    955.12404    82.748015 
   45800    114.81938   -111.03194   0.10389099   -110.92804    1297.6414    4.3564805    4.3564805    4.3564805    1297.6414    7441.7091   -1172.9421   -2375.8429    1334.0529   -998.92179   -163.06219    82.681303 
   45900    142.58164     -111.057   0.12901086   -110.92799    34.391516    4.3554492    4.3554492    4.3554492    34.391516    2369.1888   -1939.5303   -326.48395   -98.554818    23.557646   -188.69786      82.6226 
   46000    55.782117   -110.97903  0.050472832   -110.92856    2277.1637    4.3576391    4.3576391    4.3576391    2277.1637    11621.067   -952.54599   -3837.0301   -326.87709   -274.67849    261.67133    82.747291 
   46100    124.18225   -111.04057   0.11236271    -110.9282   -1744.2403    4.3556546    4.3556546    4.3556546   -1744.2403   -3423.5366   -1586.0662   -223.11826   -407.42028    1147.1533    242.16825    82.634292 
   46200    53.589934    -110.9771  0.048489299   -110.92861    1164.9799    4.3564889    4.3564889    4.3564889    1164.9799    2589.5265    1761.6143   -856.20104    412.76459   -1312.4275    403.45996    82.681786 
   46300    108.05268   -111.02627  0.097768339    -110.9285   -2126.4197     4.357608     4.357608     4.357608   -2126.4197    2238.4525   -4667.1744   -3950.5372   -263.94822   -106.56148     139.2498    82.745521 
   46400    109.59399   -111.02746  0.099162945    -110.9283    2364.2357    4.3551752    4.3551752    4.3551752    2364.2357    9632.6523   -600.98019   -1938.9651    223.74123   -1546.9495    534.48211    82.607007 
   46500    128.90493   -111.04481   0.11663589   -110.92818   -1243.2061    4.3574604    4.3574604    4.3574604   -1243.2061    3643.0685   -3444.0087   -3928.6781    281.61682    16.199658   -557.33919    82.737108 
   46600    102.43552   -111.02102  0.092685812   -110.92833    -2117.175    4.3568464    4.3568464    4.3568464    -2117.175    187.36559   -1531.1545   -5007.7361   -87.586777   -1659.4536    1101.1629     82.70214 
   46700     87.83423   -111.00766  0.079474257   -110.92818   -589.23247    4.3561687    4.3561687    4.3561687   -589.23247   -660.03457   -135.83327   -971.82959    787.37295     304.4322     292.9929    82.663555 
   46800      69.3917   -110.99117  0.062787068   -110.92839   -1213.3219    4.3571767    4.3571767    4.3571767   -1213.3219    2962.8182   -2494.5555   -4108.2284    160.42753   -1505.0049    557.12935    82.720951 
   46900    86.951056   -111.00714  0.078675143   -110.92846   -797.14817    4.3566697    4.3566697    4.3566697   -797.14817    3813.6465   -2312.3492   -3892.7418   -102.46732   -463.91806     298.9111    82.692079 
   47000    132.24926     -111.048   0.11966191   -110.92834   -644.86125    4.3562527    4.3562527    4.3562527   -644.86125    2881.8108   -2571.7981   -2244.5965   -1240.8373    873.32728   -105.33186    82.668336 
   47100    119.19377   -111.03618   0.10784903   -110.92833   -1459.4278    4.3569743    4.3569743    4.3569743   -1459.4278    1698.0683   -860.33352   -5216.0181    520.08706   -1900.6216    624.55975    82.709425 
   47200    92.584454   -111.01227  0.083772359   -110.92849    891.68049    4.3563321    4.3563321    4.3563321    891.68049     6056.937   -1861.8134   -1520.0822    565.91122   -715.06185   -58.112645    82.672855 
   47300    101.24509    -111.0199  0.091608687   -110.92829    1148.0763    4.3556911    4.3556911    4.3556911    1148.0763     3779.734    994.92806   -1330.4331    667.72482   -1341.3508    617.42164    82.636369 
   47400    80.848657    -111.0015  0.073153564   -110.92834   -613.30675    4.3575844    4.3575844    4.3575844   -613.30675    4555.5738   -3501.6056   -2893.8885   -234.91211    368.03948   -92.653217    82.744173 
   47500    82.108895   -111.00263  0.074293854   -110.92834    734.61941    4.3556422    4.3556422    4.3556422    734.61941    3042.9782   -156.87853   -682.24149    177.28789   -1204.4921    548.17097    82.633581 
   47600    123.16641   -111.03941   0.11144356   -110.92797   -131.28586    4.3560728    4.3560728    4.3560728   -131.28586    2273.3733   -809.13923   -1858.0917   -20.800633    1357.7459   -143.95039    82.658096 
   47700    83.666141   -111.00411  0.075702883   -110.92841    2171.1463     4.357261     4.357261     4.357261    2171.1463    10790.852   -1933.9467   -2343.4663   -303.97475   -1455.6125    745.25616    82.725751 
   47800    143.88785   -111.05838   0.13019275   -110.92819    214.82911    4.3550768    4.3550768    4.3550768    214.82911     236.9662    413.53447   -6.0133358   -98.375563    108.29329    192.77798    82.601406 
   47900    93.398785   -111.01281  0.084509183    -110.9283    1452.9811    4.3570789    4.3570789    4.3570789    1452.9811    9335.8011   -2643.8538    -2333.004    25.513109    -181.5348   -517.62742    82.715378 
   48000    89.025819   -111.00894  0.080552431   -110.92839   -1905.4634    4.3567452    4.3567452    4.3567452   -1905.4634   -2475.4336   -1442.6652   -1798.2915     343.6639   -135.26731    193.69184    82.696378 
   48100    62.074582   -110.98458  0.056166386   -110.92841    658.90329    4.3550842    4.3550842    4.3550842    658.90329    3792.4084   -305.09593   -1510.6026    299.12208   -989.60058   -6.6058203    82.601831 
   48200     111.5974   -111.02897   0.10097567   -110.92799   -1205.5893    4.3582421    4.3582421    4.3582421   -1205.5893    1018.7781    -2171.941   -2463.6051    775.80908   -684.92787    653.97773    82.781648 
   48300    109.35894    -111.0272  0.098950268   -110.92825    341.06618    4.3553814    4.3553814    4.3553814    341.06618    4256.2681    -1659.022   -1574.0476   -1208.2471    397.79689    141.48766    82.618739 
   48400    119.96038   -111.03668   0.10854267   -110.92814    164.65014    4.3563665    4.3563665    4.3563665    164.65014    5523.6999   -2021.4613   -3008.2882   -640.42545   -616.38592    977.42333    82.674817 
   48500    116.66148   -111.03364   0.10555776   -110.92809   -1748.2796    4.3578738    4.3578738    4.3578738   -1748.2796    2759.0362    -3728.464   -4275.4111    280.54806     824.7008   -639.63322    82.760658 
   48600    70.997861    -110.9926  0.064240357   -110.92836   -772.33856     4.354874     4.354874     4.354874   -772.33856   -229.38151   -151.77769   -1935.8565    921.41695   -2054.9287    729.63067    82.589871 
   48700     87.93207   -111.00776  0.079562785   -110.92819   -1255.6106    4.3577605    4.3577605    4.3577605   -1255.6106    1108.8989   -1566.4431   -3309.2875   -238.60542    1073.4198     513.1841    82.754205 
   48800    97.715814   -111.01653  0.088415322   -110.92812    155.31515    4.3564668    4.3564668    4.3564668    155.31515    5243.8835   -2955.8982   -1822.0399    60.507398   -794.25493     27.59937    82.680524 
   48900    79.143661    -111.0002  0.071610848   -110.92859    1546.4312    4.3553037    4.3553037    4.3553037    1546.4312    8017.2826   -533.55925   -2844.4297     53.36144    730.97251    739.05594    82.614318 
   49000    153.37091   -111.06698   0.13877322   -110.92821   -2698.3029    4.3581751    4.3581751    4.3581751   -2698.3029    2130.0893   -5315.0347   -4909.9634    -880.7123   -482.92935   -265.10953    82.777827 
   49100    104.99687   -111.02349  0.095003375   -110.92848    1225.0262    4.3553848    4.3553848    4.3553848    1225.0262    4215.6961    1118.0622   -1658.6797   -122.32534   -91.027883    941.77889    82.618937 
   49200    99.362401   -111.01833  0.089905188   -110.92843   -498.51473    4.3565956    4.3565956    4.3565956   -498.51473    3164.3784   -1888.3514   -2771.5712    428.82196   -783.34556   -108.37945    82.687856 
   49300    70.677851   -110.99217  0.063950805   -110.92822    1279.5598    4.3572048    4.3572048    4.3572048    1279.5598    6365.4156   -1102.6078   -1424.1283   -68.528419    901.76944    813.58778    82.722553 
   49400     75.89586   -110.99684  0.068672169   -110.92817    873.57167    4.3552981    4.3552981    4.3552981    873.57167    4345.1094   -833.78707   -890.60733    104.17353    667.06259   -102.63543    82.614001 
   49500    121.25191   -111.03782   0.10971128    -110.9281   -3198.8235    4.3573947    4.3573947    4.3573947   -3198.8235   -2728.4501   -3475.0684   -3392.9519    1319.2752   -1296.1194    245.30507     82.73337 
   49600    104.94591   -111.02317  0.094957266   -110.92821    1499.8202    4.3566985    4.3566985    4.3566985    1499.8202    6914.8071    556.11508   -2971.4616   -812.19366    1329.3696     12.01016     82.69372 
   49700    145.33196   -111.05963   0.13149942   -110.92813   -276.99819    4.3557839    4.3557839    4.3557839   -276.99819    2805.1477   -2154.8189   -1481.3233   -1491.7502   -184.55408    364.61049    82.641648 
   49800    52.243304   -110.97598   0.04727084   -110.92871    2246.2569    4.3569684    4.3569684    4.3569684    2246.2569    8439.6955    783.88134   -2484.8062   -74.748861    243.83104    554.07016    82.709087 
   49900    126.87361   -111.04281   0.11479791   -110.92801   -3113.6125    4.3568931    4.3568931    4.3568931   -3113.6125   -3985.9645   -3727.4366   -1627.4364     919.4201    -767.7731   -620.47862    82.704798 
   50000    64.079399   -110.98637  0.057980387   -110.92839   -73.867471    4.3557738    4.3557738    4.3557738   -73.867471    214.69193    803.52045   -1239.8148   -54.035838     298.6921    501.75707    82.641074 
   50100    95.220011    -111.0145  0.086157067   -110.92834   -1584.0917    4.3578416    4.3578416    4.3578416   -1584.0917    2508.3579   -3156.2775   -4104.3556    542.21989   -1433.1023   -305.19038    82.758826 
   50200    114.86736   -111.03225    0.1039344   -110.92832    2226.4799     4.355546     4.355546     4.355546    2226.4799    8280.8662    121.86186   -1723.2885    239.48927    1478.0151     785.1904     82.62811 
   50300    109.14874   -111.02715  0.098760076   -110.92839    1048.5488    4.3562523    4.3562523    4.3562523    1048.5488    5196.2049   -1350.8329   -699.72547   -981.41631    767.79516     45.90117    82.668315 
   50400    127.60499   -111.04368   0.11545967   -110.92822   -3111.9657     4.358067     4.358067     4.358067   -3111.9657   -161.94846   -3958.9714   -5214.9773   -424.75461   -411.88606    977.44033    82.771669 
   50500    84.638153   -111.00488   0.07658238    -110.9283    990.38024    4.3552043    4.3552043    4.3552043    990.38024    2144.5622    837.04795   -10.469403    690.91424   -327.54388   -215.20341    82.608663 
   50600    78.747996   -110.99962  0.071252841   -110.92837   -688.79533    4.3571776    4.3571776    4.3571776   -688.79533    5408.7242   -3267.5692    -4207.541   -285.52617   -357.99113    232.68686    82.721001 
   50700    77.606676   -110.99879  0.070220151   -110.92857    181.83329    4.3568913    4.3568913    4.3568913    181.83329    4333.7616   -311.84594   -3476.4158   -284.71408    16.237192    912.98529    82.704699 
   50800    115.56616   -111.03298   0.10456669   -110.92841    338.94949    4.3554455    4.3554455    4.3554455    338.94949    2908.3514   -2229.4899    337.98702    1406.7687   -926.16301   -359.02425    82.622388 
   50900    126.27132   -111.04261   0.11425294   -110.92835   -2444.3684    4.3579955    4.3579955    4.3579955   -2444.3684     2072.654   -3733.3783   -5672.3808   -98.857133    79.526876    1083.8384    82.767596 
   51000    99.496747    -111.0184  0.090026747   -110.92838    387.14031    4.3559985    4.3559985    4.3559985    387.14031    4919.8685   -1587.1211   -2171.3264   -1101.0209   -1034.8774   -405.39232    82.653864 
   51100    114.97929   -111.03194   0.10403567   -110.92791    10.788271    4.3560035    4.3560035    4.3560035    10.788271     3837.205   -853.13306   -2951.7072   -285.01381     1262.407    1044.0125    82.654152 
   51200    73.102787   -110.99427  0.066144938   -110.92812   -989.74795    4.3577542    4.3577542    4.3577542   -989.74795     2351.329   -2160.7169   -3159.8559    671.32959   -828.88824    314.08542    82.753845 
   51300    77.978412   -110.99882  0.070556506   -110.92826   -685.28003    4.3556764    4.3556764    4.3556764   -685.28003   -959.56602   -829.72191   -266.55217   -267.63992   -228.06667    533.33138    82.635531 
   51400    106.04511   -111.02401  0.095951841   -110.92806    -933.3639    4.3566305    4.3566305    4.3566305    -933.3639    1854.0669   -3143.6267   -1510.5319    617.89857   -1203.6157    127.60861    82.689845 
   51500    94.692479   -111.01413  0.085679745   -110.92845    402.47972    4.3570751    4.3570751    4.3570751    402.47972    7020.8823   -2556.4361   -3257.0071    563.07136   -964.53749   -65.497925    82.715166 
   51600    149.01484   -111.06296   0.13483176   -110.92812   -349.09356    4.3556094    4.3556094    4.3556094   -349.09356    874.61708    37.403329   -1959.3011   -883.96229    85.108079    195.53521    82.631717 
   51700    95.914503   -111.01507  0.086785458   -110.92828    1866.9652    4.3567733    4.3567733    4.3567733    1866.9652    8612.4638   -1664.7395   -1346.8287   -522.57631     429.0993    16.598473    82.697977 
   51800    88.385224   -111.00829  0.079972808   -110.92831   -1177.1409    4.3566676    4.3566676    4.3566676   -1177.1409   -1557.6037   -891.89987    -1081.919    683.35386   -1079.0799    913.12356    82.691961 
   51900    62.905244   -110.98542  0.056917987    -110.9285    1006.8886    4.3554234    4.3554234    4.3554234    1006.8886    4433.0876   -1597.9183    185.49647   -105.36505   -781.40537   -662.74461     82.62113 
   52000    101.67324   -111.02032   0.09199608   -110.92832    39.131795    4.3572824    4.3572824    4.3572824    39.131795    4583.8489   -2315.0657   -2151.3879   -637.26445    850.54768    704.72331    82.726969 
   52100    121.99463   -111.03878   0.11038331   -110.92839    279.58308    4.3561349    4.3561349    4.3561349    279.58308    4366.9701   -881.69943   -2646.5215    849.90243   -944.19955   -110.04936    82.661627 
   52200     110.4278   -111.02841  0.099917391   -110.92849    2042.1159    4.3556702    4.3556702    4.3556702    2042.1159    8601.7008   -1059.4137   -1415.9393     271.6253   -497.03049    386.86702    82.635177 
   52300    116.00746    -111.0332   0.10496598   -110.92824   -161.22325    4.3572797    4.3572797    4.3572797   -161.22325     4075.675   -1851.2371   -2708.1076    -316.5659   -690.33067     243.4799    82.726818 
   52400    82.642109    -111.0031  0.074776317   -110.92833   -282.90773    4.3556799    4.3556799    4.3556799   -282.90773    1933.7776   -2086.4536   -696.04712   -554.99426   -491.82624    335.21162    82.635729 
   52500    86.467957   -111.00629  0.078238024   -110.92805   -610.42161    4.3565825    4.3565825    4.3565825   -610.42161    2160.6495   -1058.3249   -2933.5893    260.13138    -679.6076     244.8115    82.687115 
   52600    98.047313   -111.01674   0.08871527   -110.92803   -844.57292    4.3573108    4.3573108    4.3573108   -844.57292    4119.9671   -3298.8996   -3354.7862   -627.45075    730.30832   -221.97772    82.728591 
   52700    79.111351   -111.00006  0.071581613   -110.92848    579.12173    4.3552834    4.3552834    4.3552834    579.12173    4618.6364   -54.481578   -2826.7897    210.16822   -1415.2076    1256.9002    82.613163 
   52800    132.12498   -111.04762   0.11954946   -110.92807   -2119.5689    4.3576835    4.3576835    4.3576835   -2119.5689    1001.8643   -3885.5794   -3474.9916    388.88838   -1234.5581   -361.73493    82.749818 
   52900    116.03145   -111.03304    0.1049877   -110.92805   -460.75449    4.3565327    4.3565327    4.3565327   -460.75449    3271.1044   -2532.2846   -2121.0832   -343.69492    219.87907      895.719    82.684279 
   53000    103.34223   -111.02163  0.093506219   -110.92813   -1041.7475    4.3559427    4.3559427    4.3559427   -1041.7475    1435.0782   -1240.6434   -3319.6774   -265.07948   -220.95273   -97.002888    82.650686 
   53100    79.265817   -110.99983  0.071721377   -110.92811   -292.21905    4.3579134    4.3579134    4.3579134   -292.21905     6131.593   -3505.4445   -3502.8056    32.164453   -253.32045    464.97886    82.762917 
   53200     72.52032   -110.99385   0.06561791   -110.92823    138.14996     4.355411     4.355411     4.355411    138.14996     1967.913    271.81449   -1825.2776    311.22036   -956.18376    640.68029    82.620427 
   53300    107.97303   -111.02594  0.097696265   -110.92824   -2585.8606    4.3571646    4.3571646    4.3571646   -2585.8606   -2728.0688   -3903.6064   -1125.9065   -871.55782   -849.86237     126.0617    82.720259 
   53400    100.30926   -111.01914  0.090761928   -110.92838    1593.3017    4.3569954    4.3569954    4.3569954    1593.3017    8729.2001   -1527.2289   -2422.0662    58.531639   -162.83628    378.16495    82.710627 
   53500    146.49985   -111.06086   0.13255614    -110.9283    427.79677    4.3552265    4.3552265    4.3552265    427.79677    3970.8232   -1759.5144    -927.9184    132.53908    243.90341   -256.18206    82.609925 
   53600    79.042393   -111.00015  0.071519218   -110.92863    1619.4811    4.3575365    4.3575365    4.3575365    1619.4811    10198.809   -1157.3232   -4183.0429    437.63658   -702.65187    352.06608    82.741445 
   53700    109.51182   -111.02739  0.099088599    -110.9283   -1159.9921    4.3560144    4.3560144    4.3560144   -1159.9921   -1779.8037   -1165.0011    -535.1715   -587.32101    177.94003   -262.82245    82.654768 
   53800    75.256499   -110.99646  0.068093662   -110.92836   -156.14559    4.3562235    4.3562235    4.3562235   -156.14559   -151.84377   -519.05689    202.46389    190.69785    8.7360609    789.51769    82.666671 
   53900     69.81507   -110.99154  0.063170143   -110.92837    600.84729    4.3573783    4.3573783    4.3573783    600.84729    6727.9311   -3425.0291   -1500.3601   -225.37154     314.7776   -375.00106    82.732434 
   54000    124.82291   -111.04109   0.11294239   -110.92815    971.27152    4.3554817    4.3554817    4.3554817    971.27152    4879.2719    -421.7025   -1543.7548   -219.32292     270.0227    353.27621    82.624449 
   54100    118.60942   -111.03546   0.10732029   -110.92814    226.28074    4.3571287    4.3571287    4.3571287    226.28074    5569.1551   -1566.8439    -3323.469    73.662215   -1044.3834    313.43958     82.71822 
   54200     126.6161   -111.04272    0.1145649   -110.92815   -2339.4908    4.3569811    4.3569811    4.3569811   -2339.4908   -892.66932   -2457.9583   -3667.8449   -11.780346   -1369.4087    45.843582     82.70981 
   54300    83.804932   -111.00401  0.075828463   -110.92818    514.24599    4.3560566    4.3560566    4.3560566    514.24599    1826.6119      254.845   -538.71889    347.19902    826.18573    306.52028    82.657171 
   54400    70.290625    -110.9918  0.063600435    -110.9282   -491.60277    4.3570713    4.3570713    4.3570713   -491.60277    4117.6788    -4212.835   -1379.6522   -688.84685    481.25962   -72.483276    82.714946 
   54500    82.377182   -111.00277  0.074536605   -110.92824   -839.47191    4.3565469    4.3565469    4.3565469   -839.47191    2368.6351   -1161.3602   -3725.6907    678.69603   -695.16486    311.19728    82.685086 
   54600    115.08985   -111.03229   0.10413571   -110.92815   -780.60531    4.3565451    4.3565451    4.3565451   -780.60531    1540.0341   -1686.2756   -2195.5745   -562.82535    420.74323   -293.98416    82.684983 
   54700    128.85764   -111.04475    0.1165931   -110.92815   -1973.7341    4.3569973    4.3569973    4.3569973   -1973.7341    1774.9146   -2751.2389    -4944.878   -356.05676   -290.60202    1057.0947    82.710732 
   54800    94.303324   -111.01377  0.085327629   -110.92845     1174.966    4.3563508    4.3563508    4.3563508     1174.966    6809.8929   -1770.8483   -1514.1466   -111.80577   -456.65077   -56.745686    82.673921 
   54900    108.84126   -111.02675  0.098481864   -110.92827    453.55936    4.3561345    4.3561345    4.3561345    453.55936    4627.4162   -2213.2463   -1053.4918    1015.1162    269.08479     429.8855    82.661609 
   55000    89.008764   -111.00896     0.080537   -110.92842   -1309.7332    4.3572445    4.3572445    4.3572445   -1309.7332     3142.215   -3661.0516    -3410.363    44.097984   -509.05597     354.2843    82.724811 
   55100    70.147774   -110.99216   0.06347118   -110.92869   -104.12942    4.3561975    4.3561975    4.3561975   -104.12942    1754.5578   -391.85872   -1675.0873    86.233521   -1164.5817     19.66189    82.665194 
   55200    116.14221   -111.03345   0.10508791   -110.92836   -1220.2945    4.3562686    4.3562686    4.3562686   -1220.2945    1144.6633   -2063.3841   -2742.1626    363.51347    1081.1958    489.77034    82.669242 
   55300    83.558886   -111.00425  0.075605836   -110.92864    2220.8453    4.3569285    4.3569285    4.3569285    2220.8453    10503.396   -2670.5076   -1170.3524   -746.13042    1067.8402   -136.60859    82.706815 
   55400    142.20849     -111.057   0.12867323   -110.92832   -51.621271    4.3556066    4.3556066    4.3556066   -51.621271     1289.269   -621.14186   -822.99094   -97.827229    -552.3461    327.18063    82.631556 
   55500    108.28978   -111.02623  0.097982866   -110.92825    286.50303      4.35698      4.35698      4.35698    286.50303    6563.4547   -3228.8116    -2475.134   -9.5106005   -733.75552   -76.424911    82.709748 
   55600    83.350252   -111.00365  0.075417059   -110.92823   -882.75605    4.3567659    4.3567659    4.3567659   -882.75605    664.35694   -1199.9254   -2112.6996    1183.7983   -280.69098    420.51643    82.697558 
   55700    78.155554   -110.99888  0.070716787   -110.92816   -541.97233    4.3554548    4.3554548    4.3554548   -541.97233   -105.14422   -3.9547699    -1516.818   -501.83779   -406.82687   -90.438236    82.622918 
   55800    81.596593   -111.00194  0.073830312   -110.92811    481.68914     4.357665     4.357665     4.357665    481.68914    4190.8975   -2670.8664   -74.963726    1420.9017    425.76425    472.39178    82.748766 
   55900    121.17785   -111.03774   0.10964427    -110.9281   -300.18713    4.3557078    4.3557078    4.3557078   -300.18713    1628.2429   -1125.3953   -1403.4091    53.111614   -754.41114   -107.40499     82.63732 
   56000    105.48773   -111.02369  0.095447512   -110.92825    1094.9075    4.3561315    4.3561315    4.3561315    1094.9075    5811.9347   -1085.0007   -1442.2115   -611.47182   -532.51616   -96.169731    82.661435 
   56100    135.35152   -111.05044    0.1224689   -110.92797   -1909.0013    4.3578162    4.3578162    4.3578162   -1909.0013    2010.9834   -2945.0994    -4792.888   -288.18752   -25.260932    390.26932    82.757382 
   56200    82.332073   -111.00275   0.07449579   -110.92825    472.94282    4.3549461    4.3549461    4.3549461    472.94282    1770.0538   -11.229638   -339.99575     534.7723   -68.785184   -31.781701    82.593974 
   56300    83.431204   -111.00375  0.075490307   -110.92826   -561.21889    4.3577017    4.3577017    4.3577017   -561.21889    1301.8481   -1481.8406   -1503.6642    339.41495   -26.092079    99.545086    82.750856 
   56400    84.463543    -111.0046  0.076424388   -110.92818    445.51464    4.3562551    4.3562551    4.3562551    445.51464    5300.1116     -3354.98   -608.58764   -188.09137   -681.55062   -111.06038    82.668473 
   56500    79.538002   -111.00044  0.071967656   -110.92847    1173.8886    4.3553135    4.3553135    4.3553135    1173.8886    4170.1133    565.29436   -1213.7418    1145.7897    -898.2398    426.43337     82.61488 
   56600    147.87704   -111.06195   0.13380226   -110.92814   -2843.6722    4.3583876    4.3583876    4.3583876   -2843.6722    1815.8073   -4256.7473   -6090.0765   -767.56918    363.79627   -159.91332    82.789938 
   56700    114.07117   -111.03159   0.10321399   -110.92837    1365.8033    4.3551355    4.3551355    4.3551355    1365.8033    4756.1487   -429.82588   -228.91293     321.2741    586.41751    836.30719    82.604748 
   56800    101.02725   -111.01981  0.091411577    -110.9284    370.80845    4.3567449    4.3567449    4.3567449    370.80845    5605.1012   -1754.6781   -2737.9977   -151.15539   -1743.0112   -12.696839     82.69636 
   56900    78.115157   -110.99906  0.070680235   -110.92838   -100.03127    4.3570873    4.3570873    4.3570873   -100.03127    4122.3598   -3632.3527   -790.10088     721.7066    -733.2343    139.37384    82.715856 
   57000    66.201687   -110.98835  0.059900677   -110.92845    292.56059    4.3552474    4.3552474    4.3552474    292.56059    3223.6909   -407.48312    -1938.526   -754.31797    216.78318    532.49381    82.611114 
   57100    124.01047   -111.04039   0.11220728   -110.92818    -3939.459    4.3581081    4.3581081    4.3581081    -3939.459   -3832.0718   -3969.0094   -4017.2958    1011.8597     -282.764   -34.879515    82.774012 
   57200    93.925806   -111.01338  0.084986044    -110.9284    1543.8999    4.3560412    4.3560412    4.3560412    1543.8999    7184.0581    242.21259   -2794.5711   -154.48808   -126.88835    314.67862    82.656294 
   57300    138.98918   -111.05389   0.12576033   -110.92813   -63.226383    4.3562311    4.3562311    4.3562311   -63.226383     4185.357   -3659.5373   -715.49892   -1237.9054     82.41526   -63.979422    82.667109 
   57400     79.49004   -111.00029  0.071924259   -110.92836    774.54906    4.3572265    4.3572265    4.3572265    774.54906    5165.7678   -590.35164    -2251.769    99.832227   -1716.5997    176.55766     82.72379 
   57500    112.11536   -111.02944   0.10144434   -110.92799   -2614.1305    4.3563882    4.3563882    4.3563882   -2614.1305   -1862.0008   -3577.9388    -2402.452    191.18279   -459.08757   -5.1806759    82.676051 
   57600    80.522379   -111.00101  0.072858341   -110.92815    -1093.039    4.3566428    4.3566428    4.3566428    -1093.039   -1556.7899    -171.3158   -1551.0112    707.94531    426.95948    640.01986    82.690544 
   57700    76.775586   -110.99757  0.069468164   -110.92811   -3.6385062    4.3571196    4.3571196    4.3571196   -3.6385062    5031.4894   -1509.2757   -3533.1292   -389.02105   -1675.4692   -141.35626      82.7177 
   57800    112.50713   -111.02994   0.10179881   -110.92814    1091.1559    4.3560576    4.3560576    4.3560576    1091.1559    4432.8972   -1624.9118    465.48215     1204.448   -557.94463    285.85466    82.657227 
   57900    106.12124   -111.02435  0.096020728   -110.92833    1361.2303    4.3562755    4.3562755    4.3562755    1361.2303    5846.9715   -394.50198   -1368.7785   -1410.1046     75.19486    33.900882    82.669633 
   58000    142.43065   -111.05714   0.12887425   -110.92827   -2651.7048    4.3574739    4.3574739    4.3574739   -2651.7048   -524.50285   -3766.2609   -3664.3507   -486.89669    541.26383    71.145804     82.73788 
   58100    82.894888   -111.00362  0.075005037   -110.92862    1780.0519    4.3555039    4.3555039    4.3555039    1780.0519     5849.948    1159.5292   -1669.3213   -35.131184   -201.06964     208.9724    82.625711 
   58200    86.561251   -111.00677  0.078322439   -110.92845     72.44246    4.3568464    4.3568464    4.3568464     72.44246    5151.4465   -2522.1956   -2411.9235    77.654203   -488.84187    164.57796    82.702139 
   58300    68.834959    -110.9908  0.062283317   -110.92852     904.1914    4.3568882    4.3568882    4.3568882     904.1914    4323.0978   -410.72417   -1199.7994   -225.89584   -1527.8806     21.38448    82.704518 
   58400    107.45738   -111.02547    0.0972297   -110.92824   -445.60939    4.3553961    4.3553961    4.3553961   -445.60939    289.62498   -1925.3491    298.89593    865.56654    21.684696    61.571533     82.61958 
   58500    117.58254   -111.03466   0.10639115   -110.92827   -1252.9457    4.3577803    4.3577803    4.3577803   -1252.9457     3594.545   -2639.7176   -4713.6643    320.20544     251.8539     969.5215    82.755333 
   58600    126.54977   -111.04278   0.11450489   -110.92827   -392.32509    4.3563443    4.3563443    4.3563443   -392.32509      4280.83   -1766.4954   -3691.3099   -1534.3349   -181.37939   -177.39532    82.673549 
   58700    94.840379   -111.01422  0.085813568   -110.92841    1260.6078     4.355628     4.355628     4.355628    1260.6078    5988.4432   -360.76504   -1845.8546   -54.188828   -5.4356173    874.51541    82.632779 
   58800    100.94081   -111.01963  0.091333367   -110.92829   -2513.6765    4.3583362    4.3583362    4.3583362   -2513.6765   -548.34256   -3669.9778   -3322.7092   -360.45216   -510.26491    10.787779    82.787008 
   58900     53.53288   -110.97695  0.048437675   -110.92852    136.22589    4.3552201    4.3552201    4.3552201    136.22589    506.69363   -699.58413    601.56818    202.14079    167.07604    60.646974     82.60956 
   59000    106.95516   -111.02489  0.096775277   -110.92811   -2578.8215    4.3571146    4.3571146    4.3571146   -2578.8215    -815.9704   -3025.9387   -3894.5555   -462.26798    196.08615    528.60277    82.717417 
   59100    99.509894   -111.01826  0.090038644   -110.92823    380.84338    4.3573242    4.3573242    4.3573242    380.84338    6982.5064   -1943.8302   -3896.1461    960.12448   -931.74418    166.85929    82.729352 
   59200    139.98776   -111.05477   0.12666387   -110.92811   -1.8438274    4.3550664    4.3550664    4.3550664   -1.8438274    876.07944    569.13158   -1450.7425    -1158.438   -1407.4507    178.22109    82.600818 
   59300    107.06159   -111.02506  0.096871577   -110.92819     80.95916    4.3577773    4.3577773    4.3577773     80.95916    6045.9784   -2965.9385   -2837.1624   -524.16678     1157.859    106.89913    82.755161 
   59400    79.162462   -110.99985   0.07162786   -110.92822     283.6262    4.3560934    4.3560934    4.3560934     283.6262    875.08996   -509.96219    485.75085    777.89961   -97.226521    366.90111    82.659267 
   59500    88.605321    -111.0083  0.080171956   -110.92813   -826.79778    4.3555593    4.3555593    4.3555593   -826.79778    1042.1454   -1653.7634   -1868.7754   -359.31757   -105.74732   -55.251647    82.628865 
   59600    70.153395   -110.99176  0.063476266   -110.92829    1277.9822    4.3577399    4.3577399    4.3577399    1277.9822    6261.3826   -408.88938   -2018.5465   -139.85305    71.850163    905.13009    82.753031 
   59700    142.34407   -111.05693    0.1287959   -110.92813   -411.47636    4.3554377    4.3554377    4.3554377   -411.47636    1007.9895   -536.19546   -1706.2231    312.24427   -648.32878   -360.65756    82.621943 
   59800    78.602539   -110.99991  0.071121229   -110.92879    3466.8234    4.3560196    4.3560196    4.3560196    3466.8234    10393.182    180.51359   -173.22542    396.36791   -42.301775    63.529911    82.655068 
   59900    138.76784   -111.05395   0.12556005   -110.92839   -1499.2143    4.3572741    4.3572741    4.3572741   -1499.2143    610.83697   -2751.5719    -2356.908   -1339.6254    1097.7944    232.21452    82.726498 
   60000    88.130984    -111.0083  0.079742767   -110.92855    1491.6912    4.3550849    4.3550849    4.3550849    1491.6912    6277.4223   -733.10445   -1069.2442    131.15787   -113.96392    341.77333    82.601869 
   60100    96.762778   -111.01582  0.087552995   -110.92826   -1232.6045    4.3574143    4.3574143    4.3574143   -1232.6045    117.24157   -804.33866   -3010.7164   -1.3818031   -1396.5965    203.34446    82.734486 
   60200    79.460425   -111.00013  0.071897462   -110.92823   -94.164562    4.3567576    4.3567576    4.3567576   -94.164562    5206.5441   -2156.2484   -3332.7894    492.73274    762.75505    348.48564    82.697084 
   60300    79.103888   -110.99989   0.07157486   -110.92831    605.56233    4.3554417    4.3554417    4.3554417    605.56233    1427.3686    -343.8607    733.17907    406.77498    4.5232479      289.243    82.622173 
   60400    121.75455   -111.03833   0.11016607   -110.92816   -2439.2538     4.357773     4.357773     4.357773   -2439.2538    1265.7675   -3684.0951   -4899.4338     813.9817   -339.13915   -91.536935    82.754918 
   60500    123.43826    -111.0398   0.11168953   -110.92811   -443.73904     4.356354     4.356354     4.356354   -443.73904    2811.8471   -2199.5752    -1943.489   -805.26076   -246.37382     1373.826    82.674105 
   60600    117.83952   -111.03472   0.10662368    -110.9281   -360.61662    4.3559578    4.3559578    4.3559578   -360.61662    4515.7689   -1136.7449   -4460.8738   -813.16569   -328.02482   -91.571315    82.651547 
   60700     78.66325   -110.99931  0.071176162   -110.92814   -921.99064    4.3578056    4.3578056    4.3578056   -921.99064    2866.2808   -2496.5048   -3135.7479     648.8038    170.50687    576.99402    82.756772 
   60800    64.058564   -110.98619  0.057961535   -110.92823   -64.300659    4.3556909    4.3556909    4.3556909   -64.300659     2512.715   -1620.0961   -1085.5208   -345.39695    392.15014    286.02592    82.636354 
   60900    108.34922    -111.0261   0.09803665   -110.92806   -2545.8007    4.3568494    4.3568494    4.3568494   -2545.8007   -3464.4547   -2937.4661   -1235.4814    290.59867   -466.08996   -65.459039    82.702311 
   61000    91.652475   -111.01148  0.082929085   -110.92855     940.1722    4.3573157    4.3573157    4.3573157     940.1722    8580.0784   -2343.0789   -3416.4829    325.68525   -1189.9376    626.42067     82.72887 
   61100    144.96203   -111.05948   0.13116469   -110.92831     727.1404    4.3551359    4.3551359    4.3551359     727.1404     5837.595   -1092.5462   -2563.6275    708.66499   -353.94972    278.22684    82.604774 
   61200    95.630514   -111.01492  0.086528499    -110.9284    1532.7334    4.3572565    4.3572565    4.3572565    1532.7334     7599.273    -1019.801   -1981.2719   -363.94929   -9.0771781    99.804321    82.725495 
   61300    101.88594   -111.02037  0.092188538   -110.92818   -1171.5839    4.3567146    4.3567146    4.3567146   -1171.5839    1416.3331   -2419.8202   -2511.2646   -71.269056    828.94536    101.17741    82.694634 
   61400    83.051905   -111.00327  0.075147109   -110.92812    204.80162    4.3554242    4.3554242    4.3554242    204.80162   -1041.1872   -703.79835    2359.3904   -265.29632   -408.75236    707.11135    82.621179 
   61500    67.391361   -110.98923  0.060977119   -110.92825    1044.1474    4.3575753    4.3575753    4.3575753    1044.1474    10327.397   -2816.1459   -4378.8092   -62.118396   -616.45266   -31.190003    82.743657 
   61600    117.73984   -111.03496   0.10653348   -110.92842   -107.38549    4.3558726    4.3558726    4.3558726   -107.38549    1098.5815    93.166352   -1513.9043    525.74374    1.5425928     623.0939    82.646698 
   61700    104.30162   -111.02279  0.094374297   -110.92841    1472.6831    4.3563196    4.3563196    4.3563196    1472.6831    7548.1704   -514.38915   -2615.7321    469.38177    149.39731   -181.59802    82.672143 
   61800    146.02094   -111.06026   0.13212282   -110.92814    -2879.735    4.3576638    4.3576638    4.3576638    -2879.735   -2506.3892   -2874.9538    -3257.862    -130.4217   -1638.8742   -323.95462    82.748699 
   61900    68.996769   -110.99094  0.062429726   -110.92851    1871.3274    4.3554241    4.3554241    4.3554241    1871.3274    6079.6518    -37.56263   -428.10697   -393.74427   -664.69001    511.40403    82.621169 
   62000    102.77809   -111.02101  0.092995776   -110.92802   -1467.5238    4.3572781    4.3572781    4.3572781   -1467.5238    3218.7904   -4000.9688    -3620.393    407.36019   -88.162389    423.10178    82.726724 
   62100    66.241919   -110.98817   0.05993708   -110.92823    50.897921    4.3567116    4.3567116    4.3567116    50.897921    2853.0327    465.12602   -3165.4649    94.348985   -791.20825    358.67156    82.694464 
   62200    110.95814    -111.0285   0.10039726    -110.9281   -2133.3875    4.3562619    4.3562619    4.3562619   -2133.3875   -2390.5396   -1259.6568    -2749.966   -10.333121    795.24235    316.66992    82.668858 
   62300    103.44965   -111.02195   0.09360342   -110.92835   -348.01254    4.3571814    4.3571814    4.3571814   -348.01254    4764.4379   -2491.2826   -3317.1929   -463.54622   -552.12354    572.52195    82.721221 
   62400     123.7336    -111.0403   0.11195676   -110.92834   -382.21625    4.3565666    4.3565666    4.3565666   -382.21625    4535.9724   -2424.0405   -3258.5806    211.43519   -1962.7391   -216.82472     82.68621 
   62500    96.227383   -111.01544  0.087068559   -110.92837    1305.7969    4.3560312    4.3560312    4.3560312    1305.7969    8416.9368   -2000.0226   -2499.5235    280.20127   -332.82984    1166.3236    82.655728 
   62600     118.5043   -111.03528   0.10722518   -110.92805   -2205.3265    4.3572525    4.3572525    4.3572525   -2205.3265    692.34389   -2615.9654   -4692.3581   -166.84885    101.35081    229.22326    82.725268 
   62700     55.62838   -110.97891  0.050333727   -110.92858     569.8704    4.3562009    4.3562009    4.3562009     569.8704    3054.9055    629.18357   -1974.4779   -367.81302   -707.84001   -71.817719    82.665387 
   62800    94.865084   -111.01429  0.085835922   -110.92846   -1091.8837    4.3563171    4.3563171    4.3563171   -1091.8837    2105.1943    -3111.119   -2269.7265   -329.53357   -606.13518    600.86143    82.672002 
   62900    98.672595   -111.01769  0.089281037   -110.92841    1191.9703    4.3569324    4.3569324    4.3569324    1191.9703    8077.4402   -2204.2853   -2297.2439   -25.662926    299.24651    15.715412    82.707038 
   63000    127.78578   -111.04382   0.11562326    -110.9282    599.88585    4.3558371    4.3558371    4.3558371    599.88585    4422.7625   -887.95231   -1735.1526   -107.98996    -397.3356    851.08554    82.644677 
   63100    130.03981   -111.04564   0.11766276   -110.92798    -933.4022    4.3566759    4.3566759    4.3566759    -933.4022    4342.5052   -2729.8399   -4412.8719    1.7638275    392.92734    466.14719    82.692432 
   63200    73.288068    -110.9945  0.066312584   -110.92819    1165.1453    4.3569218    4.3569218    4.3569218    1165.1453    4699.5752    556.09632   -1760.2355   -331.32119   -540.59934    105.52994    82.706433 
   63300    98.774131   -111.01747  0.089372909   -110.92809   -1721.5485    4.3555946    4.3555946    4.3555946   -1721.5485   -1573.5178   -2012.5825   -1578.5453   -552.51028   -901.04853   -24.420846    82.630873 
   63400    52.346266   -110.97571  0.047364001   -110.92834    1617.2314    4.3570525    4.3570525    4.3570525    1617.2314    6566.3148    -1226.831   -487.78964    368.28766   -225.02735    573.02068    82.713877 
   63500    142.56457   -111.05696   0.12899542   -110.92797   -1944.5986    4.3565713    4.3565713    4.3565713   -1944.5986   -1634.8089    -2162.787      -2036.2    61.437327    146.90458    159.68102    82.686473 
   63600    80.668316   -111.00151  0.072990387   -110.92852    2294.6238    4.3554314    4.3554314    4.3554314    2294.6238    7915.9702    1373.8629   -2405.9616   -956.87325   -130.80261    345.01988    82.621589 
   63700    140.90825   -111.05559   0.12749674    -110.9281   -2041.0476    4.3579822    4.3579822    4.3579822   -2041.0476    617.02494   -3110.1449   -3630.0228   -429.59774   -520.33518    244.94045    82.766838 
   63800    97.297016   -111.01637  0.088036385   -110.92834    1150.2684    4.3551574    4.3551574    4.3551574    1150.2684    4081.7819    678.29789   -1309.2747    266.52777   -1139.4022   -553.88884    82.605997 
   63900    80.644502   -111.00141  0.072968841   -110.92845   -176.78914    4.3570764    4.3570764    4.3570764   -176.78914    2175.8417   -2398.3862   -307.82292     126.2473   -341.32716    511.52209    82.715238 
   64000    90.690256   -111.01035  0.082058449   -110.92829   -753.04385    4.3569551    4.3569551    4.3569551   -753.04385    4130.8167   -3008.2315   -3381.7167   -318.04653    1252.1163    466.30143    82.708331 
   64100    72.767321   -110.99427  0.065841401   -110.92843    1625.5106     4.355014     4.355014     4.355014    1625.5106    2457.6762    2438.7685   -19.912932    200.20753   -1038.3664    356.95044    82.597837 
   64200    129.34197   -111.04522   0.11703133   -110.92818   -2164.0369    4.3581423    4.3581423    4.3581423   -2164.0369     3035.351   -3590.4208   -5937.0408   -604.86705   -14.241962    286.44063    82.775957 
   64300    119.57229   -111.03644   0.10819152   -110.92825    1283.6565    4.3555766    4.3555766    4.3555766    1283.6565    4758.3483    11.901971   -919.28079   -190.41184    139.20082    532.10211    82.629848 
   64400    111.06372   -111.02879   0.10049279    -110.9283    867.99603    4.3563016    4.3563016    4.3563016    867.99603    7843.8401   -2766.8276   -2473.0244     193.2705   -37.621772   -56.013599    82.671122 
   64500    87.361041   -111.00755  0.079046106    -110.9285   -1040.6611    4.3573708    4.3573708    4.3573708   -1040.6611    4091.2447   -3523.8548   -3689.3733    284.63036   -269.35697    713.60812    82.732005 
   64600    68.881504   -110.99079  0.062325432   -110.92847    191.56884    4.3553358    4.3553358    4.3553358    191.56884    1784.6237    440.39567   -1650.3128   -1080.3327     565.9477    634.84029    82.616147 
   64700    112.25029   -111.02966   0.10156642   -110.92809   -2775.7517    4.3578078    4.3578078    4.3578078   -2775.7517   -1805.4523   -1813.0109   -4708.7918    755.63269   -578.47623   -507.86572    82.756898 
   64800    81.087131   -111.00174   0.07336934   -110.92837    1064.7695    4.3562066    4.3562066    4.3562066    1064.7695    6919.2569   -1881.8795    -1843.069    518.82041   -6.7120487    789.78104    82.665709 
   64900    135.88534   -111.05098   0.12295191   -110.92802   -178.67048    4.3561173    4.3561173    4.3561173   -178.67048    5079.4979   -2274.3641   -3341.1452   -851.28652    1909.2552    237.72735    82.660627 
   65000     101.8698   -111.02038  0.092173939    -110.9282   -22.414421    4.3573649    4.3573649    4.3573649   -22.414421    5063.5922   -2766.5375    -2364.298   -282.40342   -560.20325     727.6365    82.731673 
   65100    106.26565   -111.02427  0.096151392   -110.92812   -1987.2795    4.3561883    4.3561883    4.3561883   -1987.2795   -153.38829   -1405.2857   -4403.1644    220.82634   -484.45793    691.41507    82.664667 
   65200    92.025813   -111.01131  0.083266889   -110.92805   -818.21332    4.3567529    4.3567529    4.3567529   -818.21332   -1527.6529    349.15224   -1276.1393    858.45448   -460.74066    28.506649    82.696814 
   65300    60.938999   -110.98341  0.055138887   -110.92827    1119.4843    4.3567228    4.3567228    4.3567228    1119.4843    8428.4656   -2345.1543   -2724.8585   -122.26314    158.28171   -24.131826    82.695102 
   65400    107.11578   -111.02515  0.096920607   -110.92823    -502.2802    4.3562561    4.3562561    4.3562561    -502.2802    1149.6704    -1194.824    -1461.687    1036.8835   -140.18556    237.83185    82.668529 
   65500    110.35205   -111.02807  0.099848856   -110.92822    674.22467    4.3566467    4.3566467    4.3566467    674.22467    4867.1041   -1252.0338   -1592.3963    -1201.167    686.05405    357.97821    82.690768 
   65600    140.40382   -111.05528   0.12704033   -110.92823   -1514.4655    4.3568268    4.3568268    4.3568268   -1514.4655    752.46116   -1691.0137    -3604.844   -106.41241   -378.88237   -7.8827149    82.701022 
   65700    89.588735   -111.00976   0.08106177    -110.9287    1901.5233     4.355951     4.355951     4.355951    1901.5233    6606.1967    656.83381   -1558.4606    312.22536    131.55669     674.6322     82.65116 
   65800    89.504151   -111.00937  0.080985237   -110.92838    946.54905    4.3566753    4.3566753    4.3566753    946.54905    7344.0206   -2642.7407   -1861.6328    1183.4385    481.03427   -339.75719    82.692394 
   65900    76.246772   -110.99737  0.068989681   -110.92838   -150.30211    4.3567919    4.3567919    4.3567919   -150.30211    1816.9389    -1387.407   -880.43817   -321.95016    -392.0115    382.37604    82.699036 
   66000     97.85007   -111.01678    0.0885368   -110.92825   -1267.1006    4.3561062    4.3561062    4.3561062   -1267.1006   -503.65664   -1752.3905   -1545.2548    859.72717   -285.79601    770.12622    82.659998 
   66100     103.7047    -111.0221  0.093834192   -110.92827    566.99436    4.3569332    4.3569332    4.3569332    566.99436    5033.8252   -219.07166   -3113.7705    1185.5023   -892.58733    218.97504    82.707081 
   66200    126.02796   -111.04231   0.11403275   -110.92828    227.46113    4.3564948    4.3564948    4.3564948    227.46113    6264.7201    -1973.793   -3608.5438   -733.42173    471.74959    85.285393    82.682117 
   66300    99.154965   -111.01803  0.089717496   -110.92832      990.655    4.3559062    4.3559062    4.3559062      990.655    5950.3401   -561.87626   -2416.4988    302.13695    493.13085    379.80385    82.648611 
   66400    118.80712   -111.03543   0.10749918   -110.92793   -2530.8743    4.3578065    4.3578065    4.3578065   -2530.8743    216.96002   -4786.5939   -3022.9889   -616.27384    493.49548    223.16016    82.756827 
   66500    60.950212   -110.98341  0.055149033   -110.92826   -471.49736    4.3556898    4.3556898    4.3556898   -471.49736    866.36185   -718.38819   -1562.4658    1057.9582   -1578.2448    314.56353    82.636291 
   66600    84.526121   -111.00455   0.07648101   -110.92807   -1445.3477    4.3568066    4.3568066    4.3568066   -1445.3477    205.73333   -927.19533   -3614.5812   -176.46023    727.22031    1148.5348    82.699876 
   66700    101.37197   -111.01972  0.091723489   -110.92799      430.006    4.3572384    4.3572384    4.3572384      430.006    7155.7022   -1995.5841   -3870.1001    2297.6557   -555.68829   -492.05936    82.724464 
   66800    122.91902   -111.03942   0.11121971    -110.9282   -115.05904     4.355325     4.355325     4.355325   -115.05904    1034.5402    484.22931   -1863.9466   -768.81033   -594.32523    553.62659    82.615533 
   66900    125.97851    -111.0422     0.113988   -110.92821   -1858.8024    4.3580145    4.3580145    4.3580145   -1858.8024    4275.6182   -5500.6892   -4351.3363    -63.38694    329.95654    453.14256     82.76868 
   67000     84.96509   -111.00521  0.076878199   -110.92833    998.39694    4.3559125    4.3559125    4.3559125    998.39694     3648.504    224.22421   -877.53739    182.03868   -740.03136    336.28285    82.648967 
   67100    96.477459   -111.01554  0.087294832   -110.92824    -1123.559    4.3558886    4.3558886    4.3558886    -1123.559    878.12595   -1609.4132   -2639.3899    621.35892   -504.69007    837.75863    82.647609 
   67200    64.942344   -110.98708  0.058761197   -110.92832     1058.403    4.3578301    4.3578301    4.3578301     1058.403    5379.5692    938.39582   -3142.7559    90.746915    579.26992    38.762408    82.758172 
   67300    120.47575   -111.03731   0.10900899    -110.9283   -359.71399    4.3552576    4.3552576    4.3552576   -359.71399    426.59348   -1226.2954   -279.44002    -586.5687    339.96885   -221.93889    82.611698 
   67400    99.138327   -111.01827  0.089702442   -110.92857   -54.121839    4.3570364    4.3570364    4.3570364   -54.121839    4373.8735    -1269.379     -3266.86    874.39375   -1784.5831    9.0262883    82.712961 
   67500     111.6821   -111.02958   0.10105231   -110.92853    559.64928    4.3567949    4.3567949    4.3567949    559.64928    4921.8934   -2263.7593   -979.18623   -1057.1569    234.56273    567.55159    82.699207 
   67600    128.54374   -111.04454   0.11630908   -110.92823     641.1375    4.3551238    4.3551238    4.3551238     641.1375    2995.1459    787.27852   -1859.0119    1514.1325   -24.893167   -124.10166    82.604082 
   67700    74.371591    -110.9956  0.067292978   -110.92831    659.67181    4.3575968    4.3575968    4.3575968    659.67181    3598.6056    373.41995   -1993.0101   -1052.9928   -40.599447    633.02168    82.744879 
   67800    92.246263   -111.01155  0.083466358   -110.92809    -880.5195    4.3560633    4.3560633    4.3560633    -880.5195    1457.7375   -2095.4316   -2003.8644    956.90565   -275.87143   -7.6103563    82.657555 
   67900     74.75313   -110.99584  0.067638203    -110.9282    449.64623    4.3559056    4.3559056    4.3559056    449.64623    1220.8822    94.428064    33.628453   -821.08687   -225.31256    151.21308    82.648574 
   68000    107.25231   -111.02524  0.097044141    -110.9282   -1617.1663    4.3576542    4.3576542    4.3576542   -1617.1663    1943.5361   -3314.5706   -3480.4644    1673.5719   -1016.4396    785.24455    82.748151 
   68100    129.52568   -111.04527   0.11719756   -110.92808    572.34396    4.3557511    4.3557511    4.3557511    572.34396    2787.8615    1009.0731   -2079.9028   -1129.3944    239.87707    283.17106    82.639783 
   68200    112.76998   -111.03012   0.10203665   -110.92809    1135.0176    4.3564171    4.3564171    4.3564171    1135.0176    6703.7171   -1128.6102   -2170.0541    -946.9548    83.563549   -291.05137    82.677695 
   68300    101.76004   -111.02017  0.092074619    -110.9281   -1949.2336    4.3574412    4.3574412    4.3574412   -1949.2336    1239.7914   -2334.0874   -4753.4048   -87.576352   -565.71847    187.19581    82.736016 
   68400    57.660365   -110.98039   0.05217231   -110.92822    769.67477    4.3556354    4.3556354    4.3556354    769.67477    4157.0478    -2173.976    325.95245   -128.61618   -35.918521    404.21813      82.6332 
   68500     117.5056   -111.03434   0.10632154   -110.92802   -3305.3927    4.3572353    4.3572353    4.3572353   -3305.3927   -4838.6334   -1429.8747   -3647.6701     1076.615   -812.40527    16.077633    82.724287 
   68600    65.904482   -110.98829   0.05963176   -110.92866    1843.6421    4.3567296    4.3567296    4.3567296    1843.6421    8526.6342   -745.49171   -2250.2161   -957.26013    498.54823    1303.2265    82.695491 
   68700    140.73076   -111.05572   0.12733615   -110.92838   -18.317098    4.3555567    4.3555567    4.3555567   -18.317098    3343.5071   -252.60953   -3145.8488    756.20523   -454.68528   -50.643179    82.628716 
   68800    106.07079   -111.02442  0.095975083   -110.92845    57.577723    4.3573335    4.3573335    4.3573335    57.577723    5971.4699   -2429.2111   -3369.5257   -2074.0866   -894.88629    3.2409113     82.72988 
   68900    109.82751    -111.0277  0.099374237   -110.92833   -1869.5235     4.356799     4.356799     4.356799   -1869.5235    712.68779   -3223.5137   -3097.7446    1026.9199   -327.58934    522.34881    82.699441 
   69000    94.295668   -111.01362  0.085320702    -110.9283   -110.26255    4.3556588    4.3556588    4.3556588   -110.26255    749.45735   -757.07212   -323.17287    -1593.513    1377.5261    192.64318    82.634531 
   69100    65.695562   -110.98779  0.059442725   -110.92835     584.2732    4.3575925    4.3575925    4.3575925     584.2732    6163.2964   -1079.1416   -3331.3352    93.519079   -124.86923    204.10401    82.744637 
   69200    89.114197   -111.00912  0.080632398   -110.92849    9.5156141    4.3557981    4.3557981    4.3557981    9.5156141     2738.489   -470.71268   -2239.2294   -1232.8506    266.10095    167.59422    82.642458 
   69300    114.64364   -111.03197   0.10373197   -110.92824   -431.13241    4.3564685    4.3564685    4.3564685   -431.13241    2146.0607   -1883.1118   -1556.3461    660.70571    5.9421001   -210.70124    82.680621 
   69400    137.48947   -111.05258   0.12440336   -110.92817   -2120.7686    4.3578339    4.3578339    4.3578339   -2120.7686    1755.8094   -3979.0719   -4139.0433   -100.67055   -1088.6334   -55.847007    82.758386 
   69500    94.961333   -111.01432  0.085923009    -110.9284    1536.7724    4.3552011    4.3552011    4.3552011    1536.7724    5435.3556   -1358.8273    533.78897   -968.93341   -44.548571    859.48201     82.60848 
   69600    96.417432   -111.01535  0.087240519   -110.92811     461.2926    4.3571289    4.3571289    4.3571289     461.2926    6323.3547   -1909.2651   -3030.2117   -53.251603     775.4028   -159.19277    82.718227 
   69700      72.1773   -110.99368  0.065307538   -110.92837    132.48372    4.3567134    4.3567134    4.3567134    132.48372    2225.4686   -445.12444    -1382.893   -1623.4048   -498.94082     373.2508    82.694566 
   69800    96.398188   -111.01551  0.087223106   -110.92829   -1557.9166    4.3556743    4.3556743    4.3556743   -1557.9166   -2219.5081   -1708.4575   -745.78434    920.89856   -185.35104    126.15788    82.635413 
   69900    100.43924   -111.01908  0.090879533    -110.9282   -145.24263    4.3577116    4.3577116    4.3577116   -145.24263    5483.7411   -3372.9647   -2546.5044   -1431.0925    1440.4021   -113.39916    82.751421 
   70000    123.43436   -111.03985     0.111686   -110.92816     614.7427    4.3560308    4.3560308    4.3560308     614.7427    4843.6662   -1843.1092   -1156.3289    833.88707   -288.69955    483.55791    82.655702 
   70100     94.46294   -111.01375  0.085472053   -110.92828    2319.2276    4.3557788    4.3557788    4.3557788    2319.2276    10624.263   -1610.2644   -2056.3153   -2032.5733   -283.20865    518.34792    82.641359 
   70200    133.51715   -111.04878   0.12080912   -110.92798   -2603.9933     4.357877     4.357877     4.357877   -2603.9933     -3034.04   -1180.2249   -3597.7151    735.78368    -552.6578   -230.79922    82.760843 
   70300    59.755775   -110.98262  0.054068281   -110.92855    365.27797    4.3556386    4.3556386    4.3556386    365.27797    4098.2802    -1976.074   -1026.3722   -229.40591   -96.078553   -140.04126    82.633378 
   70400    93.767366   -111.01327  0.084842684   -110.92843    -2140.751    4.3571361    4.3571361    4.3571361    -2140.751   -1084.7829   -2752.9437   -2584.5265    495.77777    122.50414    610.82662    82.718639 
   70500    80.803238    -111.0015  0.073112468   -110.92839    1235.4475    4.3569399    4.3569399    4.3569399    1235.4475    8227.5103   -2376.2718    -2144.896   -882.10203    1186.1902   -112.36275    82.707462 
   70600    126.53353   -111.04267    0.1144902   -110.92818   -545.01946    4.3556834    4.3556834    4.3556834   -545.01946    76.393694    388.62882   -2100.0809   -591.11849   -152.97202    1135.7044     82.63593 
   70700    117.37797   -111.03436   0.10620605   -110.92815    -987.6468    4.3574308    4.3574308    4.3574308    -987.6468    3905.7629   -2062.6082   -4806.0951    735.08021    23.491857    152.20481    82.735424 
   70800    111.39457   -111.02883   0.10079215   -110.92804   -795.12619    4.3566836    4.3566836    4.3566836   -795.12619    1414.0248   -1300.9488   -2498.4546   -1081.4433   -137.47821   -301.49593    82.692872 
   70900    82.425634   -111.00282  0.074580446   -110.92824   -221.62362    4.3557681    4.3557681    4.3557681   -221.62362    3310.0813   -2460.8962    -1514.056    616.73356    85.276424    308.03255    82.640749 
   71000    74.703946   -110.99575    0.0675937   -110.92816   -392.50438    4.3576775    4.3576775    4.3576775   -392.50438    3262.6371   -1742.7235   -2697.4268   -1504.4892    540.02285     352.6319     82.74948 
   71100    100.66634   -111.01918  0.091085017    -110.9281    -94.62012    4.3559965    4.3559965    4.3559965    -94.62012   -151.27741     906.5996   -1039.1825    1255.7017   -744.58269  -0.52597598    82.653749 
   71200    100.57879   -111.01924  0.091005806   -110.92823    94.860819    4.3561514    4.3561514    4.3561514    94.860819     3923.829   -587.33285   -3051.9137   -625.32353    41.995387    50.703289    82.662568 
   71300    118.20168   -111.03515   0.10695136    -110.9282   -5.7564887    4.3573699    4.3573699    4.3573699   -5.7564887    4501.0718   -1924.2543    -2594.087    1698.7519    692.90073    172.48429    82.731957 
   71400     129.0903   -111.04509   0.11680361   -110.92829    655.74919    4.3553543    4.3553543    4.3553543    655.74919    5276.6027   -2407.3645   -901.99062   -920.58726    274.30275   -357.19139      82.6172 
   71500    84.418558   -111.00493  0.076383685   -110.92854     635.4096    4.3571197    4.3571197    4.3571197     635.4096    4315.4827   -1533.4569   -875.79699    34.189311   -1130.1576    1101.7366    82.717705 
   71600    84.243709   -111.00458  0.076225478   -110.92836   -257.98375    4.3566472    4.3566472    4.3566472   -257.98375    1916.4868   -918.71069   -1771.7274    189.40637    727.78419    78.566195    82.690795 
   71700    83.505914   -111.00381  0.075557906   -110.92826    298.91737    4.3553405    4.3553405    4.3553405    298.91737   -225.35455    1405.8914   -283.78477    510.68042   -472.21643    62.528806    82.616415 
   71800    86.383137   -111.00643  0.078161278   -110.92827   -68.526281    4.3575655    4.3575655    4.3575655   -68.526281    5665.4375   -3692.8812   -2178.1352    25.720278    255.41062   -29.140136    82.743096 
   71900    150.98289   -111.06458   0.13661249   -110.92797   -1377.4016    4.3562576    4.3562576    4.3562576   -1377.4016    736.55099   -2594.7206   -2274.0354   -459.00959    783.05267   -87.257321    82.668613 
   72000    90.227831   -111.01006  0.081640037   -110.92842    2494.5563    4.3559722    4.3559722    4.3559722    2494.5563     8610.177   -1802.6957    676.18767     1626.323     -346.409    318.39408    82.652366 
   72100    122.63475   -111.03918    0.1109625   -110.92822   -2769.6179    4.3575094    4.3575094    4.3575094   -2769.6179   -438.73875   -2911.8606   -4958.2545   -160.86954   -1579.6986    619.20881      82.7399 
   72200    50.749242   -110.97443  0.045918981   -110.92851    1652.6397    4.3554228    4.3554228    4.3554228    1652.6397    3621.6037    1200.1108    136.20459     1334.227    479.85969     50.71651    82.621099 
   72300    117.15822   -111.03394   0.10600722   -110.92794   -3425.6157    4.3574068    4.3574068    4.3574068   -3425.6157   -3219.5604   -3515.3408   -3541.9461   -554.62332    346.99876   -429.36491    82.734055 
   72400    71.687544   -110.99312  0.064864396   -110.92825     585.7582    4.3567562    4.3567562    4.3567562     585.7582    6535.4118   -2708.0495   -2070.0877    240.26209   -964.51529    1008.1992    82.697006 
   72500    126.14717   -111.04217   0.11414061   -110.92803   -222.71844    4.3559917    4.3559917    4.3559917   -222.71844     2472.321   -1260.2272   -1880.2491   -538.43069    791.06288   -184.13647    82.653476 
   72600    111.08937   -111.02873     0.100516   -110.92821    -19.98601    4.3570531    4.3570531    4.3570531    -19.98601    6548.7909   -2631.2407   -3977.5082    1515.9692   -347.59439    779.00709    82.713914 
   72700    100.88833   -111.01962  0.091285879   -110.92833   -41.763681    4.3563848    4.3563848    4.3563848   -41.763681     2787.912    292.01087   -3205.2139    511.70738    190.32927     233.5734    82.675859 
   72800     119.4533   -111.03614   0.10808385   -110.92806   -1207.6368    4.3562964    4.3562964    4.3562964   -1207.6368    857.91435   -1935.6924   -2545.1322    -413.5612   -630.37446   -373.14891    82.670825 
   72900    54.045498   -110.97723  0.048901503   -110.92833    1555.9697    4.3569283    4.3569283    4.3569283    1555.9697    8401.0123   -2106.1381   -1626.9652    390.43775   -150.67305    87.294819    82.706806 
   73000    96.768191   -111.01585  0.087557893   -110.92829    -724.2319    4.3561915    4.3561915    4.3561915    -724.2319    2040.3682   -1575.8414   -2637.2224    356.32658    -1273.237    460.51103    82.664849 
   73100    99.928133   -111.01879  0.090417075   -110.92838    468.81908    4.3562617    4.3562617    4.3562617    468.81908    2185.5447    233.84214   -1012.9297    480.68395    563.04682    187.05837    82.668848 
   73200    126.56831   -111.04301   0.11452167   -110.92849   -558.76044    4.3569972    4.3569972    4.3569972   -558.76044    4314.4327   -1316.7751    -4673.939   -524.10842    579.75334   -156.26233    82.710725 
   73300    123.71522   -111.04043   0.11194013   -110.92848    265.58022    4.3560442    4.3560442    4.3560442    265.58022     3723.612    -1578.249   -1348.6223    569.32666    554.73614    475.99232    82.656464 
   73400    86.082129   -111.00627   0.07788892   -110.92838    849.48717    4.3566387    4.3566387    4.3566387    849.48717    7139.5136   -2207.8323   -2383.2199   -155.06453    -219.9323   -530.02915    82.690316 
   73500    87.870613   -111.00773  0.079507177   -110.92822    -1783.686    4.3571184    4.3571184    4.3571184    -1783.686   -856.44002   -3271.8874   -1222.7306    1010.5152   -868.85829     994.1224    82.717633 
   73600     72.56658   -110.99388  0.065659767   -110.92822   -467.68778     4.355884     4.355884     4.355884   -467.68778   -2458.7149    2180.3526   -1124.7011   -52.124581    619.35323    388.37422    82.647347 
   73700    107.44629   -111.02526   0.09721966   -110.92804   -984.22911    4.3573636    4.3573636    4.3573636   -984.22911    2951.7747   -2867.5246   -3036.9374   -308.73867     -426.659   -182.82422    82.731595 
   73800    113.39364   -111.03077   0.10260095   -110.92817    512.94934    4.3564604    4.3564604    4.3564604    512.94934    4518.1387   -1015.9699   -1963.3208   -806.92893   -117.87641   -171.76925     82.68016 
   73900    115.93154   -111.03306    0.1048973   -110.92816     378.2075    4.3560243    4.3560243    4.3560243     378.2075    6826.5938   -3563.2634   -2128.7079    1007.7243   -256.58538   -31.177242    82.655332 
   74000    118.49993   -111.03516   0.10722123   -110.92793   -1743.7543    4.3578203    4.3578203    4.3578203   -1743.7543   -632.12184    -2656.782   -1942.3591    745.44749    965.04784    258.13422    82.757614 
   74100    69.044984   -110.99062  0.062473353   -110.92815    395.43734    4.3556414    4.3556414    4.3556414    395.43734    2230.9875    613.87436   -1658.5499   -236.30101    -1060.022    501.76359    82.633536 
   74200    90.239139   -111.00973  0.081650269   -110.92808   -806.90519    4.3568418    4.3568418    4.3568418   -806.90519    543.23871    -618.9197   -2345.0346    -15.99706    962.61093     485.1203    82.701875 
   74300    79.219035   -110.99997  0.071679048   -110.92829    1511.7418    4.3568746    4.3568746    4.3568746    1511.7418    8783.8274    -1504.338   -2744.2639   -192.93151    -644.3887   -565.30061    82.703743 
   74400    127.38553   -111.04366   0.11526111    -110.9284   -701.87754    4.3555372    4.3555372    4.3555372   -701.87754    1743.6054   -2140.5359   -1708.7022   -40.638394   -884.63152    976.75287    82.627607 
   74500    114.68585   -111.03216   0.10377017   -110.92839   -455.50187    4.3578062    4.3578062    4.3578062   -455.50187    4595.8875   -2010.3713   -3952.0218   -179.70203    440.26991    62.040055    82.756809 
   74600    112.35112    -111.0299   0.10165765   -110.92824     196.4985    4.3559381    4.3559381    4.3559381     196.4985    3811.1714   -975.67837   -2245.9976   -53.551088    1202.7699    280.87039    82.650425 
   74700     80.26423     -111.001  0.072624762   -110.92837    1041.5747    4.3559328    4.3559328    4.3559328    1041.5747    4758.9605    1331.8198    -2966.056   -922.56579    -18.94306    278.39309    82.650126 
   74800     97.38134   -111.01624  0.088112683   -110.92813   -1634.9158    4.3578428    4.3578428    4.3578428   -1634.9158    2834.5584    -3970.566   -3768.7398    564.05964     -307.842   -399.10302    82.758896 
   74900    77.087263   -110.99825  0.069750175    -110.9285    -33.78542    4.3554874    4.3554874    4.3554874    -33.78542    1101.8205    119.87069   -1323.0475   -82.826969    1625.5655   -26.601532    82.624776 
   75000    116.11334   -111.03349   0.10506179   -110.92843   -2723.4219    4.3574988    4.3574988    4.3574988   -2723.4219   -750.51102   -3076.6447     -4343.11   -428.68398   -714.87343     759.6512    82.739295 
   75100    91.434955   -111.01131  0.082732269   -110.92858    1425.9847    4.3564501    4.3564501    4.3564501    1425.9847    7239.2152   -205.48651   -2755.7747   -1203.5914    1163.6574    552.04353    82.679572 
   75200    138.17898   -111.05321   0.12502725   -110.92818   -654.33219    4.3559158    4.3559158    4.3559158   -654.33219    1446.4155   -189.38788   -3220.0242    530.79656   -172.47477   -417.90312    82.649156 
   75300    94.129484   -111.01339  0.085170335   -110.92822   -565.12996    4.3574734    4.3574734    4.3574734   -565.12996    4995.2747   -3192.8223   -3497.8422    223.27259    390.00857    612.66453    82.737851 
   75400    90.434767   -111.00986  0.081827278   -110.92804   -1307.8548    4.3562323    4.3562323    4.3562323   -1307.8548   -1116.0133   -1419.6963   -1387.8549    157.33351    183.37797   -359.70805    82.667174 
   75500    74.525045   -110.99562  0.067431827   -110.92818   -389.29387    4.3562492    4.3562492    4.3562492   -389.29387    1694.2168   -1105.8746   -1756.2238   -443.37641    950.04563    520.98999    82.668136 
   75600    78.536606   -110.99927  0.071061571   -110.92821    754.00626    4.3570924    4.3570924    4.3570924    754.00626     3854.297    116.40376    -1708.682   -760.86762    147.54664    548.29689     82.71615 
   75700    141.85825    -111.0563   0.12835633   -110.92794    200.61929    4.3559452    4.3559452    4.3559452    200.61929    4745.8253    -1209.239   -2934.7285   -438.12454   -281.77029   -150.37546    82.650829 
   75800    104.20087   -111.02241  0.094283139   -110.92812    2319.8047    4.3561701    4.3561701    4.3561701    2319.8047    8184.2641   -566.14644    -658.7037    138.61427    201.32713   -242.82149    82.663631 
   75900    131.85761   -111.04722   0.11930754   -110.92791   -2018.5538    4.3572563    4.3572563    4.3572563   -2018.5538    2256.6522   -4659.6209   -3652.6926    420.49243    124.53739    163.31462    82.725483 
   76000     56.94617   -110.97999  0.051526091   -110.92846     2454.339    4.3553952    4.3553952    4.3553952     2454.339    6104.3196     686.3444    572.35301   -632.24994    1583.2117    392.35592    82.619524 
   76100    95.391645   -111.01469  0.086312365   -110.92838    -876.6376    4.3569332    4.3569332    4.3569332    -876.6376   -1364.1567    585.60807   -1851.3642    437.48031   -755.13667    296.55587    82.707083 
   76200    80.877062    -111.0017  0.073179266   -110.92852    1204.5748    4.3566099    4.3566099    4.3566099    1204.5748    7765.5703   -1152.5811   -2999.2646    97.942334    495.91099    720.85562    82.688674 
   76300    116.75729   -111.03398   0.10564445   -110.92833    238.43719     4.355619     4.355619     4.355619    238.43719     1312.402    416.28073   -1013.3712    349.01296   -205.47255   -504.39231    82.632266 
   76400    123.47764   -111.03995   0.11172516   -110.92823   -1595.8859    4.3576265    4.3576265    4.3576265   -1595.8859    5239.8001    -4829.636   -5197.8219   -1216.1367    724.50571    563.87118    82.746572 
   76500    107.57182   -111.02558  0.097333239   -110.92824   -342.88327    4.3562863    4.3562863    4.3562863   -342.88327    345.29131   -156.91201   -1217.0291   -153.88168   -358.33947    509.56286    82.670249 
   76600    93.789362   -111.01305  0.084862585   -110.92819    168.85933    4.3559245    4.3559245    4.3559245    168.85933    2680.6354    771.35981   -2945.4172   -134.06512     1178.236    140.17433    82.649654 
   76700    80.906408   -111.00141  0.073205818   -110.92821   -1222.5248    4.3577938    4.3577938    4.3577938   -1222.5248    1046.9117    -1171.087   -3543.3991    803.96669   -171.37852    197.96275    82.756104 
   76800    75.087172   -110.99627  0.067940451   -110.92833   -392.36063    4.3556489    4.3556489    4.3556489   -392.36063     2798.799   -756.59066   -3219.2902    179.65157   -146.60933   -147.91982    82.633967 
   76900    122.05593   -111.03853   0.11043877   -110.92809   -2763.9161    4.3570755    4.3570755    4.3570755   -2763.9161   -3183.4921   -2582.5052    -2525.751   -437.59323    1621.9364   -156.93522    82.715187 
   77000    99.403972   -111.01839  0.089942803   -110.92844    270.55887    4.3572295    4.3572295    4.3572295    270.55887    6176.5477   -1063.9187   -4300.9524   -137.80091   -1321.2309    905.41936    82.723958 
   77100    132.32671   -111.04794   0.11973198   -110.92821    113.36114    4.3554765    4.3554765    4.3554765    113.36114    1908.5196   -467.42629   -1101.0099    112.11071   -248.99209    912.95099    82.624156 
   77200    79.481418   -111.00027  0.071916457   -110.92835    1629.7135    4.3573091    4.3573091    4.3573091    1629.7135    8621.4407    150.26045   -3882.5606    794.30414   -327.94038   -478.10889    82.728492 
   77300    105.06685   -111.02323  0.095066693   -110.92816   -2014.3387    4.3564875    4.3564875    4.3564875   -2014.3387   -357.80854   -3268.6203   -2416.5874   -690.50461     961.3184    434.19493    82.681702 
   77400    76.650562   -110.99762  0.069355039   -110.92826   -141.77348    4.3559068    4.3559068    4.3559068   -141.77348   -787.56221    105.70352    256.53827    90.952368   -409.14041   -121.53607    82.648645 
   77500    92.036671   -111.01143  0.083276714   -110.92816    157.18362      4.35765      4.35765      4.35765    157.18362    6080.8055   -1693.9224   -3915.3322   -326.10738    1024.8478    77.305263    82.747911 
   77600    114.12196   -111.03141   0.10325994   -110.92815    1737.5926    4.3555646    4.3555646    4.3555646    1737.5926    4211.3967    309.85001    691.53098    948.74394   -769.58685    592.85377    82.629169 
   77700    102.17567   -111.02068  0.092450696   -110.92823    2504.9479    4.3562969    4.3562969    4.3562969    2504.9479    11315.214   -180.69899   -3619.6718     36.44976   -452.95067    114.68206    82.670852 
   77800    147.94068   -111.06195   0.13385984   -110.92809   -2913.9356    4.3572685    4.3572685    4.3572685   -2913.9356   -2872.9929    -3738.896    -2129.918    430.76975    -15.74275   -289.84829    82.726178 
   77900    61.362274   -110.98424  0.055521875   -110.92872    1256.9428    4.3557665    4.3557665    4.3557665    1256.9428    5335.7512   -344.09135   -1220.8315   -109.18672   -321.66788    352.68368     82.64066 
   78000     97.80697   -111.01688  0.088497802   -110.92839   -1642.7768     4.357262     4.357262     4.357262   -1642.7768   -438.52526   -2195.3215   -2294.4835      870.639   -429.73493    769.41138    82.725807 
   78100    52.884492   -110.97643     0.047851   -110.92858    2401.8006    4.3562642    4.3562642    4.3562642    2401.8006    6845.6872    1906.7834   -1547.0687    501.52973   -222.24888    171.63241    82.668992 
   78200    133.86805   -111.04923   0.12112662    -110.9281   -1955.1218     4.356344     4.356344     4.356344   -1955.1218   -582.49064   -2328.1319    -2954.743   -611.68642    696.75315    533.73884    82.673534 
   78300    116.07721    -111.0331    0.1050291   -110.92807    -759.8963    4.3571392    4.3571392    4.3571392    -759.8963    4011.8114   -1910.6073    -4380.893   -249.97504   -246.01598   -353.48617    82.718815 
   78400    131.72587   -111.04715   0.11918833   -110.92796   -1776.8348     4.356832     4.356832     4.356832   -1776.8348    1467.3671   -3281.2429   -3516.6286   -300.06837    169.71323     83.22779    82.701317 
   78500     72.86037    -110.9943  0.065925594   -110.92837    1463.9698    4.3557707    4.3557707    4.3557707    1463.9698     6765.952   -203.95678   -2170.0858    1197.3994   -1450.1779    624.23284    82.640897 
   78600    85.170248   -111.00518   0.07706383   -110.92812   -698.99979    4.3575044    4.3575044    4.3575044   -698.99979    1455.0247    25.578336   -3577.6024     189.6944    157.31472     340.6563    82.739618 
   78700    78.634129   -110.99941  0.071149813   -110.92826   -286.17053    4.3561191    4.3561191    4.3561191   -286.17053     1910.581   -658.99388   -2110.0987    666.76667   -449.83773    73.778398    82.660727 
   78800    112.61244   -111.03003    0.1018941   -110.92813   -1818.0045    4.3564054    4.3564054    4.3564054   -1818.0045     288.4765   -1622.3246   -4120.1655   -730.43389   -249.43646    170.64453     82.67703 
   78900    111.78975   -111.02957   0.10114972   -110.92842    399.14453    4.3574544    4.3574544    4.3574544    399.14453    8877.9289   -3798.3054     -3882.19    681.05536    113.90346   -85.548029    82.736769 
   79000    122.13973   -111.03911    0.1105146    -110.9286    924.63766    4.3552358    4.3552358    4.3552358    924.63766     4036.198    750.46058   -2012.7456    9.6612097   -645.56788     476.7614    82.610455 
   79100    94.364428     -111.014  0.085382917   -110.92861    148.48796    4.3574058    4.3574058    4.3574058    148.48796    5488.8952   -2229.7424    -2813.689   -208.07521   -250.84216    1169.4318    82.734002 
   79200    85.420278   -111.00566  0.077290063   -110.92837   -485.49828    4.3567305    4.3567305    4.3567305   -485.49828    288.61777    206.36547   -1951.4781   -730.05165    617.45242   -311.12682    82.695541 
   79300    90.380299   -111.01005  0.081777994   -110.92827   -1294.3352    4.3553895    4.3553895    4.3553895   -1294.3352   -315.10651   -1882.4533   -1685.4457    190.72177    499.21076    89.385516    82.619203 
   79400    82.106674   -111.00246  0.074291844   -110.92817    98.247031    4.3580987    4.3580987    4.3580987    98.247031    6139.9422   -2866.5215   -2978.6796    635.56864   -1124.8222    55.167992    82.773477 
   79500    129.70579    -111.0454   0.11736052   -110.92804    334.30878    4.3554694    4.3554694    4.3554694    334.30878    1992.3892    496.45764   -1485.9205    107.21477    731.48328    64.246855    82.623748 
   79600    98.616544   -111.01764  0.089230322   -110.92841    1610.2281    4.3561958    4.3561958    4.3561958    1610.2281     6353.512   -600.74151   -922.08622    116.97126    203.96349    604.11931    82.665095 
   79700    119.20287    -111.0361   0.10785727   -110.92824   -1317.7815    4.3576809    4.3576809    4.3576809   -1317.7815     1536.376    -2193.053   -3296.6674   -769.91496   -383.98989    476.90299    82.749671 
   79800    92.539409   -111.01194  0.083731602    -110.9282    345.19827    4.3548803    4.3548803    4.3548803    345.19827    2255.7914     -563.606   -656.59058     630.8137   -94.577643   -394.87459    82.590229 
   79900    85.330266   -111.00532  0.077208618   -110.92811   -1145.2384    4.3577715    4.3577715    4.3577715   -1145.2384    979.33256   -2407.0371   -2008.0107   -228.69506    120.54057    286.52756     82.75483 
   80000    81.443397   -111.00181  0.073691698   -110.92812    690.87308    4.3562215    4.3562215    4.3562215    690.87308    4484.3075   -194.42746   -2217.2607    172.24534   -391.04081    1017.2587    82.666559 
   80100    97.281598   -111.01621  0.088022434   -110.92819    1415.8346    4.3554883    4.3554883    4.3554883    1415.8346    2017.7205    1363.5805    866.20279   -1090.9668    863.10205    117.89745    82.624824 
   80200    122.46124   -111.03901    0.1108055    -110.9282   -1301.6556    4.3579722    4.3579722    4.3579722   -1301.6556    5228.8747   -3992.6115   -5141.2298    78.694059    741.95749    423.15948    82.766266 
   80300    123.60995   -111.03995   0.11184488   -110.92811    -89.16803    4.3555381    4.3555381    4.3555381    -89.16803    2774.1787   -1545.9493   -1495.7334   -115.62552   -892.45801   -257.82496    82.627661 
   80400     106.2332   -111.02422  0.096122029    -110.9281   -50.597421    4.3568103    4.3568103    4.3568103   -50.597421    4835.3682   -2166.8742   -2820.2862      289.463   -321.31935   -211.77289    82.700087 
   80500    76.322346   -110.99728  0.069058063   -110.92822   -729.82577    4.3571698    4.3571698    4.3571698   -729.82577    2885.0422   -2037.4681   -3037.0514   -242.52968   -142.77089    616.47139    82.720556 
   80600    51.619366   -110.97512  0.046706287   -110.92841    1622.8587    4.3554821    4.3554821    4.3554821    1622.8587    3526.3858    1707.1467    -364.9563   -841.76671     338.1205    858.13122    82.624473 
   80700    136.17948   -111.05136   0.12321805   -110.92814   -3343.1901    4.3575526    4.3575526    4.3575526   -3343.1901   -2549.2721   -3704.0172   -3776.2811    60.183906    170.46644    70.714309     82.74236 
   80800    90.655684   -111.01081  0.082027168   -110.92879    1140.5041    4.3561082    4.3561082    4.3561082    1140.5041    8374.5942   -2051.3801   -2901.7017   -87.178053    331.73248    324.33647    82.660112 
   80900    156.27855   -111.06984   0.14140412   -110.92844   -1582.0577    4.3565988    4.3565988    4.3565988   -1582.0577    2026.4485   -3499.5555   -3273.0661   -233.30659    444.32882    113.57794    82.688043 
   81000    74.037826   -110.99562  0.066990981   -110.92863      1473.36    4.3566924    4.3566924    4.3566924      1473.36    7804.6827   -1348.4927   -2036.1099   -1204.3757    895.91853    270.84176    82.693368 
   81100    86.359257   -111.00644  0.078139671    -110.9283   -1613.0931    4.3565166    4.3565166    4.3565166   -1613.0931   -2424.3601   -253.90126   -2161.0178    -152.9425    29.737405    1118.3753    82.683358 
   81200    79.279237    -110.9998  0.071733519   -110.92806   -282.37927     4.356479     4.356479     4.356479   -282.37927    967.74869   -1739.7358   -75.150696    144.15206   -280.67134   -148.63152    82.681218 
   81300    101.63235   -111.01999  0.091959087   -110.92803   -503.00217    4.3567572    4.3567572    4.3567572   -503.00217    3750.6034    -1505.865   -3753.7449    182.66391    110.96082    -160.1789    82.697059 
   81400    116.30902   -111.03347   0.10523884   -110.92824    291.43824    4.3565817    4.3565817    4.3565817    291.43824    6011.5049   -4080.8679   -1056.3222   -271.60312   -126.85714    194.36743    82.687064 
   81500    109.32058   -111.02716  0.098915556   -110.92825    1671.5495     4.355898     4.355898     4.355898    1671.5495    5903.9525    956.16938   -1845.4733   -214.84626    835.62728    396.25268    82.648143 
   81600    119.39167   -111.03613   0.10802809    -110.9281   -781.40109    4.3571437    4.3571437    4.3571437   -781.40109    1788.9508   -2817.1303   -1316.0238    -304.4088    664.34148    462.79249    82.719069 
   81700    73.367087    -110.9948  0.066384082   -110.92841    1023.4605     4.356085     4.356085     4.356085    1023.4605    3057.8344    439.80157    -427.2546   -303.42596   -350.83723    780.46079    82.658787 
   81800    100.74264   -111.01938  0.091154056   -110.92823   -542.93926    4.3564329    4.3564329    4.3564329   -542.93926    3323.2408   -3026.7635    -1925.295    264.26852   -233.16524    -351.4224    82.678597 
   81900    84.431781   -111.00487  0.076395649   -110.92848    380.36329    4.3569988    4.3569988    4.3569988    380.36329    4661.3834   -2003.4056   -1516.8879   -919.87764     680.0687   -80.070117    82.710821 
   82000    100.41856   -111.01956  0.090860828    -110.9287   -308.74699    4.3557029    4.3557029    4.3557029   -308.74699     320.5894    69.661491   -1316.4919   -280.15288   -237.13205    1084.1456    82.637039 
   82100    115.71851   -111.03306   0.10470454   -110.92835   -385.49288    4.3575029    4.3575029    4.3575029   -385.49288    3905.2024   -3103.2424   -1958.4387    347.33213   -283.40839    324.16694    82.739532 
   82200    119.38691   -111.03615   0.10802378   -110.92813   -216.29202    4.3563565    4.3563565    4.3563565   -216.29202    1960.3634   -97.037882   -2512.2016    531.06415    445.63235    255.81635    82.674247 
   82300    89.084526   -111.00873  0.080605551   -110.92813    359.88583    4.3559212    4.3559212    4.3559212    359.88583    7263.9671   -4301.4165   -1882.8931   -675.04539    -215.8658    66.577454    82.649463 
   82400    113.44778   -111.03052   0.10264994   -110.92787   -2802.7823    4.3581182    4.3581182    4.3581182   -2802.7823   -2123.7661   -1889.8676   -4394.7132    -255.0336    180.55905   -231.46206    82.774587 
   82500    47.746092   -110.97185  0.043201667   -110.92864     887.3134    4.3553625    4.3553625    4.3553625     887.3134    3392.9925   -714.75224   -16.300058   -138.75012    546.71047    503.52329    82.617663 
   82600    115.99194    -111.0334   0.10495195   -110.92845   -2909.8672    4.3574405    4.3574405    4.3574405   -2909.8672     -3705.24   -1359.4452   -3664.9164   -59.243895   -534.65779    1402.4441    82.735976 
   82700    88.691332   -111.00877  0.080249781   -110.92852    2407.6688    4.3565134    4.3565134    4.3565134    2407.6688    11072.288   -2604.5207   -1244.7607    277.50223   -336.48933   -7.8501818    82.683176 
   82800    155.86675   -111.06918   0.14103151   -110.92815   -1736.2486    4.3557852    4.3557852    4.3557852   -1736.2486    518.09544   -2045.3709   -3681.4703   -9.5070385    634.31326    200.88564    82.641721 
   82900    85.734401   -111.00593  0.077574288   -110.92836    408.70912    4.3577566    4.3577566    4.3577566    408.70912    8721.2778   -4167.1736   -3327.9768   -336.68217    141.26005      293.963    82.753981 
   83000    101.43996   -111.01981  0.091785007   -110.92803     -769.017    4.3557493    4.3557493    4.3557493     -769.017    -1823.856    302.01489   -785.20984    63.234518   -198.18051    135.49322    82.639681 
   83100    55.561015   -110.97867  0.050272774    -110.9284    1109.3879    4.3560543    4.3560543    4.3560543    1109.3879    3478.6336    886.79745   -1037.2675    638.30835   -346.67469    901.80743     82.65704 
   83200     92.06378   -111.01149  0.083301243   -110.92819    93.984944    4.3576018    4.3576018    4.3576018    93.984944    5530.4295   -4004.0299   -1244.4449   -375.39244   -45.122301     139.1517    82.745163 
   83300    132.95459   -111.04836    0.1203001   -110.92806    844.58827    4.3552248    4.3552248    4.3552248    844.58827    4364.4204    188.67602   -2019.3316   -418.84478    244.12426   -313.96199    82.609833 
   83400    115.36809   -111.03253   0.10438747   -110.92814    162.92094    4.3570935    4.3570935    4.3570935    162.92094    7100.9519   -4390.6993   -2221.4898     406.6184    30.488646    118.26731    82.716214 
   83500     110.1488   -111.02792  0.099664946   -110.92825   -490.46927     4.356695     4.356695     4.356695   -490.46927    1615.9243   -548.23347   -2539.0986    737.10605   -14.431219    753.12914    82.693521 
   83600    85.335009   -111.00565  0.077212909   -110.92844    1147.8015    4.3554135    4.3554135    4.3554135    1147.8015    2740.3738    245.14427    457.88646    179.85703   -237.21371    493.02645    82.620566 
   83700    76.264022   -110.99761   0.06900529    -110.9286   -598.02668    4.3576376    4.3576376    4.3576376   -598.02668    2371.9769   -2011.4477   -2154.6093   -206.18922     37.12434    773.93261    82.747207 
   83800    94.406012   -111.01395  0.085420543   -110.92853   -530.20627    4.3559824    4.3559824    4.3559824   -530.20627    2267.3756   -2313.7929   -1544.2015   -436.16977    122.41684   -233.00615    82.652946 
   83900    116.28066    -111.0335   0.10521318   -110.92828   -1115.4358     4.356383     4.356383     4.356383   -1115.4358    723.55012   -1324.7696   -2745.0881     19.54462    357.21855   -391.99917    82.675754 
   84000    97.640946   -111.01666   0.08834758   -110.92832    -565.6245    4.3574862    4.3574862    4.3574862    -565.6245    3744.9045   -1953.3212   -3488.4568    345.91689     -662.889    844.78444    82.738581 
   84100    128.66348   -111.04445   0.11641742   -110.92803   -484.99841    4.3557896    4.3557896    4.3557896   -484.99841    1547.7916   -1251.5466   -1751.2403     262.2616   -187.74791    573.65861    82.641974 
   84200    80.160809   -111.00071  0.072531185   -110.92818    1738.7528    4.3565895    4.3565895    4.3565895    1738.7528    7046.5635   -159.18672   -1671.1184   -116.59158    980.60581    163.71603     82.68751 
   84300    108.57738   -111.02626  0.098243099   -110.92802   -2878.7353    4.3573079    4.3573079    4.3573079   -2878.7353    20.587654    -4694.166   -3962.6277   -17.782509   -163.65048    150.36175    82.728423 
   84400    60.679402   -110.98324  0.054903998   -110.92833    1137.9882    4.3555621    4.3555621    4.3555621    1137.9882    4552.3644    668.48568   -1806.8853    324.43773   -498.82207    84.421577    82.629023 
   84500    123.59244    -111.0398   0.11182904   -110.92797    -2122.038    4.3573276    4.3573276    4.3573276    -2122.038   -1280.7399   -1574.1269   -3511.2471   -19.387553    329.44544    180.84072    82.729545 
   84600    80.200241   -111.00098  0.072566863   -110.92841    2433.0677    4.3562157    4.3562157    4.3562157    2433.0677    10688.136   -907.87414   -2481.0585   -199.21877    -599.5273     1468.662    82.666229 
   84700     137.2184   -111.05224    0.1241581   -110.92809    515.97621    4.3559484    4.3559484    4.3559484    515.97621    4044.9721   -1145.5786   -1351.4648   -102.69778   -352.25739    239.88509    82.651012 
   84800    107.53471   -111.02546  0.097299664   -110.92816   -121.16335    4.3573869    4.3573869    4.3573869   -121.16335     7912.171    -3970.154    -4305.507    340.02425    738.40062   -230.07161    82.732923 
   84900    84.687091     -111.005   0.07662666   -110.92838   -787.97544    4.3558752    4.3558752    4.3558752   -787.97544   -120.45802   -51.786763   -2191.6815    329.64555    13.656924    361.04933    82.646848 
   85000    91.369855   -111.01092  0.082673365   -110.92825   -918.22103    4.3565318    4.3565318    4.3565318   -918.22103    284.13686   -864.22267   -2174.5773   -191.97766    -111.0757     65.14666    82.684227 
   85100    69.579731   -110.99129  0.062957202   -110.92833    1421.8452    4.3571044    4.3571044    4.3571044    1421.8452      5892.75    521.47915   -2148.6934    -506.5382    914.42866    838.01356    82.716832 
   85200     112.5498   -111.03017   0.10183742   -110.92834    186.61447    4.3556454    4.3556454    4.3556454    186.61447    4113.0961   -2660.5168   -892.73582   -289.79576    886.00878    441.46515    82.633767 
   85300    132.04409   -111.04768   0.11947627    -110.9282   -1064.6588    4.3571006    4.3571006    4.3571006   -1064.6588    2317.9128   -2232.0673   -3279.8217    454.30735   -865.06164   -224.15039    82.716619 
   85400    109.91987   -111.02796   0.09945781    -110.9285   -781.28358    4.3567347    4.3567347    4.3567347   -781.28358    3179.1165   -1856.9492    -3666.018    560.04247    -99.02613   -186.25538     82.69578 
   85500     103.5186   -111.02223  0.093665804   -110.92856     -1277.08    4.3561932    4.3561932    4.3561932     -1277.08   -1165.6981    -367.0103   -2298.5316    -248.5556    143.37186    890.91349    82.664948 
   85600    51.602635   -110.97531  0.046691148   -110.92862    1949.1273    4.3570102    4.3570102    4.3570102    1949.1273    6886.0216    1010.6697   -2049.3094   -397.01117    308.76557    509.28038    82.711469 
   85700     108.7714   -111.02668  0.098418653   -110.92826   -1643.2396    4.3563461    4.3563461    4.3563461   -1643.2396   -1572.0127   -2706.3629   -651.34304    118.95941    714.50518    500.05704    82.673656 
   85800    85.581734   -111.00584  0.077436152   -110.92841    273.12631    4.3562263    4.3562263    4.3562263    273.12631    3414.7438   -63.624548   -2531.7403   -279.21834    187.42898   -79.900352    82.666831 
   85900    139.99478   -111.05466   0.12667022   -110.92799   -1482.8793     4.357398     4.357398     4.357398   -1482.8793    3592.2639   -3708.6012   -4332.3007   -297.25369    148.64027   -606.40022    82.733553 
   86000    107.94438   -111.02587  0.097670339    -110.9282    1615.3792    4.3557754    4.3557754    4.3557754    1615.3792    5827.2863    1957.4672   -2938.6159   -237.19946   -158.93671    589.12214    82.641165 
   86100    87.011745   -111.00692  0.078730055   -110.92819    1322.7531    4.3563334    4.3563334    4.3563334    1322.7531    7842.0835   -1610.4746   -2263.3496    513.53951   -88.779236    703.82736    82.672928 
   86200    104.28566   -111.02223  0.094359853   -110.92787   -1059.5266    4.3572693    4.3572693    4.3572693   -1059.5266    231.98639   -1355.1904   -2055.3758     348.8858   -271.20859    363.29005    82.726228 
   86300    59.376858   -110.98193  0.053725429   -110.92821    1141.0354    4.3555307    4.3555307    4.3555307    1141.0354     4896.129   -570.63138   -902.39149    263.63775   -196.83585     -17.6676    82.627239 
   86400    124.42866   -111.04067   0.11258567   -110.92808     -2626.72    4.3571864    4.3571864    4.3571864     -2626.72   -520.88124   -2322.5641   -5036.7147   -483.64041   -252.21635    329.95773    82.721506 
   86500    84.168245    -111.0046  0.076157197   -110.92845    3054.5804    4.3563698    4.3563698    4.3563698    3054.5804    11206.015    865.15797   -2907.4314   -763.60122    1019.7183    18.961599    82.675005 
   86600    145.43148      -111.06   0.13158946   -110.92842   -1213.3454    4.3558126    4.3558126    4.3558126   -1213.3454    1775.7768   -2283.2441   -3132.5689   -338.73752    538.32867    1280.2104     82.64328 
   86700    79.254591   -111.00041  0.071711219   -110.92869    473.19319    4.3576066    4.3576066    4.3576066    473.19319    6750.9485   -2061.8708   -3269.4981    242.70488   -134.21943    452.52281    82.745441 
   86800    114.77014   -111.03198   0.10384644   -110.92814   -2158.3305    4.3561159    4.3561159    4.3561159   -2158.3305   -2980.9171   -2643.3199   -850.75454    293.66401   -150.75208   -592.69648    82.660548 
   86900    61.798171   -110.98421  0.055916284   -110.92829    155.15928    4.3561019    4.3561019    4.3561019    155.15928    3457.7598    1021.2189   -4013.5009   -356.38836    435.34706    298.34124    82.659752 
   87000    104.63933   -111.02274  0.094679869   -110.92806   -1723.1069    4.3580849    4.3580849    4.3580849   -1723.1069     915.9198   -2520.9013   -3564.3393     180.2925   -64.683891    166.80942    82.772687 
   87100     92.68911   -111.01215  0.083867055   -110.92828    2045.6093    4.3549309    4.3549309    4.3549309    2045.6093    6707.0322    1335.2259   -1905.4304    425.37494    102.51678    767.68921    82.593107 
   87200    133.05083   -111.04863   0.12038719   -110.92824   -1875.0759    4.3573565    4.3573565    4.3573565   -1875.0759    517.31805   -3861.8502   -2280.6956   -140.73925    52.835381    537.80894    82.731193 
   87300    94.868855   -111.01427  0.085839333   -110.92843    747.44594    4.3567544    4.3567544    4.3567544    747.44594    6503.1558   -1611.5223   -2649.2957   -637.27075    -418.3823   -8.7640393    82.696901 
   87400    118.24147   -111.03515   0.10698737   -110.92816   -441.27953    4.3553418    4.3553418    4.3553418   -441.27953   -753.76833     917.4537    -1487.524    289.91128    394.52738    -569.3148    82.616488 
   87500    66.746161   -110.98883  0.060393329   -110.92844    577.27429     4.357829     4.357829     4.357829    577.27429     7259.481   -1152.3453   -4375.3128   -26.265194     447.1991     796.5286    82.758108 
   87600    88.933087    -111.0087  0.080468526   -110.92823    268.27619    4.3555768    4.3555768    4.3555768    268.27619    428.20211    1014.6876    -638.0612    -48.76166   -39.682437    553.66509     82.62986 
   87700      104.058   -111.02233  0.094153868   -110.92818    51.061315    4.3562413    4.3562413    4.3562413    51.061315    3288.4382   -2624.8209   -510.43337    67.129682   -271.94779    159.29844    82.667685 
   87800    105.72766   -111.02397  0.095664607    -110.9283   -15.141538    4.3576222    4.3576222    4.3576222   -15.141538    5050.7888   -1556.9777   -3539.2358   -371.04605    448.69657    33.219084    82.746325 
   87900    135.12517   -111.05044   0.12226409   -110.92817    313.46209    4.3550713    4.3550713    4.3550713    313.46209    3086.2963   -871.56808   -1274.3419   -305.15157    58.580663    -561.1826    82.601095 
   88000    81.975378   -111.00249  0.074173045   -110.92832    1991.9121    4.3570129    4.3570129    4.3570129    1991.9121    9844.1758    260.70377   -4129.1434    738.34825   -154.79905    385.85023    82.711623 
   88100    105.58366   -111.02372  0.095534315   -110.92819   -2385.2972    4.3569619    4.3569619    4.3569619   -2385.2972   -2068.9875   -2165.3272   -2921.5768    605.06253   -537.17223    925.08253    82.708715 
   88200    60.897182   -110.98351   0.05510105   -110.92841     834.0421    4.3556936    4.3556936    4.3556936     834.0421    3825.8766   -1072.1922   -251.55812   -663.77586   -35.361062    535.39551    82.636508 
   88300    114.24829   -111.03168   0.10337426   -110.92831   -1933.3932    4.3575991    4.3575991    4.3575991   -1933.3932   -1467.7784   -1950.4598   -2381.9414   -134.12729    487.88997    -321.1934    82.745012 
   88400     94.13925   -111.01385  0.085179172   -110.92867    1367.2949    4.3557128    4.3557128    4.3557128    1367.2949    9062.4288   -907.17238   -4053.3718    151.96131    942.83548    490.30993    82.637604 
   88500    126.80922   -111.04311   0.11473964   -110.92837   -199.05697    4.3567855    4.3567855    4.3567855   -199.05697    3228.5692    -872.3573   -2953.3828   -381.62659    218.80174   -85.295016    82.698672 
   88600    111.06019   -111.02873   0.10048959   -110.92824   -1246.8586    4.3571212    4.3571212    4.3571212   -1246.8586     4286.408   -2878.7951   -5148.1885   -293.54343    322.39887    925.32263    82.717789 
   88700    90.755545   -111.01029  0.082117524   -110.92817   -1142.1178    4.3561961    4.3561961    4.3561961   -1142.1178   -1424.8949   -1348.2064   -653.25197     408.8323   -222.76788    528.57922    82.665111 
   88800     72.91193   -110.99415  0.065972247   -110.92818    392.83963    4.3566451    4.3566451    4.3566451    392.83963    3412.0707   -1170.6286   -1062.9232    280.25251    186.19004   -751.66635    82.690677 
   88900    97.506195    -111.0163  0.088225654   -110.92807   -474.86487    4.3567011    4.3567011    4.3567011   -474.86487    2567.2099   -304.26878   -3687.5357    273.32189    585.31274    167.08022    82.693864 
   89000    88.923569   -111.00886  0.080459914    -110.9284    1098.5729    4.3563246    4.3563246    4.3563246    1098.5729    6144.9615   -208.24924   -2640.9936    302.64074   -1034.1085    391.31877    82.672428 
   89100    147.38877   -111.06139   0.13336045   -110.92803   -2214.6022    4.3567607    4.3567607    4.3567607   -2214.6022     503.8054   -3544.4642   -3603.1479   -519.29693    554.43807    657.85999     82.69726 
   89200    89.799537   -111.00963  0.081252508   -110.92838    1269.0134    4.3566531    4.3566531    4.3566531    1269.0134    6248.8463   -1058.1288   -1383.6774   -725.79617    353.91039    375.51292    82.691135 
   89300    113.60306   -111.03094   0.10279043   -110.92815   -734.32358     4.356171     4.356171     4.356171   -734.32358    554.48697   -2101.5544   -655.90326    184.28895    537.83696    131.09987    82.663684 
   89400    58.944158   -110.98161  0.053333913   -110.92828    1955.0281    4.3564654    4.3564654    4.3564654    1955.0281    5827.9739    720.58075   -683.47035    564.89679   -225.98981   -849.09728    82.680443 
   89500    106.01197     -111.024  0.095921854   -110.92808     -1734.97    4.3568551    4.3568551    4.3568551     -1734.97   -795.00027   -1045.3043   -3364.6053    -186.4423    530.32772    563.81348    82.702634 
   89600    94.664992   -111.01397  0.085654874   -110.92831   -564.74279    4.3559392    4.3559392    4.3559392   -564.74279    1277.6766   -2346.9669   -624.93809   -104.08342   -776.93418    618.86069    82.650489 
   89700     113.0254   -111.03055   0.10226775   -110.92828   -80.484739     4.357483     4.357483     4.357483   -80.484739    4995.3491   -2872.4469   -2364.3564    284.67572    94.475183    -118.4289    82.738399 
   89800    125.82608   -111.04208   0.11385008   -110.92823    456.40763    4.3558092    4.3558092    4.3558092    456.40763    3479.2556   -1749.8231   -360.20961   -157.50195    827.40357    5.2034383    82.643091 
   89900    77.342831   -110.99834  0.069981418   -110.92836    1942.6141    4.3562014    4.3562014    4.3562014    1942.6141     7018.341    192.92775   -1383.4265   -49.144871   -191.45694   -116.46578    82.665412 
   90000    119.54088   -111.03622    0.1081631   -110.92805   -2701.6332    4.3576049    4.3576049    4.3576049   -2701.6332    -1081.142   -3224.7184   -3799.0393   -115.39967   -301.53172    256.21025    82.745342 
   90100     63.80162   -110.98627  0.057729046   -110.92854    472.46897    4.3553433    4.3553433    4.3553433    472.46897    1999.6368    320.72221   -902.95207   -439.20863    677.14471    892.43586    82.616575 
   90200    105.92401   -111.02436  0.095842268   -110.92852   -1333.2704     4.357621     4.357621     4.357621   -1333.2704    3869.9468   -5550.0828   -2319.6753    35.474418    805.05964    639.90973    82.746257 
   90300    100.42463   -111.01935  0.090866314   -110.92848     1942.127    4.3559046    4.3559046    4.3559046     1942.127    5657.4798    651.39481   -482.49355    543.53962   -1037.6949   -713.89484    82.648522 
   90400     117.4485   -111.03464   0.10626987   -110.92837    283.62218    4.3559022    4.3559022    4.3559022    283.62218    5256.6341   -2165.0295    -2240.738   -266.11714     479.3531    470.67493    82.648385 
   90500     108.3698   -111.02625  0.098055277    -110.9282   -1092.8668    4.3578548    4.3578548    4.3578548   -1092.8668    4667.0988   -3124.0814   -4821.6178   -607.72485   -788.67593    73.101474    82.759579 
   90600    104.27375   -111.02242  0.094349079   -110.92807   -1039.2965    4.3555047    4.3555047    4.3555047   -1039.2965   -1217.1776   -941.63493   -959.07701    383.97416    613.56949    620.85574     82.62576 
   90700    76.154377   -110.99704  0.068906081   -110.92813   -378.95152    4.3570805    4.3570805    4.3570805   -378.95152    5115.8795   -4061.2764   -2191.4577     437.9006   -255.35504    642.16024    82.715474 
   90800      88.5908   -111.00831  0.080158818   -110.92815   -64.321207    4.3569223    4.3569223    4.3569223   -64.321207     254.6673   -205.68937   -241.94155   -239.00513     326.8961   -618.20158    82.706462 
   90900    92.504253    -111.0119  0.083699792    -110.9282    1278.9825    4.3552686    4.3552686    4.3552686    1278.9825    6192.9732   -1539.7578   -816.26787   -113.36344   -582.05023   -129.14712    82.612323 
   91000    130.44536   -111.04604    0.1180297   -110.92801   -2337.6714     4.357933     4.357933     4.357933   -2337.6714    25.627183   -2425.2506   -4613.3908   -38.260377   -282.76981    589.66512    82.764035 
   91100    104.39216   -111.02262  0.094456216   -110.92816     345.7903    4.3558887    4.3558887    4.3558887     345.7903    6114.5643   -4207.8587    -869.3347   -312.47241    521.40137    612.66539    82.647615 
   91200    124.34249    -111.0406   0.11250769   -110.92809   -1289.2539    4.3566366    4.3566366    4.3566366   -1289.2539   -1386.4325   -1231.4119   -1249.9173    132.93798   -136.34945    50.274371    82.690191 
   91300    50.674521   -110.97445  0.045851371    -110.9286    1837.8306    4.3569763    4.3569763    4.3569763    1837.8306    7637.4919   -2842.7384    718.73828    306.06167   -245.74515    201.47458    82.709536 
   91400     98.95765   -111.01786  0.089538961   -110.92832   -719.48282    4.3555127    4.3555127    4.3555127   -719.48282   -2499.9085    986.84972   -645.38964   -723.72502   -504.32378   -819.83087    82.626216 
   91500    89.528458   -111.00934  0.081007231   -110.92834    -199.7032    4.3571541    4.3571541    4.3571541    -199.7032    3767.2704   -2554.4968   -1811.8832    124.96131     938.3888    385.63605    82.719661 
   91600    129.31711   -111.04509   0.11700884   -110.92808   -1318.5309    4.3568104    4.3568104    4.3568104   -1318.5309    3712.7075   -4430.0944   -3238.2059    534.10655   -543.47863    802.22879    82.700091 
   91700    114.26664   -111.03169   0.10339086    -110.9283    2068.2279    4.3556629    4.3556629    4.3556629    2068.2279    6950.0452   -1129.8325     384.4709    149.00534    102.02265   -121.61198    82.634761 
   91800    100.81812   -111.01955  0.091222352   -110.92832    1000.4793    4.3568665    4.3568665    4.3568665    1000.4793    6803.5483   -2845.7593   -956.35113   -703.35253   -734.46667   -101.94323    82.703283 
   91900     77.90919   -110.99896  0.070493872   -110.92847     297.1551    4.3561286    4.3561286    4.3561286     297.1551    1579.7701    389.58027   -1077.8851    81.851787    334.00921    284.25587    82.661272 
   92000     94.41581   -111.01378  0.085429409   -110.92835   -1192.0331    4.3565752    4.3565752    4.3565752   -1192.0331    1208.3584   -2669.2858   -2115.1718    103.27886   -184.28573    285.39408    82.686699 
   92100    96.621187   -111.01586   0.08742488   -110.92843   -754.94905    4.3569514    4.3569514    4.3569514   -754.94905    3153.9939   -3009.2562   -2409.5848    201.66373    672.86155     729.1275    82.708122 
   92200    101.88908   -111.02054  0.092191376   -110.92835    990.29996    4.3561408    4.3561408    4.3561408    990.29996    8547.6201   -4156.9099   -1419.8104    221.49531   -620.30097     761.5051    82.661966 
   92300    121.38055   -111.03798   0.10982768   -110.92815    79.516805    4.3565386    4.3565386    4.3565386    79.516805    2000.8627   -974.45325   -787.85901   -84.322871   -707.38495   -916.22892    82.684611 
   92400    96.073901   -111.01513  0.086929685    -110.9282   -249.46633     4.356964     4.356964     4.356964   -249.46633    4635.2841   -3320.6067   -2063.0764    216.32707    506.75529    238.02246    82.708835 
   92500     116.9947   -111.03386   0.10585926     -110.928   -2741.4394    4.3563402    4.3563402    4.3563402   -2741.4394   -2971.2836   -1698.1591   -3554.8755    102.06195    182.40466    386.39403    82.673316 
   92600    60.466227   -110.98306  0.054711113   -110.92835    646.75916    4.3566755    4.3566755    4.3566755    646.75916    5069.7219   -2782.9586   -346.48582    507.40421    211.26527    382.07393    82.692409 
   92700     118.3018   -111.03504   0.10704196     -110.928   -2741.1374    4.3574112    4.3574112    4.3574112   -2741.1374     48.82382     -4988.87    -3283.366   -606.53674     -372.391    550.03028    82.734308 
   92800    55.320603   -110.97868  0.050055244   -110.92862    2914.5814    4.3554256    4.3554256    4.3554256    2914.5814    5657.3088    1031.2847    2055.1508    143.10532    548.42234   -268.04447    82.621256 
   92900    160.75943    -111.0735   0.14545851   -110.92804   -3535.6256    4.3575691    4.3575691    4.3575691   -3535.6256   -2681.2139   -4445.3905   -3480.2725    475.65854   -319.87649   -251.68673    82.743299 
   93000    77.256941   -110.99863  0.069903704   -110.92873    2499.1131    4.3558949    4.3558949    4.3558949    2499.1131     9957.622   -910.08746   -1550.1952     1072.252    555.06606    515.59861    82.647965 
   93100     134.6282   -111.05021   0.12181442    -110.9284   -1720.0275    4.3564381    4.3564381    4.3564381   -1720.0275   -84.622889   -3392.1798   -1683.2798   -79.992964   -813.62163    676.13741    82.678894 
   93200    69.797677   -110.99164  0.063154405   -110.92849    1321.4396     4.357259     4.357259     4.357259    1321.4396    7399.2288    -2719.599   -715.31092   -412.48966    322.32202   -251.08272    82.725639 
   93300    78.550317   -110.99934  0.071073978   -110.92826    648.07098    4.3553715    4.3553715    4.3553715    648.07098   -569.69797    404.63956    2109.2714    210.50975    525.93164    147.71573    82.618176 
   93400     97.82312   -111.01653  0.088512415   -110.92802   -79.247227     4.356768     4.356768     4.356768   -79.247227    3655.2298   -1628.9071   -2264.0643   -161.95645    1009.5599   -475.99215    82.697673 
   93500     104.0147   -111.02215  0.094114683   -110.92804    1408.7824    4.3568274    4.3568274    4.3568274    1408.7824    7793.5608   -2280.8481   -1286.3655    509.34142    19.806677     192.7145    82.701059 
   93600    147.01639   -111.06099   0.13302352   -110.92797   -531.92067    4.3556293    4.3556293    4.3556293   -531.92067    4786.7582   -3676.1914   -2706.3288   -76.043148   -495.39133    925.49359    82.632851 
   93700    86.194583   -111.00631   0.07799067   -110.92832    1562.8071    4.3572093    4.3572093    4.3572093    1562.8071    7342.0845   -2121.6147   -532.04841    682.17327   -353.59366    98.764189     82.72281 
   93800    105.05702   -111.02319  0.095057801   -110.92813   -1172.2122    4.3562363    4.3562363    4.3562363   -1172.2122   -679.77056   -2501.5215   -335.34461   -311.13689    3.6026112   -313.39267    82.667399 
   93900    51.978883   -110.97538  0.047031586   -110.92835    1035.9006    4.3558135    4.3558135    4.3558135    1035.9006    2957.1192    624.04668   -473.46404    719.03712    776.48389    429.46086    82.643335 
   94000    107.58898   -111.02544  0.097348766   -110.92809   -2085.3838    4.3577447    4.3577447    4.3577447   -2085.3838    1902.8166   -4079.7223   -4079.2456   -357.16921   -198.26157    407.07198    82.753305 
   94100    117.47832   -111.03443   0.10629685   -110.92813   -290.20477    4.3557395    4.3557395    4.3557395   -290.20477    3972.7859   -3415.5398   -1427.8604   -444.97045    677.43535    376.69858    82.639122 
   94200     109.1048   -111.02722  0.098720315    -110.9285   -286.77847    4.3568413    4.3568413    4.3568413   -286.77847     4480.457   -2864.0052   -2476.7871   -61.057785     339.6533    884.02698     82.70185 
   94300    115.37784   -111.03277   0.10439629   -110.92837   -1456.3487    4.3573468    4.3573468    4.3573468   -1456.3487    1422.2658   -3731.1075   -2060.2042    688.38791     743.2526   -841.09309    82.730642 
   94400    80.341345   -111.00102  0.072694537   -110.92832    573.56164      4.35531      4.35531      4.35531    573.56164    266.52231    1214.9078    239.25483    773.59215   -393.30669   -54.460386    82.614679 
   94500    91.760574   -111.01112  0.083026896   -110.92809   -1636.1396    4.3575073    4.3575073    4.3575073   -1636.1396    3352.4955   -3674.4097   -4586.5045   -702.69872    130.80834    623.53197    82.739783 
   94600    96.679234   -111.01556  0.087477403   -110.92809   -815.45941    4.3566655    4.3566655    4.3566655   -815.45941    514.27685   -1930.3894   -1030.2657    383.46536   -848.01635    377.68141     82.69184 
   94700     87.58886   -111.00769  0.079252241   -110.92844    961.11989    4.3555786    4.3555786    4.3555786    961.11989    6992.8685    -3211.045   -898.46384   -522.66023    1146.9144    382.47404    82.629966 
   94800    119.13655   -111.03627   0.10779726   -110.92848    -633.7633    4.3573904    4.3573904    4.3573904    -633.7633    754.60171   -607.72692   -2048.1647    560.83845    576.77308    8.8447716    82.733122 
   94900    106.53386   -111.02493  0.096394075   -110.92853    2064.2818    4.3555844    4.3555844    4.3555844    2064.2818    7364.7484    -1077.309   -94.593876   -184.26413    -267.1863   -221.40194    82.630295 
   95000     119.6928   -111.03653   0.10830056   -110.92823   -94.352056     4.356333     4.356333     4.356333   -94.352056    2799.0941   -542.41054   -2539.7397    386.00459   -548.20537    261.21862     82.67291 
   95100    76.269748   -110.99723  0.069010471   -110.92822    536.73489    4.3572966    4.3572966    4.3572966    536.73489    6325.8153    -2792.984   -1922.6267   -925.33164    208.33752    708.43243     82.72778 
   95200    93.470939   -111.01256   0.08457447   -110.92798    -350.8848    4.3555801    4.3555801    4.3555801    -350.8848    166.21604   -1852.0595    633.18911    272.09412    484.67504   -419.04066    82.630052 
   95300    73.802025   -110.99493  0.066777623   -110.92816     966.4595    4.3566375    4.3566375    4.3566375     966.4595    2513.7381     337.3255    48.314935   -40.078789    -498.3237   -67.255891    82.690242 
   95400    125.98842   -111.04201   0.11399697   -110.92802    -586.1967    4.3571213    4.3571213    4.3571213    -586.1967     4098.689   -3203.2324   -2654.0468   -704.80109    393.88612   -110.65402    82.717798 
   95500    110.80173    -111.0284   0.10025573   -110.92815    1946.5389     4.355314     4.355314     4.355314    1946.5389    6420.0633    267.41965   -847.86625   -172.67094   -841.46398    307.01625    82.614907 
   95600    124.15105   -111.04029   0.11233448   -110.92796   -1927.1813     4.357727     4.357727     4.357727   -1927.1813    3707.4553   -5746.0693   -3742.9298    423.34097    245.08981    795.11673    82.752298 
   95700    78.372787   -110.99906  0.070913345   -110.92814   -407.71816    4.3565498    4.3565498    4.3565498   -407.71816    691.62641   -687.15523   -1227.6257    662.81901   -270.18396    403.17097    82.685249 
   95800     90.13161   -111.00958  0.081552975   -110.92803   -1445.8959    4.3559919    4.3559919    4.3559919   -1445.8959   -3072.0937   -1965.4125    699.81835   -1027.1476    537.11079   -519.20746    82.653487 
   95900    68.726983   -110.99058  0.062185618    -110.9284      261.313    4.3575142    4.3575142    4.3575142      261.313    5162.3029   -585.04805   -3793.3159   -33.923373   -946.39773    372.13177    82.740177 
   96000    120.38122   -111.03738   0.10892346   -110.92845   -427.59282    4.3557454    4.3557454    4.3557454   -427.59282     3750.421   -2886.2474    -2146.952   -1366.3523    668.89112    577.94935     82.63946 
   96100    120.36052   -111.03731   0.10890472    -110.9284   -776.15187    4.3568169    4.3568169    4.3568169   -776.15187    4674.5495   -3392.4665   -3610.5386   -82.090554    348.86901    11.017544    82.700459 
   96200    111.91472   -111.02953   0.10126279   -110.92827   -1465.1626    4.3575154    4.3575154    4.3575154   -1465.1626    1161.8507    -2867.763   -2689.5756    535.83264     118.0289    811.38741    82.740246 
   96300    106.56907   -111.02457  0.096425939   -110.92815   -217.97561    4.3554362    4.3554362    4.3554362   -217.97561    686.27493   -600.69899   -739.50277    485.84834   -1412.5495   -456.66389    82.621858 
   96400     47.18903   -110.97111  0.042697626   -110.92841    2379.0662    4.3568884    4.3568884    4.3568884    2379.0662    7750.2939     753.6225   -1366.7177   -906.49219   -1243.8252   -225.46004    82.704532 
   96500    120.03451   -111.03677   0.10860975   -110.92816   -2630.9073    4.3570378    4.3570378    4.3570378   -2630.9073    311.33815   -3809.3471   -4394.7128    114.48778    315.61091    637.70242    82.713039 
   96600    74.280386    -110.9957  0.067210454   -110.92849    1673.9527    4.3557263    4.3557263    4.3557263    1673.9527    6398.0353   -262.87283   -1113.3043    169.95183   -744.52994    502.57866     82.63837 
   96700    152.48189   -111.06615   0.13796882   -110.92818   -3189.0379     4.357694     4.357694     4.357694   -3189.0379   -961.31837   -5028.6427   -3577.1525   -1043.7079    952.72546   -109.06666    82.750416 
   96800    74.596495    -110.9962  0.067496477    -110.9287    3495.9345     4.355746     4.355746     4.355746    3495.9345    9985.5713    1614.8649   -1112.6327   -192.93898   -829.72457    110.40601    82.639492 
   96900    123.87469   -111.04021   0.11208443   -110.92812  -0.45628803    4.3562311    4.3562311    4.3562311  -0.45628803    1672.8667   -1215.8114   -458.42421    96.146003    193.88599   -71.186916    82.667107 
   97000     81.35005    -111.0018  0.073607235   -110.92819   -167.47321    4.3572551    4.3572551    4.3572551   -167.47321    5039.4343   -1419.5104   -4122.3434    379.97648    -863.8461    31.450586    82.725417 
   97100    92.011966   -111.01133  0.083254361   -110.92808   -1617.5974    4.3560336    4.3560336    4.3560336   -1617.5974   -3347.0605   -1598.2357    92.504021   -333.96203    761.32962    722.07216    82.655862 
   97200    94.977296   -111.01411  0.085937453   -110.92817    -798.5248     4.356647     4.356647     4.356647    -798.5248    4129.2796   -3066.9021   -3457.9519    559.38845    -1234.107     -287.666    82.690785 
   97300    88.032403   -111.00791  0.079653568   -110.92826    1319.2676    4.3570817    4.3570817    4.3570817    1319.2676    3556.7582     64.44327    336.60141   -1207.3499   -793.04213   -266.50878    82.715538 
   97400    126.77713   -111.04278   0.11471061   -110.92807    607.77389    4.3554762    4.3554762    4.3554762    607.77389    5584.2763   -1665.2417   -2095.7129   -528.41359    500.19897    128.44412    82.624138 
   97500     116.7716   -111.03374    0.1056574   -110.92808   -478.46058    4.3571207    4.3571207    4.3571207   -478.46058    2046.3613   -1502.1529   -1979.5901     667.2352    282.96062    350.93775    82.717763 
   97600    98.806321   -111.01768  0.089402035   -110.92828   -1689.3159    4.3568021    4.3568021    4.3568021   -1689.3159    1005.0073   -3371.6223   -2701.3327    445.44569    499.25197    666.38193    82.699617 
   97700    81.550269   -111.00229  0.073788397    -110.9285   -606.26603    4.3558072    4.3558072    4.3558072   -606.26603    621.73719   -1385.1764   -1055.3588   -865.33521   -729.58223    684.01218    82.642977 
   97800    70.882979   -110.99273  0.064136409    -110.9286     1169.551    4.3573546    4.3573546    4.3573546     1169.551    5196.6158   -890.62044   -797.34225   -288.10894    345.43337   -633.71354    82.731084 
   97900    114.14126   -111.03166   0.10327741   -110.92838    -101.9153    4.3558061    4.3558061    4.3558061    -101.9153    2376.1655   -911.15996   -1770.7515     330.8763   -1222.8778    72.568018    82.642914 
   98000    111.10302   -111.02883   0.10052835    -110.9283    224.39778     4.356418     4.356418     4.356418    224.39778    4261.4807   -2411.8094    -1176.478   -374.18131     1427.569    584.59859    82.677746 
   98100    129.35891   -111.04509   0.11704666   -110.92804    -1538.189    4.3574544    4.3574544    4.3574544    -1538.189     4672.852   -4072.8819   -5214.5371    368.95357   -1048.1822   -232.58103     82.73677 
   98200    94.857741   -111.01399  0.085829277   -110.92816    182.65817    4.3554859    4.3554859    4.3554859    182.65817   -778.31177   -156.49596    1482.7822    423.13863     124.4386    438.56606     82.62469 
   98300     70.49971   -110.99196  0.063789619   -110.92817    886.63368     4.356999     4.356999     4.356999    886.63368    6607.1811   -1339.0542   -2608.2259    7.0313668   -688.59406    25.788626    82.710832 
   98400    101.33834   -111.01965  0.091693059   -110.92795   -906.12087      4.35664      4.35664      4.35664   -906.12087   -2602.5651    94.060819   -209.85832   -151.14455    1109.6479   -271.82337    82.690388 
   98500    69.510081   -110.99127  0.062894182   -110.92837    1163.4821    4.3556994    4.3556994    4.3556994    1163.4821    7385.8775   -2139.1036   -1756.3277    856.10046    129.86462    590.76941    82.636841 
   98600    148.87701   -111.06266   0.13470704   -110.92795   -3235.3611    4.3576161    4.3576161    4.3576161   -3235.3611   -878.28893   -4622.4187   -4205.3756   -994.78985   -152.43257    661.16396    82.745977 
   98700    93.151762   -111.01258  0.084285672    -110.9283    2323.6245    4.3557077    4.3557077    4.3557077    2323.6245    7364.8874    105.99142    -500.0054   -523.65189    546.52391   -484.61386    82.637314 
   98800    126.58953   -111.04268   0.11454087   -110.92814   -1016.4494    4.3567222    4.3567222    4.3567222   -1016.4494    415.26888   -1847.1409   -1617.4763    878.37169   -146.00443   -204.47352    82.695069 
   98900    62.341912   -110.98494  0.056408272   -110.92853    1780.2306    4.3565334    4.3565334    4.3565334    1780.2306    6435.7204    158.79169   -1253.8203    1041.1758    1500.5405    174.34794    82.684317 
   99000    98.525079    -111.0174  0.089147562   -110.92825   -1416.8012    4.3560303    4.3560303    4.3560303   -1416.8012   -568.03725    -1944.013   -1738.3535   -228.14363   -731.54976     3.918438    82.655676 
   99100    85.739823    -111.0059  0.077579194   -110.92832   -1167.4151    4.3569084    4.3569084    4.3569084   -1167.4151    1673.9458   -3264.9791   -1911.2121   -58.936577    864.28532    671.91688    82.705673 
   99200    118.69117   -111.03546   0.10739427   -110.92807   -355.30587    4.3566382    4.3566382    4.3566382   -355.30587    4978.1296   -2866.3859   -3177.6613   -57.888868   -815.50205    169.28834    82.690285 
   99300    109.75748   -111.02758  0.099310874   -110.92827    2041.9311    4.3560587    4.3560587    4.3560587    2041.9311    5804.5956    222.17887    99.018739   -442.25987    1627.0858   -407.53733    82.657292 
   99400    103.14328   -111.02178  0.093326211   -110.92845    178.41083    4.3565199    4.3565199    4.3565199    178.41083     6027.819    -2843.936   -2648.6505    479.13757    658.60486    267.41275    82.683547 
   99500    103.55888   -111.02198  0.093702255   -110.92828   -1120.0042    4.3565965    4.3565965    4.3565965   -1120.0042     1004.007   -1768.1896     -2595.83    379.38636    637.75743    469.62689    82.687911 
   99600    89.770638   -111.00941   0.08122636   -110.92819   -1309.4022    4.3566907    4.3566907    4.3566907   -1309.4022    239.12652   -2476.9482   -1690.3849   -454.84012   -310.10863    278.20964    82.693275 
   99700     87.85269   -111.00775   0.07949096   -110.92826   -1126.9216    4.3568501    4.3568501    4.3568501   -1126.9216    4239.7622   -4386.3571   -3234.1698    22.413598    288.21895    663.21588    82.702351 
   99800    79.549666    -111.0002  0.071978209   -110.92823     2304.885    4.3562644    4.3562644    4.3562644     2304.885    6955.0068    783.04064   -823.39258    1127.1879    888.96736   -326.37457    82.669001 
   99900    133.38621   -111.04861   0.12069065   -110.92792   -1140.4248    4.3564678    4.3564678    4.3564678   -1140.4248    2115.3332    -3444.349   -2092.2586    -575.3422   -418.88442   -218.05921    82.680583 
  100000    100.59848   -111.01922  0.091023621    -110.9282   -411.59666    4.3570818    4.3570818    4.3570818   -411.59666    4759.0935   -2758.8669   -3235.0166    -187.0069    549.69859    778.24308    82.715548 
Loop time of 21.8566 on 1 procs for 100000 steps with 8 atoms

Pair  time (%) = 6.80364 (31.1286)
Kspce time (%) = 5.31288 (24.3079)
Neigh time (%) = 0 (0)
Comm  time (%) = 1.07899 (4.93668)
Outpt time (%) = 0.0238099 (0.108937)
Other time (%) = 8.63724 (39.5178)

Nlocal:    8 ave 8 max 8 min
Histogram: 1 0 0 0 0 0 0 0 0 0
Nghost:    2189 ave 2189 max 2189 min
Histogram: 1 0 0 0 0 0 0 0 0 0
Neighs:    2056 ave 2056 max 2056 min
Histogram: 1 0 0 0 0 0 0 0 0 0

Total # of neighbors = 2056
Ave neighs/atom = 257
Neighbor list builds = 0
Dangerous builds = 0
unfix 20
unfix 21
print "seeds:309434"
seeds:309434
