LAMMPS (10 Feb 2015)
# ---- initialize simulations
clear
units metal
dimension 3
boundary p p p
atom_style charge
atom_modify map array
# ---- create atoms
read_data /Users/eugeneragasa/pyflamestk_git/pypospack/tests/tests_integration/workflow/WorkflowLammpsThermalExpansion/param_7521/MgO_NaCl_unit.npt.T400/lammps.structure
  triclinic box = (0 0 0) to (4.2565 4.2565 4.2565) with tilt (0 0 0)
  1 by 1 by 1 MPI processor grid
  reading atoms ...
  8 atoms
# ---- define interatomic potential
include potential.mod
mass 1 24.305
mass 2 15.999

group Mg type 1
4 atoms in group Mg
group O type 2
4 atoms in group O

set group Mg charge 1.63791250839
  4 settings made for charge
set group O charge -1.63791250839
  4 settings made for charge

variable R_cut equal 10.0

pair_style buck/coul/long ${R_cut}
pair_style buck/coul/long 10
pair_coeff 1 1 0.0 0.5 0.0 ${R_cut}
pair_coeff 1 1 0.0 0.5 0.0 10
pair_coeff 1 2 1465.92328509 0.282476486176 0.0 ${R_cut}
pair_coeff 1 2 1465.92328509 0.282476486176 0.0 10
pair_coeff 2 2 5816.20442115 0.096233749689 18.932341092 ${R_cut}
pair_coeff 2 2 5816.20442115 0.096233749689 18.932341092 10

kspace_style pppm 1.0e-5

neighbor 1.0 bin
neigh_modify every 1 delay 0 check yes
# ---- define settings
compute eng all pe/atom
compute eatoms all reduce sum c_eng
# ---- run minimization
reset_timestep 0
fix 1 all box/relax iso 0.0 vmax 0.001
thermo 10
thermo_style custom step pe lx ly lz xy xz yz press pxx pyy pzz pxy pxz pyz c_eatoms
min_style cg
minimize 1e-25 1e-25 5000 10000
PPPM initialization ...
  G vector (1/distance) = 0.35267
  grid = 8 8 8
  stencil order = 5
  estimated absolute RMS force accuracy = 3.88211e-05
  estimated relative force accuracy = 2.69597e-06
  using double precision FFTs
  3d grid and FFT values/proc = 3375 512
Neighbor list info ...
  1 neighbor list requests
  update every 1 steps, delay 0 steps, check yes
  master list distance cutoff = 11
Memory usage per processor = 4.06549 Mbytes
Step PotEng Lx Ly Lz Xy Xz Yz Press Pxx Pyy Pzz Pxy Pxz Pyz eatoms 
       0   -108.70031       4.2565       4.2565       4.2565            0            0            0    82041.316    82041.316    82041.316    82041.316 -4.6499549e-11 -1.1702618e-10 1.7098221e-10   -108.70031 
      10   -108.77917     4.299065     4.299065     4.299065            0            0            0    28384.418    28384.418    28384.418    28384.418 -2.893711e-10 1.1285336e-10 8.1895601e-11   -108.77917 
      19   -108.79132    4.3240425    4.3240425    4.3240425            0            0            0 -0.024351241 -0.024351241 -0.024351241 -0.024351241 1.5580285e-11 -3.1606067e-12 1.2588801e-10   -108.79132 
Loop time of 0.00869608 on 1 procs for 19 steps with 8 atoms

Minimization stats:
  Stopping criterion = linesearch alpha is zero
  Energy initial, next-to-last, final = 
        -108.700309346      -108.79131697      -108.79131697
  Force two-norm initial, final = 11.8468 7.13952e-05
  Force max component initial, final = 11.8468 1.5084e-05
  Final line search alpha, max atom move = 0.5 7.54202e-06
  Iterations, force evaluations = 19 24

Pair  time (%) = 0.00239491 (27.5402)
Kspce time (%) = 0.00141501 (16.2719)
Neigh time (%) = 0 (0)
Comm  time (%) = 0.00026226 (3.01585)
Outpt time (%) = 2.00272e-05 (0.230301)
Other time (%) = 0.00460386 (52.9418)

Nlocal:    8 ave 8 max 8 min
Histogram: 1 0 0 0 0 0 0 0 0 0
Nghost:    2189 ave 2189 max 2189 min
Histogram: 1 0 0 0 0 0 0 0 0 0
Neighs:    2344 ave 2344 max 2344 min
Histogram: 1 0 0 0 0 0 0 0 0 0

Total # of neighbors = 2344
Ave neighs/atom = 293
Neighbor list builds = 0
Dangerous builds = 0
unfix 1
# ---- define output variables ----
variable natoms equal "count(all)"
variable tot_energy equal "c_eatoms"
variable length_x equal "lx"
variable length_y equal "ly"
variable length_z equal "lz"
variable tilt_xy equal "xy"
variable tilt_xz equal "xz"
variable tilt_yz equal "yz"
variable tot_press equal "press"
variable press_xx equal "pxx"
variable press_yy equal "pyy"
variable press_zz equal "pzz"
variable press_xy equal "pxy"
variable press_xz equal "pxz"
variable press_yz equal "pyz"

# ---- output ----
print "pypospack:output_section:begin"
pypospack:output_section:begin
print "tot_energy = ${tot_energy}"
tot_energy = -108.791316969709
print "num_atoms = ${natoms}"
num_atoms = 8
print "xx = ${length_x}"
xx = 4.32404254484564
print "yy = ${length_y}"
yy = 4.32404254484564
print "zz = ${length_z}"
zz = 4.32404254484564
print "xy = ${tilt_xy}"
xy = 0
print "xz = ${tilt_xz}"
xz = 0
print "yz = ${tilt_yz}"
yz = 0
print "tot_press = ${tot_press}"
tot_press = -0.0243512411551094
print "pxx = ${press_xx}"
pxx = -0.0243512413415371
print "pyy = ${press_yy}"
pyy = -0.0243512409516822
print "pzz = ${press_zz}"
pzz = -0.024351241172109
print "pxy = ${press_xy}"
pxy = 1.55802849425254e-11
print "pxz = ${press_xz}"
pxz = -3.16060668162342e-12
print "pyz = ${press_yz}"
pyz = 1.25888006757422e-10
print "pypospack:output_section:done"
pypospack:output_section:done
print "pypospack:lammps_sim:done"
pypospack:lammps_sim:done
#------------------------------------------------------------------------------
# RUN THERMOSTAT
# running using an NPT Nose-Hoover style thermostat
#------------------------------------------------------------------------------
variable tempdamp equal 0.1
variable pressdamp equal 1.0
# set initial velocities
velocity all create 400 5656791 mom yes dist gaussian loop all
# fix for Nose-Hoover style thermostat
fix 20 all npt temp 400 400 0.1 aniso 0.0 0.0 1.0 drag 1.0 couple xyz
variable boxx equal lx
variable boxy equal ly
variable boxz equal lz
variable boxp equal press
variable boxt equal temp
# calculate averages every 10000 steps
reset_timestep 0
fix 21 all ave/time 10 10 100 v_boxx v_boxy v_boxz v_boxp v_boxt file lattice.out
thermo_style custom step temp pe ke etotal press lx ly lz press pxx pyy pzz pxy pxz pyz vol
thermo_modify flush yes
thermo 100
run 100000
PPPM initialization ...
  G vector (1/distance) = 0.351996
  grid = 8 8 8
  stencil order = 5
  estimated absolute RMS force accuracy = 4.00454e-05
  estimated relative force accuracy = 2.781e-06
  using double precision FFTs
  3d grid and FFT values/proc = 3375 512
Memory usage per processor = 3.06549 Mbytes
Step Temp PotEng KinEng TotEng Press Lx Ly Lz Press Pxx Pyy Pzz Pxy Pxz Pyz Volume 
       0          400   -108.79133   0.36192841    -108.4294     4779.786    4.3240425    4.3240425    4.3240425     4779.786    7331.0455    3019.1033    3989.2091   -802.13508   -1634.1816    1548.3288    80.848111 
     100    132.83593   -108.49617   0.12019274   -108.37598   -5386.0233    4.3458189    4.3458189    4.3458189   -5386.0233    9899.3709   -9570.3311    -16487.11   -1817.6905   -726.87128    -207.3546     82.07575 
     200    258.11219   -108.51346   0.23354533   -108.27992    6339.7531    4.3330572    4.3330572    4.3330572    6339.7531    20275.679   -1953.8831    697.46316    3328.1663    3513.4949   -1538.5582    81.354816 
     300    252.70133   -108.42847   0.22864948   -108.19982    4801.4937    4.3447475    4.3447475    4.3447475    4801.4937    16920.372   -2752.0351    236.14444    267.69545    4334.7228   -2315.2202    82.015065 
     400    435.84377   -108.52369    0.3943606   -108.12933   -10360.354     4.345488     4.345488     4.345488   -10360.354   -7991.6717   -14403.731   -8685.6598   -1307.3006   -5089.3173   -2528.3072    82.057005 
     500    436.45792   -108.48145    0.3949163   -108.08653    7521.8822      4.34182      4.34182      4.34182    7521.8822    36437.445    -7038.907   -6832.8911   -3215.1095   -5647.6083    1592.0995    81.849392 
     600    363.52776   -108.39551   0.32892756   -108.06659   -7329.4224    4.3524086    4.3524086    4.3524086   -7329.4224    17386.453    -17735.54    -21639.18    5612.2209    3757.8215    950.37143    82.449683 
     700    402.75511   -108.42287   0.36442128   -108.05845    -2896.821    4.3422484    4.3422484    4.3422484    -2896.821    8092.1049   -5742.0056   -11040.562    3719.8199    4211.3739   -1172.2441    81.873618 
     800    474.11111   -108.48962    0.4289857   -108.06063   -1833.6838    4.3502764    4.3502764    4.3502764   -1833.6838    1568.2425   -4465.8321   -2603.4617    1157.0651   -36.305681   -3470.0678    82.328567 
     900    273.41826   -108.31272   0.24739459   -108.06533    8821.0591    4.3424076    4.3424076    4.3424076    8821.0591    32385.642   -6737.7351    815.27043   -4105.9872   -8047.9672   -3872.0736    81.882625 
    1000    357.42159   -108.38782   0.32340257   -108.06442    3473.1631     4.349482     4.349482     4.349482    3473.1631    24611.066   -9988.7495   -4202.8269    550.70068   -6541.0087   -730.61719    82.283474 
    1100     514.7198   -108.52896    0.4657293   -108.06323   -2251.0624    4.3431742    4.3431742    4.3431742   -2251.0624    611.73952   -7673.2114    308.28457    1595.1584    1915.6948   -649.83268    81.926002 
    1200    353.39273    -108.3865   0.31975717   -108.06674   -8994.6493    4.3507592    4.3507592    4.3507592   -8994.6493    11993.358   -16797.471   -22179.835     767.8499    4308.6836    1289.3018     82.35598 
    1300    533.54315   -108.54499   0.48276105   -108.06223    5125.0089    4.3413925    4.3413925    4.3413925    5125.0089    19037.937    1398.4598   -5061.3704   -1995.0632    1107.9993     211.4085    81.825216 
    1400    287.50351   -108.32442   0.26013922   -108.06428    689.75077    4.3507921    4.3507921    4.3507921    689.75077    31788.473   -18963.564   -10755.657    -7647.537   -6524.3468   -3831.7433     82.35785 
    1500    430.72624   -108.45161   0.38973016   -108.06188   -1124.5635     4.343462     4.343462     4.343462   -1124.5635   -6533.9766   -4298.7629    7459.0488    359.55694   -4406.2531   -3980.3966    81.942288 
    1600     310.4373   -108.34492    0.2808902   -108.06403    8436.0823    4.3449797    4.3449797    4.3449797    8436.0823    23782.219   -5925.1372    7451.1655    612.94442    6729.5993   -3596.9078    82.028214 
    1700    386.08159   -108.41371   0.34933474   -108.06437   -10801.594    4.3515454    4.3515454    4.3515454   -10801.594    7685.7302   -23238.163    -16852.35    4020.1816    400.69682   -1561.8488    82.400635 
    1800    454.23341   -108.47271   0.41099993   -108.06172    9717.6487     4.337182     4.337182     4.337182    9717.6487    32382.222    778.21545   -4007.4908   -3028.5811   -4369.4972    1250.1483    81.587371 
    1900    547.38507   -108.55832   0.49528552   -108.06304   -24127.787    4.3572439    4.3572439    4.3572439   -24127.787   -17823.528     -30453.8   -24106.033    426.52936   -2998.3832   -298.83992     82.72478 
    2000    299.28299   -108.33577   0.27079754   -108.06497    11649.952    4.3343207    4.3343207    4.3343207    11649.952    27526.465    3091.4831    4331.9075   -1055.8481   -1635.8709   -1419.4709    81.426006 
    2100    373.83282   -108.40296   0.33825179   -108.06471   -2078.5598    4.3542808    4.3542808    4.3542808   -2078.5598    14933.913    -20672.19    -497.4016    6015.1784      8615.46   -3930.7953    82.556125 
    2200    272.00391    -108.3113   0.24611486   -108.06519    6108.2005    4.3416666    4.3416666    4.3416666    6108.2005    24266.299   -5178.9344   -762.76329    4228.8173    3447.7974   -5062.5594    81.840716 
    2300    552.74081   -108.56599    0.5001315   -108.06586   -1764.6443    4.3443981    4.3443981    4.3443981   -1764.6443    7054.0927   -3926.7663   -8421.2595    -2039.527   -5826.1785    72.089148    81.995277 
    2400    424.14284   -108.45001   0.38377335   -108.06624   -9114.7328    4.3523092    4.3523092    4.3523092   -9114.7328    7298.2249   -15884.475   -18757.948   -2811.4581   -3882.0019   -1795.3759    82.444032 
    2500    367.76351   -108.39683   0.33276016   -108.06407    13403.618    4.3328223    4.3328223    4.3328223    13403.618    44737.543   -1703.2516   -2823.4363    254.10495    1227.9502    1578.2455    81.341584 
    2600    424.78277   -108.44554   0.38435237   -108.06119   -13052.855    4.3607703    4.3607703    4.3607703   -13052.855   -9714.6873    -17397.52   -12046.357    2818.3263    1424.2804   -1724.2172    82.925791 
    2700    404.56055   -108.42568   0.36605489   -108.05963    13216.903    4.3295402    4.3295402    4.3295402    13216.903     30058.65    4565.7081     5026.352   -2892.3188   -48.406155   -8169.4566    81.156878 
    2800    332.09403    -108.3636   0.30048566   -108.06312   -7459.6702    4.3601644    4.3601644    4.3601644   -7459.6702    4328.5512   -8825.9918    -17881.57   -1956.8392   -5678.0185   -922.55452    82.891232 
    2900     403.9052   -108.42433   0.36546191   -108.05887    11241.581    4.3338425    4.3338425    4.3338425    11241.581    30089.151    3309.8383    325.75214   -5504.6906     142.7455   -5615.6872    81.399054 
    3000    455.50649   -108.47559   0.41215185   -108.06344   -17324.164    4.3529984    4.3529984    4.3529984   -17324.164   -13050.545   -18069.856    -20852.09    3854.1595    -58.35448   -34.698367    82.483207 
    3100    450.37152   -108.47188   0.40750561   -108.06438    2504.0723    4.3397875    4.3397875    4.3397875    2504.0723    15516.937   -3553.1187   -4451.6009    2263.5997    5746.3249    1763.7336    81.734494 
    3200    398.51471   -108.42782   0.36058448   -108.06724   -9395.1355    4.3493046    4.3493046    4.3493046   -9395.1355    9873.5069   -17314.385   -20744.528    431.33763   -3476.3937   -6471.9037    82.273408 
    3300    282.32038   -108.32048   0.25544941   -108.06503     7217.084    4.3428512    4.3428512    4.3428512     7217.084    23547.634    1837.3073   -3733.6898   -3749.8013    858.50909   -761.82196    81.907722 
    3400    541.49414   -108.55471   0.48995527   -108.06475   -10879.577     4.345286     4.345286     4.345286   -10879.577   -14513.422   -1217.9917   -16907.318     806.4037   -1020.3828   -4459.5359    82.045561 
    3500    225.56899   -108.27252   0.20409956   -108.06842    1310.2347    4.3469748    4.3469748    4.3469748    1310.2347      27589.6   -4649.1911   -19009.704    5481.3707    4677.7941   -3061.0989    82.141259 
    3600    567.64504   -108.57924   0.51361716   -108.06562    -816.2467     4.338962     4.338962     4.338962    -816.2467    15016.943   -8039.0133   -9426.6703   -618.19085   -4044.9185    3760.3046    81.687863 
    3700    316.50865   -108.35116   0.28638368   -108.06477   -8486.3189    4.3552287    4.3552287    4.3552287   -8486.3189     24722.83   -19919.266   -30262.521    -2946.457    44.614455   -6915.7559    82.610051 
    3800    536.37501    -108.5459   0.48532338   -108.06058    5952.6994    4.3309877    4.3309877    4.3309877    5952.6994    7742.4192     6863.396    3252.2831    -2196.873    -358.7427     -67.6974    81.238304 
    3900    278.98833   -108.31649    0.2524345   -108.06405    -8943.746    4.3601325    4.3601325    4.3601325    -8943.746    12780.765   -8026.1315   -31585.871      5819.95    706.92441   -3097.1065    82.889413 
    4000    343.99331   -108.37393   0.31125238   -108.06268    9995.2496    4.3297613    4.3297613    4.3297613    9995.2496    25678.007    6273.0151   -1965.2729    1256.6441    2001.5475   -7699.8222    81.169311 
    4100    501.48506   -108.51962   0.45375422   -108.06587   -9441.9046    4.3531863    4.3531863    4.3531863   -9441.9046    9236.4173   -13948.603   -23613.528    466.26741   -728.72635    4984.0926    82.493887 
    4200    510.40181   -108.52842   0.46182228    -108.0666   -10977.584    4.3433081    4.3433081    4.3433081   -10977.584   -2071.8522   -14108.176   -16752.724   -4880.6725   -50.365668     -7287.47    81.933575 
    4300    367.93766   -108.39913   0.33291772   -108.06621    6238.5493    4.3377459    4.3377459    4.3377459    6238.5493    24976.495   -274.87359   -5985.9739    6124.3349   -227.75837   -986.10797    81.619198 
    4400    334.94401   -108.36552   0.30306438   -108.06245   -11407.766    4.3582835    4.3582835    4.3582835   -11407.766    542.02746   -5828.7766    -28936.55    4873.4721    2044.2666    -2253.727    82.784007 
    4500    314.99887   -108.34441    0.2850176   -108.05939    14687.114    4.3270402    4.3270402    4.3270402    14687.114    28898.672    16414.248   -1251.5786    6704.3136    -2795.456   -8976.7352    81.016374 
    4600     525.8259   -108.53524   0.47577833   -108.05946   -19999.614    4.3606808    4.3606808    4.3606808   -19999.614   -18307.525   -11254.247   -30437.071   -4249.4507   -1692.0927    3988.5873    82.920686 
    4700    429.70344   -108.45011    0.3888047    -108.0613    4647.8768    4.3298909    4.3298909    4.3298909    4647.8768    17851.081   -1088.7387   -2818.7119   -1456.9355    -3354.373   -5884.0147      81.1766 
    4800    287.60437     -108.326   0.26023048   -108.06577   -8018.6952    4.3537016    4.3537016    4.3537016   -8018.6952     10898.62   -9010.2873   -25944.418    3063.1008    2913.9466   -1974.8483    82.523182 
    4900    416.19253   -108.43899   0.37657975   -108.06241    3056.1727    4.3403868    4.3403868    4.3403868    3056.1727    8461.6306    11614.039   -10907.151    5483.1223   -1331.7703   -572.83044    81.768362 
    5000    349.09481   -108.38053   0.31586832   -108.06466   -4500.8711    4.3437084    4.3437084    4.3437084   -4500.8711   -1079.5808    1392.4757   -13815.508   -4460.8406    682.00325   -10346.145    81.956235 
    5100    561.87227   -108.56939   0.50839384     -108.061   -7799.3599    4.3479194    4.3479194    4.3479194   -7799.3599    3149.2688   -9323.5534   -17223.795   -4390.6145   -1929.0477    1850.0924    82.194821 
    5200    335.95438   -108.36599   0.30397858   -108.06201    2492.2914    4.3407831    4.3407831    4.3407831    2492.2914    17533.294    -5474.078   -4582.3422   -912.51362   -1543.7804   -4278.0945    81.790763 
    5300    304.02885   -108.33849   0.27509169    -108.0634   -3644.1594    4.3474134    4.3474134    4.3474134   -3644.1594    18953.463   -5125.9024   -24760.038    7172.6159     2210.042   -4444.8508     82.16613 
    5400    498.32142   -108.51296   0.45089169   -108.06207    2099.7277    4.3418653    4.3418653    4.3418653    2099.7277    110.79118    8780.7521     -2592.36    4362.9091    1840.8633   -39.450528    81.851949 
    5500     330.8808   -108.36426    0.2993879   -108.06487   -4550.1458    4.3472832    4.3472832    4.3472832   -4550.1458     2058.571     -1358.51   -14350.498    -3738.855    1382.9877    -10676.08    82.158743 
    5600    520.84162   -108.53427   0.47126844     -108.063    1556.5572    4.3396246    4.3396246    4.3396246    1556.5572    16855.541   -6705.9885   -5479.8804   -1821.4102   -5618.4808    317.30137    81.725293 
    5700    263.64286   -108.30295    0.2385496    -108.0644    702.00298    4.3504932    4.3504932    4.3504932    702.00298    17318.805   -7620.0525   -7592.7436   -373.92644    654.00672   -1164.5321    82.340873 
    5800    414.14968   -108.43875   0.37473133   -108.06401     -2905.07    4.3375907    4.3375907    4.3375907     -2905.07    10351.694   -1751.8175   -17315.086    6184.9337    665.48324   -6282.0166    81.610437 
    5900    499.52475   -108.51567   0.45198049   -108.06369   -629.08246    4.3485397    4.3485397    4.3485397   -629.08246   -4922.3758    3266.3829   -231.25445   -3120.5239    3215.7381    1650.9682    82.230006 
    6000    370.10114    -108.3995   0.33487529   -108.06463   -3277.1824    4.3439583    4.3439583    4.3439583   -3277.1824    7401.4421    -4486.866   -12746.123   -3826.1374   -1702.9653   -11666.264    81.970378 
    6100    299.66514   -108.33559   0.27114332   -108.06444    7925.0377    4.3407027    4.3407027    4.3407027    7925.0377    27741.973   -5325.5626    1358.7029   -5306.9993   -2954.3675   -1758.4369    81.786215 
    6200    434.13542   -108.45463   0.39281485   -108.06181   -5836.3736    4.3505498    4.3505498    4.3505498   -5836.3736    3266.3434   -11161.454   -9614.0105    3511.1245   -1438.7082    994.15462    82.344089 
    6300     423.4128   -108.44604    0.3831128   -108.06292   -3221.0079    4.3363151    4.3363151    4.3363151   -3221.0079    5252.1679   -4911.8868   -10003.305    1566.5517    7477.2478   -7192.2282    81.538458 
    6400    482.78225   -108.50108   0.43683152   -108.06425   -1405.4037    4.3507398    4.3507398    4.3507398   -1405.4037    1628.0524    2256.5754    -8100.839   -554.53495   -1309.0688    913.47446    82.354882 
    6500    365.12624    -108.3962    0.3303739   -108.06582    6188.3206    4.3373552    4.3373552    4.3373552    6188.3206    30470.913   -3146.8191   -8759.1323   -3650.8149   -2448.8285   -6159.3948    81.597145 
    6600    203.83385   -108.25245   0.18443315   -108.06801    2281.2133    4.3480768    4.3480768    4.3480768    2281.2133    10420.165   -440.30246   -3136.2227    417.33607   -4012.3345   -6209.9064    82.203751 
    6700    579.43432   -108.58559   0.52428435    -108.0613   -3023.2841     4.343754     4.343754     4.343754   -3023.2841    5000.6108     -10801.7   -3268.7634    4599.0796   -3651.2975    3026.3737    81.958815 
    6800     385.3367    -108.4121   0.34866074   -108.06344    1519.7748      4.33863      4.33863      4.33863    1519.7748    8882.5327   -1334.0251   -2989.1833    1642.6262    6226.0417   -5958.9627    81.669113 
    6900    445.15673   -108.46489   0.40278717   -108.06211   -6011.0167    4.3537468    4.3537468    4.3537468   -6011.0167    11867.938   -10127.696   -19773.292   -810.07062    1618.9341    258.22609    82.525756 
    7000    386.25637   -108.41058   0.34949288   -108.06109     13004.09    4.3310025    4.3310025    4.3310025     13004.09    29410.549    5453.9437    4147.7789   -2147.9959   -2626.9062   -4497.0752    81.239137 
    7100    285.90745   -108.32492   0.25869506   -108.06623   -9965.3683    4.3550832    4.3550832    4.3550832   -9965.3683   -5736.4053   -14080.271   -10079.428     1717.349   -2951.1041   -8416.0338    82.601772 
    7200    532.88747   -108.54457   0.48216778    -108.0624    6979.9797    4.3366077    4.3366077    4.3366077    6979.9797    11411.085   -3359.9159     12888.77     72.72941    4386.1053    1081.9062    81.554967 
    7300     385.4727   -108.41539    0.3487838    -108.0666   -2223.5898    4.3435484    4.3435484    4.3435484   -2223.5898    16023.387   -14678.643   -8015.5138    1649.2113    1607.6082   -6879.9064    81.947179 
    7400    362.54861   -108.39292   0.32804161   -108.06488   -9341.8199    4.3495318    4.3495318    4.3495318   -9341.8199     4654.896    -10439.14   -22241.215    -4647.167     555.2343    801.22405    82.286298 
    7500    505.54695    -108.5185    0.4574295   -108.06107    7293.4692    4.3327317    4.3327317    4.3327317    7293.4692    14582.553    2297.6288    5000.2254    1252.8458   -6045.2339   -2841.0081    81.336482 
    7600    250.64333    -108.2928   0.22678735   -108.06601   -12611.757    4.3562121    4.3562121    4.3562121   -12611.757    2664.5524   -20785.548   -19714.275    628.01013     3828.286   -10250.668    82.666024 
    7700    481.03911   -108.49743   0.43525429   -108.06217    14855.729    4.3291308    4.3291308    4.3291308    14855.729    20349.156    6243.5083    17974.522    2407.9948    4832.9055    1966.4899    81.133857 
    7800    360.95097   -108.38988   0.32659602   -108.06329   -12025.109    4.3569934    4.3569934    4.3569934   -12025.109    9239.1158   -28622.096   -16692.348   -1184.9193    3771.3179   -5461.0269    82.710513 
    7900    436.78969   -108.45556   0.39521649   -108.06035    3258.0003    4.3312291    4.3312291    4.3312291    3258.0003    8414.7608    8360.5861    -7001.346   -3403.3005   -2665.9015   -619.78716    81.251889 
    8000    416.94578   -108.44038   0.37726131   -108.06312   -6310.4205    4.3518439    4.3518439    4.3518439   -6310.4205    11167.493   -14785.218   -15313.536    3105.0991     -664.492    872.31861     82.41759 
    8100    356.78676   -108.38805   0.32282816   -108.06522    6351.2552    4.3376271    4.3376271    4.3376271    6351.2552    20263.889   -247.53815   -962.58482    3142.2697    3255.9851   -11271.958    81.612494 
    8200    377.96022    -108.4084   0.34198635   -108.06641    5425.3391    4.3430656    4.3430656    4.3430656    5425.3391    15661.944   -10766.842    11380.915    393.15674    1831.4565   -3067.4663    81.919854 
    8300    374.18586   -108.40139   0.33857123   -108.06282   -3538.7577    4.3485912    4.3485912    4.3485912   -3538.7577    2407.7927   -13179.302      155.236   -2244.4015   -1357.3583   -5406.8184    82.232926 
    8400    413.34334   -108.43565   0.37400174   -108.06165    2958.1685      4.33435      4.33435      4.33435    2958.1685    22319.804   -8325.8765    -5119.422   -1317.4911   -4066.7301   -3509.9471    81.427655 
    8500     454.9401     -108.473   0.41163936   -108.06136   -10146.672    4.3541283    4.3541283    4.3541283   -10146.672    4174.9844   -16132.846   -18482.154     856.1205    3028.0477    3044.4829    82.547451 
    8600    462.56884   -108.47989   0.41854201   -108.06135    7366.2851    4.3312051    4.3312051    4.3312051    7366.2851    15780.175   -4114.1208    10432.801    3422.2797    4245.2697   -6995.1586    81.250536 
    8700    307.06452   -108.34227   0.27783843   -108.06443   -2801.0432    4.3525637    4.3525637    4.3525637   -2801.0432   -392.97732    -16418.65    8408.4974   -1710.3352    1613.0737   -3668.7883    82.458495 
    8800    383.33403   -108.40961   0.34684868   -108.06277    2741.3737    4.3369601    4.3369601    4.3369601    2741.3737   -1237.0338    203.48781    9257.6671   -1471.4617    -5025.564   -3995.2137    81.574851 
    8900    337.88906   -108.37155   0.30572912   -108.06582   -2248.3312    4.3453643    4.3453643    4.3453643   -2248.3312    17559.697    -11811.47   -12493.221   -660.84713   -414.18768   -5476.6043    82.049998 
    9000    579.87112   -108.58748   0.52467957    -108.0628    -11655.61    4.3461733    4.3461733    4.3461733    -11655.61    -10117.26   -12888.405   -11961.165    -58.87096    2629.4813    6041.1394    82.095834 
    9100    354.93067   -108.38396   0.32114872   -108.06281    6598.8318    4.3353494    4.3353494    4.3353494    6598.8318    14111.976   -4824.9502     10509.47    7500.4731    358.26372   -5342.8572    81.483996 
    9200    416.60255   -108.43832   0.37695074   -108.06137   -11648.982    4.3534949    4.3534949    4.3534949   -11648.982   -12315.841   -23296.036    664.93186   -19.611678   -2657.7318   -5153.3744    82.511432 
    9300    235.06934   -108.27432   0.21269568   -108.06163     15938.73    4.3321441    4.3321441    4.3321441     15938.73     25964.96     12906.59    8944.6392   -251.90316   -4769.2616   -2845.7933    81.303398 
    9400    451.88598   -108.47341   0.40887593   -108.06453    -12260.01    4.3506814    4.3506814    4.3506814    -12260.01   -2303.7366    -17583.45   -16892.844   -843.14201    2005.8429   -10199.361    82.351565 
    9500     502.3372   -108.51716   0.45452525   -108.06263    922.59454    4.3403565    4.3403565    4.3403565    922.59454     10988.94    1093.9138   -9315.0703    1868.2483    4240.8918    3833.5288    81.766649 
    9600    438.32749   -108.46002   0.39660793   -108.06342   -3817.6624    4.3396175    4.3396175    4.3396175   -3817.6624     5053.786   -9779.9972    -6726.776    3783.0952    187.60836   -1390.6507    81.724892 
    9700    272.53289   -108.31204   0.24659349   -108.06545   -544.96657    4.3491457    4.3491457    4.3491457   -544.96657    19380.979   -20161.303   -854.57566   -1049.8102   -5255.5718   -6896.6306     82.26439 
    9800    440.74771   -108.46197   0.39879779   -108.06317    15026.136    4.3325416    4.3325416    4.3325416    15026.136    20350.753    13701.048    11026.606   -3679.6469   -205.86354   -415.67442    81.325776 
    9900     357.7131    -108.3891   0.32366633   -108.06543   -9494.0692    4.3541264    4.3541264    4.3541264   -9494.0692    5186.0931   -20522.049   -13146.252    816.89827     585.1157   -8445.9166     82.54734 
   10000    496.49307   -108.50889   0.44923736   -108.05965    9734.3017    4.3334694    4.3334694    4.3334694    9734.3017    21525.013    12983.428   -5305.5357    3884.0837    3233.3444   -923.85789    81.378038 
   10100    355.27611   -108.38418   0.32146129   -108.06272   -7383.8679    4.3487777    4.3487777    4.3487777   -7383.8679    12872.106   -16041.418   -18982.292    289.98874   -2017.9273    3189.2168    82.243506 
   10200    350.32588   -108.38107   0.31698222   -108.06409    1008.5451    4.3398855    4.3398855    4.3398855    1008.5451    7534.5363   -4305.3371   -203.56392   -424.82265   -2707.1255     -7158.46    81.740037 
   10300    520.19147     -108.534   0.47068018   -108.06332    2954.0539    4.3407137    4.3407137    4.3407137    2954.0539    4783.6365   -3562.2015    7640.7266    -2622.306    2478.9119   -525.09677    81.786837 
   10400    320.52562    -108.3558   0.29001832   -108.06578   -2937.8507    4.3470981    4.3470981    4.3470981   -2937.8507    3058.4669    416.64739   -12288.666    4900.6099    3949.2473     -9602.21    82.148249 
   10500    310.60355   -108.34495   0.28104062   -108.06391    6661.0681    4.3386085    4.3386085    4.3386085    6661.0681    23679.775    8530.9747   -12227.546    3942.9852    1240.7699   -4759.7588    81.667899 
   10600    494.99094   -108.51038    0.4478782    -108.0625   -5949.2146    4.3458192    4.3458192    4.3458192   -5949.2146     527.0727   -2008.2429   -16366.474    921.48463   -2154.6788    2046.5788    82.075771 
   10700    363.49298   -108.39284   0.32889608   -108.06394   -7207.0843    4.3430293    4.3430293    4.3430293   -7207.0843   -7702.5395    2775.6577   -16694.371   -3928.0048   -2094.8989   -7226.1407    81.917802 
   10800    573.29987    -108.5806   0.51873377   -108.06186   -1393.6992    4.3398121    4.3398121    4.3398121   -1393.6992    1002.4274   -2158.5874   -3024.9375      485.079    1731.4749    315.54892    81.735886 
   10900    196.54589   -108.24298   0.17783886   -108.06514    5480.0238    4.3461038    4.3461038    4.3461038    5480.0238    8940.4306     24944.16   -17444.519    3128.1894     6285.789   -7216.5135    82.091894 
   11000    331.42166   -108.36405   0.29987728   -108.06417    2359.5756    4.3408743    4.3408743    4.3408743    2359.5756    16179.892   -540.38658    -8560.779    3435.1854    2466.1833   -6578.1599     81.79592 
   11100    464.70173   -108.48127   0.42047189    -108.0608    2974.5909    4.3444295    4.3444295    4.3444295    2974.5909    8820.3912    9094.0431   -8990.6615   -2658.8945    2420.1231    2470.1261    81.997059 
   11200    505.45599   -108.52044    0.4573472   -108.06309   -10326.456    4.3420031    4.3420031    4.3420031   -10326.456   -8961.3026   -6554.3837   -15463.681   -4335.6786   -2449.0179     -6457.84    81.859743 
   11300    406.61236   -108.43268   0.36791141   -108.06477   -116.32529    4.3450353    4.3450353    4.3450353   -116.32529    10866.105    8798.0794    -20013.16    3169.3267   -4050.9935   -2125.1382    82.031361 
   11400    384.16996   -108.41165   0.34760506   -108.06404    2855.4737    4.3416622    4.3416622    4.3416622    2855.4737     14643.23    6672.3512    -12749.16    6340.3562    4199.3713   -3151.7433    81.840468 
   11500      230.589   -108.27457   0.20864177   -108.06592    1224.8464    4.3438448    4.3438448    4.3438448    1224.8464    20166.048   -6943.8665    -9547.642    2500.9327    1814.1591   -13645.386    81.963954 
   11600    513.54151   -108.52639   0.46466315   -108.06172    1852.5722     4.341563     4.341563     4.341563    1852.5722   -196.90578    703.07584    5051.5464    535.94681    3488.9703     3945.021    81.834859 
   11700    435.95489   -108.45793   0.39446115   -108.06347   -7798.3253    4.3451214    4.3451214    4.3451214   -7798.3253   -3052.8962   -8976.2782   -11365.801   -4937.3746   -1623.7751   -4073.9018    82.036239 
   11800    393.85979   -108.41996   0.35637262   -108.06359   -2615.7351    4.3423721    4.3423721    4.3423721   -2615.7351    3685.6551    5561.8731   -17094.733    4217.4525   -4631.1054   -4406.9251    81.880618 
   11900    396.99639   -108.42248   0.35921068   -108.06327    1571.8231    4.3447074    4.3447074    4.3447074    1571.8231    18661.319   -4120.2163   -9825.6336    1236.3627    1340.4114    812.84518    82.012793 
   12000    290.88908   -108.32877   0.26320255   -108.06557   -1924.5148    4.3426041    4.3426041    4.3426041   -1924.5148    12869.646   -11179.924   -7463.2666     1230.692    6273.8212   -13714.552    81.893744 
   12100    436.36846   -108.45767   0.39483536   -108.06283   -1702.7931    4.3422766    4.3422766    4.3422766   -1702.7931   -801.69564   -9594.4582    5287.7746   -2727.9566   -1245.6796    918.89007    81.875217 
   12200    473.41501      -108.49   0.42835585   -108.06165   -10288.723    4.3468736    4.3468736    4.3468736   -10288.723   -11802.001   -8062.0037   -11002.164   -1774.7076   -1195.8692   -2526.5353    82.135526 
   12300    337.97809   -108.37028   0.30580968   -108.06447    477.51434    4.3383449    4.3383449    4.3383449    477.51434    13021.209   -2304.8479   -9283.8176    4201.2591   -6016.2766    -5663.894    81.653015 
   12400    446.03567   -108.46705   0.40358245   -108.06346   -2120.3786    4.3476374    4.3476374    4.3476374   -2120.3786    8675.5295   -3336.8948   -11699.771    6169.7581    2096.5725    66.485647     82.17883 
   12500    280.54299   -108.31831    0.2538412   -108.06447    6631.9225    4.3410213    4.3410213    4.3410213    6631.9225    23218.822   -8940.3411    5617.2869    2779.7414      7919.52   -10099.223    81.804229 
   12600    422.56453   -108.44575   0.38234526    -108.0634   -2820.9369    4.3435507    4.3435507    4.3435507   -2820.9369   -9856.3903   -5888.2039    7281.7835    394.56438   -1653.0053     -3200.14    81.947308 
   12700    452.15827   -108.47101    0.4091223   -108.06188   -6810.9833    4.3478361    4.3478361    4.3478361   -6810.9833   -500.35392   -13974.044   -5958.5521   -302.62142   -4048.6222   -620.42912    82.190098 
   12800    461.33999   -108.47886   0.41743012   -108.06143     290.6294    4.3360664    4.3360664    4.3360664     290.6294    13183.902   -7559.3715    -4752.642   -2252.8009    -5172.332   -5566.7097    81.524431 
   12900    354.93298   -108.38426   0.32115082   -108.06311   -666.47278    4.3512945    4.3512945    4.3512945   -666.47278    10486.916   -6231.6229   -6254.7116    5727.7865    1673.8554   -81.787544    82.386381 
   13000    387.02217   -108.41288    0.3501858   -108.06269    12580.478    4.3341461    4.3341461    4.3341461    12580.478    16619.371   -7184.8629    28306.925   -1168.0597    8349.8421   -9538.1314    81.416163 
   13100    289.68031    -108.3278   0.26210883   -108.06569    1074.5713     4.349321     4.349321     4.349321    1074.5713    -3878.618   -1958.2702     9060.602    1345.6568   -2031.5621   -7374.7072    82.274338 
   13200    518.90271   -108.53027   0.46951407   -108.06076   -5181.1678    4.3442987    4.3442987    4.3442987   -5181.1678   -3663.7978   -7076.8411   -4802.8646   -830.96575   -5580.3321   -668.73627     81.98965 
   13300    451.90011   -108.47044   0.40888872   -108.06155    4751.1514    4.3365042    4.3365042    4.3365042    4751.1514    14474.158   -3290.3573     3069.654    -3768.577    1135.4881   -4579.9464    81.549128 
   13400    379.85947   -108.40607   0.34370483   -108.06236   -5988.8138    4.3548303    4.3548303    4.3548303   -5988.8138   -1243.4969   -18407.875    1684.9312    2190.0552    2373.5191    1639.3825    82.587384 
   13500    349.47682   -108.37639   0.31621397   -108.06017    15883.904    4.3301565    4.3301565    4.3301565    15883.904     13678.27    933.18235     33040.26    2571.6471    3701.7956   -4889.2356    81.191541 
   13600    343.54872   -108.37427    0.3108501   -108.06342   -6532.9945    4.3527625    4.3527625    4.3527625   -6532.9945   -4511.3982    -2867.825    -12219.76    4282.7734   -819.13833   -10808.027    82.469795 
   13700    493.49287   -108.50732   0.44652272    -108.0608   -811.03233    4.3395429    4.3395429    4.3395429   -811.03233   -14691.697    20232.491   -7973.8904    412.97369   -7747.2404    2142.0643     81.72068 
   13800    454.18989    -108.4732   0.41096056   -108.06224   -462.82042    4.3405723    4.3405723    4.3405723   -462.82042    3970.8823   -1703.2612   -3656.0824   -2706.7262   -1745.0228   -274.47129    81.778849 
   13900    413.32219   -108.43492    0.3739826   -108.06094   -7551.3871    4.3516974    4.3516974    4.3516974   -7551.3871   -8627.1514    -9691.431   -4335.5788   -457.13762    4024.9994   -551.18962    82.409267 
   14000    285.44534   -108.31851   0.25827695   -108.06023    14386.401    4.3333629    4.3333629    4.3333629    14386.401    6803.0284    10644.652    25711.521     3982.135    2503.1353   -4736.6126    81.372038 
   14100    318.23348   -108.35134   0.28794434    -108.0634   -4705.6446    4.3518918    4.3518918    4.3518918   -4705.6446   -10616.939    7716.2197   -11216.215    1871.0746    4465.7707   -14156.435    82.420313 
   14200    432.08882   -108.45159   0.39096305   -108.06063    3650.6636    4.3384391    4.3384391    4.3384391    3650.6636   -11539.397    24118.388   -1627.0002    3686.1741   -4251.8491   -512.14379    81.658333 
   14300    522.14416    -108.5344   0.47244701   -108.06196   -8478.2063    4.3435819    4.3435819    4.3435819   -8478.2063   -9796.8767    127.24286   -15764.985   -4293.2328   -1849.9268   -596.12407    81.949072 
   14400    478.89729   -108.49585   0.43331633   -108.06254   -12948.207    4.3470603    4.3470603    4.3470603   -12948.207   -13671.329   -8831.5448   -16341.746   -673.11617   -3025.8408   -3925.3391    82.146107 
   14500    288.70646   -108.32421   0.26122767   -108.06298    10847.645    4.3369769    4.3369769    4.3369769    10847.645    -6458.677    32625.584    6376.0292    6401.3267   -1223.0027    -3879.618    81.575797 
   14600    303.41408   -108.33823   0.27453544    -108.0637   -942.84333    4.3490587    4.3490587    4.3490587   -942.84333   -7899.6571    3342.4377    1728.6894    4656.1552    4319.8515   -10916.885    82.259452 
   14700     413.0676   -108.43526   0.37375224   -108.06151    3022.9519    4.3391656    4.3391656    4.3391656    3022.9519    5960.8156    803.33071    2304.7094    3853.0693    1275.8909   -2745.8743    81.699365 
   14800    443.49789   -108.46345   0.40128621   -108.06216   -3677.4212    4.3454692    4.3454692    4.3454692   -3677.4212   -632.34867   -6660.5567   -3739.3584   -4.9158278    160.48381    5065.4206    82.055942 
   14900    428.31162   -108.44958   0.38754535   -108.06203    -9439.384    4.3451292    4.3451292    4.3451292    -9439.384   -7761.5263   -4774.3071   -15782.319    -8285.657   -3831.2958    -7274.823    82.036684 
   15000    376.87709   -108.40301   0.34100631     -108.062     6719.776    4.3385915    4.3385915    4.3385915     6719.776   -10704.739    23765.906    7098.1613     3237.625   -2626.9955   -2156.1304    81.666943 
   15100    401.31076   -108.42601   0.36311441    -108.0629   -4346.0826    4.3476138    4.3476138    4.3476138   -4346.0826   -13039.668   -8666.6237    8668.0436     2524.242    1643.2114   -9506.2918    82.177492 
   15200    374.38555    -108.4012   0.33875191   -108.06245     1221.241    4.3397062    4.3397062    4.3397062     1221.241    11810.144   -7868.6435   -277.77769    2825.9333    5456.1819   -6326.8016    81.729904 
   15300     410.2326   -108.43291   0.37118708   -108.06172    789.84869    4.3447968    4.3447968    4.3447968    789.84869     2763.997   -3975.3545    3580.9035   -1669.8305    1330.2688    6283.0309    82.017853 
   15400    367.56239   -108.39628   0.33257818    -108.0637   -3723.2291    4.3434593    4.3434593    4.3434593   -3723.2291    3982.2355    3035.9786   -18187.901   -5434.2954   -1731.6154   -8055.3032    81.942132 
   15500    387.42376    -108.4135   0.35054916   -108.06295    2647.0963    4.3421209    4.3421209    4.3421209    2647.0963   -11248.266    15074.733    4114.8226    551.33322   -2961.9013   -5360.9277    81.866407 
   15600    505.61463   -108.51946   0.45749075   -108.06197   -7408.2466    4.3449892    4.3449892    4.3449892   -7408.2466   -15250.853   -8102.4482    1128.5616     5950.744   -1648.3742   -3114.2502    82.028754 
   15700    318.95154    -108.3518   0.28859406   -108.06321    -607.4832    4.3417415    4.3417415    4.3417415    -607.4832    9762.6497   -12690.463    1105.3639    499.58359     6201.105   -4488.9957    81.844952 
   15800    494.97975   -108.50897   0.44786808    -108.0611   -1898.8429    4.3440724    4.3440724    4.3440724   -1898.8429    4564.3219   -5008.4481   -5252.4027    -1171.591    99.092875    5021.4186     81.97684 
   15900    263.74218   -108.30318   0.23863947   -108.06454    6174.8423    4.3414093    4.3414093    4.3414093    6174.8423    12402.996    13724.837   -7603.3057   -6866.9471   -2534.8697   -5281.6193    81.826166 
   16000    388.11977   -108.41601   0.35117892   -108.06483    116.17823      4.34399      4.34399      4.34399    116.17823   -5018.8914    6761.2712   -1393.8451   -3988.0431   -2054.4284   -11263.393    81.972171 
   16100    497.03492   -108.51086   0.44972764   -108.06113   -1205.8789    4.3444319    4.3444319    4.3444319   -1205.8789   -8214.6732    1282.6564      3314.38     3555.675   -2686.7689    46.273725    81.997192 
   16200    363.32942   -108.39136    0.3287481   -108.06261   -3045.3204    4.3400713    4.3400713    4.3400713   -3045.3204    3759.1232   -13156.473    261.38876   -293.50726    5992.8464   -6517.5778    81.750531 
   16300    493.89662   -108.50883   0.44688804   -108.06194   -6447.9299    4.3472611    4.3472611    4.3472611   -6447.9299   -7458.7743   -2652.4279   -9232.5873    -1038.821    661.68639    2932.1522    82.157493 
   16400    321.99983    -108.3546   0.29135222   -108.06324    10802.985    4.3382692    4.3382692    4.3382692    10802.985    13193.792    18499.376    715.78667    -5460.836   -702.56207   -3788.0538    81.648743 
   16500    299.32809   -108.33736   0.27083835   -108.06652    1115.0294    4.3440981    4.3440981    4.3440981    1115.0294    5437.0424    709.32285   -2801.2772    -5760.374   -3902.2341   -9980.9705    81.978295 
   16600    456.70621    -108.4752   0.41323737   -108.06196    2839.2324    4.3442285    4.3442285    4.3442285    2839.2324     -63.6834   -1031.6382    9613.0187    2840.2106   -3310.5425    485.89805    81.985678 
   16700    465.73377     -108.484   0.42140571   -108.06259   -4939.7248    4.3394672    4.3394672    4.3394672   -4939.7248   -5394.7003   -8443.9693    -980.5049      3914.62    633.78951   -1232.5835    81.716402 
   16800    409.85303   -108.43368   0.37084363   -108.06284    -8266.291    4.3494774    4.3494774    4.3494774    -8266.291   -11612.318    -4155.673   -9030.8825   -2520.6726    3833.3952   -1686.2352    82.283214 
   16900    477.76209   -108.49208   0.43228918   -108.05979    8099.0944    4.3375957    4.3375957    4.3375957    8099.0944    6306.1002    18100.515   -109.33228   -1832.0704   -371.95133   -2999.8508    81.610721 
   17000     235.6193   -108.27775    0.2131933   -108.06456      623.346    4.3465421    4.3465421    4.3465421      623.346    17520.317   -19164.281    3514.0023   -8162.0472   -3886.2434   -11868.534    82.116736 
   17100    385.43533   -108.41261   0.34874998   -108.06386    6220.4998    4.3403219    4.3403219    4.3403219    6220.4998    10593.777     1504.368    6563.3544    -674.9226   -3109.7695    1094.5956    81.764693 
   17200    481.03889   -108.49889    0.4352541   -108.06363   -676.96029    4.3409708    4.3409708    4.3409708   -676.96029    -1789.555   -9476.7427    9235.4168    3315.6496    658.34506    35.714719    81.801375 
   17300    393.96275   -108.42042   0.35646577   -108.06395   -11584.214    4.3481642    4.3481642    4.3481642   -11584.214   -10742.289   -6726.7849   -17283.567   -3264.8102    4681.7627   -3451.6114    82.208706 
   17400    492.50735    -108.5074     0.445631   -108.06177    6736.0438    4.3357737    4.3357737    4.3357737    6736.0438    6642.3562    6438.3313    7127.4439   -4606.1962    1133.2285    479.72342    81.507923 
   17500    320.53992   -108.35463   0.29003126    -108.0646    -4830.694    4.3501287    4.3501287    4.3501287    -4830.694    10163.359   -25359.054    703.61278   -2203.9838   -6360.6002   -10227.319    82.320181 
   17600    221.23708   -108.26471   0.20017996   -108.06453    8897.9376    4.3383377    4.3383377    4.3383377    8897.9376    17152.513   -2519.4747    12060.774   -3541.0936   -5290.8482    2084.4996     81.65261 
   17700    563.25739   -108.57175   0.50964712    -108.0621   -3014.8856    4.3427699    4.3427699    4.3427699   -3014.8856    36.463288   -10002.437    921.31726    5889.5207    -1017.506    -309.1399    81.903125 
   17800    389.40319   -108.41574   0.35234019    -108.0634   -12780.428    4.3482453    4.3482453    4.3482453   -12780.428   -12131.108   -8239.2253   -17970.951   -418.21618    5364.5258   -4816.2796    82.213304 
   17900    494.95481   -108.50859   0.44784552   -108.06074    4590.8139    4.3332365    4.3332365    4.3332365    4590.8139     6886.117    2376.7475    4509.5771   -5419.3105    2510.9806    1854.4736    81.364917 
   18000    345.79213   -108.37526   0.31287999   -108.06238   -5471.4457    4.3533953    4.3533953    4.3533953   -5471.4457    2668.3617   -19518.807    436.10772   -2270.8965   -3502.9144   -7777.4505     82.50577 
   18100     223.0342   -108.26517   0.20180603   -108.06336    12231.764    4.3331486    4.3331486    4.3331486    12231.764    22506.934   -5049.7598    19238.117   -5275.2106   -6282.0706   -829.44909    81.359962 
   18200    458.51707   -108.47718   0.41487588    -108.0623   -5148.0425    4.3492975    4.3492975    4.3492975   -5148.0425   -2958.7126   -12041.347    -444.0673    1289.7999    291.29752    5597.4875    82.273004 
   18300    512.19494   -108.52568   0.46344475   -108.06224   -3725.8537    4.3388306    4.3388306    4.3388306   -3725.8537    3946.2977    -3889.008   -11234.851    386.94826    2665.4422   -5916.6175    81.680444 
   18400    406.09403   -108.43166   0.36744241   -108.06422   -2144.9286    4.3431907    4.3431907    4.3431907   -2144.9286   -4977.9789   -3265.8632    1809.0565   -4634.4052    1993.6196   -452.84294    81.926932 
   18500    421.39723   -108.44365   0.38128907   -108.06236    1753.2065    4.3454125    4.3454125    4.3454125    1753.2065    8012.8727   -8714.9951    5961.7418   -1791.3249     -4094.08   -4056.6793     82.05273 
   18600    225.29664   -108.26717   0.20385314   -108.06331    10361.014    4.3379887    4.3379887    4.3379887    10361.014    23649.977   -7652.7306    15085.796   -1870.2923   -7481.9406   -6076.0694    81.632904 
   18700    430.55549   -108.45166   0.38957566   -108.06209   -5100.0163    4.3473829    4.3473829    4.3473829   -5100.0163    4971.5387   -16453.936   -3817.6516    3194.0702   -926.02437    6756.2104    82.164396 
   18800    524.22855   -108.53627   0.47433301   -108.06194   -882.50892    4.3385508    4.3385508    4.3385508   -882.50892    4221.8004   -1358.3331   -5510.9941    2532.4409    5932.8412   -5596.4961    81.664644 
   18900    430.82834   -108.45291   0.38982254   -108.06309   -8854.8045    4.3461656    4.3461656    4.3461656   -8854.8045   -12270.617   -8764.9358   -5528.8606   -4773.5331     3401.513   -3063.7846    82.095398 
   19000    373.93141   -108.40039     0.338341   -108.06205    6547.3066    4.3402297    4.3402297    4.3402297    6547.3066    8992.9514      1048.22    9600.7483   -1477.5269   -1603.9679    1230.5617    81.759483 
   19100    280.26287   -108.31689   0.25358774   -108.06331    6014.3556     4.343468     4.343468     4.343468    6014.3556    23997.203   -12350.928    6396.7914    1009.1821   -6614.7731   -6567.7362    81.942625 
   19200    385.48632   -108.41176   0.34879612   -108.06297    1025.5936    4.3420261    4.3420261    4.3420261    1025.5936    15173.539   -6860.8778   -5235.8802   -2027.9475   -1179.9009    5513.4859    81.861045 
   19300    512.51344    -108.5258   0.46373293   -108.06207   -4123.8966    4.3418804    4.3418804    4.3418804   -4123.8966   -4726.6266    -3867.025   -3778.0382    5557.5146    5152.1282   -2539.6157    81.852808 
   19400    475.92075   -108.49375    0.4306231   -108.06313   -8776.3114      4.34472      4.34472      4.34472   -8776.3114    153.65351   -10692.298   -15790.289   -4569.8324    1489.7453   -4554.9404    82.013504 
   19500    310.51558   -108.34466   0.28096102    -108.0637    9610.7951    4.3384239    4.3384239    4.3384239    9610.7951    20232.977    2033.7586    6565.6499   -3802.5018   -1314.5278    1313.7314    81.657477 
   19600    319.81534   -108.35306   0.28937564   -108.06369    1325.4164    4.3462997    4.3462997    4.3462997    1325.4164    27559.216   -23122.088   -460.87934    2495.3267   -7939.7091   -6456.9621    82.102998 
   19700    401.29191   -108.42534   0.36309735   -108.06224    7673.6877    4.3389374    4.3389374    4.3389374    7673.6877    10212.501    4370.2548    8438.3077   -890.68856   -388.96443    2189.0392    81.686477 
   19800    523.44636    -108.5349   0.47362527   -108.06127   -8100.9125    4.3454673    4.3454673    4.3454673   -8100.9125   -5596.0049   -14288.795   -4417.9381    1737.8756      4217.21    819.98015    82.055834 
   19900    390.82605   -108.41525   0.35362763   -108.06162   -454.95824    4.3414742    4.3414742    4.3414742   -454.95824    7481.9084    2571.0197   -11417.803   -1121.7463    4443.6918   -4349.3171    81.829832 
   20000    381.11201   -108.40706   0.34483816   -108.06222    1792.4483    4.3419381    4.3419381    4.3419381    1792.4483    23972.983   -13117.155    -5478.483   -2869.6836   -2203.7265    2051.5377     81.85607 
   20100    349.34133   -108.37961   0.31609137   -108.06351    582.55148    4.3435859    4.3435859    4.3435859    582.55148     11545.06   -16108.227     6310.821    2398.7223   -5699.8285   -5392.5925    81.949298 
   20200    397.57893   -108.42324   0.35973777   -108.06351    4766.7375    4.3404497    4.3404497    4.3404497    4766.7375    2927.7862    -5318.734     16691.16    2550.6647   -2413.1623   -248.08315    81.771916 
   20300    470.53139   -108.48824   0.42574669   -108.06249   -6058.8576    4.3437519    4.3437519    4.3437519   -6058.8576   -10034.927   -11976.048    3834.4014   -1540.9585     3917.432    6388.8632    81.958698 
   20400    357.12468   -108.38648   0.32313392   -108.06334   -5420.4941    4.3429049    4.3429049    4.3429049   -5420.4941   -407.65882   -2370.6309   -13483.193   -341.36229    4361.2989   -7888.4429    81.910759 
   20500    420.51379   -108.44334   0.38048971   -108.06285     2534.344    4.3408131    4.3408131    4.3408131     2534.344    22277.687   -13759.541   -915.11478   -4186.2726   -6124.6517    3226.6704    81.792461 
   20600    336.73564   -108.36918   0.30468548   -108.06449    1600.1097    4.3450116    4.3450116    4.3450116    1600.1097   -4114.4164     -9853.29    18768.035    2347.2072    -3447.298   -2826.3671    82.030019 
   20700    355.06781   -108.38553   0.32127282   -108.06425    2911.9811    4.3394556    4.3394556    4.3394556    2911.9811   -994.08554   -12525.756    22255.785   -1219.5317   -2015.5203    -3795.398    81.715744 
   20800    488.65788   -108.50394   0.44214792   -108.06179   -10938.822    4.3456446    4.3456446    4.3456446   -10938.822   -18752.621    -11630.46   -2433.3857   -592.02151    5139.1162    5210.3646    82.065876 
   20900    466.98411   -108.48471   0.42253703   -108.06218   -9261.4081    4.3415324    4.3415324    4.3415324   -9261.4081   -9563.0648   -11273.738    -6947.422    3381.9162    3534.8196     -4721.71    81.833125 
   21000    357.09781   -108.38702    0.3231096   -108.06391    4739.0436     4.342242     4.342242     4.342242    4739.0436    10.067134    -7278.643    21485.707   -3922.4857   -3898.4041   -314.71839    81.873258 
   21100    348.44643   -108.37887   0.31528165   -108.06359    3939.9102    4.3429907    4.3429907    4.3429907    3939.9102   -2869.0557   -13557.291    28246.077     3101.147    -5572.508    2445.3456    81.915617 
   21200    317.53726    -108.3511   0.28731439   -108.06379    1879.7413    4.3413769    4.3413769    4.3413769    1879.7413    1871.9027   -4269.0322    8036.3533    1430.2591   -3912.5376   -5182.1375    81.824335 
   21300    513.83401   -108.52621   0.46492781   -108.06128   -8825.0859    4.3437378    4.3437378    4.3437378   -8825.0859   -1488.1022   -15658.384    -9328.771   -241.49889    3043.7121    5336.3216    81.957899 
   21400    438.20664    -108.4585   0.39649858     -108.062   -4025.6228    4.3421019    4.3421019    4.3421019   -4025.6228   -9542.2027   -9497.7626     6963.097    4955.0859    2548.0885    65.676051    81.865331 
   21500    385.70337   -108.41247   0.34899251   -108.06348    1846.3966    4.3418817    4.3418817    4.3418817    1846.3966   -5159.9682   -9526.8601    20226.018    -193.8715   -1139.9328   -6703.4628    81.852877 
   21600    323.94476    -108.3569   0.29311202   -108.06379    1371.9473    4.3429777    4.3429777    4.3429777    1371.9473     5044.968   -9028.6415    8099.5153   -4223.7668   -7962.6642    3793.4931    81.914881 
   21700    347.56901   -108.37874   0.31448774   -108.06425    7.0004039    4.3409677    4.3409677    4.3409677    7.0004039    11077.922   -4913.3793   -6143.5411    2509.5535     248.7371    -3700.302    81.801199 
   21800    451.90013   -108.47188   0.40888873   -108.06299   -5087.5843    4.3448919    4.3448919    4.3448919   -5087.5843    9285.1479   -7734.6568   -16813.244   -3285.1601    5779.4568    2763.6895    82.023239 
   21900    509.70672   -108.52271   0.46119335   -108.06152   -3836.6829    4.3417051    4.3417051    4.3417051   -3836.6829   -3232.4105   -13003.264    4725.6255    1479.7254    4052.6363    3855.4612    81.842891 
   22000    373.12667   -108.39962   0.33761285     -108.062   -145.33741    4.3436446    4.3436446    4.3436446   -145.33741   -316.64864    -7228.857    7109.4934    2856.8076   -1877.3926   -4358.1452     81.95262 
   22100    262.89575   -108.30047    0.2378736   -108.06259     6749.989     4.341286     4.341286     4.341286     6749.989    27044.305   -10256.424    3462.0861   -2073.4309   -7459.2585    5060.4695    81.819193 
   22200    375.15726    -108.4022   0.33945017   -108.06275   -289.20952    4.3421315    4.3421315    4.3421315   -289.20952    13785.116   -11812.139   -2840.6054    4697.9548   -3073.6913   -3313.7279    81.867009 
   22300    450.07651   -108.46946   0.40723868   -108.06222   -2808.7434    4.3433488    4.3433488    4.3433488   -2808.7434     12403.08   -1146.1696   -19683.141   -592.36463    3560.1069    831.48264    81.935882 
   22400    611.30737    -108.6147   0.55312375   -108.06157    -7374.669    4.3412832    4.3412832    4.3412832    -7374.669   -171.94683   -14045.186   -7906.8738    5278.7314    2295.1662     4646.682    81.819037 
   22500    267.61311   -108.30698   0.24214196   -108.06483     5583.001    4.3433959    4.3433959    4.3433959     5583.001    23001.169   -638.21947   -5613.9467    4846.8046   -3596.8026    -3057.238    81.938544 
   22600    288.54126   -108.32582   0.26107819   -108.06474    1983.5995    4.3411938    4.3411938    4.3411938    1983.5995    18323.739   -14735.125    2362.1844   -1797.7811   -4342.9155       2601.3    81.813983 
   22700    377.23444   -108.40673   0.34132965    -108.0654    3882.4294    4.3422478    4.3422478    4.3422478    3882.4294    3661.5142   -119.00162    8104.7756    719.60534   -2204.4646   -2622.5738    81.873583 
   22800    522.15048   -108.53735   0.47245272    -108.0649   -11455.299    4.3439105    4.3439105    4.3439105   -11455.299   -11474.419   -14588.653   -8302.8247    486.81295    6466.8126   -4121.2082    81.967673 
   22900    455.84709   -108.47599   0.41246003   -108.06353      1632.74    4.3388043    4.3388043    4.3388043      1632.74    12212.377    1811.3116   -9125.4686    1079.9022    5817.9337    6306.1895     81.67896 
   23000    348.36386   -108.37764   0.31520694   -108.06244   -4988.7887    4.3491387    4.3491387    4.3491387   -4988.7887    11307.249   -17982.277   -8291.3379    2913.3531   -4432.1251   -2312.6459    82.263992 
   23100    253.27464   -108.29115   0.22916821   -108.06198    12877.187      4.33349      4.33349      4.33349    12877.187    18275.195    4349.1179    16007.249   -2447.2778   -4911.1067    85.270139    81.379195 
   23200    442.94793   -108.46213    0.4007886   -108.06134   -7467.1055    4.3523676    4.3523676    4.3523676   -7467.1055    -14370.74   -12516.403     4485.827   -1664.5058   -3282.9524    715.20224    82.447351 
   23300    504.30561   -108.51696   0.45630631   -108.06066    3252.9752    4.3329507    4.3329507    4.3329507    3252.9752    366.54396   -234.23247     9626.614    6872.3201    3887.7395    -6670.324    81.348818 
   23400     392.5548   -108.41858   0.35519184   -108.06339   -8977.1566    4.3485075    4.3485075    4.3485075   -8977.1566   -5482.3564   -5814.9556   -15634.158   -911.42905    3384.2938    5767.1435     82.22818 
   23500    398.89741   -108.42299   0.36093076   -108.06206    4872.0908    4.3393309    4.3393309    4.3393309    4872.0908    17036.098   -10464.874    8045.0487    4604.5609   -2924.7528   -952.73943    81.708703 
   23600    251.57645   -108.29173   0.22763166    -108.0641    7573.8803    4.3407687    4.3407687    4.3407687    7573.8803    7146.2503   -3203.5838    18778.974    1389.1605   -6081.6036   -3823.0775    81.789948 
   23700    441.90505   -108.46246   0.39984497   -108.06262   -1994.2907    4.3455941    4.3455941    4.3455941   -1994.2907   -2948.8492    -6855.352    3821.3292   -1094.1853    2084.8262    3076.9975    82.063018 
   23800    523.94896   -108.53504   0.47408003   -108.06096   -2100.0513    4.3387286    4.3387286    4.3387286   -2100.0513    -9632.566     1903.316    1429.0962    362.07884    1760.8395   -6375.6765    81.674682 
   23900    423.06696    -108.4455   0.38279988    -108.0627   -11247.982    4.3457342    4.3457342    4.3457342   -11247.982   -15145.723   -6602.8182   -11995.406    1987.8792    4956.9626    4277.9619    82.070955 
   24000    352.79306   -108.38207   0.31921457   -108.06286    3733.3163    4.3416814    4.3416814    4.3416814    3733.3163    656.15755   -8608.7239    19152.515    3274.7682   -2633.7916    5484.3412    81.841549 
   24100    363.64776   -108.39127   0.32903613   -108.06224     6101.552    4.3414357    4.3414357    4.3414357     6101.552    12769.164   -11272.192    16807.683   -309.37639   -9057.4387   -6775.7481     81.82766 
   24200    331.51469     -108.363   0.29996146   -108.06304    807.44542    4.3441984    4.3441984    4.3441984    807.44542    12713.989   -3900.6538   -6390.9987   -2048.8904    533.70836    3380.5066     81.98397 
   24300    473.46513   -108.48885    0.4284012   -108.06045    -2969.371    4.3402015    4.3402015    4.3402015    -2969.371     -1021.04   -4028.6351   -3858.4378   -1160.8252    1365.5608   -2022.6528    81.757889 
   24400    370.18041   -108.39803   0.33494702   -108.06308    -4940.378    4.3436344    4.3436344    4.3436344    -4940.378   -17722.528    1045.1426     1856.252     932.3187    4554.2612    2170.6883    81.952047 
   24500    423.38127   -108.44845   0.38308427   -108.06537   -1109.6551    4.3410707    4.3410707    4.3410707   -1109.6551   -4615.6931    -8566.101    9852.8287    2406.4671   -631.90283    7385.4504    81.807019 
   24600    447.04469   -108.46932   0.40449543   -108.06482    2852.0755    4.3420169    4.3420169    4.3420169    2852.0755    8199.7549   -9525.9739    9882.4454    2482.4277   -6016.2058   -5936.7882    81.860524 
   24700    345.58843   -108.37661   0.31269568   -108.06392   -2590.5185    4.3439958    4.3439958    4.3439958   -2590.5185    15806.588   -10649.253    -12928.89   -3986.4822     1950.102    361.21181    81.972502 
   24800     385.7472   -108.41097   0.34903217   -108.06194    259.29903    4.3400925    4.3400925    4.3400925    259.29903    4886.0623   -3195.6041   -912.56112     645.5691    7362.7132    5289.6474    81.751733 
   24900    383.77548   -108.40909   0.34724812   -108.06184   -784.37024    4.3440846    4.3440846    4.3440846   -784.37024   -12745.752    -7114.144    17506.785    333.29553     3032.758    -2226.422    81.977532 
   25000    439.24258   -108.45992   0.39743592   -108.06248    -2963.038    4.3415257    4.3415257    4.3415257    -2963.038   -8955.3046   -6538.5102    6604.7008    1053.2445    1137.3887     9090.983    81.832746 
   25100    468.64149   -108.48579   0.42403667   -108.06176    28.116521    4.3421701    4.3421701    4.3421701    28.116521    1094.3874   -6250.7098     5240.672    4221.0759   -5528.9167   -2386.7598    81.869191 
   25200    426.61206    -108.4482   0.38600755   -108.06219   -7764.4206     4.343381     4.343381     4.343381   -7764.4206    7125.2685   -15455.329   -14963.201    1346.5133   -1361.6093   -676.13507      81.9377 
   25300    224.25578   -108.26635   0.20291135   -108.06344    7438.8601    4.3412262    4.3412262    4.3412262    7438.8601    9367.0361   -2732.6473    15682.191   -2152.5649    8375.5253    8382.1617     81.81581 
   25400    441.89729   -108.46104   0.39983796    -108.0612   -1196.7749     4.343873     4.343873     4.343873   -1196.7749   -6534.9958   -14759.886    17704.557    324.20518    1550.3221   -441.83013    81.965552 
   25500    362.03501   -108.39116   0.32757689   -108.06359    1953.4828     4.339613     4.339613     4.339613    1953.4828   -5447.4141     5327.197    5980.6656     -2268.61   -664.61644    8015.8101    81.724639 
   25600    531.09778   -108.54343   0.48054843   -108.06288   -13429.283    4.3462451    4.3462451    4.3462451   -13429.283   -18761.501   -11581.751    -9944.597    2454.4832   -2475.7476   -44.497308    82.099901 
   25700    417.80345   -108.44139   0.37803734   -108.06336    1938.1066     4.336071     4.336071     4.336071    1938.1066   -8925.7563    2531.9055    12208.171    4263.1626   -1367.9482   -7561.3642    81.524688 
   25800    265.93361   -108.30664   0.24062232   -108.06602   -1651.8084    4.3480832    4.3480832    4.3480832   -1651.8084   -2080.9802   -15014.788    12140.343   -2239.5185    5956.8936    9298.0546    82.204109 
   25900    448.66659   -108.46857   0.40596296   -108.06261    8950.9419    4.3364342    4.3364342    4.3364342    8950.9419    6349.0947     1219.695    19284.036    1589.1385    5816.8651    3596.2489     81.54518 
   26000    365.60401   -108.39531   0.33080619    -108.0645   -3199.6239    4.3453052    4.3453052    4.3453052   -3199.6239    2362.8708    2448.5321   -14410.275   -4423.5805   -2325.1834    509.53928     82.04665 
   26100    416.87917    -108.4412   0.37720103   -108.06399    -4827.307    4.3412995    4.3412995    4.3412995    -4827.307   -6265.3819    -7041.936    -1174.603    4284.1951   -537.01468    3889.3253    81.819957 
   26200    434.49008   -108.45624   0.39313576    -108.0631    3675.8166    4.3393023    4.3393023    4.3393023    3675.8166   -11382.595    1709.1074    20700.937    2899.7944   -3876.7227   -4882.8973    81.707085 
   26300     379.9418   -108.40788   0.34377933    -108.0641   -5182.1927    4.3469977    4.3469977    4.3469977   -5182.1927   -4612.7742   -16958.569    6024.7651    3513.5719    3431.9779    7487.0238    82.142562 
   26400    439.34059    -108.4587   0.39752459   -108.06117    9305.9333    4.3356934    4.3356934    4.3356934    9305.9333    5830.8027    16857.571    5229.4261   -684.84894    5465.8962    6138.4625    81.503393 
   26500    389.08882   -108.41391   0.35205574   -108.06185   -3725.9103    4.3480552    4.3480552    4.3480552   -3725.9103     7082.426   -6486.0863   -11774.071      -5006.6   -3984.7106   -5844.6969    82.202521 
   26600    311.53949   -108.34454   0.28188748   -108.06266    4405.0695    4.3369978    4.3369978    4.3369978    4405.0695    2525.8799    1105.3476    9583.9809    -1519.334   -3931.7546      1651.24    81.576977 
   26700    432.36969   -108.45412   0.39121718   -108.06291    3332.3145    4.3440805    4.3440805    4.3440805    3332.3145   -3017.8563   -9523.7016    22538.501    1702.5834   -3391.4488   -1386.1373    81.977299 
   26800    454.40861   -108.47408   0.41115846   -108.06292   -4763.9891    4.3432228    4.3432228    4.3432228   -4763.9891   -5693.2167   -10866.709     2267.958     1664.947    911.80728    2953.0413    81.928749 
   26900    414.70234   -108.43819   0.37523139   -108.06296     1791.886    4.3373256    4.3373256    4.3373256     1791.886   -1332.9343    9827.0425   -3118.4503   -1627.1577    2996.4556    8011.1532    81.595474 
   27000    429.34758   -108.45061   0.38848271   -108.06213    -4432.387    4.3472393    4.3472393    4.3472393    -4432.387    -2056.873    -9088.404   -2151.8841   -68.629744   -1660.3003    -7213.051    82.156255 
   27100    221.95517    -108.2651    0.2008297   -108.06427    9067.1764    4.3369477    4.3369477    4.3369477    9067.1764    5326.7992   -1275.5254    23150.255    -3238.901   -6104.5401   -1281.4227     81.57415 
   27200    455.65251   -108.47585   0.41228397   -108.06356   -121.66309    4.3445252    4.3445252    4.3445252   -121.66309    7973.3684   -19977.463    11639.105    4004.5243   -85.623077      4826.05    82.002473 
   27300    522.30769   -108.53489   0.47259498    -108.0623   -6695.1291    4.3422767    4.3422767    4.3422767   -6695.1291   -3580.2245   -9615.4686   -6889.6941    1744.4631   -471.52109   -1530.7687    81.875222 
   27400    407.64306    -108.4323   0.36884401   -108.06346   -7165.1078    4.3392248    4.3392248    4.3392248   -7165.1078   -4083.2035   -9866.4584   -7545.6614     1993.812    5869.9082     8736.612    81.702707 
   27500    377.91539   -108.40446   0.34194579   -108.06252   -1492.1809    4.3468984    4.3468984    4.3468984   -1492.1809   -12135.949   -6386.8516    14046.258   -344.16467   -3158.6707   -4921.0891    82.136931 
   27600    282.69133   -108.31899   0.25578506   -108.06321    11592.687    4.3363452    4.3363452    4.3363452    11592.687    12950.045   -5205.3196    27033.335    -3000.297   -10587.853   -4814.6167    81.540156 
   27700    388.76156   -108.41589   0.35175963   -108.06413     -2981.64    4.3470365    4.3470365    4.3470365     -2981.64    6647.2785   -11046.202    -4545.996   -2192.7146   -3319.4411    5529.8823    82.144759 
   27800    519.81319    -108.5317    0.4703379   -108.06136   -1596.0875     4.339304     4.339304     4.339304   -1596.0875    9173.0696   -9342.7412   -4618.5908   -1584.2327   -8.4676256   -2404.8407    81.707183 
   27900    343.96739   -108.37482   0.31122892   -108.06359   -6094.3312    4.3401076    4.3401076    4.3401076   -6094.3312   -7028.7346   -10970.283   -283.97624    255.62618    2930.9446    6318.6461    81.752583 
   28000    438.90196   -108.46048   0.39712771   -108.06336    -4954.108    4.3463735    4.3463735    4.3463735    -4954.108    -8926.886   -19243.068     13307.63    1049.0121   -793.15022    2376.4349     82.10718 
   28100     342.2041   -108.37293   0.30963346    -108.0633    13100.707    4.3339847    4.3339847    4.3339847    13100.707    22362.634    820.40178    16119.085   -3595.6379    -8113.675   -7724.9437    81.407069 
   28200    373.19437   -108.40257   0.33767411    -108.0649    -10179.78    4.3487778    4.3487778    4.3487778    -10179.78    2903.8767   -13688.941   -19754.275   -2380.0674    793.00459    5929.0761    82.243514 
   28300     462.2069   -108.47905   0.41821451   -108.06084    3718.3495    4.3375756    4.3375756    4.3375756    3718.3495    8948.4402    2412.4774   -205.86907    549.57617    4036.3098    679.62153    81.609586 
   28400    379.51422   -108.40597   0.34339244   -108.06257   -6044.1628    4.3432068    4.3432068    4.3432068   -6044.1628   -11381.963   -8403.3248    1652.7994    1410.1095   -1268.2089     3220.265    81.927846 
   28500    391.93736   -108.41774   0.35463316   -108.06311   -1332.1958    4.3436988    4.3436988    4.3436988   -1332.1958    7650.3926   -19353.013     7706.033    5553.9956   -1057.3408    8417.2556    81.955689 
   28600    463.20239   -108.48013   0.41911525   -108.06102    7564.9972    4.3364308    4.3364308    4.3364308    7564.9972    12368.629   -587.71034    10914.073    718.59387   -9294.0345   -7948.6435    81.544986 
   28700     291.6793    -108.3277   0.26391756   -108.06378   -8747.4754    4.3468953    4.3468953    4.3468953   -8747.4754    9783.8066   -14976.604   -21049.629   -1861.1137   -1435.1748    5908.9898    82.136756 
   28800    465.10618   -108.48367   0.42083785   -108.06283    4033.6988    4.3360982    4.3360982    4.3360982    4033.6988   -942.95797    7430.8137    5613.2406    434.67269    4134.1228     4885.485    81.526225 
   28900    399.29778   -108.42642   0.36129302   -108.06512   -921.95096    4.3443659    4.3443659    4.3443659   -921.95096    3576.6189   -11991.878    5649.4066    698.67498   -1655.3677     1230.781    81.993456 
   29000    338.44112   -108.37184   0.30622864   -108.06561   -333.87848    4.3419078    4.3419078    4.3419078   -333.87848    6013.7034   -11895.526    4880.1874    1094.9086   -4592.0473    10070.038    81.854357 
   29100    496.28086   -108.51104   0.44904535   -108.06199    7122.5436    4.3372845    4.3372845    4.3372845    7122.5436     23739.75    -8107.292    5735.1725   -1917.5511   -796.99273   -5219.8816    81.593153 
   29200    352.62706   -108.38401   0.31906438   -108.06495   -12426.895    4.3480842    4.3480842    4.3480842   -12426.895   -6226.2815   -13000.794    -18053.61   -3063.7261   -510.71521    2124.9527     82.20417 
   29300    387.45926   -108.41419   0.35058128   -108.06361     5874.932    4.3344568    4.3344568    4.3344568     5874.932     6571.346   -2630.6981    13684.148   -2202.3419    6927.7552     8719.397    81.433674 
   29400    461.95685   -108.47991   0.41798827   -108.06192   -1116.0142      4.34687      4.34687      4.34687   -1116.0142   -8897.2833   -7914.2734    13463.514    3211.6016   -4067.5616   -1523.9922    82.135321 
   29500    314.37678   -108.34932   0.28445472   -108.06487    271.08426    4.3393505    4.3393505    4.3393505    271.08426      12559.1   -15708.794    3962.9474    2414.7502   -6698.0005     9032.415    81.709807 
   29600     471.8891   -108.49007   0.42697517    -108.0631    3453.7807    4.3409593    4.3409593    4.3409593    3453.7807    21029.634   -5943.9018   -4724.3905    1973.7808    -341.0959    438.50662    81.800723 
   29700    396.85546   -108.42285   0.35908316   -108.06376   -7292.5311    4.3441753    4.3441753    4.3441753   -7292.5311   -5895.5778   -17907.829    1925.8131   -361.14063    3747.3165   -808.55445    81.982663 
   29800    307.84045   -108.34351   0.27854051   -108.06497    253.02102    4.3384295    4.3384295    4.3384295    253.02102   -2241.4967       -10120     13120.56    243.85475   -729.11158    12367.618     81.65779 
   29900    552.62683   -108.56212   0.50002837   -108.06209      174.385    4.3439057    4.3439057    4.3439057      174.385   -2010.4399    -12127.37    14660.965    2034.8475   -3009.2658    98.150215    81.967403 
   30000    323.52264   -108.35906   0.29273009   -108.06633   -3068.2051    4.3403884    4.3403884    4.3403884   -3068.2051    19563.617   -12804.869   -15963.363    1038.5634   -5527.5097    6147.2294    81.768455 
   30100    370.98545   -108.40057   0.33567543    -108.0649    444.87428    4.3424539    4.3424539    4.3424539    444.87428    13033.917   -11191.146   -508.14727    3271.0711    4682.1779    4717.0664    81.885245 
   30200     391.1028   -108.41668   0.35387803    -108.0628     3002.975    4.3423851    4.3423851    4.3423851     3002.975    967.53909   -9922.2903    17963.676   -1535.4041    7487.5594   -5828.3865    81.881354 
   30300    299.54558   -108.33553   0.27103513   -108.06449   -3969.6277    4.3423014    4.3423014    4.3423014   -3969.6277   -8550.0071   -19132.139    15773.263   -714.02665   -2523.2637    10973.344    81.876616 
   30400    594.43886   -108.59872   0.53786078   -108.06086   -2060.8076    4.3426474    4.3426474    4.3426474   -2060.8076    2038.9524   -8660.7189     439.3435   -2103.4375   -4311.1914    505.96366    81.896192 
   30500    456.64847   -108.47697   0.41318513   -108.06378    -4554.635    4.3385922    4.3385922    4.3385922    -4554.635   -490.57608   -9173.9369    -3999.392    1962.1023   -1596.7492    2709.6596    81.666979 
   30600    177.76598    -108.2285   0.16084639   -108.06765    3591.6611    4.3457296    4.3457296    4.3457296    3591.6611    14354.843    -16392.67    12812.811    803.23208    4347.4577    5556.7817    82.070694 
   30700    453.91854   -108.47354   0.41071503   -108.06282    10899.251    4.3376281    4.3376281    4.3376281    10899.251    3693.5862    -4773.429    33777.595    1700.5614    4070.8452    -5716.244    81.612547 
   30800    384.17543   -108.41484      0.34761   -108.06723   -4549.2574    4.3428362    4.3428362    4.3428362   -4549.2574    6308.9452   -17434.188   -2522.5291   -763.21437   -2107.9333    8654.5294    81.906876 
   30900    564.25707   -108.57396   0.51055165   -108.06341   -10175.196     4.345448     4.345448     4.345448   -10175.196    -7867.033   -15075.701   -7582.8553   -1592.4175   -7454.6051    6103.6199    82.054738 
   31000    455.27737   -108.47351   0.41194453   -108.06156    8020.1657    4.3347819    4.3347819    4.3347819    8020.1657    1031.3766   -3927.1327    26956.253   -101.48962    2083.3972   -1644.5224    81.451999 
   31100    133.85258   -108.18782   0.12111262    -108.0667   -4653.7496    4.3514431    4.3514431    4.3514431   -4653.7496    1520.2275   -23487.592    8006.1155    496.45476    2989.7319    8103.8075    82.394821 
   31200    539.96617   -108.54869   0.48857274   -108.06012    15414.596    4.3294477    4.3294477    4.3294477    15414.596    25451.727    2207.7474    18584.313    3408.9849     5426.883   -2681.6896    81.151674 
   31300    410.98793   -108.43615   0.37187052   -108.06428   -10736.958    4.3515597    4.3515597    4.3515597   -10736.958    4025.0252   -17393.234   -18842.666   -1382.1799   -1561.3483    5150.6943    82.401445 
   31400    426.01043    -108.4498   0.38546319   -108.06434   -1925.5726    4.3340243    4.3340243    4.3340243   -1925.5726    392.02591   -11690.104    5521.3605    860.46977   -5132.7235    11060.941      81.4093 
   31500     411.9567   -108.43741   0.37274708   -108.06466    2549.0388    4.3449258    4.3449258    4.3449258    2549.0388   -5791.7383   -8010.7532    21449.608   -1615.4934    3437.1857   -2383.0126    82.025162 
   31600    261.37904   -108.30266   0.23650125   -108.06616   -5036.1058    4.3428395    4.3428395    4.3428395   -5036.1058    5029.9316   -19914.356    -223.8929    165.46615    4703.3657     7742.709     81.90706 
   31700    481.41099   -108.49873   0.43559078   -108.06314    5918.7558     4.335056     4.335056     4.335056    5918.7558    24726.099   -2769.2738   -4200.5581     3296.441   -3900.4816    2522.2357     81.46745 
   31800    524.38728   -108.53653   0.47447663   -108.06205   -11374.186    4.3505319    4.3505319    4.3505319   -11374.186   -9030.1897   -19360.285    -5732.085    811.24598   -3736.2057    1591.2657    82.343075 
   31900    182.21938   -108.22947   0.16487592    -108.0646    7208.7755     4.331833     4.331833     4.331833    7208.7755    8909.1436   -5505.4056    18222.589    486.01276   -4322.4406    13848.103    81.285883 
   32000    532.01676   -108.54267   0.48137994   -108.06129   -6370.3508    4.3475811    4.3475811    4.3475811   -6370.3508   -14170.999   -17171.274     12231.22   -3184.1051    4568.7998   -1689.3342    82.175636 
   32100    329.85566   -108.36298   0.29846034   -108.06452    1125.3831     4.339234     4.339234     4.339234    1125.3831    19101.064   -9112.0208   -6612.8935   -56.733618    4943.9387      5722.78     81.70323 
   32200    466.51524   -108.48729   0.42211279   -108.06518   -4846.1357    4.3398757    4.3398757    4.3398757   -4846.1357    12733.002   -19712.188   -7559.2212   -1244.5809   -5788.8932    5364.2812    81.739481 
   32300    436.29228   -108.45757   0.39476643   -108.06281    2161.5841    4.3460289    4.3460289    4.3460289    2161.5841   -5530.3812   -6126.8394    18141.973    1964.9815    -1282.141   -1076.8471    82.087653 
   32400    262.72795   -108.30266   0.23772177   -108.06494    288.44248    4.3349204    4.3349204    4.3349204    288.44248    422.06582   -10831.638    11274.899    362.62588    1894.5746    15934.955     81.45981 
   32500    445.14175   -108.46667   0.40277361    -108.0639   -4169.2688     4.346698     4.346698     4.346698   -4169.2688   -3441.1707   -6199.0932   -2867.5426   -2783.2045    3953.2839    1599.4609    82.125572 
   32600    506.34428   -108.52162   0.45815095   -108.06347   -730.24524    4.3383669    4.3383669    4.3383669   -730.24524    15836.307   -8621.5271   -9405.5158   -1724.9675    1571.1064    2515.5929    81.654255 
   32700    266.46404   -108.30776   0.24110227   -108.06666   -1820.1851    4.3424252    4.3424252    4.3424252   -1820.1851    10979.136   -17741.839    1302.1476   -271.33873   -6315.4381    7045.3432    81.883619 
   32800     457.7624   -108.47602   0.41419304   -108.06183    2019.6455    4.3432055    4.3432055    4.3432055    2019.6455   -5720.4021   -9515.6954    21295.034    6166.4015   -4494.0756   -1685.6462    81.927768 
   32900    341.26737    -108.3733   0.30878589   -108.06452   -1593.3163    4.3379239    4.3379239    4.3379239   -1593.3163   -2613.5758   -4953.2687    2786.8955   -881.57817    6692.0571    12144.525    81.629247 
   33000    417.05962   -108.44246    0.3773643    -108.0651   -6220.2525    4.3456679    4.3456679    4.3456679   -6220.2525    6194.8184   -8612.3326   -16243.243     2497.321   -26.997609    2420.4458    82.067198 
   33100    549.67802   -108.55936   0.49736022     -108.062    3157.7039    4.3383084    4.3383084    4.3383084    3157.7039    3753.5438    222.15425    5497.4136    -5004.402    -102.2485   -4337.9347    81.650956 
   33200    173.73616   -108.22393   0.15720013   -108.06673    1413.1541    4.3419548    4.3419548    4.3419548    1413.1541    13040.733   -17685.577    8884.3059    921.48825   -3713.5622    8196.4432    81.857016 
   33300    449.51364   -108.46863   0.40672938    -108.0619   -2549.7301    4.3435658    4.3435658    4.3435658   -2549.7301   -10830.035   -11569.656      14750.5    247.34455   -3572.4241    860.91576    81.948164 
   33400    471.77768   -108.48884   0.42687436   -108.06197   -2087.6748     4.339215     4.339215     4.339215   -2087.6748     -280.638    -2549.002   -3433.3845    678.20649    5233.6765    8336.6127    81.702154 
   33500     384.0036   -108.41177   0.34745452   -108.06431    -7361.902    4.3437814    4.3437814    4.3437814    -7361.902    1376.6549   -11005.653   -12456.708   -891.41542    1626.1359     7768.912    81.960365 
   33600    484.41525    -108.5006    0.4383091   -108.06229    7248.8073     4.340099     4.340099     4.340099    7248.8073    490.72487    2560.5726    18695.124   -4960.8972   -3561.5438   -7493.8115    81.752099 
   33700    231.29129    -108.2758   0.20927722   -108.06653    3089.4986    4.3407522    4.3407522    4.3407522    3089.4986    11303.832   -18208.921    16173.585    1109.8907   -2388.7997    8262.5607    81.789016 
   33800    383.99222   -108.41291   0.34744423   -108.06547    -6892.623    4.3425739    4.3425739    4.3425739    -6892.623   -8114.5589   -11741.072   -822.23814   -1453.4152   -348.44782    4961.5326    81.892034 
   33900     597.2967   -108.60255   0.54044661   -108.06211   -1364.6314    4.3397497    4.3397497    4.3397497   -1364.6314    5444.9633   -8889.7523   -649.10526    6289.1056    1374.6125    302.12947    81.732358 
   34000    314.38846   -108.35022   0.28446529   -108.06575   -4999.3379    4.3426912    4.3426912    4.3426912   -4999.3379    -7724.401   -6384.9597   -888.65309   -431.53936    4427.6717    7651.1752    81.898668 
   34100     353.7149   -108.38481   0.32004867   -108.06476    7175.0445    4.3404488    4.3404488    4.3404488    7175.0445    5045.5617   -6269.1908    22748.763     112.4464   -4956.6615   -8075.4095    81.771868 
   34200    368.51568   -108.39809   0.33344073   -108.06465    1624.0124    4.3413766    4.3413766    4.3413766    1624.0124   -1113.6616    -4435.932    10421.631   -1945.2962   -2415.5751    1333.9919    81.824316 
   34300    345.23847   -108.37768   0.31237903    -108.0653   -10534.022    4.3420968    4.3420968    4.3420968   -10534.022    1767.8699   -18172.095   -15197.842   -214.76661    2540.0394    8671.6076    81.865047 
   34400    598.82283   -108.60381   0.54182748   -108.06199   -943.52075    4.3398499    4.3398499    4.3398499   -943.52075    1296.2822   -9359.6675     5232.823    1351.9805    2948.8206   -1523.3503    81.738024 
   34500    346.14478   -108.37927   0.31319907   -108.06607   -2202.3081    4.3419647    4.3419647    4.3419647   -2202.3081   -7929.4725   -11899.526    13222.074    -1258.522    2672.7829    5540.2374    81.857575 
   34600    249.95554   -108.29267   0.22616502   -108.06651    1886.3634    4.3418762    4.3418762    4.3418762    1886.3634     2318.809   -7468.1947    10808.476   -2030.1567   -4976.8693   -750.41966    81.852569 
   34700    510.49031   -108.52357   0.46190236   -108.06167    2351.5675    4.3398511    4.3398511    4.3398511    2351.5675    6179.6338    468.56956    406.49928    -4737.293   -774.81611   -3160.5196    81.738088 
   34800    302.26783    -108.3394   0.27349829    -108.0659   -5075.8284     4.342952     4.342952     4.342952   -5075.8284    12116.323   -10783.045   -16560.762   -2113.3462    5233.2509    11652.328    81.913428 
   34900    504.86522   -108.52078   0.45681266   -108.06396   -6.3542608    4.3403958    4.3403958    4.3403958   -6.3542608    -2964.197   -10221.346    13166.481    1174.3368    3291.4878   -264.25327    81.768873 
   35000    431.69033   -108.45409   0.39060248   -108.06349    421.86682    4.3421764    4.3421764    4.3421764    421.86682   -248.93726   -14716.307    16230.845    4980.8717   -2246.9824    1104.4516    81.869548 
   35100    282.67772    -108.3209   0.25577274   -108.06513   -2617.2183    4.3410194    4.3410194    4.3410194   -2617.2183   -2682.5924   -5833.5805    664.51809   -1976.9814   -3373.4215    2823.3737    81.804121 
   35200    527.41837   -108.53888   0.47721922   -108.06166    1800.9604    4.3410727    4.3410727    4.3410727    1800.9604    19963.723   -9397.3518   -5163.4896     851.8355    -979.9265   -4075.1408    81.807131 
   35300    318.39825   -108.35347   0.28809343   -108.06537    4285.9536    4.3408313    4.3408313    4.3408313    4285.9536    6917.3406     400.9216    5539.5985   -1540.7574    7628.6535    10559.731    81.793487 
   35400    374.29413    -108.4038   0.33866919   -108.06513    1224.2355     4.342984     4.342984     4.342984    1224.2355    2944.1114   -14894.303    15622.898    1351.4517    633.01377    4293.4185    81.915239 
   35500    460.98022   -108.47904   0.41710459   -108.06194    5991.6246    4.3390899    4.3390899    4.3390899    5991.6246    -1068.154   -3560.4414    22603.469    2132.9693   -2020.3221   -1727.9061    81.695086 
   35600    417.11484   -108.44216   0.37741428   -108.06475   -10059.444    4.3429786    4.3429786    4.3429786   -10059.444    915.61175   -17214.835   -13879.109   -332.83551    54.521442    5569.1504    81.914928 
   35700    385.40555   -108.41318   0.34872304   -108.06445    5233.2307    4.3413608    4.3413608    4.3413608    5233.2307    16078.123   -11196.984    10818.553   -1394.2072    4146.0914   -3493.3551    81.823422 
   35800    424.05269   -108.44747   0.38369179   -108.06378     5579.136     4.339568     4.339568     4.339568     5579.136    3712.2289    -8662.453    21687.632   -2763.0255    5015.6104    6311.8787    81.722094 
   35900    255.19111   -108.29706   0.23090228   -108.06616    2038.5968    4.3444064    4.3444064    4.3444064    2038.5968     5677.995   -6439.4675    6877.2628    884.43272    1256.4109    7476.6324    81.995749 
   36000    590.56254    -108.5954    0.5343534   -108.06105   -3174.2357    4.3387632    4.3387632    4.3387632   -3174.2357   -3446.8924   -5763.1689   -312.64572    1389.2972   -5774.1789   -2412.7296    81.676636 
   36100    324.83972   -108.35848    0.2939218   -108.06455    2848.2085    4.3424475    4.3424475    4.3424475    2848.2085    13383.668   -4925.1795    86.137156    3100.3348    1301.9242    4051.1632    81.884883 
   36200    385.68898   -108.41346    0.3489795   -108.06448    -2642.245    4.3429612    4.3429612    4.3429612    -2642.245     2001.511    -19757.29    9829.0438    245.19555    6092.4057    35.125951    81.913948 
   36300    390.76271   -108.41647   0.35357031    -108.0629    8082.9362    4.3376534    4.3376534    4.3376534    8082.9362    5356.4438   -4870.2689    23762.634    2190.8505   -775.97794    1919.0722    81.613977 
   36400    442.75426   -108.46558   0.40061336   -108.06496   -13485.826    4.3454611    4.3454611    4.3454611   -13485.826   -13789.362   -13692.387    -12975.73   -611.20164   -737.17148     10319.71    82.055481 
   36500    426.00388   -108.45056   0.38545726    -108.0651    1318.7152    4.3370379    4.3370379    4.3370379    1318.7152    5472.3968   -1498.3224   -17.928958    3470.3749   -1058.1995   -5340.3317    81.579239 
   36600    377.17141   -108.40636   0.34127261   -108.06509   -284.71188    4.3469591    4.3469591    4.3469591   -284.71188    -8.379947   -15340.972    14495.216     5803.924    5762.0285   -1092.5428    82.140374 
   36700    254.41546    -108.2952   0.23020045     -108.065    6370.5962    4.3382501    4.3382501    4.3382501    6370.5962    10684.258    -9174.899     17602.43   -906.19311    8981.2414    2473.7359    81.647665 
   36800    446.24084   -108.46641   0.40376809   -108.06265   -3337.4658    4.3429575    4.3429575    4.3429575   -3337.4658   -3866.5933   -14988.032    8842.2275    4416.2474    2714.9581   -2375.0066    81.913738 
   36900    509.72644   -108.52285    0.4612112   -108.06163   -12517.882    4.3446877    4.3446877    4.3446877   -12517.882   -12660.614   -13733.131     -11159.9   -2769.2901   -5192.5095    8334.3542     82.01168 
   37000    352.16984   -108.38237   0.31865067   -108.06372    -1567.962    4.3368868    4.3368868    4.3368868    -1567.962    -5302.883   -11473.805    12072.801    673.17722    2612.7205   -453.22719    81.570711 
   37100    419.04708   -108.44329   0.37916261   -108.06413   -268.85832    4.3457702    4.3457702    4.3457702   -268.85832   -8352.3323   -16671.332    24217.089    3606.0189    1336.8885   -4147.1135    82.072991 
   37200    300.21578   -108.33793   0.27164154   -108.06629    2086.2989    4.3391223    4.3391223    4.3391223    2086.2989    12380.414   -6154.0821    32.564973    588.54123    7852.1321    5109.0227    81.696917 
   37300    443.93549   -108.46682   0.40168216   -108.06513   -5348.4228    4.3405268    4.3405268    4.3405268   -5348.4228    1932.7411   -13551.261   -4426.7483    3628.7642   -939.59099    -574.9676    81.776275 
   37400    430.80704   -108.45308   0.38980326   -108.06327   -4194.6458    4.3473422    4.3473422    4.3473422   -4194.6458   -5006.9867   -14173.495    6596.5443   -812.34662   -5619.8017    5287.9834     82.16209 
   37500    401.13707   -108.42607   0.36295725   -108.06311    1036.1855    4.3350893    4.3350893    4.3350893    1036.1855   -3992.5628   -9520.8314    16621.951   -869.19131    4235.3431    2154.7083    81.469331 
   37600    419.30014   -108.44261   0.37939158   -108.06322   -5567.8358    4.3485469    4.3485469    4.3485469   -5567.8358   -4387.7874   -16260.485    3944.7648    1399.1974    6299.4777   -4590.5467    82.230412 
   37700    430.53156   -108.45111     0.389554   -108.06156    3739.5509    4.3377956    4.3377956    4.3377956    3739.5509    18719.247   -3702.8246     -3797.77    3548.7492    5261.7773    3051.6868    81.622005 
   37800     304.0786   -108.33931   0.27513671   -108.06418    2993.5481     4.341205     4.341205     4.341205    2993.5481    16930.307   -11673.628    3723.9646    3380.5811   -3994.9017   -583.39413    81.814613 
   37900    424.05391   -108.44702   0.38369289   -108.06332   -1354.5164     4.344469     4.344469     4.344469   -1354.5164   -2080.0273   -16476.778    14493.256    4380.4302   -2954.3168    1578.8251    81.999291 
   38000    459.61429   -108.47975   0.41586867   -108.06388    2905.8083     4.335632     4.335632     4.335632    2905.8083    5043.5974   -967.63029    4641.4579   -2907.2736    3803.9054    4944.0294    81.499929 
   38100    389.40732   -108.41741   0.35234393   -108.06507   -10255.218    4.3492471    4.3492471    4.3492471   -10255.218   -577.84797   -23935.623   -6252.1815    2292.3259    5057.8626   -6069.9053     82.27014 
   38200     436.7623   -108.45776    0.3951917   -108.06257    11749.691    4.3326038    4.3326038    4.3326038    11749.691    27297.851    1101.6043    6849.6183    2707.7991   -4801.7624    3118.7219    81.329278 
   38300    322.48207   -108.35649   0.29178856    -108.0647    -2478.615    4.3486599    4.3486599    4.3486599    -2478.615    4139.7125    -21054.58    9479.0229    1812.2578   -2232.7269    3435.4709    82.236824 
   38400    382.98536   -108.41052    0.3465332   -108.06399    1121.4065    4.3360575    4.3360575    4.3360575    1121.4065   -6531.5885   -3020.7247    12916.533    4991.0799   -987.90825    884.89557    81.523926 
   38500    478.28255   -108.49649   0.43276011   -108.06373   -3491.8155    4.3438224    4.3438224    4.3438224   -3491.8155    3715.2605   -11891.344    -2299.363   -4425.2055    6854.1865    6360.7205    81.962684 
   38600    366.15277     -108.395   0.33130272    -108.0637   -6759.7869     4.344038     4.344038     4.344038   -6759.7869    8345.4289   -11882.437   -16742.353   -184.33436    3241.9771   -4916.2412    81.974891 
   38700    369.93974   -108.39805   0.33472925   -108.06332     6605.122    4.3357556    4.3357556    4.3357556     6605.122    20224.351   -13457.667    13048.682    673.66999   -2563.2533   -1916.1672    81.506899 
   38800    430.67013   -108.45187   0.38967939   -108.06219   -5951.8955    4.3491897    4.3491897    4.3491897   -5951.8955   -3140.7849   -16021.303    1306.4009    1498.9251   -3683.7071    2940.4773    82.266887 
   38900    353.59486   -108.38293   0.31994006   -108.06299    3208.8423    4.3319747    4.3319747    4.3319747    3208.8423    1324.2337   -2472.2668     10774.56    4280.8609     8231.182   -2449.7043    81.293856 
   39000    448.13747   -108.46882    0.4054842   -108.06334   -9254.8821    4.3488598    4.3488598    4.3488598   -9254.8821   -264.64386   -13842.125   -13657.878   -4317.3549    1844.4063    3950.7111    82.248163 
   39100    387.08724   -108.41455   0.35024467    -108.0643    6398.5571    4.3355303    4.3355303    4.3355303    6398.5571    28251.918   -3827.5565   -5228.6906   -1753.8237   -775.38666   -2598.6174    81.494194 
   39200    331.86136   -108.36754   0.30027513   -108.06726   -3233.7161    4.3449126    4.3449126    4.3449126   -3233.7161    4864.9444   -19645.718    5079.6249    1806.0963   -6800.4198   -4919.4742    82.024416 
   39300    488.69561   -108.50355   0.44218206   -108.06137   -2323.9923    4.3436954    4.3436954    4.3436954   -2323.9923    1075.2501   -17224.659     9177.432    1771.8712   -942.63564    3101.4112    81.955498 
   39400     383.1285   -108.40749   0.34666272   -108.06082    4593.2202    4.3359208    4.3359208    4.3359208    4593.2202    8324.5372    -6510.438    11965.561     3953.767    8697.7242   -2985.1256    81.516217 
   39500    378.31527   -108.40434   0.34230761   -108.06204   -6979.9654    4.3496332    4.3496332    4.3496332   -6979.9654    16847.645   -23545.614   -14241.928    571.85286    3886.8664    2719.1516    82.292055 
   39600    472.84932   -108.48851     0.427844   -108.06066    11669.632    4.3314561    4.3314561    4.3314561    11669.632    22337.592    4408.4701    8262.8352    -5282.455   -1001.1446     435.6896    81.264664 
   39700    359.82806   -108.39015   0.32557999   -108.06457    -8837.963    4.3486683    4.3486683    4.3486683    -8837.963   -1149.7845   -19869.742   -5494.3623    2028.5179    -1764.209   -9101.1656    82.237301 
   39800    394.80011   -108.42091   0.35722344   -108.06369    3306.3024    4.3374271    4.3374271    4.3374271    3306.3024   -5000.2804   -8606.8832    23526.071   -156.17238    2452.4705    -177.9312    81.601204 
   39900    394.88093    -108.4213   0.35729656     -108.064    4756.8514    4.3405712    4.3405712    4.3405712    4756.8514      27241.1   -13938.914    968.36783    942.53915    5803.4647   -2324.5803    81.778786 
   40000    369.83576   -108.39941   0.33463517   -108.06477   -9244.6805    4.3472556    4.3472556    4.3472556   -9244.6805    7950.8053   -27646.875   -8037.9716    1671.9525   -70.515188   -941.73646    82.157179 
   40100    468.38364   -108.48552   0.42380336   -108.06171    7192.5361    4.3322849    4.3322849    4.3322849    7192.5361    12992.414   -2119.5634    10704.758   -6743.3742   -9261.7765    4147.0378    81.311324 
   40200    469.42135   -108.48697    0.4247423   -108.06223   -12965.495    4.3500927    4.3500927    4.3500927   -12965.495   -14238.571   -22661.973     -1995.94    2347.0369   -253.85817   -7209.3393    82.318139 
   40300     272.2069   -108.31054   0.24629852   -108.06425    7938.0128     4.335298     4.335298     4.335298    7938.0128    4024.4365   -3786.3418    23575.944    890.21624    6936.5248   -1830.1567    81.481097 
   40400     378.8777   -108.40666    0.3428165   -108.06384    3089.9449    4.3437669    4.3437669    4.3437669    3089.9449    29680.859   -14599.145   -5811.8793    4054.1242    5100.7975   -3596.5776    81.959543 
   40500    357.42869   -108.38683   0.32340899   -108.06342   -442.65753    4.3434355    4.3434355    4.3434355   -442.65753    16497.998   -16607.387   -1218.5837    4726.5486    646.36993   -3047.9201    81.940785 
   40600    524.75272   -108.53683   0.47480729   -108.06202   -2764.3275    4.3364232    4.3364232    4.3364232   -2764.3275   -342.56466   -10824.255    2873.8374   -3528.5665   -4194.9858    2312.7826    81.544557 
   40700    410.03614   -108.43439   0.37100932   -108.06338   -5766.0433    4.3470083    4.3470083    4.3470083   -5766.0433    2746.1331   -19305.795   -738.46817   -1583.6034    78.706215    -5238.921    82.143163 
   40800    345.17464   -108.37606   0.31232127   -108.06374    8140.5424    4.3344814    4.3344814    4.3344814    8140.5424    28299.005   -14054.085    10176.707    898.65754    6774.2446   -1870.2401    81.435062 
   40900    289.67435   -108.32732   0.26210344   -108.06521    2634.4127    4.3461574    4.3461574    4.3461574    2634.4127    24870.246   -11723.655    -5243.353    1614.5993    1470.4024   -3450.7782    82.094935 
   41000    549.10017   -108.55987   0.49683738   -108.06304   -620.64635    4.3365262    4.3365262    4.3365262   -620.64635    7536.0592   -4984.5415   -4413.4568    1927.9076    -3528.176   -6865.1889    81.550369 
   41100    475.23727   -108.49363   0.43000467   -108.06363   -8377.0649     4.346714     4.346714     4.346714   -8377.0649   -685.86636   -9704.9588    -14740.37      -2941.3   -1454.7076    4079.2483    82.126479 
   41200    317.03991   -108.35148   0.28686437   -108.06462    5993.9086    4.3369212    4.3369212    4.3369212    5993.9086    32318.581   -13298.186   -1038.6692   -6526.2504    2406.1444    -2771.942    81.572653 
   41300    370.73433   -108.39919   0.33544821   -108.06374   -977.87889    4.3462502    4.3462502    4.3462502   -977.87889    20943.022   -21928.454   -1948.2043    3073.4452    7152.0952   -1927.8265    82.100192 
   41400    406.78003   -108.43076   0.36806312    -108.0627    1427.0667     4.337145     4.337145     4.337145    1427.0667    3869.3757   -13490.695    13902.519    1619.5876    5570.0171    234.25252    81.585282 
   41500    411.40962   -108.43608   0.37225207   -108.06383   -7115.5242    4.3431524    4.3431524    4.3431524   -7115.5242   -4106.7846   -8987.5836   -8252.2043   -533.92051   -5083.6183   -11288.778    81.924765 
   41600    486.29037   -108.50234   0.44000575   -108.06234   -1622.9098     4.342292     4.342292     4.342292   -1622.9098     12979.03   -9520.1167   -8327.6424   -1126.2244    -3459.761    122.13691    81.876088 
   41700    239.91842   -108.28193   0.21708323   -108.06484    6094.0687    4.3372217    4.3372217    4.3372217    6094.0687    21032.052   -3143.1513    393.30516   -7007.8416    6313.6941   -2456.4625    81.589612 
   41800    428.81841   -108.45157   0.38800391   -108.06357   -8798.9449    4.3480665    4.3480665    4.3480665   -8798.9449    1331.7068   -23448.387   -4280.1548    965.58727     2096.587   -3287.3736    82.203162 
   41900    432.92994   -108.45385   0.39172411   -108.06213    9225.9504    4.3331057    4.3331057    4.3331057    9225.9504    1064.4189   -3611.6953    30225.128    1037.8835    4510.5384     1474.277    81.357546 
   42000    414.75837   -108.43989   0.37528209    -108.0646   -16327.747    4.3485448    4.3485448    4.3485448   -16327.747   -5582.6853   -28084.751   -15315.805   -659.56197   -6379.6018   -10867.094    82.230297 
   42100    448.08547   -108.46776   0.40543715   -108.06232    4141.5548    4.3368184    4.3368184    4.3368184    4141.5548    22828.926   -5519.2956   -4884.9665   -1447.3374   -1539.5499   -2042.6148    81.566853 
   42200    356.38965   -108.38586   0.32246884   -108.06339    421.05328    4.3416981    4.3416981    4.3416981    421.05328     3588.804   -10151.658    7826.0135   -5992.6442    7937.2734    483.38913    81.842494 
   42300    234.76318   -108.27738   0.21241866   -108.06496    2437.4043    4.3440131    4.3440131    4.3440131    2437.4043   -2147.4327   -12222.722    21682.368   -2591.8584    3422.5006   -1909.5582    81.973479 
   42400    507.11536   -108.52059   0.45884863   -108.06174    5484.3236    4.3367643    4.3367643    4.3367643    5484.3236   -4400.7041   -824.24195    21677.917   -288.67245   -109.17473    3231.3896    81.563799 
   42500    466.50642   -108.48536   0.42210481   -108.06326   -13349.829    4.3474556    4.3474556    4.3474556   -13349.829   -14504.277   -17600.898   -7944.3123    162.32661   -3829.0602   -5932.3415    82.168519 
   42600    441.45601   -108.46222   0.39943867   -108.06278    1181.0827    4.3365527    4.3365527    4.3365527    1181.0827    8895.4701   -10421.334    5069.1122      681.975    -2031.918   -6743.7507     81.55186 
   42700    368.45082   -108.39682   0.33338205   -108.06344    3062.0328    4.3429254    4.3429254    4.3429254    3062.0328   -9034.7416   -13276.984    31497.824    -716.6292    4237.8402    3790.8749    81.911922 
   42800    267.30992   -108.30747   0.24186763    -108.0656    6589.4935    4.3392165    4.3392165    4.3392165    6589.4935    7636.8375   -4919.0934    17050.736    -4448.371    5583.7351   -503.31695    81.702241 
   42900    490.49441   -108.50866   0.44380965   -108.06485   -2592.7954    4.3412419    4.3412419    4.3412419   -2592.7954    1345.9847   -2599.9453   -6524.4256   -2521.5392   -6814.2892   -702.62425    81.816701 
   43000    475.62397   -108.49368   0.43035457   -108.06332   -3255.9072    4.3426031    4.3426031    4.3426031   -3255.9072   -9518.1073    381.15075   -630.76506   -778.64457   -286.93278   -3412.1822    81.893686 
   43100    347.71849   -108.37828     0.314623   -108.06366    123.93846    4.3409117    4.3409117    4.3409117    123.93846   -4101.5173   -15987.351    20460.684    2299.2009   -3224.0534   -12023.946    81.798031 
   43200    389.36307   -108.41472   0.35230389   -108.06242    1777.3199    4.3426851    4.3426851    4.3426851    1777.3199   -5224.5934   -8253.9228    18810.476    1259.4594    5138.9621    3654.9407    81.898323 
   43300    424.18247   -108.44593   0.38380922   -108.06212    923.80404    4.3395791    4.3395791    4.3395791    923.80404    13466.083    -10814.24    119.56962   -3994.4605    7228.1034   -1995.4965    81.722723 
   43400    414.85744   -108.43848   0.37537173   -108.06311   -5068.3291     4.342878     4.342878     4.342878   -5068.3291     5401.343   -4574.3653   -16031.965   -1919.7952   -5884.8751   -3612.3261    81.909241 
   43500     377.1945   -108.40483   0.34129351   -108.06354    3155.5475    4.3384984    4.3384984    4.3384984    3155.5475   -8022.9858   -1250.6676    18740.296   -4532.9508   -5195.4325   -2605.5841    81.661684 
   43600    287.74854   -108.32539   0.26036092   -108.06503    663.31696    4.3437421    4.3437421    4.3437421    663.31696   -15252.658   -8065.1183    25307.727     2259.914    2948.9092   -9852.7835    81.958139 
   43700    482.24368   -108.49901   0.43634422   -108.06267   -2557.5232    4.3398385    4.3398385    4.3398385   -2557.5232   -4331.7707   -10155.014    6814.2154    1276.6614   -1577.3679    1316.3724    81.737381 
   43800    523.45696   -108.53646   0.47363486   -108.06282   -5643.1926    4.3419632    4.3419632    4.3419632   -5643.1926   -284.93294   -9892.6743   -6751.9706   -1085.9344     3314.331    3632.5684    81.857486 
   43900    347.75455   -108.37939   0.31465563   -108.06474   -1506.4169    4.3427824    4.3427824    4.3427824   -1506.4169    -2865.472   -16150.207    14496.428   -735.43582   -6121.9345   -4190.4212    81.903829 
   44000    274.78824   -108.31291   0.24863418   -108.06427    9471.1544     4.336384     4.336384     4.336384    9471.1544   -6094.9387   -1152.0962    35660.498    -2732.187   -9258.2061   -3246.7954    81.542344 
   44100    415.12571   -108.43976   0.37561446   -108.06414   -6768.9956    4.3466007    4.3466007    4.3466007   -6768.9956   -18611.813   -5490.3621     3795.188   -1212.7217    5690.0196   -4732.0595    82.120058 
   44200    541.75003   -108.55293   0.49018681   -108.06274   -4245.0706    4.3359824    4.3359824    4.3359824   -4245.0706   -5466.0946    1069.5245   -8338.6418    933.39649   -417.75506   -4296.7387    81.519691 
   44300    380.91659    -108.4093   0.34466133   -108.06464   -3607.7086    4.3447781    4.3447781    4.3447781   -3607.7086   -14343.894   -6924.5694    10445.337    3239.9593    -177.5854    8225.9038    82.016796 
   44400    334.88816   -108.36654   0.30301385   -108.06353    1111.3164    4.3409033    4.3409033    4.3409033    1111.3164   -9895.3327   -12898.681    26127.962   -156.19566    830.07456   -7162.8417    81.797559 
   44500    366.56045   -108.39528    0.3316716   -108.06361    2375.7569    4.3390333    4.3390333    4.3390333    2375.7569   -556.42349   -1100.3506    8784.0448   -1810.2127    -9362.975   -7518.6228    81.691893 
   44600    469.91427   -108.48817   0.42518831   -108.06298    -8944.733    4.3449563    4.3449563    4.3449563    -8944.733   -12227.271    1268.1826   -15875.111   -5441.3245    5368.7739   -559.22277    82.026886 
   44700    397.27502   -108.42196   0.35946278    -108.0625    4012.6411    4.3367513    4.3367513    4.3367513    4012.6411   -4249.7017    10433.208    5854.4172     -619.881    3715.7421    166.98857    81.563066 
   44800    305.19358   -108.34007   0.27614556   -108.06392    -4403.211    4.3448035    4.3448035    4.3448035    -4403.211   -23262.597   -11620.436      21673.4   -2226.2875    -4550.927    7259.3233    82.018233 
   44900    383.31301   -108.41029   0.34682967   -108.06346    1976.6883    4.3376463    4.3376463    4.3376463    1976.6883   -13626.547    744.37125    18812.241    1970.1435    3048.1132   -851.27011    81.613574 
   45000    523.27385   -108.53673   0.47346918   -108.06326   -10501.196    4.3444149    4.3444149    4.3444149   -10501.196   -8565.5465    -12541.58   -10396.462   -1203.4033   -7885.4988   -4875.9764    81.996231 
   45100    424.62453   -108.44859    0.3842092   -108.06438    854.19468    4.3364285    4.3364285    4.3364285    854.19468    -3949.428    2972.8437    3539.1683   -3555.4159    3706.0572    2762.2894    81.544854 
   45200    262.88222    -108.3028   0.23786136   -108.06493     2386.086     4.345721     4.345721     4.345721     2386.086   -13929.751   -1954.5027    23042.512   -1253.0355    9601.8628    6223.0678    82.070203 
   45300    334.40047   -108.36682   0.30257257   -108.06424    6444.9528    4.3348961    4.3348961    4.3348961    6444.9528   -10333.612    4519.3521    25149.118   -585.84225   -4644.2086    623.13296     81.45844 
   45400    479.41934   -108.49726    0.4337887   -108.06347   -13198.089    4.3481093    4.3481093    4.3481093   -13198.089     -22952.6   -10230.827   -6410.8392    1312.8916    1722.9522      2039.62    82.205591 
   45500    599.55398   -108.60344   0.54248904   -108.06095    -2547.351    4.3359787    4.3359787    4.3359787    -2547.351   -5845.0802   -2927.6159    1130.6432    2558.8689    352.66724   -8759.2357    81.519486 
   45600    284.44028   -108.32124   0.25736754   -108.06387    -2013.615    4.3444986    4.3444986    4.3444986    -2013.615   -17797.109   -10826.011    22582.275     -381.715   -1519.9002    1238.4289    82.000969 
   45700    306.87326   -108.34108   0.27766537   -108.06342    3048.0295    4.3405434    4.3405434    4.3405434    3048.0295    -10516.86   -65.620646    19726.569   -2602.5138    13496.588    6122.5967    81.777214 
   45800    407.42273   -108.43135   0.36864464   -108.06271    5919.4457    4.3370584    4.3370584    4.3370584    5919.4457   -2706.3421    15700.715    4763.9639   -4039.3082    -1170.153    1440.4887    81.580397 
   45900    449.28999   -108.47079   0.40652703   -108.06427   -11528.443    4.3459625    4.3459625    4.3459625   -11528.443   -14638.619   -5031.2654   -14915.445   -5275.4589   -1712.7667   -1517.8278    82.083888 
   46000    398.33831   -108.42404   0.36042487   -108.06362    6738.3408    4.3349127    4.3349127    4.3349127    6738.3408   -5692.0634     7331.653    18575.433    1825.0501    5290.0442   -2633.0114    81.459374 
   46100    409.26441   -108.43424   0.37031103   -108.06393   -8085.5177    4.3462366    4.3462366    4.3462366   -8085.5177   -24762.487    -12619.29    13125.224   -1185.5366    -6121.492    3364.2205    82.099422 
   46200    326.05663   -108.35958   0.29502289   -108.06456    1441.6708    4.3372046    4.3372046    4.3372046    1441.6708   -12881.861    14163.842    3043.0317    331.58754    9980.5444    7187.7428    81.588646 
   46300    503.29926   -108.51775   0.45539575   -108.06235   -2370.6137    4.3426742    4.3426742    4.3426742   -2370.6137   -10798.494     14377.08   -10690.427   -3699.7219    1941.8096     1076.609    81.897708 
   46400    363.76913   -108.39373   0.32914595   -108.06458    2676.7373    4.3389226    4.3389226    4.3389226    2676.7373   -4694.4571    2696.1139    10028.555   -3111.8659   -6264.0445   -8357.8239    81.685636 
   46500    275.71954   -108.31464   0.24947683   -108.06517   -209.47712    4.3424995    4.3424995    4.3424995   -209.47712   -10607.542   -356.01086    10335.121   -439.92137      4434.62    1626.3181    81.887824 
   46600    481.34553   -108.49772   0.43553155   -108.06219    461.66254     4.338748     4.338748     4.338748    461.66254   -8676.1597   -7724.1519    17785.299    2729.0958   -3353.5024    1487.2433    81.675779 
   46700    439.77235    -108.4621   0.39791526   -108.06418   -5465.8894     4.341605     4.341605     4.341605   -5465.8894   -15505.092    9715.1232     -10607.7   -515.35811    5363.5592    3609.2814    81.837232 
   46800     444.0202   -108.46598    0.4017588   -108.06422   -2528.4206    4.3417594    4.3417594    4.3417594   -2528.4206   -14791.697    5277.0538    1929.3816   -1194.1356    8380.9832   -2880.5465     81.84596 
   46900    371.64216   -108.39977   0.33626963    -108.0635    7207.7526     4.337197     4.337197     4.337197    7207.7526     -8404.04    524.14659    29503.151   -5791.2683   -6727.6105    -3985.308    81.588216 
   47000    266.29173   -108.30522   0.24094635   -108.06427   -3960.3016    4.3456981    4.3456981    4.3456981   -3960.3016   -13964.323   -10301.601    12385.018   -1943.1394    64.600326    1132.2957    82.068909 
   47100    524.60036   -108.53641   0.47466943   -108.06174   -97.167434    4.3357608    4.3357608    4.3357608   -97.167434    8159.0508   -7932.2808   -518.27235    223.22177    77.880452    7650.5223    81.507195 
   47200    474.75431    -108.4925   0.42956767   -108.06293   -4061.7824    4.3452117    4.3452117    4.3452117   -4061.7824   -10075.267   -6948.6244    4838.5437    420.01328    1097.2919   -1012.6165    82.041354 
   47300    339.66718   -108.37125     0.307338   -108.06391    5032.4244    4.3371726    4.3371726    4.3371726    5032.4244   -9184.6559    5483.7269    18798.202    3309.0488    11092.553   -934.65571    81.586843 
   47400    313.49861   -108.34772   0.28366013   -108.06406    4294.7986    4.3408284    4.3408284    4.3408284    4294.7986   -15307.526    3467.5848    24724.337   -3203.4987    -3161.797   -2087.7251    81.793325 
   47500    501.79863   -108.51776   0.45403794   -108.06372   -8289.8518    4.3417015    4.3417015    4.3417015   -8289.8518   -11988.277   -6618.2953   -6262.9835   -1132.4077   -1882.8229   -536.25911    81.842691 
   47600     406.8304   -108.43388    0.3681087   -108.06577    108.81441    4.3377991    4.3377991    4.3377991    108.81441    2401.3134   -3862.9216    1788.0514   -851.64877    9091.3385    8158.0766      81.6222 
   47700    423.21852    -108.4475   0.38293701   -108.06456    -2667.073    4.3447017    4.3447017    4.3447017    -2667.073   -9422.2528   -17336.783    18757.817    2046.3299    1570.3944    -2709.148    82.012473 
   47800    259.88869   -108.29895   0.23515275    -108.0638    10306.005    4.3369574    4.3369574    4.3369574    10306.005   -9029.0911    11780.277     28166.83    2846.0476     8547.369   -5689.5918      81.5747 
   47900    365.51496   -108.39447   0.33072562   -108.06374   -5789.2289    4.3438455    4.3438455    4.3438455   -5789.2289   -14105.675    2564.6353   -5826.6466    868.46435    908.42866   -821.02745    81.963993 
   48000    496.39744   -108.51142   0.44915083   -108.06227   -3902.6754    4.3393821    4.3393821    4.3393821   -3902.6754   -15437.786    4823.7023   -1093.9425   -4259.0607   -3794.0228    3525.8732    81.711592 
   48100    484.23513   -108.50154   0.43814613   -108.06339   -4058.2832    4.3398683    4.3398683    4.3398683   -4058.2832   -11108.674   -3422.7279    2356.5526   -2016.8357    5094.8836    4354.2156    81.739064 
   48200    341.75806   -108.37404   0.30922987   -108.06481   -2972.7739    4.3427221    4.3427221    4.3427221   -2972.7739    -13451.51   -16908.365    21441.553   -1910.4025    2950.0554    3829.3334    81.900419 
   48300    323.55831   -108.35643   0.29276236   -108.06366    5449.9783    4.3384139    4.3384139    4.3384139    5449.9783   -7529.2734     14893.36    8985.8485    2788.8845    4697.4579   -5995.5576    81.656914 
   48400    400.68108   -108.42625   0.36254466    -108.0637   -2427.4582    4.3422913    4.3422913    4.3422913   -2427.4582   -3106.9569    4223.8964    -8399.314    3305.2217    5107.8975    5728.4857    81.876048 
   48500     432.1285   -108.45474   0.39099895   -108.06374    -432.3634    4.3390708    4.3390708    4.3390708    -432.3634   -7118.3944    764.66898    5056.6352   -143.59309   -4967.7444    7212.5119    81.694011 
   48600    456.38163   -108.47632   0.41294369   -108.06338    199.81349    4.3413877    4.3413877    4.3413877    199.81349   -13108.997    -5610.053     19318.49   -1696.7347    2264.2861    360.51013    81.824942 
   48700    375.58252   -108.40447   0.33983496   -108.06463    1015.2431    4.3385106    4.3385106    4.3385106    1015.2431   -12452.785    922.20534    14576.308   -3050.4648    4313.4944   -3760.6234    81.662371 
   48800    330.82838   -108.36443   0.29934047   -108.06509     229.0347    4.3422706    4.3422706    4.3422706     229.0347   -13001.985      6909.23    6779.8587    1811.6071    1615.6551   -3773.8886    81.874873 
   48900     500.6229   -108.51547   0.45297412   -108.06249   -1817.6663    4.3405316    4.3405316    4.3405316   -1817.6663   -3746.0055     5970.484   -7677.4774    2910.6671    5384.7543    1269.3905    81.776548 
   49000    341.61034   -108.37285   0.30909621   -108.06375    4811.0436    4.3393304    4.3393304    4.3393304    4811.0436   -2454.9063   -2257.6194    19145.657   -1491.6808   -4305.9909    7593.0793    81.708674 
   49100    428.48201   -108.45101   0.38769953   -108.06331   -3460.3856    4.3432724    4.3432724    4.3432724   -3460.3856   -13076.764   -13867.356    16562.964   -3375.3397    -3280.031   -353.45086    81.931556 
   49200    350.88718   -108.38109   0.31749009    -108.0636    6643.5387    4.3357724    4.3357724    4.3357724    6643.5387   -6765.3233    18411.167    8284.7724   -2884.6375    4016.9497   -3809.7976    81.507846 
   49300    415.11374   -108.44062   0.37560363   -108.06502   -10592.227    4.3436304    4.3436304    4.3436304   -10592.227    -18485.95   -3844.2166   -9446.5151   -1867.6574   -499.02871    5319.9254    81.951815 
   49400    448.86118   -108.47039   0.40613903   -108.06425   -228.17087    4.3383179    4.3383179    4.3383179   -228.17087   -8963.3302    5874.8074    2404.0102    4224.1975    5858.9511    3511.6966    81.651489 
   49500    427.37042    -108.4507   0.38669374     -108.064   -3204.6425    4.3426925    4.3426925    4.3426925   -3204.6425    -15935.01   -12648.939    18970.021   -1357.6562    -264.4255    2948.2513    81.898743 
   49600    314.31686   -108.34825    0.2844005   -108.06385     709.7958    4.3402757    4.3402757    4.3402757     709.7958   -9696.2603   -4349.4897    16175.137   -28.104529   -3510.9887   -3760.7928    81.762086 
   49700    380.03871    -108.4067   0.34386701   -108.06283   -89.669566    4.3398747    4.3398747    4.3398747   -89.669566   -7141.8478     17596.29   -10723.451   -4144.2341    3792.0543   -6311.6053    81.739421 
   49800    418.52527   -108.44205   0.37869046   -108.06336   -4681.6015    4.3414137    4.3414137    4.3414137   -4681.6015   -11773.602      61.1426   -2332.3455   -2772.6737    1698.3222    3409.4625    81.826415 
   49900    438.60052   -108.46093   0.39685496   -108.06407   -1302.0139    4.3376789    4.3376789    4.3376789   -1302.0139   -8270.9795    -280.6677    4645.6055     2421.135    1219.7072    5546.8136    81.615414 
   50000    429.79728    -108.4533   0.38888961   -108.06441   -2515.4318    4.3428667    4.3428667    4.3428667   -2515.4318   -16273.881   -9325.2319    18052.818    24.616436    1682.5211   -4175.3561    81.908601 
   50100    346.62509   -108.37819   0.31363367   -108.06456    3539.7061    4.3379112    4.3379112    4.3379112    3539.7061   -6204.5173    5599.3828    11224.253   -3622.8838   -3214.0575    -1199.138     81.62853 
   50200    369.82267   -108.39889   0.33462332   -108.06427    649.44973    4.3419208    4.3419208    4.3419208    649.44973   -7027.9326    20058.965   -11082.683   -2781.5252     68.92151   -2906.7929    81.855092 
   50300    414.63086   -108.43825   0.37516671   -108.06309   -155.64243    4.3414281    4.3414281    4.3414281   -155.64243   -5836.0674    2150.9178    3218.2223    -5092.572    6012.9975     5460.809    81.827227 
   50400      435.373   -108.45594   0.39393464   -108.06201    3250.5096    4.3381765    4.3381765    4.3381765    3250.5096   -5664.9679   -7052.7238    22469.221     159.7504    1620.9542    3853.1836    81.643506 
   50500    412.71706   -108.43704   0.37343507    -108.0636   -5002.3645    4.3434375    4.3434375    4.3434375   -5002.3645   -14707.631   -7925.8455    7626.3834    2992.2321    4458.7596   -6664.1851    81.940902 
   50600    355.52725   -108.38571   0.32168853   -108.06402    7770.7175    4.3348639    4.3348639    4.3348639    7770.7175   -2335.1014    13344.631    12302.623   -3930.5171   -2964.0251    -6670.285    81.456623 
   50700    449.61954    -108.4706    0.4068252   -108.06377   -6343.3809    4.3464811    4.3464811    4.3464811   -6343.3809   -14545.088    8023.4779   -12508.533   -807.48674   -8.0934268     2279.485    82.113275 
   50800    390.84162   -108.41814   0.35364171    -108.0645    3966.1412    4.3341287    4.3341287    4.3341287    3966.1412   -1216.3005    4665.5594    8449.1647   -4339.3662    2168.5214    418.48338    81.415184 
   50900    375.33036   -108.40498   0.33960679   -108.06537    -435.0865    4.3444306    4.3444306    4.3444306    -435.0865   -11254.841   -11634.714    21584.295   -1445.1538    2147.5442   -1850.5268    81.997121 
   51000    440.13611   -108.46212    0.3982444   -108.06387   -2088.9274    4.3384785    4.3384785    4.3384785   -2088.9274   -9596.0639    6389.1188    -3059.837     2945.538    1492.5849   -6776.2903    81.660557 
   51100    264.25308   -108.30499   0.23910174   -108.06589    2835.9602    4.3372905    4.3372905    4.3372905    2835.9602    -3192.905     17097.43   -5396.6449   -2540.2278   -209.47172   -4803.3225    81.593492 
   51200    552.81721   -108.56263   0.50020063   -108.06243   -10105.759    4.3470689    4.3470689    4.3470689   -10105.759   -20233.861   -527.32706   -9556.0903    -1164.151   -978.04587    6541.7643    82.146595 
   51300    383.93634   -108.41008   0.34739367   -108.06268    5600.9594     4.332686     4.332686     4.332686    5600.9594    725.45477    4921.4731     11155.95   -3312.8037    1404.1816   -686.79674    81.333907 
   51400    369.62331   -108.39854   0.33444294   -108.06409   -7137.9935    4.3469406    4.3469406    4.3469406   -7137.9935   -16226.641   -9493.3096    4305.9706   -2230.9882    3544.8353   -4348.6546    82.139321 
   51500    376.84296   -108.40314   0.34097543   -108.06216    8516.6984    4.3369985    4.3369985    4.3369985    8516.6984   -5297.8481    27129.003    3718.9405    5163.6717    2710.2841   -7259.5645    81.577019 
   51600    293.30546   -108.33035   0.26538894   -108.06496      596.849    4.3383957    4.3383957    4.3383957      596.849    -4448.298    15410.221   -9171.3758   -234.49924    1365.1182    -4807.744    81.655886 
   51700    522.24743   -108.53575   0.47254045   -108.06321   -9447.2613    4.3448824    4.3448824    4.3448824   -9447.2613   -17583.987    -7030.439    -3727.358    -3111.206   -2159.4042    674.59168    82.022705 
   51800    510.71648   -108.52517     0.462107   -108.06306    3984.5881    4.3333083    4.3333083    4.3333083    3984.5881   -2598.4463    13549.334    1002.8772   -1556.7829   -754.72975   -326.90073    81.368961 
   51900    245.21298   -108.28846   0.22187386   -108.06658   -217.95287    4.3456735    4.3456735    4.3456735   -217.95287   -15802.446    21000.708   -5852.1202   -4966.6214   -229.28264   -9194.3923    82.067514 
   52000    406.79918   -108.43216   0.36808044   -108.06408    7783.7639    4.3361667    4.3361667    4.3361667    7783.7639   -5126.5744    19795.381    8682.4856    1291.1084    381.63251   -3102.8799    81.530087 
   52100    416.25318   -108.44123   0.37663462   -108.06459   -181.78265    4.3395215    4.3395215    4.3395215   -181.78265    10.921813    346.41628   -902.68604     1912.202    4034.8987   -1676.4892    81.719469 
   52200    410.41589   -108.43538   0.37135292   -108.06403   -7248.5366    4.3442428    4.3442428    4.3442428   -7248.5366   -11986.291   -9362.5588   -396.76019   -8055.7989    57.884677     2829.926    81.986483 
   52300    438.86299     -108.459   0.39709245   -108.06191    8373.1086    4.3349463    4.3349463    4.3349463    8373.1086   -4391.3468    32588.997   -3078.3244   -1857.9638   -875.37965    859.58066    81.461271 
   52400    372.62024    -108.4008   0.33715462   -108.06365   -1239.2867    4.3445272    4.3445272    4.3445272   -1239.2867    -9786.418    12851.095   -6782.5375   -1358.1805    544.57499   -7347.1548    82.002588 
   52500    414.63633   -108.43753   0.37517166   -108.06236    54.955691    4.3383549    4.3383549    4.3383549    54.955691   -11697.283    -3660.483    15522.633   -589.95733   -480.26324   -7708.4854     81.65358 
   52600    428.79275   -108.45049   0.38798069   -108.06251    1904.8616     4.338696     4.338696     4.338696    1904.8616   -3188.7646   -1305.1847    10208.534    2378.9692    5652.4197    4244.4882    81.672842 
   52700    342.17345   -108.37408   0.30960573   -108.06447    728.61728    4.3423568    4.3423568    4.3423568    728.61728   -5822.8334     6646.611    1362.0742   -7236.9604    1060.2633   -2166.1431    81.879753 
   52800    415.01129   -108.43975   0.37551093   -108.06423    4009.2665     4.336887     4.336887     4.336887    4009.2665   -242.05219    19131.744   -6861.8919   -5831.3452    273.35644    1644.7813    81.570723 
   52900    442.57414   -108.46508   0.40045038   -108.06463     106.9378    4.3418001    4.3418001    4.3418001     106.9378   -6880.1491    8006.9737   -806.01125   -263.87998   -1714.0856   -4457.1986    81.848266 
   53000    425.72323   -108.45004   0.38520332   -108.06483   -7270.7924     4.339466     4.339466     4.339466   -7270.7924   -15590.754   -16465.378    10243.755   -4675.3793   -2242.9243   -957.72643    81.716335 
   53100    341.79671   -108.37455   0.30926484   -108.06529     3815.792    4.3389058    4.3389058    4.3389058     3815.792   -9719.1518     13442.87    7723.6582     2119.724    1633.8109    5918.6396    81.684687 
   53200     367.6239    -108.3967   0.33263383   -108.06407    2817.7461    4.3416943    4.3416943    4.3416943    2817.7461   -5363.0144    19707.014    -5890.761   -7968.0543    3498.1243    4457.8616    81.842282 
   53300    385.57447   -108.41285   0.34887589   -108.06398   -34.741387    4.3384086    4.3384086    4.3384086   -34.741387    1530.5643    6198.3285   -7833.1169   -8415.7036    2326.5403    -6055.361    81.656613 
   53400    503.82561   -108.51813     0.455872   -108.06225   -6686.8909    4.3425536    4.3425536    4.3425536   -6686.8909   -2910.2359   -2862.5289   -14287.908    3513.0201    795.83028  -0.92858164    81.890887 
   53500    395.19235   -108.42097   0.35757834    -108.0634   -2656.9982    4.3387918    4.3387918    4.3387918   -2656.9982   -10417.179    6741.7319   -4295.5478   -765.41613   -828.54711   -5160.9607    81.678253 
   53600    341.08006    -108.3734    0.3086164   -108.06478   -2805.3089    4.3407449    4.3407449    4.3407449   -2805.3089    -16829.49    14065.191   -5651.6278   -2850.6313    221.44463    4627.8274    81.788602 
   53700    433.78331   -108.45615   0.39249626   -108.06365    2815.1577    4.3394246    4.3394246    4.3394246    2815.1577   -931.42429    15414.365   -6037.4677    -1806.492    3180.1731    4639.7902    81.713992 
   53800     418.2223   -108.44259   0.37841633   -108.06417   -3974.8492    4.3396404    4.3396404    4.3396404   -3974.8492   -1520.5961   -14091.175    3687.2234   -9573.0245    2349.6176   -1434.2018    81.726187 
   53900    298.74212   -108.33572   0.27030815   -108.06541    3440.2504    4.3400694    4.3400694    4.3400694    3440.2504    358.44908    17328.291   -7365.9891    5121.0451    3328.2345   -663.98123    81.750426 
   54000    438.45478   -108.46038    0.3967231   -108.06366   -3058.0226    4.3403645    4.3403645    4.3403645   -3058.0226   -7410.7029    9735.0565   -11498.421     234.0434   -1410.8017    1146.9332    81.767104 
   54100    414.81117   -108.44017   0.37532986   -108.06484   -3244.3677     4.338452     4.338452     4.338452   -3244.3677   -13321.277    6959.5962   -3371.4227   -10286.131   -1553.9504   -403.45823    81.659061 
   54200    494.42817   -108.51198     0.447369   -108.06461   -7511.9777    4.3428444    4.3428444    4.3428444   -7511.9777   -4895.0145   -3239.0308   -14401.888    -1080.705      2495.83    6835.7196    81.907338 
   54300    419.72644   -108.44384    0.3797773   -108.06406      474.414    4.3365813    4.3365813    4.3365813      474.414   -4608.5146    1132.3842    4899.3724     -3226.56    2592.6053     -3794.88    81.553479 
   54400    188.18194   -108.23705   0.17027098   -108.06678    7305.6242    4.3425277    4.3425277    4.3425277    7305.6242   -2250.9759    26764.884   -2597.0352    2415.8166    5281.7146   -6393.0114    81.889419 
   54500    399.46091   -108.42579   0.36144062   -108.06435    1579.8773    4.3392269    4.3392269    4.3392269    1579.8773   -3867.2074     15652.84   -7046.0004     4434.035    2807.0017   -1527.6819    81.702825 
   54600    501.68649   -108.51886   0.45393647   -108.06493   -2152.2689    4.3385792    4.3385792    4.3385792   -2152.2689   -5335.8517   -4489.2848    3368.3297   -9522.3036   -919.61455    511.99376    81.666245 
   54700    465.64622   -108.48489   0.42132649   -108.06356   -13027.908    4.3453423    4.3453423    4.3453423   -13027.908   -16076.876   -2685.1761   -20321.671    -1949.567    1184.9371    2544.7365    82.048752 
   54800    398.38105   -108.42251   0.36046354   -108.06205    8143.8507    4.3311508    4.3311508    4.3311508    8143.8507   -428.83644    26204.477   -1344.0884    1193.4671   -2953.5088    5832.3587    81.247481 
   54900    272.48448   -108.31056   0.24654968   -108.06401   -2437.4132    4.3489002    4.3489002    4.3489002   -2437.4132   -10438.261    13432.666   -10306.645   -1841.6675    3439.6111   -6502.0424    82.250459 
   55000    452.54199   -108.47256    0.4094695   -108.06309    4979.8494    4.3303949    4.3303949    4.3303949    4979.8494    8809.3295    4752.2676    1377.9511    1139.5736    4720.7756    691.01153    81.204949 
   55100    452.47756   -108.47448   0.40941121   -108.06507   -6431.4628    4.3462053    4.3462053    4.3462053   -6431.4628   -12293.227   -7170.6479    169.48621   -7204.2955   -2325.4203    3808.8568    82.097645 
   55200    350.39819   -108.38191   0.31704765   -108.06486    3205.7674      4.33634      4.33634      4.33634    3205.7674   -7510.2541    20656.215   -3528.6582   -3830.2116    2471.0319    2570.8847    81.539866 
   55300    411.00891   -108.43655    0.3718895   -108.06466   -3268.2238    4.3394959    4.3394959    4.3394959   -3268.2238   -6726.5359    12899.502   -15977.638    5536.7881   -3267.9025    1425.2511    81.718023 
   55400    416.47332   -108.44019   0.37683382   -108.06336   -1194.8946    4.3423974    4.3423974    4.3423974   -1194.8946    1118.5396   -260.48666   -4442.7366   -4239.7128    1549.5881   -2678.4087    81.882046 
   55500    446.41065   -108.46736   0.40392174   -108.06344   -1075.2531    4.3360523    4.3360523    4.3360523   -1075.2531    2493.8196   -1594.3189     -4125.26   -3305.2454    5806.8639   -559.75284    81.523635 
   55600    368.54276    -108.3976   0.33346523   -108.06413    818.19561    4.3428227    4.3428227    4.3428227    818.19561   -10281.338    13898.988   -1163.0633   -5905.2252    1254.0278    9166.7519    81.906111 
   55700    285.42975   -108.32209   0.25826284   -108.06383    6719.6621     4.339489     4.339489     4.339489    6719.6621   -8800.2032    22815.103    6144.0866   -6477.9128    2046.7964    5834.0863    81.717631 
   55800    454.08898   -108.47303   0.41086925   -108.06216   -3378.5614    4.3399107    4.3399107    4.3399107   -3378.5614   -5811.3983    2204.4843   -6528.7701    5164.7315   -1570.2083    4000.0113    81.741458 
   55900    439.54422   -108.46055   0.39770884   -108.06284    1752.4548    4.3401472    4.3401472    4.3401472    1752.4548    7584.6032   -2326.8097  -0.42904848   -3631.3651    -2747.544   -410.87331     81.75482 
   56000    420.27935   -108.44414   0.38027759   -108.06386   -4500.7343    4.3407211    4.3407211    4.3407211   -4500.7343   -10880.389    9924.0847   -12545.899   -6585.5478    1742.1588   -4390.2178    81.787256 
   56100    363.35069   -108.39322   0.32876734   -108.06445    7965.7665    4.3350854    4.3350854    4.3350854    7965.7665   -2487.6681    28970.261   -2585.2934    445.68592    2838.0382    6032.4698    81.469109 
   56200    379.07225    -108.4076   0.34299253   -108.06461   -6294.6412     4.346569     4.346569     4.346569   -6294.6412   -17256.756   -3144.0553    1516.8878   -5108.7375    84.365692    3911.8733    82.118258 
   56300    496.98263   -108.51196   0.44968033   -108.06228    3915.0182    4.3315342    4.3315342    4.3315342    3915.0182   -2233.2782     3161.388    10816.945      3768.32    1521.4687   -948.74193    81.269061 
   56400    350.56426   -108.38202   0.31719791   -108.06483    452.19645    4.3453179    4.3453179    4.3453179    452.19645   -5687.9114    11182.435   -4137.9344   -4098.2788   -3800.9639    322.64522     82.04737 
   56500     339.7503   -108.37197   0.30741321   -108.06456    4001.2362    4.3376363    4.3376363    4.3376363    4001.2362   -6143.3621    22717.305    -4570.234    -11249.49    1247.2561   -89.932144    81.613013 
   56600    486.31783   -108.50353   0.44003059    -108.0635    2340.8517    4.3366104    4.3366104    4.3366104    2340.8517   -964.06344    12538.672   -4552.0539    -2283.358    3013.6694    6166.6414    81.555118 
   56700    397.16711    -108.4229   0.35936515   -108.06353   -8213.7429    4.3462225    4.3462225    4.3462225   -8213.7429   -4375.0328   -15243.037   -5023.1594   -4112.3285    1778.2116    7098.2881    82.098624 
   56800    422.36187   -108.44479    0.3821619   -108.06263    4343.5868     4.332428     4.332428     4.332428    4343.5868   -9599.0911     10671.25    11958.601   -1063.6104    6395.2839   -5703.7519    81.319381 
   56900    331.10999   -108.36302   0.29959528   -108.06342    3047.5774    4.3449529    4.3449529    4.3449529    3047.5774   -13705.035    24409.807   -1562.0398   -563.14938   -1864.8684    -2914.743    82.026697 
   57000    358.85727   -108.38912    0.3247016   -108.06442   -474.63482    4.3374209    4.3374209    4.3374209   -474.63482   -2347.0153   -446.34693    1369.4578   -11297.449   -2305.0035   -1096.1411    81.600856 
   57100    486.81813   -108.50412   0.44048327   -108.06364   -245.12257    4.3373233    4.3373233    4.3373233   -245.12257    2591.9456    1383.6397    -4710.953   -498.14489    1052.8683    2232.0958    81.595345 
   57200     407.2293   -108.43269   0.36846963   -108.06422    -5943.282    4.3440419    4.3440419    4.3440419    -5943.282    5935.5353   -6854.8452   -16910.536     2568.697    158.72709    5688.2793    81.975113 
   57300    328.72372   -108.36262   0.29743613   -108.06518   -182.83404    4.3342623    4.3342623    4.3342623   -182.83404   -12688.609    11621.512    518.59458   -7059.0183    3901.1064   -858.08524    81.422712 
   57400    457.08849   -108.47675   0.41358327   -108.06317   -3596.3503    4.3430859    4.3430859    4.3430859   -3596.3503   -15851.194    6730.5725   -1668.4292    1339.0977    3091.8417   -2117.9731    81.921004 
   57500    402.35344   -108.42876   0.36405785    -108.0647   -1464.1562    4.3380189    4.3380189    4.3380189   -1464.1562   -792.15915   -7384.2685     3783.959    -11331.31   -4320.6016    5093.4077    81.634608 
   57600     342.4997   -108.37598   0.30990092   -108.06608    1914.0932     4.337488     4.337488     4.337488    1914.0932    3200.6025    2641.6499   -99.972767    1574.4882    1560.7191    1956.0936    81.604641 
   57700    372.63002   -108.40125   0.33716348   -108.06409   -119.30932    4.3441569    4.3441569    4.3441569   -119.30932    1912.4101    13353.823   -15624.161    6291.9282    278.29761    5270.8064    81.981619 
   57800    396.39463   -108.42317   0.35866619   -108.06451   -2306.7286     4.333917     4.333917     4.333917   -2306.7286   -6483.5845     3863.701   -4300.3023   -8169.2261     2808.378   -2147.2397    81.403255 
   57900    490.99939   -108.50758   0.44426656   -108.06332   -10537.687    4.3450474    4.3450474    4.3450474   -10537.687   -21685.823    1785.6009   -11712.839   -1290.9748    5823.3568   -3135.4362    82.032048 
   58000    544.64142   -108.55471     0.492803   -108.06191    1679.9383     4.336271     4.336271     4.336271    1679.9383    2988.6346    5173.2141   -3122.0339   -724.64035   -1607.8959    2316.7456    81.535972 
   58100    173.13764    -108.2235   0.15665857   -108.06684    5688.0816    4.3394255    4.3394255    4.3394255    5688.0816   -3834.0475    24178.438   -3280.1457   -2764.2661   -40.379683    5704.6858    81.714045 
   58200    365.72783   -108.39623   0.33091823   -108.06531    2371.7899    4.3405487    4.3405487    4.3405487    2371.7899    5948.6687    3936.3137   -2769.6126    7731.7278   -1615.5751    3143.1994    81.777513 
   58300    470.95438   -108.49115   0.42612942   -108.06502    2574.3685     4.336277     4.336277     4.336277    2574.3685    6814.9163    4.2540717    903.93522   -6868.2037    -2043.474    5405.0208    81.536312 
   58400     385.8758   -108.41522   0.34914854   -108.06607   -9462.2528    4.3430035    4.3430035    4.3430035   -9462.2528   -19357.172   0.30225041   -9029.8886   -8838.5819    4419.0728    -4943.151    81.916337 
   58500    511.87222   -108.52589   0.46315274   -108.06274    5032.9439    4.3374247    4.3374247    4.3374247    5032.9439    1609.2103    23685.228   -10195.607    4693.7219    3673.1512    3014.4689    81.601071 
   58600    370.12256   -108.40027   0.33489467   -108.06538   -5386.9357    4.3400351    4.3400351    4.3400351   -5386.9357   -2811.7832   -3556.8972   -9792.1267   -3162.5098    836.15927    3279.7079    81.748488 
   58700    270.70186   -108.31265   0.24493673   -108.06771    2396.4284    4.3384328    4.3384328    4.3384328    2396.4284    4684.2707    247.45972    2257.5547    -2788.467    2040.3044    1385.9092    81.657979 
   58800      560.406   -108.57003   0.50706712   -108.06296   -216.70122    4.3406047    4.3406047    4.3406047   -216.70122    6028.4919   -6549.3335   -129.26213   -2075.9857   -5544.0221   -715.38492     81.78068 
   58900    237.58772   -108.28118   0.21497436    -108.0662    5080.7944     4.336251     4.336251     4.336251    5080.7944    -10423.71    20058.922     5607.171   -11620.747    2887.6107   -2664.3597    81.534846 
   59000    485.99376   -108.50282   0.43973736   -108.06308   -9181.9633    4.3451448    4.3451448    4.3451448   -9181.9633   -12417.598    -2973.924   -12154.368    5903.2677     5214.727   -3301.7577    82.037563 
   59100    417.79649   -108.44019   0.37803104   -108.06216    7824.7913    4.3327844    4.3327844    4.3327844    7824.7913     9489.679    11331.444    2653.2509   -807.81227    519.67662    5205.6981    81.339449 
   59200    336.23172   -108.36982   0.30422953   -108.06559   -14831.664    4.3462254    4.3462254    4.3462254   -14831.664   -10788.338   -16067.349   -17639.305   -9931.0852    4229.8161     -203.396    82.098784 
   59300    482.60745   -108.50007   0.43667337   -108.06339    11808.744    4.3328321    4.3328321    4.3328321    11808.744    8713.0319    27406.182   -692.98293   -1161.3548    -2355.331   -52.627097    81.342139 
   59400    365.42056   -108.39675    0.3306402   -108.06611   -6869.3844     4.343636     4.343636     4.343636   -6869.3844   -16375.823    2133.7771   -6366.1072   -6265.3379   -1293.3495   -1819.6107    81.952135 
   59500    360.19521   -108.39191    0.3259122     -108.066   -4431.1723    4.3383721    4.3383721    4.3383721   -4431.1723   -15214.852    267.88163    1653.4534    3497.3447    6841.7446   -643.97576    81.654552 
   59600     492.7063   -108.50866   0.44581102   -108.06285    7273.9857    4.3364608    4.3364608    4.3364608    7273.9857    8123.9189    9686.3143    4011.7237    1030.3848    2439.0779    3094.7089    81.546677 
   59700    216.29789   -108.26269   0.19571088   -108.06698    -1414.906     4.344206     4.344206     4.344206    -1414.906   -6204.5856    13527.041   -11567.173   -11127.534     4960.827    4548.9846    81.984402 
   59800    485.86778   -108.50373   0.43962338    -108.0641    3065.1896    4.3348192    4.3348192    4.3348192    3065.1896    6614.2719    12384.119   -9802.8224   -2162.1799    3589.1967    -5860.612    81.454106 
   59900    471.25603    -108.4897   0.42640236    -108.0633   -5158.8055    4.3427125    4.3427125    4.3427125   -5158.8055   -7153.4141    2595.0537   -10918.056    667.40908   -5687.1516   -607.05936    81.899876 
   60000    384.85894   -108.41297   0.34822846   -108.06474   -7550.4797     4.338956     4.338956     4.338956   -7550.4797   -14624.465   -2757.6568   -5269.3174   -5177.7913    4752.3201   -1218.3787    81.687527 
   60100     421.4261    -108.4449   0.38131519   -108.06359    8660.2925    4.3385972    4.3385972    4.3385972    8660.2925    4931.5958    23232.597    -2183.315     1839.478    -6.569007    1178.4706    81.667262 
   60200    329.17158   -108.36317   0.29784136   -108.06533    2947.5846    4.3398179    4.3398179    4.3398179    2947.5846    5502.7304     9499.753   -6159.7295   -13579.908    1917.6677    7331.4992    81.736213 
   60300    324.69202   -108.35983   0.29378817   -108.06605    1208.7569    4.3391762    4.3391762    4.3391762    1208.7569     9662.076    1596.8903   -7632.6957   -2909.8965    8073.6098    1266.0935    81.699962 
   60400    561.44246    -108.5706   0.50800493    -108.0626   -2546.3441    4.3378113    4.3378113    4.3378113   -2546.3441   -203.96011   -6184.9812   -1250.0908     4893.053   -3768.9265   -2432.5509    81.622889 
   60500    347.39564   -108.38004   0.31433088   -108.06571   -9793.8533    4.3439117    4.3439117    4.3439117   -9793.8533   -9012.2211   -5559.8706   -14809.468   -3084.3938    1660.2249    -106.6229    81.967739 
   60600    392.27685   -108.41914   0.35494034    -108.0642    9471.4813    4.3338712    4.3338712    4.3338712    9471.4813    9047.4474    24682.531   -5315.5347     -5993.62    2131.2293   -3339.2678    81.400676 
   60700    415.53413   -108.44015   0.37598401   -108.06417   -29.365535    4.3438348    4.3438348    4.3438348   -29.365535    14166.416   -514.30424   -13740.209   -1529.0932    443.06466    700.93624     81.96339 
   60800    384.49817   -108.41318   0.34790203   -108.06528   -3594.3273    4.3366006    4.3366006    4.3366006   -3594.3273   -3791.1722   -4054.7233   -2937.0863   -9594.5753    8158.7056    1411.3907    81.554567 
   60900    417.19556   -108.44233   0.37748731   -108.06484   -430.23356    4.3388102    4.3388102    4.3388102   -430.23356   -2187.9761     -2006.66    2903.9353    7440.9247    721.77474   -6487.2232     81.67929 
   61000    399.91184   -108.42757   0.36184864   -108.06572   -4475.5619    4.3410419    4.3410419    4.3410419   -4475.5619   -6393.7227   -145.74195   -6887.2212   -8649.0788   -5894.7146    249.24587    81.805393 
   61100    258.26596   -108.30046   0.23368447   -108.06678     7932.804    4.3367605    4.3367605    4.3367605     7932.804    12759.441    19767.399   -8728.4279    -9635.219     1826.813   -1119.1018    81.563588 
   61200    544.54754    -108.5555   0.49271806   -108.06278   -3597.6751    4.3436218    4.3436218    4.3436218   -3597.6751    11542.162   -6872.2475    -15462.94    382.50245   -2531.8801    1098.5381    81.951329 
   61300    394.54441   -108.42072   0.35699207   -108.06373     -3347.69    4.3366561    4.3366561    4.3366561     -3347.69     -5847.88    3455.4295   -7650.6197   -899.10721    3920.9564    5004.1261    81.557698 
   61400    436.07509   -108.45815    0.3945699   -108.06358   -7531.8627    4.3402413    4.3402413    4.3402413   -7531.8627   -11130.349   -5747.4052   -5717.8339   -1500.8032    4687.4961   -3470.8109    81.760138 
   61500    357.12442   -108.38718   0.32313368   -108.06405     3691.933    4.3414949    4.3414949    4.3414949     3691.933    12530.692    4769.2814   -6224.1739   -1719.2397   -6340.9744   -4251.1394    81.831006 
   61600    289.70634   -108.32796   0.26213238   -108.06582    7770.3134     4.334243     4.334243     4.334243    7770.3134    15741.367    11191.527   -3621.9543   -13746.534    289.59451   -389.57807    81.421627 
   61700    459.31106   -108.47979    0.4155943    -108.0642    -4657.216    4.3446832    4.3446832    4.3446832    -4657.216    9103.3345   -14437.281   -8637.7012     2205.617   -901.08866   -8651.8986    82.011424 
   61800    500.13851   -108.51553   0.45253583   -108.06299    209.56111    4.3349465    4.3349465    4.3349465    209.56111   -3559.5055    6591.4704   -2403.2815    818.56501   -2417.6214    3679.2662    81.461277 
   61900    293.16177    -108.3318   0.26525893   -108.06654   -5658.7068    4.3418067    4.3418067    4.3418067   -5658.7068    10707.694   -15471.048   -12212.767   -7340.9753    7023.2462    -1829.996    81.848638 
   62000    445.34614   -108.46806   0.40295854    -108.0651    6346.6991    4.3374559    4.3374559    4.3374559    6346.6991    19261.109    6727.1064   -6948.1185    -3864.942   -3964.4134    -4124.828    81.602832 
   62100    365.43285   -108.39672   0.33065132   -108.06607    3168.0779    4.3391669    4.3391669    4.3391669    3168.0779    12208.109    2561.5608   -5265.4364   -6834.8032   -3730.7249   -751.82171    81.699438 
   62200    397.20207   -108.42513   0.35939678   -108.06573   -8313.4893    4.3409399    4.3409399    4.3409399   -8313.4893   -9158.5838   -14330.307   -1451.5767   -2623.2522    4048.9797   -6011.9314    81.799628 
   62300    454.07191   -108.47453   0.41085381   -108.06367    3271.9462    4.3378577    4.3378577    4.3378577    3271.9462    13343.505   -5139.9944    1612.3283    6175.9355    1583.6983    625.59521    81.625509 
   62400    347.45724   -108.37972   0.31438661   -108.06533    -6107.923    4.3420853    4.3420853    4.3420853    -6107.923    5059.5649   -12176.728   -11206.606   -8377.6546    3368.0354    2644.8941    81.864392 
   62500    381.56659   -108.40969   0.34524947   -108.06444    4008.5123    4.3373936    4.3373936    4.3373936    4008.5123    16137.289    4839.9654   -8951.7175   -6615.0821     1207.869   -3555.0434    81.599314 
   62600    555.23201   -108.56489    0.5023856    -108.0625   -4375.1369    4.3407268    4.3407268    4.3407268   -4375.1369    -10197.31    7827.8576   -10755.958   -455.58779   -8704.6666   -2150.3074     81.78758 
   62700    232.83722   -108.27717   0.21067601   -108.06649   -4530.8268    4.3392996    4.3392996    4.3392996   -4530.8268   -48.179764   -12639.728   -904.57231     -3641.74     3771.098   -6890.7928    81.706931 
   62800    443.39566   -108.46564   0.40119371   -108.06444   -598.72791     4.340097     4.340097     4.340097   -598.72791    12342.087   -13332.475   -805.79497     3112.878    2298.4639   -7158.6032    81.751983 
   62900     385.6371   -108.41316   0.34893255   -108.06423    3156.7512    4.3395545    4.3395545    4.3395545    3156.7512    13235.634   -3754.2788   -11.101937   -7050.1981    2050.4185    4130.4089    81.721331 
   63000    396.88332   -108.42509   0.35910836   -108.06598   -5019.2876    4.3385538    4.3385538    4.3385538   -5019.2876   -7421.1646   -483.33344   -7153.3648   -10204.296    2312.2564   -5880.9781    81.664809 
   63100    495.56598    -108.5119   0.44839852    -108.0635    886.23828    4.3409143    4.3409143    4.3409143    886.23828    5612.8244    6264.1875   -9218.2971    4448.3822   -3305.4142    1707.7338    81.798177 
   63200    292.30734   -108.33023   0.26448583   -108.06574    3040.3414    4.3353257    4.3353257    4.3353257    3040.3414    13847.751   -4916.1492    189.42266   -1347.9226    1372.2293   -3495.4373    81.482657 
   63300    335.84463   -108.37048   0.30387928    -108.0666   -5053.1549    4.3453082    4.3453082    4.3453082   -5053.1549    14647.227   -20091.818   -9714.8733   -2096.9098    8729.2015   -6796.7598     82.04682 
   63400    569.76107   -108.57776   0.51553179   -108.06223    10104.388    4.3324269    4.3324269    4.3324269    10104.388    9154.3381    4774.3581    16384.468    -1734.489    934.41372    3374.4189    81.319319 
   63500    335.32662   -108.37034   0.30341057   -108.06693   -11033.936    4.3463985    4.3463985    4.3463985   -11033.936   -10185.806   -16528.503   -6387.4985   -7376.6908   -1539.9677   -1884.1192    82.108597 
   63600    355.97752     -108.387   0.32209594   -108.06491    6873.9158    4.3354683    4.3354683    4.3354683    6873.9158    17990.643    4800.0519   -2168.9473    4069.6253   -1778.8049   -1603.9231    81.490698 
   63700    450.37019   -108.47064   0.40750441   -108.06313    5976.0835    4.3384275    4.3384275    4.3384275    5976.0835    20964.579     1697.818   -4734.1468    2837.2056   -2980.1503   -1683.6688    81.657678 
   63800     314.2248   -108.35048   0.28431721   -108.06616   -9009.7065    4.3450147    4.3450147    4.3450147   -9009.7065    2139.3495   -16459.331   -12709.138   -4724.2224     7837.452   -10001.462    82.030195 
   63900    559.63919   -108.56867    0.5063733    -108.0623     7697.175    4.3309516    4.3309516    4.3309516     7697.175    3567.9872    660.80361    18862.734   -1782.0752    1065.8401   -2966.1848    81.236272 
   64000    366.94296   -108.39619    0.3320177   -108.06417   -11154.648    4.3488576    4.3488576    4.3488576   -11154.648   -4168.3372   -25632.261   -3663.3451   -2780.2288   -3708.0427     1572.428    82.248043 
   64100    225.33531   -108.26965   0.20388813   -108.06576    5751.1934    4.3318437    4.3318437    4.3318437    5751.1934    18044.559    1201.7049   -1992.6836   -1102.9772    883.39683   -4202.7769    81.286483 
   64200    538.10641   -108.54973   0.48688998   -108.06284    1747.5462    4.3428597    4.3428597    4.3428597    1747.5462    12008.752    4937.9747   -11704.088    6055.5331    2900.6756    3695.7206    81.908204 
   64300    400.72482   -108.42902   0.36258424   -108.06643   -7869.4792    4.3399996    4.3399996    4.3399996   -7869.4792   -8469.7461   -6749.6776   -8389.0139   -8021.7844    2776.6105   -8855.0212    81.746484 
   64400    390.66172   -108.41987   0.35347893   -108.06639   -1791.8636    4.3349263    4.3349263    4.3349263   -1791.8636    1147.1385   -9981.6311    3458.9016   -5832.7488    5271.5152   -3628.2795    81.460143 
   64500     453.1542   -108.47343   0.41002345   -108.06341   -6304.5946     4.346969     4.346969     4.346969   -6304.5946    3529.2635   -22303.748   -139.29897    110.45807   -8127.3572    2699.8322    82.140934 
   64600    181.15965    -108.2305   0.16391705   -108.06658    8058.2578    4.3313209    4.3313209    4.3313209    8058.2578    25612.284   -1950.9592    513.44825   -743.52477   -1958.4917   -5425.4676    81.257057 
   64700    478.89626   -108.49733    0.4333154   -108.06402    -4917.928    4.3468355    4.3468355    4.3468355    -4917.928   -1425.8394    3822.3467   -17150.291     3880.758    2719.3202    1076.4627    82.133362 
   64800    520.55053   -108.53373   0.47100506   -108.06273   -1700.2878    4.3364273    4.3364273    4.3364273   -1700.2878    820.59904   -1500.3454   -4421.1169   -3808.8222    2115.7522   -5641.6674    81.544789 
   64900    300.26801   -108.33794   0.27168881   -108.06625    -6027.631    4.3377486    4.3377486    4.3377486    -6027.631    6185.8712   -12585.348   -11683.417   -8200.3117    4960.4561   -9169.0049    81.619353 
   65000    454.31122   -108.47556   0.41107034   -108.06449   -1321.9636    4.3446985    4.3446985    4.3446985   -1321.9636    15401.949   -12545.302   -6822.5373    3683.9752   -312.25992    1321.1256     82.01229 
   65100    367.51598    -108.3973   0.33253618   -108.06476    8423.2053    4.3313648    4.3313648    4.3313648    8423.2053    16058.106    2853.9941    6357.5158    926.03477   -4865.0691   -1658.0513    81.259528 
   65200    306.24665   -108.34279    0.2770984    -108.0657   -5353.1897     4.347223     4.347223     4.347223   -5353.1897   -5594.6154      377.263   -10842.217   -863.33255    6584.8687    84.620966    82.155331 
   65300    570.15253   -108.57663   0.51588599   -108.06074    3122.2954    4.3341547    4.3341547    4.3341547    3122.2954    3205.7612    4734.2225    1426.9025   -3123.8791    1689.7212    3665.4636    81.416649 
   65400    252.74125   -108.29505   0.22868559   -108.06636    305.59188     4.341282     4.341282     4.341282    305.59188    22979.445   -11005.918   -11056.751   -8474.0088    2579.1124   -10064.192    81.818969 
   65500    466.34114   -108.48598   0.42195526   -108.06402    -4019.765    4.3413549    4.3413549    4.3413549    -4019.765    7530.1642   -6947.6731   -12641.786      637.962    2790.8576    853.91475    81.823089 
   65600     485.0607   -108.50135   0.43889312   -108.06246     8536.748    4.3339086    4.3339086    4.3339086     8536.748    12064.855    7306.6944    6238.6947    5665.5698   -5124.4548   -2684.8901    81.402783 
   65700    316.55384   -108.35235   0.28642457   -108.06593    -8470.249    4.3439407    4.3439407    4.3439407    -8470.249   -13669.956   -5559.6052   -6181.1863    -6525.984    6684.6781   -2372.5244    81.969381 
   65800     366.1325    -108.3958   0.33128438   -108.06452    6839.9205    4.3359729    4.3359729    4.3359729    6839.9205    20041.655   -241.87389    719.98016   -2787.3031    9234.3412    2606.9534    81.519158 
   65900    396.49259   -108.42366   0.35875483    -108.0649    2558.8992    4.3412496    4.3412496    4.3412496    2558.8992    21871.724   -5574.1068   -8620.9196   -4549.8637   -728.26861   -6505.1863    81.817138 
   66000    403.15943   -108.42989   0.36478712    -108.0651   -6586.5082       4.3393       4.3393       4.3393   -6586.5082   -2921.2116   -4612.8003   -12225.513    517.74944    5786.1252   -2895.8291    81.706954 
   66100    592.94729   -108.59858   0.53651117   -108.06207   -3792.0377    4.3393866    4.3393866    4.3393866   -3792.0377   -7273.3461    2371.5529     -6474.32    3631.1605   -2330.3676   -395.15748    81.711847 
   66200    321.71979   -108.35589   0.29109883   -108.06479    1168.0913    4.3396119    4.3396119    4.3396119    1168.0913    11967.201   -3145.2928   -5317.6338   -6284.7973    2122.5894    -2920.519    81.724574 
   66300    234.80066   -108.27895   0.21245258    -108.0665    3152.3252    4.3401589    4.3401589    4.3401589    3152.3252    18688.063   -1081.7915   -8149.2958   -9334.6137     10473.62    2574.5499    81.755484 
   66400    458.20616   -108.47731   0.41459456   -108.06272    8335.1245     4.337922     4.337922     4.337922    8335.1245    19270.893    7834.6998   -2100.2194   -2057.4523    1747.2843    3341.3811    81.629139 
   66500    412.01365   -108.43849   0.37279861    -108.0657   -7619.0662    4.3406082    4.3406082    4.3406082   -7619.0662    -13509.52   -6536.4524   -2811.2257   -3793.7292    4630.3059   -4548.1746    81.780878 
   66600    449.06728   -108.47135   0.40632551   -108.06502    -5313.979    4.3396514    4.3396514    4.3396514    -5313.979    1753.2508   -5741.4275    -11953.76    3905.3903    2933.0041    2350.5444    81.726806 
   66700    442.08319   -108.46425   0.40000616   -108.06424    9815.3264    4.3354132    4.3354132    4.3354132    9815.3264    28841.605    -1487.458    2091.8319   -3573.7281   -1445.7002   -5175.1501     81.48759 
   66800    251.89675   -108.29595   0.22792147   -108.06803   -9420.7738    4.3452478    4.3452478    4.3452478   -9420.7738   -3855.2748    -7439.714   -16967.333    -7765.782    13564.212    613.34316    82.043397 
   66900    495.31821    -108.5132   0.44817432   -108.06502    8232.0246    4.3312838    4.3312838    4.3312838    8232.0246    4421.6153    15838.138    4436.3207    212.45007    591.44822    3051.8459    81.254969 
   67000     414.8468   -108.43977    0.3753621    -108.0644   -8446.6793    4.3486519    4.3486519    4.3486519   -8446.6793   -7189.3033   -13843.444   -4307.2902    3285.3553   -2117.5324   -588.03164    82.236371 
   67100    286.80211   -108.32387   0.25950458   -108.06436    2877.1016    4.3313801    4.3313801    4.3313801    2877.1016    16635.322   -1313.9093   -6690.1079    -1632.481    5619.2717   -248.19883    81.260389 
   67200    494.15429   -108.50963   0.44712118   -108.06251   -3131.8795    4.3450209    4.3450209    4.3450209   -3131.8795      14946.3   -12579.278   -11762.661   -524.63338   -2650.4196   -2578.0643    82.030548 
   67300    455.07922   -108.47706   0.41176524   -108.06529   -7384.0546    4.3370293    4.3370293    4.3370293   -7384.0546   -11368.025   -3280.6571   -7503.4823   -10201.847    10311.079    -614.4847    81.578754 
   67400    329.87052   -108.36676   0.29847378   -108.06828   -460.53251    4.3378067    4.3378067    4.3378067   -460.53251   -1663.5643    6936.6399   -6654.6731    703.05854    3743.6519    3191.7371    81.622633 
   67500    442.01836   -108.46383    0.3999475   -108.06388    1041.6532    4.3445755    4.3445755    4.3445755    1041.6532    9780.2574    -4764.961   -1890.3369    4420.9056   -6977.9235    3851.4663    82.005325 
   67600    213.61126   -108.25913   0.19327996   -108.06585    5317.0473    4.3320626    4.3320626    4.3320626    5317.0473    15869.511    1949.3925   -1867.7617   -389.02778    6612.7081    1537.9545    81.298808 
   67700    445.16724   -108.46617   0.40279667   -108.06337    -12231.31    4.3474605    4.3474605    4.3474605    -12231.31   -10526.288   -8119.5332   -18048.109   -2084.1343    3073.7207    2830.7337    82.168798 
   67800    603.38363   -108.60713   0.54595419   -108.06117    131.12623      4.33349      4.33349      4.33349    131.12623    1026.3182   -1321.1291     688.1896   -4567.4585    2372.6525   -5440.3821    81.379194 
   67900    287.75558   -108.32683    0.2603673   -108.06647   -4608.6862    4.3420121    4.3420121    4.3420121   -4608.6862    8115.2805   -3571.9902   -18369.349   -3160.9474     9959.553    2425.7477    81.860256 
   68000    394.83932   -108.42235   0.35725891   -108.06509    7218.6069    4.3389668    4.3389668    4.3389668    7218.6069    18910.495    3597.9059   -852.57971    6495.9636   -9196.4268    363.13709    81.688136 
   68100     387.8524   -108.41534     0.350937    -108.0644    2482.5598    4.3368575    4.3368575    4.3368575    2482.5598    4013.6012    1554.9614    1879.1167    679.05746    1737.7149    1200.2924    81.569059 
   68200    306.50748   -108.34366   0.27733441   -108.06633   -8575.1726    4.3436484    4.3436484    4.3436484   -8575.1726   -14928.203    1521.5346   -12318.849   -4978.4682    7832.6675    5203.3653    81.952837 
   68300    550.51459   -108.56056   0.49811717   -108.06244    7874.2471    4.3342624    4.3342624    4.3342624    7874.2471    18701.766    24.695555    4896.2796   -2283.7457    230.25927   -1844.8062    81.422717 
   68400    361.85829   -108.39358   0.32741698   -108.06616   -3552.8108    4.3438713    4.3438713    4.3438713   -3552.8108    12897.747   -7833.9813   -15722.198    -1776.093    8376.8115   -558.96492    81.965457 
   68500    363.15984   -108.39433   0.32859465   -108.06573     2677.441    4.3352084    4.3352084    4.3352084     2677.441    3664.2431    4752.2401   -384.16021    2278.7506      96.2592    4060.2084    81.476047 
   68600     522.0796   -108.53529    0.4723886    -108.0629   -3946.9046    4.3420263    4.3420263    4.3420263   -3946.9046   -4080.4245   -3927.0693   -3833.2199    1157.3081   -2516.1965    2383.8483    81.861056 
   68700    227.21875   -108.27215    0.2055923   -108.06656    3589.5796    4.3375007    4.3375007    4.3375007    3589.5796    5660.3833    9089.4182   -3981.0627   -6051.3787    14735.922     4046.423     81.60536 
   68800    420.65197   -108.44607   0.38061474   -108.06545    1829.4645    4.3407866    4.3407866    4.3407866    1829.4645    22583.589   -10098.549   -6996.6468   -4002.9339    315.28882    5153.5858    81.790962 
   68900    464.29817   -108.48423   0.42010674   -108.06412    769.85507    4.3378602    4.3378602    4.3378602    769.85507    9034.2391   -1889.5542   -4835.1197    3760.9466    2079.7844   -2511.3456    81.625653 
   69000    375.18439   -108.40563   0.33947472   -108.06615   -12883.485    4.3414663    4.3414663    4.3414663   -12883.485   -11822.941   -7631.8743    -19195.64   -1211.7671    4740.7515    1794.3463    81.829387 
   69100    519.41733   -108.53452   0.46997972   -108.06454   -215.93644    4.3380132    4.3380132    4.3380132   -215.93644    11613.073   -3670.9062   -8589.9763    2105.4162   -5085.4689   -1980.2118    81.634286 
   69200    287.22091   -108.32607   0.25988351   -108.06619    5211.2982    4.3396295    4.3396295    4.3396295    5211.2982     19733.86    2828.6788   -6928.6446   -4742.6466    13167.198    1160.7361    81.725567 
   69300    346.79067    -108.3795   0.31378349   -108.06571   -1961.0397    4.3407236    4.3407236    4.3407236   -1961.0397    5968.9735   -6416.4663   -5435.6264   -5389.8708    7106.2128    4015.4823    81.787402 
   69400    490.56071   -108.50557   0.44386964    -108.0617    2376.7103    4.3366093    4.3366093    4.3366093    2376.7103   -1517.6052     3068.613    5579.1232    4712.2214   -4040.0705    2481.7815    81.555054 
   69500    305.73384   -108.34184    0.2766344    -108.0652   -9568.9099    4.3453084    4.3453084    4.3453084   -9568.9099    824.38156   -12413.056   -17118.055    2269.5994    4831.1195    2885.2127    82.046833 
   69600      427.079   -108.45054   0.38643005   -108.06411    6446.7992    4.3327037    4.3327037    4.3327037    6446.7992     21035.66    279.57446   -1974.8363   -2164.0834    -3953.638   -1151.2091    81.334904 
   69700    503.00184   -108.51929   0.45512663   -108.06417   -2301.0245    4.3436666    4.3436666    4.3436666   -2301.0245    9873.2875   -8950.6279   -7825.7331   -1732.2636    5314.8547    1919.0503    81.953865 
   69800    370.07247   -108.40018   0.33484935   -108.06533   -5641.5993    4.3385014    4.3385014    4.3385014   -5641.5993   -13897.095    1898.1419   -4925.8447   -6589.8831    12829.772    5039.0509    81.661852 
   69900    362.38245   -108.39111   0.32789125   -108.06322    5171.9683     4.337153     4.337153     4.337153    5171.9683    7574.8016    2330.5115    5610.5919    1298.3097   -6513.0018    4610.0821    81.585732 
   70000    318.19426   -108.35218   0.28790885   -108.06427   -3616.3689    4.3445895    4.3445895    4.3445895   -3616.3689     10391.86    -10691.19   -10549.777    6942.5445    1170.8398     1427.921    82.006117 
   70100    330.20931   -108.36384   0.29878033   -108.06506    6793.0263    4.3321702    4.3321702    4.3321702    6793.0263    15895.996    2160.7107     2322.372    -8579.285    3901.1315    2502.5159    81.304867 
   70200    656.11526   -108.65573   0.59366687   -108.06206   -13294.497    4.3462613    4.3462613    4.3462613   -13294.497   -10107.128   -17937.599   -11838.762    2321.1006   -2116.5507   -6679.1352    82.100821 
   70300    349.42395   -108.38117   0.31616614   -108.06501    979.20731    4.3335193    4.3335193    4.3335193    979.20731   -3842.7165    10298.429   -3518.0901   -3246.5423    10421.183    2299.0366    81.380846 
   70400    297.95126   -108.33546   0.26959256   -108.06587   -2826.7752    4.3434648    4.3434648    4.3434648   -2826.7752    10778.582   -9245.2947   -10013.613    1155.2136   -3110.0522    2534.0923    81.942448 
   70500    352.66957   -108.38229   0.31910284   -108.06319    11578.582    4.3378489    4.3378489    4.3378489    11578.582    26361.801    2351.9018    6022.0436    8444.7779   -6416.9705    2298.5228     81.62501 
   70600    348.86119   -108.38097   0.31565693   -108.06531   -391.65876    4.3393646    4.3393646    4.3393646   -391.65876   -3684.3796   -2624.4061    5133.8094   -1845.7421    6427.1553    7118.7625    81.710602 
   70700    527.77455   -108.53899    0.4775415   -108.06145   -6619.5736    4.3422238    4.3422238    4.3422238   -6619.5736   -5645.7759   -12022.367   -2190.5776   -4285.9698    1936.5534     523.9543    81.872227 
   70800    455.88611    -108.4739   0.41249533    -108.0614     152.2919    4.3366052    4.3366052    4.3366052     152.2919    5326.8985    -285.5951   -4584.4277    203.49486    7097.0287    -352.4836    81.554822 
   70900    285.80274   -108.32284   0.25860032   -108.06424   -3479.9997     4.343342     4.343342     4.343342   -3479.9997    16135.344   -12867.596   -13707.748   -4814.0621     5362.673    821.44748    81.935497 
   71000    480.43488    -108.4971   0.43470758   -108.06239    9183.5548    4.3353239    4.3353239    4.3353239    9183.5548    11265.463    2741.4086    13543.793    4042.1861   -9663.3571    2165.0157    81.482559 
   71100    393.80617   -108.42156    0.3563241   -108.06524   -407.34366    4.3411716    4.3411716    4.3411716   -407.34366   -5559.4719   -3128.7355    7466.1763    3004.9711    2891.8582    2657.2847    81.812726 
   71200    331.82287   -108.36618   0.30024031   -108.06593   -3508.2628     4.337969     4.337969     4.337969   -3508.2628   -4337.2286    -3436.693   -2750.8669   -9922.5584    8842.3236    4061.1608    81.631794 
   71300    448.74267    -108.4709    0.4060318   -108.06487    4838.4155    4.3378431    4.3378431    4.3378431    4838.4155    19114.354   -4172.3951   -426.71267    3905.9619   -1261.1089   -5912.4293    81.624687 
   71400    382.79912   -108.41204   0.34636468   -108.06567   -7658.2784    4.3438249    4.3438249    4.3438249   -7658.2784    4319.8322   -14238.722   -13055.946   -2868.1836    5617.5702    1769.7562    81.962829 
   71500    456.71187   -108.47722   0.41324249   -108.06397    6647.6588     4.333705     4.333705     4.333705    6647.6588    2225.2411    1839.4185    15878.317    1476.2001   -2407.3025   -5.7966467    81.391308 
   71600    471.54754   -108.48858   0.42666612   -108.06191    -3519.406    4.3452986    4.3452986    4.3452986    -3519.406   -12832.832   -1797.8036    4072.4178    4088.7665    1466.7969    6207.0907    82.046276 
   71700    218.08639   -108.26183   0.19732915    -108.0645    4413.7801    4.3343355    4.3343355    4.3343355    4413.7801    8415.0552    6736.9222   -1910.6372   -9136.5749     12260.91    6508.1713    81.426839 
   71800    392.48225   -108.41796   0.35512619   -108.06283   -1863.9522     4.344601     4.344601     4.344601   -1863.9522     15588.53   -6158.5459   -15021.841    -6091.902    1491.8791   -964.29342    82.006769 
   71900    459.96426   -108.47867   0.41618533   -108.06248    3035.6914    4.3359332    4.3359332    4.3359332    3035.6914    14267.646   -3039.3555   -2121.2164    1223.3499   -1626.3655    467.58515    81.516918 
   72000    459.93264   -108.48011   0.41615671   -108.06395   -10591.639    4.3409964    4.3409964    4.3409964   -10591.639   -13629.531   -10770.523   -7374.8633   -5061.7837    5538.8711   -468.91419    81.802822 
   72100     477.3879     -108.495   0.43195061   -108.06305    1688.7054    4.3395949    4.3395949    4.3395949    1688.7054    7181.4428   -5812.7302    3697.4037    3990.8689   -1929.0001   -1400.5395    81.723617 
   72200    221.72463   -108.26669    0.2006211   -108.06607    2789.3949     4.336716     4.336716     4.336716    2789.3949    20291.958   -1241.9547   -10681.819    -5164.721    10181.794    5429.1224    81.561075 
   72300    325.55198     -108.362   0.29456628   -108.06743   -726.58623    4.3420814    4.3420814    4.3420814   -726.58623    14895.246   -3305.8039     -13769.2   -9960.2739    3401.3975    960.20495    81.864172 
   72400    594.89874   -108.60142   0.53827688   -108.06314    1329.0178    4.3369229    4.3369229    4.3369229    1329.0178     2542.816    4404.9017   -2960.6643    4449.3863   -3850.0835   -1237.3057     81.57275 
   72500    361.28594   -108.39306   0.32689911   -108.06616   -7061.7004    4.3408091    4.3408091    4.3408091   -7061.7004    5423.2552   -9653.6196   -16954.737   -954.81875     5338.484    3193.6003     81.79223 
   72600    419.29633   -108.44373   0.37938813   -108.06434    218.51665    4.3397985    4.3397985    4.3397985    218.51665    16956.451   -13193.182   -3107.7189   -2033.7351    3079.8286   -5037.2436     81.73512 
   72700    375.75332   -108.40354    0.3399895   -108.06355    6858.2502    4.3365553    4.3365553    4.3365553    6858.2502    26906.584    501.10592   -6832.9393   -2326.1448    6101.3773    5568.4003    81.552012 
   72800    327.93016   -108.36306    0.2967181   -108.06634   -4984.7515    4.3430553    4.3430553    4.3430553   -4984.7515    -13687.72    5210.3435   -6476.8784   -10727.888    9156.9757    4049.0345    81.919272 
   72900    489.38437   -108.50554   0.44280526   -108.06273     6554.089    4.3361319    4.3361319    4.3361319     6554.089    5359.5418    14320.097   -17.371351    2453.0391   -3329.7703    2789.9247    81.528126 
   73000    331.48316   -108.36453   0.29993293   -108.06459   -5257.7207    4.3425296    4.3425296    4.3425296   -5257.7207    10100.646    -4047.132   -21826.676    4289.5273    1015.7245    3508.8782    81.889525 
   73100    355.23187   -108.38607   0.32142126   -108.06464   -5307.2379    4.3377052    4.3377052    4.3377052   -5307.2379    10090.304   -14846.621   -11165.397   -10119.029    4273.1864   -3475.7089      81.6169 
   73200    548.36056   -108.55874   0.49616816   -108.06258   -1622.0714    4.3392075    4.3392075    4.3392075   -1622.0714    5829.0343   -2194.2082   -8501.0403   -2582.3422   -399.83679   -1198.1462    81.701728 
   73300    390.53762   -108.41954   0.35336665   -108.06618   -6805.5094    4.3404303    4.3404303    4.3404303   -6805.5094   -12160.879    4295.1979   -12550.847   -2500.6583    5997.2057    4368.8087    81.770821 
   73400    277.77453   -108.31827   0.25133624   -108.06694    8048.5616    4.3370185    4.3370185    4.3370185    8048.5616    16576.438    7851.9268   -282.67958   -2297.9358   -1545.3607    1330.0617    81.578143 
   73500    379.57195   -108.40708   0.34344468   -108.06364   -884.32591    4.3429123    4.3429123    4.3429123   -884.32591    21096.252   -7995.1942   -15754.036    8307.5354   -3912.3802    4377.6304    81.911177 
   73600    355.74811   -108.38693   0.32188837   -108.06505   -5205.7361    4.3363322    4.3363322    4.3363322   -5205.7361    1517.5523   -10996.284    -6138.477   -10810.707    5448.3556    653.48066    81.539424 
   73700    555.48823   -108.56539   0.50261743   -108.06277   -8307.3003    4.3431902    4.3431902    4.3431902   -8307.3003   -5114.7586    -13153.73   -6653.4124    -5928.052    1810.6549   -3773.6791    81.926905 
   73800    498.54361   -108.51421   0.45109273   -108.06312    832.52243    4.3365296    4.3365296    4.3365296    832.52243    12597.448    3603.1937   -13703.074    1965.1656    4867.5453    3126.3464    81.550559 
   73900    185.47536   -108.23498     0.167822   -108.06716    5870.4929    4.3395685    4.3395685    4.3395685    5870.4929    16185.624    6112.4363    -4686.582   -2719.8479    42.163043    144.15764    81.722126 
   74000    420.33245   -108.44485   0.38032564   -108.06453    2750.2429    4.3400252    4.3400252    4.3400252    2750.2429    14619.617   -2802.3737   -3566.5145    200.99138   -5369.0658    5706.8271    81.747926 
   74100    443.32349   -108.46597   0.40112841   -108.06484    1729.6256    4.3372417    4.3372417    4.3372417    1729.6256   -1924.8586   -1498.3909    8612.1263   -2489.1406    3252.6385    4333.1662     81.59074 
   74200    394.25753   -108.42193    0.3567325    -108.0652   -7808.1641    4.3439741    4.3439741    4.3439741   -7808.1641   -3071.9112   -18742.908   -1609.6734    -11162.94    7144.2472   -3332.9358    81.971272 
   74300    490.67367   -108.50567   0.44397184    -108.0617     6735.044    4.3340801    4.3340801    4.3340801     6735.044    26488.439    652.69265   -6935.9995    4890.2188    3260.3653   -294.25181    81.412447 
   74400    321.49451   -108.35493   0.29089499   -108.06403   -4643.8219    4.3450266    4.3450266    4.3450266   -4643.8219    8835.1881   -7231.9603   -15534.693   -1233.8795    1015.1299   -344.19177    82.030873 
   74500    386.97068   -108.41484   0.35013921    -108.0647    3162.2888    4.3335054    4.3335054    4.3335054    3162.2888   -1925.9199    5316.3774    6096.4088   -4555.0952   -3297.9271     967.2332    81.380066 
   74600    489.60945   -108.50642   0.44300892   -108.06341    361.02395    4.3437794    4.3437794    4.3437794    361.02395    4333.6289   -6769.1064    3518.5493   -1563.2592    478.82371    6669.4473    81.960251 
   74700    307.17651   -108.34304   0.27793976    -108.0651    968.57345    4.3383838    4.3383838    4.3383838    968.57345    8650.1468   -12328.928    6584.5015   -12016.158    8599.4047   -2032.7882    81.655214 
   74800    338.44322   -108.37044   0.30623054   -108.06421    2920.7996    4.3367779    4.3367779    4.3367779    2920.7996    27080.309   -12830.119   -5487.7912   -63.505783    -470.7796    -1516.403    81.564569 
   74900    560.20258   -108.56893   0.50688307   -108.06205   -11287.488    4.3444263    4.3444263    4.3444263   -11287.488   -4358.2155   -12928.197   -16576.051     2275.394    591.47516     1315.129    81.996873 
   75000     349.9003   -108.38218   0.31659715   -108.06558    1730.7875    4.3326543    4.3326543    4.3326543    1730.7875    2379.3672   -2252.3458     5065.341   -10103.669   -244.77213   -3574.0715    81.332125 
   75100    436.72337   -108.46006   0.39515649   -108.06491   -1320.9935    4.3455792    4.3455792    4.3455792   -1320.9935    15900.957   -10832.113   -9031.8249   -1319.6588    4231.1712     6287.237    82.062171 
   75200    294.83575   -108.33121   0.26677358   -108.06444    14446.364    4.3344726    4.3344726    4.3344726    14446.364    27856.481    348.26095    15134.349   -7583.1976    8660.6792    1805.3931    81.434567 
   75300    280.45262   -108.31909   0.25375942   -108.06533   -5560.6029    4.3425624    4.3425624    4.3425624   -5560.6029    667.98684   -21457.125    4107.3296   -5484.6952    5170.9562    1676.6326    81.891384 
   75400    545.24995   -108.55449   0.49335361   -108.06114   -3426.7387    4.3395415    4.3395415    4.3395415   -3426.7387    693.57837   -9196.6948   -1777.0997    4270.7292   -8467.3267    1618.8449      81.7206 
   75500    460.45102   -108.47975   0.41662576   -108.06312   -2178.5491    4.3376667    4.3376667    4.3376667   -2178.5491    11120.741   -14153.909   -3502.4784   -8385.1617   -1595.0686   -3644.0931    81.614729 
   75600    360.54755   -108.39132     0.326231   -108.06509    -2636.611    4.3421104    4.3421104    4.3421104    -2636.611    17148.828   -14156.877   -10901.783   -2432.5282    1857.1228    403.36529    81.865812 
   75700    406.44433   -108.43129   0.36775937   -108.06353    8543.7174    4.3358602    4.3358602    4.3358602    8543.7174    8717.0729   -4575.2749    21489.354   -1919.4883    3777.0318    2955.5566    81.512799 
   75800    295.67014   -108.33374   0.26752855   -108.06621   -2896.1485    4.3416212    4.3416212    4.3416212   -2896.1485   -3711.5537    -13691.12    8714.2278   -6904.7566    2168.7649     56.20871    81.838145 
   75900    475.73637    -108.4948   0.43045627   -108.06435   -1714.2724    4.3377754    4.3377754    4.3377754   -1714.2724    2239.1528   -3687.5957   -3694.3744    5381.2613   -4598.5705    3798.5031    81.620865 
   76000    466.95466   -108.48679   0.42251039   -108.06428    1070.5864    4.3397138    4.3397138    4.3397138    1070.5864    20197.424    -12172.46   -4813.2052   -2836.5485   -1236.6839   -3433.8267    81.730331 
   76100    351.19876   -108.38332   0.31777202   -108.06555   -4389.6896    4.3401319    4.3401319    4.3401319   -4389.6896    556.95152   -15514.514    1788.4939   -6652.9601    8407.1185   -1518.7898    81.753956 
   76200    371.17641   -108.39914   0.33584821   -108.06329    6111.8128    4.3374841    4.3374841    4.3374841    6111.8128    3575.9282   -9367.6832    24127.193    11.082763   -1123.9134    4353.6682     81.60442 
   76300    400.30193   -108.42547    0.3622016   -108.06327   -6062.9158    4.3432149    4.3432149    4.3432149   -6062.9158   -12722.757   -14475.963    9009.9719   -9652.4398    -3925.727    1130.0295    81.928304 
   76400    411.25899   -108.43502   0.37211578   -108.06291    3081.4947    4.3351173    4.3351173    4.3351173    3081.4947    11411.947    3186.0881   -5353.5512    1864.9341   -3028.7847    3431.5778     81.47091 
   76500    491.02958   -108.50688   0.44429389   -108.06259   -6799.3694    4.3447259    4.3447259    4.3447259   -6799.3694    3225.3187    -12190.36   -11433.067   -987.82322   -1778.1037   -77.181242    82.013841 
   76600    305.28815   -108.34088   0.27623113   -108.06465    5559.8853    4.3332944    4.3332944    4.3332944    5559.8853     3234.089   -6515.1447    19960.712   -6988.6839    7552.5841   -5379.8314    81.368176 
   76700    355.50022   -108.38686   0.32166407   -108.06519   -2356.4195     4.343244     4.343244     4.343244   -2356.4195    -9666.344   -16735.873    19332.958    1273.1317    -845.2682    3130.1948    81.929948 
   76800    471.88394   -108.49174    0.4269705   -108.06477   -4968.3421    4.3377893    4.3377893    4.3377893   -4968.3421   -6716.2155   -11237.318     3048.507   -6460.0204   -8361.2342    1730.9444    81.621646 
   76900     445.0609    -108.4682   0.40270045    -108.0655   -1628.9884    4.3381381    4.3381381    4.3381381   -1628.9884    7609.2459   -8002.8596   -4493.3514   -541.67382    3311.1454    577.14795    81.641337 
   77000    375.11148   -108.40405   0.33940875   -108.06464   -4908.9841    4.3442382    4.3442382    4.3442382   -4908.9841   -2438.7578   -16304.731    4016.5369    3790.7712    3274.0396   -1411.9715    81.986225 
   77100    244.47561   -108.28584   0.22120667   -108.06463    10239.532    4.3322782    4.3322782    4.3322782    10239.532   -2294.5376   -4610.3199    37623.453   -8860.5932    14.044118   -4365.7351    81.310948 
   77200    478.00832    -108.4942   0.43251198   -108.06169   -9131.0124      4.34701      4.34701      4.34701   -9131.0124   -15137.115   -17760.254    5504.3314    1404.1796    837.07441   -1250.6563    82.143256 
   77300    475.70795     -108.493   0.43043055   -108.06257   -4188.9935    4.3340771    4.3340771    4.3340771   -4188.9935   -3000.0562   -5215.7544   -4351.1699   -9196.4827   -9433.0398     2418.171    81.412277 
   77400    428.27135   -108.45218   0.38750892   -108.06467   -4557.4244    4.3405569    4.3405569    4.3405569   -4557.4244   -5728.9073   -18222.029    10278.663   -5785.5327    2983.2422   -1079.7236    81.777974 
   77500    300.51346   -108.33664    0.2719109   -108.06473     3551.632    4.3415955    4.3415955    4.3415955     3551.632    1870.3129   -20412.512    29197.095    2789.1611     8742.593    597.14176    81.836697 
   77600    306.79851   -108.34347   0.27759774   -108.06587    2625.9168     4.334076     4.334076     4.334076    2625.9168   -7434.4088   -6584.3259    21896.485   -9167.8433   -4228.0943   -3583.3559    81.412212 
   77700    548.66056   -108.55915   0.49643961   -108.06271   -9833.1324    4.3447557    4.3447557    4.3447557   -9833.1324   -9454.7818   -11240.461   -8804.1547    4317.4264   -474.97785   -377.44577     82.01553 
   77800    435.65551   -108.45798   0.39419026   -108.06379   -1804.8479    4.3365069    4.3365069    4.3365069   -1804.8479   -4859.3658   -8064.6415    7509.4635   -6030.6798   -1844.9615    5512.3702    81.549276 
   77900    294.73214   -108.33298   0.26667983    -108.0663    4489.7294     4.336645     4.336645     4.336645    4489.7294   -9725.0218   -11347.633    34541.843   -6235.0497   -3407.6229    1657.8693    81.557072 
   78000    398.14113   -108.42461   0.36024646   -108.06437   -1056.5514     4.344793     4.344793     4.344793   -1056.5514    6292.4979   -22978.641    13516.489    4203.2046    8149.8303   -1971.7324    82.017639 
   78100    426.98468   -108.45088   0.38634471   -108.06454    2182.6847    4.3314818    4.3314818    4.3314818    2182.6847    4942.6504   -5564.8337    7170.2375   -7865.4096   -3482.6742   -1073.3619    81.266114 
   78200    463.77062   -108.48356    0.4196294   -108.06394    -13003.01    4.3473891    4.3473891    4.3473891    -13003.01    -11379.02    -18328.04   -9301.9695    3193.6496   -9846.3471   -3064.3837    82.164749 
   78300    415.70975   -108.43824   0.37614292    -108.0621    5076.7282    4.3348876    4.3348876    4.3348876    5076.7282   -1230.3985   -13044.127     29504.71   -1381.0412    3433.0253     1143.993     81.45796 
   78400    284.36304   -108.32238   0.25729765   -108.06509    2609.5892    4.3393129    4.3393129    4.3393129    2609.5892   -2621.1792   -13363.975    23813.922   -9727.0923     1927.277    2035.1702    81.707684 
   78500    407.58387   -108.43165   0.36879045   -108.06286   -1566.6712     4.342865     4.342865     4.342865   -1566.6712    13576.525   -12421.229   -5855.3088    2744.9726    2531.9732    1143.3717    81.908504 
   78600    474.37387   -108.49178   0.42922344   -108.06255    3758.2926    4.3329994    4.3329994    4.3329994    3758.2926    11408.398   -7011.1125    6877.5927   -8928.8258   -1339.5549    -1457.224    81.351561 
   78700     376.9266   -108.40565   0.34105111   -108.06459   -10175.086    4.3446788    4.3446788    4.3446788   -10175.086   -15059.019   -16786.417    1320.1784   -1203.4578   -9761.3205    392.42718    82.011175 
   78800    415.11717   -108.43942   0.37560674   -108.06381      3713.13    4.3352485    4.3352485    4.3352485      3713.13   -518.14782    -15562.86    27220.398    5170.0185    1678.1236    718.87925    81.478308 
   78900    354.18138   -108.38574   0.32047076   -108.06527    1079.2819    4.3399292    4.3399292    4.3399292    1079.2819    11252.892   -16637.651    8622.6048   -9847.9319    5346.0342    4720.9001    81.742502 
   79000    392.49123   -108.42002   0.35513431   -108.06488   -5036.4076    4.3403876    4.3403876    4.3403876   -5036.4076    8279.8888    -9538.123   -13850.988    1095.2705   -5518.9517    -1951.019    81.768409 
   79100    469.89259   -108.48828   0.42516869   -108.06311   -1380.7899    4.3370114    4.3370114    4.3370114   -1380.7899    3982.4102   -10740.277    2615.4966    742.62456    -4254.045   -825.56474    81.577742 
   79200    409.37098   -108.43487   0.37040746   -108.06446   -6838.2224    4.3410997    4.3410997    4.3410997   -6838.2224   -14599.294   -13828.218    7912.8446   -6442.0703   -2149.5054   -4290.4361    81.808658 
   79300    315.21887   -108.35041   0.28521666   -108.06519    2805.5581    4.3391143    4.3391143    4.3391143    2805.5581    9631.7918   -16026.354    14811.237    10907.315    76.128967   -2741.0771    81.696464 
   79400    406.87089   -108.43164   0.36814533    -108.0635    3213.9816    4.3386253    4.3386253    4.3386253    3213.9816    20548.679   -18042.192    7135.4578   -9622.9681    8821.2669    767.73647    81.668851 
   79500    381.69254   -108.40947   0.34536343   -108.06411   -3677.9703     4.339399     4.339399     4.339399   -3677.9703    4266.2615   -9283.5049   -6016.6675   -4790.7234   -4275.2422     1983.501    81.712549 
   79600    465.73179   -108.48488   0.42140391   -108.06347   -13163.488    4.3408527    4.3408527    4.3408527   -13163.488   -11409.075   -14805.818    -13275.57    6659.5919    -6424.338    215.60043    81.794698 
   79700    429.97234   -108.45335   0.38904801    -108.0643    3568.6802    4.3349574    4.3349574    4.3349574    3568.6802    12001.226   -10666.218    9371.0326   -8408.2242    1349.9639   -620.66844    81.461892 
   79800    308.01525   -108.34469   0.27869867     -108.066   -701.53117    4.3445357    4.3445357    4.3445357   -701.53117    10373.496   -14257.436    1779.3466    8754.6062    2313.7141   -459.59767    82.003072 
   79900    370.06832   -108.39964   0.33484559   -108.06479       6668.1    4.3330022    4.3330022    4.3330022       6668.1    13641.971   -11273.374    17635.703     532.8001    1081.0394   -2456.9025    81.351716 
   80000    471.30312   -108.49009   0.42644497   -108.06365   -7718.7314    4.3439124    4.3439124    4.3439124   -7718.7314   -7474.7677    -14603.13   -1078.2968   -8092.3407   -1437.9038    3016.3238     81.96778 
   80100    400.00802   -108.42652   0.36193566   -108.06459   -7182.3684    4.3375809    4.3375809    4.3375809   -7182.3684   -292.29935    -11912.42   -9342.3853    7513.4465   -11953.892   -1418.7266    81.609886 
   80200    418.26049   -108.44319   0.37845088   -108.06474    3464.8905    4.3370546    4.3370546    4.3370546    3464.8905    18389.127   -11458.555    3464.0994   -846.49412    876.41994   -1327.3625    81.580182 
   80300    417.86168   -108.44167   0.37809003   -108.06358    965.87833    4.3440453    4.3440453    4.3440453    965.87833    10373.111    -12829.98    5354.5043    1608.2554    6310.3539   -3938.0142    81.975304 
   80400     274.5099   -108.31327   0.24838233   -108.06489    5611.2739    4.3326784    4.3326784    4.3326784    5611.2739    -4992.671   -7596.7056    29423.198     7962.287   -2584.7864   -4084.2174     81.33348 
   80500    451.62386   -108.47168   0.40863876   -108.06304   -7175.2577    4.3452393    4.3452393    4.3452393   -7175.2577   -2617.4676   -19379.951    471.64555   -8070.6168   -2903.1709   -196.90276    82.042916 
   80600    447.01494   -108.46788   0.40446851   -108.06341   -1623.7879    4.3354025    4.3354025    4.3354025   -1623.7879    6453.0534   -7530.1211   -3794.2961    5256.5358    -4761.993    1697.2518    81.486986 
   80700    369.39571   -108.39997     0.334237   -108.06573   -655.51499    4.3395906    4.3395906    4.3395906   -655.51499     9102.709   -15402.642    4333.3879    3178.5631   -31.827317    1472.8302     81.72337 
   80800     487.5879   -108.50439   0.44117978   -108.06321    2133.5741    4.3415846    4.3415846    4.3415846    2133.5741    -5629.067    -11920.42     23950.21   -2698.8943    5115.6653    1015.3715    81.836075 
   80900    280.27224   -108.31932   0.25359621   -108.06572    2051.9374    4.3338525    4.3338525    4.3338525    2051.9374   -9426.8783    -10404.43     25987.12    10959.719   -7218.0682   -5010.0804    81.399623 
   81000    408.62998   -108.43477     0.369737   -108.06504   -11333.157    4.3454015    4.3454015    4.3454015   -11333.157   -7379.7583    -15108.46   -11511.252   -5740.9939   -8289.5008   -1048.4187    82.052105 
   81100    518.69069   -108.53143   0.46932224   -108.06211    2034.8313    4.3361047    4.3361047    4.3361047    2034.8313    10818.551    -2776.782   -1937.2755   -1373.7203    2314.3216    510.23285     81.52659 
   81200    272.11999   -108.31154   0.24621988   -108.06532    1810.7452    4.3393397    4.3393397    4.3393397    1810.7452   -2726.4913   -11986.252    20144.979    4958.1958    1583.2155    2186.2378    81.709199 
   81300    404.52968   -108.42942   0.36602695   -108.06339    1402.7887    4.3411518    4.3411518    4.3411518    1402.7887   -8533.9927   -12879.016    25621.375   -6268.5769    2635.5832   -1417.7674    81.811605 
   81400    413.69939   -108.43773    0.3743239   -108.06341   -430.35338    4.3356939    4.3356939    4.3356939   -430.35338   -9736.1091   -7503.7558    15948.805    10778.529   -1966.7925    -106.7943    81.503424 
   81500    434.86165   -108.45893   0.39347196   -108.06546   -14348.959    4.3424141    4.3424141    4.3424141   -14348.959   -14627.507   -12771.044   -15648.326   -1585.5103   -9225.7895   -3315.2576    81.882995 
   81600    442.94199   -108.46532   0.40078322   -108.06454     6384.739    4.3374556    4.3374556    4.3374556     6384.739    395.94804    -5069.352    23827.621   -808.35935    3557.9103    5973.6048    81.602815 
   81700    288.67817   -108.32755   0.26120208   -108.06635    4228.4926    4.3390558    4.3390558    4.3390558    4228.4926    -8761.282   -12858.319    34305.079    6522.8763    2130.5272    3391.7501    81.693159 
   81800    333.05601   -108.36659   0.30135608   -108.06523    -402.9152    4.3400438    4.3400438    4.3400438    -402.9152   -2673.3636    -8855.843    10320.461   -5917.9837   -4889.5017     1775.979    81.748978 
   81900    551.29227   -108.56112   0.49882083    -108.0623   -7396.6789    4.3389552    4.3389552    4.3389552   -7396.6789   -9293.1364    -6834.493   -6062.4073    8267.8125   -912.00309     -1565.23    81.687479 
   82000    405.09881   -108.43094   0.36654191    -108.0644   -4256.1752    4.3399645    4.3399645    4.3399645   -4256.1752   -11368.598   -8856.1386    7456.2113    1413.8295   -6147.9797    -4609.445    81.744495 
   82100    343.26395   -108.37508   0.31059243   -108.06448    5727.0704    4.3393346    4.3393346    4.3393346    5727.0704   -5099.0895   -5129.2965    27409.597    168.27022    2105.6662   -29.571341    81.708912 
   82200    388.43273   -108.41462   0.35146209   -108.06316    3758.0973     4.338495     4.338495     4.338495    3758.0973    6308.9196   -13801.817     18767.19    4172.3377    9539.8149    3566.8392    81.661491 
   82300     371.2906   -108.39962   0.33595154   -108.06367   -2069.5653    4.3405405    4.3405405    4.3405405   -2069.5653    6314.0088   -5004.0372   -7518.6674   -6207.4708   -7653.6752   -738.49651    81.777052 
   82400    471.87145   -108.48974    0.4269592   -108.06278   -2375.0985    4.3381304    4.3381304    4.3381304   -2375.0985   -2354.8121   -3290.0964    -1480.387     1367.342   -6794.8074   -48.401829    81.640906 
   82500     403.3279   -108.42827   0.36493956   -108.06333    1173.2881    4.3411788    4.3411788    4.3411788    1173.2881     -5995.69   -10554.614    20070.168    5943.8557   -269.44097   -3469.0479    81.813132 
   82600    339.27192   -108.37108   0.30698036    -108.0641    4367.9432    4.3363188    4.3363188    4.3363188    4367.9432   -1141.5535   -5246.8159    19492.199   -1771.5077   -4054.6816   -1135.2056    81.538666 
   82700    413.91642   -108.43889   0.37452027   -108.06437   -2056.4264    4.3411321    4.3411321    4.3411321   -2056.4264    12422.607   -15645.759    -2946.127    8216.8326     3390.947    3300.8084    81.810491 
   82800    483.02186   -108.50089   0.43704833   -108.06384    3493.8124    4.3365844    4.3365844    4.3365844    3493.8124     8594.842   -3327.2496    5213.8447   -312.43806   -6150.7936     258.3789    81.553652 
   82900    355.97924   -108.38745    0.3220975   -108.06535   -2372.8757    4.3410189    4.3410189    4.3410189   -2372.8757    -5919.816   -4749.1683    3550.3571   -1053.7689   -8818.2226   -3321.3119    81.804091 
   83000    391.61321   -108.41799   0.35433987   -108.06365    4639.3602    4.3388223    4.3388223    4.3388223    4639.3602   -449.22091     -11761.7    26129.002    9078.4638    7506.3719   -518.53658    81.679972 
   83100    367.35171   -108.39554   0.33238755   -108.06316    4019.2281    4.3386464    4.3386464    4.3386464    4019.2281     14926.49   -5650.7049    2781.8994   -1637.3791    2917.7999   -5556.8891    81.670039 
   83200    371.70811   -108.40056   0.33632931   -108.06423   -5990.4388    4.3416033    4.3416033    4.3416033   -5990.4388    9037.2135   -12904.983   -14103.547    9633.9895    -5888.114    3530.2774    81.837132 
   83300    511.04458   -108.52462   0.46240388   -108.06222    4001.0829    4.3359911    4.3359911    4.3359911    4001.0829    5123.5186   -3932.2219    10811.952    572.51534    -3500.279    1747.9494    81.520182 
   83400    402.82355   -108.42804   0.36448321   -108.06355   -7394.9993    4.3430532    4.3430532    4.3430532   -7394.9993    -12694.87   -11582.534    2092.4053   -3499.9512   -9029.6946    1415.2781    81.919151 
   83500    289.23464   -108.32646   0.26170558   -108.06476    4234.3782     4.337061     4.337061     4.337061    4234.3782    4414.0545   -11817.494    20106.574    8718.6771    4601.7185   -48.969319    81.580541 
   83600    478.13938   -108.49539   0.43263056   -108.06275    3988.8983    4.3383464    4.3383464    4.3383464    3988.8983    23559.154   -8458.3609   -3134.0983    367.69292    2258.9734   -2907.0228      81.6531 
   83700    360.90607   -108.39209   0.32655539   -108.06554   -7384.9387    4.3421008    4.3421008    4.3421008   -7384.9387    302.49503   -6032.8801   -16424.431    6776.6565   -7375.6275   -645.38227    81.865273 
   83800    446.91605   -108.46869   0.40437904   -108.06431    2453.0572    4.3348459    4.3348459    4.3348459    2453.0572   -5085.0654   -3385.9465    15830.183     7756.876   -3117.6203    2689.6414     81.45561 
   83900     441.4881   -108.46332   0.39946771   -108.06385   -1708.3553    4.3424787    4.3424787    4.3424787   -1708.3553    1201.0569   -11422.435    5096.3124   -6553.6266    4155.0759   -1279.8161    81.886648 
   84000    214.59886   -108.26065   0.19417356   -108.06648     8042.121    4.3366215    4.3366215    4.3366215     8042.121    19185.683   -10548.952    15489.632    7007.4542    965.19315    1390.6543    81.555743 
   84100    484.95264   -108.50149   0.43879534   -108.06269    1093.5211    4.3413149    4.3413149    4.3413149    1093.5211    21911.643   -11516.106   -7114.9734     4184.371    5032.1324   -4205.1911    81.820826 
   84200    490.26479   -108.50609   0.44360189   -108.06249   -3508.3774    4.3383898    4.3383898    4.3383898   -3508.3774    1978.4974   -1065.6427   -11437.987    2792.7411   -7278.6435   -2081.7991    81.655549 
   84300    371.13459    -108.4003   0.33581037   -108.06449   -9002.6113    4.3413652    4.3413652    4.3413652   -9002.6113   -8454.1643   -10115.436   -8438.2334    9193.1622    -5443.094    3514.2959    81.823669 
   84400    428.16409   -108.45091   0.38741186    -108.0635     11500.26    4.3351643    4.3351643    4.3351643     11500.26    26909.399   -2303.2827    9894.6622   -3637.7173    5223.4563    658.99409    81.473558 
   84500    275.96235    -108.3161   0.24969653   -108.06641     3836.278    4.3426485    4.3426485    4.3426485     3836.278    20549.447   -15245.242    6204.6292    2145.0784    2692.8169    4012.7466    81.896256 
   84600    424.64922   -108.44982   0.38423153   -108.06559   -43.659063    4.3351056    4.3351056    4.3351056   -43.659063   -845.87312   -8176.7328    8891.6287     10163.97    -1855.618    2122.3485    81.470251 
   84700    551.07654   -108.56186   0.49862563   -108.06324   -6361.9528    4.3422713    4.3422713    4.3422713   -6361.9528    3036.7074   -10312.605   -11809.961   -1972.7772   -2637.8138   -4830.4544    81.874913 
   84800    338.77386   -108.37194   0.30652971   -108.06541   -4507.1078    4.3387227    4.3387227    4.3387227   -4507.1078    9345.4859   -13519.086    -9347.723    8874.3807   -7223.5882    762.05529    81.674349 
   84900      355.561   -108.38718   0.32171906   -108.06546    7631.4095    4.3368836    4.3368836    4.3368836    7631.4095    21720.066   -5780.4779    6954.6401   -1101.2604    6077.7124   -1524.9221    81.570533 
   85000    458.23949   -108.47738   0.41462472   -108.06275   -139.01047     4.344165     4.344165     4.344165   -139.01047    1417.6194   -10445.532    8610.8814   -1556.3883    8040.0189    329.03809     81.98208 
   85100    289.24013   -108.32666   0.26171055   -108.06495    2937.4855     4.333095     4.333095     4.333095    2937.4855    -8133.275   -8181.3121    25127.044    12371.174   -5877.3843    2720.1296    81.356947 
   85200    468.26753   -108.48643    0.4236983   -108.06273   -7969.4273    4.3440798    4.3440798    4.3440798   -7969.4273    1336.0904   -12940.632   -12303.741    319.75094   -1864.8834   -3617.9614    81.977257 
   85300    420.39199   -108.44371   0.38037951   -108.06333     -2087.36    4.3375136    4.3375136    4.3375136     -2087.36    14653.294    -15316.14   -5599.2346    8126.6873   -1273.2781    293.51215    81.606087 
   85400    354.35276   -108.38618   0.32062583   -108.06555    1891.3316    4.3374301    4.3374301    4.3374301    1891.3316    1888.0616   -8417.1778    12203.111    6872.4909    1894.5413   -401.99027    81.601373 
   85500    470.23431   -108.48884   0.42547789   -108.06336      137.834    4.3430982    4.3430982    4.3430982      137.834   -7971.2227   -8391.4766    16776.201    -4675.577    2392.9738     1670.304    81.921697 
   85600    314.13055   -108.34909   0.28423192   -108.06485    2687.0824    4.3347244    4.3347244    4.3347244    2687.0824   -3184.1052   -7371.4396    18616.792    12239.096   -6279.8477    4924.2703     81.44876 
   85700    396.97171   -108.42302   0.35918834   -108.06384   -6542.0766    4.3434626    4.3434626    4.3434626   -6542.0766    5644.6406   -9192.3633   -16078.507    2862.3958    -5463.698    93.225767     81.94232 
   85800    449.04363    -108.4689   0.40630411   -108.06259    1619.6523    4.3376641    4.3376641    4.3376641    1619.6523      14614.9   -7478.9731   -2276.9698    4745.1452     8998.123    -4312.521    81.614583 
   85900    363.56102   -108.39363   0.32895765   -108.06467    755.06095    4.3386878    4.3386878    4.3386878    755.06095   -7909.0326     -13250.1    23424.316    8318.6679    1824.2798   -928.17056     81.67238 
   86000    412.00033   -108.43524   0.37278656   -108.06245   -910.54704    4.3424035    4.3424035    4.3424035   -910.54704   -8814.8251   -10808.534    16891.718   -4606.6087    662.17724   -5229.3201    81.882393 
   86100    400.61142    -108.4256   0.36248163   -108.06312   -2009.9868    4.3355499    4.3355499    4.3355499   -2009.9868   -3200.0262   -16577.134      13747.2    7895.5454   -5109.5502    4049.9363    81.495303 
   86200    382.81957   -108.41122    0.3463832   -108.06483   -5021.5174    4.3427414    4.3427414    4.3427414   -5021.5174    5307.4467   -10815.149   -9556.8497    4634.5332   -2917.2328    29.606732     81.90151 
   86300     497.8519   -108.51416   0.45046686    -108.0637    3787.6133    4.3364285    4.3364285    4.3364285    3787.6133     2414.491   -6221.5804    15169.929     1490.762    3020.7922   -2308.3074    81.544858 
   86400    259.88443   -108.30172   0.23514889   -108.06657    2904.7877    4.3403102    4.3403102    4.3403102    2904.7877   -7751.2038   -17573.612    34039.179    11174.083    2641.4773   -104.79913    81.764036 
   86500    445.56453   -108.46712   0.40315615   -108.06397   -889.35774    4.3372932    4.3372932    4.3372932   -889.35774   -8645.8776   -4434.3294    10412.134   -1526.5776   -8363.8607   -1056.8848    81.593647 
   86600      466.096   -108.48559   0.42173346   -108.06385   -12392.124    4.3417803    4.3417803    4.3417803   -12392.124   -8227.9358   -22240.769   -6707.6686    4362.3895    277.88202   -791.39963    81.847144 
   86700    364.90586   -108.39579   0.33017449   -108.06561    3109.2887    4.3369749    4.3369749    4.3369749    3109.2887    1434.1036   -11119.064    19012.826    5723.7964    1742.2151    3506.5841    81.575684 
   86800    391.28885   -108.41824   0.35404638   -108.06419    5850.7223     4.339696     4.339696     4.339696    5850.7223   -2244.5128   -8982.3329    28779.012   -905.25453    5026.6464   -5037.7506    81.729329 
   86900    302.71974   -108.33879   0.27390718   -108.06488   -1113.2187    4.3414522    4.3414522    4.3414522   -1113.2187     -536.699   -19986.015    17183.058    11512.043    3320.6782   -3067.3145    81.828591 
   87000    501.49461   -108.51546   0.45376286    -108.0617   -3035.8447    4.3361868    4.3361868    4.3361868   -3035.8447    -6393.599     254.8482   -2968.7832    439.28132   -7733.6035    885.83986    81.531222 
   87100     419.8367   -108.44284   0.37987707   -108.06296   -6901.8768    4.3426849    4.3426849    4.3426849   -6901.8768   -7350.3946   -12104.041   -1251.1954    2805.7816   -4339.3187    1798.2471    81.898314 
   87200    342.86761   -108.37435   0.31023382   -108.06412    3379.4737    4.3382951    4.3382951    4.3382951    3379.4737    -7021.208    -14863.15    32022.779     5267.247    2106.1242    5407.8553    81.650201 
   87300    397.54591    -108.4225    0.3597079   -108.06279    7253.1476    4.3361302    4.3361302    4.3361302    7253.1476    7944.6064   -8337.2643    22152.101   -4254.1591   -691.55686    1467.9672    81.528032 
   87400    377.71002   -108.40655   0.34175996   -108.06479   -14388.185    4.3451804    4.3451804    4.3451804   -14388.185   -6302.0219   -30191.317   -6671.2155    10583.391    1284.2993   -4957.5936    82.039581 
   87500     475.1292   -108.49302   0.42990688   -108.06311    7256.2568    4.3306649    4.3306649    4.3306649    7256.2568    6117.5468   -784.91632     16436.14    3688.5242   -4542.5094    3703.2149    81.220143 
   87600    400.08859   -108.42609   0.36200856   -108.06408   -8498.4241    4.3478496    4.3478496    4.3478496   -8498.4241   -15563.851   -17110.882    7179.4602    677.50214    -4771.466   -909.77084     82.19086 
   87700    321.63174   -108.35544   0.29101915   -108.06442    7791.8525    4.3321776    4.3321776    4.3321776    7791.8525    2275.9322   -10651.076    31750.702    9511.0078    9335.2554    2691.7412    81.305281 
   87800    433.24335   -108.45484   0.39200768   -108.06284   -305.28025     4.342446     4.342446     4.342446   -305.28025    15326.802   -14721.601   -1521.0418   -4544.6628    2147.9314    3498.7771    81.884796 
   87900    387.02536   -108.41486   0.35018868   -108.06467    -11753.44    4.3407056    4.3407056    4.3407056    -11753.44   -4249.0163   -21086.815   -9924.4891    8699.0582   -7707.3064   -3246.3228    81.786383 
   88000    420.42011   -108.44514   0.38040495   -108.06473    4708.9924    4.3330317    4.3330317    4.3330317    4708.9924    2851.1913   -10461.068    21736.854    7733.3958   -3425.7943    1452.1087    81.353382 
   88100     462.1299   -108.48123   0.41814485   -108.06309   -8732.2879    4.3477873    4.3477873    4.3477873   -8732.2879   -14802.416   -18194.016    6799.5685   -1985.4166   -3068.2552    4186.0959    82.187327 
   88200    242.66492   -108.28456   0.21956832     -108.065    6219.9515    4.3300758    4.3300758    4.3300758    6219.9515    10611.801   -13033.547      21081.6    12314.997    3498.8437   -406.83958    81.186998 
   88300    457.25989   -108.47681   0.41373836   -108.06307   -4975.4018    4.3453403    4.3453403    4.3453403   -4975.4018    11943.529   -13629.876   -13239.858   -4825.4465    2257.9855    4530.5967    82.048636 
   88400    449.55199   -108.47076   0.40676409   -108.06399   -5741.7558    4.3370641    4.3370641    4.3370641   -5741.7558   -1944.4298   -7564.4374   -7716.4002     6309.169   -7780.3194   -3317.6256     81.58072 
   88500    373.41503   -108.40398   0.33787377   -108.06611   -2231.5695    4.3365887    4.3365887    4.3365887   -2231.5695   -10500.946   -11838.435    15644.673    10284.805   -1223.9213   -3472.7898    81.553897 
   88600    438.30848   -108.46041   0.39659073   -108.06382   -1423.5811    4.3448411    4.3448411    4.3448411   -1423.5811    11254.085    -20681.09    5156.2615   -783.90156    7888.8973    1137.0784    82.020367 
   88700    228.11543   -108.27158   0.20640364   -108.06517    6767.9376    4.3315615    4.3315615    4.3315615    6767.9376     20645.63   -16339.169    15997.352    9190.5899    764.99596   -284.19583    81.270596 
   88800    416.69137   -108.43998   0.37703111   -108.06295    -8729.528    4.3465681    4.3465681    4.3465681    -8729.528    10299.519   -20532.551   -15955.552    115.25163    1336.6717     2403.071    82.118209 
   88900    626.99224    -108.6275   0.56731576   -108.06019   -3316.7657    4.3342265    4.3342265    4.3342265   -3316.7657   -945.66833   -649.92256   -8354.7062    828.34683   -6481.0574    2693.0273    81.420693 
   89000    292.07051   -108.32936   0.26427154   -108.06508   -6112.3755     4.342149     4.342149     4.342149   -6112.3755    3221.9583   -20202.706   -1356.3791    12514.632   -3815.6956    -4760.338    81.867995 
   89100     403.4885   -108.42967   0.36508487   -108.06459    5970.8819    4.3374747    4.3374747    4.3374747    5970.8819    26757.505   -11250.561    2405.7019    -405.5219    5009.1965    6711.4527    81.603893 
   89200    337.03848   -108.37006    0.3049595    -108.0651    7804.8495    4.3361342    4.3361342    4.3361342    7804.8495    20805.486    -14677.29    17286.353    5097.0313     4569.134   -1745.0074    81.528253 
   89300    408.89501   -108.43606   0.36997679   -108.06608   -12405.481    4.3427209    4.3427209    4.3427209   -12405.481   -12636.285   -18000.371   -6579.7887    7201.1859   -5459.9906    2123.2358     81.90035 
   89400     565.5894   -108.57456   0.51175718   -108.06281    1141.7048     4.334117     4.334117     4.334117    1141.7048    12141.136   -1724.2318   -6991.7901   -2255.6728   -2159.0243    5100.9563    81.414523 
   89500    329.01294   -108.36309   0.29769782   -108.06539   -8246.8134    4.3447995    4.3447995    4.3447995   -8246.8134    7634.4345   -25869.637   -6505.2376    11103.836   -1144.4272   -5030.4002     82.01801 
   89600    271.16953   -108.31024   0.24535989   -108.06488    9918.0139    4.3342824    4.3342824    4.3342824    9918.0139     23780.27   -4092.1934    10065.966    2823.1962    5640.2181    62.397443    81.423848 
   89700    477.37723   -108.49373   0.43194095   -108.06179    857.15476     4.342688     4.342688     4.342688    857.15476   -3284.6046   -13241.413    19097.482   -1703.0648    7183.8192    398.15734    81.898489 
   89800    370.54433   -108.39926    0.3352763   -108.06398   -3857.2641    4.3362018    4.3362018    4.3362018   -3857.2641   -13293.069   -10919.995    12641.272    8568.6025   -4681.1355   -1589.8238    81.532065 
   89900     462.0828    -108.4811   0.41810223     -108.063   -6940.9392    4.3403925    4.3403925    4.3403925   -6940.9392    465.17555   -8297.1366   -12990.857   -3254.6645    -5838.357    4617.5955    81.768687 
   90000    426.78099   -108.44965   0.38616041   -108.06349   -3745.0485    4.3395575    4.3395575    4.3395575   -3745.0485    8231.5957    -20812.13    1345.3889    8885.4075    2628.9478   -403.01651    81.721502 
   90100    282.66101   -108.32228   0.25575762   -108.06652    7175.8688     4.335228     4.335228     4.335228    7175.8688    8203.4544   -9669.6746    22993.827    6788.8594    1300.2016     -329.388    81.477149 
   90200    412.69877    -108.4372   0.37341852   -108.06378    177.47231    4.3440684    4.3440684    4.3440684    177.47231   -4979.2181    -13274.14    18785.775     756.1422    2178.2409    2853.6433    81.976611 
   90300    441.62367   -108.46315   0.39959038   -108.06356   -2659.0264    4.3313549    4.3313549    4.3313549   -2659.0264   -5726.6821   -11843.045    9592.6476    10523.557   -3018.4644   -2030.2546    81.258968 
   90400    439.37514   -108.46201   0.39755586   -108.06445   -12202.494    4.3455117    4.3455117    4.3455117   -12202.494   -3687.7158   -16571.286   -16348.481   -1488.6791   -4502.2667    2747.7073     82.05835 
   90500    379.12204   -108.40865   0.34303759   -108.06561    8483.8498    4.3339401    4.3339401    4.3339401    8483.8498    9782.3026   -9704.5218    25373.769    3694.8795    7747.1755    1612.2939    81.404555 
   90600    325.53757   -108.36146   0.29455323   -108.06691    6055.7267    4.3392917    4.3392917    4.3392917    6055.7267    3300.3653   -13681.732    28548.547    6155.8298     7352.158   -5579.3633    81.706487 
   90700    391.78419   -108.41767   0.35449457   -108.06318   -71.997932    4.3423428    4.3423428    4.3423428   -71.997932    7093.6102   -13326.772    6017.1684     268.6388   -2157.3869    1890.3856    81.878959 
   90800    470.03741   -108.48633   0.42529973   -108.06103   -6679.7324    4.3329366    4.3329366    4.3329366   -6679.7324   -8147.6059   -11326.647   -564.94411    9229.5585   -1226.7848    -637.6045    81.348022 
   90900    422.03981   -108.44447   0.38187048    -108.0626   -5997.0005    4.3455226    4.3455226    4.3455226   -5997.0005     1223.652   -18544.851   -669.80307   -943.07153   -2904.6394    2607.4948    82.058963 
   91000    346.54294   -108.37705   0.31355934   -108.06349    9280.9028    4.3336573    4.3336573    4.3336573    9280.9028    1444.1746   -6116.6466     32515.18    2622.4755    1593.9332    6935.6477    81.388621 
   91100    365.64794   -108.39584   0.33084594   -108.06499   -528.31226     4.340161     4.340161     4.340161   -528.31226     1597.359   -18736.289    15553.994    7822.1771    6368.5994   -2550.5039    81.755604 
   91200    461.30258   -108.47949   0.41739627    -108.0621   -1312.9233    4.3403735    4.3403735    4.3403735   -1312.9233    11978.419   -11252.563   -4664.6252   -1601.5112   -2650.7517   -767.21799    81.767611 
   91300    436.02073   -108.45789   0.39452072   -108.06337   -5724.1586    4.3337244    4.3337244    4.3337244   -5724.1586   -6866.4734   -10733.233    427.23042    10274.623   -3577.3665    434.98835    81.392405 
   91400    384.14798   -108.41295   0.34758517   -108.06537   -2199.0235    4.3441869    4.3441869    4.3441869   -2199.0235   -1241.4682   -16562.182     11206.58    1550.7675    4852.4811   -928.66425    81.983321 
   91500    388.09779   -108.41519   0.35115904   -108.06403    11483.945    4.3328675    4.3328675    4.3328675    11483.945    12842.881   -5151.2879    26760.241   -1615.4153    4983.2452    4462.0609     81.34413 
   91600    281.72066   -108.32136   0.25490678   -108.06645    -4396.844    4.3421841    4.3421841    4.3421841    -4396.844    8119.2473   -22692.225    1382.4457    7491.9893    6322.0429   -722.66684    81.869984 
   91700     500.3611   -108.51512   0.45273724   -108.06239   -2530.3499    4.3371369    4.3371369    4.3371369   -2530.3499    10784.103   -11794.642   -6580.5107   -1754.0421   -3729.8003   -1405.9123    81.584829 
   91800    493.80906   -108.50924   0.44680881   -108.06243   -6268.0393    4.3385385    4.3385385    4.3385385   -6268.0393   -4093.5274   -11793.335   -2917.2553    5157.6439   -5902.9971    1763.5018    81.663945 
   91900    355.42043   -108.38624   0.32159187   -108.06465   -2290.7017    4.3404177    4.3404177    4.3404177   -2290.7017   -478.32481   -16376.831    9983.0506    8992.6588    5599.6912   -1485.0435    81.770112 
   92000    343.22223   -108.37383   0.31055469   -108.06327    12992.005    4.3348854    4.3348854    4.3348854    12992.005    30042.725   -7065.5155    15998.805    -6685.643    6265.5522    2199.2349    81.457835 
   92100    351.14119   -108.38233   0.31771993   -108.06461   -5607.9575    4.3421729    4.3421729    4.3421729   -5607.9575    2967.9024    -20734.83    943.05551    8884.4464    3507.6521     4144.045    81.869348 
   92200    404.86893   -108.43085   0.36633392   -108.06451   -271.13533    4.3339347    4.3339347    4.3339347   -271.13533    2160.3056    -6121.156    3147.4444   -539.69734   -349.86356   -3236.0122    81.404254 
   92300    569.77688   -108.57859   0.51554609   -108.06305   -8426.6711    4.3425528    4.3425528    4.3425528   -8426.6711   -2068.9234   -13401.606    -9809.484    638.72972   -344.92102    -677.8822    81.890837 
   92400    305.60575   -108.34211   0.27651851   -108.06559    4500.1151    4.3346212    4.3346212    4.3346212    4500.1151    15800.438   -14360.318    12060.226    12085.567    4839.8548    -1504.833    81.442944 
   92500     275.2164   -108.31433   0.24902159   -108.06531    2263.3499    4.3414927    4.3414927    4.3414927    2263.3499    13116.665   -19032.345     12705.73   -7011.6951    9868.8925   -1297.3047     81.83088 
   92600    443.21755   -108.46367   0.40103255   -108.06264   -504.87664    4.3375527    4.3375527    4.3375527   -504.87664    2894.7151   -13703.993    9294.6476    5003.8621   -1243.7694    4513.3746     81.60829 
   92700    436.25354   -108.45805   0.39473137   -108.06332   -5128.2639    4.3369934    4.3369934    4.3369934   -5128.2639   -12447.508   -7044.1366    4106.8533    4668.7407   -1899.2797     -543.568    81.576731 
   92800    499.77307   -108.51466   0.45220518   -108.06246   -8268.5905    4.3437309    4.3437309    4.3437309   -8268.5905    3604.9896   -13871.764   -14538.997   -2601.7239   -2745.0674   -270.84173    81.957504 
   92900       339.61   -108.37022   0.30728627   -108.06293    9712.2073    4.3304912    4.3304912    4.3304912    9712.2073    17822.195   -12485.628    23800.055    14781.009    5382.3523   -1878.7114     81.21037 
   93000    267.99574   -108.30796   0.24248818   -108.06547   -1578.2206    4.3448162    4.3448162    4.3448162   -1578.2206    9678.8513   -24474.512    10060.999   -2053.3677    8946.9627   -2205.1974    82.018955 
   93100    448.25758   -108.46866   0.40559288   -108.06306    1136.3166    4.3349566    4.3349566    4.3349566    1136.3166    1692.1983   -10602.314    12319.065    1325.6135     2269.021   -209.69212    81.461851 
   93200    500.93428   -108.51716   0.45325586    -108.0639    54.738703    4.3355014    4.3355014    4.3355014    54.738703    445.44197   -9446.4503    9165.2244      9103.39   -3601.0477    2100.8707    81.492565 
   93300    421.97339   -108.44619   0.38181039   -108.06438   -10662.308    4.3455676    4.3455676    4.3455676   -10662.308    2027.7618   -18898.738   -15115.948   -6348.9607    4174.7698   -3409.8907    82.061514 
   93400    311.93207   -108.34624   0.28224269     -108.064    17337.335    4.3265158    4.3265158    4.3265158    17337.335    19102.121   -3398.5758    36308.459    8052.5347    4217.4824   -269.33583    80.986918 
   93500    334.09148   -108.36543   0.30229299   -108.06314   -3766.1642    4.3491362    4.3491362    4.3491362   -3766.1642   -924.36783   -22907.579    12533.454     2717.894    6843.2358   -4191.2287    82.263847 
   93600    436.61606   -108.45719   0.39505939   -108.06213    2828.5663    4.3295976    4.3295976    4.3295976    2828.5663   -2410.3472   -305.39867    11201.445   -5570.5793    839.97006   -1195.7882    81.160105 
   93700    491.09672    -108.5063   0.44435463   -108.06195   -10952.194    4.3432903    4.3432903    4.3432903   -10952.194   -7533.4109   -19877.853   -5445.3181     7645.996   -5756.0058    2357.1432    81.932571 
   93800    475.49638   -108.49167   0.43023911   -108.06143   -5807.2111    4.3389985    4.3389985    4.3389985   -5807.2111   -1648.5335   -16199.349    426.24946   -5062.9746    3490.1254    2239.3762    81.689923 
   93900     222.1731   -108.26527   0.20102689   -108.06425    6885.6878    4.3354959    4.3354959    4.3354959    6885.6878     4918.092   -13904.031    29643.003     2620.976    8880.7931    455.33595    81.492254 
   94000    437.70993   -108.45848   0.39604915   -108.06243    1388.9749    4.3406734    4.3406734    4.3406734    1388.9749   -3976.5074   -13095.697    21239.129    10768.201    3479.0905   -420.89198    81.784563 
   94100    408.87135   -108.43314   0.36995539   -108.06319   -4598.7236    4.3373649    4.3373649    4.3373649   -4598.7236   -6580.6883   -4350.1243   -2865.3582   -6300.0652    5128.0215   -6146.7126    81.597693 
   94200    397.32389   -108.42334     0.359507   -108.06384   -4251.7844    4.3359988    4.3359988    4.3359988   -4251.7844   -9991.0995   -8391.3383    5627.0847    10098.974   -2748.5304    2006.9384    81.520618 
   94300    476.33417   -108.49431   0.43099717   -108.06331   -6913.9789    4.3425349    4.3425349    4.3425349   -6913.9789   -11370.925   -17451.153    8080.1416   -3008.9743    730.24508   -192.74233    81.889826 
   94400    296.07995   -108.33391   0.26789936   -108.06601     7085.679    4.3313459    4.3313459    4.3313459     7085.679    709.72861   -7714.2844    28261.593   -3988.1567    10067.191   -1713.1604    81.258465 
   94500    380.71472    -108.4095   0.34447868   -108.06502   -5376.8644    4.3435309    4.3435309    4.3435309   -5376.8644   -5410.8674   -17851.017     7131.291     10538.61     2445.949   -173.68709    81.946189 
   94600    512.83759   -108.52641   0.46402623   -108.06238   -2603.2935    4.3346646    4.3346646    4.3346646   -2603.2935    138.60462   -4051.6616   -3896.8234   -6415.6946    -378.4644    370.15993    81.445386 
   94700    326.41453    -108.3609   0.29534673   -108.06555   -7123.5936    4.3383382    4.3383382    4.3383382   -7123.5936    -15440.46   -9641.2649    3710.9444    7528.4473    609.03112     655.1748    81.652637 
   94800    435.41526   -108.45803   0.39397288   -108.06406   -675.76897    4.3406249    4.3406249    4.3406249   -675.76897    -8622.259   -11951.249    18546.201   -244.05853    53.073643    8815.7088    81.781821 
   94900    376.32055   -108.40343   0.34050275   -108.06293    5632.6172    4.3359261    4.3359261    4.3359261    5632.6172    546.83227   -6581.2363    22932.256   -5286.4796    10623.961   -1229.0119    81.516519 
   95000    292.41939   -108.32889   0.26458721    -108.0643   -2305.5024    4.3386734    4.3386734    4.3386734   -2305.5024    10315.156   -16553.929   -677.73345      9761.46    5354.1833   -230.38702    81.671564 
   95100    512.92184   -108.52526   0.46410246   -108.06115   -5856.2083    4.3399967    4.3399967    4.3399967   -5856.2083    6034.8657   -15237.069   -8366.4217   -1986.3019   -2062.1578   -927.17742    81.746318 
   95200     409.1085   -108.43391   0.37016997   -108.06374   -3699.5154    4.3354887    4.3354887    4.3354887   -3699.5154   -7632.4218   -10773.907    7307.7821    4080.5006    80.195407   -2851.9992    81.491851 
   95300    395.03869   -108.42322   0.35743931   -108.06578   -2152.1967    4.3394887    4.3394887    4.3394887   -2152.1967   -6189.5891   -9766.4425    9499.4416    7109.2016     2698.959    2060.6764    81.717616 
   95400    425.92621   -108.44938   0.38538699   -108.06399    9396.8884    4.3370627    4.3370627    4.3370627    9396.8884    21453.406   -6606.8965    13344.156   -9368.7213    6125.4154    4710.7069    81.580638 
   95500     245.6173   -108.28933    0.2222397   -108.06709    4137.7452    4.3346602    4.3346602    4.3346602    4137.7452    18592.307   -6828.3546    649.28384    5068.5454    4365.6827   -1457.8751    81.445141 
   95600    470.83382   -108.48961   0.42602033   -108.06359   -11953.904    4.3441156    4.3441156    4.3441156   -11953.904    1364.8248   -19013.568   -18212.968    2960.1747   -3926.1656     4888.104    81.979283 
   95700    587.21759   -108.59319   0.53132681   -108.06186    4604.5857    4.3305985    4.3305985    4.3305985    4604.5857    2286.4419   -459.62369    11986.939   -1532.7952   -2984.0837   -1356.1352    81.216405 
   95800     295.0659   -108.33318   0.26698182    -108.0662   -6173.2341    4.3452853    4.3452853    4.3452853   -6173.2341    8845.4289   -19166.132   -8198.9995     8674.312    6422.4579    1871.6988    82.045521 
   95900     369.9773   -108.39814   0.33476323   -108.06338    13312.025    4.3326947    4.3326947    4.3326947    13312.025    30736.062   -6155.4634    15355.477   -3820.5633    6303.9657    4456.4535    81.334397 
   96000    344.24445   -108.37592   0.31147961   -108.06444    4144.9699    4.3370525    4.3370525    4.3370525    4144.9699    14717.647    -8419.339    6136.6015   -2958.6966    7043.8833   -618.51345    81.580066 
   96100    359.45554   -108.39048   0.32524293   -108.06523   -13465.473    4.3430163    4.3430163    4.3430163   -13465.473   -11350.152     -14092.4   -14953.867    8509.9349   -970.81895    4517.7022    81.917062 
   96200    614.58764   -108.61781   0.55609181   -108.06172    7792.0577    4.3295833    4.3295833    4.3295833    7792.0577    11923.993    4622.2222    6829.9574   -3672.3245    -1940.088   -1662.6028    81.159299 
   96300    348.13492   -108.38031   0.31499979   -108.06531   -9840.8969    4.3468672    4.3468672    4.3468672   -9840.8969    3387.9234   -21545.964    -11364.65    6955.1585    2877.4941    -1115.357    82.135159 
   96400    227.20779   -108.27139   0.20558238   -108.06581    9481.3546    4.3299851    4.3299851    4.3299851    9481.3546    20832.527    -9962.441    17573.978    1347.4553    7314.4763    5566.6326    81.181898 
   96500    517.43974   -108.53103   0.46819035   -108.06284   -1098.6098    4.3414485    4.3414485    4.3414485   -1098.6098   -4215.9444   -6745.2598    7665.3749   -5033.5068   -742.85345    3148.7387    81.828384 
   96600    324.11816   -108.35909   0.29326892   -108.06582    -7980.204    4.3391793    4.3391793    4.3391793    -7980.204   -12492.282   -5030.7373   -6417.5922    8057.9341   -285.07294    4649.2081    81.700135 
   96700      515.888   -108.53081    0.4667863   -108.06403   -302.43838    4.3334987    4.3334987    4.3334987   -302.43838    4335.7618   -1462.6543   -3780.4226    2538.6209   -2506.7909    4187.9127    81.379684 
   96800     446.8813   -108.46746    0.4043476   -108.06311   -2490.3344    4.3434167    4.3434167    4.3434167   -2490.3344    5877.3901   -10082.581   -3265.8122     3856.768    3873.7846   -5350.3485    81.939725 
   96900    162.04948   -108.21312   0.14662578   -108.06649    5193.5542    4.3339146    4.3339146    4.3339146    5193.5542    12929.563    -14995.05     17646.15    6841.0772    10616.729    5180.2235    81.403117 
   97000    504.05355   -108.51823   0.45607824   -108.06216   -161.24069    4.3400526    4.3400526    4.3400526   -161.24069   -1419.4712   -6311.7436    7247.4927    -4020.705    2194.9495    1584.4418    81.749474 
   97100    425.81996   -108.44988   0.38529085   -108.06459   -4369.9718    4.3374312    4.3374312    4.3374312   -4369.9718   -10563.568   -2105.3552     -440.992    3652.5943   -1308.1433    2528.6609    81.601433 
   97200    399.80018   -108.42774   0.36174761     -108.066    -9535.917    4.3371308    4.3371308    4.3371308    -9535.917   -5636.2497   -12033.069   -10938.432    6126.0039   -187.91011    3485.1488    81.584484 
   97300    484.11532   -108.50188   0.43803772   -108.06384    3967.0202    4.3385499    4.3385499    4.3385499    3967.0202    6160.7387   -3223.3884    8963.7105     -484.729   -621.12164   -2126.6772    81.664589 
   97400    231.69583   -108.27722   0.20964326   -108.06758    3064.2069    4.3360579    4.3360579    4.3360579    3064.2069    6478.4873    -15408.17    18122.303    8185.0789    7956.2466    2751.0816    81.523953 
   97500    377.15958   -108.40748   0.34126192   -108.06622   -2774.3244    4.3385761    4.3385761    4.3385761   -2774.3244    6919.2866   -12299.142   -2943.1183    -1999.375    1342.6142    9475.7392    81.666071 
   97600    572.32617   -108.58047   0.51785274   -108.06262   -3619.3975    4.3389163    4.3389163    4.3389163   -3619.3975   -3414.3701   -1004.4502    -6439.372    205.85168   -4384.2919   -685.26088    81.685285 
   97700    364.38525   -108.39491   0.32970343   -108.06521   -8608.3073    4.3379468    4.3379468    4.3379468   -8608.3073   -2554.1631     -16303.6   -6967.1588    5876.8985    98.518417    4448.2918    81.630537 
   97800    408.40499   -108.43319   0.36953341   -108.06366    4698.3183    4.3375347    4.3375347    4.3375347    4698.3183    12000.744   -3740.5432    5834.7542    738.59532    2396.4435   -2601.8971    81.607278 
   97900    322.34521   -108.35567   0.29166472     -108.064    6088.3728    4.3381431    4.3381431    4.3381431    6088.3728      16954.3   -9136.1294    10446.947     6901.153     4643.982   -2122.8464     81.64162 
   98000    279.05622     -108.318   0.25249593   -108.06551    22.660141    4.3370319    4.3370319    4.3370319    22.660141    20112.755    -18869.29   -1175.4844    3966.1526    5642.2173    6338.4736    81.578898 
   98100    618.58253   -108.62181   0.55970647   -108.06211   -2675.0005    4.3382642    4.3382642    4.3382642   -2675.0005     882.3145   -4057.3016   -4850.0144   -3900.5688   -7287.0808   -793.99188    81.648456 
   98200    433.78709   -108.45757   0.39249967   -108.06507   -7044.8082    4.3380414    4.3380414    4.3380414   -7044.8082    3052.4129   -16343.823    -7843.015    5731.3458     -2655.04    5277.8409    81.635881 
   98300    303.65726    -108.3413   0.27475547   -108.06654    2732.1511    4.3371435    4.3371435    4.3371435    2732.1511    19027.126   -9554.2107   -1276.4623    1862.9328    6684.3688    2071.9834    81.585199 
   98400    372.61168   -108.40096   0.33714688   -108.06381    6280.3751    4.3389065    4.3389065    4.3389065    6280.3751    18993.675   -5632.6045     5480.055    1080.8806    1141.7627   -1017.5493    81.684731 
   98500    285.04898   -108.32453   0.25791831   -108.06661   -2398.6589    4.3352062    4.3352062    4.3352062   -2398.6589    7071.3182   -18360.057    4092.7616    8485.4875    3429.7655    5325.5031    81.475919 
   98600    595.37278    -108.6032   0.53870581    -108.0645   -7359.5845    4.3399567    4.3399567    4.3399567   -7359.5845   -6506.8592   -10123.091   -5448.8035   -2680.0358   -5832.2554    1985.7708    81.744058 
   98700     482.6029   -108.50162   0.43666924   -108.06495   -5374.0133    4.3371695    4.3371695    4.3371695   -5374.0133    313.64941   -10100.988   -6334.7016    606.58714   -5420.6086    1773.3452    81.586668 
   98800    210.33572   -108.25738   0.19031618   -108.06706     913.8855    4.3378914    4.3378914    4.3378914     913.8855    21660.141    -17673.56   -1244.9247    6247.7481     6555.721    4529.0257    81.627411 
   98900    408.13496   -108.43203   0.36928909   -108.06274    5531.1634    4.3386836    4.3386836    4.3386836    5531.1634    11208.165   -6273.8183    11659.144   -2521.6477    6105.0981   -4970.9864     81.67214 
   99000    321.48493   -108.35594   0.29088632   -108.06505   -200.93316     4.336102     4.336102     4.336102   -200.93316   -164.71159   -12198.214    11760.127    7983.5345   -2287.6638    1989.1735    81.526438 
   99100    533.31748   -108.54562   0.48255687   -108.06306   -8852.4212    4.3403596    4.3403596    4.3403596   -8852.4212   -6685.2957    -12116.72   -7755.2478   -155.46513    2249.8223    1639.7375    81.766823 
   99200     487.3925   -108.50392   0.44100298   -108.06291    3203.1609    4.3339424    4.3339424    4.3339424    3203.1609    3249.8331   -1800.0144    8159.6639   -4606.6617   -4872.9229    2778.1496    81.404687 
   99300    208.67849   -108.25564   0.18881668   -108.06682    -6248.838    4.3417995    4.3417995    4.3417995    -6248.838    7291.9629   -22814.247   -3224.2293    6191.5737    4746.3492    7071.2844    81.848232 
   99400     413.6491   -108.43791   0.37427839   -108.06364    9643.4794    4.3336198    4.3336198    4.3336198    9643.4794     13740.05   -6768.9484    21959.337    -1209.115    4735.2253   -1145.9087    81.386507 
   99500    463.85753   -108.48396   0.41970805   -108.06425   -7465.2365    4.3413684    4.3413684    4.3413684   -7465.2365   -8934.8331   -12140.703   -1320.1738    3140.9072    -5273.326   -476.82884    81.823855 
   99600     425.0246   -108.44886   0.38457119   -108.06429   -3518.0455    4.3352402    4.3352402    4.3352402   -3518.0455    1595.4495   -7542.6074   -4606.9787    5139.8574   -5533.6278    4628.4922    81.477839 
   99700    485.99185   -108.50187   0.43973564   -108.06214    -1086.991    4.3397089    4.3397089    4.3397089    -1086.991   -5756.3161   -4635.7089    7131.0521   -8494.4596    912.96507    26.564143    81.730057 
   99800    194.81522   -108.24172   0.17627291   -108.06545    4398.0335    4.3362996    4.3362996    4.3362996    4398.0335    15358.396   -12894.076     10729.78    2345.2448    1261.4489    5783.3734    81.537584 
   99900    409.52649   -108.43569   0.37054818   -108.06514    538.38375    4.3382601    4.3382601    4.3382601    538.38375    11294.145   -16490.965    6811.9712    1468.6904    8191.1576    2495.6899    81.648225 
  100000    513.58417   -108.52802   0.46470175   -108.06332    1146.1447    4.3370877    4.3370877    4.3370877    1146.1447    6574.4331   -7260.0618    4124.0628   -4291.2367   -1739.7205   -3359.7937    81.582052 
Loop time of 21.6347 on 1 procs for 100000 steps with 8 atoms

Pair  time (%) = 6.57977 (30.4131)
Kspce time (%) = 5.30942 (24.5412)
Neigh time (%) = 0 (0)
Comm  time (%) = 1.05347 (4.86937)
Outpt time (%) = 0.0347042 (0.16041)
Other time (%) = 8.65732 (40.0159)

Nlocal:    8 ave 8 max 8 min
Histogram: 1 0 0 0 0 0 0 0 0 0
Nghost:    2189 ave 2189 max 2189 min
Histogram: 1 0 0 0 0 0 0 0 0 0
Neighs:    2056 ave 2056 max 2056 min
Histogram: 1 0 0 0 0 0 0 0 0 0

Total # of neighbors = 2056
Ave neighs/atom = 257
Neighbor list builds = 0
Dangerous builds = 0
unfix 20
unfix 21
print "seeds:5656791"
seeds:5656791
