LAMMPS (10 Feb 2015)
# ---- initialize simulations
clear
units metal
dimension 3
boundary p p p
atom_style charge
atom_modify map array
# ---- create atoms
read_data /Users/eugeneragasa/pyflamestk_git/pypospack/tests/tests_integration/workflow/WorkflowLammpsThermalExpansion/param_4927/MgO_NaCl_unit.npt.T400/lammps.structure
  triclinic box = (0 0 0) to (4.2565 4.2565 4.2565) with tilt (0 0 0)
  1 by 1 by 1 MPI processor grid
  reading atoms ...
  8 atoms
# ---- define interatomic potential
include potential.mod
mass 1 24.305
mass 2 15.999

group Mg type 1
4 atoms in group Mg
group O type 2
4 atoms in group O

set group Mg charge 1.66679564584
  4 settings made for charge
set group O charge -1.66679564584
  4 settings made for charge

variable R_cut equal 10.0

pair_style buck/coul/long ${R_cut}
pair_style buck/coul/long 10
pair_coeff 1 1 0.0 0.5 0.0 ${R_cut}
pair_coeff 1 1 0.0 0.5 0.0 10
pair_coeff 1 2 1241.53975785 0.290586946924 0.0 ${R_cut}
pair_coeff 1 2 1241.53975785 0.290586946924 0.0 10
pair_coeff 2 2 7336.97641517 0.111647641293 25.3936876208 ${R_cut}
pair_coeff 2 2 7336.97641517 0.111647641293 25.3936876208 10

kspace_style pppm 1.0e-5

neighbor 1.0 bin
neigh_modify every 1 delay 0 check yes
# ---- define settings
compute eng all pe/atom
compute eatoms all reduce sum c_eng
# ---- run minimization
reset_timestep 0
fix 1 all box/relax iso 0.0 vmax 0.001
thermo 10
thermo_style custom step pe lx ly lz xy xz yz press pxx pyy pzz pxy pxz pyz c_eatoms
min_style cg
minimize 1e-25 1e-25 5000 10000
PPPM initialization ...
  G vector (1/distance) = 0.352901
  grid = 8 8 8
  stencil order = 5
  estimated absolute RMS force accuracy = 3.98348e-05
  estimated relative force accuracy = 2.76637e-06
  using double precision FFTs
  3d grid and FFT values/proc = 3375 512
Neighbor list info ...
  1 neighbor list requests
  update every 1 steps, delay 0 steps, check yes
  master list distance cutoff = 11
Memory usage per processor = 4.06549 Mbytes
Step PotEng Lx Ly Lz Xy Xz Yz Press Pxx Pyy Pzz Pxy Pxz Pyz eatoms 
       0    -112.5899       4.2565       4.2565       4.2565            0            0            0    58061.201    58061.201    58061.201    58061.201 6.8070985e-11 -1.221979e-10 1.2952011e-11    -112.5899 
      10   -112.63526     4.299065     4.299065     4.299065            0            0            0    6762.9013    6762.9013    6762.9013    6762.9013 -3.6532134e-11 6.5076144e-11 2.4224675e-10   -112.63526 
      13     -112.636    4.3051131    4.3051131    4.3051131            0            0            0   -6.5125139   -6.5125139   -6.5125139   -6.5125139 2.4815902e-11 -1.1583773e-10 3.0521581e-11     -112.636 
Loop time of 0.010891 on 1 procs for 13 steps with 8 atoms

Minimization stats:
  Stopping criterion = linesearch alpha is zero
  Energy initial, next-to-last, final = 
        -112.589903458     -112.636003249     -112.636003249
  Force two-norm initial, final = 8.38407 0.00186563
  Force max component initial, final = 8.38407 0.000962014
  Final line search alpha, max atom move = 0.00390625 3.75787e-06
  Iterations, force evaluations = 13 30

Pair  time (%) = 0.00289774 (26.6068)
Kspce time (%) = 0.00169277 (15.5429)
Neigh time (%) = 0 (0)
Comm  time (%) = 0.000319004 (2.92907)
Outpt time (%) = 1.5974e-05 (0.146673)
Other time (%) = 0.00596547 (54.7745)

Nlocal:    8 ave 8 max 8 min
Histogram: 1 0 0 0 0 0 0 0 0 0
Nghost:    2189 ave 2189 max 2189 min
Histogram: 1 0 0 0 0 0 0 0 0 0
Neighs:    2344 ave 2344 max 2344 min
Histogram: 1 0 0 0 0 0 0 0 0 0

Total # of neighbors = 2344
Ave neighs/atom = 293
Neighbor list builds = 0
Dangerous builds = 0
unfix 1
# ---- define output variables ----
variable natoms equal "count(all)"
variable tot_energy equal "c_eatoms"
variable length_x equal "lx"
variable length_y equal "ly"
variable length_z equal "lz"
variable tilt_xy equal "xy"
variable tilt_xz equal "xz"
variable tilt_yz equal "yz"
variable tot_press equal "press"
variable press_xx equal "pxx"
variable press_yy equal "pyy"
variable press_zz equal "pzz"
variable press_xy equal "pxy"
variable press_xz equal "pxz"
variable press_yz equal "pyz"

# ---- output ----
print "pypospack:output_section:begin"
pypospack:output_section:begin
print "tot_energy = ${tot_energy}"
tot_energy = -112.63600324896
print "num_atoms = ${natoms}"
num_atoms = 8
print "xx = ${length_x}"
xx = 4.30511307073731
print "yy = ${length_y}"
yy = 4.30511307073731
print "zz = ${length_z}"
zz = 4.30511307073731
print "xy = ${tilt_xy}"
xy = 0
print "xz = ${tilt_xz}"
xz = 0
print "yz = ${tilt_yz}"
yz = 0
print "tot_press = ${tot_press}"
tot_press = -6.51251387968517
print "pxx = ${press_xx}"
pxx = -6.51251387980119
print "pyy = ${press_yy}"
pyy = -6.51251387961014
print "pzz = ${press_zz}"
pzz = -6.51251387964418
print "pxy = ${press_xy}"
pxy = 2.48159019880152e-11
print "pxz = ${press_xz}"
pxz = -1.15837732664817e-10
print "pyz = ${press_yz}"
pyz = 3.05215812050655e-11
print "pypospack:output_section:done"
pypospack:output_section:done
print "pypospack:lammps_sim:done"
pypospack:lammps_sim:done
#------------------------------------------------------------------------------
# RUN THERMOSTAT
# running using an NPT Nose-Hoover style thermostat
#------------------------------------------------------------------------------
variable tempdamp equal 0.1
variable pressdamp equal 1.0
# set initial velocities
velocity all create 400 9299038 mom yes dist gaussian loop all
# fix for Nose-Hoover style thermostat
fix 20 all npt temp 400 400 0.1 aniso 0.0 0.0 1.0 drag 1.0 couple xyz
variable boxx equal lx
variable boxy equal ly
variable boxz equal lz
variable boxp equal press
variable boxt equal temp
# calculate averages every 10000 steps
reset_timestep 0
fix 21 all ave/time 10 10 100 v_boxx v_boxy v_boxz v_boxp v_boxt file lattice.out
thermo_style custom step temp pe ke etotal press lx ly lz press pxx pyy pzz pxy pxz pyz vol
thermo_modify flush yes
thermo 100
run 100000
PPPM initialization ...
  G vector (1/distance) = 0.352409
  grid = 8 8 8
  stencil order = 5
  estimated absolute RMS force accuracy = 4.075e-05
  estimated relative force accuracy = 2.82993e-06
  using double precision FFTs
  3d grid and FFT values/proc = 3375 512
Memory usage per processor = 3.06549 Mbytes
Step Temp PotEng KinEng TotEng Press Lx Ly Lz Press Pxx Pyy Pzz Pxy Pxz Pyz Volume 
       0          400   -112.63601   0.36192841   -112.27408    4836.9443    4.3051131    4.3051131    4.3051131    4836.9443    4522.9621    2634.5802    7353.2906    1909.3695    3895.8557    1711.7753    79.790959 
     100    101.75837   -112.31635  0.092073115   -112.22428    -5498.572    4.3221994    4.3221994    4.3221994    -5498.572   -5022.0938   -11267.361   -206.26103   -791.13018   -5212.8148   -2269.3378     80.74477 
     200    328.39641   -112.42046   0.29713997   -112.12332   -371.79674    4.3109086    4.3109086    4.3109086   -371.79674    -1679.093   -3430.2764    3993.9792    1681.8416   -2376.9474   -2463.5944    80.113635 
     300    312.85074   -112.32572   0.28307393   -112.04264    3378.1268    4.3249469    4.3249469    4.3249469    3378.1268    4346.3932   -10356.037    16144.025   -937.36012   -127.96367   -281.49563    80.898847 
     400    305.54652   -112.25225   0.27646491   -111.97579   -3787.9171    4.3158445    4.3158445    4.3158445   -3787.9171   -4494.3003   -2176.5915   -4692.8594   -930.87711   -7944.6927   -3387.0689    80.389135 
     500    357.76803   -112.25925   0.32371604   -111.93554   -9670.8901    4.3263072    4.3263072    4.3263072   -9670.8901   -8431.0761   -11886.291   -8695.3033   -791.88769   -6314.7288   -2823.6545    80.975209 
     600    521.12539   -112.38209    0.4715252   -111.91057    8465.3316    4.3210409    4.3210409    4.3210409    8465.3316     3018.279   -3195.7684    25573.484   -2673.4417   -1255.3855    1763.1593    80.679861 
     700    474.81442   -112.33632   0.42962207    -111.9067   -7086.4642    4.3205421    4.3205421    4.3205421   -7086.4642   -6271.7435   -10331.649   -4656.0003    1734.3384   -3349.1332    -1440.247    80.651922 
     800    255.99096   -112.13971     0.231626   -111.90809    2638.4553    4.3274051    4.3274051    4.3274051    2638.4553   -2073.9493    -15599.54    25588.855    -2520.322   -6585.4596   -4966.6833    81.036872 
     900    646.02731    -112.4897   0.58453909   -111.90516   -115.05052    4.3160579    4.3160579    4.3160579   -115.05052    5228.5619   -7247.3944    1673.6809     2831.058    7483.1429    2903.1288    80.401064 
    1000    136.17986   -112.03473    0.1232184   -111.91151   -5048.9588    4.3283637    4.3283637    4.3283637   -5048.9588    -6843.685   -14046.601    5743.4097    74.925962   -8537.5642   -1633.7675    81.090733 
    1100    459.93744   -112.32659   0.41616106   -111.91043   -3295.0669     4.318669     4.318669     4.318669   -3295.0669   -4938.5111   -8605.6344    3658.9449    1821.5121   -2550.9232   -3735.6847     80.54707 
    1200    453.75318    -112.3192   0.41056542   -111.90864    6913.5206    4.3243615    4.3243615    4.3243615    6913.5206    4050.1992   -5303.3855    21993.748    299.82472    966.03059     4446.959    80.866004 
    1300     348.7525   -112.22827   0.31555859   -111.91271   -1419.1619    4.3208563    4.3208563    4.3208563   -1419.1619   -8885.4419   -5874.4186    10502.375   -1304.0829   -9121.6757    -4473.146    80.669517 
    1400    457.92413    -112.3278   0.41433938   -111.91346   -2185.1896    4.3229522    4.3229522    4.3229522   -2185.1896    1137.0366   -8784.6228    1092.0174    1135.9882   -4008.6546   -4371.6665    80.786968 
    1500    387.35269   -112.26278   0.35048486    -111.9123    2326.0323    4.3245467    4.3245467    4.3245467    2326.0323   -7005.3189     -8666.74    22650.156    -2900.935    808.13869    805.03224    80.876391 
    1600    333.57428    -112.2146   0.30182502   -111.91277    3097.7453    4.3154982    4.3154982    4.3154982    3097.7453    5182.6803   -1879.0528    5989.6085   -143.50529   -7082.9585   -1721.3956    80.369785 
    1700    402.78744   -112.27659   0.36445054   -111.91214   -8769.3489    4.3308282    4.3308282    4.3308282   -8769.3489   -17275.033   -20488.545    11455.531   -2656.6064   -2244.3084    -3943.344     81.22933 
    1800    352.60884   -112.23213   0.31904789   -111.91308    17615.297    4.3113133    4.3113133    4.3113133    17615.297    17468.092    1881.1012    33496.698    1045.8757    2890.8093     7651.883      80.1362 
    1900    520.53401   -112.38854   0.47099011   -111.91755   -22864.305    4.3315587    4.3315587    4.3315587   -22864.305   -22224.343   -24801.231   -21567.341   -39.361294   -5312.9477   -6915.3987    81.270439 
    2000    311.80765   -112.19982   0.28213011   -111.91769    12390.801    4.3130358    4.3130358    4.3130358    12390.801    11483.324   -2101.1807     27790.26   -1481.0952   -4319.6272   -1017.2387    80.232288 
    2100    470.65695   -112.34245    0.4258603   -111.91659   -6900.6167    4.3303988    4.3303988    4.3303988   -6900.6167   -15567.721   -20025.378    14891.248    2713.2448     2466.797    3082.5596    81.205172 
    2200    360.75366   -112.24358   0.32641749   -111.91716    2691.6059     4.313352     4.313352     4.313352    2691.6059    8323.2086   -1147.5733    899.18242   -1099.6725   -6303.5907   -5095.0788    80.249937 
    2300    286.09983   -112.17677   0.25886914   -111.91791   -6603.7403    4.3289216    4.3289216    4.3289216   -6603.7403   -12852.905   -15632.551    8674.2352    1933.2342   -1371.5128   -1234.7393    81.122093 
    2400    462.65079    -112.3318   0.41861616   -111.91318    6699.4405    4.3167946    4.3167946    4.3167946    6699.4405    14378.401   -2536.1511     8256.072    -1616.356    4547.3324    4565.1611     80.44224 
    2500    377.93522   -112.25648   0.34196373   -111.91451     2944.065    4.3196102    4.3196102    4.3196102     2944.065   -6553.9886   -4764.2047    20150.388    1400.2941    -10818.14   -2595.1477    80.599748 
    2600    376.21974   -112.25204   0.34041153   -111.91163   -8931.4715    4.3309899    4.3309899    4.3309899   -8931.4715   -5322.4232   -17239.515   -4232.4758    6.9467272    940.56323   -1235.5607    81.238428 
    2700    603.54151   -112.45312   0.54609704   -111.90702    10060.489    4.3072896    4.3072896    4.3072896    10060.489    11472.217    2768.0713    15941.179   -2141.4525   -4491.1281    5223.4646     79.91204 
    2800    219.82811   -112.10801    0.1989051    -111.9091   -13384.801    4.3370225    4.3370225    4.3370225   -13384.801   -13229.773   -23766.537   -3158.0935    453.47465   -6203.0491   -5124.5478    81.578372 
    2900    500.53559   -112.35687   0.45289512   -111.90397    3469.5662    4.3083005    4.3083005    4.3083005    3469.5662    10136.427   -3602.5339    3874.8052   -2686.2677   -2850.8623   -1144.8841    79.968319 
    3000    312.56433   -112.18876   0.28281478   -111.90594   -1191.1119    4.3321182    4.3321182    4.3321182   -1191.1119   -874.44373    -20057.43    17358.538    2271.4388     2610.048    6932.1389    81.301938 
    3100    461.16274   -112.32456   0.41726974   -111.90729   -4.8871269    4.3120538    4.3120538    4.3120538   -4.8871269    2383.4236    3013.8435   -5411.9285   -2621.8723   -5828.6941   -5419.9804    80.177502 
    3200    361.30214   -112.23769   0.32691377   -111.91078   -9760.3881       4.3303       4.3303       4.3303   -9760.3881   -8967.6082   -15084.044   -5229.5123    1893.1958    -2187.965    538.54777    81.199611 
    3300    479.92164    -112.3422   0.43424318   -111.90796    10301.751      4.31419      4.31419      4.31419    10301.751    11672.755    2097.2949    17135.204    1703.9768    3999.2029    3685.0181    80.296719 
    3400    412.44675   -112.28317   0.37319049   -111.90998   -11896.879    4.3271156    4.3271156    4.3271156   -11896.879   -14506.397   -14247.945   -6936.2957    909.77522   -13160.766   -4223.0761     81.02061 
    3500    283.07865   -112.16607   0.25613552   -111.90993    10063.717    4.3182399    4.3182399    4.3182399    10063.717    13504.158   -6596.8208    23283.814    2146.3583    1626.0897    943.63898    80.523066 
    3600    545.11936   -112.40193   0.49323546    -111.9087    -8528.219    4.3228463    4.3228463    4.3228463    -8528.219   -6426.9378   -15855.524   -3302.1952   -1454.2095   -5506.4253    4149.6408    80.781032 
    3700     210.7769   -112.10243   0.19071537   -111.91172    3957.5439    4.3206757    4.3206757    4.3206757    3957.5439    5278.3495    130.89309    6463.3892    1318.1923   -10122.488   -2697.8707    80.659406 
    3800    595.02059    -112.4484   0.53838713   -111.91001   -11706.987    4.3235608    4.3235608    4.3235608   -11706.987     -10947.2   -15323.398   -8850.3642    -4538.701    1911.8364   -431.70035     80.82109 
    3900    301.25906   -112.18329   0.27258553    -111.9107    11258.811    4.3196829    4.3196829    4.3196829    11258.811    13497.784   -4982.6557    25261.304    3.6402349   -2293.5273    5145.1245    80.603816 
    4000    524.02533   -112.38356   0.47414913   -111.90942   -10237.391     4.321764     4.321764     4.321764   -10237.391   -14555.718   -10147.034   -6009.4205   -1451.0865   -3081.4903   -4615.7041    80.720371 
    4100    269.19434   -112.15331   0.24357269   -111.90973    2767.8111    4.3245571    4.3245571    4.3245571    2767.8111     7164.279   -14955.768    16094.922    874.13931   -971.27459    3393.4871    80.876976 
    4200    442.12274   -112.30837   0.40004194   -111.90833    875.12272    4.3147006    4.3147006    4.3147006    875.12272    1882.0227   -3462.8297    4206.1751     1748.597    1154.5423    6705.5216    80.325233 
    4300    332.86532    -112.2108   0.30118353   -111.90962   -10142.005    4.3303551    4.3303551    4.3303551   -10142.005   -8427.2774   -6861.8099   -15136.929    1108.1645   -12274.194   -3365.5579    81.202711 
    4400    398.22972   -112.26863   0.36032662    -111.9083    12284.724    4.3133005    4.3133005    4.3133005    12284.724    10996.434    1686.4545    24171.285    3130.3422    2233.0507    3867.2467    80.247065 
    4500    486.83234   -112.34948   0.44049613   -111.90899   -8916.5321    4.3264937    4.3264937    4.3264937   -8916.5321   -6861.8144   -13592.576   -6295.2061   -1798.5827   -6205.4528    2150.0692    80.985681 
    4600    304.39805   -112.18523   0.27542575    -111.9098    6520.1181     4.319346     4.319346     4.319346    6520.1181    255.06729   -1277.4077    20582.695    960.88468   -10512.071   -1685.5392    80.584958 
    4700    551.88429   -112.40755    0.4993565    -111.9082   -9943.2797    4.3226118    4.3226118    4.3226118   -9943.2797   -1651.4552   -21088.087   -7090.2965   -2744.0801    6109.2962    2150.2523    80.767881 
    4800    244.68231   -112.13195    0.2213937   -111.91056    6269.9805    4.3195839    4.3195839    4.3195839    6269.9805    6857.1706   -6333.6165    18286.387   -318.17247   -7399.1299    3595.7331    80.598275 
    4900    490.39591   -112.35368   0.44372052   -111.90996   -7231.7767     4.323625     4.323625     4.323625   -7231.7767   -9401.3137   -6584.3928   -5709.6236   -987.90793   -2148.9406   -2720.0624    80.824692 
    5000    334.76844   -112.21223   0.30290552   -111.90933    13048.884    4.3193889    4.3193889    4.3193889    13048.884    12530.592   -5154.3214     31770.38   -545.63944    1654.5179     920.2329    80.587357 
    5100    457.23877   -112.32373   0.41371924   -111.91001   -5568.0693    4.3212384    4.3212384    4.3212384   -5568.0693   -8901.5168   -4704.4442    -3098.247     2697.049   -2840.3328    3682.0097    80.690925 
    5200    371.71654   -112.24595   0.33633694   -111.90961    673.30488     4.323649     4.323649     4.323649    673.30488   -2085.4164    82.814446    4022.5166   -675.21102   -9600.2744   -2151.0205    80.826039 
    5300     435.0849   -112.30203   0.39367396   -111.90835    3872.3864    4.3184043    4.3184043    4.3184043    3872.3864   -64.491943   -9283.0179    20964.669    1071.4704    2835.6609    4783.9378    80.532265 
    5400    367.06791   -112.24242   0.33213076   -111.91029   -4954.9691    4.3229369    4.3229369    4.3229369   -4954.9691   -2340.9954   -7925.5947   -4598.3171   -261.60143    -6890.259    1671.4641    80.786109 
    5500    300.39353    -112.1817   0.27180238    -111.9099    8095.2587    4.3218011    4.3218011    4.3218011    8095.2587   -4711.9446   -3462.0846    32459.805    1476.6281   -9305.7742   -768.01915    80.722448 
    5600     572.3564   -112.42556    0.5178801   -111.90768   -4987.0047    4.3196425    4.3196425    4.3196425   -4987.0047    2431.7041   -14378.376   -3014.3419   -1283.6469    6815.3871    622.68335    80.601551 
    5700     257.3235   -112.14416   0.23283171   -111.91133    172.73506    4.3226516    4.3226516    4.3226516    172.73506    -9871.129    -4808.681    15198.015   -284.12145    -10649.86     1919.946    80.770114 
    5800    519.95684   -112.38005   0.47046787   -111.90959   -3944.5938    4.3219406    4.3219406    4.3219406   -3944.5938   -6141.8953   -4780.8939   -910.99217    1467.1532   -1795.3956    -120.1401    80.730263 
    5900    444.51732   -112.31096   0.40220861   -111.90875    5578.3774    4.3187103    4.3187103    4.3187103    5578.3774   -2475.3817   -8662.6398    27873.154   -1614.7874    1680.2517    1127.2044    80.549382 
    6000    264.23797   -112.15092   0.23908807   -111.91183   -688.41484    4.3244248    4.3244248    4.3244248   -688.41484   -6196.6311   -5230.3981    9361.7847    832.42009      -8505.5    1892.2251    80.869555 
    6100    456.78924   -112.32207    0.4133125   -111.90875    1348.0089    4.3193019    4.3193019    4.3193019    1348.0089   -7621.5928   -3921.9158    15587.535    -1492.891   -5766.9774   -2665.1074    80.582492 
    6200    326.51648   -112.20498   0.29543898   -111.90954    3344.4958    4.3215112    4.3215112    4.3215112    3344.4958    458.15066    -7924.254    17499.591    628.31973    2887.3021    2039.7768    80.706204 
    6300    437.84033   -112.30702   0.39616713   -111.91085   -10457.783    4.3223553    4.3223553    4.3223553   -10457.783    -14500.22   -3137.9884    -13735.14    220.02744   -10907.534    2208.4243    80.753508 
    6400    311.57135   -112.19209   0.28191631   -111.91018    14782.624     4.320211     4.320211     4.320211    14782.624   -1644.8324    1780.8759    44211.829   -892.33283    -3304.811    -23.16218    80.633382 
    6500    625.29737    -112.4747    0.5657822   -111.90892   -8994.0218    4.3217575    4.3217575    4.3217575   -8994.0218   -9921.3522   -13624.348   -3436.3658    1293.2968    3976.1013    998.07318    80.720005 
    6600    194.24866   -112.08939   0.17576027   -111.91363    4327.1454    4.3215161    4.3215161    4.3215161    4327.1454   -5466.3656   -2905.2799    21353.082    797.69967   -13258.835     92.52386    80.706481 
    6700    537.85569   -112.39728   0.48666314   -111.91061    -6702.468    4.3212622    4.3212622    4.3212622    -6702.468   -11081.586   -14369.811    5343.9935     1509.427   -1790.7055   -436.80553    80.692254 
    6800    423.50052   -112.29414   0.38319217   -111.91095   -3718.7021    4.3213822    4.3213822    4.3213822   -3718.7021   -3056.6975   -14732.888    6633.4791   -1156.2449    1133.8669    746.64462    80.698979 
    6900     220.1403   -112.11263   0.19918757   -111.91344    2231.0243    4.3228835    4.3228835    4.3228835    2231.0243   -13512.773    176.33025    20029.516    874.06204   -13212.421    2746.0155    80.783115 
    7000    609.82532   -112.46007   0.55178277   -111.90829   -765.77479    4.3182223    4.3182223    4.3182223   -765.77479   -4545.8464   -1783.6433    4032.1653   -1174.7597   -3231.8141   -2485.4705    80.522082 
    7100    287.55516   -112.17144   0.26018595   -111.91126    2760.0343    4.3252669    4.3252669    4.3252669    2760.0343   -7494.8683   -3978.5127    19753.484   -759.61276    694.64359    612.95675    80.916808 
    7200    421.88106   -112.29282   0.38172685   -111.91109   -5361.5485    4.3183485    4.3183485    4.3183485   -5361.5485   -12545.572    2423.6159   -5962.6897   -520.66302   -16051.875    1425.0242     80.52914 
    7300    376.43915   -112.25023   0.34061005   -111.90962    5171.0616    4.3228804    4.3228804    4.3228804    5171.0616   -6488.6102   -8361.0428    30362.838   -999.36329    3777.7647   -2280.2871     80.78294 
    7400    428.71814   -112.29844   0.38791319   -111.91053   -1972.0717     4.320944     4.320944     4.320944   -1972.0717   -8444.3741    -9526.422    12054.581    2804.8438   -4053.8165     2433.836    80.674429 
    7500    300.08723   -112.18456   0.27152523   -111.91303   -3058.6079    4.3226825    4.3226825    4.3226825   -3058.6079   -13938.591   -2998.3324    7761.0994   -803.86992   -11825.215    74.819418    80.771849 
    7600    457.45481   -112.32396   0.41391473   -111.91004    5076.5333    4.3184763    4.3184763    4.3184763    5076.5333    195.39124   -4132.4236    19166.632    1525.6472    369.45334    136.84768    80.536291 
    7700    521.70213   -112.38406   0.47204705   -111.91202   -12082.612    4.3257723    4.3257723    4.3257723   -12082.612   -11235.011   -11831.929   -13180.895    2111.9445   -4943.9982    814.11851    80.945177 
    7800    211.70666   -112.10489   0.19155664   -111.91334    7245.9637    4.3182115    4.3182115    4.3182115    7245.9637   -6720.2592    714.31574    27743.835    557.75694   -14897.061     1607.356    80.521477 
    7900    630.55815   -112.47906   0.57054227   -111.90852   -5456.6249    4.3220961    4.3220961    4.3220961   -5456.6249     -4056.52    -14575.01    2261.6553   -176.82162    1067.9631   -597.18212    80.738982 
    8000    293.91978   -112.17787   0.26594479   -111.91192   -1037.3722    4.3240602    4.3240602    4.3240602   -1037.3722   -12849.409   -9754.7489    19492.042   -1272.6922   -5090.7251    1550.5398      80.8491 
    8100    266.61368    -112.1544   0.24123766   -111.91317    2502.5436    4.3166604    4.3166604    4.3166604    2502.5436   -257.69957     5462.602    2302.7283    332.82218   -14981.876     1632.649    80.434735 
    8200    597.08703   -112.44916   0.54025689    -111.9089   -7931.8735     4.326433     4.326433     4.326433   -7931.8735   -11174.749   -11401.906   -1218.9654   -1973.8598    7391.7023   -1583.4126    80.982272 
    8300    225.99328   -112.11649   0.20448347     -111.912    14147.168    4.3173035    4.3173035    4.3173035    14147.168    4398.4981    8808.2534    29234.752    1233.0437   -8824.3264     545.3058    80.470695 
    8400     461.2693   -112.32925   0.41736616   -111.91188   -13192.262    4.3247637    4.3247637    4.3247637   -13192.262   -20063.055   -7850.8769   -11662.854   -365.45875   -9440.4792   -1332.3896     80.88857 
    8500    384.00343    -112.2564   0.34745437   -111.90895    13140.642    4.3185159    4.3185159    4.3185159    13140.642    9025.3594   -2192.6414    32589.209     1599.489    3862.0776   -617.97136    80.538507 
    8600    483.23438   -112.34804   0.43724062    -111.9108   -15840.749    4.3252562    4.3252562    4.3252562   -15840.749   -21547.737   -12263.275   -13711.234    1284.9673   -13347.759    1023.9697    80.916208 
    8700    185.69509    -112.0804   0.16802082   -111.91238    8710.2534    4.3164725    4.3164725    4.3164725    8710.2534    5479.1752    713.90983    19937.675   -434.54121   -9339.0823    2831.4733    80.424236 
    8800    608.07935   -112.45916   0.55020298   -111.90896   -9323.4257    4.3274438    4.3274438    4.3274438   -9323.4257   -12072.128   -22013.874    6115.7247    1754.2277    739.00747    1702.9296    81.039045 
    8900    306.77464   -112.18947   0.27757614   -111.91189    5212.6464    4.3165812    4.3165812    4.3165812    5212.6464   -3673.1979    2700.3749    16610.762   -467.16714   -10960.644   -1262.3558    80.430312 
    9000    366.58237   -112.24431   0.33169143   -111.91262   -5815.1894    4.3236236    4.3236236    4.3236236   -5815.1894   -11471.171   -7003.9853    1029.5879    1136.6722   -8064.4955    2616.3314    80.824614 
    9100    593.11728   -112.44497   0.53666498    -111.9083   -3598.5627    4.3219831    4.3219831    4.3219831   -3598.5627   -3895.0503   -9058.5359    2157.8979   -2012.7982    4834.9145   -956.64401    80.732648 
    9200    195.23408   -112.08817    0.1766519   -111.91152    8515.7691    4.3185645    4.3185645    4.3185645    8515.7691   -8256.7706    7998.1815    25805.896    475.64398   -12583.797    1634.9775    80.541225 
    9300    446.50609   -112.31416    0.4040081   -111.91015   -12117.317    4.3252545    4.3252545    4.3252545   -12117.317    -11060.89    -13924.58   -11366.481   -828.12283   -4904.9558    1520.0135    80.916109 
    9400    322.52356   -112.20065   0.29182609   -111.90883    11748.462    4.3183118    4.3183118    4.3183118    11748.462    1216.9187   -3456.3839    37484.851   -1551.6126    3529.8512   -558.10437    80.527086 
    9500    432.54564   -112.30127   0.39137639   -111.90989   -12354.971    4.3237734    4.3237734    4.3237734   -12354.971   -20324.712   -6616.1151   -10124.086    1031.3047   -15400.987   -25.676991    80.833016 
    9600    356.45603   -112.23283    0.3225289    -111.9103    2564.0512    4.3200528    4.3200528    4.3200528    2564.0512    140.84442    -5495.812    13047.121   -497.91892   -2725.7654    1922.7765    80.624525 
    9700    553.32278   -112.40912   0.50065808   -111.90846    -2639.911    4.3230252    4.3230252    4.3230252    -2639.911   -9040.8935   -9876.0155    10997.176     1520.912   -1075.8629    1017.1775    80.791058 
    9800    385.43008   -112.25942   0.34874523   -111.91068   -492.41272     4.319519     4.319519     4.319519   -492.41272   -7980.4563    -884.7666    7387.9848   -549.38602   -11826.422    758.45053    80.594641 
    9900    326.71586   -112.20601   0.29561937   -111.91039    883.39482    4.3238943    4.3238943    4.3238943    883.39482   -5373.0525   -16003.465    24026.702    1338.6318    90.552536    3892.6942    80.839795 
   10000    498.87708   -112.35957   0.45139447   -111.90817   -6757.7036    4.3204882    4.3204882    4.3204882   -6757.7036   -6519.4808   -13908.318    154.68782    1083.4709    88.169592   -766.54362    80.648902 
   10100    220.97509    -112.1113    0.1999429   -111.91136     1946.241    4.3202715    4.3202715    4.3202715     1946.241   -12711.333    366.26359    18183.792   -55.666597   -11394.368   -153.80629    80.636772 
   10200    519.82391   -112.37991   0.47034759   -111.90956   -8003.3325    4.3254632    4.3254632    4.3254632   -8003.3325   -4754.7994   -9991.4207   -9263.7773    39.359594    503.72847    3020.3863    80.927826 
   10300    368.23592   -112.24299    0.3331876    -111.9098    11517.724    4.3163177    4.3163177    4.3163177    11517.724   -3567.7474    6325.9229    31794.995   -1988.1469   -725.63541     537.1729    80.415582 
   10400    408.42681   -112.28032   0.36955316   -111.91077   -4870.3813    4.3250676    4.3250676    4.3250676   -4870.3813   -10411.811   -311.29892   -3888.0338    376.02711   -10425.466    1426.9417     80.90562 
   10500    420.55204   -112.28908   0.38052432   -111.90855   -832.45625    4.3215618    4.3215618    4.3215618   -832.45625   -1803.1993   -12539.315    11845.145   -2560.0188    1353.8476    3246.2429    80.709039 
   10600     312.6179   -112.19154   0.28286324   -111.90868    2955.7982    4.3183658    4.3183658    4.3183658    2955.7982   -1909.4373   -6808.6236    17585.456   -94.955376   -3516.6696   -1420.8749    80.530108 
   10700    465.19791   -112.33017   0.42092084   -111.90924    -14190.42     4.326768     4.326768     4.326768    -14190.42   -17270.677   -17748.729   -7551.8536    382.10951    -11181.76    994.56569    81.001083 
   10800    288.15809   -112.16994    0.2607315   -111.90921    14714.422    4.3176568    4.3176568    4.3176568    14714.422    12874.167   -3963.4018    35232.501    634.16267    3653.0601    4676.7174    80.490449 
   10900    605.53448   -112.45568   0.54790033   -111.90778   -12116.348    4.3225932    4.3225932    4.3225932   -12116.348   -16394.457   -9714.8457   -10239.742    1017.9546   -2936.4913    599.00668     80.76684 
   11000    263.46881   -112.14912   0.23839212   -111.91073    6884.8839    4.3228797    4.3228797    4.3228797    6884.8839       571.18    845.32647    19238.145   -326.54765   -8049.4012    268.69894      80.7829 
   11100     554.5746   -112.41022   0.50179075   -111.90843    -6572.388    4.3202303    4.3202303    4.3202303    -6572.388   -5097.7847   -12074.157   -2545.2226     1935.736    5651.0791     4283.413     80.63446 
   11200    268.35065    -112.1527   0.24280931   -111.90989    4610.2677    4.3206649    4.3206649    4.3206649    4610.2677   -5000.3185   -1675.7984     20506.92   -1021.7921   -4963.4682   -3009.6589    80.658797 
   11300     400.9247   -112.27234    0.3627651   -111.90958   -4330.0393    4.3247285    4.3247285    4.3247285   -4330.0393   -8856.7295   -8253.7665    4120.3781    413.73951   -4599.4313    2284.0153    80.886593 
   11400    364.19815   -112.23835   0.32953414   -111.90882    6923.6202    4.3179959    4.3179959    4.3179959    6923.6202     6840.165   -4342.7944     18273.49   -2512.1472    1819.6604     5426.878    80.509415 
   11500    364.60026   -112.23963   0.32989798   -111.90973   -2975.5554    4.3223241    4.3223241    4.3223241   -2975.5554   -9210.6498   -4681.3183    4965.3019   -131.39104   -4065.9817   -2918.2299    80.751758 
   11600    525.71547   -112.38448    0.4756784    -111.9088   -9069.7416    4.3241624    4.3241624    4.3241624   -9069.7416    -5099.741   -12342.156   -9767.3279   -128.44425   -5382.5651    3855.2693    80.854834 
   11700    331.59666   -112.21006   0.30003563   -111.91003    9227.8977    4.3173783    4.3173783    4.3173783    9227.8977    1032.6448   -7022.5039    33673.552   -2583.4579    1669.2603    5150.8051    80.474876 
   11800    528.37731   -112.38718    0.4780869    -111.9091   -10841.357     4.323391     4.323391     4.323391   -10841.357   -10935.124   -13523.605   -8065.3421    2051.2649   -2485.5006   -2110.4317    80.811568 
   11900    273.32591   -112.15777   0.24731103   -111.91046    5744.5377    4.3234722    4.3234722    4.3234722    5744.5377   -4123.4592    -6740.361    28097.433   -1005.7972   -6189.8533    4273.9928    80.816124 
   12000    441.24815   -112.30941    0.3992506   -111.91016    1437.5943    4.3156388    4.3156388    4.3156388    1437.5943    4528.1424   -6058.8441    5843.4845      615.781    6863.9947    4985.4884    80.377642 
   12100    374.50066   -112.25056   0.33885606    -111.9117   -8437.6765    4.3277655    4.3277655    4.3277655   -8437.6765   -13432.766    -9638.949   -2241.3149    150.85566   -9426.9775   -4027.5049    81.057118 
   12200    355.17201   -112.23207    0.3213671    -111.9107    9458.2751    4.3167815    4.3167815    4.3167815    9458.2751    929.61584   -154.98451    27600.194    53.817057   -858.59423    2675.7347    80.441507 
   12300    504.23565     -112.366   0.45624301   -111.90975   -5891.4025    4.3221027    4.3221027    4.3221027   -5891.4025   -6317.5906   -8645.9737   -2710.6432    239.05792    -111.1444    3161.9902    80.739348 
   12400     317.2713   -112.19787   0.28707374   -111.91079    614.57075    4.3229071    4.3229071    4.3229071    614.57075    -5336.546   -7838.4376    15018.696   -113.49499   -4299.6963   -5825.9131    80.784436 
   12500    502.05227   -112.36479   0.45426744   -111.91053   -5318.7394    4.3202408    4.3202408    4.3202408   -5318.7394   -2640.7929   -10864.406   -2451.0193   -281.49296   -1099.2086    7303.7134    80.635049 
   12600    335.81859   -112.21747   0.30385572   -111.91362   -8.5634801    4.3191492    4.3191492    4.3191492   -8.5634801     645.4412   -17292.321    16621.189    -3138.303    2850.4286    2803.4327    80.573941 
   12700    340.38676   -112.22311   0.30798909   -111.91512    57.647193    4.3247803    4.3247803    4.3247803    57.647193   -7813.9309   -12794.903    20781.775     618.5811   -2314.1585   -2986.7531    80.889501 
   12800    486.15364   -112.35261   0.43988203   -111.91273   -3434.2478    4.3195149    4.3195149    4.3195149   -3434.2478   -6674.0618   -7464.4648    3835.7834   -2849.8057   -4659.2566    3731.9255    80.594411 
   12900     281.2632   -112.16682   0.25449286   -111.91232    11895.027    4.3158665    4.3158665    4.3158665    11895.027    6432.9535    3457.9059    25794.223   -1965.4678    3171.9211    2050.1352    80.390364 
   13000    542.57139   -112.40084   0.49092999   -111.90991   -17151.156    4.3317286    4.3317286    4.3317286   -17151.156   -20243.423    -14184.61   -17025.436    1315.3666   -8136.0974   -3752.0151    81.280004 
   13100    276.87831   -112.16065   0.25052531   -111.91012    22176.312    4.3073891    4.3073891    4.3073891    22176.312    13638.793     9742.536    43147.606   -882.47945    53.158178    7644.1952     79.91758 
   13200    394.80093   -112.26868   0.35722418   -111.91146   -18391.356    4.3334658    4.3334658    4.3334658   -18391.356   -19284.285   -30104.023   -5785.7593    963.23563   -531.06341    2953.0815    81.377836 
   13300    405.30005   -112.27564     0.366724   -111.90892    5804.3047    4.3102901    4.3102901    4.3102901    5804.3047    5311.9765   -2862.1722     14963.11    959.92831   -5509.5889   -7054.0742     80.07916 
   13400    347.29727   -112.22391   0.31424187   -111.90967   -9230.5244    4.3301072    4.3301072    4.3301072   -9230.5244   -16844.882   -19547.741    8701.0494    434.34829    1161.8861    6584.1463    81.188769 
   13500    530.37449   -112.38786   0.47989399   -111.90797    1468.5653    4.3126789    4.3126789    4.3126789    1468.5653    6061.9045   -2268.5285       612.32   -13.594943    2972.6964    1600.5191    80.212373 
   13600    299.14222    -112.1818   0.27067017   -111.91113    2720.2662    4.3274511    4.3274511    4.3274511    2720.2662   -10719.237   -6384.7543     25264.79   -811.41554   -3834.6431   -3770.4964    81.039455 
   13700    512.65406    -112.3742   0.46386016   -111.91034   -508.23678    4.3160226    4.3160226    4.3160226   -508.23678   -86.976843   -1794.1275    356.39405   -2915.5658    2355.6679    4818.7715    80.399087 
   13800    317.31398   -112.20011   0.28711235     -111.913    200.52846    4.3229025    4.3229025    4.3229025    200.52846   -4747.1486   -10049.549    15398.283   -2159.2749   -829.94701   -1905.1217    80.784177 
   13900    352.20298   -112.22969   0.31868066   -111.91101   -5942.4923    4.3230641    4.3230641    4.3230641   -5942.4923   -8331.0724   -12035.552     2539.147    -1031.637    -6114.858   -7865.8763    80.793241 
   14000    445.66539   -112.31215   0.40324741    -111.9089     2325.351    4.3147422    4.3147422    4.3147422     2325.351   -4681.4887    1206.2345    10451.307   -3760.3092   -437.14191    6094.3323    80.327555 
   14100    361.04359   -112.23518   0.32667983    -111.9085    -3431.103    4.3292655    4.3292655    4.3292655    -3431.103   -4219.3993   -16620.397    10546.487    468.82352   -529.45823   -369.53285    81.141432 
   14200    531.05117   -112.38676   0.48050626   -111.90625    2121.2251    4.3119198    4.3119198    4.3119198    2121.2251    108.94962    611.31541    5643.4103    210.62568    -5004.057   -3887.3187    80.170028 
   14300    330.54333   -112.20737   0.29908255   -111.90829   -4008.5208    4.3279602    4.3279602    4.3279602   -4008.5208   -8715.3606   -15383.238    12073.036   -994.95788    1652.7189     5688.185    81.068057 
   14400    509.62488   -112.36832    0.4611193    -111.9072   -2378.0313    4.3151207    4.3151207    4.3151207   -2378.0313    1577.3043   -6257.6048   -2453.7935     2185.069    1753.6734   -3850.0118    80.348697 
   14500     231.7281   -112.11972   0.20967246   -111.91004   -1633.1772    4.3252398    4.3252398    4.3252398   -1633.1772    -9141.345   -11304.937    15546.751   -1038.9656   -5149.1502   -6073.3899    80.915285 
   14600    473.40397   -112.33648   0.42834586   -111.90814    1212.0497    4.3170521    4.3170521    4.3170521    1212.0497   -7084.6851    3024.5041    7696.3303   -964.22705    6912.2708    6759.3212    80.456637 
   14700    330.34532   -112.20873   0.29890339   -111.90983    1611.8783    4.3239233    4.3239233    4.3239233    1611.8783    1883.0169   -9723.6039    12676.222    653.35573   -2870.8681   -6283.9331    80.841425 
   14800    423.51658   -112.29247    0.3832067   -111.90926   -269.69371    4.3166077    4.3166077    4.3166077   -269.69371   -4876.1857   -1787.4937    5854.5983   -2453.6883   -1532.5195   -3674.6143    80.431792 
   14900    516.35068   -112.37646   0.46720495   -111.90926   -8413.6172    4.3248237    4.3248237    4.3248237   -8413.6172    -7879.203    -11709.88   -5651.7681   -2998.8944     1481.035     2658.095    80.891937 
   15000     330.1808   -112.20881   0.29875453   -111.91005    9602.4709    4.3177898    4.3177898    4.3177898    9602.4709    1837.6194   -4267.0566     31236.85    48.921294   -3203.5866   -4942.1602    80.497889 
   15100    459.08956   -112.32542   0.41539388   -111.91003    -9180.595    4.3224377    4.3224377    4.3224377    -9180.595   -10759.686   -11809.807   -4972.2922   -1933.9414    -2192.777   -1334.9583    80.758123 
   15200    302.08901   -112.18325   0.27333648   -111.90992    11126.884    4.3189755    4.3189755    4.3189755    11126.884   -4974.8723    8032.9857     30322.54   -2730.3566    1728.8032    5646.6602    80.564224 
   15300     454.2505   -112.31997   0.41101539   -111.90896   -6383.2803    4.3227088    4.3227088    4.3227088   -6383.2803   -700.98182   -8747.9911    -9700.868    1196.9122    1352.2802   -2345.3797    80.773322 
   15400    330.27873   -112.20833   0.29884313   -111.90949    919.85202     4.318488     4.318488     4.318488    919.85202   -7449.1043    788.62221    9420.0381   -1239.1978   -4474.2685   -5427.3186    80.536947 
   15500    454.11646   -112.32028   0.41089411   -111.90938    806.79699    4.3224665    4.3224665    4.3224665    806.79699    -4978.495    1041.6984    6357.1876   -1204.7014    6441.3632    4478.7557    80.759739 
   15600    428.97637   -112.29796   0.38814684   -111.90982    301.89451    4.3192226    4.3192226    4.3192226    301.89451   -1719.0953   -10235.127    12859.906    3454.9809   -5134.7486   -9827.6901     80.57805 
   15700    313.93387     -112.195   0.28405397   -111.91094    2690.6208    4.3206128    4.3206128    4.3206128    2690.6208   -5681.1424    6189.9211    7563.0838   -2770.4839    380.12197   -2036.1959    80.655883 
   15800    512.90024   -112.37206   0.46408291   -111.90798   -7246.5243     4.322804     4.322804     4.322804   -7246.5243   -10171.923   -10612.048   -955.60164    -301.4119     2966.486    1183.0719     80.77866 
   15900    235.34527   -112.12252   0.21294535   -111.90958    10937.557    4.3156013    4.3156013    4.3156013    10937.557    8405.7576    2597.0515    21809.862    2499.1651   -2965.9314   -9124.0708    80.375548 
   16000    534.09978   -112.39186   0.48326471   -111.90859   -14018.545    4.3267537    4.3267537    4.3267537   -14018.545   -20714.259   -7964.1849    -13377.19   -4857.9037    204.39328    1006.6333     81.00028 
   16100    286.50179   -112.16834   0.25923284   -111.90911    17393.643    4.3150144    4.3150144    4.3150144    17393.643    5968.6879    10924.626    35287.615   -1333.4212    2754.3786    3076.5048     80.34276 
   16200    523.03592   -112.38165   0.47325389    -111.9084   -12820.805    4.3244722    4.3244722    4.3244722   -12820.805   -11520.449   -12185.267   -14756.699     691.1885   -603.89989   -1477.8782    80.872216 
   16300    312.80127   -112.19251   0.28302916   -111.90948     4295.293    4.3205855    4.3205855    4.3205855     4295.293   -3563.1964    2647.4226    13801.653   -2257.7685    390.10588   -2463.0073    80.654353 
   16400    474.73797   -112.33874   0.42955289   -111.90919   -193.41766     4.317784     4.317784     4.317784   -193.41766   -3418.3078   -8658.1725    11496.227   -867.93535    5645.2004     4217.105    80.497565 
   16500    360.32735   -112.23588   0.32603176   -111.90985   -1032.9017    4.3245155    4.3245155    4.3245155   -1032.9017   -3593.7137    -8687.025    9182.0336    4013.1362   -2934.3739   -11565.905    80.874645 
   16600    397.32692   -112.26822   0.35950975   -111.90871    6645.1209    4.3186087    4.3186087    4.3186087    6645.1209   -6600.0882    8506.9711     18028.48   -2790.8913    228.71877   -814.04633    80.543701 
   16700    426.06762   -112.29445   0.38551493   -111.90893     697.2615    4.3194664    4.3194664    4.3194664     697.2615   -4261.5127   -275.70659    6629.0038     1714.534    811.35451     54.32064    80.591694 
   16800    293.25076   -112.17539   0.26533945   -111.91005   -945.22707    4.3232225    4.3232225    4.3232225   -945.22707    -6431.262    1709.0334    1886.5474    2633.9269   -2898.9372   -7994.2103    80.802124 
   16900    537.99534   -112.39469   0.48678949    -111.9079   -5682.7612    4.3183563    4.3183563    4.3183563   -5682.7612   -4396.2528   -6571.4816   -6080.5491   -6969.5741   -388.96807    3714.6419    80.529574 
   17000    282.51512   -112.16554   0.25562562   -111.90991    6474.3856     4.321023     4.321023     4.321023    6474.3856   -5841.7247   -4411.3608    29676.242    3449.6145    4716.4441   -1374.3018    80.678857 
   17100    518.12075   -112.37764   0.46880654   -111.90883   -7767.8184    4.3220543    4.3220543    4.3220543   -7767.8184   -4443.1171    -11931.23   -6929.1077    257.83826    -1320.413   -613.08983     80.73664 
   17200    335.74758   -112.21358   0.30379147   -111.90979    11511.415    4.3181714    4.3181714    4.3181714    11511.415   -5257.3694    10579.266    29212.349   -2699.1469      3937.62    355.17713    80.519233 
   17300    428.16634   -112.29693    0.3874139   -111.90952   -7527.7108    4.3227523    4.3227523    4.3227523   -7527.7108   -9049.6772   -3708.1372    -9825.318    2761.4077    4653.7219     3559.334     80.77576 
   17400     350.0249   -112.22593   0.31670989   -111.90922   -2389.3922      4.31988      4.31988      4.31988   -2389.3922   -2249.1638    53.989688   -4973.0025    3425.3723   -1633.7418   -10625.308    80.614849 
   17500    402.95377   -112.27341   0.36460104   -111.90881    1500.3767    4.3208464    4.3208464    4.3208464    1500.3767   -2146.3615   -4523.1231    11170.615   -5258.9925    3516.8688   -944.35844    80.668963 
   17600    423.38425   -112.29235   0.38308697   -111.90926   -3238.3231    4.3208315    4.3208315    4.3208315   -3238.3231   -8318.2899   -9020.7343    7624.0548     516.2858   -167.41115   -2244.6986     80.66813 
   17700    346.79796   -112.22379   0.31379009      -111.91    2646.9321    4.3211657    4.3211657    4.3211657    2646.9321    2056.7466   -2635.3872    8519.4368    2058.4657    -994.7575    -8841.791    80.686851 
   17800     548.6571   -112.40439   0.49643647   -111.90796   -3673.8311    4.3198627    4.3198627    4.3198627   -3673.8311   -9994.1559   -3832.9681    2805.6308   -8272.4815   -2912.5028    6931.3665    80.613879 
   17900    286.44919   -112.16873   0.25918525   -111.90954    1586.6404    4.3214906    4.3214906    4.3214906    1586.6404   -4977.4561    4259.5879    5477.7894    5634.2371    3896.8323   -4270.9894    80.705053 
   18000    479.56079   -112.34219   0.43391668   -111.90827   -7199.1558    4.3205617    4.3205617    4.3205617   -7199.1558   -181.42033   -9989.5417   -11426.505   -767.17688    -1053.299   -2444.9845    80.653019 
   18100    274.16886   -112.15727   0.24807374    -111.9092    10288.364    4.3194067    4.3194067    4.3194067    10288.364   -1159.9523    4526.4558     27498.59   -3647.4177    4191.9836    232.18217    80.588355 
   18200    445.54798    -112.3123   0.40314117   -111.90915   -8535.0993    4.3216662    4.3216662    4.3216662   -8535.0993   -3085.5935   -9337.4267   -13182.278    4390.5704    7069.3007    318.83907    80.714888 
   18300      353.853    -112.2301   0.32017363   -111.90992    1043.5185    4.3205943    4.3205943    4.3205943    1043.5185    803.33909   -3975.0854    6302.3018   -353.66537    -195.0602   -7289.0234    80.654846 
   18400    511.31016   -112.37183   0.46264417   -111.90919   -666.34042     4.319067     4.319067     4.319067   -666.34042    -3928.029   -1239.5463    3168.5541   -4945.9555    6386.1855   -516.31716     80.56934 
   18500    401.58213   -112.27329   0.36335995   -111.90993   -2138.1918    4.3225146    4.3225146    4.3225146   -2138.1918   -9158.5713   -943.42452    3687.4204    2852.0891   -1768.6079   -3000.8234    80.762434 
   18600     355.0226   -112.23074   0.32123191   -111.90951    3338.0781    4.3197347    4.3197347    4.3197347    3338.0781    6569.4953   -4429.4634    7874.2025    1659.5665    393.60285   -10521.912    80.606716 
   18700    428.48206   -112.29653   0.38769958   -111.90883   -169.20084    4.3196895    4.3196895    4.3196895   -169.20084   -9902.7039    1205.1207    8189.9807   -8835.7085   -1252.7226    3313.3394    80.604184 
   18800      263.914   -112.14852   0.23879494   -111.90972   -2917.6263    4.3230572    4.3230572    4.3230572   -2917.6263    7177.8191   -4049.3638   -11881.334    6242.7614     1827.785   -6089.9459    80.792853 
   18900     509.7461   -112.36994   0.46122899   -111.90871   -9335.1926    4.3187507    4.3187507    4.3187507   -9335.1926   -6654.3018   -10836.197   -10515.079   -3567.0044   -2132.0418   -345.32704    80.551642 
   19000    343.84659   -112.22029   0.31111962   -111.90917    5309.4891    4.3225608    4.3225608    4.3225608    5309.4891    2600.5179    881.12088    12446.829   -6608.6576    2054.1637    2223.1694    80.765026 
   19100    571.82159   -112.42509   0.51739619   -111.90769   -5857.5824    4.3190735    4.3190735    4.3190735   -5857.5824   -4989.5271   -7695.7959   -4887.4241    6550.1526     6602.394   -2401.2519    80.569708 
   19200    274.13236   -112.15867   0.24804072   -111.91063    7496.1285    4.3221909    4.3221909    4.3221909    7496.1285    6273.4518    704.19426    15510.739   -834.41171   -1681.7265   -5134.3018    80.744292 
   19300    471.74742   -112.33566   0.42684698   -111.90881   -2068.2194    4.3189988    4.3189988    4.3189988   -2068.2194    1260.8716   -3034.1855   -4431.3444   -2784.7843     7927.069   -1104.7148    80.565528 
   19400    248.42746   -112.13483   0.22478239   -111.91005   -766.47285    4.3224444    4.3224444    4.3224444   -766.47285      6596.25    589.01292   -9484.6814    4901.2461    824.95142   -4063.4188      80.7585 
   19500    429.84803   -112.29751   0.38893553   -111.90857   -1909.6117    4.3194383    4.3194383    4.3194383   -1909.6117    9206.7287   -7423.3298   -7512.2341   -620.90331   -399.64626   -7853.2387    80.590124 
   19600      432.612   -112.30003   0.39143643   -111.90859    2851.9405    4.3209728    4.3209728    4.3209728    2851.9405   -112.73633   -3702.5055    12371.063   -9725.8716    109.16929    4411.8755    80.676046 
   19700    437.82141   -112.30528   0.39615002   -111.90913    935.69623    4.3188846    4.3188846    4.3188846    935.69623    11829.573    -4666.214   -4356.2705    6449.9462    579.74558   -7174.3682    80.559138 
   19800    460.83458   -112.32675   0.41697281   -111.90977   -3084.1222    4.3237251    4.3237251    4.3237251   -3084.1222    -3021.876   -10580.483    4349.9926   -5425.2936   -1556.0828    -2324.933    80.830304 
   19900    349.46825   -112.22537   0.31620622   -111.90916    8683.0235    4.3164618    4.3164618    4.3164618    8683.0235    22536.784    4182.2593   -669.97276   -5112.2724   -594.19692    1273.8844    80.423636 
   20000    409.16113   -112.27949   0.37021759   -111.90927   -9026.0586    4.3222342    4.3222342    4.3222342   -9026.0586   -3718.3271   -7023.8474   -16336.001    5769.0183    5451.4846   -4899.3653    80.746718 
   20100    279.94083   -112.16288   0.25329635   -111.90959    5252.4953    4.3212015    4.3212015    4.3212015    5252.4953    20040.088   -4976.9016    694.29923   -3641.7554   -2533.5206   -1129.5097    80.688854 
   20200    521.04196   -112.37963   0.47144972   -111.90818   -503.00098    4.3164475    4.3164475    4.3164475   -503.00098   -940.07197    -4591.908     4022.977   -2896.5114    5563.7919   -255.11975    80.422836 
   20300    349.91918   -112.22755   0.31661423   -111.91094   -4328.8588    4.3250745    4.3250745    4.3250745   -4328.8588    7645.4784   -9877.2675   -10754.787     3510.206    3493.3103    -2426.482    80.906008 
   20400    479.10047    -112.3433   0.43350017    -111.9098   -1028.4733    4.3185178    4.3185178    4.3185178   -1028.4733    7507.5422   -11609.953    1016.9911    566.52513    1185.7963   -4147.9151    80.538612 
   20500    428.49846    -112.2969   0.38771441   -111.90919    3627.9939    4.3173708    4.3173708    4.3173708    3627.9939    4392.6478    5344.4955    1146.8385   -9201.6264    1210.1905    1102.4421    80.474454 
   20600     294.0498   -112.17611   0.26606244   -111.91005   -8215.9233    4.3275117    4.3275117    4.3275117   -8215.9233    5827.1931   -11849.819   -18625.144    7549.1968   -203.80151   -8794.9093    81.042859 
   20700    403.23587   -112.27233   0.36485629   -111.90747    4435.4703    4.3145643    4.3145643    4.3145643    4435.4703    2326.9619    1143.8653    9835.5838   -9522.3924   -2612.4207   -3246.4658    80.317622 
   20800    328.51132    -112.2053   0.29724394   -111.90805     2467.912     4.323309     4.323309     4.323309     2467.912    18520.461   -5134.9373   -5981.7872   -4657.4446   -704.33599    800.33821    80.806972 
   20900    437.61749   -112.30459    0.3959655   -111.90862   -8040.2808    4.3217939    4.3217939    4.3217939   -8040.2808   -2665.1788   -10315.823    -11139.84    4515.3805    1691.3637   -8162.3809    80.722042 
   21000    443.36103   -112.30964   0.40116237   -111.90848    6136.4915     4.318241     4.318241     4.318241    6136.4915    24777.338   -7244.5536    876.69047   -4183.6866    47.025834    2577.4344    80.523126 
   21100    501.35055   -112.36166   0.45363251   -111.90803   -6124.7481     4.322723     4.322723     4.322723   -6124.7481   -5425.4373   -6703.5255   -6245.2814    2301.2241    4926.6472    -521.3615    80.774119 
   21200    312.36191   -112.19205   0.28263162   -111.90942   -3090.1618    4.3201768    4.3201768    4.3201768   -3090.1618    15171.486   -10651.568   -13790.404    1653.6177    2414.6707   -4051.2161    80.631467 
   21300    407.75393   -112.27721   0.36894433   -111.90827    3806.3836    4.3205546    4.3205546    4.3205546    3806.3836    10128.591   -4636.8744     5927.434    713.21788    94.040797   -775.89634    80.652624 
   21400    403.22077   -112.27387   0.36484263   -111.90902      1161.65    4.3188366    4.3188366    4.3188366      1161.65    13266.964   -1251.6588   -8530.3552   -6122.5417    3070.3776   -3157.0064    80.556449 
   21500    265.27773   -112.15129   0.24002887   -111.91126   -206.77113    4.3228931    4.3228931    4.3228931   -206.77113    19245.221   -9066.2864   -10799.248    6966.2213    2161.8958   -7224.7079    80.783653 
   21600    595.99578   -112.44723   0.53926951   -111.90796   -829.80142    4.3185755    4.3185755    4.3185755   -829.80142    2522.8484   -5220.6554    208.40279   -6928.1015   -934.76296    -1383.031     80.54184 
   21700    300.71314   -112.18247   0.27209157   -111.91038    5429.3813    4.3196716    4.3196716    4.3196716    5429.3813    20050.797   -5066.1874    1303.5346    -2358.902    3836.2726   -3514.0079    80.603184 
   21800    489.85313   -112.35304    0.4432294   -111.90981   -14851.404    4.3238736    4.3238736    4.3238736   -14851.404   -6152.1447   -20554.826   -17847.242    2151.4563   -2048.9873   -7835.2009    80.838633 
   21900    340.93179   -112.21695   0.30848224   -111.90847    12846.971    4.3171293    4.3171293    4.3171293    12846.971    29371.923   -2511.6581    11680.647   -4493.8986   -1479.0495     4396.602    80.460952 
   22000    456.67414   -112.32213   0.41320836   -111.90892    -11976.56    4.3222087    4.3222087    4.3222087    -11976.56    -2521.714    -11287.88   -22120.085    1377.4095    2600.6326   -6003.7292     80.74529 
   22100    244.80014   -112.13303   0.22150031   -111.91153       185.09    4.3217441    4.3217441    4.3217441       185.09    20195.556   -7519.3268   -12120.959    4766.6482    3679.3246   -5642.1555    80.719256 
   22200    544.51711   -112.40138   0.49269052   -111.90869    5649.5865    4.3174043    4.3174043    4.3174043    5649.5865    9621.6836    1281.5082    6045.5678    3260.2972     2052.167     3527.664    80.476328 
   22300    351.21479    -112.2291   0.31778652   -111.91131   -4067.6802    4.3244292    4.3244292    4.3244292   -4067.6802    7983.9973   -11303.102   -8883.9361   -3397.5142    3480.2876    -8881.544    80.869802 
   22400    338.49324   -112.21686    0.3062758   -111.91059    5601.9757    4.3173233    4.3173233    4.3173233    5601.9757    18954.941   -4554.3485     2405.335    5898.9687    2976.7425   -2889.3795    80.471801 
   22500    568.80926   -112.42223   0.51467058   -111.90756   -2944.8055    4.3216658    4.3216658    4.3216658   -2944.8055    5163.3266   -10181.209   -3816.5342   -6458.8058   -3827.7385    -598.3075    80.714868 
   22600    197.80064    -112.0906   0.17897418   -111.91162   -218.02812    4.3200565    4.3200565    4.3200565   -218.02812    21496.643   -3324.1388   -18826.589    -648.5395    5912.3165   -8610.4453    80.624732 
   22700    521.00667   -112.38083   0.47141779   -111.90941   -10591.515     4.320453     4.320453     4.320453   -10591.515   -5070.2532    -10539.89   -16164.402    1325.9784   -2627.1593    -3222.509    80.646935 
   22800     353.0548    -112.2281   0.31945141   -111.90865    12413.341    4.3208588    4.3208588    4.3208588    12413.341    30110.177   -217.49952     7347.346   -229.85103    528.79066   -1384.3708    80.669661 
   22900    450.46703   -112.31754   0.40759203   -111.90995   -9688.7886    4.3195113    4.3195113    4.3195113   -9688.7886    -1733.343   -12129.627   -15203.396   -173.69006    2438.8516   -11345.811    80.594209 
   23000    295.56882   -112.17815   0.26743688   -111.91072      7626.66    4.3213547    4.3213547    4.3213547      7626.66    23420.559   -5937.6769    5397.0977    4400.4354    1848.8502   -1351.5111    80.697438 
   23100    569.38455   -112.42315    0.5151911   -111.90796   -4851.6465    4.3198997    4.3198997    4.3198997   -4851.6465     1863.129   -6956.1946   -9461.8739     2467.415    60.712414    840.54511    80.615955 
   23200    220.74744    -112.1114   0.19973692   -111.91166   -2379.4854    4.3198648    4.3198648    4.3198648   -2379.4854    13738.872   -2011.8616   -18865.466   -1681.0333    5155.1508   -12353.143    80.613999 
   23300    462.52697    -112.3286   0.41850412    -111.9101   -2328.6983    4.3224182    4.3224182    4.3224182   -2328.6983    14470.919   -8997.3376   -12459.676    7425.9629    3708.4781    4436.8059    80.757034 
   23400    477.36014    -112.3414   0.43192549   -111.90947    1863.5181    4.3192516    4.3192516    4.3192516    1863.5181    11207.043   -4389.4489   -1227.0397   -3429.6111   -2402.6908   -2890.5171    80.579672 
   23500    269.05412   -112.15525   0.24344582    -111.9118   -2171.9245    4.3212966    4.3212966    4.3212966   -2171.9245    22182.529   -13756.978   -14941.324    1120.7013    4856.9872   -11370.587    80.694182 
   23600    554.44438   -112.41008   0.50167293    -111.9084   -5413.9845    4.3216687    4.3216687    4.3216687   -5413.9845    -6542.662   -11190.457    1491.1659   -856.79349   -5276.9159    1627.6851    80.715027 
   23700    316.73068    -112.1958   0.28658457   -111.90922     7333.381    4.3190963    4.3190963    4.3190963     7333.381    30193.703   -1966.1752   -6227.3847    711.15501    1012.8104   -9516.5494    80.570985 
   23800     374.0346   -112.24812   0.33843436   -111.90969    -9253.611    4.3228514    4.3228514    4.3228514    -9253.611   -2865.7606   -4300.0545   -20595.018    -1675.389    736.62176   -9107.7587    80.781314 
   23900    361.73647    -112.2353   0.32730676     -111.908     9216.285    4.3199716    4.3199716    4.3199716     9216.285    27010.994    2525.9399   -1888.0788    7187.3733    2705.5747       110.71     80.61998 
   24000    452.06338   -112.31772   0.40903645   -111.90869    -4766.395    4.3206664    4.3206664    4.3206664    -4766.395    1937.8681   -6240.8149   -9996.2382    1727.1616    678.81438   -7457.1178    80.658883 
   24100    325.68402   -112.20434   0.29468575   -111.90966   -4360.4794    4.3207444    4.3207444    4.3207444   -4360.4794    12132.823    -10797.52   -14416.741    250.55452    4051.6657   -5467.6452    80.663252 
   24200    511.57262   -112.37065   0.46288166   -111.90777   -2378.9723     4.321571     4.321571     4.321571   -2378.9723    8721.7135   -13266.277   -2592.3533    7465.8864     3741.811    4558.7407    80.709554 
   24300    409.42882   -112.27973    0.3704598   -111.90927   -2075.3254    4.3193796    4.3193796    4.3193796   -2075.3254    14299.231   -9059.6889   -11465.519   -2873.9891   -1685.7987   -8813.0977    80.586839 
   24400    301.44044   -112.18301   0.27274965   -111.91026   -1060.7186    4.3218008    4.3218008    4.3218008   -1060.7186    15645.138   -5252.4624   -13574.832    3936.5434    8418.7825   -5787.8015     80.72243 
   24500    510.14185   -112.36906   0.46158707   -111.90747   -2602.6601    4.3211745    4.3211745    4.3211745   -2602.6601   -4113.6168   -975.08137    -2719.282   -656.80242   -4499.3397    2174.4607    80.687344 
   24600     254.2511   -112.13991   0.23005174   -111.90986    5349.1479    4.3191221    4.3191221    4.3191221    5349.1479    24626.006   -1123.7043   -7454.8579   -423.60986     2356.158   -14273.536    80.572428 
   24700    472.16422   -112.33589   0.42722411   -111.90867   -9292.6173    4.3228803    4.3228803    4.3228803   -9292.6173   -8479.1324   -5949.3777   -13449.342   -2699.8687    28.946261   -3160.4917    80.782935 
   24800    335.91528   -112.21219   0.30394321   -111.90824    6581.0838    4.3206531    4.3206531    4.3206531    6581.0838    28897.436   -8917.6139   -236.57057    6756.3687   -164.98237   -1734.6039    80.658141 
   24900    457.12439   -112.32208   0.41361575   -111.90847   -4047.5514    4.3185219    4.3185219    4.3185219   -4047.5514    3838.6904    -4848.344       -11133   -897.89141   -663.78111   -10277.643    80.538844 
   25000    385.10055   -112.25683   0.34844707   -111.90839   -3818.3895    4.3244012    4.3244012    4.3244012   -3818.3895    12768.385   -11838.829   -12384.725    3252.2625    5100.6748    1547.2811    80.868232 
   25100    439.49515   -112.30586   0.39766445   -111.90819    1287.8903    4.3175181    4.3175181    4.3175181    1287.8903    8461.4141   -2914.9608   -1682.7823    7015.9302    2660.4414   -2874.4475    80.482695 
   25200    419.95042   -112.28973   0.37997997   -111.90976    -4557.637    4.3220693    4.3220693    4.3220693    -4557.637     9970.031   -6461.4321    -17181.51   -3156.2462    741.73115   -6473.6088    80.737481 
   25300     342.1508   -112.22015   0.30958524   -111.91056    6046.4493    4.3193837    4.3193837    4.3193837    6046.4493     18124.99    5877.0831   -5862.7251    2842.4852    6703.7114    1533.4793    80.587071 
   25400    477.45518     -112.342   0.43201148   -111.90999   -5796.6015    4.3215972    4.3215972    4.3215972   -5796.6015   -773.87994   -7965.1902   -8650.7344    228.68464   -4502.7615    -3365.283    80.711024 
   25500     279.6457   -112.16329    0.2530293   -111.91026    6769.0498    4.3186217    4.3186217    4.3186217    6769.0498    22840.322     2794.724   -5327.8962    1053.7191    2505.9649   -8823.3264    80.544425 
   25600    526.45894   -112.38486   0.47635111   -111.90851   -10188.588    4.3219762    4.3219762    4.3219762   -10188.588   -10591.586   -11152.826   -8821.3529   -3245.4745    1163.6842    3094.3393    80.732262 
   25700    279.27937   -112.16272   0.25269784   -111.91002     4798.315    4.3200669    4.3200669    4.3200669     4798.315    23318.413   -6591.0392   -2332.4288    5964.8711    595.88267   -5230.6535    80.625313 
   25800    504.68781   -112.36539   0.45665214   -111.90874   -1461.7437    4.3187489    4.3187489    4.3187489   -1461.7437    883.31506    8231.2089   -13499.755   -3082.0494   -1270.6512   -8069.3423    80.551542 
   25900    369.95941   -112.24382   0.33474705   -111.90907    1686.1055    4.3233191    4.3233191    4.3233191    1686.1055    13247.361    963.63581   -9152.6801    4347.2118    5871.5474    2361.9145    80.807537 
   26000    379.16722   -112.25197   0.34307847   -111.90889    1114.9796     4.318466     4.318466     4.318466    1114.9796    1402.9022    8507.3364   -6565.2998    8170.2627   -610.04981   -7719.2181    80.535711 
   26100    433.95315   -112.30032   0.39264993   -111.90767    -3191.563    4.3219581    4.3219581    4.3219581    -3191.563    7313.0625   -7549.9394   -9337.8121   -2522.2581    3797.1627   -4763.4392    80.731248 
   26200    354.60623   -112.22936   0.32085517    -111.9085    2361.5781    4.3194086    4.3194086    4.3194086    2361.5781    9845.0024   -2380.4539    -379.8141    5298.0915    6706.3893    2303.4295    80.588464 
   26300    440.50135   -112.30709   0.39857488   -111.90851   -5736.7402    4.3225294    4.3225294    4.3225294   -5736.7402    2485.4271   -13229.825   -6465.8223   -485.58217   -1153.6742   -4877.2516    80.763264 
   26400    344.94545   -112.22117   0.31211389   -111.90906    12522.068    4.3179376    4.3179376    4.3179376    12522.068    23651.492    16137.777   -2223.0666    379.34031    3167.1776   -586.74203    80.506157 
   26500    502.33797   -112.36378   0.45452595   -111.90925   -7113.9771    4.3228358    4.3228358    4.3228358   -7113.9771   -10033.178   -1327.5473   -9981.2064   -1443.0708   -626.11974    3632.1407     80.78044 
   26600    245.13007   -112.13187   0.22179884   -111.91007    8517.5074    4.3188181    4.3188181    4.3188181    8517.5074     20003.47    9302.5863   -3753.5338    5580.5221   -361.10973   -7526.4919    80.555413 
   26700    545.48744   -112.40136    0.4935685   -111.90779   -8299.2185     4.321381     4.321381     4.321381   -8299.2185   -6468.1027   -10925.167   -7504.3862   -3462.5335   -1612.3073   -2251.7806    80.698909 
   26800    289.61847   -112.17141   0.26205288   -111.90936    3324.4508    4.3199947    4.3199947    4.3199947    3324.4508    20099.093   -6472.5592   -3653.1818    2344.0201    5370.5151    147.67724     80.62127 
   26900    461.14526    -112.3267   0.41725392   -111.90944   -3393.1875    4.3205419    4.3205419    4.3205419   -3393.1875    187.15126   -4062.4912   -6304.2226    7047.8883   -2350.5165   -8836.7151     80.65191 
   27000    409.78756   -112.27953   0.37078439   -111.90875    5275.6278    4.3203886    4.3203886    4.3203886    5275.6278    14513.279    8507.4626   -7193.8578   -2882.5028    5107.4032   -950.37571    80.643328 
   27100    375.90105   -112.24951   0.34012317   -111.90939   -1769.4061    4.3207119    4.3207119    4.3207119   -1769.4061   -5235.2482    6496.4236   -6569.3937    5875.4861    4919.8767    2149.3359    80.661434 
   27200    435.76539   -112.30286   0.39428968   -111.90857   -4099.0577    4.3203671    4.3203671    4.3203671   -4099.0577    1945.5591   -6549.4524   -7693.2798   -115.03276   -1677.7821   -5431.8925    80.642124 
   27300    341.20569   -112.21738   0.30873008   -111.90865    3253.7753    4.3201675    4.3201675    4.3201675    3253.7753    7748.2437    -162.7713    2175.8535   -1085.2401    7847.5363    -36.08879    80.630944 
   27400     447.2091   -112.31339    0.4046442   -111.90875   -9192.8898    4.3214072    4.3214072    4.3214072   -9192.8898   -995.54611   -15683.838   -10899.286   -2454.9867   -424.40003    551.73816    80.700381 
   27500    286.35485   -112.16906   0.25909989   -111.90996    9318.4629    4.3185696    4.3185696    4.3185696    9318.4629    15111.977    11740.035     1103.377    4565.0299    528.23609   -7635.3902    80.541513 
   27600    569.85138   -112.42418    0.5156135   -111.90857   -9674.3216    4.3221014    4.3221014    4.3221014   -9674.3216   -8046.4491   -5275.2893   -15701.227   -2502.6729    1386.7515    1884.8628    80.739275 
   27700    253.11874    -112.1395   0.22902716   -111.91048    4227.3737    4.3204502    4.3204502    4.3204502    4227.3737    8882.6123    10104.287   -6304.7784    2314.7623    2644.0536   -702.66005    80.646776 
   27800    578.66321   -112.43149   0.52358663   -111.90791   -6002.2557    4.3185268    4.3185268    4.3185268   -6002.2557   -4945.4127   -8040.0785   -5021.2761    6583.2267   -2821.7614   -4537.7817    80.539117 
   27900    248.86231   -112.13498   0.22517585    -111.9098    5342.0352    4.3233321    4.3233321    4.3233321    5342.0352    15916.352    1309.0685   -1199.3153   -5113.1486    7682.5129    1473.4922    80.808265 
   28000     424.4263    -112.2932   0.38402984   -111.90917   -4108.5288    4.3182655    4.3182655    4.3182655   -4108.5288     -7019.83    -304.1785   -5001.5779    7278.0026    4756.1873   -2257.0193    80.524498 
   28100    363.61677   -112.23829   0.32900809   -111.90928    6129.3144    4.3207236    4.3207236    4.3207236    6129.3144    9563.7988    9220.5743   -396.42994   -334.83255   -713.05499   -4671.5257     80.66209 
   28200    433.13839   -112.30083   0.39191272   -111.90892   -4580.2207    4.3220832    4.3220832    4.3220832   -4580.2207   -3356.0902    2853.6052   -13238.177   -1143.8201     10274.67   -522.17846    80.738257 
   28300    428.65346   -112.29666   0.38785466   -111.90881   -1401.1414    4.3185882    4.3185882    4.3185882   -1401.1414    3723.1737   -304.27575   -7622.3221   -1833.6879   -1710.3626    1732.9033    80.542552 
   28400    452.15931   -112.31698   0.40912325   -111.90786    2984.8039    4.3215938    4.3215938    4.3215938    2984.8039    10061.248    4804.5336   -5911.3703   -75.980225    2098.9926   -4055.5517    80.710835 
   28500    408.48814   -112.27857   0.36960865   -111.90896   -4744.5392    4.3207378    4.3207378    4.3207378   -4744.5392    340.04489   -4739.8901   -9833.7725    -3356.184    4378.4457    3320.9385     80.66288 
   28600    261.18806   -112.14631   0.23632845   -111.90998    5054.2338    4.3197076    4.3197076    4.3197076    5054.2338    1127.4672    16879.036   -2843.8017    752.59947   -56.846602   -1059.9785    80.605197 
   28700    552.07381   -112.40756   0.49952798   -111.90803   -6923.9283    4.3212532    4.3212532    4.3212532   -6923.9283   -5928.3957   -5671.1206   -9172.2687    6837.7179    681.37252   -3108.7441     80.69175 
   28800     201.8361   -112.09442   0.18262554   -111.91179    5822.3971    4.3190485    4.3190485    4.3190485    5822.3971    8795.7772    13849.467   -5178.0527   -5759.9159    7571.0051    806.90202    80.568305 
   28900    597.77558   -112.45001   0.54087991   -111.90913   -8037.2281    4.3204968    4.3204968    4.3204968   -8037.2281   -6111.8422   -7594.7482   -10405.094     5378.747   -517.62712   -1712.6416    80.649383 
   29000    347.77163   -112.22393   0.31467108   -111.90926    8170.2719    4.3219928    4.3219928    4.3219928    8170.2719    17173.174    10411.674   -3074.0325   -1662.7342     3124.427     1105.937    80.733189 
   29100     415.4068   -112.28542    0.3758688   -111.90955   -7141.7914    4.3168609    4.3168609    4.3168609   -7141.7914     -15355.7    4903.0018   -10972.676   -2658.0539    10872.269    -467.8106    80.445947 
   29200    316.24755   -112.19596   0.28614743   -111.90981   -564.98952    4.3240217    4.3240217    4.3240217   -564.98952   -2404.3613    6999.0859   -6289.6932   -1300.6316   -3157.7067    3173.0399    80.846941 
   29300    469.30373   -112.33312   0.42463588   -111.90849   -857.94219    4.3175815    4.3175815    4.3175815   -857.94219    376.63545    5476.5335   -8426.9956   -2346.1297    7592.1346   -3443.4934    80.486239 
   29400    324.56419   -112.20494    0.2936725   -111.91127   -2943.0637    4.3201669    4.3201669    4.3201669   -2943.0637    1062.4409   -1781.8143   -8109.8178   -4907.2733    5798.9454    2230.9097    80.630914 
   29500    462.75816   -112.32832   0.41871331   -111.90961    1000.8819    4.3235856    4.3235856    4.3235856    1000.8819    8012.6437    3525.3991   -8535.3971   -2908.7046    -4833.897    783.24441    80.822483 
   29600    517.88003   -112.37651   0.46858874   -111.90792     1545.006     4.316692     4.316692     4.316692     1545.006    3136.5182    3565.8734   -2067.3737    4375.4181    4777.5983   -2000.7059    80.436502 
   29700    204.02595   -112.09542   0.18460697   -111.91081   -351.62609    4.3221749    4.3221749    4.3221749   -351.62609   -5841.1166    15234.616   -10448.378   -6403.8216    3901.9782     4343.226    80.743397 
   29800    507.79538   -112.36713   0.45946393   -111.90766    -6726.456    4.3212301    4.3212301    4.3212301    -6726.456   -8824.1185   -4476.8576   -6878.3919    6898.2471   -4140.3659   -457.89028    80.690458 
   29900    296.60709   -112.17706   0.26837633   -111.90868    9146.3826    4.3174015    4.3174015    4.3174015    9146.3826    18753.452    15624.564   -6938.8686   -1226.0597    8074.1686    1748.1738    80.476171 
   30000    427.62072   -112.29715   0.38692022   -111.91023   -11638.234    4.3234879    4.3234879    4.3234879   -11638.234   -12386.306   -10699.199   -11829.196   -5163.6697    5019.9992   -1641.8226    80.817004 
   30100    433.43132   -112.30044   0.39217777   -111.90826    8814.9927     4.318254     4.318254     4.318254    8814.9927    17610.178    13912.036   -5077.2364    123.80455   -2516.9813    5092.5936    80.523854 
   30200    522.71758   -112.38097   0.47296586   -111.90801   -4110.6605    4.3208374    4.3208374    4.3208374   -4110.6605   -7583.5941      1195.43   -5943.8175   -3492.1876    9117.1421   -1450.6994    80.668462 
   30300    253.56012   -112.14012   0.22942652    -111.9107   -2153.1319    4.3207266    4.3207266    4.3207266   -2153.1319   -6515.5969    10186.231    -10130.03   -4296.2097    1288.5352    3660.9438    80.662253 
   30400    427.50925   -112.29571   0.38681935   -111.90889    132.03678    4.3191613    4.3191613    4.3191613    132.03678   -451.34872    3462.2294   -2614.7703   -4813.8716   -1578.3287    5246.7226    80.574621 
   30500    392.06414   -112.26419   0.35474787   -111.90945    290.73919    4.3205433    4.3205433    4.3205433    290.73919    8323.2452    2861.5659   -10312.594    2623.2978     5994.053   -2632.1591    80.651992 
   30600    299.31837    -112.1817   0.27082955   -111.91087   -1550.2252    4.3210177    4.3210177    4.3210177   -1550.2252   -9002.2512    7884.8001   -3533.2245   -7034.0535    1005.5791    4048.4163    80.678557 
   30700    570.88633   -112.42461   0.51654995   -111.90806   -3142.0029    4.3197045    4.3197045    4.3197045   -3142.0029     3503.604   -1810.0721   -11119.541    4454.5668   -4602.5046   -1232.4437    80.605023 
   30800    358.16751   -112.23323   0.32407749   -111.90916    3359.2403    4.3209829    4.3209829    4.3209829    3359.2403   -2591.5126     17069.57    -4400.336      1811.06    8019.2503    852.38783    80.676609 
   30900    438.93509    -112.3064    0.3971577   -111.90924    -10228.14    4.3201671    4.3201671    4.3201671    -10228.14   -16928.045   -1634.9621   -12121.414   -4819.0059   -1410.0617    939.61117    80.630923 
   31000    294.05799   -112.17471   0.26606985   -111.90864    7014.2752    4.3209232    4.3209232    4.3209232    7014.2752    10055.182    14501.735   -3514.0912   -640.24911   -1301.8846    4950.8779    80.673264 
   31100    492.72697   -112.35375   0.44582972   -111.90792   -6010.9481    4.3194127    4.3194127    4.3194127   -6010.9481   -11216.841    1472.3617   -8288.3649    -4674.892    11162.978   -1336.1616    80.588692 
   31200    226.22002   -112.11532   0.20468863   -111.91063    2889.3186    4.3213299    4.3213299    4.3213299    2889.3186   -4769.6167    13136.179    301.39375   -5499.3231   -2635.8236    3298.3239    80.696047 
   31300     570.4394   -112.42399   0.51614556   -111.90785   -5438.1547    4.3198756    4.3198756    4.3198756   -5438.1547   -3296.2128    -4399.195   -8619.0563   -3872.0425    4022.9055    4594.1981    80.614604 
   31400    370.53678   -112.24486   0.33526946   -111.90959    2937.7152    4.3200591    4.3200591    4.3200591    2937.7152    201.86368    12969.968   -4358.6863    703.00592    4637.3443   -3628.2511    80.624876 
   31500    411.53532   -112.28192    0.3723658   -111.90956   -6531.5365    4.3207987    4.3207987    4.3207987   -6531.5365   -12628.816    1273.6644   -8239.4578   -6833.5097   -2851.1684    6701.4043    80.666295 
   31600    411.86713   -112.28138   0.37266603   -111.90872    1120.7521    4.3199217    4.3199217    4.3199217    1120.7521    9548.3153    1995.5972   -8181.6562     2709.205    431.18805    680.22459    80.617186 
   31700    355.98418    -112.2315   0.32210197    -111.9094    1776.0944    4.3190937    4.3190937    4.3190937    1776.0944   -13326.715     16059.37    2595.6281    436.02817    2974.3506   -1775.6216    80.570838 
   31800    361.99174    -112.2375   0.32753773   -111.90996   -6730.6725    4.3221416    4.3221416    4.3221416   -6730.6725   -8405.9522   -5878.8758   -5907.1895   -4627.0924   -1150.2529    1327.2136     80.74153 
   31900    368.26319   -112.24243   0.33321227   -111.90922    5083.0068    4.3190835    4.3190835    4.3190835    5083.0068     3516.802    9914.7558    1817.4625    3265.4063    340.81135    424.94608    80.570268 
   32000    531.73253   -112.38937   0.48112276   -111.90825   -4813.8433    4.3200463    4.3200463    4.3200463   -4813.8433   -3248.9084   -1164.2844   -10028.337   -3320.4965    6237.8713   -2997.2623    80.624157 
   32100     294.8886   -112.17676    0.2668214   -111.90994    1231.3582    4.3220802    4.3220802    4.3220802    1231.3582   -1857.7224    8596.7184   -3044.9214   -9047.7942   -4668.6031    4015.1758    80.738088 
   32200    545.64707   -112.40089   0.49371293   -111.90718   -5284.2884    4.3191019    4.3191019    4.3191019   -5284.2884    262.84858   -3607.5528   -12508.161   -2562.1301    5369.9831    4577.6532    80.571298 
   32300    280.95049   -112.16373    0.2542099   -111.90952    5726.2329    4.3196237    4.3196237    4.3196237    5726.2329   -9957.4059    20622.142    6513.9623    -1903.002    3409.9885   -2262.6683      80.6005 
   32400    412.64892   -112.28279   0.37337342   -111.90942   -8266.7998    4.3215544    4.3215544    4.3215544   -8266.7998   -10719.976   -5710.3607   -8370.0624   -7515.0762   -2895.6425    6110.6822    80.708625 
   32500     355.0619   -112.23021   0.32126747   -111.90894    6134.8232    4.3201312    4.3201312    4.3201312    6134.8232    6612.9851    8136.4452    3655.0391    4438.8448    5320.6922    719.06487    80.628913 
   32600    493.39618   -112.35477   0.44643523   -111.90833    852.89683    4.3184588    4.3184588    4.3184588    852.89683    673.31603    10150.325   -8264.9502   -1228.2329   -963.93874   -2298.7458    80.535312 
   32700    351.46572   -112.22775   0.31801357   -111.90974   -808.89917    4.3226486    4.3226486    4.3226486   -808.89917    660.84055   -373.47437   -2714.0637   -5434.5288   -1551.9424    3962.7709    80.769948 
   32800    460.62696    -112.3252   0.41678495   -111.90841    2437.3192    4.3178349    4.3178349    4.3178349    2437.3192   -1005.5613    17309.206    -8991.687    2312.3228   -288.08548   -569.30232    80.500414 
   32900    367.40147   -112.24171   0.33243257   -111.90928    239.72778    4.3207173    4.3207173    4.3207173    239.72778   -9195.9354    5966.8901    3948.2286   -1015.3755    1362.4545   -4437.2184    80.661736 
   33000    346.74619   -112.22301   0.31374324   -111.90927   -2827.8767    4.3214411    4.3214411    4.3214411   -2827.8767   -12165.471    8612.5555   -4930.7152   -5876.8699   -3231.3246    2256.5354     80.70228 
   33100    429.60493   -112.29642   0.38871557    -111.9077    4240.5944    4.3195376    4.3195376    4.3195376    4240.5944    14129.391   -3785.0804    2377.4728    382.02542    5347.6024     1144.701    80.595682 
   33200    410.80089   -112.28013   0.37170128   -111.90843    3331.5747     4.319751     4.319751     4.319751    3331.5747   -4359.0061    19608.391   -5254.6607   -4973.6936    2626.6812   -639.42231    80.607629 
   33300     379.5426   -112.25263   0.34341812   -111.90921   -2345.4359    4.3217159    4.3217159    4.3217159   -2345.4359    2071.3286   -5511.0631    -3596.573   -10141.394   -2889.7332    5300.0046    80.717675 
   33400    446.17049   -112.31163   0.40370443   -111.90792    2749.1465    4.3189844    4.3189844    4.3189844    2749.1465    -1828.034    16277.136   -6201.6629    1658.5943     7623.158    4164.0619    80.564723 
   33500    361.17918   -112.23535   0.32680251   -111.90855   -2646.7101    4.3223533    4.3223533    4.3223533   -2646.7101   -13741.589    4681.6623    1119.7961    -5267.445   -4297.6252   -1562.2705    80.753393 
   33600    399.16329   -112.26945   0.36117133   -111.90828   -3292.6888    4.3185641    4.3185641    4.3185641   -3292.6888   -6138.4148   -850.93432   -2888.7172   -2380.0305   -719.26557    3619.0736    80.541205 
   33700    418.41871   -112.28687   0.37859405   -111.90827    3123.7216    4.3217238    4.3217238    4.3217238    3123.7216    7429.1525    6458.9896   -4516.9774    3793.9189    2535.1699    543.18486     80.71812 
   33800    428.62649   -112.29676   0.38783025   -111.90893   -2499.9633    4.3193647    4.3193647    4.3193647   -2499.9633   -7913.0089    1610.2789   -1197.1598   -3834.3269   -3913.8029   -2551.3595    80.586002 
   33900    335.33627   -112.21342    0.3034193      -111.91   -2052.5737    4.3199116    4.3199116    4.3199116   -2052.5737   -237.01768   -190.96282   -5729.7405   -6931.1668   -2334.9395    3198.0445    80.616616 
   34000    449.08326   -112.31505   0.40633997   -111.90871   -1164.9447    4.3215331    4.3215331    4.3215331   -1164.9447   -3137.2937   -280.45204   -77.088387    1252.6597    1716.9507   -1528.0407    80.707432 
   34100    372.96046   -112.24678   0.33746247   -111.90932    -962.7788    4.3187359    4.3187359    4.3187359    -962.7788   -12977.439    10093.197   -4.0947546   -6628.6283    129.15822   -932.61604    80.550813 
   34200    366.96913   -112.24182   0.33204138   -111.90978   -2178.5693    4.3209563    4.3209563    4.3209563   -2178.5693    2227.1436    -9362.159    599.30751   -8083.4572   -3611.9155    1874.2649     80.67512 
   34300    501.55657    -112.3619   0.45381892   -111.90808   -1454.1503    4.3208269    4.3208269    4.3208269   -1454.1503   -3924.2114    7845.3877   -8283.6271    2894.1737    9879.1317    3323.6989    80.667872 
   34400    307.59427   -112.18805   0.27831776   -111.90973    2810.8159    4.3185046    4.3185046    4.3185046    2810.8159   -91.384949   -2423.0921    10946.925   -8907.9481   -3260.9111    796.37603    80.537872 
   34500     454.9181   -112.32095   0.41161946   -111.90933    -9922.175    4.3225759    4.3225759    4.3225759    -9922.175   -8957.5642   -8588.5811    -12220.38   -2149.2791    235.28945    6490.3545    80.765871 
   34600    306.61712   -112.18611   0.27743361   -111.90867    8494.2766    4.3199809    4.3199809    4.3199809    8494.2766    4469.7101     7971.382    13041.738    2300.9496    5257.5313    3387.9016      80.6205 
   34700    475.63685   -112.33835   0.43036622   -111.90798   -7584.6954    4.3188583    4.3188583    4.3188583   -7584.6954   -14404.852    1269.6673   -9618.9017   -4483.6569   -9209.8062   -2466.7684    80.557666 
   34800    294.80491    -112.1764   0.26674568   -111.90965   -133.90418     4.323127     4.323127     4.323127   -133.90418    4874.1788    -4967.355   -308.53639    357.62341    1133.5196    3804.7676     80.79677 
   34900    570.91405    -112.4237   0.51657503   -111.90713   -5363.1651    4.3190021    4.3190021    4.3190021   -5363.1651   -8738.1272   -538.86095   -6812.5072    2905.5524   -580.85111   -1367.9581    80.565713 
   35000    323.08979   -112.20146   0.29233843   -111.90912    2436.4996    4.3201261    4.3201261    4.3201261    2436.4996   -54.910252   -5129.5112     12493.92   -7075.3515   -2157.9941   -1803.4346    80.628626 
   35100     460.9002   -112.32587   0.41703219   -111.90884   -6914.9237    4.3225605    4.3225605    4.3225605   -6914.9237   -5270.5607   -9681.9872   -5792.2231   -5126.4593   -733.09535    763.57778    80.765007 
   35200    316.59983   -112.19566   0.28646618    -111.9092    10352.059    4.3176702    4.3176702    4.3176702    10352.059    5237.2526    12179.154     13639.77    712.91855    6559.1955    3181.9891    80.491202 
   35300    401.92367   -112.27262   0.36366899   -111.90895   -3608.5458    4.3209621    4.3209621    4.3209621   -3608.5458   -2163.9637   -847.00129   -7814.6723   -8703.6513   -2804.1545   -1145.8811    80.675448 
   35400    339.55292   -112.21689   0.30723462   -111.90965    -3507.725     4.322875     4.322875     4.322875    -3507.725   -2058.8272   -1465.7763   -6998.5714    819.17701     430.1273    4496.8485    80.782638 
   35500    455.10285   -112.32034   0.41178662   -111.90855    4720.3904    4.3157444    4.3157444    4.3157444    4720.3904    3833.5881   -907.68625    11235.269    3119.6898     8220.454    5702.2288    80.383541 
   35600    509.28607   -112.36937   0.46081273   -111.90856   -5990.0473    4.3242109    4.3242109    4.3242109   -5990.0473   -9709.6099   -7420.5247   -840.00722   -3413.1036    -10414.58   -764.16009    80.857554 
   35700    332.94136   -112.21074   0.30125234   -111.90949    5226.8761    4.3193432    4.3193432    4.3193432    5226.8761    8750.6008   -5627.1731      12557.2    1093.0118    3794.0947    4943.2405    80.584799 
   35800    485.95092    -112.3479    0.4396986   -111.90821   -1924.3107      4.31804      4.31804      4.31804   -1924.3107   -3800.2214    1812.9372   -3785.6479    1164.3175   -1961.1716   -506.18082    80.511882 
   35900    239.77028   -112.12652   0.21694919   -111.90957    4159.6029    4.3235142    4.3235142    4.3235142    4159.6029    8972.1685     1200.113    2306.5272    -3817.552   -5664.0405    -1699.236    80.818478 
   36000     470.2049   -112.33402   0.42545127   -111.90857   -8438.5066    4.3185647    4.3185647    4.3185647   -8438.5066   -8018.5984   -5668.9987   -11627.923   -748.32015    3352.6066    368.76464    80.541237 
   36100     253.3596   -112.13964   0.22924509    -111.9104    11825.597    4.3188722    4.3188722    4.3188722    11825.597    10278.507    5874.2851    19323.998    2266.8582    2029.2777    2239.2845    80.558441 
   36200    626.86151   -112.47474   0.56719747   -111.90754   -10318.663    4.3237305    4.3237305    4.3237305   -10318.663   -12202.573   -8791.5812   -9961.8338   -4855.7361   -146.10944   -759.23212    80.830611 
   36300    309.12382   -112.18965   0.27970173   -111.90995    7369.8765     4.316454     4.316454     4.316454    7369.8765    11164.267   -3342.4778    14287.841    1538.0792    1715.1403    5580.6341    80.423202 
   36400    474.83032   -112.33897   0.42963645   -111.90933    -7712.835    4.3220391    4.3220391    4.3220391    -7712.835   -4337.8227   -9175.6027   -9625.0796   -441.20947    6979.7604    3823.7386    80.735784 
   36500    358.84311    -112.2333   0.32468879   -111.90861    1237.5014    4.3213079    4.3213079    4.3213079    1237.5014    6992.6422   -3685.4451    405.30721   -3079.5792   -8944.7843   -1506.8226    80.694813 
   36600    346.24929   -112.22288   0.31329364   -111.90958    935.12047    4.3167997    4.3167997    4.3167997    935.12047   -930.88627   -2547.5434    6283.7911    3068.2397    4581.2852    6572.5341    80.442526 
   36700    324.30874   -112.20366   0.29344136   -111.91022    416.89585    4.3237184    4.3237184    4.3237184    416.89585   -1560.1905    1782.4491     1028.429     2023.212   -361.84749     1841.628     80.82993 
   36800    498.06905   -112.35844   0.45066334   -111.90778    5528.7299    4.3178542    4.3178542    4.3178542    5528.7299    4879.2542    2068.1087    9638.8268    591.62344   -8536.0398   -121.55716    80.501491 
   36900    437.56914   -112.30629   0.39592175   -111.91037   -3912.3519    4.3209156    4.3209156    4.3209156   -3912.3519    -2097.771   -6374.6679   -3264.6169    1688.1197    6667.1751    3235.8709    80.672838 
   37000    291.52627   -112.17449   0.26377909   -111.91071    2969.9076    4.3208401    4.3208401    4.3208401    2969.9076    8676.8816   -8880.4317    9113.2729    2592.3835   -1725.2609    721.76885    80.668613 
   37100    611.97673    -112.4603   0.55372941   -111.90657   -6263.2454    4.3194062    4.3194062    4.3194062   -6263.2454   -4315.0978   -11370.872   -3103.7667   -3671.3678    2589.3653   -2321.2264    80.588327 
   37200    186.34598   -112.07925   0.16860976   -111.91064    5558.9967    4.3212997    4.3212997    4.3212997    5558.9967    3167.5559   -8037.3586    21546.793    470.33214    4473.2589    4024.2599    80.694354 
   37300    477.52891   -112.34155   0.43207819   -111.90947   -9817.7912    4.3208529    4.3208529    4.3208529   -9817.7912   -8754.6376   -7774.8199   -12923.916    532.72974    5244.5349    446.58736    80.669331 
   37400    422.80671   -112.29064   0.38256439   -111.90808    10961.189    4.3187191    4.3187191    4.3187191    10961.189      11995.8     4211.694    16676.073   -1096.9495   -3448.9018    1916.4709    80.549874 
   37500    437.76733   -112.30647   0.39610108   -111.91036   -8749.1604    4.3225862    4.3225862    4.3225862   -8749.1604   -9548.0944   -6762.4654   -9936.9215    2521.0738    2830.2181    6579.9915    80.766446 
   37600    265.09831   -112.15099   0.23986652   -111.91113    6359.3934    4.3175702    4.3175702    4.3175702    6359.3934    14291.101   -2492.0464    7279.1254    1138.0935    2520.6958   -995.36003    80.485608 
   37700    555.35591   -112.40993    0.5024977   -111.90743   -2117.2542    4.3221385    4.3221385    4.3221385   -2117.2542   -9239.8507   -7215.0771    10103.165    1611.1382   -7312.6556    41.591292    80.741355 
   37800     238.9661   -112.12745   0.21622155   -111.91123   -1226.3499    4.3194803    4.3194803    4.3194803   -1226.3499    1346.7393   -7676.3779     2650.589    1033.9702    8964.8837    4491.4666    80.592473 
   37900    365.26263   -112.24165   0.33049731   -111.91116   -6120.6914    4.3202625    4.3202625    4.3202625   -6120.6914   -4700.5201   -11970.001   -1691.5531    2316.9714   -2127.4517   -1683.9687    80.636263 
   38000    597.64095   -112.44813   0.54075809   -111.90737   -137.01631    4.3201971    4.3201971    4.3201971   -137.01631    5362.0694   -5442.5492   -330.56914    163.49166    2310.2005   -1821.5201    80.632605 
   38100    301.23159   -112.18436   0.27256067    -111.9118    408.73985    4.3199326    4.3199326    4.3199326    408.73985    -2750.458   -8218.8604    12195.538    2887.6863    7187.1984    6294.3341    80.617794 
   38200    432.04289   -112.30131   0.39092148   -111.91039   -3602.9382    4.3207864    4.3207864    4.3207864   -3602.9382    1365.4108   -7287.1314   -4887.0941    2616.8988    637.48779   -3715.0991    80.665603 
   38300    409.15313   -112.27819   0.37021035   -111.90798    9218.4841    4.3195548    4.3195548    4.3195548    9218.4841   -5410.7977    827.83531    32238.415   -1912.8225    3117.4006   -278.72077    80.596645 
   38400    314.78378   -112.19551   0.28482298   -111.91069   -9361.2937    4.3206817    4.3206817    4.3206817   -9361.2937     -9561.94   -6026.0825   -12495.858    1861.0782    1773.4737    3369.6416     80.65974 
   38500    318.64637     -112.199   0.28831794   -111.91068   -1673.4276    4.3204452    4.3204452    4.3204452   -1673.4276    -1964.323   -9300.5103    6244.5505   -318.67816    2957.8756   -712.47552    80.646499 
   38600    588.20504   -112.43994   0.53222028   -111.90772    1556.9262    4.3196042    4.3196042    4.3196042    1556.9262   -236.79819   -7406.0841    12313.661   -2265.9739   -4612.5183    859.44361     80.59941 
   38700     372.9711   -112.24872   0.33747209   -111.91125   -6597.4419    4.3226098    4.3226098    4.3226098   -6597.4419   -7977.2326   -15831.907     4016.814    59.006081    6144.3177    3729.0197    80.767773 
   38800    374.58115   -112.25004    0.3389289   -111.91111    4324.4532    4.3168474    4.3168474    4.3168474    4324.4532    3933.5788   -6413.8325    15453.613    2905.7147    540.10994   -772.37884    80.445192 
   38900    555.43193   -112.41069   0.50256648   -111.90812   -6246.5752      4.32359      4.32359      4.32359   -6246.5752   -14374.223   -7216.0963    2850.5941   -435.44427     -879.125   -2265.5859    80.822728 
   39000    140.27741    -112.0395   0.12692595   -111.91257   -721.74782    4.3192018    4.3192018    4.3192018   -721.74782   -7371.7276    1250.9438    3955.5404    3733.0873    7646.2201    3068.4474    80.576886 
   39100     453.3602   -112.32081   0.41020984    -111.9106   -5211.6839    4.3192453    4.3192453    4.3192453   -5211.6839   -328.34239   -8368.2606   -6938.4487    3374.2402   -999.87999   -4800.4614    80.579322 
   39200    373.09487   -112.24678   0.33758408   -111.90919     7076.049    4.3232352    4.3232352    4.3232352     7076.049    -4996.868   -4022.3969    30247.412   -2770.2048    1409.8621    2210.1242    80.802835 
   39300      453.928   -112.32059    0.4107236   -111.90987   -2848.0071    4.3150452    4.3150452    4.3150452   -2848.0071     -828.351   -4266.6578   -3449.0125    3396.9744    1424.9147    1400.7118    80.344483 
   39400    413.29293   -112.28429   0.37395613   -111.91034   -4608.2641    4.3268532    4.3268532    4.3268532   -4608.2641    -9328.535   -19035.866    14539.609   -3825.1617    2364.4837   -2008.8644    81.005867 
   39500    514.94963   -112.37425   0.46593725   -111.90831    3263.6969    4.3135084    4.3135084    4.3135084    3263.6969   -6113.6838    2911.5022    12993.272   -2742.1561   -1151.9193    1215.1775    80.258669 
   39600     319.7028       -112.2   0.28927381   -111.91072   -13182.406    4.3265054    4.3265054    4.3265054   -13182.406   -18040.186   -17325.844   -4181.1879    1407.7544    4438.9346    3710.5047    80.986333 
   39700    317.76216   -112.19706   0.28751788   -111.90954    8127.3555    4.3164531    4.3164531    4.3164531    8127.3555    6462.6163   -3676.7613    21596.211   -1992.5114    618.81416    41.052272    80.423148 
   39800     504.1548   -112.36367   0.45616985    -111.9075   -2060.1616    4.3209484    4.3209484    4.3209484   -2060.1616   -8681.7929   -1967.2275    4468.5355    319.25305   -2589.6703   -692.98158    80.674678 
   39900    261.45977   -112.14668   0.23657429   -111.91011    1813.6371    4.3218417    4.3218417    4.3218417    1813.6371   -504.53381   -1406.5798    7352.0248    3157.0695    4418.4647    3819.7754    80.724724 
   40000     556.1146   -112.41189   0.50318418   -111.90871   -4713.8447    4.3174064    4.3174064    4.3174064   -4713.8447   -3106.7401   -6539.9655   -4494.8283    1008.5133   -2547.2299    -4570.796    80.476447 
   40100    318.62138    -112.1973   0.28829532   -111.90901    2302.9142    4.3233794    4.3233794    4.3233794    2302.9142   -11374.974   -2063.2857    20347.002   -1955.8865   -3037.2761    687.51383    80.810918 
   40200    492.14943   -112.35326   0.44530715   -111.90795    -11839.24    4.3182607    4.3182607    4.3182607    -11839.24   -10991.691   -15518.308   -9007.7215    2541.7059    3937.9177    1074.9028    80.524228 
   40300    240.91522   -112.12738   0.21798515   -111.90939    6028.4202    4.3214048    4.3214048    4.3214048    6028.4202    4999.0526   -11727.665    24813.873   -3230.9732   -2730.4235   -848.09238    80.700245 
   40400     530.2975   -112.38769   0.47982433   -111.90787   -6813.3933    4.3191418    4.3191418    4.3191418   -6813.3933   -11207.147   -5712.3472   -3520.6853   -1615.0009   -1670.3316    21.248376    80.573528 
   40500    334.01557   -112.21286    0.3022243   -111.91063    1000.4606    4.3201792    4.3201792    4.3201792    1000.4606     2966.409   -1552.4394    1587.4122     1329.507    4535.6299    3062.0989    80.631602 
   40600    416.37079   -112.28746   0.37674104   -111.91072    3000.0424    4.3205187    4.3205187    4.3205187    3000.0424   -4789.9418   -3844.5759    17634.645    -3668.447   -2456.8981    -199.4706    80.650609 
   40700    465.09245   -112.33179   0.42082543   -111.91096   -1753.5895    4.3193266    4.3193266    4.3193266   -1753.5895    -10949.95    3546.7259    2142.4558    1193.9755   -1716.5026    27.673341     80.58387 
   40800    312.98611   -112.19544   0.28319641   -111.91224    7697.2424    4.3185558    4.3185558    4.3185558    7697.2424   -3239.7242   -5219.8263    31551.278   -412.73429    2271.5687    2319.2776     80.54074 
   40900    408.58389   -112.28094   0.36969529   -111.91124   -11223.691    4.3245856    4.3245856    4.3245856   -11223.691   -3626.8647   -18972.403   -11071.804   -1691.5574   -2525.5112   -1915.3778    80.878575 
   41000    359.15446   -112.23534    0.3249705   -111.91037    9821.9897    4.3104399    4.3104399    4.3104399    9821.9897   -2423.3627    10652.604    21236.728   -902.55557   -9886.8111   -1689.8333    80.087511 
   41100     472.0649   -112.33859   0.42713424   -111.91145   -13723.804    4.3315072    4.3315072    4.3315072   -13723.804   -6941.5641   -23216.496   -11013.352    1973.6503    3157.5053    3217.6304    81.267544 
   41200    391.91789   -112.26687   0.35461555   -111.91225    8695.3253     4.306987     4.306987     4.306987    8695.3253    4900.4615    7842.5191    13342.995   -2353.4807   -7737.7934   -1579.2698    79.895196 
   41300    351.90765   -112.23109   0.31841344   -111.91268   -8510.0557    4.3316117    4.3316117    4.3316117   -8510.0557   -20572.558   -7903.5248    2945.9159     44.68564   -4572.4629   -40.324497    81.273424 
   41400    497.98134   -112.35955   0.45058398   -111.90897    7058.1109    4.3102858    4.3102858    4.3102858    7058.1109    7551.0214    7461.4262     6161.885    2582.3196    6272.4822    5771.0023    80.078917 
   41500     182.8972   -112.07777   0.16548923   -111.91228   -1598.4663    4.3248409    4.3248409    4.3248409   -1598.4663   -5040.8173   -6136.4248    6381.8432   -4549.5039   -8316.0472   -1770.9637    80.892899 
   41600    479.42895   -112.34322   0.43379739   -111.90943   -3613.4795    4.3189295    4.3189295    4.3189295   -3613.4795   -12369.099    4131.9911   -2603.3304     164.1543   -1370.1011    1219.2156     80.56165 
   41700    466.73876   -112.33186   0.42231504   -111.90954    8136.3749    4.3164549    4.3164549    4.3164549    8136.3749    8534.1081   -6681.4109    22556.428   -2653.1644    559.78706   -611.52338    80.423252 
   41800    397.20823   -112.27039   0.35940235   -111.91099   -14340.873    4.3270228    4.3270228    4.3270228   -14340.873   -16891.862   -14387.398    -11743.36   -3649.6502   -6327.3234   -1917.0604    81.015395 
   41900    461.15864    -112.3251   0.41726603   -111.90784     7766.048    4.3116012    4.3116012    4.3116012     7766.048     2235.281    6063.7549    14999.108   -1621.5616   -7839.6635   -3884.9475    80.152258 
   42000    465.31724   -112.32787   0.42102881   -111.90684   -2324.7806    4.3275397    4.3275397    4.3275397   -2324.7806   -463.12534    -7188.377    677.16051    1470.1995    1117.2428    1920.8653     81.04443 
   42100    268.05865    -112.1527    0.2425451   -111.91015    3605.0492    4.3126835    4.3126835    4.3126835    3605.0492    772.47312    7425.2922    2617.3821   -568.20181   -9760.5103   -393.26895    80.212629 
   42200    299.34848   -112.18207    0.2708568   -111.91122   -1792.8202    4.3252148    4.3252148    4.3252148   -1792.8202   -9160.1316    2523.2539     1258.417   -181.55864    -6795.039   -2166.7906    80.913884 
   42300    614.99593   -112.46417   0.55646124   -111.90771    1838.3093    4.3153937    4.3153937    4.3153937    1838.3093   -148.30149    56.401345     5606.828    3428.2004    5175.5401     5889.053    80.363949 
   42400    205.97899   -112.09965   0.18637411   -111.91328   -7449.0079    4.3238721    4.3238721    4.3238721   -7449.0079   -3668.2116   -8454.6182   -10224.194   -6355.5813   -11859.323   -3664.1683    80.838548 
   42500    554.36708   -112.41247   0.50160298   -111.91087   -1223.0901    4.3151998    4.3151998    4.3151998   -1223.0901   -2639.3082    3366.1401   -4396.1023    28.623235     -423.087    985.03932    80.353119 
   42600    453.80647   -112.32047   0.41061363   -111.90986    1382.2191    4.3248475    4.3248475    4.3248475    1382.2191    4659.4426   -7199.8103     6687.025   -1199.2349    1230.1967   -1785.6837    80.893273 
   42700    261.66535   -112.14978   0.23676031   -111.91302    704.18972     4.312074     4.312074     4.312074    704.18972   -7754.5766    16112.451   -6245.3057   -4032.3303   -10647.702    -1877.205    80.178628 
   42800    349.07178   -112.22834   0.31584749   -111.91249   -6784.0617    4.3280716    4.3280716    4.3280716   -6784.0617   -16503.197   -7250.1936    3401.2055   -2746.6048   -3529.7532   -4333.0217    81.074321 
   42900    519.70821   -112.37892   0.47024291   -111.90867    10010.663    4.3124975    4.3124975    4.3124975    10010.663    10210.576    13108.977    6712.4379    35.472058   -1800.3801   -1185.7651    80.202254 
   43000    335.68573   -112.21706   0.30373551   -111.91333   -8712.5483    4.3223304    4.3223304    4.3223304   -8712.5483   -8067.0773   -9676.7414   -8393.8262    -4150.205   -10535.827   -811.87387    80.752113 
   43100     405.6101   -112.27767   0.36700454   -111.91067    4220.8051    4.3214555    4.3214555    4.3214555    4220.8051    275.36467    5807.9801    6579.0706   -3188.9248   -5041.5908   -3808.1688    80.703086 
   43200    616.71655   -112.46544    0.5580181   -111.90742    4788.9367    4.3145765    4.3145765    4.3145765    4788.9367    7303.9775    1467.9044    5594.9282    4363.3179     4844.924    6764.6054    80.318301 
   43300    146.52372   -112.04496   0.13257774   -111.91238   -2677.4415    4.3248869    4.3248869    4.3248869   -2677.4415   -17886.078    5573.3875    4280.3664   -2641.5094    -11924.96   -3655.4253     80.89548 
   43400    437.63026   -112.30642   0.39597705   -111.91044   -1917.3612    4.3174727    4.3174727    4.3174727   -1917.3612   -8074.8021    2382.7473   -60.028721    2014.4006    2206.4791    1060.2989    80.480155 
   43500    425.65357   -112.29406    0.3851403   -111.90892     10602.49     4.318007     4.318007     4.318007     10602.49    8358.2109    10472.084    12977.174    615.83692    1242.6078   -1059.1503    80.510037 
   43600    385.37873   -112.26101   0.34869877   -111.91231   -6818.2369    4.3230127    4.3230127    4.3230127   -6818.2369   -14014.974    1449.7176   -7889.4547   -3002.5118   -13515.337   -3208.5282    80.790361 
   43700     426.7747   -112.29642   0.38615471   -111.91026    4105.4324    4.3181588    4.3181588    4.3181588    4105.4324    6140.5127    1006.6223    5169.1621   -5957.5516    136.84719   -4996.0855    80.518528 
   43800    553.13328   -112.40857   0.50048662   -111.90809    1948.9652    4.3181974    4.3181974    4.3181974    1948.9652   -4871.1586    7446.9512    3271.1031   -1190.9804   -4193.8619   -2042.7043    80.520685 
   43900    258.20512   -112.14524   0.23362942   -111.91162   -10136.577    4.3248908    4.3248908    4.3248908   -10136.577   -20005.515   -3421.8242   -6982.3932   -3733.5051    -8068.073   -273.37672    80.895703 
   44000    307.25207   -112.18801   0.27800813      -111.91    5436.7404    4.3144947    4.3144947    4.3144947    5436.7404   -2331.5905    17368.756    1273.0559   -2922.9158   -909.29297   -5162.4044    80.313733 
   44100    521.30018      -112.38   0.47168336   -111.90831   -2592.1596    4.3227908    4.3227908    4.3227908   -2592.1596   -2487.5599   -1549.2204   -3739.6986    4393.6126    1120.6083    5658.2296    80.777918 
   44200    270.17943   -112.15631   0.24446403   -111.91185    922.96704    4.3192186    4.3192186    4.3192186    922.96704   -7746.1115    16822.108   -6307.0951   -3635.6186   -6382.5246   -3213.9845    80.577829 
   44300    517.87578   -112.37961   0.46858488   -111.91102   -6088.2012    4.3175648    4.3175648    4.3175648   -6088.2012   -152.72667   -11825.755    -6286.122    128.74248    2177.8836   -1685.1446    80.485303 
   44400    445.23749   -112.31272   0.40286023   -111.90986    353.97563    4.3226949    4.3226949    4.3226949    353.97563   -10954.404    12800.557   -784.22659    391.02864   -2227.8883    863.58435    80.772544 
   44500    361.09566    -112.2375   0.32672694   -111.91078   -7205.9299    4.3177642    4.3177642    4.3177642   -7205.9299   -16221.946    2243.9924   -7639.8359   -1707.5845   -10296.782   -4097.5188    80.496454 
   44600    292.45053   -112.17568   0.26461538   -111.91107    569.86751    4.3194875    4.3194875    4.3194875    569.86751    -4825.192    5545.0127    989.78177   -4782.4829    4749.6444   -6186.7211    80.592877 
   44700    474.96595   -112.33843   0.42975917   -111.90867   -1042.4137    4.3218299    4.3218299    4.3218299   -1042.4137   -7277.7692    9664.6417   -5514.1135    1384.9005   -6588.0373   -2125.5464     80.72406 
   44800    362.84246   -112.23852   0.32830749   -111.91021   -1881.4326    4.3172987    4.3172987    4.3172987   -1881.4326   -6841.1086    1845.8557   -649.04476   -7132.7503    -5830.186   -2709.7947    80.470422 
   44900      381.479   -112.25638   0.34517021   -111.91121    -1985.174    4.3209997    4.3209997    4.3209997    -1985.174   -3889.5328    4108.2726   -6174.2619   -5676.8898    5242.3425   -6666.7797    80.677554 
   45000     533.2824   -112.39158   0.48252512   -111.90905   -2098.1973    4.3214268    4.3214268    4.3214268   -2098.1973   -10366.372     3210.441    861.33918    1440.8331   -2538.5708    5370.3505    80.701478 
   45100    304.92587   -112.18595   0.27590333   -111.91004    4146.4124     4.316332     4.316332     4.316332    4146.4124   -9420.3203    22674.472   -814.91414   -4410.3356   -3365.3847   -3692.6861    80.416384 
   45200    404.10681   -112.27587   0.36564434   -111.91023   -9101.8876    4.3238018    4.3238018    4.3238018   -9101.8876   -13265.655   -12579.176   -1460.8319   -113.92748     3543.292   -1114.8012    80.834606 
   45300    385.50119   -112.25717   0.34880957   -111.90836    7406.4336    4.3176013    4.3176013    4.3176013    7406.4336   -7414.0795    25796.775    3836.6056    1833.3866    465.24678    9.7852207    80.487347 
   45400    427.25495   -112.29565   0.38658926   -111.90906   -5257.2185    4.3194584    4.3194584    4.3194584   -5257.2185   -12681.936   -1377.9759   -1711.7438   -2195.9436   -4958.1004   -4436.5956    80.591251 
   45500     332.2675   -112.21132   0.30064261   -111.91068   -391.62952    4.3222091    4.3222091    4.3222091   -391.62952   -8327.2571    4161.4314    2990.9372   -7190.2855    4677.5944     -3375.04    80.745311 
   45600     500.5003   -112.36132   0.45286319   -111.90846    6782.4978    4.3167694    4.3167694    4.3167694    6782.4978   -901.37692     19411.06     1837.811    3338.1443   -1418.2126   -2367.8117    80.440828 
   45700    440.06721   -112.30788   0.39818206    -111.9097   -2511.5478    4.3201055    4.3201055    4.3201055   -2511.5478   -10090.025   -684.98847    3240.3699   -7266.9636   -2154.8804   -1215.5629    80.627472 
   45800    247.70087   -112.13563   0.22412495   -111.91151    1075.3279    4.3221241    4.3221241    4.3221241    1075.3279   -7635.5151     15455.07   -4593.5707   -2014.7163    4919.5138   -5452.0745    80.740546 
   45900    511.38746   -112.37095   0.46271412   -111.90823    1204.4572    4.3162534    4.3162534    4.3162534    1204.4572   -11924.928    9743.8299    5794.4697   -49.592771   -3698.8286    5143.1772     80.41199 
   46000    306.10945   -112.18715   0.27697427   -111.91017    349.09749    4.3215969    4.3215969    4.3215969    349.09749   -13919.895    16728.485   -1761.2984   -4034.1235    455.46579   -4075.5798    80.711008 
   46100    413.98347   -112.28563   0.37458094   -111.91105   -5121.2149    4.3203068    4.3203068    4.3203068   -5121.2149    -11791.77   -4851.4118    1279.5375   -2968.2743     5061.833   -854.44636    80.638744 
   46200    496.18473   -112.35781   0.44895837   -111.90885    7977.1956    4.3166899    4.3166899    4.3166899    7977.1956   -1721.3072    27563.514   -1910.6196    366.60425   -2250.7306    1793.0552    80.436387 
   46300    395.68284   -112.26872   0.35802215   -111.91069   -3936.4661     4.322984     4.322984     4.322984   -3936.4661   -10980.238   -255.60986   -573.55056    1081.2565    1298.1507   -5190.1645    80.788747 
   46400    314.82663   -112.19727   0.28486175    -111.9124   -2007.2049     4.318581     4.318581     4.318581   -2007.2049   -6466.5695    8626.6125   -8181.6577   -1853.9339    7293.6638     -2343.01     80.54215 
   46500    402.99512   -112.27423   0.36463846   -111.90959    8554.5831     4.317529     4.317529     4.317529    8554.5831   -6113.9018    26986.364    4791.2872    4613.1232   -1721.3485    1070.4285    80.483305 
   46600    455.25823   -112.32243   0.41192722    -111.9105   -11914.789    4.3243941    4.3243941    4.3243941   -11914.789     -17603.9   -11546.261   -6594.2068   -8072.5874    808.99793   -1911.6358     80.86783 
   46700    226.94257   -112.11797   0.20534241   -111.91262    8440.0594     4.316201     4.316201     4.316201    8440.0594   -2767.7323    29150.386   -1062.4755   -2831.6275    7151.3715    -4944.888    80.409062 
   46800    618.93253   -112.46828   0.56002316   -111.90826    -3676.827    4.3208329    4.3208329    4.3208329    -3676.827   -6173.4128    2632.0004   -7489.0685   -4566.6251   -3170.7418    3543.6314    80.668211 
   46900     298.8695   -112.18222    0.2704234    -111.9118   -2930.0809    4.3220328    4.3220328    4.3220328   -2930.0809   -10908.845    6072.9492   -3954.3471      -1117.9    2585.4071    -4088.267    80.735434 
   47000    372.55005   -112.24898   0.33709111   -111.91189   -1916.1331    4.3169833    4.3169833    4.3169833   -1916.1331   -7058.7549    8603.6717    -7293.316   -1430.9748    3394.1932   -1642.1467    80.452792 
   47100    539.35674   -112.39634   0.48802131   -111.90832   -2076.1408    4.3219058    4.3219058    4.3219058   -2076.1408   -16050.995    9360.1555    462.41745     4011.073   -2880.8577     2023.491    80.728316 
   47200    246.43583   -112.13414   0.22298032   -111.91116   -2188.6395     4.320641     4.320641     4.320641   -2188.6395   -18696.432    13545.864   -1415.3509   -2687.7207    5662.8829   -4357.6587    80.657463 
   47300    440.97934   -112.30979   0.39900737   -111.91078   -5612.7693    4.3176184    4.3176184    4.3176184   -5612.7693   -9943.4902    4711.5191   -11606.337    -1906.155    1816.7849   -1111.4867    80.488303 
   47400     442.7732   -112.30937   0.40063049   -111.90874    4470.4251    4.3213733    4.3213733    4.3213733    4470.4251   -3233.4304    14437.795    2206.9104   -75.160103   -580.12355    1542.1265    80.698481 
   47500    448.96302   -112.31697   0.40623117   -111.91074   -12967.338    4.3207287    4.3207287    4.3207287   -12967.338   -12539.675   -8644.3368   -17718.003   -5995.6016    7249.8232   -4312.5838    80.662371 
   47600    236.67633   -112.12667   0.21414972   -111.91252    10415.672    4.3176081    4.3176081    4.3176081    10415.672   -784.12233    29355.666    2675.4713    1285.9259    924.21774     -630.856    80.487724 
   47700    579.85893   -112.43313   0.52466855   -111.90846   -5792.4236    4.3211862    4.3211862    4.3211862   -5792.4236   -14953.949    1154.3933   -3577.7152   -1487.9129   -1983.2929    1851.3373    80.687996 
   47800     220.6065   -112.11223    0.1996094   -111.91262   -4919.5934    4.3209087    4.3209087    4.3209087   -4919.5934    -17163.76    5735.3259   -3330.3459   -1726.4487    5918.7928   -4797.2738    80.672457 
   47900    437.27956   -112.30724   0.39565974   -111.91158   -681.38288    4.3165099    4.3165099    4.3165099   -681.38288   -7700.0934    11884.427   -6228.4823   -2988.2249    909.37179   -3861.1938    80.426326 
   48000    551.78434   -112.40828   0.49926607   -111.90902   -4741.0603    4.3238826    4.3238826    4.3238826   -4741.0603   -11205.312    1925.8882   -4943.7574    4571.1559   -1523.7944    920.19692    80.839141 
   48100    234.43401   -112.12417   0.21212082   -111.91205    3106.9322     4.318112     4.318112     4.318112    3106.9322   -7976.5701    27292.049   -9994.6825   -3114.0765    5053.8328   -6541.1212    80.515909 
   48200    497.21553   -112.36007   0.44989106   -111.91018   -1237.1013    4.3183468    4.3183468    4.3183468   -1237.1013   -2264.2777   -3004.7402    1557.7141    4394.3551    1367.8219   -4114.9438    80.529044 
   48300    420.44685   -112.28993   0.38042914    -111.9095   -2043.2975    4.3241465    4.3241465    4.3241465   -2043.2975   -12095.774    8833.0895    -2867.208    1652.9532    1110.0387    2514.7098    80.853941 
   48400    305.15308    -112.1875   0.27610892   -111.91139   -3712.9989    4.3163449    4.3163449    4.3163449   -3712.9989   -9195.1963   -305.39881   -1638.4016   -3901.9356    4749.6684   -5688.9127    80.417102 
   48500    406.90742   -112.27838   0.36817838    -111.9102    2535.8382    4.3208842    4.3208842    4.3208842    2535.8382    -5546.682    19744.843   -6590.6463   -4027.9514   -156.45379    1453.5552     80.67108 
   48600    425.61323   -112.29429    0.3851038   -111.90919    194.13151    4.3229298    4.3229298    4.3229298    194.13151   -6464.3147    9287.2373    -2240.528   -637.74893    776.21358   -516.84956    80.785711 
   48700    361.21558   -112.23776   0.32683545   -111.91093   -750.72275    4.3148569    4.3148569    4.3148569   -750.72275   -2421.1825     4738.971   -4569.9568   -5164.0315    3584.4246   -3959.1922    80.333965 
   48800    418.53548    -112.2878    0.3786997    -111.9091    436.19755    4.3243577    4.3243577    4.3243577    436.19755   -3534.6986    4078.0489    765.24233   -83.254499    -1891.832   -2441.7063    80.865788 
   48900    490.52689   -112.35212   0.44383904   -111.90828   -5958.2849     4.319718     4.319718     4.319718   -5958.2849   -14072.205   -4344.8172    542.16803    6160.2685    2074.0052   -2579.8208    80.605782 
   49000     216.8448   -112.10751   0.19620573    -111.9113    3712.1135     4.316204     4.316204     4.316204    3712.1135   -10954.612    25062.897    -2971.945   -4513.7794    6186.3133   -5160.6448    80.409225 
   49100    524.76805   -112.38341   0.47482116   -111.90859   -6670.0017    4.3254716    4.3254716    4.3254716   -6670.0017   -14446.882   -5377.9211    -185.2021    4124.1617    -763.4131   -4340.2776    80.928297 
   49200    405.77512   -112.27653   0.36715385   -111.90938    4074.7044    4.3156016    4.3156016    4.3156016    4074.7044   -2456.0018    16207.702   -1527.5876    819.13441    3115.3387    2427.9484    80.375562 
   49300    327.59836   -112.20815   0.29641788   -111.91173   -1128.0509    4.3197726    4.3197726    4.3197726   -1128.0509   -6292.8434   -685.90328     3594.594   -236.00221    5990.8523   -8707.7401    80.608839 
   49400    472.21552   -112.33623   0.42727052   -111.90896   -1800.7237    4.3239985    4.3239985    4.3239985   -1800.7237   -3166.0238    3908.1199    -6144.267   -1549.9253   -1424.7639    2861.1199    80.845641 
   49500    344.52824   -112.22047   0.31173639   -111.90873    7816.0077    4.3141192    4.3141192    4.3141192    7816.0077    -3832.793    22194.956    5085.8606    2444.7695    230.21889    285.47955    80.292767 
   49600    394.78902   -112.26782   0.35721341   -111.91061   -9660.4044    4.3236055    4.3236055    4.3236055   -9660.4044   -15003.178   -2983.4782   -10994.557   -4364.6456    3265.0183   -7333.7355    80.823598 
   49700    393.22574    -112.2651   0.35579892    -111.9093    6701.1475    4.3191191    4.3191191    4.3191191    6701.1475   -2114.7055    12078.301    10139.847    -1163.457   -3139.2618    667.45097    80.572256 
   49800     541.0709   -112.39851   0.48957233   -111.90894   -4014.5753    4.3182276    4.3182276    4.3182276   -4014.5753   -9738.8948    2408.6602   -4713.4914    1883.8288     1415.172   -2217.0942    80.522376 
   49900    223.29651   -112.11398   0.20204337   -111.91194    6023.8709    4.3223849    4.3223849    4.3223849    6023.8709   -6549.9916    18458.655    6162.9498   -3769.2141    4399.5074   -8389.0991    80.755167 
   50000    535.64603   -112.39319   0.48466378   -111.90853   -550.79724    4.3188431    4.3188431    4.3188431   -550.79724   -2748.7032    10039.593   -8943.2818    5856.2318   -2141.4446   -4026.1617    80.556814 
   50100    356.28021   -112.23239   0.32236982   -111.91002     2411.489     4.319976     4.319976     4.319976     2411.489   -8292.4711    17657.585   -2130.6466    3712.7294    5359.5229    2315.3562    80.620223 
   50200    361.72088   -112.23761   0.32729265   -111.91032   -3567.3352    4.3207236    4.3207236    4.3207236   -3567.3352   -3980.5917   -6043.4862   -677.92758   -348.61214    2731.2083    -11313.46    80.662087 
   50300    491.01117   -112.35226   0.44427722   -111.90798    254.59425    4.3200098    4.3200098    4.3200098    254.59425   -4666.8771    4946.6141     484.0458    -1491.159   -2507.0042    2786.4377    80.622116 
   50400    314.25038   -112.19372   0.28434035   -111.90938    9333.1114    4.3189247    4.3189247    4.3189247    9333.1114   -2350.4418    22941.259    7408.5173   -214.98029    3785.0122    1783.4924    80.561378 
   50500    411.58155   -112.28199   0.37240764   -111.90958   -4497.6118    4.3213744    4.3213744    4.3213744   -4497.6118   -5203.0508   -665.69458   -7624.0899   -6900.9659    741.53572   -6591.6632    80.698544 
   50600    347.37376   -112.22323   0.31431108   -111.90891    5395.7246    4.3189782    4.3189782    4.3189782    5395.7246   -4301.0824    26192.174   -5703.9177    70.855841   -5045.6738    2666.5902    80.564376 
   50700    504.67152   -112.36565   0.45663739   -111.90901   -9839.4277    4.3197716    4.3197716    4.3197716   -9839.4277   -11565.039   -7517.2414   -10436.003    621.81528    2160.8671   -4160.6715    80.608781 
   50800    300.63101   -112.18285   0.27201726   -111.91083    1121.9686    4.3203654    4.3203654    4.3203654    1121.9686    -7120.405    8400.7057    2085.6049    -933.4508    1569.4501   -6184.5456    80.642028 
   50900    511.31385   -112.37121   0.46264751   -111.90856   -2890.3145    4.3206071    4.3206071    4.3206071   -2890.3145   -11608.397      8930.89   -5993.4366    1404.5148   -5787.7793   -3962.1072    80.655564 
   51000    357.27951   -112.23317   0.32327401   -111.90989    4145.7887    4.3182053    4.3182053    4.3182053    4145.7887   -7732.4976    14828.934    5340.9294    3527.3526    5446.5261    687.07252    80.521127 
   51100     365.6117   -112.24123   0.33081315   -111.91041   -4076.6108      4.32099      4.32099      4.32099   -4076.6108   -3073.8745    5505.7363   -14661.694   -1465.6323    583.72899   -8457.1701    80.677007 
   51200    442.69239   -112.30968   0.40055737   -111.90913   -5645.8999    4.3190454    4.3190454    4.3190454   -5645.8999   -9224.7933    4614.3338    -12327.24    1420.2917     -5114.34    3157.3146    80.568134 
   51300    317.27576   -112.19747   0.28707777   -111.91039    554.41362    4.3193622    4.3193622    4.3193622    554.41362   -3854.5678    17180.696   -11662.888    4821.8767    5097.0146   -1789.5143    80.585865 
   51400    438.46632   -112.30679   0.39673354   -111.91006   -5116.6017    4.3209996    4.3209996    4.3209996   -5116.6017   -8905.8137   -2284.9161   -4159.0752   -6522.0593   -2126.3024    -5567.537    80.677545 
   51500    386.29706   -112.25883    0.3495297    -111.9093    4630.7377    4.3185574    4.3185574    4.3185574    4630.7377   -7040.4096    25894.452   -4961.8296    3022.1528   -4204.9479      1907.66    80.540829 
   51600    496.36677   -112.35815   0.44912308   -111.90903   -6819.2109    4.3209938    4.3209938    4.3209938   -6819.2109   -13017.356    -4399.322   -3040.9547   -4110.7796    4607.6507   -7024.0403    80.677222 
   51700    353.23631    -112.2295   0.31961564   -111.90989   -2086.7587    4.3193519    4.3193519    4.3193519   -2086.7587   -2547.6471    10071.275   -13783.904    1549.9046   -3417.8139   -4179.8618    80.585289 
   51800    397.63589   -112.26901   0.35978931   -111.90922   -3143.2679    4.3195617    4.3195617    4.3195617   -3143.2679   -8760.1655    16158.353   -16827.991    1195.8349   -5450.4621   -1489.6624    80.597033 
   51900     354.1988   -112.22971   0.32048652   -111.90923    -145.8679    4.3218486    4.3218486    4.3218486    -145.8679    1353.5008    9509.8858    -11300.99    6468.9644    6195.3274   -1769.1046    80.725111 
   52000    352.95372   -112.22847   0.31935994   -111.90911    4969.2775    4.3175062    4.3175062    4.3175062    4969.2775    1655.7518    18044.922   -4792.8419    370.88967   -5338.8487   -5741.4461    80.482025 
   52100    494.85823    -112.3561   0.44775813   -111.90834   -5107.2615    4.3218072    4.3218072    4.3218072   -5107.2615   -6288.2464    1028.6757   -10062.214   -396.05354   -4700.2023    4208.3595     80.72279 
   52200    356.91567   -112.23219    0.3229448   -111.90925    3482.0046    4.3193031    4.3193031    4.3193031    3482.0046    -4262.972    16501.804   -1792.8183    2909.3024    7108.6997   -4198.4889    80.582557 
   52300     473.2914   -112.33713   0.42824401   -111.90888   -6810.1177    4.3189068    4.3189068    4.3189068   -6810.1177   -9011.4341    4318.2668   -15737.186   -7650.3982    -6092.488   -4216.4495    80.560377 
   52400    296.54952   -112.17776   0.26832424   -111.90943    2348.4435    4.3214199    4.3214199    4.3214199    2348.4435   -8432.6415    28900.246   -13422.274    3772.3128   -1786.0811     990.3164    80.701093 
   52500    435.19229   -112.30253   0.39377113   -111.90876   -2140.4001    4.3189643    4.3189643    4.3189643   -2140.4001    1193.1398   -563.84919   -7050.4911   -1700.6987    6329.6923   -5534.6325    80.563597 
   52600    392.39471   -112.26432   0.35504698   -111.90928    2503.0658    4.3179017    4.3179017    4.3179017    2503.0658   -502.70614    16277.641   -8265.7375    2483.8456   -6325.8751   -3242.0714    80.504145 
   52700    394.67129   -112.26712   0.35710688   -111.91001   -1528.5621    4.3227164    4.3227164    4.3227164   -1528.5621   -5895.0769    7219.0667   -5909.6762   -1913.9971      -677.88    408.61261    80.773747 
   52800    457.24368   -112.32369   0.41372369   -111.90997   -1714.0636    4.3172313    4.3172313    4.3172313   -1714.0636   -4288.8811    5875.3592    -6728.669    5111.3101    3965.2596   -1624.7045    80.466656 
   52900    335.04925   -112.21342   0.30315961   -111.91026    3459.5955    4.3196199    4.3196199    4.3196199    3459.5955   -6101.7511    22345.857   -5865.3191   -763.66429   -8509.5509    -5459.111     80.60029 
   53000    489.44908   -112.35171   0.44286381   -111.90885   -7936.0974    4.3218115    4.3218115    4.3218115   -7936.0974   -7299.7546   -3004.5832   -13503.954    2231.2355    765.53127    3977.7726     80.72303 
   53100    289.36705   -112.17203   0.26182539    -111.9102     7179.085    4.3168473    4.3168473    4.3168473     7179.085    1262.7459    19554.107    720.40237    4938.9192    3844.6096   -3606.5185    80.445189 
   53200    475.67316   -112.33959   0.43039908   -111.90919   -5517.4841    4.3218225    4.3218225    4.3218225   -5517.4841   -4392.7404    1471.0342   -13630.746   -5817.3837   -6847.6332     -1887.25     80.72365 
   53300    326.89284   -112.20501   0.29577951   -111.90923    4484.6823    4.3210492    4.3210492    4.3210492    4484.6823   -2622.6167    20672.537   -4595.8734    1319.2138    4125.9805    24.036382    80.680323 
   53400    467.40581   -112.33167    0.4229186   -111.90875   -1483.9667    4.3165278    4.3165278    4.3165278   -1483.9667   -2274.4187    4027.0429   -6204.5242    -1369.423    4748.5087    -3110.242    80.427325 
   53500    379.56789   -112.25252     0.343441   -111.90908    1172.8256    4.3227582    4.3227582    4.3227582    1172.8256   -4070.4355    11434.058    -3845.146    732.84978   -6429.7252   -4394.0118    80.776091 
   53600     424.3486   -112.29234   0.38395953   -111.90838   -283.26035    4.3197123    4.3197123    4.3197123   -283.26035    932.05939    7913.3107   -9695.1511    1343.3494    2881.4811   -1747.1667    80.605462 
   53700    363.86455   -112.23874    0.3292323   -111.90951    2806.8936    4.3167738    4.3167738    4.3167738    2806.8936   -3094.8985    10042.612    1472.9673     7941.474    1809.6446    -2475.212    80.441079 
   53800    335.49501   -112.21247   0.30356293   -111.90891     1106.783    4.3244712    4.3244712    4.3244712     1106.783   -2134.6243    18920.566   -13465.593   -881.93866   -7683.0626   -3708.5733    80.872155 
   53900    531.77002   -112.38803   0.48115669   -111.90687   -3267.4995    4.3166854    4.3166854    4.3166854   -3267.4995   -9120.0165    5239.0643   -5921.5462    2260.0432    2279.2596    3362.2518    80.436133 
   54000    311.41669    -112.1916   0.28177637   -111.90982    4387.3409    4.3193169    4.3193169    4.3193169    4387.3409   -5729.4471    18664.944    226.52603    2588.1265   -597.15138   -4532.8007    80.583327 
   54100    514.31774   -112.37378    0.4653655   -111.90842   -5259.7169    4.3219524    4.3219524    4.3219524   -5259.7169   -7315.4098   -3446.4059   -5017.3349   -2917.3956   -5349.8431    1051.0252    80.730925 
   54200     338.8977   -112.21589   0.30664176   -111.90925    6342.0392    4.3177066    4.3177066    4.3177066    6342.0392   -2631.0294    23936.805   -2279.6576    3540.9029    6257.2965   -711.36105    80.493237 
   54300    334.98202    -112.2142   0.30309877    -111.9111   -232.04638    4.3191458    4.3191458    4.3191458   -232.04638   -4043.0496    1566.1318    1780.7787    1882.7053   -16.194265    -4749.723    80.573752 
   54400    412.36467   -112.28254   0.37311622   -111.90942   -2651.5356    4.3216071    4.3216071    4.3216071   -2651.5356   -2432.8744    10585.912   -16107.644    584.11867   -2417.3503   -4989.0144    80.711577 
   54500    439.53459   -112.30688   0.39770013   -111.90918   -1819.9279    4.3186581    4.3186581    4.3186581   -1819.9279   -9930.1294    9480.3981   -5010.0523    117.10512    6590.6439   -540.66953    80.546463 
   54600    390.73536   -112.26352   0.35354557   -111.90998   -3084.7082    4.3195586    4.3195586    4.3195586   -3084.7082   -10529.951   -1496.1619    2771.9882    7221.8626    -906.1711   -5798.8358    80.596856 
   54700    407.79714   -112.27804   0.36898342   -111.90905    1791.9663    4.3213726    4.3213726    4.3213726    1791.9663   -7137.8472    17239.297   -4725.5511   -234.70329    -5044.208     -1468.77    80.698439 
   54800    477.03341   -112.34052   0.43162986   -111.90889   -425.40044    4.3181836    4.3181836    4.3181836   -425.40044   -5513.3709   -2198.7911    6435.9607    6720.5141    3793.1461    5328.7696    80.519916 
   54900    252.14956   -112.13939   0.22815022   -111.91124    1644.8949    4.3206491    4.3206491    4.3206491    1644.8949   -1073.8294    6961.7708   -953.25658    5080.7812   -4151.4774   -7079.1143    80.657913 
   55000     473.8472   -112.33726    0.4287469   -111.90851   -7656.2561    4.3217918    4.3217918    4.3217918   -7656.2561    399.63451   -6007.1369   -17361.266    -2549.306   -5986.7878    1403.7569    80.721927 
   55100     362.2874   -112.23638   0.32780525   -111.90858    2972.8406    4.3181204    4.3181204    4.3181204    2972.8406    -1684.633    11899.796   -1296.6415    1763.6973    3879.2744   -1456.1047     80.51638 
   55200     349.0658   -112.22572   0.31584207   -111.90987   -3432.2921    4.3214337    4.3214337    4.3214337   -3432.2921   -8766.0599   -4545.8083     3014.992   -631.57017   -3320.9316   -7830.7219    80.701864 
   55300    466.00668   -112.32993   0.42165263   -111.90828    91.301224     4.319401     4.319401     4.319401    91.301224   -6549.5143    12841.498   -6018.0796    -1243.495    285.66767    -3878.861    80.588034 
   55400    427.72391   -112.29614   0.38701358   -111.90913    3401.2674    4.3189199    4.3189199    4.3189199    3401.2674   -9781.3391    3399.7252    16585.416    1996.4671    4035.7557    1240.5081     80.56111 
   55500    401.08773   -112.27277   0.36291261   -111.90986   -12038.352     4.322707     4.322707     4.322707   -12038.352   -12659.258   -5734.5794   -17721.217     5246.016   -2394.6435   -7021.0154     80.77322 
   55600    325.97864   -112.20427   0.29495233   -111.90932    3721.2644    4.3166134    4.3166134    4.3166134    3721.2644    1453.1373    15008.749   -5298.0927   -1891.5766   -2497.0612   -1845.1881     80.43211 
   55700    514.21486   -112.37404   0.46527242   -111.90877   -7735.4621    4.3223831    4.3223831    4.3223831   -7735.4621   -7929.2274   -8155.0557   -7122.1031    3409.5044    1137.9132     2980.267    80.755066 
   55800    197.93669   -112.09078   0.17909728   -111.91168     6329.715    4.3184839    4.3184839    4.3184839     6329.715    351.19059    14078.006    4559.9481    1977.4298      -6530.6   -8978.7028    80.536718 
   55900    544.25887   -112.40155   0.49245687    -111.9091   -4901.3929    4.3188009    4.3188009    4.3188009   -4901.3929    -1655.406   -6984.1198   -6064.6528    -729.1449   -4226.5766    2098.9497    80.554454 
   56000    397.96182    -112.2697   0.36008422   -111.90962     199.7818    4.3226529    4.3226529    4.3226529     199.7818   -12097.409    5129.9855    7566.7691    1232.8665    2454.4441   -1611.7531     80.77019 
   56100    357.42652   -112.23442   0.32340703   -111.91101   -8217.5397    4.3175788    4.3175788    4.3175788   -8217.5397   -5833.4445   -7285.3534   -11533.821    2919.7876   -6569.7764   -6445.8043    80.486087 
   56200    442.62856   -112.30943   0.40049962   -111.90893   -3235.7558    4.3200265    4.3200265    4.3200265   -3235.7558   -7515.5849    8617.0476    -10808.73   -3969.4054    434.01988   -679.07541    80.623051 
   56300    403.85672   -112.27446   0.36541804   -111.90904    480.06856    4.3223421    4.3223421    4.3223421    480.06856   -6115.4702   -402.03177    7957.7077   -231.38759    2037.9511   -3866.7925    80.752766 
   56400    354.53263   -112.23151   0.32078857   -111.91072   -2052.5872    4.3158541    4.3158541    4.3158541   -2052.5872    2245.0013   -949.65821   -7453.1047    2563.8234   -3900.5614   -7193.3567    80.389676 
   56500    369.23499   -112.24454   0.33409158   -111.91045    499.10339    4.3237835    4.3237835    4.3237835    499.10339     676.7814   -2388.4203    3208.9491   -4649.8217   -2244.4683    187.33854    80.833583 
   56600    527.00583   -112.38534   0.47684595   -111.90849   -3976.3551    4.3179279    4.3179279    4.3179279   -3976.3551    -2311.479   -9731.7353    114.14902    5855.5433    1429.9288   -866.14529    80.505613 
   56700    189.97441   -112.08316   0.17189284   -111.91127    3290.6623    4.3188883    4.3188883    4.3188883    3290.6623    -703.2999     8590.554    1984.7328    4397.2453   -4810.7136   -6906.9759    80.559342 
   56800    577.02763   -112.42992   0.52210673   -111.90781   -7469.0201    4.3237221    4.3237221    4.3237221   -7469.0201   -8612.3358   -5782.7559   -8011.9687    1459.5254   -3209.3935    5693.4536    80.830139 
   56900     316.6895   -112.19519   0.28654732   -111.90865    14024.305    4.3163489    4.3163489    4.3163489    14024.305    7181.8556    15132.586    19758.474    1359.2146    1209.2627   -4030.1657    80.417328 
   57000    440.96979   -112.30867   0.39899874   -111.90967   -11244.146    4.3210633    4.3210633    4.3210633   -11244.146   -7928.2083   -13201.984   -12602.246    2333.6175   -7038.0275   -4455.4709    80.681113 
   57100    379.25755   -112.25252    0.3431602   -111.90936    2632.4515    4.3222591    4.3222591    4.3222591    2632.4515    2312.6514    411.22284    5173.4803   -3498.4844   -969.33238    2103.8057    80.748116 
   57200    488.89262   -112.35126   0.44236032    -111.9089    2162.2706    4.3150778    4.3150778    4.3150778    2162.2706    372.81732    -91.15979    6205.1542     365.5742   -646.79209    -5609.558    80.346303 
   57300    257.00261   -112.14474   0.23254136    -111.9122   -1565.8935    4.3233479    4.3233479    4.3233479   -1565.8935   -9178.5892    3985.2266    495.68201    4463.3972   -5510.7072   -3594.1492    80.809156 
   57400    455.70685     -112.322   0.41233314   -111.90967    6268.1989    4.3188006    4.3188006    4.3188006    6268.1989    8558.2978    8409.0338    1837.2651    -3907.053    95.626336    750.62295    80.554438 
   57500    487.27931     -112.351   0.44090056    -111.9101    3585.6021     4.317557     4.317557     4.317557    3585.6021    632.49437   -253.67308    10377.985    4951.6937    2788.8524   -517.47309     80.48487 
   57600    266.48707   -112.15369    0.2411231   -111.91257   -5736.3193    4.3235287    4.3235287    4.3235287   -5736.3193   -4691.0854     1933.354   -14451.226     677.6486   -4653.0377   -4461.7489    80.819289 
   57700    566.05724   -112.42074   0.51218049   -111.90856   -979.78436    4.3155537    4.3155537    4.3155537   -979.78436    3959.3449   -3185.3374   -3713.3606    2219.3624   -1758.9432    6476.4772    80.372888 
   57800    306.44551   -112.18691   0.27727834   -111.90964    5553.4215    4.3226362    4.3226362    4.3226362    5553.4215   -10296.418    17504.756    9451.9267    1528.3701    1432.9645   -2239.8007    80.769251 
   57900    376.93602   -112.25126   0.34105963    -111.9102   -7376.9285    4.3187893    4.3187893    4.3187893   -7376.9285   -6983.5455   -4081.6655   -11065.574    3702.8949   -8763.1067   -3924.1063    80.553806 
   58000    362.88075    -112.2382   0.32834213   -111.90986    9506.6876    4.3194485    4.3194485    4.3194485    9506.6876    8462.6974    11583.416    8473.9491   -199.76498   -789.83009    1615.7922    80.590694 
   58100    538.86144   -112.39627   0.48757315    -111.9087   -3847.2002     4.320177     4.320177     4.320177   -3847.2002    -4073.728   -1855.8059   -5612.0667   -972.89717   -1453.0141    -4687.779     80.63148 
   58200    251.66031   -112.13914   0.22770754   -111.91143   -2094.9214    4.3198806    4.3198806    4.3198806   -2094.9214    2942.8144    1117.3517    -10344.93     623.4038   -7249.3131   -1648.7446    80.614884 
   58300    544.32939   -112.40103   0.49252067   -111.90851   -881.76519    4.3196789    4.3196789    4.3196789   -881.76519   -4780.0449    11884.923   -9750.1734   -5205.7183    266.38412   -762.51878    80.603591 
   58400    341.90403   -112.21912   0.30936195   -111.90976    1332.9924    4.3213372    4.3213372    4.3213372    1332.9924   -10903.069    4692.6143    10209.432    4332.6413    108.61865   -269.02681    80.696459 
   58500    300.70686    -112.1823   0.27208588   -111.91021   -4774.3756    4.3178786    4.3178786    4.3178786   -4774.3756   -7093.7506    5210.8292   -12440.205    463.53372   -5666.5937   -3133.2572    80.502856 
   58600    495.71542   -112.35718   0.44853373   -111.90865   -1418.0164    4.3231179    4.3231179    4.3231179   -1418.0164   -1773.4548    -8353.504    5872.9095    4743.0157    321.76457    3975.2022    80.796254 
   58700    401.24313   -112.27348   0.36305321   -111.91043    4684.4739    4.3159998    4.3159998    4.3159998    4684.4739    2429.3906    13809.562   -2185.5312    2534.9362    1935.6191   -2338.2688    80.397815 
   58800    369.68559   -112.24592   0.33449929   -111.91142   -8592.5059     4.323521     4.323521     4.323521   -8592.5059   -3168.6661   -7648.8995   -14959.952    1023.7823   -8779.4983   -1622.7712    80.818857 
   58900    464.42456   -112.32763    0.4202211   -111.90741    6924.5363    4.3196548    4.3196548    4.3196548    6924.5363    2188.3767    18305.084    280.14826   -3958.5845    1230.4828    5009.4379    80.602244 
   59000    383.08797   -112.25539   0.34662604   -111.90876    311.67203    4.3166641    4.3166641    4.3166641    311.67203   -3418.0587   -332.46631    4685.5411   -80.949721   -1081.1638   -7410.3622    80.434943 
   59100    288.83455   -112.17182   0.26134357   -111.91047   -9494.9346    4.3247781    4.3247781    4.3247781   -9494.9346   -12729.774   -4589.0837   -11165.946    2776.2277   -9948.9698    485.46807    80.889374 
   59200    487.04573   -112.34849   0.44068921    -111.9078    6883.8332    4.3163275    4.3163275    4.3163275    6883.8332    2066.3734    10386.064    8199.0619    -3908.353    2759.8411    46.286165     80.41613 
   59300    417.04633   -112.28723   0.37735228   -111.90988     -1368.84    4.3188965    4.3188965    4.3188965     -1368.84   -8190.8131    6974.3446   -2890.0515    5368.8642   -1270.9576   -2122.6474    80.559802 
   59400    311.22086   -112.19333   0.28159917   -111.91173   -3914.3855    4.3250363    4.3250363    4.3250363   -3914.3855   -10121.049    9383.0476   -11005.155   -520.79292   -6161.7854   -259.98105    80.903866 
   59500    565.12014   -112.41869   0.51133258   -111.90736    7440.2727    4.3142859    4.3142859    4.3142859    7440.2727    8489.2427    9126.3386    4705.2367    1290.4432    2678.0787    6564.0506    80.302072 
   59600    309.29609    -112.1901    0.2798576   -111.91024    811.54508    4.3212212    4.3212212    4.3212212    811.54508   -6290.8451    11483.069   -2757.5889   -1910.9545   -365.74006   -2416.2574    80.689956 
   59700    362.34872   -112.23887   0.32786074   -111.91101   -8696.2567    4.3231796    4.3231796    4.3231796   -8696.2567    -7161.871   -9736.5716   -9190.3275    5020.4759   -6196.9774   -503.93158    80.799718 
   59800    438.66106   -112.30537   0.39690974   -111.90846    12561.704    4.3139669    4.3139669    4.3139669    12561.704    5699.8883    28932.172    3053.0518   -502.71938    2248.2432    3592.7059    80.284262 
   59900    365.83427   -112.24131   0.33101453    -111.9103     -9641.56    4.3254208    4.3254208    4.3254208     -9641.56   -19081.569   -4451.9209   -5391.1905    1466.4997   -1773.1612      -6281.9    80.925445 
   60000    382.88021   -112.25643   0.34643806      -111.91   -2634.9183    4.3184057    4.3184057    4.3184057   -2634.9183   -5331.4367    8099.8124   -10673.131      1083.47   -7097.9274    2501.1748    80.532339 
   60100    509.57541   -112.36944   0.46107454   -111.90837    6960.7925    4.3183026    4.3183026    4.3183026    6960.7925    4967.9233    11575.185     4339.269   -5342.6677    4249.5858    31.396672     80.52657 
   60200    443.40535   -112.31153   0.40120248   -111.91033   -8109.7669    4.3226474    4.3226474    4.3226474   -8109.7669   -8634.1526   -1895.4176   -13799.731    3214.1376   -3830.7219   -1316.3872    80.769878 
   60300    239.08103   -112.12853   0.21632554    -111.9122    6396.7379    4.3189275    4.3189275    4.3189275    6396.7379    8158.8374    16605.607   -5574.2303    511.16545   -6611.7628    119.61176    80.561538 
   60400    548.65101   -112.40452   0.49643096   -111.90809   -2772.7955    4.3192623    4.3192623    4.3192623   -2772.7955   -4392.5298    4332.1313   -8257.9881    4727.0369    4870.4545    4551.9713    80.580274 
   60500    181.24162   -112.07533   0.16399123   -111.91134   -2094.8393    4.3221522    4.3221522    4.3221522   -2094.8393     -9731.11    5944.7126   -2498.1205    2003.3539    -5603.707   -3654.1653    80.742123 
   60600    501.02907   -112.36281   0.45334163   -111.90947   -7901.3585    4.3180449    4.3180449    4.3180449   -7901.3585   -6712.5562    -4507.323   -12484.196    4814.1447   -4596.3103   -1116.0672    80.512156 
   60700    430.65748   -112.29782   0.38966793   -111.90815    6906.4853    4.3216293    4.3216293    4.3216293    6906.4853   -533.02161    17182.529    4069.9483   -1891.4005    4767.9582    2868.9475    80.712824 
   60800    476.75601   -112.34077   0.43137886   -111.90939   -10447.953    4.3193326    4.3193326    4.3193326   -10447.953   -11037.968   -3302.3497   -17003.542    2246.2127     -5257.14    -8581.985    80.584207 
   60900    299.13558   -112.18214   0.27066416   -111.91148    4573.8446    4.3194867    4.3194867    4.3194867    4573.8446      1206.24    19611.518   -7096.2241    203.67169   -4665.3054    2151.4835    80.592835 
   61000    502.87666   -112.36371   0.45501337    -111.9087   -4415.0481    4.3209149    4.3209149    4.3209149   -4415.0481   -7629.2199   -395.49167   -5220.4328   -2989.3845    2899.0027    1628.4238      80.6728 
   61100    264.15578   -112.15004    0.2390137   -111.91102   -4263.5389    4.3192558    4.3192558    4.3192558   -4263.5389   -9770.8247    1247.0923   -4266.8842    4938.0326   -5572.7463   -2883.4057     80.57991 
   61200     394.1181   -112.26754   0.35660634   -111.91093    1413.8298    4.3198449    4.3198449    4.3198449    1413.8298   -3260.1748    11193.913   -3692.2489   -2041.8699   -4175.6327    3019.4979    80.612883 
   61300    516.21523   -112.37586   0.46708239   -111.90878    886.55215    4.3199025    4.3199025    4.3199025    886.55215    1113.4649    240.56112    1305.6305    336.14947     3623.265    1565.8118    80.616109 
   61400    305.58056   -112.18755   0.27649571   -111.91105    231.03571    4.3197267    4.3197267    4.3197267    231.03571   -7674.3417    19888.604   -11521.155    3589.4408    -5342.802   -3759.9642     80.60627 
   61500    501.01099   -112.36293   0.45332527    -111.9096    -3507.672    4.3199781    4.3199781    4.3199781    -3507.672   -2151.9828   -2150.8241   -6220.2093    5246.0918    154.96513    404.89606    80.620344 
   61600    354.89828   -112.23033   0.32111942   -111.90921    4103.1788    4.3204256    4.3204256    4.3204256    4103.1788     -7190.22    15753.343    3746.4132   -1976.1276    1872.0883    1911.6598    80.645401 
   61700    403.80829   -112.27485   0.36537423   -111.90947   -7068.1821    4.3198979    4.3198979    4.3198979   -7068.1821   -10222.403   -2188.2667   -8793.8769    6012.3531   -6111.6381   -3847.8031    80.615853 
   61800    308.13683   -112.18894   0.27880868   -111.91013    9845.6194    4.3200598    4.3200598    4.3200598    9845.6194    4790.9844    15024.684    9721.1895   -4184.2607   -388.07937   -53.712987    80.624917 
   61900    467.92464   -112.33196   0.42338805   -111.90857   -991.45261    4.3208254    4.3208254    4.3208254   -991.45261    1646.5912    4772.8568   -9393.8059   -5873.7518    -1249.201    261.96749    80.667789 
   62000    358.08143   -112.23415    0.3239996   -111.91015     373.1658    4.3189853    4.3189853    4.3189853     373.1658   -2593.0825    5416.7967   -1704.2168    2856.9678   -4485.8714   -3126.9141    80.564769 
   62100    442.17086   -112.30893   0.40008548   -111.90884    122.71138    4.3215399    4.3215399    4.3215399    122.71138   -2776.1768    6744.9318   -3600.6208   -7.2436635    811.46249    1247.7772    80.707811 
   62200    468.16943   -112.33178   0.42360954   -111.90817   -4241.2079    4.3191318    4.3191318    4.3191318   -4241.2079   -12773.594    1187.2646   -1137.2938    337.84525    2409.7897    2438.7534    80.572971 
   62300    299.10925   -112.18063   0.27064034   -111.90999    168.45354     4.319412     4.319412     4.319412    168.45354   -14580.042    16709.706   -1624.3031    4084.9095   -3755.6785   -2074.0792     80.58865 
   62400    420.20451   -112.28904   0.38020987   -111.90883   -1229.2913    4.3215227    4.3215227    4.3215227   -1229.2913    2223.2134   -5598.2932   -312.79393    2605.7059    892.23878    2762.6034    80.706849 
   62500    369.51803   -112.24348   0.33434768   -111.90913    2381.2681      4.31763      4.31763      4.31763    2381.2681   -1406.5232    13676.169   -5125.8416   -6624.2597    1721.2025    277.83861     80.48895 
   62600     414.6087   -112.28567   0.37514667   -111.91052   -2379.3219    4.3210807    4.3210807    4.3210807   -2379.3219    36.029056    -4751.224   -2422.7706    7565.3096   -5258.4127   -3832.3356    80.682088 
   62700    464.92649   -112.32954   0.42067526   -111.90886   -2392.7627     4.321189     4.321189     4.321189   -2392.7627   -3338.6608    4578.8067   -8418.4341   -4902.9824    342.09459    -1178.142    80.688153 
   62800    359.27367   -112.23414   0.32507837   -111.90906    4362.9538    4.3156383    4.3156383    4.3156383    4362.9538   -6215.6518    12106.098    7198.4153   -1836.1774   -183.61302    1452.9452    80.377615 
   62900     414.5682   -112.28499   0.37511002   -111.90988   -10601.319    4.3250064    4.3250064    4.3250064   -10601.319   -16697.927    1325.5952   -16431.625    1856.7946    -4161.417   -5007.7837    80.902189 
   63000    267.68454   -112.15276    0.2422066   -111.91055    10564.028    4.3151834    4.3151834    4.3151834    10564.028     16713.21    9558.8668    5420.0071   -6585.1384    2989.9824   -1976.3664    80.352202 
   63100     517.1305   -112.37674   0.46791055   -111.90883   -9524.7824    4.3225519    4.3225519    4.3225519   -9524.7824   -6863.7063   -8635.8297   -13074.811   -379.21343   -1410.2292    3640.5171    80.764527 
   63200    325.61785   -112.20389   0.29462587   -111.90926    5167.9084    4.3212479    4.3212479    4.3212479    5167.9084    9049.3234    11390.429   -4936.0271    3128.2063   -4088.7152    -4768.736    80.691456 
   63300    535.77301   -112.39246   0.48477868   -111.90768   -3474.3608    4.3167123    4.3167123    4.3167123   -3474.3608    75.995924   -5470.1652   -5028.9131    3891.7782    2881.3841    1030.9032     80.43764 
   63400    334.58704   -112.21182   0.30274138   -111.90907    1565.6661    4.3226175    4.3226175    4.3226175    1565.6661   -8648.1176    16047.037   -2701.9205    -3909.467   -3029.0569    2841.3687    80.768203 
   63500    406.65961   -112.27674   0.36795416   -111.90879   -4975.3098    4.3209491    4.3209491    4.3209491   -4975.3098    -3415.223    2278.5294   -13789.236    5437.5717   -2662.0604   -3659.1948    80.674718 
   63600    310.95959   -112.19025   0.28136277   -111.90889    6485.7217    4.3153006    4.3153006    4.3153006    6485.7217    9738.1727    7197.8942     2521.098   -6341.4184    2019.3442   -3771.3609     80.35875 
   63700    452.23924   -112.31827   0.40919557   -111.90907   -8541.0732    4.3257841    4.3257841    4.3257841   -8541.0732   -9363.4622   -543.39392   -15716.363   -3724.0255   -3040.6932    983.64745    80.945838 
   63800    391.17364   -112.26317   0.35394213   -111.90923    2728.3389    4.3170628    4.3170628    4.3170628    2728.3389    7886.9473    4931.3111   -4633.2416    394.55643   -3483.8254   -6905.0599    80.457233 
   63900    441.32591   -112.30864   0.39932096   -111.90931    2863.5302    4.3165497    4.3165497    4.3165497    2863.5302    8652.0496    2425.5777   -2487.0366   -3851.8677    1794.7722   -3812.9187    80.428551 
   64000    466.61955   -112.33146   0.42220717   -111.90926   -7836.2251    4.3264601    4.3264601    4.3264601   -7836.2251   -14313.628    2246.3564   -11441.404    2903.4999   -1462.0942    3928.2794     80.98379 
   64100    270.43584   -112.15446   0.24469603   -111.90976    9518.6955    4.3131193    4.3131193    4.3131193    9518.6955    16905.636    12855.738   -1205.2883   -686.50513   -4408.7901   -8297.8785    80.236952 
   64200     460.1649   -112.32517   0.41636687    -111.9088   -10257.992    4.3224686    4.3224686    4.3224686   -10257.992   -11268.866   -10227.306   -9277.8048    1954.2741     3121.946    602.18064    80.759859 
   64300     293.6797    -112.1753   0.26572756   -111.90958    2041.0382    4.3219439    4.3219439    4.3219439    2041.0382   -2689.1504    12794.411   -3982.1459   -2196.0195   -4239.0622    869.10491    80.730448 
   64400    487.31279   -112.34999   0.44093085   -111.90906   -4237.3581    4.3155981    4.3155981    4.3155981   -4237.3581    2592.4353   -6153.1648   -9151.3448    6626.2013   -3283.5836   -7655.0832     80.37537 
   64500    362.81532   -112.23857   0.32828293   -111.91029    4380.0896    4.3226644    4.3226644    4.3226644    4380.0896    6090.7068    8478.8783   -1429.3164   -3348.3184   -300.52526    -343.2777    80.770832 
   64600    518.08707   -112.37794   0.46877607   -111.90916   -3640.0812    4.3200922    4.3200922    4.3200922   -3640.0812   -6319.6256    4910.1829   -9510.8008   -2630.6041   -3949.6811    2043.3984    80.626733 
   64700    322.32465   -112.20209   0.29164611   -111.91044     2047.434    4.3175643    4.3175643    4.3175643     2047.434     6293.836    2827.0227   -2978.5567    279.80273   -987.78657   -7091.0545    80.485274 
   64800    410.48002   -112.28056   0.37141095   -111.90915   -8350.8826     4.324328     4.324328     4.324328   -8350.8826   -18345.334   -823.15438   -5884.1594   -7910.1107    938.79928   -3452.2072    80.864122 
   64900    388.59746   -112.25973   0.35161115   -111.90812    117.78196    4.3169476    4.3169476    4.3169476    117.78196   -6272.8351    6324.3432    301.83775    2305.9641   -1150.7824    2031.8917    80.450795 
   65000    325.56837   -112.20442    0.2945811   -111.90984    1617.6531    4.3216231    4.3216231    4.3216231    1617.6531    5169.7934    11578.736    -11895.57     2500.412   -2103.5243   -10519.289    80.712474 
   65100    463.91688   -112.32853   0.41976175   -111.90876    1827.3902    4.3209731    4.3209731    4.3209731    1827.3902    2911.4656    918.94427    1651.7606    2449.4139    1056.4482     1586.835    80.676062 
   65200    432.07106   -112.29998   0.39094697   -111.90903    5732.1075    4.3166528    4.3166528    4.3166528    5732.1075    8063.7913    17899.979   -8767.4482   -613.61452   -6631.2909     1932.025    80.434315 
   65300    381.30278    -112.2545   0.34501077   -111.90949   -5111.2279    4.3241038    4.3241038    4.3241038   -5111.2279   -4124.7177   -7534.1768   -3674.7893     3809.978   -636.05528    -8334.649    80.851547 
   65400    404.59209   -112.27425   0.36608343   -111.90817    2350.0024    4.3161817    4.3161817    4.3161817    2350.0024   -10478.661    15978.035    1550.6332    -3203.794    526.00376     313.6696    80.407979 
   65500    369.65849   -112.24379   0.33447477   -111.90931   -1681.6777    4.3208613    4.3208613    4.3208613   -1681.6777   -16027.979    12324.937   -1341.9912   -2748.7469   -5184.4686     -464.701    80.669797 
   65600    320.21469   -112.19988   0.28973698   -111.91014    890.77939    4.3210659    4.3210659    4.3210659    890.77939    2608.5426    8040.8358   -7977.0403    2296.5569    2843.9469   -9520.9581    80.681262 
   65700    480.62139   -112.34296   0.43487633   -111.90809    4160.4455    4.3171333    4.3171333    4.3171333    4160.4455    708.65324    10510.581    1262.1018   -3905.5363   -685.84484   -840.30451    80.461177 
   65800    515.82551    -112.3758   0.46672976   -111.90907   -3618.1549    4.3212736    4.3212736    4.3212736   -3618.1549    676.11906   -153.02277   -11377.561   -162.14155   -85.611404   -535.62788    80.692896 
   65900     259.3532   -112.14627   0.23466822    -111.9116    4486.4837    4.3195856    4.3195856    4.3195856    4486.4837     2156.392    12250.916    -947.8572   -2706.2988   -1338.9138   -9349.1891    80.598369 
   66000    518.63906   -112.37782   0.46927552   -111.90855   -3875.7164    4.3180218    4.3180218    4.3180218   -3875.7164   -11720.429    4487.3614   -4394.0814    147.07061   -657.41526    47.316453    80.510863 
   66100    257.03613   -112.14335   0.23257169   -111.91078    1153.8078    4.3230577    4.3230577    4.3230577    1153.8078   -14170.361    17392.472    239.31212     427.0539   -2744.1504   -2446.1612    80.792879 
   66200    400.44027   -112.27338   0.36232677   -111.91106   -6124.6525     4.316908     4.316908     4.316908   -6124.6525   -659.21668   -6279.4327   -11435.308    3076.1747   -1464.2207   -9253.6205    80.448582 
   66300    481.64795   -112.34467   0.43580519   -111.90886   -320.35333    4.3211651    4.3211651    4.3211651   -320.35333   -8572.4851    8629.0967   -1017.6716   -599.67886    545.48417    1088.4197    80.686817 
   66400    448.66455   -112.31522   0.40596111   -111.90926   -1359.3935    4.3212357    4.3212357    4.3212357   -1359.3935   -2337.8539    6816.6383   -8556.9649    469.19377   -2371.2721   -2194.3125    80.690773 
   66500    364.83829   -112.24081   0.33011335    -111.9107   -170.85797    4.3168695    4.3168695    4.3168695   -170.85797    4223.5744    3904.4811   -8640.6294   -1749.7477    2734.3926   -11892.288    80.446428 
   66600    376.57677   -112.24968   0.34073458   -111.90895    1503.2711     4.322934     4.322934     4.322934    1503.2711   -7959.0188    8651.4023    3817.4299   -4569.4045   -2806.6114    1502.0526    80.785944 
   66700     442.0369   -112.30892   0.39996427   -111.90896   -8464.2424    4.3193609    4.3193609    4.3193609   -8464.2424   -4892.3609   -6539.2281   -13961.138   -686.65379   -1816.6218   -6001.8533    80.585791 
   66800    162.29851    -112.0586    0.1468511   -111.91174    6207.9031    4.3181907    4.3181907    4.3181907    6207.9031    6727.3952    11044.796    851.51775    1612.6252    1522.1675   -9802.7617    80.520316 
   66900    627.22459   -112.47514   0.56752599   -111.90761   -8956.4683    4.3226426    4.3226426    4.3226426   -8956.4683   -13811.624   -846.52021   -12211.261    240.37684   -2206.3483    3385.8938    80.769609 
   67000    280.39314   -112.16442    0.2537056   -111.91071    8490.7115    4.3179181    4.3179181    4.3179181    8490.7115    2630.0022    22690.177    151.95533    888.73347   -2933.1666   -6037.4768    80.505063 
   67100    484.17621   -112.34904   0.43809281   -111.91095   -9990.3442     4.319447     4.319447     4.319447   -9990.3442   -3115.5829   -11955.589   -14899.861    1982.9889    2363.3707   -8465.4191    80.590613 
   67200     456.3666   -112.32195   0.41293009   -111.90902   -1383.5771    4.3229466    4.3229466    4.3229466   -1383.5771   -12450.413    6040.4917    2259.1895   -2556.0315   -1035.1119    2157.7421    80.786652 
   67300    369.48994   -112.24439   0.33432227   -111.91007   -1049.9487    4.3161098    4.3161098    4.3161098   -1049.9487    -3337.031    9201.2109    -9014.026    1456.0097    -3905.986   -6944.7731    80.403962 
   67400    273.52861   -112.15905   0.24749443   -111.91155   -3150.4428     4.322819     4.322819     4.322819   -3150.4428    -4449.022    3052.8602   -8055.1665   -242.39671    1280.9438   -7069.8434    80.779498 
   67500    473.63753    -112.3367   0.42855719   -111.90814    4685.9815    4.3189047    4.3189047    4.3189047    4685.9815   -6597.6474    20355.275    300.31649    1842.6904   -3458.2497    3543.2305    80.560259 
   67600    424.49262   -112.29477   0.38408984   -111.91068   -3984.9988    4.3188633    4.3188633    4.3188633   -3984.9988    3589.8797   -5394.7548   -10150.121    974.95295   -496.78283   -10460.568    80.557942 
   67700    301.29628   -112.18514   0.27261921   -111.91252   -874.40838    4.3217043    4.3217043    4.3217043   -874.40838    2300.9035    2233.2612   -7157.3899   -408.22503    761.04938   -4055.6887    80.717024 
   67800    614.72089   -112.46422   0.55621238   -111.90801   -249.18842     4.317736     4.317736     4.317736   -249.18842   -2888.3819    4183.3543   -2042.5377   -265.55983    2206.2978    2500.9948    80.494878 
   67900    221.01408   -112.11217   0.19997818   -111.91219    4228.9111    4.3210412    4.3210412    4.3210412    4228.9111    -2142.196    18948.131   -4119.2019   -1025.3927    1036.5874   -7515.9202    80.679877 
   68000    381.44187   -112.25638   0.34513662   -111.91125   -6114.0038    4.3200114    4.3200114    4.3200114   -6114.0038    -5012.736   -7870.3141   -5458.9614    2462.9073    922.78196     -2248.08    80.622206 
   68100    513.56828   -112.37241   0.46468737   -111.90772    2994.6868    4.3191918    4.3191918    4.3191918    2994.6868   -10063.201    14759.668    4287.5934   -3769.4096   -470.36235    674.33856     80.57633 
   68200    351.41803   -112.22849   0.31797042   -111.91052    -4517.907    4.3208598    4.3208598    4.3208598    -4517.907   -2381.2544   -407.15024   -10765.316    1797.5202   -1234.5536   -8209.8842    80.669718 
   68300    376.48585    -112.2517   0.34065231   -111.91105     -2377.23    4.3197843    4.3197843    4.3197843     -2377.23    661.81244   -2585.0709   -5208.4317   -4124.1433    1084.3937   -306.97896    80.609495 
   68400    515.33645   -112.37441   0.46628725   -111.90812    8795.0059    4.3186723    4.3186723    4.3186723    8795.0059    5276.4996    23803.835    -2695.317   -242.27925   -3413.7638    2275.0714    80.547259 
   68500    299.47179   -112.18208   0.27096837   -111.91111   -3835.2235    4.3230451    4.3230451    4.3230451   -3835.2235    4993.4933   -13199.331   -3299.8329    1149.2025    202.97721   -9883.5826    80.792172 
   68600    324.61358   -112.20378   0.29371719   -111.91006     1662.302    4.3173317    4.3173317    4.3173317     1662.302    4098.8986    6603.7661   -5715.7586    2339.6347    2561.2845    1748.7804    80.472267 
   68700     512.2737   -112.37106   0.46351601   -111.90754     875.3169    4.3213266    4.3213266    4.3213266     875.3169   -9004.9213    6043.7037    5587.1683    5461.0512   -125.28057   -1688.9796    80.695864 
   68800    281.03079   -112.16601   0.25428256   -111.91173   -3224.4399    4.3201986    4.3201986    4.3201986   -3224.4399   -5874.1412    10587.435   -14386.614   -1229.0162    1796.4962   -10680.987    80.632685 
   68900    440.51881   -112.30954   0.39859068   -111.91095   -527.31942     4.318938     4.318938     4.318938   -527.31942   -2233.0005    3007.8715   -2356.8293    2141.8449    1653.8639    1540.3523    80.562126 
   69000    564.70174   -112.41852     0.510954   -111.90756    1232.2742    4.3218907    4.3218907    4.3218907    1232.2742   -3400.6387    10386.222   -3288.7604   -5551.2794    593.60315   -22.262395    80.727467 
   69100    262.86393   -112.14875   0.23784481   -111.91091    -3352.592    4.3192829    4.3192829    4.3192829    -3352.592    5632.7378   -10497.819   -5192.6946    724.50835   -132.00247   -9219.5677    80.581424 
   69200    408.79039   -112.28042   0.36988213   -111.91054   -2694.8247    4.3193361    4.3193361    4.3193361   -2694.8247   -5605.5143   -189.79593   -2289.1639   -591.48896     1005.714     1552.977    80.584405 
   69300     406.3814    -112.2765   0.36770243    -111.9088    6333.2427    4.3203572    4.3203572    4.3203572    6333.2427     -1893.03    21969.827   -1077.0695    561.81602    -372.9821   -954.40037    80.641568 
   69400    392.43005    -112.2666   0.35507896   -111.91152   -8825.8173    4.3195762    4.3195762    4.3195762   -8825.8173   -6314.8544    -10073.41   -10089.187    4424.5663   -2288.9885   -9165.6849    80.597844 
   69500    355.68285   -112.23363   0.32182932   -111.91181    6316.1122    4.3196941    4.3196941    4.3196941    6316.1122    4786.8756    19084.136   -4922.6753   -2596.7171    364.29258    3389.1814    80.604443 
   69600    577.48066   -112.43119   0.52251664   -111.90868   -4131.2001     4.320297     4.320297     4.320297   -4131.2001   -4390.8739   -4253.1568   -3749.5695    4183.5581    297.58312   -5326.4503    80.638198 
   69700    235.63247   -112.12526   0.21320521   -111.91206   -2488.7443    4.3200887    4.3200887    4.3200887   -2488.7443    4127.4484    -5811.843   -5781.8383   -861.50329   -141.22541   -8116.4905    80.626535 
   69800    429.56751   -112.29901   0.38868171   -111.91033   -1763.4208    4.3190458    4.3190458    4.3190458   -1763.4208   -8052.1554    6442.1278   -3680.2347    2793.9421    2935.3786    3627.0851    80.568157 
   69900     463.0902   -112.32766   0.41901374   -111.90865   -1111.8625    4.3209058    4.3209058    4.3209058   -1111.8625   -3515.7612    7452.9852   -7272.8115   -1744.2026    1297.3004   -4423.6887    80.672291 
   70000    303.81433   -112.18552   0.27489759   -111.91062   -405.54018    4.3206505    4.3206505    4.3206505   -405.54018    2369.2682    1489.4111   -5075.2999   -1186.0537     1420.232   -5755.7966    80.657995 
   70100    487.08387   -112.34951   0.44072372   -111.90879   -337.09172    4.3186904    4.3186904    4.3186904   -337.09172    5520.1161    6946.5884    -13477.98   -1313.9933    2918.4932    7844.1565    80.548271 
   70200    329.32024   -112.20681   0.29797587   -111.90884       5691.4    4.3208432    4.3208432    4.3208432       5691.4    4752.8901    9802.5629    2518.7471   -5356.1538   -949.11223   -4898.4634    80.668785 
   70300     420.7756   -112.28999   0.38072661   -111.90926    -9315.947    4.3218225    4.3218225    4.3218225    -9315.947    1039.3204   -12189.349   -16797.812    2875.5753    311.16754   -6478.3048    80.723645 
   70400    329.65141   -112.20698   0.29827552    -111.9087    7030.4673    4.3174243    4.3174243    4.3174243    7030.4673   -476.16941    19428.231      2139.34   -1846.2521    237.15893    6658.0217    80.477449 
   70500    528.73427   -112.38621   0.47840988    -111.9078   -10460.474    4.3231264    4.3231264    4.3231264   -10460.474   -10329.163   -8878.0376   -12174.222     6012.754   -2540.4133   -6334.7721    80.796734 
   70600    317.64548    -112.1971   0.28741231   -111.90969    668.47094    4.3195611    4.3195611    4.3195611    668.47094     2341.822    4452.7164   -4789.1256    -2994.443    1503.2284   -3894.2425    80.596998 
   70700    454.82101   -112.32034   0.41153161   -111.90881    2226.3936    4.3176643    4.3176643    4.3176643    2226.3936    1876.0423    12065.918   -7262.7794    1120.0132     1114.007    6291.1588    80.490869 
   70800    415.20041   -112.28393   0.37568205   -111.90825   -1872.2032    4.3244127    4.3244127    4.3244127   -1872.2032    1461.7417   -771.86605   -6306.4851   -2402.1588    -980.0198   -4586.8866    80.868877 
   70900    359.79507   -112.23438   0.32555014   -111.90883    3766.6124    4.3163115    4.3163115    4.3163115    3766.6124     7304.757    8343.8348   -4348.7546   -850.10603    2279.9824   -1627.2933    80.415235 
   71000    379.06548   -112.25185   0.34298641   -111.90887    -1698.472    4.3207936    4.3207936    4.3207936    -1698.472    2202.3901    2082.2809   -9380.0871    2226.2363     1284.124    6262.4915    80.666009 
   71100    381.39144   -112.25405   0.34509099   -111.90896   -1902.6113    4.3214528    4.3214528    4.3214528   -1902.6113   -4445.1483    1368.1558   -2630.8415   -2226.5011    112.43374   -4239.1075    80.702934 
   71200    427.53217   -112.29655   0.38684009   -111.90971   -2003.6952    4.3176795    4.3176795    4.3176795   -2003.6952    1937.8845   -2194.1572   -5754.8128    5946.4088     1813.233    1320.3896    80.491722 
   71300    364.57079    -112.2398   0.32987131   -111.90993    3679.9432    4.3201446    4.3201446    4.3201446    3679.9432   -6453.0615    22565.752   -5072.8606   -4382.5126    812.14577    2976.6726    80.629665 
   71400    548.98634   -112.40484   0.49673438   -111.90811   -5873.4851    4.3226156    4.3226156    4.3226156   -5873.4851    -5402.086   -4874.5648   -7343.8044    3288.7733   -2331.2192   -6537.0948    80.768096 
   71500    327.40324   -112.20604   0.29624133    -111.9098    7105.8592    4.3161246    4.3161246    4.3161246    7105.8592    5757.0606    20197.067   -4636.5502   -1609.5662    184.60332      2030.89     80.40479 
   71600    364.88157   -112.23997   0.33015251   -111.90981   -6795.8019    4.3221683    4.3221683    4.3221683   -6795.8019     -2684.73   -3201.8295   -14500.846    2463.9466   -2424.3781    3690.3516    80.743029 
   71700    383.76318   -112.25607   0.34723699   -111.90883     1181.643    4.3196673    4.3196673    4.3196673     1181.643   -929.69001    917.30744    3557.3115    299.40441   -3356.5525   -4639.3652    80.602945 
   71800    366.87572    -112.2415   0.33195686   -111.90954    3359.5247    4.3189789    4.3189789    4.3189789    3359.5247    5713.7564    13947.926   -9583.1087    -984.6456    1043.7128    4096.0127    80.564411 
   71900    420.50799   -112.28994   0.38048447   -111.90946   -2728.2414    4.3211978    4.3211978    4.3211978   -2728.2414   -12161.159    5094.2391   -1117.8045    486.02274    -2511.381    4302.3219    80.688651 
   72000    465.88019   -112.33064   0.42153818    -111.9091    2297.5185    4.3200196    4.3200196    4.3200196    2297.5185    -2735.581    20660.385   -11032.248   -1952.8076    616.78077    -7183.599    80.622665 
   72100    432.42667   -112.30117   0.39126874    -111.9099   -4390.9059    4.3193938    4.3193938    4.3193938   -4390.9059   -4389.4432    118.84462   -8902.1191    4096.8406     2760.662    3469.6929    80.587633 
   72200      323.105     -112.202   0.29235219   -111.90965    -3727.221    4.3222149    4.3222149    4.3222149    -3727.221   -5797.2384    7602.7163   -12987.141   -416.10902   -1525.9092    3636.1392    80.745639 
   72300    505.85587   -112.36466   0.45770902   -111.90695   -376.70105    4.3195807    4.3195807    4.3195807   -376.70105    2199.8339   -4040.0174    710.08029    4296.0606   -641.00696   -4200.8345    80.598094 
   72400    273.05981   -112.15635   0.24707026   -111.90928    4570.0635    4.3199731    4.3199731    4.3199731    4570.0635    5352.7082    14640.468   -6282.9859   -2347.4296   -262.77618    4107.5765    80.620061 
   72500    372.89722   -112.24717   0.33740524   -111.90977   -3572.6103    4.3213517    4.3213517    4.3213517   -3572.6103   -5498.8214    2745.1297   -7964.1393   -1477.0984   -3223.9045    3269.2581    80.697272 
   72600    499.77014   -112.36056   0.45220253   -111.90836    4060.2335    4.3180253    4.3180253    4.3180253    4060.2335    2451.0162    15716.949    -5987.265   -4678.7994   -1279.4481   -3454.3386     80.51106 
   72700    317.96152   -112.19845   0.28769827   -111.91075   -3098.1701    4.3229908    4.3229908    4.3229908   -3098.1701    -5110.701    7871.1056   -12054.915   -1317.8382   -113.78772     4806.287    80.789131 
   72800    470.87301    -112.3348    0.4260558   -111.90875   -6116.5197    4.3185134    4.3185134    4.3185134   -6116.5197   -6908.9315    1000.3565   -12440.984     361.5612   -2402.7448    2441.0145    80.538368 
   72900     418.2857   -112.28727    0.3784737   -111.90879    9404.0144    4.3196866    4.3196866    4.3196866    9404.0144    75.179909    23245.634    4891.2288     450.9045    511.04137   -3281.3066    80.604023 
   73000     351.7026   -112.22988    0.3182279   -111.91165   -9567.4012    4.3212313    4.3212313    4.3212313   -9567.4012   -7627.1769   -7683.5985   -13391.428    4108.8567   -286.19964    6954.8635    80.690525 
   73100    284.55619   -112.16958   0.25747242    -111.9121    121.58015    4.3178531    4.3178531    4.3178531    121.58015   -6128.9345    12434.169   -5940.4936   -1048.4323   -1502.6099    1600.7218    80.501426 
   73200    563.16166   -112.41808    0.5095605   -111.90851   -1505.0416    4.3218739    4.3218739    4.3218739   -1505.0416   -2222.2947    2415.5652   -4708.3952    2878.8264    802.44476   -286.17546    80.726526 
   73300    334.81945   -112.21469   0.30295168   -111.91174   -3449.8774    4.3197238    4.3197238    4.3197238   -3449.8774   -3123.7522    11314.973   -18540.853   -807.72767   -841.67847    7423.0206    80.606107 
   73400    389.92267    -112.2642   0.35281022   -111.91139    2065.1045    4.3186666    4.3186666    4.3186666    2065.1045    -3742.143    12131.881   -2194.4241    2721.1775   -625.39013    2635.8545    80.546938 
   73500    548.25188   -112.40432   0.49606982   -111.90825    1915.0851    4.3207382    4.3207382    4.3207382    1915.0851    1156.8747    11826.771   -7238.3902   -2913.5746    1100.1927    -1216.592    80.662907 
   73600    181.79381   -112.07697   0.16449086   -111.91248   -4657.2418    4.3201931    4.3201931    4.3201931   -4657.2418   -4996.6654   -3496.6397   -5478.4203    342.37135    -19.90787    6369.2484    80.632382 
   73700    434.08855   -112.30398   0.39277244   -111.91121   -8516.8276    4.3193635    4.3193635    4.3193635   -8516.8276   -7244.2114   -4172.1519   -14134.119   -3754.7509    -2613.042    822.20157     80.58594 
   73800    464.88989   -112.32892   0.42064215   -111.90828    3532.8816    4.3230166    4.3230166    4.3230166    3532.8816   -802.38824    11302.407    98.626091    361.61714   -272.12407    292.42049    80.790577 
   73900    414.69358   -112.28549   0.37522347   -111.91026   -6289.0104    4.3169998    4.3169998    4.3169998   -6289.0104    3791.3693   -3294.6403    -19363.76    1587.7357   -1448.1493    10237.601     80.45371 
   74000    344.99929   -112.22366   0.31216261    -111.9115    3337.9276    4.3235062    4.3235062    4.3235062    3337.9276   -4677.0818    19842.953    -5152.088    2601.7283    -3321.253    288.91303    80.818029 
   74100    542.21374   -112.39778   0.49060639   -111.90718    2485.7086    4.3188824    4.3188824    4.3188824    2485.7086    12424.506    2628.1998   -7595.5801    7269.7144    1757.1456   -42.479551    80.559013 
   74200    175.18757      -112.07    0.1585134   -111.91149    -4063.451    4.3204605    4.3204605    4.3204605    -4063.451   -6292.3455    4414.8133   -10312.821     70.35372    -2836.425    7073.5657    80.647352 
   74300    385.82882   -112.25833   0.34910602   -111.90922   -3985.4164    4.3223402    4.3223402    4.3223402   -3985.4164   -4791.8541    4675.8451    -11840.24    3127.3113   -949.58707   -1269.6453    80.752662 
   74400    538.86993   -112.39463   0.48758084   -111.90705    1632.4363    4.3188222    4.3188222    4.3188222    1632.4363     1658.751    3873.8892    -635.3312   -6756.6271    1227.0793    932.22651    80.555644 
   74500    324.07163   -112.20418   0.29322682   -111.91095   -6927.6051    4.3216223    4.3216223    4.3216223   -6927.6051   -4680.9115   -52.939971   -16048.964    662.13105   -2235.8959    5747.8387    80.712432 
   74600    507.76525   -112.36943   0.45943667   -111.90999   -1813.1605    4.3207835    4.3207835    4.3207835   -1813.1605   -4045.0961    4725.1443   -6119.5298   -3212.0962     952.9638    66.025139    80.665442 
   74700    431.51116    -112.2994   0.39044036   -111.90896    7953.4139    4.3188405    4.3188405    4.3188405    7953.4139    12568.378    14333.038   -3041.1743    1554.9373   -1976.9885    1180.7869     80.55667 
   74800    308.48341   -112.19082   0.27912227    -111.9117   -5697.9117    4.3204396    4.3204396    4.3204396   -5697.9117   -7842.8879    4481.5346   -13732.382    3582.6151    87.600186    4971.9623    80.646183 
   74900     293.9403   -112.17639   0.26596336   -111.91043    3129.9195    4.3226765    4.3226765    4.3226765    3129.9195   -1165.9241    15020.997   -4465.3143    364.75456   -1303.4123   -1580.8725    80.771512 
   75000    559.60937    -112.4139   0.50634632   -111.90755    3750.0685    4.3136638    4.3136638    4.3136638    3750.0685    14174.478    -2862.435   -61.838139    6146.3809   -27.333865   -431.72025     80.26734 
   75100    299.64213   -112.18298    0.2711225   -111.91186   -8724.5504    4.3281002    4.3281002    4.3281002   -8724.5504   -8775.1066   -6911.1056   -10487.439   -4125.6823   -2980.8936    5372.4988    81.075925 
   75200    465.87848    -112.3311   0.42153664   -111.90956    5853.1344    4.3138657    4.3138657    4.3138657    5853.1344    8538.5776     14528.08   -5507.2546     3242.026    184.05191   -3197.8363    80.278613 
   75300    488.07209   -112.35025   0.44161788   -111.90864    2962.2934    4.3208369    4.3208369    4.3208369    2962.2934    3759.6871    3562.1887    1565.0045   -4592.9509     1448.367   -1219.5339     80.66843 
   75400    280.78787   -112.16467   0.25406277   -111.91061     -3096.93    4.3229408    4.3229408    4.3229408     -3096.93   -8226.0828     12845.57   -13910.277    1133.6923   -2650.4041    4273.7489    80.786327 
   75500    374.58663   -112.24869   0.33893385   -111.90976    1401.6507    4.3153281    4.3153281    4.3153281    1401.6507    -3476.342    5918.2194    1763.0747   -2291.1446    4765.6422   -4393.1214    80.360286 
   75600    457.08417   -112.32172   0.41357936   -111.90814   -1010.5596     4.322596     4.322596     4.322596   -1010.5596    14431.139   -11767.159   -5695.6587   -2744.0202   -1952.5652   -1470.2967       80.767 
   75700    427.04157   -112.29561   0.38639619   -111.90921    -6529.303    4.3219427    4.3219427    4.3219427    -6529.303   -10521.745   -5215.0927   -3851.0716    3594.3441    1121.7033    3761.1666    80.730383 
   75800    366.69094    -112.2416   0.33178967   -111.90981    6058.5264     4.315526     4.315526     4.315526    6058.5264    13457.895    12231.801   -7514.1168   -747.32138   -1103.7808   -4402.9135    80.371338 
   75900    471.03142   -112.33466   0.42619913   -111.90846   -2069.7713    4.3233268    4.3233268    4.3233268   -2069.7713   -4060.4787   -3645.7181    1496.8829    6431.8402    663.98823   -2849.2789    80.807971 
   76000    308.10598   -112.18929   0.27878077   -111.91051   -80.304831     4.320431     4.320431     4.320431   -80.304831   -5936.5387    19374.211   -13678.587    1228.5244   -1051.4268     4356.935      80.6457 
   76100    292.01736   -112.17463   0.26422344   -111.91041    3742.5423    4.3175161    4.3175161    4.3175161    3742.5423    9681.4036   -199.05824    1745.2815    3658.8774   -1393.8836   -4973.2701    80.482581 
   76200    499.47692   -112.35976   0.45193721   -111.90783    -6762.282    4.3254458    4.3254458    4.3254458    -6762.282    3841.1776   -12985.471   -11142.552   -4778.6812    2219.1078   -3630.8008    80.926845 
   76300    407.85132   -112.27742   0.36903245   -111.90839    3602.7709    4.3171607    4.3171607    4.3171607    3602.7709    6251.0951    5563.0391   -1005.8217   -1990.2402    -3081.945    4784.2549    80.462706 
   76400    471.17115   -112.33544   0.42632556   -111.90912   -6585.3127    4.3209966    4.3209966    4.3209966   -6585.3127   -1855.4412   -7377.5255   -10522.971   -2843.4784    1527.9033   -6875.2493    80.677377 
   76500    383.73711    -112.2562    0.3472134   -111.90899    461.11718    4.3233401    4.3233401    4.3233401    461.11718    2289.4141     4006.474   -4912.5366   -686.85204   -2159.1526   -3526.5994    80.808714 
   76600    419.93184   -112.28842   0.37996315   -111.90846    3127.8529    4.3150769    4.3150769    4.3150769    3127.8529    179.77263    11642.384   -2438.5979    6071.9883    652.30949    2115.4255    80.346249 
   76700    179.54464   -112.07373   0.16245576   -111.91128     3138.242    4.3259606    4.3259606    4.3259606     3138.242    16530.591    3642.7701   -10758.635    414.08746     973.3956   -8307.7806    80.955745 
   76800    521.60383   -112.37945   0.47195811   -111.90749    1872.7095    4.3175328    4.3175328    4.3175328    1872.7095    8406.2124    2013.8442    -4801.928     6324.699   -1115.0738   -2254.9335    80.483516 
   76900    427.50774   -112.29686   0.38681798   -111.91004    5168.2186    4.3193525    4.3193525    4.3193525    5168.2186    10858.546    9199.6713    -4553.561   -3633.4263    230.98631    2874.8633    80.585321 
   77000     403.6605   -112.27573   0.36524051   -111.91049   -8073.4277    4.3240848    4.3240848    4.3240848   -8073.4277    2587.2608   -10227.916   -16579.628    600.50933    612.34055   -8626.8569    80.850483 
   77100    513.76103   -112.37246   0.46486178    -111.9076    3430.6178    4.3157226    4.3157226    4.3157226    3430.6178    6297.2639    6431.2184   -2436.6288     -4647.01    670.60408   -1393.6429    80.382323 
   77200     355.4616   -112.23083   0.32162912    -111.9092    4430.9444    4.3223333    4.3223333    4.3223333    4430.9444    8207.5498    9235.0049   -4149.7217   -424.14291    -1839.549    608.16978    80.752273 
   77300     248.8186   -112.13621    0.2251363   -111.91108   -1140.6775    4.3206684    4.3206684    4.3206684   -1140.6775    11340.464    1040.9999   -15803.496    436.29681    1152.9618   -11289.676    80.658994 
   77400    403.41801   -112.27389   0.36502109   -111.90887    6932.1467    4.3181816    4.3181816    4.3181816    6932.1467    7211.6934    10522.603     3062.144   -2755.2144    182.74259   -857.94811    80.519806 
   77500    583.11277   -112.43703   0.52761269   -111.90942   -5305.3579    4.3208556    4.3208556    4.3208556   -5305.3579   -712.18372    -1382.193   -13821.697    5798.3976   -1917.9575    -2137.145    80.669478 
   77600     220.8107   -112.11428   0.19979416   -111.91448   -30.705204    4.3200396    4.3200396    4.3200396   -30.705204    12429.143   -2574.8788   -9946.3797   -4920.5655     785.4265   -11459.894    80.623783 
   77700    660.84166   -112.50766   0.59794342   -111.90971   -4284.9489    4.3183787    4.3183787    4.3183787   -4284.9489    951.06393   -3748.0966   -10057.814    4747.5845    1781.0584    576.07283    80.530831 
   77800    275.40844   -112.16097   0.24919534   -111.91177    7617.0109    4.3233099    4.3233099    4.3233099    7617.0109    16621.644    9070.5779    -2841.189      213.651   -1455.9122   -2100.5014     80.80702 
   77900    259.49106     -112.147   0.23479297   -111.91221   -7678.4868    4.3166154    4.3166154    4.3166154   -7678.4868    -3517.511   -1494.3906   -18023.559    2685.1682    2640.5899   -11025.565    80.432221 
   78000    408.66011    -112.2803   0.36976425   -111.91053   -991.05536     4.323136     4.323136     4.323136   -991.05536    -7933.668    5168.6021   -208.10016    -3291.492   -808.61008    1172.3366    80.797273 
   78100    481.48427   -112.34606   0.43565709    -111.9104   -2659.8547    4.3199124    4.3199124    4.3199124   -2659.8547    8148.9576   -1792.6531   -14335.868   -1540.3485     1802.451   -3739.9941    80.616663 
   78200     372.6743    -112.2492   0.33720354     -111.912   -4951.5137    4.3171108    4.3171108    4.3171108   -4951.5137    2325.7697   -9493.1392   -7687.1717   -1957.8003   -1534.8829   -10694.601    80.459916 
   78300     545.5326   -112.40316   0.49360936   -111.90955   -3848.9168    4.3270137    4.3270137    4.3270137   -3848.9168    9120.2424   -4677.5437   -15989.449   -3775.5716    148.70759    4442.4827    81.014886 
   78400    395.34925   -112.26763   0.35772031   -111.90991    6060.2365    4.3145073    4.3145073    4.3145073    6060.2365    10298.632    4736.3336    3145.7445    7327.9104     403.5596   -5973.8255    80.314437 
   78500    194.52335   -112.08766   0.17600882   -111.91165   -4971.8598    4.3231789    4.3231789    4.3231789   -4971.8598   -4330.5633    8278.9701   -18863.986      549.189    743.97194   -9622.5379    80.799675 
   78600    413.12434   -112.28114   0.37380359   -111.90733    804.64237    4.3238818    4.3238818    4.3238818    804.64237    1792.5374    1267.4603    -646.0706    4979.4068    3974.5868     3337.176    80.839092 
   78700    415.91142   -112.28384    0.3763254   -111.90751    6923.9801    4.3140168    4.3140168    4.3140168    6923.9801    16087.651    8291.7878   -3607.4982   -660.03616   -1353.2265   -9719.8627     80.28705 
   78800    368.70809    -112.2433   0.33361483   -111.90969   -8878.1176    4.3259738    4.3259738    4.3259738   -8878.1176    378.99077   -16621.223    -10392.12   -1581.7774    3653.3815   -5094.1434    80.956485 
   78900    560.36093   -112.41369   0.50702635   -111.90666    654.11065    4.3201492    4.3201492    4.3201492    654.11065    10346.219   -3192.1177   -5191.7694   -3977.4696   -2417.7054    5145.3942    80.629923 
   79000    436.81246   -112.30269   0.39523709   -111.90746    1503.4836    4.3177437    4.3177437    4.3177437    1503.4836     4694.188   -1214.7095    1030.9722   -1296.4725   -746.78973   -6599.3247    80.495312 
   79100    292.79338   -112.17456   0.26492561   -111.90963   -5495.3484    4.3237239    4.3237239    4.3237239   -5495.3484      1311.67    -2224.163   -15573.552   -399.63344   -1278.0095   -2386.0758    80.830238 
   79200    359.79587   -112.23379   0.32555086   -111.90824    5512.6275    4.3202887    4.3202887    4.3202887    5512.6275    11047.107    3875.4337    1615.3419   -2378.1138    460.96547    4421.5761    80.637735 
   79300    462.48727    -112.3267    0.4184682   -111.90823    3997.7864    4.3150546    4.3150546    4.3150546    3997.7864    11519.789     921.9831    -448.4133    7651.4256    1296.5482   -8761.6662    80.345004 
   79400    279.55539   -112.16458    0.2529476   -111.91163   -7201.1109    4.3276279    4.3276279    4.3276279   -7201.1109   -730.61197   -12008.023   -8864.6983   -5369.5259    940.74388    -3489.715    81.049386 
   79500    561.79277   -112.41664   0.50832191   -111.90832    2129.8001    4.3130155    4.3130155    4.3130155    2129.8001    2896.9713     -3838.58    7331.0089    1070.9773    2744.2125     5799.177    80.231155 
   79600    406.01118   -112.27703   0.36736745   -111.90966    1592.9651     4.323517     4.323517     4.323517    1592.9651    13347.386   -2601.6369   -5966.8543    533.92432   -2175.9499   -7800.3065    80.818636 
   79700    352.38421   -112.22952   0.31884464   -111.91068    -6241.375    4.3213001    4.3213001    4.3213001    -6241.375   -2341.4357   -10341.346   -6041.3432    -2844.747    3665.9299   -898.71839    80.694381 
   79800    364.54628   -112.24003   0.32984913   -111.91018    4588.1518    4.3156898    4.3156898    4.3156898    4588.1518    9997.3841    5542.8605   -1775.7892   -2561.0705   -2250.4314     3825.737    80.380494 
   79900    405.38608   -112.27552   0.36680185   -111.90872   -2906.2786    4.3244245    4.3244245    4.3244245   -2906.2786   -5138.7612   -8918.0126     5337.938   -1003.0688    2734.3649   -8349.0776    80.869537 
   80000    405.53038   -112.27722   0.36693241   -111.91029   -7922.1212     4.317998     4.317998     4.317998   -7922.1212   -10787.725   -6093.2349   -6885.4032   -1919.3943   -926.87725   -37.279338    80.509536 
   80100    361.94411   -112.23826   0.32749463   -111.91076    2952.5846    4.3203154    4.3203154    4.3203154    2952.5846    5240.2968   -5818.2301     9435.687   -5440.2669   -343.21808    4535.3944    80.639226 
   80200    584.69668   -112.43647   0.52904585   -111.90743   -7931.2484    4.3236682    4.3236682    4.3236682   -7931.2484    1254.8433    -11302.92   -13745.669     3470.228     331.7146   -3509.4572    80.827117 
   80300    240.10143   -112.12668   0.21724882   -111.90943    1132.1007    4.3177589    4.3177589    4.3177589    1132.1007     12437.92   -10520.175    1478.5571   -4682.3676    1889.9133     1467.169    80.496162 
   80400    424.19722   -112.29284   0.38382256   -111.90902   -6156.6234    4.3211699    4.3211699    4.3211699   -6156.6234   -7862.3567   -5841.4543   -4766.0591     1631.632    3768.7496    3828.4395    80.687087 
   80500    392.03637   -112.26328   0.35472274   -111.90856    873.02078    4.3232522    4.3232522    4.3232522    873.02078   -346.70589   -2937.1321    5902.9003    2460.4716   -290.74637   -7694.7348    80.803787 
   80600    384.87499    -112.2578   0.34824298   -111.90956   -297.38398    4.3158618    4.3158618    4.3158618   -297.38398    -7849.259    3145.7597    3811.3473   -4213.9138    6297.3378    461.81667    80.390101 
   80700    346.43268   -112.22301   0.31345957   -111.90955   -555.06815    4.3261952    4.3261952    4.3261952   -555.06815    5206.5363   -2875.6221   -3996.1186   -907.99713   -4404.8974    707.60784    80.968919 
   80800    542.12624   -112.39707   0.49052721   -111.90654     1273.577    4.3170418    4.3170418    4.3170418     1273.577    8374.3459   -2460.9004   -2092.7145   -3970.1026   -36.208984   -6226.4053    80.456061 
   80900    306.69524   -112.18811    0.2775043    -111.9106    -4001.763    4.3208682    4.3208682    4.3208682    -4001.763    7333.6185   -12926.469   -6412.4381   -4303.5702    2519.4644    5100.2093    80.670186 
   81000    345.98456   -112.22337    0.3130541   -111.91031   -2530.3523    4.3221974    4.3221974    4.3221974   -2530.3523    1177.3111   -11539.579    2771.2107   -3135.4383   -1558.7516    1657.3816    80.744657 
   81100     564.4313   -112.41861   0.51070931    -111.9079    576.12175    4.3170178    4.3170178    4.3170178    576.12175     254.9416   -2076.2529    3549.6765    2049.2259    1605.2769    -2776.158    80.454715 
   81200     272.7883   -112.15881   0.24682459   -111.91198    2411.4836    4.3233655    4.3233655    4.3233655    2411.4836    10661.809   -7482.4432    4055.0849   -3260.1381 -0.084073623    2978.7594     80.81014 
   81300    502.62897   -112.36541   0.45478925   -111.91062   -4168.5301    4.3187233    4.3187233    4.3187233   -4168.5301    -1244.821    626.37009   -11887.139    622.12893   -1290.1059    3432.3866    80.550112 
   81400    389.70024   -112.26259   0.35260897   -111.90998     10698.51    4.3175495    4.3175495    4.3175495     10698.51    22612.198     -1438.49    10921.822    1523.5217   -1299.7043    -2979.859    80.484449 
   81500    367.59493   -112.24396   0.33260762   -111.91135   -8643.1843     4.323863     4.323863     4.323863   -8643.1843   -1940.0027   -14513.101   -9476.4489   -5485.6701    4804.3226    6133.7747    80.838041 
   81600    247.58246   -112.13483   0.22401781   -111.91081    6375.1879    4.3188649    4.3188649    4.3188649    6375.1879    6783.7528   -3419.9011    15761.712    1144.6366   -3039.4202    1812.1246    80.558034 
   81700    590.65938   -112.44206   0.53444102   -111.90762    355.36429    4.3187774    4.3187774    4.3187774    355.36429    1337.2774   -2537.8422    2266.6576    -393.8248   -12.933559   -3993.3688    80.553137 
   81800    317.27642   -112.19856   0.28707837   -111.91149   -208.43068    4.3225349    4.3225349    4.3225349   -208.43068    9670.5278   -7062.8598   -3232.9601   -4657.9566    94.301626    4006.5347    80.763572 
   81900    445.70347   -112.31364   0.40328186   -111.91035   -1583.2165    4.3178765    4.3178765    4.3178765   -1583.2165   -3048.7961   -1262.3471    -438.5065   -1385.8023   -3686.0077   -389.24599    80.502739 
   82000    517.14002   -112.37586   0.46791916   -111.90794   -1087.4136    4.3223163    4.3223163    4.3223163   -1087.4136    7304.6257   -11038.011    471.14471   -298.27487    1666.1819    196.72547    80.751323 
   82100    224.65136   -112.11394   0.20326927   -111.91067    1685.0293    4.3199869    4.3199869    4.3199869    1685.0293    3851.8142   -12006.298    13209.572   -5682.0837    1248.5254    5048.7581    80.620837 
   82200    407.89237   -112.27811   0.36906959   -111.90905   -4496.8116    4.3205011    4.3205011    4.3205011   -4496.8116   -4959.9872   -7503.5879   -1026.8598    521.95709   -2225.3667    5029.4724    80.649626 
   82300    397.93446   -112.26892   0.36005946   -111.90886    10055.339    4.3202657    4.3202657    4.3202657    10055.339    15069.797    2894.3406    12201.879    190.38249   -1513.3191    1023.2097    80.636444 
   82400    463.23353   -112.33026   0.41914344   -111.91112   -5375.8747    4.3190152    4.3190152    4.3190152   -5375.8747   -2947.3931   -1600.4968   -11579.734   -2213.5358    399.75791    4980.6355    80.566442 
   82500    304.54257   -112.18735   0.27555652   -111.91179    4974.2023    4.3227157    4.3227157    4.3227157    4974.2023    7505.1842    2088.1066    5329.3161    1828.4964   -3768.4581   -2070.8291    80.773707 
   82600    571.09578   -112.42405   0.51673946   -111.90732   -1007.7033    4.3197383    4.3197383    4.3197383   -1007.7033    3213.0992   -8541.8936    2305.6846    763.87238       1937.4   -1403.1962    80.606917 
   82700    203.62493   -112.09476   0.18424412   -111.91052    5540.9363    4.3186993    4.3186993    4.3186993    5540.9363    14123.897   -12327.222    14826.133   -2924.8601    2679.3103    3982.5878     80.54877 
   82800     445.3692   -112.31264   0.40297942   -111.90966    -9594.487    4.3235847    4.3235847    4.3235847    -9594.487   -5408.2382   -14880.632   -8494.5904   -1278.6962   -3739.0078   -1910.0067    80.822432 
   82900    456.24937   -112.32133   0.41282402    -111.9085    7913.4878    4.3164526    4.3164526    4.3164526    7913.4878    20329.857   -202.73628    3613.3422     1229.619    338.02457    4032.4038     80.42312 
   83000    394.60471   -112.26833   0.35704663   -111.91128   -3994.3172    4.3220319    4.3220319    4.3220319   -3994.3172   -181.81795   -10198.042   -1603.0919   -4594.3753    2113.9142     3902.629    80.735381 
   83100    416.64056   -112.28754   0.37698514   -111.91055     210.0138    4.3216211    4.3216211    4.3216211     210.0138    4249.9328    753.28401   -4373.1754    3244.9319   -1833.5218   -883.30467    80.712364 
   83200    433.95902   -112.30144   0.39265524   -111.90879    6967.9178    4.3179682    4.3179682    4.3179682    6967.9178     7973.635   -4347.4704    17277.589    632.64815   -228.99481   -670.25498    80.507865 
   83300    367.12294   -112.24288   0.33218055    -111.9107   -6504.1292    4.3207473    4.3207473    4.3207473   -6504.1292    4422.8124   -13505.472   -10429.728   -1264.4788   -491.99723    7420.7559    80.663414 
   83400    292.49943     -112.176   0.26465963   -111.91134   -984.62792    4.3211246    4.3211246    4.3211246   -984.62792    1216.9242   -4285.1189    114.31094    1449.8789   -6493.2633    -2016.915    80.684547 
   83500    517.66979   -112.37734   0.46839851   -111.90894   -1908.7829    4.3190683    4.3190683    4.3190683   -1908.7829    5495.7925    -7782.187   -3439.9542   -215.33608    145.99687    3918.2726    80.569418 
   83600    282.16273   -112.16671   0.25530677    -111.9114   -1069.2764    4.3230474    4.3230474    4.3230474   -1069.2764    587.25719   -10338.599    6543.5126   -378.64306    1774.5727    6933.3819    80.792306 
   83700    493.99331   -112.35625   0.44697553   -111.90928   -2503.0521    4.3172146    4.3172146    4.3172146   -2503.0521   -9836.6313    343.82743    1983.6475    -1309.948   -909.29008   -3479.3987    80.465723 
   83800    434.64437   -112.30171   0.39327536   -111.90843    980.63674    4.3232949    4.3232949    4.3232949    980.63674    12436.606   -14274.459    4779.7632    3247.0832    1266.3499    2531.3275    80.806179 
   83900    406.17617   -112.27709   0.36751673   -111.90957   -7119.9167     4.318276     4.318276     4.318276   -7119.9167   -5159.1022   -11958.208   -4242.4401   -2380.5664   -542.69284    1217.1394    80.525084 
   84000    347.52404    -112.2249   0.31444706   -111.91046   -3917.3652    4.3210328    4.3210328    4.3210328   -3917.3652    2525.7374   -7361.2132   -6916.6198    2962.8111   -4129.5526    299.01674    80.679406 
   84100    374.65062   -112.24836   0.33899176   -111.90937    2842.6442    4.3221136    4.3221136    4.3221136    2842.6442    2284.4948   -7611.9161    13855.354    405.00066    1033.1925     4463.486    80.739962 
   84200    383.29972   -112.25625   0.34681765   -111.90943   -206.15978    4.3166768    4.3166768    4.3166768   -206.15978    3340.8351   -2391.3127   -1568.0018   -2417.7228   -1348.6855    8620.8449    80.435657 
   84300    360.34211   -112.23712   0.32604511   -111.91108    575.93159    4.3231262    4.3231262    4.3231262    575.93159   -4617.0275    31.281994    6313.5403    5410.9341   -3221.5055   -173.13611    80.796722 
   84400    553.10422   -112.40859   0.50046032   -111.90813   -1980.2733    4.3206859    4.3206859    4.3206859   -1980.2733    8976.0622   -9551.9174   -5364.9645   -2642.2238   -1228.0347    4226.1653    80.659977 
   84500    383.41392   -112.25598   0.34692097   -111.90906    2107.1275    4.3162162    4.3162162    4.3162162    2107.1275    4527.6823   -4476.5554    6270.2556    1201.4112   -2269.8417     758.4773    80.409908 
   84600    355.19984   -112.23155   0.32139228   -111.91016   -7281.8946    4.3273836    4.3273836    4.3273836   -7281.8946   -4238.4913   -14871.137   -2736.0551     1086.839   -1048.5885    -3438.024    81.035662 
   84700    379.22569    -112.2518   0.34313138   -111.90867     9374.071    4.3143301    4.3143301    4.3143301     9374.071    16101.947   -4835.4923    16855.758    2390.2449    2451.7596    4461.6513    80.304541 
   84800    374.61066   -112.24847    0.3389556   -111.90951   -3648.1731    4.3208305    4.3208305    4.3208305   -3648.1731    611.22741   -11068.642   -487.10512    -1869.884    1337.1693     1816.041    80.668074 
   84900    384.00063   -112.25677   0.34745184   -111.90932   -5603.2448    4.3256716    4.3256716    4.3256716   -5603.2448    2355.4948   -6466.6326   -12698.597    2240.8383   -2575.7061     1131.803    80.939524 
   85000    511.96277   -112.37125   0.46323467   -111.90802    8820.3767    4.3118896    4.3118896    4.3118896    8820.3767    8062.0018    2734.4703    15664.658    5203.5601    1714.5495    5966.8691    80.168344 
   85100    440.03592    -112.3081   0.39815375   -111.90994   -4816.2657    4.3253042    4.3253042    4.3253042   -4816.2657    4187.7747   -8588.0772   -10048.494   -1995.1592   -4369.5878    1473.2072      80.9189 
   85200    264.06157   -112.14958   0.23892846   -111.91065    2210.8239    4.3217014    4.3217014    4.3217014    2210.8239   -6589.9567   -1415.9685    14638.397    5831.5981   -1640.2115    -2829.127    80.716861 
   85300    449.28712   -112.31482   0.40652443   -111.90829    5520.5422    4.3118902    4.3118902    4.3118902    5520.5422    17475.392    -4864.977    3951.2112   -1410.0016    773.88243    6287.0044    80.168375 
   85400    339.74528   -112.21723   0.30740867   -111.90982   -10980.146    4.3299576    4.3299576    4.3299576   -10980.146   -5724.8782   -19139.844   -8075.7174    346.35398   -4317.9364    386.46917    81.180351 
   85500    396.32902   -112.26756   0.35860682   -111.90895    2187.6515    4.3145849    4.3145849    4.3145849    2187.6515    2401.2762   -1451.6508     5613.329   -22.497064   -1332.0105    365.82421    80.318772 
   85600    520.97689   -112.37926   0.47139084   -111.90787    2755.9295    4.3192507    4.3192507    4.3192507    2755.9295    1139.2957   -5426.1938    12554.687    -2320.042     920.3599     1243.999    80.579622 
   85700    390.89971   -112.26301   0.35369427   -111.90931   -2160.1587    4.3259974    4.3259974    4.3259974   -2160.1587   -3851.2891   -7601.1521    4971.9652    2045.9259   -201.67345   -1229.9057    80.957811 
   85800    413.41873   -112.28276   0.37406995   -111.90869    1111.1957    4.3156299    4.3156299    4.3156299    1111.1957   -4174.8633    6919.0497    589.40063    2492.8775    629.84523   -2994.1436    80.377144 
   85900    350.82326    -112.2258   0.31743226   -111.90837    4808.3193     4.320902     4.320902     4.320902    4808.3193    9221.8409   -11073.181    16276.298     3572.076    1476.8372    2602.0696    80.672078 
   86000    377.31348   -112.25065   0.34140116   -111.90924   -7019.0944    4.3237006    4.3237006    4.3237006   -7019.0944    -3411.661   -8725.0269   -8920.5952    242.76524   -5885.1788    1893.2692    80.828931 
   86100    272.49731   -112.15645   0.24656129   -111.90989    9858.5587    4.3161597    4.3161597    4.3161597    9858.5587    172.33705   -1251.9764    30655.315    6213.0886   -1545.1864    1726.6701     80.40675 
   86200    518.61845   -112.37745   0.46925687    -111.9082   -1019.6113    4.3225613    4.3225613    4.3225613   -1019.6113    1960.1097   -4452.4934   -566.45017   -1700.6089   -651.28754    6177.5703    80.765054 
   86300    439.87186   -112.30694   0.39800531   -111.90893   -2814.1088    4.3210384    4.3210384    4.3210384   -2814.1088   -11269.436   -1040.8864    3867.9958   -2764.3229   -3689.1503    -464.6954    80.679719 
   86400    394.31443   -112.26688   0.35678398   -111.91009    2772.8694    4.3174526    4.3174526    4.3174526    2772.8694   -1107.9033    2040.6422    7385.8693    3752.5719    1581.7507   -31.720153    80.479029 
   86500    483.07929   -112.34597    0.4371003   -111.90887   -5772.1877     4.323064     4.323064     4.323064   -5772.1877    -2904.371    -18984.69     4572.498   -5396.4047    -254.9684     3.975978    80.793235 
   86600    212.52491   -112.10274     0.192297   -111.91045    4239.9441    4.3189787    4.3189787    4.3189787    4239.9441   -873.35821   -6647.0332    20240.224    2533.2595   -4178.7618    1625.7836    80.564403 
   86700     463.8002   -112.32965   0.41965617   -111.90999   -6754.6872    4.3190254    4.3190254    4.3190254   -6754.6872   -6925.2247    -9994.744   -3344.0927    1262.6889   -555.49893   -2983.5441    80.567017 
   86800    342.58973   -112.22018   0.30998239   -111.91019    6450.9012    4.3212351    4.3212351    4.3212351    6450.9012    5813.7278    5862.4527    7676.5231   -807.20625    1050.0208    1164.9771     80.69074 
   86900    562.96798   -112.41882   0.50938526   -111.90944   -10078.319    4.3203303    4.3203303    4.3203303   -10078.319   -17559.925   -2068.5149   -10606.518    1530.7058   -5898.6607   -1888.9524    80.640063 
   87000    299.41857   -112.18235   0.27092022   -111.91143    9007.6954      4.31768      4.31768      4.31768    9007.6954    2645.4733    3669.1379    20708.475    320.39433    623.10037   -2294.6096    80.491749 
   87100    495.75854    -112.3578   0.44857275   -111.90922   -8711.5183    4.3238363    4.3238363    4.3238363   -8711.5183   -8167.4737   -19552.334    1585.2523   -2162.5055   -2376.5188    2643.6822    80.836542 
   87200    300.80639    -112.1819   0.27217594   -111.90973   -236.37508    4.3174047    4.3174047    4.3174047   -236.37508    61.439048    -9756.706    8986.1417   -54.858152   -4106.9892    1800.1369    80.476351 
   87300    361.84113   -112.23752   0.32740146   -111.91012   -1941.6918    4.3199522    4.3199522    4.3199522   -1941.6918    20.163608   -5904.5752    59.336085    2922.8845    904.16645    591.82695    80.618891 
   87400    446.89669   -112.31272   0.40436152   -111.90836    -2532.801    4.3235629    4.3235629    4.3235629    -2532.801   -2400.0927   -4642.1361   -556.17406   -6489.3239    1639.6424   -1233.3805    80.821212 
   87500    371.59367   -112.24482   0.33622576   -111.90859    6254.9891    4.3165336    4.3165336    4.3165336    6254.9891   -6717.5773    7351.5938    18130.951    2724.4195   -4085.0388    938.07861    80.427647 
   87600     476.7871   -112.34021   0.43140699   -111.90881   -4382.9318    4.3224109    4.3224109    4.3224109   -4382.9318   -7410.0518   -3793.2478   -1945.4959    -1155.083    511.80453   -5274.9072    80.756626 
   87700    359.46249   -112.23408   0.32524922   -111.90884    2377.3967    4.3208957    4.3208957    4.3208957    2377.3967   -2482.7226   -10415.666    20030.579   -6852.8822   -3081.1347   -586.16388    80.671725 
   87800    452.61772   -112.31745   0.40953803   -111.90791   -5580.5283    4.3174733    4.3174733    4.3174733   -5580.5283   -877.80498   -10993.174   -4870.6063    1618.4185   -6703.5999   -1938.7043    80.480186 
   87900    257.21735   -112.14261   0.23273567   -111.90987    3526.4828    4.3228713    4.3228713    4.3228713    3526.4828    2313.5372   -5679.3779    13945.289   -2880.2271    2933.1992    193.45498    80.782431 
   88000     470.6148   -112.33386   0.42582216   -111.90804     -1749.19    4.3198657    4.3198657    4.3198657     -1749.19    337.57405   -12850.038    7264.8938   -1471.8163   -1210.7088   -35.872079    80.614052 
   88100    376.56632   -112.24983   0.34072512    -111.9091    5948.0542    4.3177616    4.3177616    4.3177616    5948.0542   -743.10314    4369.6741    14217.592    1631.5826     288.6743   -497.62163    80.496309 
   88200    461.20792   -112.32719   0.41731061   -111.90988   -7225.5599    4.3240374    4.3240374    4.3240374   -7225.5599   -11598.317   -9751.8629   -326.50013   -82.170716   -276.86324    623.06047    80.847822 
   88300    432.96709   -112.30074   0.39175772   -111.90898    2812.3463    4.3157121    4.3157121    4.3157121    2812.3463    4904.6686   -3571.6406    7104.0108   -5574.5045     1099.585    736.88882    80.381741 
   88400    386.19628   -112.25895   0.34943851   -111.90951   -2177.2744    4.3223365    4.3223365    4.3223365   -2177.2744   -5927.0339   -7799.7858    7194.9965    862.46324   -5090.1343    2849.1766    80.752454 
   88500    299.79592   -112.18151   0.27126165   -111.91024    1221.0191    4.3205972    4.3205972    4.3205972    1221.0191    6537.9433   -6027.2443    3152.3583   -4133.8606    1312.4951   -2701.5867     80.65501 
   88600    380.51751   -112.25341   0.34430024   -111.90911    2462.0815    4.3173429    4.3173429    4.3173429    2462.0815    954.03036   -14527.469    20959.683   -7610.6448   -772.21745    539.95991    80.472897 
   88700    452.59118   -112.31877   0.40951401   -111.90926   -5048.9138    4.3232654    4.3232654    4.3232654   -5048.9138    1897.2066   -5329.8088   -11714.139    4443.9839   -7946.4282   -3181.2476    80.804526 
   88800    449.87447   -112.31671   0.40705588   -111.90965   -3347.9043    4.3185252    4.3185252    4.3185252   -3347.9043    -5928.984   -9780.7885    5666.0596   -8365.6987    2706.0068   -2360.1972    80.539027 
   88900    437.18221   -112.30496   0.39557165   -111.90939    1650.1838    4.3192659    4.3192659    4.3192659    1650.1838    10247.176    -5397.169    100.54496   -2815.6917   -4557.4701    693.38143    80.580475 
   89000    398.11626   -112.26904   0.36022396   -111.90882   -1235.6643    4.3232371    4.3232371    4.3232371   -1235.6643   -3008.8894   -4722.4512    4024.3479    1982.8152    660.61057    1534.1367    80.802941 
   89100    282.67315   -112.16549    0.2557686   -111.90972    4648.9328    4.3171667    4.3171667    4.3171667    4648.9328    9436.5768   -4325.1759    8835.3973   -6945.1141    2342.1614   -337.78332    80.463043 
   89200    381.20462   -112.25346   0.34492195   -111.90853   -1220.9711    4.3213045    4.3213045    4.3213045   -1220.9711    9202.2046   -16732.694    3867.5759    283.06244    1801.1912    1765.7425    80.694627 
   89300    435.70083   -112.30231   0.39423127   -111.90808    -2611.042    4.3211183    4.3211183    4.3211183    -2611.042    1863.9763   -6492.0611   -3205.0411   -113.85126   -4712.7291    268.82545    80.684194 
   89400    428.69331   -112.29704   0.38789072   -111.90915   -1945.4899     4.318516     4.318516     4.318516   -1945.4899    6759.6807   -9286.3056   -3309.8449   -3140.9554   -653.53234   -4169.3671    80.538512 
   89500    460.05119   -112.32488   0.41626399   -111.90861    1218.2992    4.3200503    4.3200503    4.3200503    1218.2992    3308.1744   -5724.3896    6071.1129   -3717.8931   -780.82322   -439.14237    80.624385 
   89600    418.96599     -112.288   0.37908923   -111.90891   -1197.6764    4.3219113    4.3219113    4.3219113   -1197.6764    3962.1454   -2210.7152   -5344.4595    -308.2254   -8202.8623    765.94325    80.728624 
   89700    313.22119   -112.19343   0.28340911   -111.91003    976.07296    4.3179639    4.3179639    4.3179639    976.07296    1773.1563   -9242.7842    10397.847   -9483.5662    6186.4383   -2046.6209    80.507624 
   89800    348.30254   -112.22476   0.31515146   -111.90961   -428.47534    4.3202393    4.3202393    4.3202393   -428.47534     15404.58   -14722.399   -1967.6069   -3103.7052   -4514.5443   -852.56417    80.634966 
   89900    480.69546   -112.34365   0.43494335   -111.90871   -6373.9668    4.3215047    4.3215047    4.3215047   -6373.9668   -6311.1127    -9593.375   -3217.4126    2070.7499   -1445.4067    1540.0322    80.705841 
   90000    344.18485   -112.22162   0.31142569    -111.9102    3723.2942    4.3176568    4.3176568    4.3176568    3723.2942    16880.588   -2974.1171   -2736.5884   -6967.2539    2056.8703   -4830.7682    80.490452 
   90100    470.94774   -112.33537   0.42612341   -111.90925   -4575.0235     4.321768     4.321768     4.321768   -4575.0235   -4458.7882   -11331.163    2064.8809    5549.0671   -556.42393   -1446.3054    80.720596 
   90200    426.28473   -112.29469   0.38571139   -111.90898   -2601.8915     4.321046     4.321046     4.321046   -2601.8915   -131.45737   -1722.5742   -5951.6429   -2513.6185   -142.36163    -90.44113    80.680142 
   90300    295.64962   -112.17817   0.26750999   -111.91066    2155.6456    4.3179313    4.3179313    4.3179313    2155.6456    10902.923   -14424.498    9988.5112   -6289.1036    1145.5512   -1912.3502      80.5058 
   90400     442.2711    -112.3094   0.40017618   -111.90922    -5147.365    4.3203225    4.3203225    4.3203225    -5147.365    2559.0363   -17119.256   -881.87506    1311.2445   -1107.8716    1941.2025    80.639625 
   90500     348.0318   -112.22464   0.31490649   -111.90973    1665.1947    4.3229758    4.3229758    4.3229758    1665.1947    16428.015   -10271.265    -1161.166   -2912.6172   -6209.6574    2109.6048    80.788292 
   90600    423.23889   -112.29238   0.38295544   -111.90942    -31.54093    4.3161888    4.3161888    4.3161888    -31.54093     4021.037   -2795.0174   -1320.6424   -6181.5866    2928.2243   -1668.3033    80.408378 
   90700    382.61283   -112.25513   0.34619613   -111.90894   -806.92307    4.3233079    4.3233079    4.3233079   -806.92307    10243.751   -8188.0849   -4476.4355    3727.6532   -2615.4189   -803.17997    80.806912 
   90800    517.11878    -112.3759   0.46789994     -111.908   -3930.1415    4.3197911    4.3197911    4.3197911   -3930.1415   -3344.9865    -1371.112    -7074.326   -900.38409   -329.52379   -454.63476    80.609871 
   90900    292.38734   -112.17477   0.26455821   -111.91021     5799.887     4.317145     4.317145     4.317145     5799.887    27217.648   -12483.078    2665.0911   -7115.1254    3264.0708   -6422.1072    80.461829 
   91000    432.31027   -112.30041   0.39116342   -111.90925    -7945.218    4.3249779    4.3249779    4.3249779    -7945.218    1324.5945   -22962.225   -2198.0233    6301.2486   -2945.4242    -208.2863    80.900589 
   91100    391.79567   -112.26329   0.35450496   -111.90879      7336.41    4.3152471    4.3152471    4.3152471      7336.41    22092.406   -6229.3534    6146.1777   -1442.3993   -3316.6292    631.93223    80.355758 
   91200     353.5793   -112.23018   0.31992598   -111.91025   -2447.9046    4.3221984    4.3221984    4.3221984   -2447.9046    6078.1645    -10948.33   -2473.5487   -1691.4079    2575.3139   -4240.1543    80.744715 
   91300    494.14808   -112.35556   0.44711556   -111.90845   -4885.9973    4.3205251    4.3205251    4.3205251   -4885.9973   -3109.0169   -8206.2308   -3342.7441    4731.7172   -507.30141     1844.024     80.65097 
   91400    354.72765   -112.23037   0.32096503   -111.90941    9026.7062    4.3185038    4.3185038    4.3185038    9026.7062     26893.56    3190.4403   -3003.8816   -3209.4154   -386.13008    549.59383     80.53783 
   91500    445.38571   -112.31265   0.40299435   -111.90965   -9651.5818    4.3212828    4.3212828    4.3212828   -9651.5818   -1649.4431   -16351.328   -10953.974   -5101.5803    2662.7084   -2729.3978    80.693411 
   91600    268.31432   -112.15285   0.24277643   -111.91007    1640.6153    4.3197339    4.3197339    4.3197339    1640.6153    12675.658    -13326.51    5572.6974    6256.8684   -1790.1726    518.12533    80.606673 
   91700    546.89872    -112.4033   0.49484545   -111.90846   -5761.0177     4.318713     4.318713     4.318713   -5761.0177   -1660.9497   -11960.077   -3662.0269   -1562.8305    -1781.933    830.84036    80.549534 
   91800    264.03389   -112.15036   0.23890342   -111.91146    2257.7366    4.3214671    4.3214671    4.3214671    2257.7366    14642.446   -12283.951    4414.7148    -2190.511    2263.6075   -2217.8518    80.703734 
   91900    489.74905   -112.35261   0.44313523   -111.90948   -3840.8533    4.3194674    4.3194674    4.3194674   -3840.8533    2621.4134   -12128.246    -2015.727     8408.932    553.00359    2624.6528    80.591755 
   92000    409.41568   -112.27964   0.37044791    -111.9092    5600.0827    4.3195213    4.3195213    4.3195213    5600.0827    21079.503   -2241.5481   -2037.7065   -4078.0946   -2783.7865   -504.63065     80.59477 
   92100    380.60372   -112.25485   0.34437824   -111.91047   -8207.5643    4.3205619    4.3205619    4.3205619   -8207.5643   -6203.0544   -10213.819   -8205.8196    938.70034    2948.6489   -5094.1286    80.653029 
   92200    384.38075   -112.25735   0.34779578   -111.90956   -3655.6886    4.3205984    4.3205984    4.3205984   -3655.6886   -1814.7882   -13323.516    4171.2386    5503.1552   -3996.1991    2476.9216    80.655078 
   92300    407.90487   -112.27762    0.3690809   -111.90854    4259.5807    4.3192196    4.3192196    4.3192196    4259.5807    26355.914   -7229.2764   -6347.8951   -1384.1365    1870.2574   -3607.1436    80.577885 
   92400    367.64081   -112.24241   0.33264913   -111.90976   -1668.4402    4.3200041    4.3200041    4.3200041   -1668.4402    2462.9621   -13880.902    6412.6189   -641.63809    3656.6342   -3358.6739    80.621795 
   92500    375.64813   -112.24951   0.33989432   -111.90961    1706.0018    4.3221305    4.3221305    4.3221305    1706.0018    20656.321   -16340.619    802.30351    5165.3284    1202.8625    4203.0122    80.740908 
   92600    547.15716   -112.40283    0.4950793   -111.90775     2207.854    4.3161781    4.3161781    4.3161781     2207.854     1089.778   -1506.8781    7040.6621   -3117.9464    2020.7654    1800.1325    80.407781 
   92700    299.56667    -112.1814   0.27105422   -111.91035   -4817.7888    4.3248331    4.3248331    4.3248331   -4817.7888   -544.20278   -9448.6119   -4460.5518    2131.2877   -780.38403   -53.272679    80.892461 
   92800    395.33587   -112.26624    0.3577082   -111.90853    861.76932    4.3176633    4.3176633    4.3176633    861.76932    4617.2406   -10081.451    8049.5183    8500.2655   -424.10341     3366.817    80.490815 
   92900    398.05265   -112.26807    0.3601664    -111.9079    7338.4081    4.3184901    4.3184901    4.3184901    7338.4081    22212.022    4582.6246   -4779.4223   -1289.9755   -4848.0104    737.20993    80.537063 
   93000    331.26489    -112.2102   0.29973544   -111.91046    -5808.177    4.3231443    4.3231443    4.3231443    -5808.177   -4209.5662   -16303.234    3088.2693    3858.1743    4352.2327   -4480.5507    80.797738 
   93100    432.38703   -112.30125   0.39123287   -111.91001   -660.87298    4.3173012    4.3173012    4.3173012   -660.87298    5304.9657   -12953.766    5666.1811    3761.9104   -4454.4269    2606.1035    80.470567 
   93200    494.85049   -112.35606   0.44775113    -111.9083    1899.9158    4.3209474    4.3209474    4.3209474    1899.9158    5442.0271   -4663.0117    4920.7319   -2619.8029   -356.82423   -1242.7887    80.674624 
   93300    398.95886   -112.27116   0.36098636   -111.91017   -5383.9953    4.3209801    4.3209801    4.3209801   -5383.9953   -8478.1351   -12136.702    4462.8507    3361.9099    3628.5197   -547.08227    80.676455 
   93400    342.47735   -112.21977    0.3098807   -111.90989    2218.9351    4.3181318    4.3181318    4.3181318    2218.9351    12451.228    -10157.51    4363.0878     7285.899   -598.96505    6029.6348     80.51702 
   93500    433.22575   -112.30018   0.39199176   -111.90818     977.7216    4.3211384    4.3211384    4.3211384     977.7216   -500.66327    1654.4187    1779.4094   -3002.9089     5315.659   -1545.5767    80.685319 
   93600    346.34812   -112.22358   0.31338306    -111.9102   -8270.6766    4.3202509    4.3202509    4.3202509   -8270.6766   -7112.4533   -17838.433    138.85617    5124.7092    494.60499   -765.28449    80.635616 
   93700    309.93479   -112.19161   0.28043551   -111.91118    2881.1725     4.318748     4.318748     4.318748    2881.1725    -2062.487   -10788.165     21494.17    3574.8756   -262.54862    4252.8683     80.55149 
   93800    572.04992   -112.42495   0.51760279   -111.90735   -4331.5633    4.3237829    4.3237829    4.3237829   -4331.5633    1445.0833   -10218.923   -4220.8503   -3740.6403   -5921.4309    1606.8336    80.833549 
   93900    352.64482   -112.22806   0.31908044   -111.90898    3746.0563    4.3164161    4.3164161    4.3164161    3746.0563   -2150.7628   -7242.7453    20631.677    5701.9242    476.28742   -1877.6432    80.421081 
   94000    408.41432   -112.27892   0.36954186   -111.90938   -4782.0296    4.3229611    4.3229611    4.3229611   -4782.0296     6056.895   -13032.514   -7370.4701    2697.9121   -3985.0988    8822.2785    80.787463 
   94100    418.30677   -112.28636   0.37849275   -111.90786     3995.458    4.3186689    4.3186689    4.3186689     3995.458    -683.1259   -122.79954      12792.3    2043.2389    1428.7738    304.18786    80.547069 
   94200     333.7132   -112.21187   0.30195071   -111.90992   -6276.2282    4.3203011    4.3203011    4.3203011   -6276.2282    -10610.94   -14722.916    6505.1714    3518.0894    4699.6785   -2018.8837    80.638425 
   94300    291.21484    -112.1738   0.26349731    -111.9103    2107.4508    4.3212792    4.3212792    4.3212792    2107.4508    302.82185   -11620.134    17639.664    3301.4301   -801.07902    5125.9812    80.693205 
   94400     555.0606   -112.41041    0.5022305   -111.90818    1105.3113    4.3186696    4.3186696    4.3186696    1105.3113    2407.4114   -1513.3384     2421.861   -2411.4852    4691.3814   -906.40949    80.547107 
   94500    414.27284   -112.28565   0.37484277   -111.91081   -974.72026    4.3195502    4.3195502    4.3195502   -974.72026   -4779.6251   -7264.3528    9119.8171    3593.9165   -102.76418    1708.9648     80.59639 
   94600    332.29933   -112.21261   0.30067142   -111.91194    1361.6227    4.3214867    4.3214867    4.3214867    1361.6227    3840.6242    -11777.81    12022.054    2469.3952    3320.1159    6423.2314    80.704833 
   94700    541.76603   -112.39857   0.49020129   -111.90837   -792.89083    4.3178546    4.3178546    4.3178546   -792.89083   -1179.9535   -6689.2089    5490.4898   -1594.0757   -2252.2345    1922.8615    80.501514 
   94800    211.85374   -112.10306   0.19168971   -111.91137    1912.3981    4.3219369    4.3219369    4.3219369    1912.3981   -9755.5435    -13440.49    28933.228    8255.3268    1470.6479   -735.08438    80.730057 
   94900    435.69877   -112.30446    0.3942294   -111.91023   -7525.1951    4.3194306    4.3194306    4.3194306   -7525.1951    4319.6116   -17879.174    -9016.023    495.79588    -5001.473    10429.974    80.589695 
   95000    406.26018   -112.27668   0.36759275   -111.90909    7167.7661    4.3198159    4.3198159    4.3198159    7167.7661   -2061.6907    5717.3947    17847.594   -11.333276   -1088.3002    75.538958     80.61126 
   95100    481.23278   -112.34528   0.43542953   -111.90985   -5886.7635     4.321588     4.321588     4.321588   -5886.7635   -7606.6016    -14108.62    4054.9313    4962.0883    1940.3416    3930.4552     80.71051 
   95200    331.12384   -112.21022   0.29960781   -111.91061     5686.478    4.3186854    4.3186854    4.3186854     5686.478    8006.5504   -8539.1947    17592.078   -1146.4773    3089.0303    8386.3785    80.547989 
   95300    529.51821   -112.38706    0.4791192   -111.90794   -1873.6244    4.3215831    4.3215831    4.3215831   -1873.6244   -4147.0985   -11467.892    9994.1176    95.608263    3153.5955   -3865.7151    80.710233 
   95400    330.30548   -112.20873   0.29886734   -111.90986   -2552.4887    4.3197716    4.3197716    4.3197716   -2552.4887    437.48014   -21287.287    13192.341    4750.3482    1129.8852    2547.6344    80.608782 
   95500    270.51279   -112.15541   0.24476566   -111.91065    2069.0104    4.3201706    4.3201706    4.3201706    2069.0104    11082.452     -14410.4    9534.9791    692.99389    1806.0168    6762.8553    80.631118 
   95600    542.66323   -112.39879    0.4910131   -111.90778   -844.27626    4.3200047    4.3200047    4.3200047   -844.27626   -4038.3268   -2609.7344    4115.2324    1334.3945   -3730.1244    229.78443    80.621833 
   95700    267.33679   -112.15271   0.24189194   -111.91081    7582.9024    4.3204981    4.3204981    4.3204981    7582.9024    3516.8369   -9014.3655    28246.236    4822.6788    1888.0061     5111.214    80.649456 
   95800    561.69673   -112.41704   0.50823501   -111.90881   -5286.0712    4.3190134    4.3190134    4.3190134   -5286.0712   -3171.7138   -6081.5561   -6604.9438   -3251.9331   -3949.5966    7997.7309    80.566343 
   95900    370.46798   -112.24451   0.33520721   -111.90931    6901.9481    4.3209208    4.3209208    4.3209208    6901.9481   -121.35752   -7319.5484     28146.75    2413.6632    2000.6951   -5017.1823    80.673129 
   96000    405.12773   -112.27643   0.36656809   -111.90987   -8560.3621    4.3202372    4.3202372    4.3202372   -8560.3621   -3339.3414   -24335.947    1994.2018    3051.3448   -3030.1666    6374.7172    80.634851 
   96100    288.37796   -112.17081   0.26093044   -111.90988    3633.3738    4.3194001    4.3194001    4.3194001    3633.3738    9549.8917   -11874.637    13224.867   -1902.6474    759.85175    5820.1178    80.587985 
   96200    481.30687   -112.34432   0.43549657   -111.90882     142.9255    4.3202637    4.3202637    4.3202637     142.9255    3010.0754   -11364.469    8783.1702    5867.8257    1127.0676   -4365.0872    80.636331 
   96300    343.16776   -112.22121    0.3105054    -111.9107    620.25252    4.3207946    4.3207946    4.3207946    620.25252   -775.24801   -12570.654     15206.66    3816.1603    2006.7221    4176.3401    80.666064 
   96400    422.08764   -112.29191   0.38191377   -111.90999    1448.0782    4.3194052    4.3194052    4.3194052    1448.0782   -565.77084   -4523.2496    9433.2551    857.59999    3532.2616     1026.337    80.588269 
   96500    488.38457   -112.35077   0.44190062   -111.90887   -1566.7653    4.3209178    4.3209178    4.3209178   -1566.7653   -2842.4379   -6317.7668    4459.9087    2417.9398   -3459.8072   -7411.2596    80.672964 
   96600    305.98898   -112.18676   0.27686526   -111.90989   -1512.0201    4.3213605    4.3213605    4.3213605   -1512.0201   -8495.3213   -13407.091    17366.352    2242.5484    3724.5317    6131.2844    80.697764 
   96700    462.02968   -112.32636   0.41805417   -111.90831   -2741.9902     4.318162     4.318162     4.318162   -2741.9902    6039.9174   -9244.1116   -5021.7765   -3885.9876    -5761.419    5122.8749    80.518707 
   96800    303.36129    -112.1832   0.27448767   -111.90872     2081.323    4.3230995    4.3230995    4.3230995     2081.323   -4361.3255   -19070.616    29675.911    1980.0066    3237.0462   -4718.0205    80.795224 
   96900      447.245   -112.31349   0.40467667   -111.90881   -7292.0705    4.3183796    4.3183796    4.3183796   -7292.0705   -5261.9327    -16208.52   -405.75891    1969.3176   -2127.7456    8056.0947     80.53088 
   97000    390.21369   -112.26231   0.35307355   -111.90923    2252.1479     4.319958     4.319958     4.319958    2252.1479    6344.7617   -7384.4294    7796.1115   -2498.5324    2812.5343   -1419.6057    80.619215 
   97100    486.65326   -112.34928    0.4403341   -111.90895    -3069.805     4.321102     4.321102     4.321102    -3069.805   -4830.3301   -9657.8055    5278.7207    6744.8724   -762.80246   -5528.5667     80.68328 
   97200     364.1102   -112.23925   0.32945456   -111.90979    636.46062    4.3193053    4.3193053    4.3193053    636.46062   -5782.2621   -6843.4323    14535.076   -1469.2393   -475.40043    5179.8075    80.582681 
   97300    351.03716   -112.22669    0.3176258   -111.90906    5170.4448    4.3192587    4.3192587    4.3192587    5170.4448    4422.7566   -5431.8997    16520.477   -460.24666    4331.9207    661.24919     80.58007 
   97400    424.58878   -112.29298   0.38417685   -111.90881   -7740.3935    4.3216682    4.3216682    4.3216682   -7740.3935   -10175.927   -20331.547    7286.2932     4450.598   -3714.5833    -6136.656       80.715 
   97500    317.56356   -112.19693   0.28733818   -111.90959   -724.51999    4.3182776    4.3182776    4.3182776   -724.51999   -4653.7581   -10314.527    12794.725   -2266.0773    5394.2137    4939.0124    80.525176 
   97600    521.27401   -112.38048   0.47165968   -111.90882    -5926.017    4.3214346    4.3214346    4.3214346    -5926.017    3816.2695   -13121.309   -8473.0112     814.5428   -5620.9647   -1693.7517    80.701915 
   97700    349.98944   -112.22696    0.3166778   -111.91028    7650.7212    4.3194272    4.3194272    4.3194272    7650.7212   -1683.3128   -5265.3464    29900.823    3132.5807    1696.7651   -4180.4073    80.589504 
   97800    457.18044   -112.32291   0.41366647   -111.90924   -1050.8252     4.320266     4.320266     4.320266   -1050.8252   -1171.7131   -2219.9791    239.21678    572.80238   -2786.9978    9322.8158    80.636463 
   97900    348.67508   -112.22476   0.31548854   -111.90927    2444.6052    4.3205359    4.3205359    4.3205359    2444.6052    95.421981   -6247.4821    13485.876   -1056.1584    1242.6762   -3392.8695    80.651576 
   98000    384.12074   -112.25663   0.34756051   -111.90907   -5248.3924    4.3194394    4.3194394    4.3194394   -5248.3924   -5531.5577   -11610.999    1397.3793    3008.4556     2273.821   -4750.6989    80.590188 
   98100    408.76962    -112.2791   0.36986334   -111.90924   -5706.3474    4.3211186    4.3211186    4.3211186   -5706.3474   -10283.392   -14524.861    7689.2108   -4110.5459   -565.79911    3299.6917    80.684209 
   98200    353.02111   -112.22944   0.31942092   -111.91002    3615.9129     4.320314     4.320314     4.320314    3615.9129    7382.7783   -5756.0917    9221.0521   -640.20504     4106.652   -4282.1891    80.639151 
   98300    511.56234   -112.37119   0.46287236   -111.90832    -2390.884    4.3188357    4.3188357    4.3188357    -2390.884   -6615.2912    -10846.63     10289.27    2562.6371   -6266.3575   -4406.8394    80.556402 
   98400    358.96439    -112.2346   0.32479852    -111.9098    1541.6911    4.3225456    4.3225456    4.3225456    1541.6911    2634.3178   -2708.2282    4698.9839   -1591.5529    3357.3754    5380.2886    80.764174 
   98500    457.94889   -112.32326   0.41436178    -111.9089   -5095.9469    4.3185701    4.3185701    4.3185701   -5095.9469    1583.4741     -9305.75   -7565.5649    5005.9428   -2445.1375   -6237.6642     80.54154 
   98600    271.83702   -112.15559   0.24596385   -111.90963     5463.324     4.319731     4.319731     4.319731     5463.324    -1672.861   -7271.2686    25334.102    2126.5934     1290.671   -6316.1431    80.606506 
   98700    475.18077   -112.33908   0.42995354   -111.90913   -6484.2142    4.3220805    4.3220805    4.3220805   -6484.2142   -5848.7412    -7412.327   -6191.5744    -235.2278   -1248.2774    5733.4209    80.738107 
   98800    249.80893   -112.13647   0.22603237   -111.91044    9677.1063    4.3178989    4.3178989    4.3178989    9677.1063     11532.86   -1844.7018     19343.16   -216.13942    941.11622   -6545.5385    80.503988 
   98900    571.26053   -112.42486   0.51688853   -111.90797   -9640.5668    4.3213164    4.3213164    4.3213164   -9640.5668   -9790.4052   -13105.478   -6025.8174    555.52373    2643.7517    829.08009    80.695291 
   99000      379.759   -112.25293   0.34361393   -111.90932   -67.503638    4.3211334    4.3211334    4.3211334   -67.503638    3470.5078   -5809.0796    2136.0609   -3294.6785    -1975.454    3454.5827    80.685038 
   99100    394.82528   -112.26704   0.35724621    -111.9098   -941.51313    4.3189362    4.3189362    4.3189362   -941.51313    2944.7051   -12123.343    6354.0989   -250.04472    5296.2498    -9010.119    80.562023 
   99200    472.58061   -112.33573   0.42760086   -111.90813    543.65744    4.3204638    4.3204638    4.3204638    543.65744   -1031.3075     -7821.13     10483.41    2745.5564   -1838.1746   -4155.1913    80.647536 
   99300    299.37254   -112.18111   0.27087856   -111.91023     7361.686    4.3214477    4.3214477    4.3214477     7361.686    5870.7907    2998.2658    13216.001   -1498.6228   -173.03781    1906.1113     80.70265 
   99400    394.81322   -112.26681    0.3572353   -111.90958   -2294.9978    4.3188152    4.3188152    4.3188152   -2294.9978    4765.1133    -9670.315   -1979.7918    4611.7247   -2620.9326   -7994.7321    80.555252 
   99500    339.28738   -112.21577   0.30699436   -111.90878    4398.3132    4.3195565    4.3195565    4.3195565    4398.3132    1063.8877   -657.10983    12788.162   -1354.4708   -4285.1454    649.24741    80.596741 
   99600    512.10108   -112.37267   0.46335982   -111.90931    -11970.84    4.3233364    4.3233364    4.3233364    -11970.84   -9834.4505   -15323.569   -10754.502   -282.26089     245.8818    1429.8202     80.80851 
   99700    290.72274   -112.17386   0.26305205   -111.91081    9590.1727    4.3151329    4.3151329    4.3151329    9590.1727     10401.67   -5571.2937    23940.142   -393.06136      278.505   -10777.785    80.349382 
   99800    605.91908   -112.45633   0.54824832   -111.90808   -9485.3802    4.3244807    4.3244807    4.3244807   -9485.3802   -10642.947   -12109.905   -5703.2884   -1651.6559    1469.4192    1811.9107     80.87269 
   99900    288.99475   -112.17158   0.26148852   -111.91009    6388.9224    4.3193399    4.3193399    4.3193399    6388.9224    1945.6946    2317.6945    14903.378    123.22842    150.46516    1277.8286    80.584619 
  100000    371.49781    -112.2461   0.33613903   -111.90996   -2431.5516    4.3168303    4.3168303    4.3168303   -2431.5516    3443.6733   -9795.0157   -943.31259   -427.76409    3219.7179   -7619.8599    80.444233 
Loop time of 22.4531 on 1 procs for 100000 steps with 8 atoms

Pair  time (%) = 7.24241 (32.2557)
Kspce time (%) = 5.36179 (23.8799)
Neigh time (%) = 0 (0)
Comm  time (%) = 1.09761 (4.88846)
Outpt time (%) = 0.0220823 (0.0983487)
Other time (%) = 8.7292 (38.8775)

Nlocal:    8 ave 8 max 8 min
Histogram: 1 0 0 0 0 0 0 0 0 0
Nghost:    2189 ave 2189 max 2189 min
Histogram: 1 0 0 0 0 0 0 0 0 0
Neighs:    2344 ave 2344 max 2344 min
Histogram: 1 0 0 0 0 0 0 0 0 0

Total # of neighbors = 2344
Ave neighs/atom = 293
Neighbor list builds = 0
Dangerous builds = 0
unfix 20
unfix 21
print "seeds:9299038"
seeds:9299038
