LAMMPS (16 Mar 2018)
# ---- initialize simulations
clear
units metal
dimension 3
boundary p p p
atom_style charge
atom_modify map array
# ---- create atoms
read_data /home/manuelesp/repos/pypospack/dev/MgO_iterative_sampler/rank_4/MgO_NaCl_001s.lmps_min_pos/lammps.structure
  triclinic box = (0 0 0) to (4.0692 4.0692 40.6921) with tilt (0 0 0)
  1 by 1 by 1 MPI processor grid
  reading atoms ...
  40 atoms
# ---- define interatomic potential
include potential.mod
mass 1 24.305
mass 2 15.999

group Mg type 1
20 atoms in group Mg
group O type 2
20 atoms in group O

set group Mg charge 2.1466418992637664
  20 settings made for charge
set group O charge -2.1466418992637664
  20 settings made for charge

variable R_cut equal 10.0

pair_style buck/coul/long ${R_cut}
pair_style buck/coul/long 10
pair_coeff 1 1 0.0 0.5 0.0 ${R_cut}
pair_coeff 1 1 0.0 0.5 0.0 10
pair_coeff 1 2 1089.4134673757053 0.31058320000297174 0.0 ${R_cut}
pair_coeff 1 2 1089.4134673757053 0.31058320000297174 0.0 10
pair_coeff 2 2 18983.219085212437 0.12673144022038657 73.4670102644071 ${R_cut}
pair_coeff 2 2 18983.219085212437 0.12673144022038657 73.4670102644071 10

kspace_style pppm 1.0e-5

neighbor 1.0 bin
neigh_modify every 1 delay 0 check yes
# ---- define settings
compute eng all pe/atom
compute eatoms all reduce sum c_eng

# ---- run minimization
reset_timestep 0
thermo 1
thermo_style custom step pe lx ly lz xy xz yz press pxx pyy pzz pxy pxz pyz c_eatoms
min_style cg
minimize 1e-20 1e-20 1000 100000
PPPM initialization ...
  using 12-bit tables for long-range coulomb (../kspace.cpp:321)
  G vector (1/distance) = 0.345749
  grid = 9 9 40
  stencil order = 5
  estimated absolute RMS force accuracy = 9.25299e-05
  estimated relative force accuracy = 6.42585e-06
  using double precision FFTs
  3d grid and FFT values/proc = 11520 3240
Neighbor list info ...
  update every 1 steps, delay 0 steps, check yes
  max neighbors/atom: 2000, page size: 100000
  master list distance cutoff = 11
  ghost atom cutoff = 11
  binsize = 5.5, bins = 1 1 8
  1 neighbor lists, perpetual/occasional/extra = 1 0 0
  (1) pair buck/coul/long, perpetual
      attributes: half, newton on
      pair build: half/bin/newton/tri
      stencil: half/bin/3d/newton/tri
      bin: standard
Per MPI rank memory allocation (min/avg/max) = 6.019 | 6.019 | 6.019 Mbytes
Step PotEng Lx Ly Lz Xy Xz Yz Press Pxx Pyy Pzz Pxy Pxz Pyz c_eatoms 
       0   -965.86612       4.0692       4.0692      40.6921            0            0            0   -21582.181   -31729.933   -31729.933    -1286.676 -1.0135042e-10 1.9794915e-11 -1.4268266e-10   -965.86612 
       1   -965.87531       4.0692       4.0692      40.6921            0            0            0   -21612.549   -31755.453   -31755.453   -1326.7399 1.3387624e-10 -1.1685858e-10 -3.0230151e-11   -965.87531 
       2   -965.87579       4.0692       4.0692      40.6921            0            0            0   -21557.984   -31711.744   -31711.744   -1250.4637 1.0402306e-10 9.3956223e-12 -1.7379936e-10   -965.87579 
       3     -965.876       4.0692       4.0692      40.6921            0            0            0   -21419.124    -31605.79    -31605.79   -1045.7918 1.0078122e-10 6.7889408e-11 -6.6027953e-11     -965.876 
       4   -965.87605       4.0692       4.0692      40.6921            0            0            0   -21306.855    -31522.39    -31522.39   -875.78591 -2.9719835e-10 1.1201658e-10 1.7500106e-10   -965.87605 
       5    -965.8761       4.0692       4.0692      40.6921            0            0            0   -21264.572   -31491.371   -31491.371   -810.97351 2.330009e-10 -7.4786117e-11 -1.1170645e-10    -965.8761 
       6    -965.8762       4.0692       4.0692      40.6921            0            0            0   -21159.594   -31414.473   -31414.473   -649.83486 -1.6109617e-10 9.1702367e-11 -1.84571e-10    -965.8762 
       7   -965.87625       4.0692       4.0692      40.6921            0            0            0   -21131.381   -31394.075   -31394.075   -605.99238 8.2176912e-11 1.2991382e-10 -1.097495e-10   -965.87625 
       8   -965.87627       4.0692       4.0692      40.6921            0            0            0    -21100.86   -31372.251   -31372.251   -558.07849 1.1535724e-12 -1.3947682e-10 -1.3617149e-10   -965.87627 
       9   -965.87631       4.0692       4.0692      40.6921            0            0            0   -21069.759    -31350.11    -31350.11     -509.056 3.995787e-11 2.8881049e-10 2.1591308e-10   -965.87631 
      10   -965.87631       4.0692       4.0692      40.6921            0            0            0   -21069.759    -31350.11    -31350.11     -509.056 8.5183171e-11 2.6861837e-10 1.2000035e-10   -965.87631 
Loop time of 0.244988 on 1 procs for 10 steps with 40 atoms

34.3% CPU use with 1 MPI tasks x no OpenMP threads

Minimization stats:
  Stopping criterion = linesearch alpha is zero
  Energy initial, next-to-last, final = 
        -965.866121414     -965.876308291     -965.876308291
  Force two-norm initial, final = 1.2016 0.0106186
  Force max component initial, final = 0.450679 0.00342732
  Final line search alpha, max atom move = 6.10352e-05 2.09187e-07
  Iterations, force evaluations = 10 47

MPI task timing breakdown:
Section |  min time  |  avg time  |  max time  |%varavg| %total
---------------------------------------------------------------
Pair    | 0.035481   | 0.035481   | 0.035481   |   0.0 | 14.48
Kspace  | 0.20834    | 0.20834    | 0.20834    |   0.0 | 85.04
Neigh   | 0          | 0          | 0          |   0.0 |  0.00
Comm    | 0.00076699 | 0.00076699 | 0.00076699 |   0.0 |  0.31
Output  | 0.00018978 | 0.00018978 | 0.00018978 |   0.0 |  0.08
Modify  | 0          | 0          | 0          |   0.0 |  0.00
Other   |            | 0.0002151  |            |       |  0.09

Nlocal:    40 ave 40 max 40 min
Histogram: 1 0 0 0 0 0 0 0 0 0
Nghost:    2664 ave 2664 max 2664 min
Histogram: 1 0 0 0 0 0 0 0 0 0
Neighs:    10988 ave 10988 max 10988 min
Histogram: 1 0 0 0 0 0 0 0 0 0

Total # of neighbors = 10988
Ave neighs/atom = 274.7
Neighbor list builds = 0
Dangerous builds = 0

# ---- define output variables ----
variable natoms equal "count(all)"
variable tot_energy equal "c_eatoms"
variable a11 equal "xhi-xlo"
variable a22 equal "yhi-ylo"
variable a33 equal "zhi-zlo"
variable tilt_xy equal "xy"
variable tilt_xz equal "xz"
variable tilt_yz equal "yz"
variable tot_press equal "press"
variable press_xx equal "pxx"
variable press_yy equal "pyy"
variable press_zz equal "pzz"
variable press_xy equal "pxy"
variable press_xz equal "pxz"
variable press_yz equal "pyz"

# ---- output ----
print "pypospack:output_section:begin"
pypospack:output_section:begin
print "tot_energy = ${tot_energy}"
tot_energy = -965.876308290779
print "num_atoms = ${natoms}"
num_atoms = 40
print "a11 = ${a11}"
a11 = 4.0692
print "a22 = ${a22}"
a22 = 4.0692
print "a33 = ${a33}"
a33 = 40.6921
print "a12 = ${tilt_xy}"
a12 = 0
print "a13 = ${tilt_xz}"
a13 = 0
print "a23 = ${tilt_yz}"
a23 = 0
print "tot_press = ${tot_press}"
tot_press = -21069.758586336
print "pxx = ${press_xx}"
pxx = -31350.1098798639
print "pyy = ${press_yy}"
pyy = -31350.1098798642
print "pzz = ${press_zz}"
pzz = -509.055999279843
print "pxy = ${press_xy}"
pxy = 8.51831713107712e-11
print "pxz = ${press_xz}"
pxz = 2.68618374899469e-10
print "pyz = ${press_yz}"
pyz = 1.20000347569721e-10
print "pypospack:output_section:done"
pypospack:output_section:done
print "pypospack:lammps_sim:done"
pypospack:lammps_sim:done
Total wall time: 0:00:00
