LAMMPS (10 Feb 2015)
# ---- initialize simulations
clear
units metal
dimension 3
boundary p p p
atom_style charge
atom_modify map array
# ---- create atoms
read_data /Users/eugeneragasa/pyflamestk_git/pypospack/tests/tests_integration/workflow/WorkflowLammpsThermalExpansion/param_4537/MgO_NaCl_unit.npt.T1000/lammps.structure
  triclinic box = (0 0 0) to (4.2565 4.2565 4.2565) with tilt (0 0 0)
  1 by 1 by 1 MPI processor grid
  reading atoms ...
  8 atoms
# ---- define interatomic potential
include potential.mod
mass 1 24.305
mass 2 15.999

group Mg type 1
4 atoms in group Mg
group O type 2
4 atoms in group O

set group Mg charge 1.68595133453
  4 settings made for charge
set group O charge -1.68595133453
  4 settings made for charge

variable R_cut equal 10.0

pair_style buck/coul/long ${R_cut}
pair_style buck/coul/long 10
pair_coeff 1 1 0.0 0.5 0.0 ${R_cut}
pair_coeff 1 1 0.0 0.5 0.0 10
pair_coeff 1 2 1257.74769115 0.28905643469 0.0 ${R_cut}
pair_coeff 1 2 1257.74769115 0.28905643469 0.0 10
pair_coeff 2 2 3064.42109336 0.236064465148 18.7313535189 ${R_cut}
pair_coeff 2 2 3064.42109336 0.236064465148 18.7313535189 10

kspace_style pppm 1.0e-5

neighbor 1.0 bin
neigh_modify every 1 delay 0 check yes
# ---- define settings
compute eng all pe/atom
compute eatoms all reduce sum c_eng
# ---- run minimization
reset_timestep 0
fix 1 all box/relax iso 0.0 vmax 0.001
thermo 10
thermo_style custom step pe lx ly lz xy xz yz press pxx pyy pzz pxy pxz pyz c_eatoms
min_style cg
minimize 1e-25 1e-25 5000 10000
PPPM initialization ...
  G vector (1/distance) = 0.353047
  grid = 8 8 8
  stencil order = 5
  estimated absolute RMS force accuracy = 4.05219e-05
  estimated relative force accuracy = 2.81409e-06
  using double precision FFTs
  3d grid and FFT values/proc = 3375 512
Neighbor list info ...
  1 neighbor list requests
  update every 1 steps, delay 0 steps, check yes
  master list distance cutoff = 11
Memory usage per processor = 4.06549 Mbytes
Step PotEng Lx Ly Lz Xy Xz Yz Press Pxx Pyy Pzz Pxy Pxz Pyz eatoms 
       0   -115.66496       4.2565       4.2565       4.2565            0            0            0    45758.215    45758.215    45758.215    45758.215 1.7170796e-11 2.2312869e-10 1.3064853e-10   -115.66496 
      10   -115.69248    4.2933032    4.2933032    4.2933032            0            0            0   -6.7922673   -6.7922673   -6.7922673   -6.7922673 -6.3857142e-11 -7.0573166e-11 -5.8083176e-11   -115.69248 
      13    -115.6925     4.293297     4.293297     4.293297            0            0            0   0.20218487   0.20218487   0.20218487   0.20218487 1.6450748e-10 -9.163684e-11 -3.6202501e-11    -115.6925 
Loop time of 0.00802112 on 1 procs for 13 steps with 8 atoms

Minimization stats:
  Stopping criterion = linesearch alpha is zero
  Energy initial, next-to-last, final = 
        -115.664963059     -115.692495365     -115.692495365
  Force two-norm initial, final = 6.60751 4.45929e-05
  Force max component initial, final = 6.60751 2.97026e-05
  Final line search alpha, max atom move = 0.5 1.48513e-05
  Iterations, force evaluations = 13 19

Pair  time (%) = 0.00214982 (26.802)
Kspce time (%) = 0.00146341 (18.2445)
Neigh time (%) = 0 (0)
Comm  time (%) = 0.000293732 (3.66198)
Outpt time (%) = 2.40803e-05 (0.300211)
Other time (%) = 0.00409007 (50.9913)

Nlocal:    8 ave 8 max 8 min
Histogram: 1 0 0 0 0 0 0 0 0 0
Nghost:    2189 ave 2189 max 2189 min
Histogram: 1 0 0 0 0 0 0 0 0 0
Neighs:    2344 ave 2344 max 2344 min
Histogram: 1 0 0 0 0 0 0 0 0 0

Total # of neighbors = 2344
Ave neighs/atom = 293
Neighbor list builds = 0
Dangerous builds = 0
unfix 1
# ---- define output variables ----
variable natoms equal "count(all)"
variable tot_energy equal "c_eatoms"
variable length_x equal "lx"
variable length_y equal "ly"
variable length_z equal "lz"
variable tilt_xy equal "xy"
variable tilt_xz equal "xz"
variable tilt_yz equal "yz"
variable tot_press equal "press"
variable press_xx equal "pxx"
variable press_yy equal "pyy"
variable press_zz equal "pzz"
variable press_xy equal "pxy"
variable press_xz equal "pxz"
variable press_yz equal "pyz"

# ---- output ----
print "pypospack:output_section:begin"
pypospack:output_section:begin
print "tot_energy = ${tot_energy}"
tot_energy = -115.692495364628
print "num_atoms = ${natoms}"
num_atoms = 8
print "xx = ${length_x}"
xx = 4.29329700926666
print "yy = ${length_y}"
yy = 4.29329700926666
print "zz = ${length_z}"
zz = 4.29329700926666
print "xy = ${tilt_xy}"
xy = 0
print "xz = ${tilt_xz}"
xz = 0
print "yz = ${tilt_yz}"
yz = 0
print "tot_press = ${tot_press}"
tot_press = 0.202184869803092
print "pxx = ${press_xx}"
pxx = 0.202184869911938
print "pyy = ${press_yy}"
pyy = 0.202184869729888
print "pzz = ${press_zz}"
pzz = 0.20218486976745
print "pxy = ${press_xy}"
pxy = 1.64507477572858e-10
print "pxz = ${press_xz}"
pxz = -9.16368397176372e-11
print "pyz = ${press_yz}"
pyz = -3.62025011042311e-11
print "pypospack:output_section:done"
pypospack:output_section:done
print "pypospack:lammps_sim:done"
pypospack:lammps_sim:done
#------------------------------------------------------------------------------
# RUN THERMOSTAT
# running using an NPT Nose-Hoover style thermostat
#------------------------------------------------------------------------------
variable tempdamp equal 0.1
variable pressdamp equal 1.0
# set initial velocities
velocity all create 1000 6278530 mom yes dist gaussian loop all
# fix for Nose-Hoover style thermostat
fix 20 all npt temp 1000 1000 0.1 aniso 0.0 0.0 1.0 drag 1.0 couple xyz
variable boxx equal lx
variable boxy equal ly
variable boxz equal lz
variable boxp equal press
variable boxt equal temp
# calculate averages every 10000 steps
reset_timestep 0
fix 21 all ave/time 10 10 100 v_boxx v_boxy v_boxz v_boxp v_boxt file lattice.out
thermo_style custom step temp pe ke etotal press lx ly lz press pxx pyy pzz pxy pxz pyz vol
thermo_modify flush yes
thermo 100
run 100000
PPPM initialization ...
  G vector (1/distance) = 0.352672
  grid = 8 8 8
  stencil order = 5
  estimated absolute RMS force accuracy = 4.1232e-05
  estimated relative force accuracy = 2.8634e-06
  using double precision FFTs
  3d grid and FFT values/proc = 3375 512
Memory usage per processor = 3.06549 Mbytes
Step Temp PotEng KinEng TotEng Press Lx Ly Lz Press Pxx Pyy Pzz Pxy Pxz Pyz Volume 
       0         1000    -115.6925   0.90482102   -114.78768    12211.598     4.293297     4.293297     4.293297    12211.598    11726.846    10448.448    14459.501    1397.6196   -1215.7477   -4449.2033    79.135764 
     100    493.66584   -115.11917   0.44667922   -114.67249   -1989.7816    4.3260015    4.3260015    4.3260015   -1989.7816    15269.111   -18350.471   -2887.9847     982.8708    3054.9687    688.24425    80.958042 
     200    645.16147   -115.00092   0.58375565   -114.41717   -22159.433    4.3482213    4.3482213    4.3482213   -22159.433   -29306.625   -37789.497    617.82407    4604.0434   -6092.0015    2988.9191    82.211942 
     300     882.1817   -114.99905   0.79821654   -114.20083    15674.448    4.3348556    4.3348556    4.3348556    15674.448    10062.316   -11479.018    48440.046   -7630.1873    7920.2399   -7342.4762    81.456154 
     400    925.37982     -114.871   0.83730311    -114.0337    9951.7674    4.3370179    4.3370179    4.3370179    9951.7674    11484.858   -7421.7722    25792.216   -354.62166   -2950.0689    9281.9484    81.578111 
     500    593.84473   -114.46629   0.53732319   -113.92897      9200.78     4.349625     4.349625     4.349625      9200.78    1251.5575   -7650.8401    34001.623    6768.8127   -2779.8719    11995.322    82.291591 
     600    935.91048   -114.70991   0.84683147   -113.86308   -4179.6589    4.3595779    4.3595779    4.3595779   -4179.6589    1178.7629   -7874.6081   -5843.1315   -5839.9923    8521.0991    -1499.253    82.857788 
     700    1306.0189   -115.02623    1.1817133   -113.84452    3993.6173    4.3406301    4.3406301    4.3406301    3993.6173    5602.5085    457.05223    5921.2912    3292.4912    6357.1561    11952.147    81.782115 
     800    701.27794   -114.49109   0.63453102   -113.85656    35510.957    4.3304346    4.3304346    4.3304346    35510.957    47833.462    24953.563    33745.845   -7303.6288    1107.6789    16571.822    81.207185 
     900    763.11753   -114.57169   0.69048478   -113.88121   -15606.983    4.3606426    4.3606426    4.3606426   -15606.983   -1422.8197   -5455.5514   -39942.579    7786.2913    3767.3787   -5475.9831    82.918511 
    1000    1126.1948   -114.89948    1.0190047   -113.88048   -12670.361    4.3471071    4.3471071    4.3471071   -12670.361    -7199.928   -164.59206   -30646.563   -11534.944      4768.16    6981.7574    82.148763 
    1100    1189.5641   -114.93908    1.0763426   -113.86274    43918.443    4.3097546    4.3097546    4.3097546    43918.443    61477.023    43572.528    26705.779     1970.923    -1435.641    7437.1884    80.049316 
    1200    782.29349   -114.60526   0.70783559   -113.89742   -35733.504    4.3609848    4.3609848    4.3609848   -35733.504   -33657.615   -44167.736    -29375.16   -3254.5035    15106.032    2571.4007    82.938032 
    1300    535.09437   -114.36082   0.48416463   -113.87665   -37800.181    4.3570213    4.3570213    4.3570213   -37800.181   -36859.323    -37378.05    -39163.17    5110.7336   -11299.481   -11762.545    82.712099 
    1400    1006.3884   -114.74813   0.91060141   -113.83753    56254.463    4.2970358    4.2970358    4.2970358    56254.463    77594.769    41321.799     49846.82    9099.7876   -5186.3407    5931.8605    79.342687 
    1500    1231.2863   -115.00596    1.1140937   -113.89187   -12655.368    4.3478558    4.3478558    4.3478558   -12655.368   -12765.783   -41931.195    16730.873    1144.8976   -7338.4202    16174.067    82.191215 
    1600    583.39072   -114.40479   0.52786418   -113.87693    -20637.55    4.3642608    4.3642608    4.3642608    -20637.55   -7397.7618   -58922.749    4407.8621    12760.763    -3935.999   -8187.2105    83.125082 
    1700     1008.894   -114.76394   0.91286853   -113.85107    27702.424    4.3112066    4.3112066    4.3112066    27702.424    33184.713    2480.8554    47441.705    7088.7211   -11371.739    2634.3029    80.130252 
    1800    1235.3873   -115.00166    1.1178044   -113.88385   -4699.3953    4.3357958    4.3357958    4.3357958   -4699.3953    1197.1795   -16055.003    759.63767   -3444.9624    8747.4324    20712.968     81.50917 
    1900    1018.3051   -114.79071   0.92138383   -113.86932   -8224.6313     4.359276     4.359276     4.359276   -8224.6313    14738.328   -34912.491   -4499.7307    4066.1502   -335.22647   -3883.7248    82.840574 
    2000     1081.994   -114.83918   0.97901093   -113.86017   -4600.2106    4.3410267    4.3410267    4.3410267   -4600.2106    17171.449   -15023.333   -15948.747    10095.833   -8778.7911   -1303.9864    81.804535 
    2100    1044.0906   -114.80894   0.94471514   -113.86422    1741.3155      4.32384      4.32384      4.32384    1741.3155    28803.949   -11934.906   -11645.097   -10270.352    -4822.499    8349.7798     80.83675 
    2200    853.90549   -114.66227   0.77263164   -113.88964    14384.101    4.3346963    4.3346963    4.3346963    14384.101    35410.462   -3217.5797    10959.422    1465.7151    5482.7521   -2043.9849    81.447173 
    2300    1298.2728   -115.05196    1.1747045   -113.87726   -32775.344    4.3614209    4.3614209    4.3614209   -32775.344   -36910.407   -29152.687   -32262.937    4101.6726    10621.892    -1392.926    82.962912 
    2400    991.43239   -114.76492   0.89706887   -113.86785    3485.8795     4.333945     4.333945     4.333945    3485.8795    38637.521   -16697.082   -11482.801   -8056.4616   -7633.6968    8453.6761    81.404835 
    2500    884.75761   -114.66099   0.80054728   -113.86045    17104.988    4.3165563    4.3165563    4.3165563    17104.988    16188.073    -16384.86    51511.751   -9342.2289      12931.5    155.07988    80.428918 
    2600    1200.1611   -114.96333     1.085931    -113.8774   -21729.685    4.3510717    4.3510717    4.3510717   -21729.685   -14947.996   -23387.877   -26853.183   -2944.6335    5971.1537    464.75221     82.37373 
    2700    1161.4205   -114.92411    1.0508776   -113.87323    17788.782    4.3375559    4.3375559    4.3375559    17788.782    51198.606   -11965.805    14133.544    11034.524   -2040.5882    3995.5886    81.608471 
    2800    1084.9659   -114.86183   0.98169991   -113.88013   -5734.2606    4.3258143    4.3258143    4.3258143   -5734.2606   -7492.5532   -29275.992    19565.763   -14768.468    165.54039    691.75911    80.947532 
    2900    641.67018   -114.47381   0.58059666   -113.89321   -21845.446    4.3388661    4.3388661    4.3388661   -21845.446   -19771.363   -32535.467   -13229.508   -12064.815    23501.791   -499.06878    81.682445 
    3000    1163.9245   -114.93636    1.0531433   -113.88322    7243.1849    4.3364173    4.3364173    4.3364173    7243.1849    23919.168   -11007.924    8818.3112    4695.8152   -780.35589    5123.0187    81.544225 
    3100    1204.3001   -114.96878    1.0896761    -113.8791   -22713.931    4.3545293    4.3545293    4.3545293   -22713.931   -19245.803   -28464.993   -20430.997   -12650.156   -1628.3163   -3105.7555     82.57026 
    3200    744.23077   -114.55696   0.67339564   -113.88357    4891.0998    4.3269974    4.3269974    4.3269974    4891.0998    22622.953   -12773.017    4823.3634    5990.1434    6846.9036   -2827.4296    81.013966 
    3300    1014.9324   -114.80541   0.91833219   -113.88708     10484.89    4.3221672    4.3221672    4.3221672     10484.89   -27309.312    19859.517    38904.464    -5999.051    12125.174   -4539.5739    80.742965 
    3400    950.54792   -114.73587   0.86007573   -113.87579   -17100.311    4.3649334    4.3649334    4.3649334   -17100.311    20172.397   -59601.039   -11872.289    3453.0927   -5285.7291    418.84448     83.16352 
    3500    1192.2913   -114.93548    1.0788102   -113.85667   -4245.4391    4.3376043    4.3376043    4.3376043   -4245.4391   -6673.6776   -39549.632    33486.992    -1290.235    5572.8875   -1957.9169    81.611204 
    3600    783.79775   -114.56888   0.70919667   -113.85968    12059.399     4.322875     4.322875     4.322875    12059.399    20755.096   -7991.9877    23415.088   -14378.516    19459.483   -160.65926    80.782638 
    3700    881.29209   -114.66935    0.7974116   -113.87194   -29794.186    4.3508183    4.3508183    4.3508183   -29794.186   -15998.886   -30142.166   -43241.507    6773.3884   -2537.2553    11256.843    82.359334 
    3800    1187.6604    -114.9296    1.0746201   -113.85498   -7236.6657     4.340516     4.340516     4.340516   -7236.6657    6796.4599   -39912.778    11406.321   -3162.8892   -2131.9389   -1417.9617    81.775668 
    3900    948.98043   -114.71346   0.85865744    -113.8548   -3109.7004    4.3426664    4.3426664    4.3426664   -3109.7004    11693.864   -43816.677    22793.712   -9137.0261    14115.034   -5700.2631    81.897268 
    4000    921.59072   -114.69779   0.83387465   -113.86392   -30684.562    4.3434192    4.3434192    4.3434192   -30684.562    -33870.95   -22135.871   -36046.864    12421.943   -23350.219    12583.507    81.939866 
    4100    1003.0534   -114.77013   0.90758377   -113.86255    13880.885    4.3194012    4.3194012    4.3194012    13880.885    35605.253   -19077.206    25114.608   -60.224195   -10520.462    5600.0413     80.58805 
    4200    1115.4256    -114.8927    1.0092605   -113.88344   -4972.4486    4.3496241    4.3496241    4.3496241   -4972.4486    26138.454     -45527.7    4471.9008    936.05175   -6215.0611   -12826.714    82.291535 
    4300    1085.0451   -114.86511   0.98177159   -113.88334   -9530.4694    4.3422214    4.3422214    4.3422214   -9530.4694    21177.303   -37019.059   -12749.652    2906.4593   -8715.3111    3116.2386    81.872093 
    4400    689.80686   -114.48809   0.62415175   -113.86394    49285.517    4.3009818    4.3009818    4.3009818    49285.517    108650.16    471.90633    38734.486    1092.3262   -3443.1492    9407.9745    79.561475 
    4500    1155.5643   -114.94255    1.0455788   -113.89697   -48176.497    4.3532718    4.3532718    4.3532718   -48176.497   -17467.197   -68731.846   -58330.448    -938.6996    10196.621   -18289.869    82.498747 
    4600    1319.0131   -115.06718    1.1934708   -113.87371   -25025.315    4.3492575    4.3492575    4.3492575   -25025.315   -1145.9253    -61611.57   -12318.451   -18919.733    -24.71677   -4857.3698    82.270733 
    4700    1163.8722   -114.90602     1.053096   -113.85292    28210.271    4.3049851    4.3049851    4.3049851    28210.271    77609.025   -6787.8616    13809.651   -2783.3602   -1931.6832    7210.3448    79.783842 
    4800    522.33531   -114.35775   0.47261997   -113.88513   -11168.615    4.3419823    4.3419823    4.3419823   -11168.615    62213.818   -51280.303    -44439.36    418.22672   -15599.059   -14410.616    81.858568 
    4900    1075.1316   -114.84312   0.97280163   -113.87032   -17903.003    4.3519996    4.3519996    4.3519996   -17903.003    15820.817   -55032.729   -14497.096   -6166.7462    3170.2773   -6453.7917    82.426442 
    5000    1283.7929   -115.03274    1.1616028   -113.87113    4681.4881    4.3230875    4.3230875    4.3230875    4681.4881    30134.648   -20243.117    4152.9333   -1930.1184    2241.5281    6254.8006    80.794552 
    5100    1065.8838   -114.84902   0.96443409   -113.88459   -2808.3874    4.3186575    4.3186575    4.3186575   -2808.3874    22319.473   -33767.172    3022.5369    4419.2801   -8322.6655   -16653.392    80.546428 
    5200     593.6506   -114.43668   0.53714754   -113.89953    1251.1483    4.3473851    4.3473851    4.3473851    1251.1483    44250.182   -26960.211   -13536.526    26.272679    5504.3533   -5165.4395    82.164523 
    5300    1145.3219    -114.9152    1.0363113   -113.87889   -25469.305    4.3452482    4.3452482    4.3452482   -25469.305    -27072.72   -33609.508   -15725.687   -3251.4412    34324.976    2222.4805    82.043422 
    5400    1069.9424   -114.82762   0.96810635   -113.85952    25467.451    4.3071646    4.3071646    4.3071646    25467.451    65413.731   -13528.193    24516.815   -1678.1983    1941.8235   -16885.765    79.905082 
    5500     1003.569   -114.79703   0.90805031   -113.88898    4288.0427    4.3325502    4.3325502    4.3325502    4288.0427    39715.039   -25066.976   -1783.9355    5910.7192   -10636.093   -507.95594    81.326264 
    5600    1031.4196   -114.81042   0.93325009   -113.87717   -37641.179    4.3520616    4.3520616    4.3520616   -37641.179   -37050.174   -26610.243   -49263.121   -2780.6726   -8199.2237   -437.89567    82.429962 
    5700    742.36269   -114.54076   0.67170536   -113.86905    13498.326      4.31654      4.31654      4.31654    13498.326    44092.602    1933.2975   -5530.9226   -3633.8079     23305.76   -15801.307    80.428008 
    5800    931.21173   -114.71887   0.84257994   -113.87629    21641.841    4.3240772    4.3240772    4.3240772    21641.841    63692.845   -22574.974    23807.653   -3344.8901   -22522.236   -615.77642    80.850054 
    5900    1488.3204    -115.2182    1.3466636   -113.87154   -17372.973    4.3397236    4.3397236    4.3397236   -17372.973   -24228.082   -28397.045    506.20807    9583.9302    11049.085    6231.4482    81.730887 
    6000    399.96187   -114.24256   0.36189391   -113.88066    16806.865    4.3285171    4.3285171    4.3285171    16806.865    30124.533    4882.4248    15413.638   -3913.0501    14290.645   -17535.972    81.099356 
    6100    817.78338   -114.62687   0.73994759   -113.88693    1863.8513    4.3289236    4.3289236    4.3289236    1863.8513    46612.743    -38929.51   -2091.6795    3097.7676     19995.69   -3965.5853    81.122209 
    6200    1573.3056    -115.3071      1.42356   -113.88354    -8583.772    4.3276082    4.3276082    4.3276082    -8583.772    14593.654   -33234.726   -7110.2441   -5720.1207    -14684.52    12420.619    81.048281 
    6300    948.27925   -114.74862   0.85802299    -113.8906    14324.409    4.3314061    4.3314061    4.3314061    14324.409    67940.023   -17036.478   -7930.3177    4645.0533    7171.6863   -13288.285    81.261853 
    6400     824.8836   -114.63299   0.74637202   -113.88662   -14394.619    4.3504232    4.3504232    4.3504232   -14394.619    37196.171   -38810.712   -41569.318   -4563.0328    5600.9801   -6558.5223      82.3369 
    6500    1215.7532   -114.96764    1.1000391    -113.8676    5510.1101    4.3318807    4.3318807    4.3318807    5510.1101    35968.123   -29329.438    9891.6455    2897.8793   -5324.7265    16382.716    81.288564 
    6600    1214.2325   -114.95957    1.0986631   -113.86091    22806.202    4.3178687    4.3178687    4.3178687    22806.202    31323.414    13457.056    23638.137    9034.0539   -2215.6175   -10993.746    80.502299 
    6700    607.22707   -114.42602   0.54943181   -113.87659    3838.5298    4.3464036    4.3464036    4.3464036    3838.5298    31263.418   -29904.438     10156.61    1939.0065    20081.637   -13357.941    82.108884 
    6800    961.71721   -114.73831   0.87018194   -113.86813    -7289.974    4.3413883    4.3413883    4.3413883    -7289.974    13035.329    -35923.29    1018.0389   -186.89797    10235.559     9071.751    81.824977 
    6900    1123.5584   -114.88109    1.0166192   -113.86447    18607.852    4.3123631    4.3123631    4.3123631    18607.852     28260.35    5513.9466    22049.259    7231.0141   -18549.887    5425.9328    80.194755 
    7000    937.74694   -114.73098   0.84849314   -113.88249    7387.8377    4.3322386    4.3322386    4.3322386    7387.8377    17718.782    -11472.87      15917.6    1377.0887    -9729.195   -12003.985    81.308717 
    7100    1211.8164   -114.95866    1.0964769   -113.86218   -52319.182    4.3590759    4.3590759    4.3590759   -52319.182    -32288.56   -59559.522   -65109.464   -4220.4534    16157.939    1305.4974    82.829164 
    7200    736.27601   -114.52961     0.666198   -113.86341    6201.3005    4.3200693    4.3200693    4.3200693    6201.3005    51596.312    -26694.73   -6297.6798    16432.118    -10044.03    9859.0452    80.625451 
    7300    1292.1931   -115.03666    1.1692035   -113.86746    9259.2245    4.3110393    4.3110393    4.3110393    9259.2245   -3605.1249    7815.8238    23566.975   -3253.3127   -5886.5444   -9414.4318    80.120924 
    7400    1079.1535   -114.84699   0.97644075   -113.87055    -37357.28    4.3612106    4.3612106    4.3612106    -37357.28   -18333.738   -49325.151   -44412.953   -5654.6672    11470.388    4771.1097    82.950915 
    7500    799.57935   -114.59059    0.7234762   -113.86712   -9552.6806    4.3390112    4.3390112    4.3390112   -9552.6806   -37385.862   -34599.399    43327.219    18856.347    2233.3214    2250.4295    81.690644 
    7600     935.4346   -114.69646   0.84640089   -113.85005     24917.83     4.308799     4.308799     4.308799     24917.83    5403.6787    12205.012      57144.8    3475.9009    -27492.02   -548.29836    79.996079 
    7700    1276.9234   -115.02143    1.1553871   -113.86604    6382.0731    4.3339296    4.3339296    4.3339296    6382.0731    12522.238   -18150.043    24774.025   -5409.8139   -7496.7028   -3915.0623    81.403966 
    7800    959.40891   -114.73379   0.86809335    -113.8657   -10207.758     4.353042     4.353042     4.353042   -10207.758    4826.9724   -50402.991    14952.744    5823.5425    1805.4635    10995.684     82.48568 
    7900    591.58716   -114.40347    0.5352805   -113.86819   -6779.1788     4.331946     4.331946     4.331946   -6779.1788    9436.3873   -29846.856    72.932259     16743.14   -23012.533    6935.3652    81.292241 
    8000    1039.5214   -114.80318   0.94058078    -113.8626    28786.533     4.315355     4.315355     4.315355    28786.533     31215.49   -2855.8646    57999.973    -2618.038   -4975.4963   -4206.1026    80.361789 
    8100    1468.3557   -115.20071    1.3285991   -113.87211   -31853.381    4.3534965    4.3534965    4.3534965   -31853.381   -10726.445    -49247.29   -35586.409   -667.01799    9755.2971     16089.36    82.511524 
    8200    787.60998    -114.5775   0.71264607   -113.86486   -24498.803    4.3444631    4.3444631    4.3444631   -24498.803   -46972.684   -40373.454    13849.729    21462.532   -2918.9049    4963.3165    81.998961 
    8300    1234.0268   -114.95936    1.1165734   -113.84278    18739.093    4.3076949    4.3076949    4.3076949    18739.093    21396.647    11001.542    23819.091     9978.158   -16024.881    71.174822    79.934602 
    8400    1268.3288   -115.01574    1.1476106   -113.86813   -11119.486    4.3395201    4.3395201    4.3395201   -11119.486    23569.718   -34862.119   -22066.058   -6079.4709     12397.04     3389.172    81.719387 
    8500     875.8808   -114.65597   0.79251536   -113.86346   -15476.966    4.3465449    4.3465449    4.3465449   -15476.966    15759.492   -48195.348   -13995.043    23646.395   -1474.3591    3708.1681    82.116894 
    8600    954.09429   -114.72577   0.86328457   -113.86248    8183.8419     4.326434     4.326434     4.326434    8183.8419    2259.2873   -22530.848    44823.087    13161.857   -25615.262   -7959.2073    80.982325 
    8700    1023.8067   -114.79325   0.92636183   -113.86689    25982.729    4.3188191    4.3188191    4.3188191    25982.729    23134.019    -3642.841    58457.009   -8364.8993   -18790.937     1572.687    80.555473 
    8800    851.83139   -114.65616   0.77075494    -113.8854     17585.22    4.3298236    4.3298236    4.3298236     17585.22     2756.565   -26963.155    76962.249    9814.6896   -6263.3344    927.47029    81.172818 
    8900    883.77955   -114.66945   0.79966231   -113.86979   -39816.706    4.3581017    4.3581017    4.3581017   -39816.706   -43116.741   -54454.796   -21878.582    8063.4426   -19364.832   -2400.9063    82.773646 
    9000    960.77746   -114.73129   0.86933164   -113.86196    8839.4036    4.3117225    4.3117225    4.3117225    8839.4036    741.66714    6170.8931    19605.651   -22791.053   -31476.454   -128.64901    80.159021 
    9100     1009.066   -114.78005   0.91302411   -113.86702    14765.962    4.3072853    4.3072853    4.3072853    14765.962    28613.243   -16648.866     32333.51    8426.5168    15698.634    4304.1638      79.9118 
    9200    998.93165    -114.7691   0.90385435   -113.86525   -41544.794    4.3542157    4.3542157    4.3542157   -41544.794   -43653.375   -59387.656   -21593.351    21556.643   -403.31092    9611.2559    82.552424 
    9300      891.626   -114.67239   0.80676194   -113.86563    4918.1205    4.3242025    4.3242025    4.3242025    4918.1205    1789.3501    -5324.838    18289.849   -23739.368   -13035.731   -4648.6088    80.857081 
    9400    916.58471   -114.69149    0.8293451   -113.86214    21332.937    4.3167738    4.3167738    4.3167738    21332.937    13689.588    -14458.19    64767.413    -9955.515   -817.89965      4952.89    80.441076 
    9500    1124.6238   -114.87821    1.0175832   -113.86062    8037.7185    4.3384365    4.3384365    4.3384365    8037.7185    3651.4858   -35587.255    56048.925    16636.974    5801.4655    3035.0043    81.658187 
    9600    837.80478   -114.62641   0.75806337   -113.86835    13154.577    4.3307818    4.3307818    4.3307818    13154.577    28135.869   -13079.664    24407.526   -20583.496   -7196.3458    2299.6768    81.226717 
    9700    878.48122   -114.66584   0.79486827   -113.87097   -11438.557    4.3333635    4.3333635    4.3333635   -11438.557   -23519.361   -27101.183    16304.873     -22295.1   -23393.473   -1439.5799    81.372071 
    9800     1532.855   -115.24659    1.3869594   -113.85963   -2391.6882    4.3252047    4.3252047    4.3252047   -2391.6882    20074.494   -17082.711   -10166.848     7125.121   -15268.091    1446.0539    80.913316 
    9900     1011.168   -114.78568   0.91492608   -113.87075   -27750.219    4.3367899    4.3367899    4.3367899   -27750.219   -22233.251   -39960.671   -21056.734   -26212.325    10301.237    10363.462    81.565244 
   10000    763.72776   -114.55728   0.69103692   -113.86624   -20528.539    4.3382582    4.3382582    4.3382582   -20528.539   -9675.7014    -17797.18   -34112.734   -23033.484   -9501.8963   -2307.0514    81.648118 
   10100    1388.9443   -115.11437     1.256746   -113.85762    8143.0433    4.3228468    4.3228468    4.3228468    8143.0433    7782.6406    -13936.04     30582.53    14327.575   -3227.1737    1690.5921    80.781059 
   10200    1079.1431   -114.84225   0.97643136   -113.86582   -14429.512    4.3349227    4.3349227    4.3349227   -14429.512   -1186.6527   -44425.532    2323.6488   -17929.003    14296.479    6033.3608    81.459936 
   10300    621.41808   -114.43115   0.56227214   -113.86887    5709.1011    4.3322602    4.3322602    4.3322602    5709.1011   -20993.282   -22501.658    60622.244   -22906.806     11181.95   -4236.4191    81.309935 
   10400    1202.5281   -114.95736    1.0880727   -113.86928   -4217.3487    4.3266156    4.3266156    4.3266156   -4217.3487    994.45465   -21264.256    7617.7554    14787.033   -12077.484    4381.5283    80.992527 
   10500    866.49331   -114.65442   0.78402136    -113.8704     6036.184    4.3361395    4.3361395    4.3361395     6036.184     19986.78   -45537.407    43659.179    5139.7017   -2391.3411   -157.17956    81.528554 
   10600    1351.6931   -115.08902    1.2230403   -113.86598   -13934.309    4.3248086    4.3248086    4.3248086   -13934.309   -12254.731    -17261.62   -12286.577   -15470.661    9016.0761    3609.5611    80.891086 
   10700    783.68476   -114.58457   0.70909444   -113.87547    1670.9516    4.3186383    4.3186383    4.3186383    1670.9516    19234.822   -20204.673    5982.7061    18070.305    3009.2286   -699.81738    80.545352 
   10800    1000.4611   -114.78313   0.90523823   -113.87789   -14008.758    4.3450113    4.3450113    4.3450113   -14008.758    13313.587   -49495.117   -5844.7447    15697.316    -12281.74   -1911.7288    82.030002 
   10900    1113.4257   -114.87456     1.007451   -113.86711      3554.49    4.3395386    4.3395386    4.3395386      3554.49   -13858.322   -31806.984    56328.775    -8080.089    12172.062    13294.464    81.720436 
   11000    694.81409   -114.49149   0.62868239   -113.86281    33980.533    4.3034421    4.3034421    4.3034421    33980.533    28329.192    15506.663    58105.745    16256.459     19332.31   -2314.1915    79.698089 
   11100     830.5865   -114.64103   0.75153212    -113.8895   -19745.407      4.33943      4.33943      4.33943   -19745.407   -24034.742   -45627.097    10425.619     23870.09   -11776.782   -6482.6066    81.714297 
   11200    1476.1325   -115.19759    1.3356357   -113.86196   -23217.626    4.3462112    4.3462112    4.3462112   -23217.626   -21662.713   -29780.135   -18210.029   -4670.3336   -8784.2861   -5032.9684    82.097981 
   11300    1155.7956   -114.90131    1.0457881   -113.85552   -22.764554    4.3138849    4.3138849    4.3138849   -22.764554   -12002.249    3128.2447    8805.7106    13606.934    15384.903   -3200.0392    80.279684 
   11400    857.60845   -114.64903   0.77598215   -113.87305   -22144.814     4.335868     4.335868     4.335868   -22144.814    -44024.48   -35081.637    12671.676    25492.371   -183.58072    -9191.307    81.513239 
   11500    1344.5538   -115.06844    1.2165805   -113.85186    -13737.66     4.342926     4.342926     4.342926    -13737.66   -22950.949   -10844.263   -7417.7693   -2507.0887     -18091.8   -14233.737    81.911954 
   11600    1172.4516   -114.90679    1.0608589   -113.84593   -22045.637    4.3391647    4.3391647    4.3391647   -22045.637   -35122.295   -26210.667   -4803.9497    5929.4555    12821.091    -3210.573    81.699313 
   11700    952.01784   -114.71393   0.86140575   -113.85253   -17188.261    4.3286263    4.3286263    4.3286263   -17188.261   -34645.136    -11436.03    -5483.616    36566.034    11895.123    -8315.883    81.105497 
   11800    1236.8443   -114.97531    1.1191227   -113.85619    10492.895    4.3222582    4.3222582    4.3222582    10492.895    26660.865   -6768.8443    11586.666   -1034.4741   -12335.436   -8231.7392    80.748063 
   11900    1145.6928   -114.90497     1.036647   -113.86832   -16029.116    4.3404906    4.3404906    4.3404906   -16029.116   -23464.783    -18195.69   -6426.8764   -24329.305    8689.5875   -3490.1932    81.774228 
   12000    977.73042   -114.74677   0.88467103    -113.8621    8174.5247    4.3277378    4.3277378    4.3277378    8174.5247    26191.677    2744.1092    -4412.212    16716.695    14439.201    -4660.838    81.055565 
   12100    1022.4303   -114.78425   0.92511646   -113.85914    12551.178    4.3315348    4.3315348    4.3315348    12551.178   -4413.8108    5890.5194    36176.824    5231.8662   -115.98884   -3370.7652    81.269094 
   12200    1000.6789   -114.76362   0.90543527   -113.85818   -4141.7107    4.3375234    4.3375234    4.3375234   -4141.7107   -33558.597   -8815.2972    29948.762   -29728.168    440.40696    4928.5833    81.606639 
   12300     884.7452   -114.65844   0.80053605    -113.8579    16542.137    4.3152034    4.3152034    4.3152034    16542.137   -1053.0546     11578.63    39100.836    11402.545     10000.02    8999.7293     80.35332 
   12400    845.59075      -114.64   0.76510828   -113.87489    1762.0569    4.3276106    4.3276106    4.3276106    1762.0569   -41039.644    6260.7999    40065.015    26826.851    8435.1424     6960.732    81.048416 
   12500    1208.3802   -114.96077    1.0933678    -113.8674   -5757.4139    4.3305343    4.3305343    4.3305343   -5757.4139   -31032.986   -4819.0188    18579.763   -19101.657   -13171.068    10768.845    81.212793 
   12600    659.06087    -114.4649   0.59633213   -113.86857    8035.4978    4.3241124    4.3241124    4.3241124    8035.4978    -38872.42    9011.3043    53967.609    5241.9525   -1535.7487   -7367.4777    80.852028 
   12700     829.8707   -114.61896   0.75088445   -113.86807   -26907.468     4.335663     4.335663     4.335663   -26907.468   -55477.179   -23337.553   -1907.6737    35186.472    18246.006     7415.475    81.501677 
   12800    1372.5715   -115.10262    1.2419315   -113.86069    1473.7657    4.3157129    4.3157129    4.3157129    1473.7657   -19828.693     1483.174    22766.816   -9197.5741    299.99013    2422.9379    80.381785 
   12900     1012.829   -114.78994   0.91642894   -113.87352    7929.5608     4.318928     4.318928     4.318928    7929.5608   -2218.8621    11322.731    14684.813    -1198.726   -9901.3323   -12716.343    80.561563 
   13000     693.5045   -114.50586   0.62749745   -113.87837     -37389.2    4.3381706    4.3381706    4.3381706     -37389.2   -66140.409   -29192.647   -16834.542    34057.354    9102.9639    8527.7132    81.643172 
   13100    1012.0889   -114.78444   0.91575934   -113.86868    14026.366    4.3213465    4.3213465    4.3213465    14026.366   -1610.8055    11187.841    32502.062    3292.3727    19543.816   -9545.5091    80.696976 
   13200    1497.6565   -115.21422    1.3551111    -113.8591    2309.3662    4.3264117    4.3264117    4.3264117    2309.3662     2307.544   -4762.4813    9383.0358   -2577.9712   -4356.6313    -4822.801    80.981074 
   13300    710.21606   -114.51367   0.64261842   -113.87105    6618.7083    4.3275161    4.3275161    4.3275161    6618.7083   -33875.491    1671.4329    52060.183    25628.353    324.72414     4622.339    81.043107 
   13400    739.89628   -114.55096    0.6694737   -113.88149   -10770.576    4.3261194    4.3261194    4.3261194   -10770.576     -13794.2    2050.7114   -20568.239     6372.067    28175.843    1698.1838    80.964664 
   13500    1176.9024   -114.93964     1.064886   -113.87475    1362.1574    4.3294298    4.3294298    4.3294298    1362.1574   -3224.5282    2130.7982    5180.2022   -11239.833    5085.6937    -1335.119    81.150671 
   13600     1419.018   -115.14945    1.2839573    -113.8655    7463.1194    4.3209641    4.3209641    4.3209641    7463.1194    4740.5358   -10536.186    28185.008    9749.7246   -1945.7589    3115.2904    80.675558 
   13700    568.95548   -114.39014   0.51480287   -113.87534   -17473.196      4.33463      4.33463      4.33463   -17473.196   -2777.2726   -2190.7012   -47451.614    13712.812    23211.694    981.26763    81.443436 
   13800    980.49704    -114.7557   0.88717432   -113.86853   -13771.229    4.3295361    4.3295361    4.3295361   -13771.229   -36178.273    14270.255   -19405.668   -2851.7608    16643.949    -2622.878    81.156649 
   13900    1434.8584   -115.15703      1.29829   -113.85874    17034.081    4.3167337    4.3167337    4.3167337    17034.081    40178.307    3172.3889    7751.5473   -14590.993   -13634.274    11796.514    80.438834 
   14000    904.16026   -114.68995    0.8181032   -113.87184   -35929.764    4.3393884    4.3393884    4.3393884   -35929.764   -42189.558   -14657.588   -50942.146     8928.073    27985.928   -2614.1012    81.711949 
   14100    674.20933    -114.4811   0.61003877   -113.87106   -2705.8214     4.319357     4.319357     4.319357   -2705.8214   -14456.476    30216.261   -23877.249    2540.3767    32807.572   -8349.7411    80.585571 
   14200    1258.0182   -115.00183    1.1382813   -113.86355    24521.675     4.316705     4.316705     4.316705    24521.675    50426.699    15192.333    7945.9942   -20050.347   -17925.916    10491.443    80.437229 
   14300    782.37885   -114.57139   0.70791282   -113.86348   -24987.527    4.3528671    4.3528671    4.3528671   -24987.527     2613.181   -10672.079   -66903.681   -8149.2479    19713.951   -3971.6329    82.475739 
   14400    595.27525   -114.39874   0.53861755   -113.86012    8016.6199    4.3240304    4.3240304    4.3240304    8016.6199    29958.671    34001.438   -39910.249    -1934.939    31119.105   -9834.7837    80.847429 
   14500    1294.2961   -115.02427    1.1711063   -113.85316     17973.94    4.3122641    4.3122641    4.3122641     17973.94    29901.685    18172.323    5847.8103   -3941.3746   -10877.437   -2900.2098    80.189231 
   14600    1095.8342   -114.85573    0.9915338    -113.8642    -32649.81    4.3442834    4.3442834    4.3442834    -32649.81   -42795.623   -3772.9508   -51380.856   -14446.166    17270.171   -2816.2991    81.988785 
   14700    692.87918   -114.49595   0.62693164   -113.86901    5448.8896    4.3208012    4.3208012    4.3208012    5448.8896    7599.5271      49593.2   -40846.058    6249.2321     39301.35    1018.7059    80.666433 
   14800    1214.2438   -114.96752    1.0986733   -113.86884    3744.6503    4.3174583    4.3174583    4.3174583    3744.6503    24807.218   -7795.4698   -5777.7969    12747.266   -3334.8977   -2109.2403    80.479346 
   14900     1059.091    -114.8249   0.95828776   -113.86661    -6755.751    4.3290242    4.3290242    4.3290242    -6755.751     21625.05   -27189.592    -14702.71    10259.929    4219.7521   -1416.9184    81.127863 
   15000    770.99084   -114.56721   0.69760871   -113.86961    2489.6218    4.3184584    4.3184584    4.3184584    2489.6218    8870.7978    33749.124   -35151.056   -12098.303    44743.276    1151.0304    80.535287 
   15100    1071.0814   -114.83779   0.96913697   -113.86865   -19817.756    4.3314517    4.3314517    4.3314517   -19817.756   -6346.9286   -27904.477   -25201.861    16888.663    2515.3418   -18640.598     81.26442 
   15200     1227.613   -114.97474      1.11077   -113.86397   -21777.356    4.3257535    4.3257535    4.3257535   -21777.356   -24150.652   -24029.309   -17152.105    14140.419   -6430.7827    -2502.366    80.944119 
   15300    705.89118   -114.51198   0.63870518   -113.87328   -10278.194    4.3130646    4.3130646    4.3130646   -10278.194   -20849.335    9169.4625   -19154.709   -22519.144    46445.519    4466.8865    80.233899 
   15400    1107.4496   -114.87685    1.0020437   -113.87481   -1837.0665    4.3239931    4.3239931    4.3239931   -1837.0665    6780.3419   -2226.2799   -10065.261   -2401.8265    13051.437   -8154.7509    80.845339 
   15500    1174.3353   -114.92812    1.0625632   -113.86555    -9007.033    4.3386569    4.3386569    4.3386569    -9007.033    35253.881   -34496.406   -27778.573    6056.8651   -3138.8983    -2299.722    81.670634 
   15600    741.97403   -114.54881   0.67135369   -113.87746   -12372.952    4.3151336    4.3151336    4.3151336   -12372.952   -24275.589    10782.127   -23625.393    2388.5242    43839.247    -430.1548    80.349421 
   15700    691.87074   -114.50823   0.62601919   -113.88222    28787.985    4.3102634    4.3102634    4.3102634    28787.985    46271.817    20346.456    19745.683   -16157.466    19320.658   -4822.2152    80.077668 
   15800    1449.4563   -115.18071    1.3114985   -113.86921   -16715.174     4.343773     4.343773     4.343773   -16715.174   -10672.569   -25600.165   -13872.787   -2866.1606   -14518.195   -5074.1617    81.959889 
   15900     1064.068   -114.83313   0.96279105   -113.87034    12046.652    4.3192657    4.3192657    4.3192657    12046.652    29077.252    19193.672   -12130.967    10155.016    32329.834    5914.4528    80.580465 
   16000    632.89119   -114.44275   0.57265325    -113.8701    16309.978    4.3111453    4.3111453    4.3111453    16309.978    5086.5423    35087.833    8755.5598   -11784.508    20916.412    395.15603    80.126835 
   16100    931.59211   -114.71137   0.84292411   -113.86844   -8600.2407    4.3337502    4.3337502    4.3337502   -8600.2407    1829.3631   -15559.755    -12070.33   -17772.111   -17973.385   -2793.7305    81.393854 
   16200    1451.6495   -115.17592     1.313483   -113.86243   -6844.0098     4.319808     4.319808     4.319808   -6844.0098   -12483.113     7440.981   -15489.897    4105.0175    19514.181    2979.0914    80.610818 
   16300    825.53037   -114.62161   0.74695722   -113.87465     12996.88    4.3156983    4.3156983    4.3156983     12996.88   -6489.8038    44615.285    865.15881    -4329.408    26065.969    -1536.374    80.380969 
   16400    874.72188    -114.6715   0.79146674   -113.88003   -20405.389    4.3284729    4.3284729    4.3284729   -20405.389   -30903.762   -26830.611   -3481.7943    -27202.28    -6500.932   -6151.3965    81.096876 
   16500    962.63516   -114.74487   0.87101253   -113.87386   -1789.0413    4.3269465    4.3269465    4.3269465   -1789.0413   -1692.7704    9572.6264    -13246.98   -4824.8614    -1473.181    2616.3934    81.011108 
   16600    1056.9017   -114.82429   0.95630688   -113.86799    19844.359    4.3169165    4.3169165    4.3169165    19844.359    9107.6714    64249.344   -13823.938    9601.8124    20044.517   -1865.8191    80.449056 
   16700    994.75121   -114.77247    0.9000718    -113.8724    5127.7917    4.3243391    4.3243391    4.3243391    5127.7917    13696.474    7387.7966   -5700.8951   -26684.331    4975.5488   -1056.7985    80.864748 
   16800    881.52763   -114.66795   0.79762473   -113.87033    4437.1858    4.3304622    4.3304622    4.3304622    4437.1858   -18619.374    46557.744   -14626.812   -12356.092   -7631.9062   -129.84071    81.208736 
   16900    1182.1113   -114.93359    1.0695992   -113.86399    8834.1569    4.3161275    4.3161275    4.3161275    8834.1569    8876.6006    31551.571   -13925.701    17341.186    10697.106    1169.6353    80.404952 
   17000    931.65239   -114.71336   0.84297866   -113.87038    5765.2635    4.3200782    4.3200782    4.3200782    5765.2635    12872.862    16022.106   -11599.177   -19039.305    9510.9253    16595.801    80.625948 
   17100    1214.1506   -114.96792     1.098589   -113.86933   -21340.414     4.332284     4.332284     4.332284   -21340.414   -38900.818   -7495.6694   -17624.756   -27934.273   -7170.2259   -598.75988     81.31127 
   17200    905.89693   -114.68991   0.81967458   -113.87024    743.27449    4.3220963    4.3220963    4.3220963    743.27449    2764.2661    8506.5822   -9041.0248    10611.291    8347.8109   -3956.4638    80.738989 
   17300     833.8258   -114.62903   0.75446311   -113.87457   -9170.7306    4.3247218    4.3247218    4.3247218   -9170.7306    8835.5168    1431.1424   -37778.851    10591.379    10380.889    23504.341    80.886219 
   17400    1190.3182   -114.93852    1.0770249   -113.86149   -25144.982    4.3410094    4.3410094    4.3410094   -25144.982   -39248.707   -10398.358   -25787.881   -26180.041   -667.83781    4526.9159    81.803553 
   17500    1151.0202   -114.90138    1.0414673   -113.85991    2537.8029    4.3166625    4.3166625    4.3166625    2537.8029    5726.1436   -3882.0206    5769.2859    14016.281    8193.0587   -7877.7192    80.434855 
   17600    645.73023   -114.45359   0.58427028   -113.86932    4043.5763    4.3100445    4.3100445    4.3100445    4043.5763    14987.979    14929.702   -17786.952     20196.36    12562.249    20965.712    80.065468 
   17700    1044.7569   -114.81643   0.94531802   -113.87111   -21907.939     4.339731     4.339731     4.339731   -21907.939   -5057.7172   -14840.231   -45825.867   -14832.109    6757.5687    11742.124    81.731303 
   17800    1489.9147   -115.20676    1.3481061   -113.85866    6300.0715    4.3230132    4.3230132    4.3230132    6300.0715   -13947.394    29652.525    3195.0834    13632.187   -2762.7296   -4326.6557    80.790386 
   17900    528.90266   -114.34838   0.47856224   -113.86981     16345.97    4.3149509    4.3149509    4.3149509     16345.97    30700.669    36119.006   -17781.765    9529.1082     8288.658    8490.0031    80.339212 
   18000    936.81193   -114.71867   0.84764712   -113.87102   -26991.115    4.3353566    4.3353566    4.3353566   -26991.115    8239.9659   -28648.276   -60565.037     3581.025    13424.128    11634.355    81.484402 
   18100    1321.8235   -115.05237    1.1960137   -113.85636    2859.5051    4.3273223    4.3273223    4.3273223    2859.5051    22595.064    11444.354   -25460.903   -9288.2962   -8918.1965   -4934.9641    81.032217 
   18200    967.90122   -114.74154   0.87577737   -113.86576   -8821.8261    4.3219889    4.3219889    4.3219889   -8821.8261    2294.2834   -2726.2072   -26033.555    8814.9984   -7442.9093    536.14209    80.732974 
   18300    805.71799   -114.59689   0.72903057   -113.86786   -19376.945    4.3282918    4.3282918    4.3282918   -19376.945    30240.337   -41241.157   -47130.015    27259.414    8548.5494     21526.48    81.086692 
   18400     1265.129   -115.00471    1.1447153   -113.85999   -11314.539    4.3251219    4.3251219    4.3251219   -11314.539   -7809.1055    1352.4014   -27486.913   -22820.428    -6719.486   -2473.7134    80.908666 
   18500     939.8183   -114.71622   0.85036734   -113.86585   -24793.481    4.3279129    4.3279129    4.3279129   -24793.481   -33347.881   -12190.113   -28842.449    12432.063   -26550.987   -1184.8778    81.065403 
   18600    951.58303    -114.7307   0.86101232   -113.86969   -4614.5043    4.3133187    4.3133187    4.3133187   -4614.5043    24123.159   -21785.123   -16181.549    21780.851    2974.2003    23349.512    80.248082 
   18700    1387.1313   -115.12482    1.2551056   -113.86971    10577.638    4.3161641    4.3161641    4.3161641    10577.638    33214.201    9175.0246    -10656.31   -2911.3813   -5821.5684    3538.1992    80.406998 
   18800    901.83502   -114.68726   0.81599928   -113.87126   -10158.208    4.3378861    4.3378861    4.3378861   -10158.208    1484.4252    518.30736   -32477.356   -9182.6259    -18394.31   -3671.0028     81.62711 
   18900     960.0713   -114.73711   0.86869269   -113.86841   -9140.2158    4.3155609    4.3155609    4.3155609   -9140.2158    9077.7688   -29846.269   -6652.1476    6242.1528   -10437.552    14656.617    80.373293 
   19000    953.61747   -114.73184   0.86285313   -113.86898    31605.021    4.3104758    4.3104758    4.3104758    31605.021    58127.848    14992.818    21694.396    13984.018    13517.083    16570.261    80.089507 
   19100      1405.41   -115.13646    1.2716445   -113.86481    -16194.66    4.3344253    4.3344253    4.3344253    -16194.66    2339.5778   -16909.063   -34014.496   -9506.7684    -5347.291    -7641.493    81.431899 
   19200    762.85578   -114.56058   0.69024794   -113.87033    2566.5574    4.3222908    4.3222908    4.3222908    2566.5574   -378.05075   -10430.303    18508.026    1297.7819   -21731.804    5259.7565    80.749894 
   19300     888.2135   -114.67096   0.80367424   -113.86729    9705.6909    4.3129391    4.3129391    4.3129391    9705.6909    11467.394   -5036.1469    22685.825    18386.577    18010.483    22888.624    80.226896 
   19400    1195.9963   -114.94658    1.0821626   -113.86442     1321.525    4.3223958    4.3223958    4.3223958     1321.525    10648.793   -3689.7068   -2994.5111    2997.4109   -1015.4864   -3952.2176    80.755776 
   19500    1012.8921   -114.78543   0.91648604   -113.86894    1286.9472    4.3234171    4.3234171    4.3234171    1286.9472   -24535.587   -3365.4305    31761.859   -10598.519   -26836.616   -1495.3969    80.813035 
   19600    914.86148    -114.6982    0.8277859   -113.87041    1301.4853    4.3204648    4.3204648    4.3204648    1301.4853   -5153.4366   -4201.6377     13259.53    16933.427   -5310.2574    19884.747    80.647592 
   19700    987.17187   -114.76016   0.89321386   -113.86694    7375.4276    4.3241542    4.3241542    4.3241542    7375.4276    18024.048   -13503.601    17605.836    11462.279     7870.445    -7613.056    80.854375 
   19800    1042.3796   -114.81044     0.943167   -113.86727   -12890.859    4.3265556    4.3265556    4.3265556   -12890.859   -12332.633   -14532.638   -11807.307   -9533.6299   -15994.779   -13123.885    80.989156 
   19900    1066.2362   -114.83099   0.96475294   -113.86623   -9168.9099    4.3197636    4.3197636    4.3197636   -9168.9099   -22800.213    -4831.251    124.73415    17286.929    -23849.24    6378.7674    80.608332 
   20000    1048.7876   -114.81743   0.94896502   -113.86847    13685.923    4.3229707    4.3229707    4.3229707    13685.923    24494.268   -26228.592    42792.093    8526.0157     8578.686    -6113.453    80.788003 
   20100    1001.9216   -114.77587   0.90655973   -113.86931   -8171.4604    4.3334263    4.3334263    4.3334263   -8171.4604   -16770.353   -24623.146    16879.118   -6584.7567    14754.228   -7798.1918    81.375605 
   20200    532.28716   -114.35531   0.48162461   -113.87368    2585.5342    4.3216787    4.3216787    4.3216787    2585.5342    -3154.482   -13531.521    24442.606    14286.768   -9429.7495    -5576.888    80.715592 
   20300    1005.0489   -114.78058   0.90938938    -113.8712     8767.051    4.3174027    4.3174027    4.3174027     8767.051   -3650.8728   -19280.273    49232.299    18356.109   -11060.109    1900.9665    80.476238 
   20400    1330.1287   -115.06956    1.2035284   -113.86603   -12796.849     4.334592     4.334592     4.334592   -12796.849   -9148.1698   -26820.372    -2422.004    1019.7504    16673.148    -695.8407    81.441294 
   20500    869.47648   -114.66361   0.78672059   -113.87689   -13656.449    4.3194661    4.3194661    4.3194661   -13656.449   -19231.131    6523.3919   -28261.609    5824.6973    -4220.657   -23035.879    80.591682 
   20600    603.59451   -114.42715     0.546145     -113.881    6643.6822    4.3103703    4.3103703    4.3103703    6643.6822   -20378.865    23211.791     17098.12    29536.058   -30072.182    5275.1583    80.083626 
   20700    1254.7367   -115.01173    1.1353122   -113.87642   -8937.5975    4.3345193    4.3345193    4.3345193   -8937.5975   -32036.706   -18461.435    23685.348    6576.6322    10328.158    14721.103    81.437201 
   20800    1340.7256   -115.08573    1.2131167   -113.87261    12279.461    4.3179434    4.3179434    4.3179434    12279.461    19.178534    24049.619    12769.584   -2939.8611   -7150.7251     1199.819    80.506479 
   20900    499.29497   -114.33368   0.45177258   -113.88191      14771.7    4.3123737    4.3123737    4.3123737      14771.7   -36702.949    34191.024    46827.025    30749.912   -22663.881   -2359.8065    80.195347 
   21000    784.55096   -114.58848   0.70987819    -113.8786   -27260.067    4.3329276    4.3329276    4.3329276   -27260.067   -35567.394   -37061.175   -9151.6319     15186.74   -6189.4611    16907.181    81.347515 
   21100    1401.7687   -115.13344    1.2683498   -113.86509    20387.241    4.3105538    4.3105538    4.3105538    20387.241    1998.5613    28498.449    30664.714    -16775.44    4085.0188    13006.211    80.093856 
   21200    1148.5181   -114.91619    1.0392033   -113.87699   -13076.397    4.3227977    4.3227977    4.3227977   -13076.397   -29562.097   -15739.264    6072.1712    22779.414   -12927.922   -9857.5946    80.778305 
   21300     419.8818   -114.26731   0.37991788   -113.88739   -25815.816    4.3259291    4.3259291    4.3259291   -25815.816   -35396.246   -29250.809   -12800.393    21887.276   -14638.112   -351.64066    80.953978 
   21400    1161.4899   -114.92284    1.0509405    -113.8719    11718.111    4.3053165    4.3053165    4.3053165    11718.111    12201.829     9327.746    13624.759   -5162.0182    6159.4018     15222.87    79.802271 
   21500    1144.2724   -114.90886    1.0353617    -113.8735   -14404.081     4.335444     4.335444     4.335444   -14404.081   -44862.005   -5177.9908    6827.7519     7900.644    12087.317    762.94788    81.489332 
   21600    1047.7669   -114.82757   0.94804153   -113.87952   -6424.9655     4.313697     4.313697     4.313697   -6424.9655   -20230.376   -28380.941     29336.42    28007.046   -3788.2022   -8372.6905    80.269196 
   21700    839.67303   -114.63398    0.7597538   -113.87423    29647.185    4.3009945    4.3009945    4.3009945    29647.185    17176.138    47328.194    24437.222    5737.1196   -8821.2827    10602.864    79.562179 
   21800    1028.4282   -114.80093   0.93054341   -113.87039   -32689.536    4.3408064    4.3408064    4.3408064   -32689.536   -44637.785   -11247.555    -42183.27   -8149.7643    23451.157    9599.0913     81.79208 
   21900    983.11884   -114.75711   0.88954658   -113.86756    8454.0238    4.3152431    4.3152431    4.3152431    8454.0238   -973.62125   -773.39308    27109.086    33437.221    11184.215   -7607.3161    80.355535 
   22000    1220.3666   -114.96521    1.1042133   -113.86099    24219.824    4.3052009    4.3052009    4.3052009    24219.824    -4023.149    51965.031     24717.59    9864.6109   -14682.568    16133.247    79.795842 
   22100    1095.5793   -114.85812   0.99130318   -113.86682   -14941.225    4.3305604    4.3305604    4.3305604   -14941.225   -17383.388   -3986.0618   -23454.224   -12980.121    16662.911    1642.3629    81.214262 
   22200     584.2319   -114.40209    0.5286253   -113.87347    20534.109    4.3181425    4.3181425    4.3181425    20534.109   -16276.724    42482.968    35396.082     30691.73    15240.789   -1026.6029    80.517617 
   22300    1234.5807   -114.98729    1.1170746   -113.87021     8702.846    4.3228655    4.3228655    4.3228655     8702.846   -14138.522    14659.914    25587.146    19379.358   -3542.6845   -6658.7789    80.782104 
   22400    1498.8157   -115.22415    1.3561599   -113.86799    7295.6133    4.3171962    4.3171962    4.3171962    7295.6133   -7517.0524    13761.118    15642.775   -17886.066    9798.8061    101.85769    80.464695 
   22500    632.71446   -114.45357   0.57249334   -113.88108    16946.472    4.3091109    4.3091109    4.3091109    16946.472   -14372.419    37464.137    27747.698    16701.845     13411.92    5188.1141    80.013451 
   22600    676.69181   -114.49648   0.61228497   -113.88419   -29235.023    4.3329282    4.3329282    4.3329282   -29235.023   -44930.291   -33311.683   -9463.0937    35648.153    10303.197   -4655.4128     81.34755 
   22700    1322.4406    -115.0671    1.1965721   -113.87052    12184.117    4.3131715    4.3131715    4.3131715    12184.117    9768.7937    12472.272    14311.286   -11623.709   -6858.7649    9939.3285    80.239862 
   22800    1274.5274   -115.02382    1.1532192   -113.87061    512.02779    4.3083051    4.3083051    4.3083051    512.02779   -22274.308    1299.7803    22510.611     7431.446    10476.577   -3841.9154    79.968572 
   22900    348.47752   -114.19779   0.31530978   -113.88248   -31149.161     4.329535     4.329535     4.329535   -31149.161   -54480.858   -29535.726   -9430.9002     45748.46    17813.613    521.73582    81.156585 
   23000    1038.9716   -114.81105    0.9400833   -113.87097    5348.3188    4.3108668    4.3108668    4.3108668    5348.3188    8701.0939   -18622.456    25966.318    129.68216   -6362.0175     12500.85    80.111309 
   23100    1423.4958   -115.15607    1.2880089   -113.86806   -3488.0362    4.3213223    4.3213223    4.3213223   -3488.0362   -18848.368   -2860.9151    11245.174    203.81042    2832.0184    1629.5082    80.695623 
   23200     732.5627   -114.54072   0.66283813   -113.87788   -8553.8283     4.321151     4.321151     4.321151   -8553.8283   -47512.562   -17722.898    39573.975    41591.793    11881.466   -4636.6995    80.686024 
   23300    922.79247    -114.7037   0.83496202   -113.86874    14498.487    4.3035825    4.3035825    4.3035825    14498.487    6653.8341    5169.3683     31672.26    9126.5278    12884.389    718.86543    79.705885 
   23400    1070.3271   -114.83902   0.96845447   -113.87057   -12794.719    4.3306598    4.3306598    4.3306598   -12794.719   -12871.448   -18919.166   -6593.5413   -5910.2036   -6761.7874    14645.652    81.219852 
   23500    925.06501   -114.70572   0.83701826    -113.8687   -6255.4845    4.3202824    4.3202824    4.3202824   -6255.4845   -45596.921    3063.1254    23767.342    36060.523   -5516.2607   -6476.6923    80.637379 
   23600    1108.0964   -114.86315    1.0026289   -113.86052    20569.878    4.2983106    4.2983106    4.2983106    20569.878     6312.997    12104.476    43292.163    14719.532    6397.9171   -1195.0049    79.413325 
   23700    1028.9647   -114.80222   0.93102891   -113.87119   -16776.753    4.3264003    4.3264003    4.3264003   -16776.753    1999.9979   -8461.1069   -43869.149   -11147.374   -7277.0237    14518.067    80.980436 
   23800    713.69913   -114.51809   0.64576997   -113.87232   -17933.586     4.325577     4.325577     4.325577   -17933.586   -42665.222   -26427.073    15291.536    30236.446     -6201.67    481.10336    80.934212 
   23900    1204.5002   -114.95344    1.0898571   -113.86358     8957.648    4.3046955    4.3046955    4.3046955     8957.648   -14560.564   -607.77095    42041.278    27620.418   -9278.0011    2379.9816    79.767743 
   24000    1107.0288   -114.86893    1.0016629   -113.86727    2186.7798    4.3191457    4.3191457    4.3191457    2186.7798    13341.349   -11140.232    4359.2218   -13084.392    6535.8793   -7297.5446    80.573747 
   24100    799.06875   -114.59685    0.7230142   -113.87383   -15298.611    4.3243854    4.3243854    4.3243854   -15298.611   -27488.216   -46181.379    27773.762      18711.9   -3781.1581    7289.3286    80.867344 
   24200    1019.0558   -114.79428   0.92206312   -113.87222    3041.4497     4.314635     4.314635     4.314635    3041.4497   -21301.654   -13552.503    43978.506    26536.224   -13393.406   -7001.2137    80.321569 
   24300    1320.9103   -115.06068    1.1951874   -113.86549    18452.331      4.30838      4.30838      4.30838    18452.331    3717.4559     10227.34    41412.198   -12334.032    12028.047   -5708.4517    79.972743 
   24400    884.87688   -114.67913    0.8006552   -113.87847   -10113.476     4.321879     4.321879     4.321879   -10113.476   -16232.376   -47404.994    33296.941    14468.518   -6173.9097     8833.122    80.726815 
   24500    795.13724   -114.59523   0.71945688   -113.87577   -2932.0326    4.3263359    4.3263359    4.3263359   -2932.0326   -16950.415   -24846.577    33000.894    29112.063    -5093.649    6078.5953    80.976816 
   24600    1487.5131   -115.20653    1.3459331    -113.8606    17318.524    4.3057748    4.3057748    4.3057748    17318.524    -2769.255    10695.003    44029.825   -17639.606   -1048.2576    11779.357     79.82776 
   24700    826.29962   -114.62353   0.74765326   -113.87588    587.00896    4.3163172    4.3163172    4.3163172    587.00896   -18344.074   -19974.823    40079.924   -1668.3762    13777.446    456.44748    80.415556 
   24800    780.48552   -114.58058    0.7061997   -113.87438    -25906.05    4.3287664    4.3287664    4.3287664    -25906.05   -12831.786   -41399.532   -23486.831    34925.927   -1407.1966    23684.074    81.113371 
   24900    1168.3588   -114.92124    1.0571556   -113.86409    19060.198    4.3063002    4.3063002    4.3063002    19060.198    17687.551    742.54482    38750.498    -11768.83    1035.9585    -6254.506    79.856986 
   25000    951.80701   -114.73203   0.86121499   -113.87082   -5433.1815    4.3195005    4.3195005    4.3195005   -5433.1815   -19471.798   -12488.264    15660.518   -23977.558    13346.573    6277.6392    80.593604 
   25100    1025.4061   -114.79582   0.92780901   -113.86801   -14201.155    4.3260694    4.3260694    4.3260694   -14201.155   -14917.915   -14428.884   -13256.664    28031.248   -6125.5384    8793.2631    80.961855 
   25200    951.22499   -114.72471   0.86068836   -113.86402     22823.46    4.3104267    4.3104267    4.3104267     22823.46     49772.14    -8495.234    27193.475   -2795.1203   -178.96764    -3034.122    80.086775 
   25300    1045.0022   -114.81645   0.94553991   -113.87091   -13892.501    4.3228149    4.3228149    4.3228149   -13892.501   -27802.016   -27918.567    14043.078   -47489.518   -3821.8711    2044.5625    80.779271 
   25400    1131.9165   -114.89085    1.0241818   -113.86667    10500.716    4.3181253    4.3181253    4.3181253    10500.716    1648.3764     15830.04    14023.732    6428.6737    6565.8511    430.86746    80.516655 
   25500    1160.0613   -114.91831    1.0496478   -113.86866    7741.5666    4.3170405    4.3170405    4.3170405    7741.5666    32140.558   -17163.003    8247.1451      12260.1    3004.4317    13582.124     80.45599 
   25600     588.9489   -114.40897   0.53289334   -113.87607   -12043.011    4.3252516    4.3252516    4.3252516   -12043.011   -20416.629   -31790.616    16078.212   -43662.864   -11631.693   -5781.6119    80.915945 
   25700    1097.5034    -114.8611   0.99304418   -113.86806    7092.2052    4.3134845    4.3134845    4.3134845    7092.2052   -1017.8578    17153.114    5141.3594   -12292.668    19219.961   -7208.8158    80.257335 
   25800    1321.8187   -115.06279    1.1960093   -113.86678    6402.7676    4.3202007    4.3202007    4.3202007    6402.7676    12793.189    504.84333    5910.2701    7273.0278    3739.3293    4622.9659    80.632804 
   25900    762.19204   -114.56183   0.68964737   -113.87219   -7700.4771    4.3227295    4.3227295    4.3227295   -7700.4771   -16129.162   -32372.484    25400.215    -39129.03   -3527.9895    3943.4794    80.774483 
   26000    820.97097   -114.60936   0.74283178   -113.86653    19839.178    4.3153529    4.3153529    4.3153529    19839.178    27888.307    10564.897    21064.331   -10880.054     4236.158   -8460.6882    80.361669 
   26100    1207.6102   -114.95352    1.0926711   -113.86085   -419.00406    4.3287822    4.3287822    4.3287822   -419.00406    7074.4449   -1406.4487   -6925.0085    13555.625    13600.195   -9490.8374    81.114258 
   26200    1018.3902   -114.78374   0.92146088   -113.86228    18453.245    4.3131083    4.3131083    4.3131083    18453.245    3352.2531    20096.915    31910.566   -27569.073    6418.1045    4196.6106    80.236338 
   26300    926.38156     -114.706    0.8382095    -113.8678    22727.162     4.309749     4.309749     4.309749    22727.162    35942.995     11809.61    20428.882   -21144.775   -4985.4179    2822.2855    80.049004 
   26400    854.76177   -114.64479   0.77340641   -113.87139   -20011.353    4.3317982    4.3317982    4.3317982   -20011.353   -36521.594     2895.012   -26407.478    17458.449    15263.687   -9649.5676    81.283923 
   26500    1099.7238   -114.86212   0.99505322   -113.86706     1222.477    4.3127654    4.3127654    4.3127654     1222.477   -10613.533    5847.4814    8433.4825   -1120.5862    10471.433    -1860.444      80.2172 
   26600    1169.2009   -114.92644    1.0579176   -113.86853   -460.92892    4.3147026    4.3147026    4.3147026   -460.92892    6816.4353   -2204.2419   -5994.9801   -16393.809   -11445.763    23340.888    80.325347 
   26700    826.43002   -114.61296   0.74777125   -113.86518   -30502.986    4.3355354    4.3355354    4.3355354   -30502.986   -37987.413   -13439.321   -40082.225    3933.5621    2729.9275    1675.7319    81.494484 
   26800    1064.8952   -114.82234   0.96353956    -113.8588   -13704.327    4.3209087    4.3209087    4.3209087   -13704.327    -23933.57   -12800.139   -4379.2736    21009.956     7780.579    883.11993    80.672456 
   26900    1227.0366   -114.96713    1.1102485   -113.85688    1784.2686    4.3100022    4.3100022    4.3100022    1784.2686    34211.784   -19259.786   -9599.1918    1570.0093   -1563.9835    23377.869    80.063115 
   27000    1028.3688   -114.79699   0.93048969    -113.8665     3510.868    4.3137186    4.3137186    4.3137186     3510.868    14114.092   -3798.5913     217.1028   -7342.5539   -3788.4074    18254.734    80.270401 
   27100    735.82869   -114.53978   0.66579326   -113.87399     660.2768     4.329879     4.329879     4.329879     660.2768    5318.4364   -13218.052    9880.4463    25432.134    4250.8829   -5161.7647     81.17593 
   27200    1171.9895   -114.92919    1.0604407   -113.86875   -2681.1426    4.3202883    4.3202883    4.3202883   -2681.1426    7787.8172   -20970.235    5138.9903     13731.93    9214.0506    8495.0485    80.637709 
   27300     847.7423   -114.63189   0.76705504   -113.86484    40295.551    4.2979441    4.2979441    4.2979441    40295.551    56789.708    18607.622    45489.324    -13100.52   -6905.7549    18208.808    79.393015 
   27400    936.28925   -114.72579   0.84717419   -113.87862    1174.3579    4.3272588    4.3272588    4.3272588    1174.3579   -113.16714    13384.197   -9747.9567    11650.814    4535.0742   -10557.803    81.028649 
   27500    1199.3571   -114.94486    1.0852035   -113.85966   -6677.1265    4.3344795    4.3344795    4.3344795   -6677.1265   -19080.199   -975.44409    24.263618    14231.751    3824.6039   -825.43802    81.434953 
   27600    788.28834   -114.57164   0.71325985   -113.85838    20367.321    4.3009978    4.3009978    4.3009978    20367.321    33372.134    14408.776    13321.054   -14212.369   -2651.5854    25690.994    79.562361 
   27700    810.04981   -114.60878   0.73295009   -113.87583   -5651.0218     4.315775     4.315775     4.315775   -5651.0218    14996.294   -13211.897   -18737.463    -7808.906   -2846.4744    10774.267    80.385252 
   27800     1691.492   -115.38526    1.5304975   -113.85477   -19362.712    4.3378293    4.3378293    4.3378293   -19362.712   -32798.523   -14505.527   -10784.085     11587.54   -9732.7923   -2120.4032    81.623904 
   27900    959.39756   -114.73331   0.86808307   -113.86522   -17081.984    4.3249695    4.3249695    4.3249695   -17081.984   -619.84943   -43397.447   -7228.6546   -12442.589    2472.0093    24447.511    80.900114 
   28000    462.70923   -114.29105   0.41866904   -113.87238   -7561.5408    4.3106643    4.3106643    4.3106643   -7561.5408    10087.033   -35970.718     3199.063   -16179.423   -6739.3951    16915.924    80.100014 
   28100    1541.3553    -115.2635    1.3946507   -113.86885    3361.5001    4.3195275    4.3195275    4.3195275    3361.5001   -11309.399   -8756.9455    30150.845    1177.3829   -6303.6212   -5585.4444    80.595116 
   28200     1136.339   -114.89664    1.0281834   -113.86846   -3829.1093    4.3315006    4.3315006    4.3315006   -3829.1093   -6590.8943    -17670.06    12773.627   -470.43189      11047.9    1316.6544    81.267171 
   28300    497.61018   -114.32062   0.45024815   -113.87037   -9774.0717    4.3249176    4.3249176    4.3249176   -9774.0717    7244.9964    -20720.18   -15847.032   -16395.193   -4432.8646    12859.012    80.897202 
   28400     1214.896   -114.95542    1.0992635   -113.85615    10867.191    4.3107434    4.3107434    4.3107434    10867.191    1131.9365   -5693.3139     37162.95   -4204.5657    641.33492   -6365.5944    80.104428 
   28500    1137.8675   -114.89095    1.0295664   -113.86138    6295.7464     4.312574     4.312574     4.312574    6295.7464   -13859.218    28958.748    3787.7091    16956.526    7901.5026   -5105.0579    80.206523 
   28600    681.30394   -114.48683   0.61645812   -113.87037   -5134.4999    4.3294133    4.3294133    4.3294133   -5134.4999    6403.5485   -10854.375   -10952.673   -11176.339    2791.9385    25605.783    81.149743 
   28700    1221.2539   -114.96601    1.1050162   -113.86099    3104.4611    4.3197183    4.3197183    4.3197183    3104.4611    14290.884   -21275.233    16297.733   -4836.4394    1999.2013    2679.8263    80.605795 
   28800    959.23382   -114.73053   0.86793491   -113.86259    17690.554    4.3031349    4.3031349    4.3031349    17690.554   -7432.4641    28078.577    32425.549    26228.409     13257.52   -651.19161     79.68102 
   28900    646.43831    -114.4609   0.58491096   -113.87599    2944.2554    4.3186325    4.3186325    4.3186325    2944.2554   -7976.5679   -8141.3333    24950.668    3871.4005    2740.1778    9827.9891    80.545032 
   29000    1302.2023   -115.04051      1.17826   -113.86225   -11164.072    4.3295033    4.3295033    4.3295033   -11164.072    7915.1022    -33968.02   -7439.2994   -7139.6726   -4185.1525    29629.626    81.154801 
   29100    1088.8927   -114.84834   0.98525301   -113.86309    14967.151    4.3087425    4.3087425    4.3087425    14967.151    4281.3104    14409.363    26210.781    22756.286     3554.637   -3783.9729    79.992931 
   29200    862.98334   -114.65119   0.78084547   -113.87034   -7816.1903    4.3105921    4.3105921    4.3105921   -7816.1903   -16840.735     3377.002   -9984.8384    17160.568    2135.9811     10288.83    80.095994 
   29300    1000.6985   -114.77522     0.905453   -113.86977   -8941.8834    4.3246446    4.3246446    4.3246446   -8941.8834    6745.5114   -16897.761   -16673.401    -8050.263   -765.30939    26540.477    80.881885 
   29400    1275.3897   -115.01569    1.1539994   -113.86169   -3777.1041    4.3186881    4.3186881    4.3186881   -3777.1041   -15844.203    2903.2192    1609.6712    2241.9602    1324.6427   -3891.5461    80.548139 
   29500    774.35972   -114.56634   0.70065695   -113.86568   -10680.234    4.3206098    4.3206098    4.3206098   -10680.234   -34405.919   -593.59274    2958.8091    22684.677    6023.2646   -2283.5998    80.655716 
   29600    1231.0417   -114.97429    1.1138724   -113.86042    -3889.462    4.3117509    4.3117509    4.3117509    -3889.462    7184.1514    4452.7499   -23305.287   -4121.1808    4031.6169    1432.3397    80.160605 
   29700    1061.6839   -114.82566   0.96063389   -113.86503    5688.9808    4.3155476    4.3155476    4.3155476    5688.9808   -15995.393   -7087.8367    40150.172   -18586.286   -2092.7849    15783.415    80.372545 
   29800       805.65    -114.5985   0.72896905   -113.86953     -27410.4    4.3251309    4.3251309    4.3251309     -27410.4   -49713.613   -28370.584   -4147.0025    16513.614    83.484558   -17341.392    80.909176 
   29900    1104.4539   -114.85993   0.99933309    -113.8606    7700.2378    4.3124139    4.3124139    4.3124139    7700.2378    4929.6879    7907.4712    10263.554    8835.1897    2162.6108   -6054.1484    80.197591 
   30000    1233.7162   -114.97686    1.1162924   -113.86056   -8467.9884    4.3209583    4.3209583    4.3209583   -8467.9884   -32273.415   -20531.726    27401.176   -27537.082   -1792.2777    13011.544    80.675231 
   30100     720.0758   -114.51757   0.65153971   -113.86603   -8913.9274    4.3208289    4.3208289    4.3208289   -8913.9274   -48741.544   -10692.278     32692.04     3358.122    2351.2466   -1878.1902    80.667986 
   30200      997.875   -114.76527   0.90289827   -113.86237    15875.867    4.3122008    4.3122008    4.3122008    15875.867   -425.63359    33153.209    14900.025    24353.369   -1495.3191   -265.32547    80.185701 
   30300     1018.637   -114.78483   0.92168417   -113.86315    1894.7297    4.3257839    4.3257839    4.3257839    1894.7297   -29720.371    11170.659      24233.9   -29070.832    -275.2593   -6619.1226    80.945824 
   30400    735.51881   -114.52901   0.66551288    -113.8635    2624.4029    4.3235004    4.3235004    4.3235004    2624.4029   -52233.849    22438.598     37668.46    -7103.989    2897.7745    15185.871    80.817707 
   30500    891.45588   -114.66616   0.80660801   -113.85955    5077.4314     4.317145     4.317145     4.317145    5077.4314   -18644.858    9391.8696    24485.283    27777.582    -6316.907   -9772.9185    80.461829 
   30600    1147.2307   -114.89819    1.0380384   -113.86015   -2669.2906    4.3186835    4.3186835    4.3186835   -2669.2906   -6905.6372    -10579.68    9477.4452   -17968.051     2698.268   -21810.303    80.547886 
   30700    841.39818    -114.6285   0.76131475   -113.86718   -10067.302    4.3239245    4.3239245    4.3239245   -10067.302   -47465.263   -24570.575    41833.931   -13059.028   -4369.0931   -3566.0369     80.84149 
   30800    867.59639   -114.65203   0.78501945   -113.86701   -1138.0481    4.3224373    4.3224373    4.3224373   -1138.0481   -42788.535    14725.068    24649.322    30680.862   -4489.0592    -4765.305      80.7581 
   30900    1243.8954   -114.98608    1.1255027   -113.86058    12188.894    4.3114513    4.3114513    4.3114513    12188.894   -411.10586    28643.956    8333.8326   -3939.3655   -1026.5962   -12181.827    80.143898 
   31000    767.82923   -114.56713   0.69474803   -113.87238    7350.9327    4.3175069    4.3175069    4.3175069    7350.9327   -35716.088    39274.261    18494.625   -19830.617    3029.8657   -15646.555    80.482068 
   31100    748.54301   -114.54592   0.67729744   -113.86862   -24419.872    4.3345328    4.3345328    4.3345328   -24419.872   -64993.563   -26490.459    18224.407    32697.028    1963.6406    9685.6574     81.43796 
   31200     1332.057   -115.06036    1.2052732   -113.85509    12061.092    4.3134995    4.3134995    4.3134995    12061.092   -643.48492    19558.677    17268.083     7609.381   -1365.5993   -134.32074     80.25817 
   31300     1070.141   -114.83153   0.96828611   -113.86325    5429.4342    4.3069758    4.3069758    4.3069758    5429.4342    -23936.85     18223.51    22001.643   -7495.3235    878.40391    501.08977    79.894574 
   31400    637.46716   -114.45229   0.57679368    -113.8755    -10826.17    4.3210362    4.3210362    4.3210362    -10826.17   -61645.867    2715.2767     26452.08     25340.78    5451.8435    841.69377    80.679598 
   31500    978.77309   -114.75348   0.88561446   -113.86786    6274.0797    4.3260428    4.3260428    4.3260428    6274.0797   -25385.571    41117.566    3090.2444    10674.621   -1459.0597    12818.656    80.960361 
   31600    1392.6583   -115.11956    1.2601065   -113.85945    4201.0981    4.3169993    4.3169993    4.3169993    4201.0981   -14554.341    33169.905   -6012.2699   -3215.9223   -1833.0845    17553.141    80.453681 
   31700    855.71751   -114.64274   0.77427119   -113.86847    7106.9255    4.3085819    4.3085819    4.3085819    7106.9255     -38758.3    15359.884    44719.192    30278.822    7594.5113   -12493.589    79.983986 
   31800    986.28312   -114.76331   0.89240969    -113.8709   -15737.464     4.318665     4.318665     4.318665   -15737.464   -33072.302   -20267.433    6127.3411    10830.798   -6241.3318    15050.632     80.54685 
   31900    1096.5218   -114.85737     0.992156   -113.86521    4208.2664    4.3217906    4.3217906    4.3217906    4208.2664   -11096.337    18350.956    5370.1801   -15273.371    270.33127    18225.511    80.721861 
   32000    1060.3618   -114.82364   0.95943762    -113.8642   -1834.6518    4.3163668    4.3163668    4.3163668   -1834.6518   -30726.866    15800.399    9422.5115    28526.051    237.30423   -17029.401    80.418328 
   32100    705.50857   -114.50776   0.63835898    -113.8694    2438.9153    4.3161326    4.3161326    4.3161326    2438.9153   -36901.293    2174.3029    42043.736    13295.631   -2970.1861    1026.4337    80.405235 
   32200     1189.257   -114.93912    1.0760647   -113.86306    557.32224    4.3195351    4.3195351    4.3195351    557.32224   -16685.403    17444.099    913.27027   -25794.158     4568.979    3387.4928    80.595545 
   32300    1068.9591   -114.83134   0.96721663   -113.86413    1069.4439    4.3190469    4.3190469    4.3190469    1069.4439   -14154.202    2960.1944    14402.339    21952.328    -5867.733    5150.6227    80.568216 
   32400    732.04955   -114.53209   0.66237382   -113.86972   -12676.748    4.3147006    4.3147006    4.3147006   -12676.748   -42476.102   -30159.273    34605.132    26358.704    2971.9969   -6964.6067    80.325231 
   32500    1073.2592   -114.83881    0.9711075    -113.8677    9451.8691    4.3098665    4.3098665    4.3098665    9451.8691   -14928.186    4509.4614    38774.331   -29742.822   -1824.3157   -6319.9971    80.055553 
   32600     1371.396   -115.10701    1.2408679   -113.86614   -5004.3007    4.3214593    4.3214593    4.3214593   -5004.3007   -19988.457    8672.1713   -3696.6158    7094.7149   -2885.4808    14838.573      80.7033 
   32700    626.76078   -114.44109   0.56710633   -113.87399     5403.268    4.3176636    4.3176636    4.3176636     5403.268   -19406.029    3227.6292    32388.204    44263.948    1940.8164   -10043.507    80.490829 
   32800    982.69496   -114.76012   0.88916305   -113.87095    780.05618    4.3091605    4.3091605    4.3091605    780.05618   -21791.478      5906.78    18224.866   -23284.233   -8565.1669   -1354.0043    80.016214 
   32900    1150.4882   -114.90742    1.0409859   -113.86644    6887.0162    4.3186126    4.3186126    4.3186126    6887.0162   -10999.174    11899.907    19760.315   -17411.205    2537.4335    3516.8081    80.543914 
   33000     941.3986   -114.72072   0.85179724   -113.86892   -12076.985    4.3210857    4.3210857    4.3210857   -12076.985   -37083.148   -8502.7974    9354.9892    45296.643   -796.01202   -3606.8471    80.682371 
   33100    836.95534   -114.62575   0.75729478   -113.86845    -2052.185    4.3157325    4.3157325    4.3157325    -2052.185   -13570.651   -21266.551    28680.648   -3348.4784    3401.5387    -8233.331    80.382881 
   33200    1333.4888   -115.06696    1.2065687   -113.86039    156.05944    4.3144451    4.3144451    4.3144451    156.05944    543.56681   -7963.9453    7888.5568   -22853.224    2604.8363   -12721.995    80.310962 
   33300    800.91422    -114.5956   0.72468402   -113.87091   -14326.717     4.320857     4.320857     4.320857   -14326.717   -28400.151   -15578.731     998.7293    28270.497   -4548.2553    13725.093    80.669559 
   33400    847.03026   -114.63918   0.76641078   -113.87277    -13090.44    4.3209981    4.3209981    4.3209981    -13090.44   -24000.683   -14564.753   -705.88301    17407.005    15085.596   -9236.2647    80.677463 
   33500    1569.6861   -115.27528     1.420285     -113.855   -3458.8266    4.3218394    4.3218394    4.3218394   -3458.8266    15620.948   -15211.752   -10785.675   -10109.358   -574.18663   -7784.5913    80.724597 
   33600    877.06448   -114.65828   0.79358637    -113.8647   -13614.312    4.3230062    4.3230062    4.3230062   -13614.312   -15544.988   -10765.327   -14532.621    10606.945   -1109.5591    14313.267    80.789993 
   33700    706.73018   -114.50614   0.63946432   -113.86668   -13111.728    4.3218931    4.3218931    4.3218931   -13111.728   -29638.811    199.14228    -9895.515    24408.468    15278.315    2807.6075    80.727605 
   33800    1603.4068   -115.31312    1.4507961   -113.86232    1935.2161    4.3171482    4.3171482    4.3171482    1935.2161    8270.1113    1144.4226   -3608.8856   -8087.4225    3395.3532   -5277.9162     80.46201 
   33900    1160.3198   -114.92271    1.0498818   -113.87283    15416.617    4.3099901    4.3099901    4.3099901    15416.617    16010.953    6114.6044    24124.294    1778.6126   -1020.3565    6060.5222    80.062437 
   34000    430.95866    -114.2745   0.38994045   -113.88456     1578.202    4.3271935    4.3271935    4.3271935     1578.202   -16265.154    7208.0852    13791.675     30547.32   -808.27953    13287.985    81.024985 
   34100     1436.331   -115.15751    1.2996225   -113.85788   -16393.975    4.3345827    4.3345827    4.3345827   -16393.975   -23366.032   -5451.3466   -20364.547   -11589.461    18609.199   -14551.217    81.440774 
   34200    1079.9855   -114.82766   0.97719357   -113.85047    16508.948    4.3079219    4.3079219    4.3079219    16508.948   -4694.6039    13008.111    41213.336   -7371.9644   -3828.1078    6707.9792    79.947236 
   34300    647.83707   -114.45351   0.58617659   -113.86733   -3147.4499    4.3093605    4.3093605    4.3093605   -3147.4499   -25408.847    1731.8639    14234.633    25569.841   -17171.987    9721.1729    80.027357 
   34400    1141.9554   -114.89835    1.0332652   -113.86509   -6699.9117    4.3242989    4.3242989    4.3242989   -6699.9117    -23234.74    2589.4293     545.5758    4666.4367   -889.36016    1954.4448    80.862491 
   34500    1274.1616   -115.01772    1.1528882   -113.86483    241.69113    4.3183928    4.3183928    4.3183928    241.69113    -16014.19   -1755.8697    18495.133   -13174.733    2488.2841   -10305.479    80.531616 
   34600    720.24065   -114.52519   0.65168887    -113.8735   -2550.3437    4.3172665    4.3172665    4.3172665   -2550.3437   -42576.487   -811.85546    35737.311    10279.286     -11673.5    3295.9247    80.468624 
   34700    1030.3983   -114.79867   0.93232602   -113.86634   -787.97987    4.3210348    4.3210348    4.3210348   -787.97987   -38322.607    37661.867   -1703.1995    12752.226   -15146.303    16424.629    80.679519 
   34800    1127.0139    -114.8791    1.0197459   -113.85936   -5112.4811    4.3266145    4.3266145    4.3266145   -5112.4811    -18540.59    6057.0929   -2853.9462   -12205.453     4091.073   -27201.507    80.992464 
   34900    620.54234   -114.42641   0.56147975   -113.86493   -8990.3898    4.3201289    4.3201289    4.3201289   -8990.3898   -42747.814    7777.5725    7999.0724    15882.368   -5967.5062   -1313.2303    80.628784 
   35000    1022.0779   -114.78474   0.92479753   -113.85994    1548.2575    4.3061245    4.3061245    4.3061245    1548.2575    -35198.96    20121.158    19722.575    20671.425   -18770.644    9804.9323    79.847208 
   35100    1215.8061   -114.96498    1.1000869   -113.86489    -8476.773     4.322003     4.322003     4.322003    -8476.773   -1296.9525    -12963.91   -11169.456   -1522.1092   -2497.2662   -29812.598    80.733763 
   35200    950.45839   -114.72615   0.85999473   -113.86615   -28677.579    4.3307403    4.3307403    4.3307403   -28677.579   -35257.114    -26286.61   -24489.014    5089.3495   -1688.6822   -16875.842    81.224382 
   35300    913.08929    -114.6912   0.82618238   -113.86502     6751.423    4.3030449    4.3030449    4.3030449     6751.423   -36098.482    29178.826    27173.925    25704.764   -18685.603    5276.5624     79.67602 
   35400    986.72014   -114.76253   0.89280512   -113.86972    11570.609    4.3076414    4.3076414    4.3076414    11570.609    8966.7954    27270.204   -1525.1725    3107.3507   -4655.7163   -12551.161     79.93162 
   35500    907.02266   -114.69066   0.82069317   -113.86997   -14727.394    4.3299501    4.3299501    4.3299501   -14727.394   -14068.904    15785.219   -45898.497   -12261.181    13596.771   -24414.552    81.179928 
   35600    1117.1844    -114.8791    1.0108519   -113.86825   -11224.319    4.3163837    4.3163837    4.3163837   -11224.319   -30280.418   -16669.095    13276.556    13969.007   -3912.7231    1886.0941    80.419273 
   35700    1110.9941   -114.86861    1.0052508   -113.86336    12035.478    4.3029336    4.3029336    4.3029336    12035.478     4785.729     16254.14    15066.564    7855.4614   -8782.4272    2899.9539    79.669837 
   35800    780.57384    -114.5813   0.70627961   -113.87502   -18454.247    4.3228536    4.3228536    4.3228536   -18454.247    -9719.859    -1484.613   -44158.269   -3268.3014    13754.699   -28033.812    80.781437 
   35900    989.53132   -114.76581   0.89534873   -113.87046   -14076.387    4.3220885    4.3220885    4.3220885   -14076.387   -30453.068   -13445.582    1669.4889    4478.2688     7864.314   -944.67427    80.738555 
   36000    1083.9653   -114.84233   0.98079457   -113.86154    7822.0659    4.3119875    4.3119875    4.3119875    7822.0659     -21759.6    19251.682    25974.116    22876.839   -3716.9233    4453.6784    80.173801 
   36100    877.28042   -114.66329   0.79378176   -113.86951   -10643.739    4.3140702    4.3140702    4.3140702   -10643.739   -1804.2197   -1568.7607   -28558.237    288.58184    2043.6301   -36192.999    80.290033 
   36200    1131.0045   -114.89271    1.0233566   -113.86936    3727.7074    4.3093484    4.3093484    4.3093484    3727.7074    3329.1536    4229.3377     3624.631    4447.0995    10399.238   -11899.713    80.026682 
   36300    1063.5455   -114.83288   0.96231831   -113.87056   -22264.985    4.3319149    4.3319149    4.3319149   -22264.985   -45166.414   -17143.748   -4484.7922    20634.044   -7743.5909    3959.4912    81.290489 
   36400    762.45508   -114.57077   0.68988538   -113.88089    -19248.56     4.315121     4.315121     4.315121    -19248.56   -13975.344   -20515.308   -23255.028    3048.2567   -13623.889   -27291.742    80.348716 
   36500    1188.5737   -114.93677    1.0754464   -113.86133     40041.59    4.2872845    4.2872845    4.2872845     40041.59    53205.334    53248.276    13671.161   -7647.9609    9391.9807   -30671.676    78.803756 
   36600    1173.8231     -114.932    1.0620998    -113.8699    -9829.319     4.332276     4.332276     4.332276    -9829.319   -33378.096    2646.4814    1243.6573    16537.628      1952.51    14603.732    81.310824 
   36700    611.79042    -114.4318   0.55356083   -113.87824   -18533.747    4.3246355    4.3246355    4.3246355   -18533.747   -35527.601   -6451.3006   -13622.339    8745.9716    -6746.349   -11643.797    80.881378 
   36800    1094.6409   -114.84617   0.99045413   -113.85572    34699.352    4.2887066    4.2887066    4.2887066    34699.352    44058.219    33643.612    26396.227   -12986.934   -7053.4173   -36834.977    78.882196 
   36900    1399.2318   -115.12837    1.2660543   -113.86232   -5809.2106     4.324468     4.324468     4.324468   -5809.2106   -18778.253    5002.2888   -3651.6673    19434.167    2064.8728    12762.185     80.87198 
   37000    818.89688   -114.60315   0.74095511    -113.8622   -17376.102    4.3332442    4.3332442    4.3332442   -17376.102   -45905.294   -5183.2591   -1039.7533    14724.572     -1266.42   -4629.2762    81.365348 
   37100    740.86643   -114.53244   0.67035152   -113.86208    11238.348    4.3058898    4.3058898    4.3058898    11238.348    687.26548    21436.006    11591.773   -15288.381   -11105.581   -27499.794    79.834152 
   37200    1177.3271   -114.92738    1.0652703   -113.86211    12435.648    4.3052446    4.3052446    4.3052446    12435.648   -3907.0812      46037.7   -4823.6753    6719.7974     7413.354    1655.6927    79.798275 
   37300    1158.6295    -114.9163    1.0483523   -113.86795   -8422.5362    4.3245272    4.3245272    4.3245272   -8422.5362   -31819.339   -6772.6776    13324.407    21043.432    5886.2035    8895.3231      80.8753 
   37400    720.06205   -114.52065   0.65152728   -113.86913   -12472.665    4.3260285    4.3260285    4.3260285   -12472.665   -24963.939   -16292.716    3838.6603   -10078.681   -11832.804   -22198.461    80.959561 
   37500    989.02395   -114.75535   0.89488965   -113.86046    1338.1819    4.3105108    4.3105108    4.3105108    1338.1819    -14102.52    39726.973   -21609.906   -4098.6054    12621.365   -5096.9547    80.091463 
   37600    1333.8396   -115.06743    1.2068861   -113.86054     4979.818    4.3064073    4.3064073    4.3064073     4979.818   -7641.4927    17781.803    4799.1442    16316.502    18424.203    22550.676    79.862943 
   37700    1164.2218   -114.92277    1.0534124   -113.86935    6462.2115    4.3131102    4.3131102    4.3131102    6462.2115    8255.5953    2166.2897    8964.7495   -6073.1967   -13121.216   -14740.427    80.236442 
   37800    551.64399   -114.37798   0.49913908   -113.87885   -13485.678    4.3271312    4.3271312    4.3271312   -13485.678   -33085.203    29709.057    -37080.89   -14076.396    12377.892   -13327.699    81.021484 
   37900     1221.691   -114.97285    1.1054117   -113.86744   -6047.2251    4.3152419    4.3152419    4.3152419   -6047.2251    -20335.26    7705.9236    -5512.339    5344.4928    30103.776    19193.161    80.355467 
   38000    1429.3142   -115.15093    1.2932736   -113.85765    26297.241    4.3000711    4.3000711    4.3000711    26297.241    21000.341    26442.958    31448.422    675.21474    -12286.81   -6993.8971    79.510946 
   38100    643.29747    -114.4587   0.58206907   -113.87663   -22320.837    4.3237662    4.3237662    4.3237662   -22320.837   -35372.914   -10770.606   -20818.989   -12354.894    7591.9574   -26883.729    80.832613 
   38200    779.95951   -114.58405   0.70572376   -113.87832   -13852.642    4.3183338    4.3183338    4.3183338   -13852.642   -41705.804    8888.6833   -8740.8036   -7616.5197    27699.901   -1258.7313    80.528316 
   38300    1462.4268   -115.18431    1.3232345   -113.86107    19308.795    4.3059942    4.3059942    4.3059942    19308.795   -1732.4693    24283.738    35375.116    8557.8914   -6595.2192    157.28063     79.83996 
   38400    801.10405   -114.59676   0.72485578    -113.8719   -3232.3141    4.3209978    4.3209978    4.3209978   -3232.3141   -22740.683    29414.203   -16370.462    3704.2426     4939.907   -19334.273    80.677446 
   38500     536.7439   -114.35965   0.48565716     -113.874    11777.217    4.3181414    4.3181414    4.3181414    11777.217   -32085.645    77566.562   -10149.267   -16274.424    26646.541    -14630.53    80.517552 
   38600     1258.275   -114.99654    1.1385137   -113.85803    15936.599    4.3192203    4.3192203    4.3192203    15936.599   -18198.701    51465.753    14542.745    3615.6871   -3569.5206    1209.6958    80.577922 
   38700    766.46998   -114.56044   0.69351815   -113.86692   -2125.7185    4.3188316    4.3188316    4.3188316   -2125.7185   -24652.714    12303.716    5971.8428    15889.553    5589.2413    -7846.842    80.556169 
   38800    762.46063   -114.55569    0.6898904    -113.8658   -1403.9145     4.311222     4.311222     4.311222   -1403.9145    -3393.943    21977.688   -22795.489    -10191.52    30639.701   -27471.256     80.13111 
   38900    1350.0403   -115.08112    1.2215448   -113.85958   -40.409089    4.3190392    4.3190392    4.3190392   -40.409089    4398.3792   -3639.1493   -880.45709    3540.6109   -5508.0119    5033.1392    80.567786 
   39000    973.07359   -114.74934   0.88045743   -113.86889   -14219.854    4.3173463    4.3173463    4.3173463   -14219.854   -9022.9999   -31334.783   -2301.7799    28878.516    775.70751    13407.864    80.473088 
   39100    591.98148   -114.40878   0.53563729   -113.87314    6124.4369    4.3043714    4.3043714    4.3043714    6124.4369    14126.647     27406.71   -23160.046    8594.3449    33036.144   -16497.435    79.749729 
   39200    1359.1658   -115.09772    1.2298018   -113.86791   -5143.9081    4.3203823    4.3203823    4.3203823   -5143.9081   -1260.1216    8345.1551   -22516.758   -3168.9652    2742.5947   -8863.1016    80.642972 
   39300    1062.2703   -114.82809   0.96116449   -113.86693    1643.4216      4.31728      4.31728      4.31728    1643.4216   -5257.9138    1703.8227    8484.3558    14831.629   -4516.1381    13852.947     80.46938 
   39400    768.23186   -114.56388   0.69511233   -113.86877   -834.84044    4.3088314    4.3088314    4.3088314   -834.84044   -8631.0031    28784.976   -22658.494    15665.324    21462.285   -761.74605    79.997884 
   39500    1241.6502   -114.98935    1.1234712   -113.86588   -8407.9716    4.3158192    4.3158192    4.3158192   -8407.9716   -3401.6124    -3501.163    -18321.14   -9127.3823    15439.241   -10961.634    80.387722 
   39600    1006.1101   -114.77908    0.9103496   -113.86873    3425.4081    4.3087969    4.3087969    4.3087969    3425.4081   -5299.6094    3507.5885    12068.245   -18995.931    -13774.95   -990.35924    79.995965 
   39700    785.72937   -114.58732   0.71094445   -113.87638   -17516.952    4.3213073    4.3213073    4.3213073   -17516.952   -13966.555   -26482.848   -12101.455    25525.243    4080.5994    6342.0395    80.694781 
   39800    1318.2707   -115.05588     1.192799   -113.86308   -11968.055     4.317361     4.317361     4.317361   -11968.055    10172.184   -25699.326   -20377.022    5883.0089    18449.128    1452.8137    80.473906 
   39900    899.35574   -114.67794   0.81375597   -113.86419    11588.845    4.2997045    4.2997045    4.2997045    11588.845    14918.731   -3401.3123    23249.115   -40619.404    -21485.13   -8235.1283    79.490608 
   40000    694.94019   -114.50622   0.62879649   -113.87742   -21522.234    4.3191478    4.3191478    4.3191478   -21522.234   -33510.336    -31905.49    849.12217    11359.646   -10926.893    8798.8528    80.573867 
   40100    1326.8882   -115.06424    1.2005963   -113.86364   -1183.3105    4.3168748    4.3168748    4.3168748   -1183.3105    14264.218   -24694.728    6880.5787    25614.836    7374.6918    7264.0276    80.446723 
   40200    1135.1189   -114.89105    1.0270795   -113.86397   -2422.9374    4.3094856    4.3094856    4.3094856   -2422.9374   -13284.646   -3630.9734    9646.8074   -33580.786   -12896.759    1002.0084    80.034326 
   40300    657.28066   -114.46904   0.59472136   -113.87431   -16119.549    4.3159743    4.3159743    4.3159743   -16119.549   -46995.504   -14308.438    12945.294   -13550.895   -12988.748   -4528.3217    80.396389 
   40400     1340.654   -115.07734    1.2130519   -113.86429    13776.275    4.3064685    4.3064685    4.3064685    13776.275    22434.315   -5644.8552    24539.364      25985.1   -7488.7448   -1417.9586    79.866346 
   40500    1000.0015   -114.77394   0.90482238   -113.86912     2571.684    4.3197723    4.3197723    4.3197723     2571.684   -13644.182    17478.827    3880.4065   -16772.801    10772.421    13302.602    80.608819 
   40600     634.9835   -114.44874   0.57454642    -113.8742   -13551.527    4.3175169    4.3175169    4.3175169   -13551.527   -28080.983   -5607.9829    -6965.614   -31837.229    -13260.71   -6767.0705    80.482627 
   40700    1237.0593   -114.98299    1.1193172   -113.86367    26492.702    4.3000218    4.3000218    4.3000218    26492.702    30289.945     17929.05     31259.11    12453.191   -18781.717   -1473.7974    79.508209 
   40800     1288.154   -115.03497    1.1655488   -113.86942    885.67655    4.3157777    4.3157777    4.3157777    885.67655   -11760.034    3788.5215    10628.542   -525.46073    24456.274    10566.935    80.385406 
   40900    395.81748   -114.23704   0.35814398   -113.87889    37.048265    4.3199346    4.3199346    4.3199346    37.048265   -9382.9038   -2975.2557    12469.304   -34097.944    -1324.794   -634.97036    80.617906 
   41000    1094.9004   -114.85693    0.9906889   -113.86624    1183.2757    4.3193033    4.3193033    4.3193033    1183.2757   -22741.351    1683.9879     24607.19   -4735.4049   -24745.397    1020.2342     80.58257 
   41100    1331.3291   -115.06544    1.2046146   -113.86083     4434.308    4.3112513    4.3112513    4.3112513     4434.308    2058.5381   -2390.8053    13635.191    4728.0828    5815.7088   -5898.9428    80.132745 
   41200    653.23512   -114.46399   0.59106086   -113.87293    11828.552    4.3031264    4.3031264    4.3031264    11828.552     744.2484    5513.3645    29228.044    -30537.81     15447.35    8719.7357    79.680546 
   41300    963.88015     -114.746   0.87213901   -113.87386    -21370.39    4.3252529    4.3252529    4.3252529    -21370.39   -50484.349    -8908.778   -4718.0439   -17430.189   -26861.809   -558.59204     80.91602 
   41400    1142.4285   -114.89916    1.0336933   -113.86547    8531.2418    4.3146865    4.3146865    4.3146865    8531.2418    11695.877    -4020.965    17918.813    19880.951   -12544.288    -9337.998    80.324444 
   41500    962.83709   -114.73679   0.87119524    -113.8656    4791.9277    4.3051874    4.3051874    4.3051874    4791.9277    10455.571   -8784.5265    12704.738   -9918.9076    8366.0895    11271.474    79.795091 
   41600    1150.1862   -114.90379    1.0407126   -113.86307   -10806.476    4.3194339    4.3194339    4.3194339   -10806.476   -33916.986   -3028.4628     4526.022   -26068.795    5189.0801     1725.984    80.589877 
   41700    1016.6102   -114.78431   0.91985024   -113.86446    5015.8379    4.3129322    4.3129322    4.3129322    5015.8379    14302.732   -4556.2949    5301.0765     19510.91   -8249.6927   -4618.9105    80.226509 
   41800    856.90665    -114.6433   0.77534714   -113.86796   -8601.8628    4.3211269    4.3211269    4.3211269   -8601.8628   -938.48729   -21022.671   -3844.4298    17934.764   -7224.2751   -8824.0003    80.684676 
   41900    1397.5551   -115.12232    1.2645372   -113.85778   -5244.4109    4.3187251    4.3187251    4.3187251   -5244.4109   -25117.207    3013.5586    6370.4155   -18968.247    21924.069    5330.7597    80.550213 
   42000    1015.2265   -114.78087   0.91859825   -113.86228    9745.8244    4.3054232    4.3054232    4.3054232    9745.8244    3140.6827    9169.7555    16927.035    13921.988    4494.5636   -769.21379    79.808204 
   42100     711.9115    -114.5184   0.64415249   -113.87425   -13603.155     4.319884     4.319884     4.319884   -13603.155   -8289.4604   -39760.944    7240.9391    31701.967   -13805.908   -16877.635    80.615072 
   42200    1278.3964   -115.02634    1.1567199   -113.86962   -1590.7731    4.3118575    4.3118575    4.3118575   -1590.7731   -4510.9739    3961.0319   -4222.3774   -6377.1203    3812.9646    7134.6133     80.16655 
   42300    1103.9907   -114.86772   0.99891396   -113.86881    14695.304    4.3097026    4.3097026    4.3097026    14695.304    13350.489    12735.466    17999.957    3237.6208    27841.284    1510.4551    80.046421 
   42400    881.63141   -114.66981   0.79771862   -113.87209   -20528.155    4.3237369    4.3237369    4.3237369   -20528.155   -25766.468    -36365.91    547.91448    36944.283   -7325.3641   -11310.487    80.830966 
   42500    1070.8112   -114.82896   0.96889243   -113.86007    13852.272    4.3112154    4.3112154    4.3112154    13852.272      17854.8    11380.102    12321.914   -1638.0765    -3567.818   -6755.4961    80.130744 
   42600    1149.6725   -114.90158    1.0402478   -113.86133   -2336.1203    4.3135626    4.3135626    4.3135626   -2336.1203   -6648.2161    7679.7304   -8039.8753   -4142.8448    37490.072    1490.9632    80.261694 
   42700    855.70913   -114.64165   0.77426361   -113.86739   -12299.751    4.3196533    4.3196533    4.3196533   -12299.751   -34404.445   -22634.475    20139.668    33430.582    5560.3928    781.20867     80.60216 
   42800    1272.5949   -115.01244    1.1514706   -113.86096    5035.4212    4.3093692    4.3093692    4.3093692    5035.4212    14653.886   -13226.088    13678.466    5829.7792   -839.78011   -20595.629    80.027842 
   42900    1077.3421   -114.84104   0.97480174   -113.86624   -4977.5798    4.3213154    4.3213154    4.3213154   -4977.5798    2796.4214   -8539.0707     -9190.09   -11919.011    25562.089   -2096.4199    80.695233 
   43000    814.63387   -114.60289   0.73709784   -113.86579   -11182.572    4.3239885    4.3239885    4.3239885   -11182.572   -14927.664   -24247.004    5626.9516    31061.789    17470.516    4962.2567    80.845082 
   43100    1149.8308   -114.89976     1.040391   -113.85937    7104.5342    4.3121878    4.3121878    4.3121878    7104.5342    22264.085   -24504.207    23553.724    13285.409   -2939.5672   -7793.4528    80.184973 
   43200    1177.3031   -114.92514    1.0652486   -113.85989     790.9191    4.3151111    4.3151111    4.3151111     790.9191    17317.941    2385.8004   -17330.984   -14344.341    18623.564   -12542.522    80.348163 
   43300     788.5648   -114.58208      0.71351   -113.86857    1517.8613    4.3179978    4.3179978    4.3179978    1517.8613   -11120.152    16932.871   -1259.1344    29540.461    28864.155   -2128.6284    80.509523 
   43400    1053.9898   -114.81827   0.95367211    -113.8646    2093.9187    4.3202491    4.3202491    4.3202491    2093.9187   -9423.0179    6445.8763    9258.8976    33327.998    -11210.27    1952.1733    80.635516 
   43500    1087.7609   -114.84404   0.98422888   -113.85981    13890.516    4.3106522    4.3106522    4.3106522    13890.516    20258.352    30066.359   -8653.1618   -17672.514    10316.793   -13677.809    80.099342 
   43600    706.89085   -114.50939   0.63960969   -113.86978   -1002.4399    4.3112484    4.3112484    4.3112484   -1002.4399   -24659.985    26817.445   -5164.7794    15664.037    28508.164   -12335.297    80.132581 
   43700    925.69278   -114.70824   0.83758628   -113.87065   -3266.6282     4.316786     4.316786     4.316786   -3266.6282   -17640.947   -8833.3591    16674.421     47921.46   -5831.5507     5134.604    80.441757 
   43800    1325.7354   -115.06197    1.1995533   -113.86242    7123.7933    4.3130946    4.3130946    4.3130946    7123.7933    10163.588    17047.514   -5839.7218   -8457.1249    4111.6093    3274.9159    80.235572 
   43900    819.87662   -114.61466   0.74184159   -113.87282   -14780.558    4.3169606    4.3169606    4.3169606   -14780.558   -28811.715   -2529.7906   -13000.168   -2653.6324    27058.141   -13230.331    80.451519 
   44000    875.54693   -114.66482   0.79221327   -113.87261    5200.1201    4.3037125    4.3037125    4.3037125    5200.1201   -13987.171   -9044.5272    38632.059    26300.754    9911.5616   -2305.8644    79.713112 
   44100    1146.0022   -114.90523    1.0369269   -113.86831    2609.8508    4.3169229    4.3169229    4.3169229    2609.8508   -5858.9073     17152.76   -3464.3004    8328.7732   -5660.9432    15171.526    80.449415 
   44200     1041.938   -114.80482   0.94276736   -113.86206   -21142.848    4.3278845    4.3278845    4.3278845   -21142.848   -23255.198   -2493.3485   -37679.996   -9104.9845    11369.935    5835.8838    81.063804 
   44300    1025.6776   -114.78379    0.9280546   -113.85574    25342.365    4.2969516    4.2969516    4.2969516    25342.365   -6981.6737    41780.247    41228.522    15374.626    19069.115   -10582.918    79.338026 
   44400    808.87925   -114.60157   0.73189095   -113.86968   -10945.549    4.3135884    4.3135884    4.3135884   -10945.549   -18534.287   -9108.8401   -5193.5202    20273.899   -18922.598     22703.08     80.26313 
   44500    952.02422   -114.73071   0.86141152    -113.8693   -13784.691    4.3175995    4.3175995    4.3175995   -13784.691   -17238.546    9106.7116    -33222.24   -9005.3197   -16087.581    24008.012    80.487246 
   44600    1372.5377   -115.10408    1.2419009   -113.86218    18602.722    4.3012489    4.3012489    4.3012489    18602.722    2769.2158    31774.851    21264.099    9210.8703    17567.589   -9529.8616    79.576297 
   44700    800.41909   -114.59968   0.72423602   -113.87545   -22631.536    4.3215394    4.3215394    4.3215394   -22631.536   -34905.622   -21375.625    -11613.36    21639.689    -7732.552    11144.665    80.707787 
   44800    641.60595   -114.45726   0.58053855   -113.87672   -989.39867    4.3092502    4.3092502    4.3092502   -989.39867    -10205.12    20658.479   -13421.555   -3666.9371   -30968.262     31548.02    80.021211 
   44900    1367.2255   -115.10085    1.2370943   -113.86375    543.26796    4.3165709    4.3165709    4.3165709    543.26796   -14268.741    12306.988    3591.5563    3718.8186   -1625.9358   -3872.6412    80.429735 
   45000    1046.5134   -114.81144   0.94690734   -113.86453   -28824.224    4.3250003    4.3250003    4.3250003   -28824.224   -42930.123   -45294.117    1751.5688    35406.271    5875.3764   -2944.9514    80.901843 
   45100    521.87083   -114.33977   0.47219969   -113.86757    21063.949    4.2886041    4.2886041    4.2886041    21063.949      3102.57    28684.101    31405.176    4733.4176    -28988.61    25337.992    78.876543 
   45200    1056.1257   -114.83762   0.95560473   -113.88202   -5245.4324    4.3125083    4.3125083    4.3125083   -5245.4324   -16217.314    19607.396   -19126.379   -7482.4743   -26192.741    13393.057    80.202854 
   45300    1444.3122    -115.1701    1.3068441   -113.86326     -13403.4    4.3257903    4.3257903    4.3257903     -13403.4   -32905.632   -21271.312    13966.746    19802.059    16105.608   -11276.713    80.946184 
   45400    847.33069   -114.63287   0.76668262   -113.86619    11011.113      4.30001      4.30001      4.30001    11011.113    2562.6386    31068.472   -597.77283    13316.203   -23127.166    17340.933    79.507556 
   45500    644.78877   -114.45788   0.58341843   -113.87446   -16319.747    4.3150077    4.3150077    4.3150077   -16319.747   -18760.716    16170.285    -46368.81   -9366.2216   -30383.176    23301.854    80.342384 
   45600    1374.7463   -115.10577    1.2438994   -113.86187    -5405.526    4.3151055    4.3151055    4.3151055    -5405.526   -13681.713   -6905.0658    4370.2006    10901.046     16174.82   -6327.6491    80.347847 
   45700    1136.4295   -114.89487    1.0282653   -113.86661    6283.1374     4.307706     4.307706     4.307706    6283.1374    1480.9515    12486.614    4881.8468    19997.308   -6032.2653    4213.0418    79.935216 
   45800    534.46709   -114.36387   0.48359705   -113.88027   -17573.763    4.3131263    4.3131263    4.3131263   -17573.763   -17954.207    -10.26466   -34756.816   -4511.2145   -48201.553    21216.213    80.237339 
   45900    1037.1679   -114.81612   0.93845132   -113.87766    12058.278    4.3047246    4.3047246    4.3047246    12058.278     11014.15    2857.2271    22303.458   -6272.1662   -6508.7453    7551.5953     79.76936 
   46000    1582.8862   -115.30375    1.4322287   -113.87152    -2821.038    4.3166522    4.3166522    4.3166522    -2821.038    2899.3488   -7225.3192   -4137.1437    2922.0168    10260.822   -8079.4883    80.434279 
   46100    405.19013   -114.25235   0.36662454   -113.88573   -7713.3725     4.316976     4.316976     4.316976   -7713.3725    584.21888   -900.30097   -22824.036    6382.6383    -46595.12    10676.652    80.452382 
   46200    719.40728   -114.52965   0.65093482   -113.87871    7352.4266    4.3048014    4.3048014    4.3048014    7352.4266     21691.19    23355.434   -22989.343   -7101.4719   -27717.594    17522.829    79.773631 
   46300    1540.2085   -115.25767     1.393613   -113.86406    5406.3237    4.3162792    4.3162792    4.3162792    5406.3237     5310.951   -236.86846    11144.888   -7483.5003    16992.547   -7582.9536    80.413432 
   46400    985.20053   -114.76679   0.89143014   -113.87536    2543.0797    4.3112218    4.3112218    4.3112218    2543.0797     -1731.77    25425.002   -16063.993    5901.0627   -30329.201    4025.4854    80.131097 
   46500     515.7792   -114.34815   0.46668786   -113.88146    3490.4918    4.3057556    4.3057556    4.3057556    3490.4918     6147.824    45035.862   -40712.211     738.2537   -40106.746    23202.574    79.826689 
   46600    1117.5392   -114.88606     1.011173   -113.87489    -9071.885    4.3136337    4.3136337    4.3136337    -9071.885   -12403.376   -17688.211    2875.9323   -21678.807    10322.207    6578.2616    80.265661 
   46700    1218.4623   -114.97304    1.1024903   -113.87055   -1016.0105    4.3107017    4.3107017    4.3107017   -1016.0105   -14707.331    15471.882    -3812.582     -9697.67     3854.201   -4778.2063    80.102102 
   46800    838.86441   -114.63212   0.75902215    -113.8731   -13078.744     4.315407     4.315407     4.315407   -13078.744   -16061.291    18015.368   -41190.309    6173.2367   -41183.008    23097.803     80.36469 
   46900    954.61705    -114.7329   0.86375757   -113.86914   -12145.378    4.3121765    4.3121765    4.3121765   -12145.378   -13584.129   -24568.535    1716.5306   -20054.715   -9360.9344    17618.828    80.184346 
   47000    1220.0492   -114.96921    1.1039261   -113.86528    2879.3334    4.3069317    4.3069317    4.3069317    2879.3334   -8645.0263   -5558.2595    22841.286   -23303.183    19518.971    -11611.61    79.892124 
   47100    977.15427   -114.75513   0.88414972   -113.87098   -9888.5904    4.3151713    4.3151713    4.3151713   -9888.5904   -17826.628     11214.69   -23053.833    6119.6862   -20250.258     10894.83    80.351523 
   47200    851.34419   -114.64317   0.77031412   -113.87286   -2054.3257    4.3112213    4.3112213    4.3112213   -2054.3257   -4690.1235   -16055.098    14582.244   -7560.2196   -20335.262    25983.121    80.131071 
   47300    1132.8612   -114.89496    1.0250366   -113.86992    -95.23844    4.3086034    4.3086034    4.3086034    -95.23844    5407.7667    -30349.63    24656.148   -32764.524    8479.6555   -3621.3979    79.985186 
   47400    1156.1882   -114.91568    1.0461434   -113.86953   -1435.8026    4.3122218    4.3122218    4.3122218   -1435.8026   -11906.401    4024.0278    3574.9656   -2532.5793    6567.1102   -5065.5124    80.186875 
   47500    1095.3868   -114.86025   0.99112901   -113.86912    688.64372    4.3121531    4.3121531    4.3121531    688.64372    188.48599    3198.6202   -1321.1751     5096.894   -8110.7486    20019.785     80.18304 
   47600    956.80946   -114.73641   0.86574131   -113.87067   -10920.201    4.3120809    4.3120809    4.3120809   -10920.201    -6050.212   -42012.249    15301.857   -40742.091   -6568.5473    3963.8005     80.17901 
   47700    912.88594   -114.69824   0.82599838   -113.87224   -2071.2985    4.3078844    4.3078844    4.3078844   -2071.2985   -7401.9031   -10444.905    11632.912   -8737.0269     15082.66   -16000.581    79.945148 
   47800    1207.9285    -114.9603    1.0929591   -113.86734   -914.58861    4.3151556    4.3151556    4.3151556   -914.58861   -14931.104   -475.95448    12663.293    14319.769   -2880.1496   -668.52165     80.35065 
   47900    1019.9588    -114.7922   0.92288014   -113.86932   -1798.3356    4.3151681    4.3151681    4.3151681   -1798.3356    -11533.33   -19025.626    25163.949   -37648.501   -8120.6494    9506.5119    80.351343 
   48000    918.60333       -114.7   0.83117159   -113.86883    8873.9648    4.3058551    4.3058551    4.3058551    8873.9648   -1533.9458   -5783.6037    33939.444   -23302.272    3529.8174   -17921.243    79.832227 
   48100    1105.8856   -114.86762    1.0006285   -113.86699     10595.77    4.3112913    4.3112913    4.3112913     10595.77    2188.3992    4252.9472    25345.965    21449.882    10712.508   -13204.856    80.134977 
   48200    840.43393    -114.6307   0.76044228   -113.87026   -1032.3865    4.3161512    4.3161512    4.3161512   -1032.3865   -28727.423    1811.5154    23818.749   -28033.292    2929.6554    5786.7191    80.406277 
   48300    794.23903    -114.5914   0.71864416   -113.87276    8957.2962    4.3110115    4.3110115    4.3110115    8957.2962   -16599.052    10234.324    33236.617    -44209.19   -10961.542   -2973.4577    80.119375 
   48400    1489.1942   -115.20986    1.3474542    -113.8624    15795.828    4.3083702    4.3083702    4.3083702    15795.828    10968.806    20742.841    15675.838    15332.419     4903.774   -9017.1839    79.972201 
   48500     939.5337   -114.72254   0.85010984   -113.87243   -3297.3191    4.3157708    4.3157708    4.3157708   -3297.3191    -31124.54    10037.618    11194.965   -32509.498    4246.5181   -2193.2416    80.385017 
   48600     556.2298   -114.38088   0.50328841   -113.87759    -7344.746    4.3147476    4.3147476    4.3147476    -7344.746   -52319.324    13553.201    16731.885    -47601.29   -8630.1278    4914.8473    80.327856 
   48700    1131.2111   -114.89248    1.0235436   -113.86894    11101.048    4.3059705    4.3059705    4.3059705    11101.048   -2131.4493    32733.675    2700.9195    24966.024   -9774.5671   -11679.043    79.838642 
   48800    1128.9865   -114.89061    1.0215307   -113.86908    -769.6787    4.3100233    4.3100233    4.3100233    -769.6787   -6870.8635   -2284.2391    6846.0666   -13239.659    983.30463   -13665.148    80.064287 
   48900    1043.0251   -114.81313   0.94375104   -113.86938   -7367.4972    4.3168091    4.3168091    4.3168091   -7367.4972    -35142.59    934.12577    12105.973   -42624.291   -1024.6677    6706.1664    80.443051 
   49000    804.71016   -114.59661   0.72811866   -113.86849   -3004.0271    4.3117185    4.3117185    4.3117185   -3004.0271   -26458.483    23810.226   -6363.8237      22151.3   -18701.706   -7076.9133    80.158797 
   49100    833.99225   -114.62466   0.75461371   -113.87005   -5522.4051    4.3091267    4.3091267    4.3091267   -5522.4051   -10921.954    -17045.34    11400.079    19925.484   -2010.2887   -16234.556    80.014335 
   49200     1412.258   -115.14223    1.2778407   -113.86439    4683.1646    4.3147322    4.3147322    4.3147322    4683.1646   -14000.693   -7231.9498    35282.136   -24331.334   -1718.3275   -182.77523       80.327 
   49300    949.77211   -114.73417   0.85937377    -113.8748   -5169.7058    4.3130903    4.3130903    4.3130903   -5169.7058   -34532.669    4690.5228    14333.029    9913.2414   -11453.487    2622.5554    80.235334 
   49400    214.77211   -114.08341   0.19433032   -113.88908   -10817.992    4.3073294    4.3073294    4.3073294   -10817.992   -33502.113   -28329.259    29377.395    43313.093   -6512.4224   -10781.258    79.914257 
   49500    1334.1198   -115.08886    1.2071396   -113.88172    4574.5435    4.3078813    4.3078813    4.3078813    4574.5435    2545.9091   -5515.1282     16692.85    897.60232    5403.3939   -17587.705    79.944979 
   49600    1328.8544   -115.07828    1.2023754    -113.8759    813.42645    4.3200694    4.3200694    4.3200694    813.42645   -23333.436    -2869.837    28643.552   -6198.2497   -7231.5849    13432.105    80.625451 
   49700    474.80548   -114.30199   0.42961397   -113.87237   -28088.953    4.3267291    4.3267291    4.3267291   -28088.953   -50222.929   -34455.988    412.05936    38906.756   -7208.5994   -4509.0864      80.9989 
   49800    1236.0564   -114.97345    1.1184098   -113.85504    7025.6462    4.3041225    4.3041225    4.3041225    7025.6462    94.273851    2623.2923    18359.372   -6649.3477    1145.5217   -13214.568    79.735897 
   49900    1300.2092   -115.03417    1.1764566   -113.85771     7040.975    4.3058403    4.3058403    4.3058403     7040.975    606.69094   -4016.8975    24533.131   -30275.523    2713.8364    8188.9243    79.831404 
   50000    1048.6456   -114.81643   0.94883659    -113.8676   -9687.7458    4.3172397    4.3172397    4.3172397   -9687.7458    -17372.91   -12549.318    858.99128    31084.318   -3414.2349    3404.4045    80.467125 
   50100    963.11754   -114.73881   0.87144899   -113.86736    5343.2467    4.3122644    4.3122644    4.3122644    5343.2467   -8703.5273    8842.8399    15890.428     9396.195   -7569.3251   -3522.2242    80.189247 
   50200    974.19178   -114.75026    0.8814692   -113.86879   -4907.6711    4.3132078    4.3132078    4.3132078   -4907.6711   -27301.271   -18892.348    31470.606   -59461.647    2607.7419   -4966.3995    80.241891 
   50300    1402.5599   -115.12935    1.2690657   -113.86029    8528.0614    4.3107273    4.3107273    4.3107273    8528.0614     4882.205    2489.8952    18212.084    7302.1622    1985.4419    2989.3723    80.103528 
   50400    1067.3371   -114.83131   0.96574907   -113.86556   -2146.2812    4.3172104    4.3172104    4.3172104   -2146.2812   -22517.909   -4321.8488    20400.915    11700.112   -7237.6212    6022.4524    80.465485 
   50500    493.86415   -114.31878   0.44685866   -113.87192   -15741.022    4.3173831    4.3173831    4.3173831   -15741.022   -43202.107    -38421.26      34400.3   -57258.466   -4825.3941   -5636.0089    80.475143 
   50600    1410.6129   -115.13966    1.2763522   -113.86331    15148.603    4.3012231    4.3012231    4.3012231    15148.603    9671.5939    21473.734    14300.481   -5127.0912    11170.399   -2338.9837    79.574865 
   50700    1429.5806   -115.16217    1.2935146   -113.86865   -382.13919    4.3132774    4.3132774    4.3132774   -382.13919   -11286.697    5687.2515    4453.0275   -1238.8211    2108.9321   -105.70864    80.245771 
   50800     757.3919   -114.56648    0.6853041   -113.88117   -15041.408    4.3142833    4.3142833    4.3142833   -15041.408   -43588.969   -28903.131    27367.877   -49779.729   -8568.9133    3301.3116    80.301927 
   50900    873.30721   -114.66598   0.79018672   -113.87579    9563.3048    4.3037098    4.3037098    4.3037098    9563.3048   -8478.5284    36902.292    266.15072   -4024.7534    6744.4099   -6732.8156    79.712961 
   51000    1173.0575   -114.93033    1.0614071   -113.86892   -12833.552    4.3199084    4.3199084    4.3199084   -12833.552    -16970.22    190.47089   -21720.908     5864.605    18784.351   -13594.283    80.616438 
   51100    1069.6382   -114.83404   0.96783114   -113.86621   -4724.9057    4.3135207    4.3135207    4.3135207   -4724.9057   -33463.611   -5932.3715    25221.265   -42715.336    576.46389    8366.9476    80.259353 
   51200    950.69484   -114.72428   0.86020867   -113.86407    7469.7396     4.305303     4.305303     4.305303    7469.7396   -13301.223    22709.709    13000.732   -10373.259   -12569.279    1244.4911    79.801518 
   51300    798.09584    -114.5928   0.72213389   -113.87067   -16273.222     4.316137     4.316137     4.316137   -16273.222   -20695.019   -12231.538   -15893.108    20601.816     21041.35   -9284.2801    80.405484 
   51400    1043.1895   -114.81372   0.94389974   -113.86982    9447.0079    4.3074736    4.3074736    4.3074736    9447.0079   -15315.226    1251.6604    42404.589   -9301.1332    9650.7851   -2714.0208    79.922283 
   51500    1130.6731   -114.89189    1.0230568   -113.86884   -779.02429    4.3122688    4.3122688    4.3122688   -779.02429   -18821.299   -3500.3138     19984.54   -15415.144   -18079.198    10420.389    80.189494 
   51600     489.7171   -114.31691   0.44310632   -113.87381   -19453.025    4.3196643    4.3196643    4.3196643   -19453.025   -32464.076   -20253.061   -5641.9379    12410.655   -7155.4379    928.68654    80.602773 
   51700    1212.6211   -114.96153    1.0972051   -113.86433    1742.3549    4.3047678    4.3047678    4.3047678    1742.3549    -19201.37    1789.5271    22638.908    14210.271    17691.675    -18400.48    79.771761 
   51800    1363.2987   -115.09762    1.2335413   -113.86408   -6812.4749    4.3132699    4.3132699    4.3132699   -6812.4749   -12630.942    2422.3364   -10228.819   -2901.2197   -18343.601    17682.648    80.245357 
   51900     766.3984   -114.57139   0.69345337   -113.87794   -17401.344    4.3116632    4.3116632    4.3116632   -17401.344    -21435.45    2716.4754   -33485.059    1781.7008   -23104.632    15026.804    80.155712 
   52000    841.77767   -114.64009   0.76165813   -113.87843    11744.082    4.3036408    4.3036408    4.3036408    11744.082     -24883.9     26928.74    33187.406    21659.859    15913.608   -11576.711    79.709128 
   52100     1328.521   -115.06619    1.2020738   -113.86411   -10316.234    4.3245725    4.3245725    4.3245725   -10316.234   -37949.889   -10241.215    17242.401    804.46696   -1754.0524    8118.5427    80.877838 
   52200    839.49945   -114.62548   0.75959674   -113.86588    -4051.291    4.3143386    4.3143386    4.3143386    -4051.291   -21160.161    6625.4764    2380.8113   -7418.8953    -17739.39    13351.947    80.305015 
   52300     851.1382   -114.63507   0.77012773   -113.86495    6389.7858    4.3016721    4.3016721    4.3016721    6389.7858   -15352.966    22471.292    12051.031    22408.486    2878.8194   -7516.8334    79.599785 
   52400    1179.3892   -114.93323    1.0671361    -113.8661   -2190.0265    4.3088251    4.3088251    4.3088251   -2190.0265   -35749.975   -5457.8562    34637.752    113.74796    11974.671   -4770.3892    79.997535 
   52500    876.88664   -114.66721   0.79342546   -113.87379   -4707.9411    4.3127396    4.3127396    4.3127396   -4707.9411   -23201.186    4817.0312     4260.331   -28358.142   -12946.763    14950.636    80.215759 
   52600    967.55134   -114.74846   0.87546079     -113.873   -13929.672    4.3182214    4.3182214    4.3182214   -13929.672   -20015.597     24298.25   -46071.669    10082.636    -345.3543     1760.335    80.522032 
   52700    1250.6879   -114.99714    1.1316487    -113.8655    3465.5711    4.3042237    4.3042237    4.3042237    3465.5711   -13195.917    7765.8401     15826.79   -3815.4937      10862.6     -14586.3     79.74152 
   52800    935.73713    -114.7177   0.84667462   -113.87102    5962.0467    4.3025962    4.3025962    4.3025962    5962.0467   -22471.728    21461.011    18896.857   -39853.204   -6673.7398    10859.483    79.651099 
   52900    782.21144   -114.58186   0.70776135    -113.8741   -25310.005    4.3228361    4.3228361    4.3228361   -25310.005   -22956.083    2184.5687   -55158.502    2405.5626   -8970.2585    8446.9027     80.78046 
   53000    1193.7288   -114.94864    1.0801109   -113.86853   -4759.2188     4.307008     4.307008     4.307008   -4759.2188    3892.7044    925.33539   -19095.696     44.09699     2909.767   -21141.193    79.896366 
   53100    1358.9043   -115.09393    1.2295652   -113.86437    17331.328    4.2988601    4.2988601    4.2988601    17331.328   -7672.0837    18099.336    41566.732   -27402.589   -1159.0366    1620.5046    79.443789 
   53200    756.63175   -114.56206   0.68461631   -113.87744   -19971.605     4.316666     4.316666     4.316666   -19971.605   -20567.187   -5679.1211   -33668.507    -827.6443   -14292.072    16825.132    80.435052 
   53300    645.88945   -114.46464   0.58441435   -113.88022   -727.81628    4.3131185    4.3131185    4.3131185   -727.81628     1851.963    -6826.279    2790.8672    5942.9866   -1392.7966   -8610.7587    80.236906 
   53400    1627.9754   -115.33599    1.4730264   -113.86296    8896.2735    4.3118518    4.3118518    4.3118518    8896.2735   -5098.7192    13989.212    17798.328    3233.8013   -625.76684   -8723.5657    80.166232 
   53500    1097.5675   -114.86685   0.99310214   -113.87375    3099.3293    4.3070703    4.3070703    4.3070703    3099.3293   -12407.532    21754.905   -49.385464   -3429.4155   -9276.3849    14809.683    79.899833 
   53600    540.23749   -114.37159   0.48881823   -113.88277    1352.2121    4.3056545    4.3056545    4.3056545    1352.2121    6010.4445    5180.1958   -7134.0041    3378.7634    -8005.237    11198.305    79.821065 
   53700    1307.3985   -115.05506    1.1829617    -113.8721     -9910.79    4.3176881    4.3176881    4.3176881     -9910.79   -23131.773   -12691.862    6091.2644    23857.312    1714.7126   -9785.0802    80.492202 
   53800    1168.3219   -114.92576    1.0571222   -113.86864    1300.3599    4.3108696    4.3108696    4.3108696    1300.3599   -24411.169    6734.1502    21578.099    -5668.254    -6618.831    3561.9137    80.111464 
   53900    667.58999   -114.47944   0.60404946   -113.87539   -7925.8351    4.3058038    4.3058038    4.3058038   -7925.8351   -17136.396    17465.551    -24106.66   -5664.3249   -11257.469    23672.083    79.829371 
   54000    1321.8283   -115.06185    1.1960181   -113.86583   -3271.5122    4.3146659    4.3146659    4.3146659   -3271.5122   -15287.353    2871.5914    2601.2249    11486.335    2637.8524   -1089.4857    80.323293 
   54100    1291.3793   -115.03357    1.1684671    -113.8651   -7680.5209    4.3151247    4.3151247    4.3151247   -7680.5209   -38126.022   -10247.667    25332.126   -17153.472    972.13118   -3659.2973    80.348923 
   54200    229.56242   -114.09192   0.20771291   -113.88421   -7658.7782    4.3055373    4.3055373    4.3055373   -7658.7782   -25568.842    18034.552   -15442.045   -10333.392   -10550.068    17004.702     79.81455 
   54300    1032.5452   -114.82018   0.93426856   -113.88591    3857.5867    4.3057666    4.3057666    4.3057666    3857.5867   -12504.848     24079.75   -2.1426335    2160.6183   -5494.5763    8489.8656      79.8273 
   54400    1680.0869   -115.39174    1.5201779   -113.87156    4643.8742    4.3145669    4.3145669    4.3145669    4643.8742   -17047.927    1983.2323    28996.318    549.65401    5782.2517   -7905.5035    80.317767 
   54500    586.23455   -114.41364   0.53043734    -113.8832    -9263.556    4.3171778    4.3171778    4.3171778    -9263.556    -22871.87    25794.052    -30712.85   -7749.1218   -7894.4244    1942.4756    80.463664 
   54600    846.26179   -114.63595   0.76571545   -113.87023   -2541.5843    4.3097147    4.3097147    4.3097147   -2541.5843   -25811.617    23188.513   -5001.6487   -1681.5089   -6950.9045    10216.699    80.047093 
   54700    1322.2011    -115.0579    1.1963554   -113.86155    12018.922    4.3038856    4.3038856    4.3038856    12018.922    -11179.81    12986.843    34249.732    30270.176    2754.6881    -8351.772    79.722729 
   54800    1029.6692   -114.80189   0.93166637   -113.87022   -767.37956    4.3087474    4.3087474    4.3087474   -767.37956   -666.52974     14663.64   -16299.249    3434.8274   -3529.5658   -14683.722    79.993205 
   54900     847.5514   -114.63911   0.76688232   -113.87223   -6028.0812    4.3150467    4.3150467    4.3150467   -6028.0812   -18930.828    8989.9086   -8143.3244   -5864.2529   -13411.067     11940.11    80.344566 
   55000     1115.641   -114.87659    1.0094554   -113.86713   -5976.2739    4.3117134    4.3117134    4.3117134   -5976.2739   -40048.543    -7901.752    30021.473     37311.14   -1525.0999    5906.2323    80.158511 
   55100    1037.1779   -114.80388   0.93846039   -113.86542    1496.3012    4.3067391    4.3067391    4.3067391    1496.3012    3983.8046   -9654.5029    10159.602    7222.7092    4044.5554   -25838.812    79.881405 
   55200    809.97148   -114.60254   0.73287922   -113.86966   -14171.764    4.3120359    4.3120359    4.3120359   -14171.764    327.00401   -10804.971   -32037.325    -8773.058   -16984.573    10687.746    80.176502 
   55300    1027.6571   -114.79805   0.92984577    -113.8682   -13630.238    4.3125331    4.3125331    4.3125331   -13630.238   -26978.602   -6654.9468   -7257.1644    25207.288   -10998.514      23186.3    80.204242 
   55400    1288.4159   -115.03027    1.1657857   -113.86448   -1885.4926    4.3051264    4.3051264    4.3051264   -1885.4926   -8552.7667    2.6290241    2893.6599    8895.6881    8411.0427   -28466.396    79.791703 
   55500    657.30512   -114.47114   0.59474348    -113.8764   -11063.069    4.3083568    4.3083568    4.3083568   -11063.069    9811.8781   -3886.8321   -39114.252    -4620.402   -5907.7231   -2388.7495    79.971454 
   55600    841.58335   -114.63879    0.7614823    -113.8773   -12225.881     4.313704     4.313704     4.313704   -12225.881   -915.01205    5908.4723   -41671.104   -15.787132   -17868.959    37395.104    80.269585 
   55700     1485.738   -115.20917    1.3443269   -113.86484    188.26966    4.3098309    4.3098309    4.3098309    188.26966   -8534.3697    16029.746   -6930.5675    2382.6854    10666.352   -6788.5346    80.053567 
   55800    830.62425   -114.62566   0.75156628   -113.87409   -7028.7535    4.3098035    4.3098035    4.3098035   -7028.7535   -3967.5263    22397.996    -39516.73    4585.0703    11892.707   -12760.278    80.052039 
   55900    637.79018   -114.45438   0.57708596   -113.87729   -12790.004    4.3094048    4.3094048    4.3094048   -12790.004    11690.739   -11343.279   -38717.471   -11461.567   -20154.372    33292.845    80.029824 
   56000    1189.2297   -114.94631      1.07604   -113.87027    1789.0802    4.3074144    4.3074144    4.3074144    1789.0802   -1765.3802    9547.9503   -2415.3294   -10733.528    9391.3532    9297.2644    79.918986 
   56100    1101.5927   -114.86764   0.99674421    -113.8709   -10081.479    4.3133911    4.3133911    4.3133911   -10081.479    -27178.54    20719.122   -23785.021    5390.2052    31772.656   -9875.7928    80.252122 
   56200    819.12502   -114.61375   0.74116153   -113.87259   -7410.9631    4.3088614    4.3088614    4.3088614   -7410.9631    11809.327   -11997.894   -22044.323   -4568.4944   -12502.688    24217.985    79.999556 
   56300    828.52281   -114.62055   0.74966485   -113.87089   -6162.1111    4.3098563    4.3098563    4.3098563   -6162.1111   -6592.6469   -11038.976   -854.71071   -10279.782    927.12806    16523.593    80.054984 
   56400    977.07275   -114.75294   0.88407596   -113.86886   -13463.521    4.3153232    4.3153232    4.3153232   -13463.521   -39189.459    26375.044   -27576.148    1522.5153    47890.142   -10703.243    80.360012 
   56500    1164.3844   -114.91649    1.0535595   -113.86293    5610.8154    4.3064143    4.3064143    4.3064143    5610.8154    8717.4822    8771.2514   -656.28743    1329.9052    1048.0241    13308.208    79.863334 
   56600    874.85973   -114.66119   0.79159147    -113.8696   -5202.5785    4.3096196    4.3096196    4.3096196   -5202.5785      8514.23   -8164.6503   -15957.315   -6914.0702   -14688.382    29430.106    80.041792 
   56700    753.11465   -114.55497   0.68143397   -113.87354   -8982.1102    4.3132827    4.3132827    4.3132827   -8982.1102   -37626.233    31626.316   -20946.414   -5317.3888    46114.175   -3273.4113    80.246071 
   56800    1254.5142   -115.00025    1.1351108   -113.86514    8441.7171    4.3094859    4.3094859    4.3094859    8441.7171    591.12088    15651.918    9082.1122    2982.6001    17984.806   -943.48255    80.034344 
   56900    1091.8445   -114.85697   0.98792385   -113.86905   -4046.0796    4.3105498    4.3105498    4.3105498   -4046.0796    14056.844   -11427.895   -14767.187   -738.28677   -25797.748    20790.427    80.093634 
   57000    591.06151   -114.41172   0.53480488   -113.87692   -798.30914    4.3072207    4.3072207    4.3072207   -798.30914   -28877.771    34248.458   -7765.6148    -9506.377    15359.191    17952.211    79.908206 
   57100    1162.8757   -114.92149    1.0521944    -113.8693    3184.0733    4.3126904    4.3126904    4.3126904    3184.0733    2019.0457    7932.1611   -398.98686    2119.1675    22487.489   -14348.115    80.213014 
   57200    1034.5179   -114.80426   0.93605355   -113.86821   -5119.1248    4.3131865    4.3131865    4.3131865   -5119.1248    25283.643   -25168.034   -15472.984    3144.6671   -9768.3072   -7819.3017      80.2407 
   57300    798.19291   -114.59316   0.72222172   -113.87094    8197.9524    4.3034089    4.3034089    4.3034089    8197.9524   -168.21538    15199.311    9562.7617    -7431.383   -10746.814    27679.405     79.69624 
   57400    1122.4727   -114.88417    1.0156368   -113.86854    455.24098    4.3117714    4.3117714    4.3117714    455.24098    5151.7249    3205.3524   -6991.3544   -2484.5361    17132.339   -8048.2138    80.161748 
   57500     978.6742   -114.75713   0.88552498    -113.8716   -6528.8851    4.3126027    4.3126027    4.3126027   -6528.8851    15538.607   -26484.935   -8640.3276     2626.455    5945.4412   -40435.618    80.208121 
   57600    825.02763   -114.62066   0.74650234   -113.87416    6499.4494    4.3067469    4.3067469    4.3067469    6499.4494    11878.718   -4425.5953    12045.225    3132.4851   -17391.492    14971.945    79.881837 
   57700     1141.282   -114.90335    1.0326559    -113.8707    986.56496    4.3085123    4.3085123    4.3085123    986.56496    4359.2554    3481.3712   -4880.9317   -567.14101   -11780.004    22578.747    79.980113 
   57800    937.34626   -114.71928   0.84813059   -113.87115    7877.2465    4.3075012    4.3075012    4.3075012    7877.2465    17716.202   -6943.7681    12859.306    3259.0836    6238.2636   -50739.548    79.923816 
   57900     919.1607   -114.70264   0.83167592   -113.87096   -9871.0153    4.3182803    4.3182803    4.3182803   -9871.0153    -2591.792   -23383.211   -3638.0432    10418.391   -437.78285   -12891.279    80.525325 
   58000    1006.1283   -114.77873   0.91036604   -113.86837    3031.6001    4.3078158    4.3078158    4.3078158    3031.6001   -190.56777    13910.298   -4624.9297    165.88271   -22631.717    34997.597    79.941331 
   58100    898.88859   -114.68346   0.81333328   -113.87013    9148.6819    4.2968283    4.2968283    4.2968283    9148.6819    17393.237    13864.669   -3811.8608   -933.48267   -15287.852   -30147.169    79.331196 
   58200    1119.9623   -114.88435    1.0133654   -113.87099    -17352.95    4.3182914    4.3182914    4.3182914    -17352.95   -8492.3469   -29093.411   -14473.091    7844.6968    11725.612   -35524.494    80.525948 
   58300    922.39793   -114.70483   0.83460503   -113.87022    -4296.344    4.3118696    4.3118696    4.3118696    -4296.344   -24433.821    12752.204   -1207.4151    3115.3363   -9023.0861    23698.303    80.167226 
   58400    753.27369   -114.55339   0.68157786   -113.87181   -86.498464    4.3044751    4.3044751    4.3044751   -86.498464   -12189.476    17466.426   -5536.4454   -1239.3136   -33101.109     508.9754    79.755493 
   58500    1405.0064   -115.13807    1.2712793   -113.86679   -5823.2544    4.3116333    4.3116333    4.3116333   -5823.2544   -5327.1522   -13707.259    1564.6479    794.70328     738.7539    -29072.97    80.154044 
   58600    1097.6017   -114.86638   0.99313308   -113.87325    10394.771    4.3051166    4.3051166    4.3051166    10394.771   -14247.495    15240.864    30190.944    6411.7521    6715.7139     10012.36    79.791156 
   58700    273.35764   -114.13658   0.24733973   -113.88924   -13931.931    4.3117792    4.3117792    4.3117792   -13931.931   -49515.555    34793.422   -27073.659    133.78331   -30299.284     15634.29    80.162184 
   58800    1311.2571   -115.06224     1.186453   -113.87578   -4163.4506    4.3134017    4.3134017    4.3134017   -4163.4506   -32068.361    10724.953     8853.056   -5718.0523   -12305.214   -2248.9791    80.252713 
   58900    1551.1528   -115.27203    1.4035157   -113.86851    15209.954    4.3054878    4.3054878    4.3054878    15209.954   -4635.7454    14127.841    36137.768    1653.8347    7920.5796   -3189.9972      79.8118 
   59000    512.52172   -114.35246   0.46374042   -113.88872    -7712.195    4.3068903    4.3068903    4.3068903    -7712.195   -39593.476    38848.393   -22391.501   -339.97355   -27133.005    16881.911    79.889817 
   59100    779.68993   -114.58946   0.70547984   -113.88398   -3063.3587     4.312067     4.312067     4.312067   -3063.3587   -44373.356    24884.845    10298.435   -4086.7419   -18359.613    14567.621    80.178236 
   59200    1458.3037   -115.18786    1.3195038   -113.86836    6866.6514    4.3104532    4.3104532    4.3104532    6866.6514   -6122.8809    1021.6198    25701.215    -2244.707     8708.083   -23614.296    80.088248 
   59300    760.48549   -114.56404   0.68810326   -113.87594    3320.1655    4.3059808    4.3059808    4.3059808    3320.1655   -8565.9783    13561.576    4964.8985   -1647.6301   -18914.447   -6274.9215    79.839216 
   59400    852.73052   -114.64659    0.7715685   -113.87502   -11914.501    4.3115811    4.3115811    4.3115811   -11914.501   -38832.882    27058.738    -23969.36    1145.0825   -23827.149     27038.97    80.151136 
   59500    1204.1211   -114.95716    1.0895141   -113.86764   -988.80046    4.3092692    4.3092692    4.3092692   -988.80046    2974.0317   -3709.8544   -2230.5786   -749.76495    6884.5034   -22961.821    80.022273 
   59600    863.21598   -114.65497   0.78105596   -113.87391   -6300.2985    4.3076854    4.3076854    4.3076854   -6300.2985    11531.054   -17889.169   -12542.781   -2580.9342   -4830.6599   -42354.284    79.934069 
   59700    937.67012   -114.72285   0.84842363   -113.87443   -11188.807    4.3085175    4.3085175    4.3085175   -11188.807   -25692.996    13044.807   -20918.231    3693.6194   -32364.804    24962.926    79.980402 
   59800    966.45256   -114.74632   0.87446658   -113.87185     1900.607    4.3068137    4.3068137    4.3068137     1900.607    9586.4139   -7459.3147    3574.7219     977.2712   -9726.3948    2319.3243    79.885557 
   59900    914.16957   -114.70095   0.82715984   -113.87379   -8686.2179     4.312703     4.312703     4.312703   -8686.2179    22973.588   -39035.235   -9997.0066   -3016.6945    10138.877    -61983.42    80.213718 
   60000    1156.0584    -114.9147    1.0460259   -113.86867    3922.7852    4.3057775    4.3057775    4.3057775    3922.7852   -10125.773    8733.0319    13161.096    1822.1591   -11047.352   -251.22126     79.82791 
   60100    965.81785   -114.74637   0.87389229   -113.87248   -1877.9151     4.306779     4.306779     4.306779   -1877.9151    292.14871   -8254.7169    2328.8229    2494.3781    -18941.24    15818.219    79.883622 
   60200    627.52037   -114.44568   0.56779362   -113.87789   -16844.431    4.3115504    4.3115504    4.3115504   -16844.431    36511.922   -51762.187   -35283.027    89.974248    3343.2416   -40514.147    80.149423 
   60300    1111.5355   -114.87712    1.0057407   -113.87138    199.35764     4.305264     4.305264     4.305264    199.35764   -3641.6775   -3372.8428    7612.5932   -3197.4537    18310.913    -17972.14    79.799351 
   60400    1164.4067   -114.92196    1.0535796   -113.86838   -5051.6543    4.3135569    4.3135569    4.3135569   -5051.6543   -15395.999   -4347.0433    4588.0798    1330.7316     6379.255     10628.89    80.261376 
   60500    924.30563   -114.70928   0.83633115   -113.87295   -2696.7508    4.3046932    4.3046932    4.3046932   -2696.7508    34897.552   -39975.717   -3012.0868    712.25556   -12997.957   -22652.797    79.767617 
   60600    637.62476    -114.4545   0.57693628   -113.87756     2319.728    4.3048086    4.3048086    4.3048086     2319.728    11795.118   -16872.705    12036.771   -1771.1409     21376.32    -22285.35    79.774029 
   60700     1081.622   -114.84968   0.97867428     -113.871   -7379.5598    4.3176325    4.3176325    4.3176325   -7379.5598   -34315.216    3097.1217    9079.4152    -3554.213    37599.634    10028.807     80.48909 
   60800    1316.5057   -115.05624     1.191202   -113.86504    8525.0527     4.303311     4.303311     4.303311    8525.0527    15080.021   -20913.605    31408.742   -882.62929   -11598.855   -20265.373    79.690805 
   60900    648.44936   -114.46212   0.58673061   -113.87539   -9332.6695    4.3076098    4.3076098    4.3076098   -9332.6695    23257.861   -40434.239    -10821.63    1875.6688    11008.292   -21354.056    79.929863 
   61000    899.67376   -114.68722   0.81404372   -113.87318   -12431.173    4.3120956    4.3120956    4.3120956   -12431.173    -21912.85   -6330.1198   -9050.5491   -5717.6564    37068.528    14091.745    80.179832 
   61100    1235.1348   -114.98585    1.1175759   -113.86828    7162.2255    4.3044802    4.3044802    4.3044802    7162.2255   -11030.295    373.57432    32143.397   -2174.9934   -13728.161   -7985.6506    79.755778 
   61200    808.05651   -114.60618   0.73114652   -113.87503   -15717.309    4.3118619    4.3118619    4.3118619   -15717.309    11096.912   -40073.718    -18175.12    2721.7977   -16457.984   -21795.755    80.166797 
   61300    958.09275   -114.73936   0.86690245   -113.87246   -2738.9304    4.3066438    4.3066438    4.3066438   -2738.9304     7907.909   -26966.545    10841.845   -4288.3706    20711.642    13703.054    79.876102 
   61400    1135.4134   -114.89832    1.0273459   -113.87097    4807.3306    4.3077003    4.3077003    4.3077003    4807.3306   -13111.587    863.86063    26669.718   -3008.1695   -4499.3264    7435.7208    79.934903 
   61500     864.5017   -114.65593    0.7822193   -113.87371    -9792.724    4.3111645    4.3111645    4.3111645    -9792.724   -14142.714   -11972.469   -3262.9888   -544.43047   -40525.996   -19386.125    80.127903 
   61600    899.05824   -114.68582   0.81348679   -113.87234    2880.1281    4.3065448    4.3065448    4.3065448    2880.1281    20024.827     -40238.3    28853.858    62.856454    6667.4169    13046.537    79.870596 
   61700    1051.0813   -114.82139   0.95104046   -113.87035   -3829.5246    4.3089933    4.3089933    4.3089933   -3829.5246    5745.4218   -25593.105    8359.1096    -1391.932   -580.58063    21590.027    80.006903 
   61800    948.59129   -114.72947   0.85830533   -113.87116    3350.8139    4.3060704    4.3060704    4.3060704    3350.8139   -24709.334    15209.991    19551.786   -4225.0782   -49613.141   -8767.2434    79.844199 
   61900    1064.3148   -114.83406   0.96301442   -113.87104   -7215.9197    4.3100296    4.3100296    4.3100296   -7215.9197    10740.689   -30240.088     -2148.36    2524.3916   -4253.1705    8512.7561    80.064643 
   62000    855.19089   -114.64629   0.77379468   -113.87249   -4183.3736    4.3092964    4.3092964    4.3092964   -4183.3736     36870.19    -47309.32   -2110.9905    1333.2794    4329.5631    22744.071    80.023787 
   62100    891.59043   -114.67909   0.80672976   -113.87236    941.88721    4.3057384    4.3057384    4.3057384    941.88721   -6959.3237    4667.7785    5117.2069   -2962.7696   -43555.602   -1811.1745    79.825734 
   62200    1202.1693   -114.95491    1.0877481   -113.86717    -755.4556    4.3118732    4.3118732    4.3118732    -755.4556   -2847.3406   -5761.4823    6342.4562    1657.0383   -11743.674      4122.17    80.167424 
   62300    897.36527   -114.68409   0.81195496   -113.87213     6329.567    4.3074182    4.3074182    4.3074182     6329.567    43815.778   -37605.889    12778.812    1728.7271    15218.647    18529.371    79.919198 
   62400     777.6144   -114.57775   0.70360185   -113.87415    1976.1195    4.3076072    4.3076072    4.3076072    1976.1195     25088.48   -20522.723    1362.6018   -2522.4283   -23986.324   -5735.0755    79.929717 
   62500    1230.4071   -114.98043    1.1132982   -113.86714    7868.1455    4.3104036    4.3104036    4.3104036    7868.1455   -4000.7889    2801.8035    24803.422    70.071054   -10495.995   -3967.9888    80.085487 
   62600    968.51777   -114.74787   0.87633523   -113.87153     10354.84    4.3069537    4.3069537    4.3069537     10354.84    21680.684   -13647.997    23031.833    4736.6594    28657.855     13102.22    79.893346 
   62700    772.85081   -114.57384   0.69929165   -113.87455    2943.7406    4.3109321    4.3109321    4.3109321    2943.7406    39647.712    -36654.85    5838.3604   -549.14358   -8468.8159   -2893.5517    80.114944 
   62800     1179.681   -114.93514    1.0674002   -113.86774    8949.9336    4.3076833    4.3076833    4.3076833    8949.9336    7473.1407   -5639.6629    25016.323    294.56234   -12612.401   -8560.3842    79.933952 
   62900    1053.7734   -114.82516    0.9534763   -113.87168    3713.2945    4.3070108    4.3070108    4.3070108    3713.2945   -13594.063    11291.807    13442.139    5638.0752    36214.467    5291.5679    79.896523 
   63000    769.40143    -114.5725   0.69617058   -113.87633   -6704.6939    4.3110047    4.3110047    4.3110047   -6704.6939    20967.765   -32663.418   -8418.4288    1225.1248     9787.828   -1838.6313    80.118991 
   63100     1144.738   -114.90537     1.035783   -113.86959    2760.3864     4.306328     4.306328     4.306328    2760.3864    26211.038   -26466.401    8536.5219   -2488.2057   -10880.189   -10548.916    79.858532 
   63200    955.33836   -114.73697   0.86441022   -113.87256   -1803.0354    4.3110015    4.3110015    4.3110015   -1803.0354   -23107.719    16600.461     1098.152    2763.9068    36717.869    2939.1363    80.118814 
   63300    995.63626   -114.76923   0.90087261   -113.86836   -4905.9491    4.3119748    4.3119748    4.3119748   -4905.9491   -13763.706   -4294.6483     3340.507    9967.2842    25432.101   -1916.4856    80.173094 
   63400    1106.6409   -114.86585    1.0013119   -113.86454    6295.6143    4.3082585    4.3082585    4.3082585    6295.6143    25817.628   -29483.319    22552.534    2328.7278   -16263.947   -7375.2383    79.965977 
   63500    791.15446   -114.58701   0.71585318   -113.87116   -4507.5905     4.311428     4.311428     4.311428   -4507.5905    3247.8367   -1801.0176   -14969.591   -1446.9276    28643.808    6428.2412    80.142598 
   63600    1192.8414   -114.94487     1.079308   -113.86556    5321.4687    4.3072302    4.3072302    4.3072302    5321.4687   -19129.708    11605.174     23488.94    7604.4064    30841.989    -648.7908    79.908733 
   63700    1029.5456   -114.80179   0.93155451   -113.87023   -819.41828    4.3098393    4.3098393    4.3098393   -819.41828    9531.2441   -23937.701    11948.202    2736.9982   -22985.157   -4459.7142    80.054033 
   63800    703.86733   -114.51464   0.63687395   -113.87777   -2243.6664    4.3092081    4.3092081    4.3092081   -2243.6664    32506.497    -26795.07   -12442.426    -4025.578    6793.0364    3937.7777    80.018868 
   63900    1373.9345   -115.11056    1.2431648    -113.8674    7322.3716    4.3069858    4.3069858    4.3069858    7322.3716   -2568.7911    3422.3779    21113.528    722.57092    18197.089    3302.2404    79.895132 
   64000    990.50842    -114.7685   0.89623283   -113.87227   -8940.2054    4.3147249    4.3147249    4.3147249   -8940.2054   -19146.738   -5564.5306   -2109.3471    5643.4806   -29812.058   -3939.9914    80.326592 
   64100    531.04798   -114.35936   0.48050337   -113.87886    -1858.691    4.3071847    4.3071847    4.3071847    -1858.691    22670.276   -19308.008   -8938.3415    253.26934   -15560.346    356.70166    79.906202 
   64200    1370.3978   -115.10997    1.2399648   -113.87001    2156.4554    4.3087697    4.3087697    4.3087697    2156.4554    16999.835   -23059.484    12529.015   -2566.8901    9770.9447    10649.703    79.994446 
   64300    1214.8775   -114.96818    1.0992467   -113.86893   -3787.9717    4.3136516    4.3136516    4.3136516   -3787.9717   -21532.605   -4838.2338    15006.923   -6226.7542   -15412.342   -2874.0925    80.266662 
   64400    779.35618   -114.58043   0.70517785   -113.87525   -1910.9837    4.3031985    4.3031985    4.3031985   -1910.9837    8811.3827   -12558.047   -1986.2872    2872.8469   -23760.438    2714.6894    79.684554 
   64500    854.19939   -114.64885   0.77289756   -113.87595   -7708.6667    4.3082446    4.3082446    4.3082446   -7708.6667    33088.527   -38847.812   -17366.716     491.8049    3698.5918    2817.5312    79.965206 
   64600    1067.7534   -114.83718   0.96612573   -113.87105   -8810.0701    4.3130572    4.3130572    4.3130572   -8810.0701   -14236.394    -11699.84   -493.97616   -12434.369    20211.984   -1190.8862    80.233483 
   64700    1323.8174   -115.06408    1.1978178   -113.86627   -79.093334    4.3078676    4.3078676    4.3078676   -79.093334   -4561.7635   -3860.6658    8185.1493   -1619.2349   -6512.6319    650.28242    79.944212 
   64800    1019.7254    -114.7947   0.92266898   -113.87203   -6477.5801    4.3069194    4.3069194    4.3069194   -6477.5801     37436.41   -40282.877   -16586.274 -0.059688808   -6307.7034   -2350.6799    79.891438 
   64900    584.46449      -114.41   0.52883575   -113.88117   -4714.7809    4.3061621    4.3061621    4.3061621   -4714.7809     4099.384   -20045.343    1801.6158   -9794.0725    26925.719    156.43497      79.8493 
   65000    1231.2076   -114.98845    1.1140225   -113.87443    468.45339    4.3134442    4.3134442    4.3134442    468.45339    -16000.76   -3209.7673    20615.887   -6175.2124    23035.206   -2811.7359    80.255085 
   65100    1373.9487    -115.1123    1.2431777   -113.86912     4373.867    4.3103614    4.3103614    4.3103614     4373.867    20673.888   -22608.389    15056.103    514.31342   -13854.624    4151.9867    80.083132 
   65200    609.30693   -114.43034   0.55131372   -113.87903    6186.6492    4.3052041    4.3052041    4.3052041    6186.6492    26569.926   -29961.386    21951.407    -789.8739    10980.956   -1421.0271     79.79602 
   65300    1117.6448   -114.88232    1.0112685   -113.87105   -2312.5955    4.3113112    4.3113112    4.3113112   -2312.5955   -4788.8293   -12490.163    10341.206    -7242.951    25869.248   -4004.7846    80.136086 
   65400    1232.0162   -114.98136    1.1147541   -113.86661    10489.443    4.3082774    4.3082774    4.3082774    10489.443   -9529.5602     7397.307    33600.583   -976.06378   -29253.165    2166.7004    79.967031 
   65500     735.3966   -114.54268    0.6654023   -113.87728   -9138.9626    4.3106522    4.3106522    4.3106522   -9138.9626    16161.546   -30749.781   -12828.654    2316.6484   -15851.297   -1347.3818    80.099341 
   65600    1076.0776   -114.84553    0.9736576   -113.87187   -849.39176    4.3054845    4.3054845    4.3054845   -849.39176      27218.4   -33921.883    4155.3076    549.52169    19873.353   -5184.4079    79.811612 
   65700    1213.7062   -114.96955    1.0981869   -113.87136   -330.48176    4.3062116    4.3062116    4.3062116   -330.48176   -23431.913    16077.847    6362.6202   -483.19544   -35275.439   -2229.6804    79.852053 
   65800    848.94074   -114.64382   0.76813942   -113.87568   -16135.583    4.3157048    4.3157048    4.3157048   -16135.583   -17220.371   -10240.952   -20945.427    6480.9309   -32660.903    3533.0211    80.381331 
   65900     989.2072   -114.76599   0.89505546   -113.87093   -115.77482    4.3042743    4.3042743    4.3042743   -115.77482    36103.921   -46650.627    10199.381    3175.1014    12890.422   -991.14914    79.744333 
   66000    1021.4476   -114.79589   0.92422724   -113.87167   -950.33374    4.3072101    4.3072101    4.3072101   -950.33374   -4864.4351   -4877.3676    6890.8014   -3427.7858   -24324.319   -7850.3988    79.907617 
   66100    1189.8808   -114.94482    1.0766291   -113.86819   -808.31893    4.3130926    4.3130926    4.3130926   -808.31893   -31816.402    3437.7479    25953.697    7101.5687     -31753.4    642.04442    80.235461 
   66200    925.58094   -114.70783   0.83748509   -113.87034    554.27353    4.3069652    4.3069652    4.3069652    554.27353    14374.647   -36709.968    23998.141    3053.3499    9790.7805    1303.6199    79.893986 
   66300    715.22244   -114.52439    0.6471483   -113.87724   -13258.599    4.3110427    4.3110427    4.3110427   -13258.599    17641.777   -42570.065   -14847.508   -1166.7741    4662.4107   -8150.0425    80.121116 
   66400    1400.1349   -115.13701    1.2668715   -113.87014    10003.799    4.3059466    4.3059466    4.3059466    10003.799   -5451.5393   -1945.4672    37408.404    4451.2697   -15420.711   -1610.0208    79.837316 
   66500    1239.0564   -114.99715    1.1211243   -113.87602   -1792.7771    4.3071959    4.3071959    4.3071959   -1792.7771   -1593.1867   -24999.191    21214.046     3194.887    4671.3489   -212.50988    79.906827 
   66600    272.20272   -114.13267   0.24629474   -113.88637   -20594.229    4.3154268    4.3154268    4.3154268   -20594.229    27177.083   -52089.816   -36869.953    2468.6828    18516.441   -6873.0977      80.3658 
   66700    1103.2844   -114.87426   0.99827495   -113.87598    2164.0552    4.3094864    4.3094864    4.3094864    2164.0552    10716.007   -28321.017    24097.175   -1119.9782   -2470.7844    3491.3549    80.034374 
   66800    1491.3268   -115.21542    1.3493839   -113.86604    8942.6328    4.3054495    4.3054495    4.3054495    8942.6328   -5711.7902   -3919.3871    36459.076    1919.1746   -10106.516    375.16349    79.809664 
   66900    805.73401    -114.6047   0.72904506   -113.87565    4673.3545    4.3070173    4.3070173    4.3070173    4673.3545    18136.282   -14130.803    10014.584    1837.6886    10286.892   -11821.355    79.896883 
   67000    782.42131   -114.58155   0.70795124    -113.8736   -5492.6142     4.315469     4.315469     4.315469   -5492.6142    13656.655   -37469.326    7334.8283   -1321.9645    7186.8266   -4702.1939    80.368154 
   67100    1071.7692   -114.83949   0.96975929   -113.86974    809.53218    4.3057399    4.3057399    4.3057399    809.53218   -13001.207    2464.5981    12965.206   -3691.5768   -26275.686    8106.1027    79.825817 
   67200    999.11784   -114.77418   0.90402282   -113.87016    17876.783    4.3024739    4.3024739    4.3024739    17876.783   -1033.1265    35542.267    19121.209   -512.02583   -17928.512   -10476.849    79.644306 
   67300    1085.0105   -114.85115   0.98174028   -113.86941   -13307.816    4.3167934    4.3167934    4.3167934   -13307.816    19806.329   -44998.733   -14731.043     6352.157    9882.6342   -18604.727    80.442173 
   67400    845.85926   -114.63694   0.76535123   -113.87159    8094.6835    4.3035371    4.3035371    4.3035371    8094.6835    12655.473    8185.9129    3442.6649   -5808.1179   -19987.171    7425.9364    79.703366 
   67500    1023.5668   -114.79693   0.92614476   -113.87079    963.88577    4.3083054    4.3083054    4.3083054    963.88577   -28403.076    23398.975    7895.7589   -6290.1077    -31928.67    1311.0719     79.96859 
   67600     985.5796   -114.76056   0.89177314   -113.86879   -12675.441    4.3164555    4.3164555    4.3164555   -12675.441     7758.202   -27632.113   -18152.413    2103.1003    11501.334   -34038.044    80.423282 
   67700    977.74105   -114.75286   0.88468065   -113.86818    12162.502    4.2999653    4.2999653    4.2999653    12162.502    36353.566   -5597.2338    5731.1733    1421.7604   -1913.8432    -4359.866    79.505077 
   67800    1208.0252   -114.96145    1.0930466    -113.8684   -8073.5691    4.3124801    4.3124801    4.3124801   -8073.5691   -19530.526   -9577.9284     4887.747   -5551.2436   -21081.447    21983.425    80.201283 
   67900    827.86268   -114.62393   0.74906755   -113.87487       -13802    4.3109819    4.3109819    4.3109819       -13802   -5486.9808   -34555.732    -1363.287   -10164.533     5467.841   -40921.105    80.117721 
   68000    725.62342   -114.53291   0.65655932   -113.87635    10118.252    4.3024374    4.3024374    4.3024374    10118.252    36822.322   -9980.3933    3512.8271    4643.9957    10065.223   -23549.022    79.642278 
   68100    1407.5081   -115.13825    1.2735429   -113.86471   -11740.143    4.3187971    4.3187971    4.3187971   -11740.143   -7947.9206   -16918.967    -10353.54   -1495.3416   -3892.0156    37916.729    80.554237 
   68200    959.77608   -114.74163   0.86842556    -113.8732     1265.944    4.3039659    4.3039659    4.3039659     1265.944    2156.1791   -11880.617     13522.27   -13417.125   -1554.0971    -25168.06    79.727194 
   68300    454.98989   -114.29588   0.41168441   -113.88419   -5395.7686    4.3038414    4.3038414    4.3038414   -5395.7686    17595.259   -9230.5995   -24551.965    2019.5124    13101.569   -44638.409    79.720275 
   68400    1327.9376   -115.07325    1.2015459   -113.87171   -6788.9216    4.3151998    4.3151998    4.3151998   -6788.9216   -13294.506    4862.0377   -11934.297    12156.263    14363.644    17840.042    80.353117 
   68500    1274.4646   -115.02212    1.1531624   -113.86895    7234.3501    4.3082925    4.3082925    4.3082925    7234.3501    6999.4985    14484.201    219.35042   -11820.039   -8159.7203    -9388.048    79.967871 
   68600    368.79351   -114.21299   0.33369212   -113.87929   -22024.179    4.3153877    4.3153877    4.3153877   -22024.179    2184.5647    -47448.91   -20808.192   -7945.1701    7062.3535   -49465.205    80.363611 
   68700    1027.4881   -114.80289   0.92969285    -113.8732   -65.573481    4.3059837    4.3059837    4.3059837   -65.573481   -21718.881     478.4635    21043.697     10275.46    19394.831   -2691.3495    79.839376 
   68800    1458.0202    -115.1866    1.3192473   -113.86735    10299.743     4.306226     4.306226     4.306226    10299.743   -1087.6975    20194.194    11792.731   -711.18748   -4246.4905     3641.888    79.852855 
   68900    627.20498   -114.44855   0.56750825   -113.88104   -14408.758    4.3145435    4.3145435    4.3145435   -14408.758    8326.2547   -39165.619   -12386.911   -5552.0871   -8333.7144   -43169.995    80.316457 
   69000    901.59152    -114.6911   0.81577896   -113.87532    8344.7237    4.3032496    4.3032496    4.3032496    8344.7237   -6408.7969   -1394.3268    32837.295    1695.6744    10245.216   -17287.244    79.687392 
   69100    1403.3258   -115.13748    1.2697587   -113.86772    359.51154    4.3119524    4.3119524    4.3119524    359.51154   -14597.472    11131.364    4544.6426    6172.5492    2948.2776    19307.221    80.171841 
   69200     572.2656   -114.39946   0.51779794   -113.88166   -6762.0273    4.3097347    4.3097347    4.3097347   -6762.0273    30390.623   -23025.887   -27650.818   -3263.9516   -19040.799   -20616.996    80.048204 
   69300    760.97281   -114.56962   0.68854419   -113.88108    10988.181    4.3061823    4.3061823    4.3061823    10988.181    11732.769    -7070.522    28302.297   -8312.9324   -3424.0548   -30710.052    79.850426 
   69400    1673.3129   -115.37781    1.5140487   -113.86376   -379.05069    4.3168967    4.3168967    4.3168967   -379.05069   -18424.068   -7724.8478    25011.764    5264.9888    14307.606    11347.456    80.447949 
   69500    903.28229   -114.69318    0.8173088   -113.87587    15580.812    4.3011079    4.3011079    4.3011079    15580.812    28464.663   -13281.051    31558.825   -627.53663   -9452.7528   -11040.322     79.56847 
   69600    582.41504   -114.41077   0.52698137   -113.88379   -8317.9689    4.3071913    4.3071913    4.3071913   -8317.9689    19295.863   -32246.918   -12002.852    -9113.444   -8932.6269    -30192.61    79.906567 
   69700    1162.9216   -114.92608    1.0522359   -113.87385   -5437.2843    4.3107159    4.3107159    4.3107159   -5437.2843   -15145.887   -5032.9461    3866.9807   -8825.0785    17728.357    4445.9239    80.102893 
   69800    1165.3926   -114.92604    1.0544717   -113.87157    6754.9048    4.3045186    4.3045186    4.3045186    6754.9048     2101.637    12525.909    5637.1683    2412.2671    26456.305   -1893.0376    79.757908 
   69900    1006.7371   -114.78374   0.91091692   -113.87283   -13437.968    4.3136304    4.3136304    4.3136304   -13437.968    15250.751   -37618.483   -17946.173   -1803.2269   -9010.1288   -30275.006    80.265478 
   70000    937.23346   -114.72016   0.84802853   -113.87213    8496.8034    4.3019668    4.3019668    4.3019668    8496.8034    4493.7089   -3789.6594    24786.361   -14936.902    7331.8536   -1793.3836     79.61615 
   70100    941.12464   -114.72622   0.85154935   -113.87467    6579.4072    4.3079675    4.3079675    4.3079675    6579.4072   -22015.979    25105.175    16649.025    1271.7326    51020.468    8732.9231    79.949779 
   70200    1371.5277   -115.10909    1.2409871   -113.86811    3077.6173    4.3109324    4.3109324    4.3109324    3077.6173   -4958.2546   -7561.8175    21752.924    4094.8785   -1159.5355   -20635.814    80.114961 
   70300    1065.7548   -114.83814    0.9643173   -113.87382    11513.808    4.3031018    4.3031018    4.3031018    11513.808    10361.452   -12269.905    36449.875   -10971.132     1600.319   -7784.3872    79.679182 
   70400     536.6546   -114.36761   0.48557636   -113.88203   -19799.447    4.3115092    4.3115092    4.3115092   -19799.447   -39912.437    10281.853   -29767.756   -7444.3406    55199.768    9529.6046    80.147127 
   70500    1219.2539   -114.97793    1.1032066   -113.87472    7075.4247    4.3036859    4.3036859    4.3036859    7075.4247   -12796.298    18171.326    15851.246    8383.3076   -5508.1194    1266.8124    79.711632 
   70600    1448.6531   -115.18073    1.3107718   -113.86996   -2270.8406    4.3131005    4.3131005    4.3131005   -2270.8406   -7939.2959   -10318.431    11445.205   -6426.6623   -11734.747   -2830.1388    80.235901 
   70700    645.78311   -114.46652   0.58431813    -113.8822   -9001.7787    4.3094084    4.3094084    4.3094084   -9001.7787   -28977.287    3899.1197   -1927.1689   -21852.387    51104.722    1681.2374    80.030029 
   70800    856.29139   -114.65105   0.77479044   -113.87626    20074.712    4.2977439    4.2977439    4.2977439    20074.712    10446.864    23261.354    26515.919     9615.102    8064.1149    8629.0713    79.381919 
   70900    1396.8587   -115.13238    1.2639071   -113.86847   -1570.8621    4.3152457    4.3152457    4.3152457   -1570.8621    -3418.339   -8017.7058    6723.4585    3336.7153   -27449.863   -3658.4721    80.355679 
   71000    918.23833   -114.70529   0.83084134   -113.87445    11631.662    4.3058316    4.3058316    4.3058316    11631.662    9243.2937    2574.1861    23077.506   -28112.171    28461.108    -3827.869    79.830918 
   71100    876.47149   -114.66855   0.79304982    -113.8755    1460.6769    4.3044695    4.3044695    4.3044695    1460.6769   -11787.588    2972.3171    13197.302     1445.438    25636.153    8966.9011    79.755183 
   71200     1104.412   -114.87033   0.99929521   -113.87103   -2599.4352     4.310056     4.310056     4.310056   -2599.4352    14729.182   -15312.358   -7215.1299    22326.893   -14881.036    2883.6012    80.066113 
   71300    1127.9808   -114.89068    1.0206207   -113.87006    2766.8208    4.3053885    4.3053885    4.3053885    2766.8208    3202.2665   -10392.547    15490.743   -23296.841   -2314.3375   -12454.214    79.806273 
   71400    953.95369   -114.73596   0.86315734    -113.8728   -14107.064    4.3126809    4.3126809    4.3126809   -14107.064   -32779.676   -12467.803    2926.2874   -13226.972    25311.362    2947.5678    80.212489 
   71500    876.31647    -114.6679   0.79290956   -113.87499   -2018.6884     4.302412     4.302412     4.302412   -2018.6884    5856.2694   -15555.667    3643.3325    36375.858    8795.3118    17843.108    79.640871 
   71600    961.76896    -114.7474   0.87022877   -113.87717    5788.3487    4.3037309    4.3037309    4.3037309    5788.3487    28474.356   -28653.742    17544.432   -1285.2883   -7755.5553   -19225.792    79.714133 
   71700    1279.0443   -115.02687    1.1573062   -113.86956   -10275.516    4.3161845    4.3161845    4.3161845   -10275.516   -10762.293    -22664.36    2600.1037   -15639.889    9548.2494   -15996.773    80.408135 
   71800    887.31075   -114.67728   0.80285742   -113.87442    10099.305    4.3023967    4.3023967    4.3023967    10099.305    21214.451   -16553.708    25637.173    30142.217    12081.266    19388.063    79.640017 
   71900    602.08192   -114.42559   0.54477637   -113.88081    76.516051    4.3056256    4.3056256    4.3056256    76.516051    29183.968   -43057.157    14102.737    19331.583    957.51704   -9493.4867    79.819461 
   72000    1197.9011   -114.95726    1.0838861   -113.87337   -4545.6432    4.3124333    4.3124333    4.3124333   -4545.6432    25376.502   -32294.553   -6718.8784   -9623.4195   -5606.4817   -24867.065    80.198673 
   72100    1236.6598   -114.98924    1.1189558   -113.87029    16391.836    4.3012728    4.3012728    4.3012728    16391.836    13592.304   -5331.5087    40914.713    16627.914   -1959.8107    2463.8943    79.577621 
   72200    838.02156   -114.63649   0.75825952   -113.87823   -12137.063    4.3106755    4.3106755    4.3106755   -12137.063   -6010.7579   -40799.852    10399.421    30593.599    6500.3698    98.972133    80.100641 
   72300    665.68617   -114.48016   0.60232684   -113.87784   -10540.965    4.3096269    4.3096269    4.3096269   -10540.965    26128.273   -47204.692   -10546.475   -7029.3021   -784.28802   -25464.701    80.042199 
   72400    1034.4669   -114.80978   0.93600742   -113.87377    10674.248    4.2990792    4.2990792    4.2990792    10674.248   -2986.9968   -3946.4706    38956.213   -12305.606   -9642.0022    -1064.264    79.455935 
   72500    1305.3308    -115.0514    1.1810908   -113.87031   -7356.5281    4.3123518    4.3123518    4.3123518   -7356.5281    -27072.06   -19038.434     24040.91    14646.393   -5690.3327    104.19716    80.194123 
   72600    783.29135   -114.58619   0.70873848   -113.87745   -3127.1617    4.3076338    4.3076338    4.3076338   -3127.1617    27420.371   -43343.053     6541.197    5214.0815    3919.5774    -31779.65    79.931198 
   72700    624.82084   -114.44557   0.56535103   -113.88022     1020.465    4.3044609    4.3044609    4.3044609     1020.465    9840.8724   -41070.738    34291.261   -24063.889   -5799.9241    2667.5629    79.754701 
   72800    1371.0969   -115.11091    1.2405972   -113.87031   -128.75634     4.310227     4.310227     4.310227   -128.75634   -21047.049   -13443.925    34104.706   -14504.025   -4911.0461    12685.546    80.075644 
   72900    1250.5603   -115.00375    1.1315333   -113.87222    16032.792     4.300848     4.300848     4.300848    16032.792    29379.574   -10250.297    28969.098    6899.4409    7896.0893   -32400.806    79.554049 
   73000    525.82904   -114.36044   0.47578116   -113.88466    -9607.132    4.3125301    4.3125301    4.3125301    -9607.132    22683.243   -58757.374    7252.7352   -11951.449    178.43736   -10842.607    80.204071 
   73100    948.18385   -114.73669   0.85793667   -113.87876   -10555.337    4.3095724    4.3095724    4.3095724   -10555.337   -3641.2176   -42265.703    14240.909   -26621.469    505.60346    34929.766    80.039166 
   73200    1362.2688   -115.10104    1.2326094   -113.86843    26233.467    4.2951841    4.2951841    4.2951841    26233.467    33598.031    2689.5539    42412.816    9246.5443   -3400.2299   -13769.003    79.240163 
   73300    1019.5978   -114.79875   0.92255349    -113.8762   -8260.2108    4.3148646    4.3148646    4.3148646   -8260.2108    24994.523   -37897.776   -11877.379    6198.7648    3103.4931   -13844.082    80.334391 
   73400    846.47697   -114.64183   0.76591015   -113.87592   -2726.5993    4.3098737    4.3098737    4.3098737   -2726.5993    28375.269   -37033.774    478.70771   -24618.305    3956.3394    30075.047    80.055954 
   73500    1057.0264   -114.82622   0.95641968    -113.8698    19834.999    4.2983535    4.2983535    4.2983535    19834.999    39418.056   -19929.602    40016.542    16629.091    -5126.594    5781.0306    79.415704 
   73600    1062.0439    -114.8331    0.9609596   -113.87214   -8226.3096    4.3114474    4.3114474    4.3114474   -8226.3096   -7546.5239   -26102.246    8969.8414    28630.151    6965.2955   -6705.0286    80.143679 
   73700    1015.4221   -114.79122   0.91877526   -113.87244    9348.5606    4.3057991    4.3057991    4.3057991    9348.5606    44845.372   -10149.235   -6650.4545   -9212.7134     9295.682    28104.265    79.829112 
   73800    1189.1789   -114.94715     1.075994   -113.87116    994.31518      4.30781      4.30781      4.30781    994.31518    21737.647   -27357.082    8602.3812    13169.889     1347.348    15040.638    79.941008 
   73900    1058.7189   -114.83058   0.95795114   -113.87263   -7705.5699     4.309745     4.309745     4.309745   -7705.5699   -20773.424   -27607.332    25264.047    36980.525    -2637.088   -11584.386    80.048779 
   74000    761.22795   -114.56406   0.68877505   -113.87529     10371.57     4.298766     4.298766     4.298766     10371.57    34767.742    1354.8495   -5007.8817   -3395.9917    6578.8169     25011.28    79.438569 
   74100    1041.7915   -114.81985   0.94263481   -113.87722   -8349.1643    4.3150331    4.3150331    4.3150331   -8349.1643    20793.451   -19694.042   -26146.902   -3166.2148    5568.1952    25838.871    80.343803 
   74200    1554.7527    -115.2746    1.4067729   -113.86782    3347.6312     4.309155     4.309155     4.309155    3347.6312    3683.1421   -11880.827    18240.578    24763.941   -4146.4706   -9611.8216     80.01591 
   74300    764.55785    -114.5707   0.69178801   -113.87892    16556.811    4.2951332    4.2951332    4.2951332    16556.811    35924.662    809.24825    12936.523    6618.5078    2299.9251    11964.225    79.237347 
   74400    505.56419     -114.345   0.45744511   -113.88755   -22945.414    4.3165085    4.3165085    4.3165085   -22945.414   -7131.4409   -32023.745   -29681.058   -18232.385    8405.4777    28516.875    80.426249 
   74500    1557.7775   -115.27917    1.4095098   -113.86966    4584.4767    4.3102569    4.3102569    4.3102569    4584.4767    4884.2719   -9483.7281    18352.886   -9333.0258    2189.3676   -2927.6018     80.07731 
   74600    1273.1818   -115.02214    1.1520017   -113.87014    4335.4198    4.3063062    4.3063062    4.3063062    4335.4198    28533.513   -15333.582   -193.67166    10900.655   -3766.0546   -3907.4221    79.857319 
   74700    467.49219   -114.30188   0.42299676   -113.87888   -23337.689    4.3125782    4.3125782    4.3125782   -23337.689    3333.4491   -41865.791   -31480.725   -13248.246    4616.1931    29591.256    80.206755 
   74800    1041.1499   -114.81633    0.9420543   -113.87427    13786.796     4.297616     4.297616     4.297616    13786.796    20923.904   -15191.552    35628.036   -23159.702     1211.189    4238.2603    79.374833 
   74900    1293.0425   -115.04137     1.169972    -113.8714    -638.6528    4.3114362    4.3114362    4.3114362    -638.6528    15640.921   -34476.194    16919.315    10523.472   -3506.8752   -7001.6831    80.143052 
   75000    800.41524    -114.6032   0.72423253   -113.87897   -13010.444    4.3118984    4.3118984    4.3118984   -13010.444     27686.27   -44223.906   -22493.695    5259.1619    7135.2062    26100.803    80.168832 
   75100    979.33426   -114.75881   0.88612222   -113.87269    19490.615    4.2957331    4.2957331    4.2957331    19490.615    39058.251   -8563.4048    27976.999   -15825.548    5230.1632    13518.991     79.27055 
   75200    1316.2081   -115.05921    1.1909328   -113.86828   -8331.2269    4.3130874    4.3130874    4.3130874   -8331.2269   -14683.757   -42310.413    32000.489    15279.338   -2505.2525    -5142.979    80.235171 
   75300    551.39081   -114.37778   0.49890999   -113.87887   -9309.8936    4.3102146    4.3102146    4.3102146   -9309.8936    11748.967   -49617.428    9938.7809     21204.25   -1242.1237    21850.355    80.074953 
   75400    903.75721   -114.69551   0.81773851   -113.87778    6864.4644    4.2998629    4.2998629    4.2998629    6864.4644    48568.966   -23068.169   -4907.4038   -8096.8376    4616.9698    19458.481    79.499397 
   75500    1581.3303   -115.29833    1.4308208    -113.8675   -334.85247    4.3107529    4.3107529    4.3107529   -334.85247   -736.50396   -21008.643    20740.589    8084.9709    3909.6406   -10627.145    80.104956 
   75600    822.64744   -114.62614   0.74434869   -113.88179    3325.1393    4.3062464    4.3062464    4.3062464    3325.1393    12918.095    -16120.96    13178.283    23388.116   -12335.816    18974.987    79.853989 
   75700     462.2056   -114.30441   0.41821334   -113.88619   -7693.7975    4.3097869    4.3097869    4.3097869   -7693.7975    36651.311   -40353.218   -19379.485   -3142.1462    3362.5431    24909.632    80.051115 
   75800     1395.505    -115.1327    1.2626823   -113.87002   -4081.4323    4.3117171    4.3117171    4.3117171   -4081.4323    3361.5843   -23121.344    7515.4629   -14826.815    10335.021   -12161.527     80.15872 
   75900    1208.3778   -114.96475    1.0933656   -113.87138    17616.647    4.2970677    4.2970677    4.2970677    17616.647    20157.168    19871.681    12821.091    2009.9844   -23450.946    5128.1755    79.344459 
   76000    680.81195   -114.49972   0.61601296   -113.88371   -8526.1794    4.3094167    4.3094167    4.3094167   -8526.1794    20270.174   -22049.169   -23799.543    13019.948   -9946.1603    39000.371    80.030489 
   76100    989.26763   -114.77228   0.89511014   -113.87717    -7286.904    4.3122336    4.3122336    4.3122336    -7286.904    10339.762   -32979.518    779.04349   -12846.475    13066.667    8930.3622    80.187528 
   76200    1267.8058   -115.01799    1.1471373   -113.87085    13222.076    4.2983939    4.2983939    4.2983939    13222.076    12892.807    2002.1034    24771.318   -32153.571   -8952.8863   -10591.132    79.417945 
   76300    966.05346   -114.74985   0.87410547   -113.87575   -7335.0147    4.3102828    4.3102828    4.3102828   -7335.0147    12869.634   -14839.475   -20035.203    6436.9696    -14912.88    31678.568    80.078749 
   76400    892.90842    -114.6831    0.8079223   -113.87517   -6640.9559    4.3094183    4.3094183    4.3094183   -6640.9559     24359.48    -23690.48   -20591.867   -2828.3552    8441.8676    26202.945     80.03058 
   76500    1033.7365   -114.80746   0.93534648   -113.87211    4952.6652    4.3030506    4.3030506    4.3030506    4952.6652     5432.337   -21057.878    30483.536    -32349.51    6718.5034   -10929.581    79.676334 
   76600    1190.7898   -114.94791    1.0774517   -113.87046   -7558.8214    4.3094251    4.3094251    4.3094251   -7558.8214    11100.424   -29803.291    -3973.597    1016.5815   -12567.546    15552.133    80.030958 
   76700    1130.2408   -114.89456    1.0226657    -113.8719    2195.8181    4.3048596    4.3048596    4.3048596    2195.8181    49956.828   -11198.277   -32171.097    2303.1803    842.79193    30559.632    79.776864 
   76800    775.51782   -114.58016   0.70170482   -113.87845   -8140.9739    4.3062962    4.3062962    4.3062962   -8140.9739   -12475.785   -22255.641    10308.504   -31805.746    13940.607   -3223.2838    79.856761 
   76900    887.16273   -114.68174   0.80272348   -113.87901    -8909.752    4.3059024    4.3059024    4.3059024    -8909.752   -11695.722   -40553.713     25520.18   -3601.4384    2916.3568    50.694452    79.834858 
   77000    1244.2694   -114.99877    1.1258411   -113.87293    8187.4389    4.3061252    4.3061252    4.3061252    8187.4389    48730.767   -12180.374   -11988.076    22910.056     -3499.87    23784.076    79.847251 
   77100    1132.8697   -114.89902    1.0250443   -113.87397   -6885.4886    4.3107493    4.3107493    4.3107493   -6885.4886    1996.9899   -15405.996   -7247.4597   -28048.596    9856.7447    3278.2113    80.104757 
   77200    635.44883   -114.45457   0.57496746   -113.87961    4304.0415    4.3002057    4.3002057    4.3002057    4304.0415    1386.9032   -31103.225    42628.446   -15145.966    11631.797   -7490.9525     79.51841 
   77300      999.209   -114.78302    0.9041053   -113.87892    4732.9526    4.3074918    4.3074918    4.3074918    4732.9526    22054.238   -24624.901    16769.521    31112.516    -3811.226    11402.883    79.923296 
   77400    1390.1557   -115.12848    1.2578421   -113.87064    6509.3213    4.3093158    4.3093158    4.3093158    6509.3213    12911.432     2868.866    3747.6658   -4343.3276   -11834.168    3276.4634    80.024868 
   77500    722.47107   -114.53397   0.65370701   -113.88026    12234.324     4.299517     4.299517     4.299517    12234.324    17410.506   -18181.936    37474.401   -22943.852    4717.6558   -8658.5129    79.480211 
   77600    756.89242    -114.5659   0.68485217   -113.88104   -12117.366    4.3114345    4.3114345    4.3114345   -12117.366   -19731.613   -38616.823    21996.338    15380.189    10804.762   -6788.6812    80.142957 
   77700    1234.6942   -114.98747    1.1171773    -113.8703    5380.1445    4.3055331    4.3055331    4.3055331    5380.1445    2485.0285    7182.9763    6472.4288    15448.204   -24655.567    1801.9155    79.814314 
   77800    1006.0704   -114.78359   0.91031363   -113.87328    78.989396    4.3058166    4.3058166    4.3058166    78.989396   -151.19148    5235.4283   -4847.2686   -15115.796   -24374.531    1736.3911    79.830082 
   77900    1027.3219   -114.80207   0.92954245   -113.87253    -9808.928    4.3088667    4.3088667    4.3088667    -9808.928   -10250.589   -33564.785     14388.59   -7992.3003    19627.187   -12695.533    79.999852 
   78000    773.55293    -114.5747   0.69992695   -113.87478    7949.9753    4.3002122    4.3002122    4.3002122    7949.9753    15166.688    1847.1273     6836.111    12934.069   -21280.093    1807.5217    79.518769 
   78100    849.51199   -114.64811    0.7686563   -113.87945   -14741.562     4.314654     4.314654     4.314654   -14741.562   -16823.345    5179.1869   -32580.527    1978.1339   -56317.923    8490.3025    80.322631 
   78200    1668.6801   -115.37793    1.5098568   -113.86807    7680.4762    4.3057323    4.3057323    4.3057323    7680.4762    25918.047   -6956.4357    4079.8176   -9934.5732     14751.84   -8102.8554    79.825396 
   78300    964.04522    -114.7537   0.87228838   -113.88141    9834.3053    4.2966264    4.2966264    4.2966264    9834.3053    7212.6645    11627.789    10662.462    5537.7776   -18163.769   -1614.6234    79.320014 
   78400     248.7151   -114.11828   0.22504265   -113.89323   -25348.244    4.3161197    4.3161197    4.3161197   -25348.244   -41428.199    -1663.468   -32953.064    8345.8237   -61526.344    9553.7749    80.404515 
   78500    1436.1502   -115.17587    1.2994589   -113.87641     3771.872    4.3102854    4.3102854    4.3102854     3771.872    27179.036   -15129.276   -734.14466   -1717.0205    11157.055    6856.0434    80.078897 
   78600    1426.8136    -115.1624    1.2910109   -113.87139    13195.905    4.3004794    4.3004794    4.3004794    13195.905    17581.714    17943.406    4062.5961   -22.336886   -9835.3091   -6363.9271    79.533595 
   78700    522.52631   -114.35524   0.47279279   -113.88245   -8856.8859    4.3100009    4.3100009    4.3100009   -8856.8859   -11304.615    12952.811   -28218.854    9262.8369   -59435.091    916.19302    80.063039 
   78800    930.13029   -114.71613   0.84160143   -113.87453   -9090.0765    4.3107252    4.3107252    4.3107252   -9090.0765   -3042.6398   -33076.552    8848.9626    9315.1005   -1513.8765    17257.965    80.103411 
   78900    1231.4536   -114.98332    1.1142451   -113.86908    3598.4459      4.30185      4.30185      4.30185    3598.4459    119.39513   -6202.5554    16878.498   -15254.519     9679.186    750.63567    79.609662 
   79000     876.5078   -114.66817   0.79308268   -113.87509   -6536.9269    4.3061419    4.3061419    4.3061419   -6536.9269   -25749.958    20109.319   -13970.142    -1775.754   -48693.522   -1966.7901     79.84818 
   79100    928.42172   -114.71446   0.84005549   -113.87441   -7630.1894    4.3092561    4.3092561    4.3092561   -7630.1894   -19463.158   -20325.051    16897.641    26964.605   -14758.693    11841.126    80.021543 
   79200    1069.7994   -114.83934   0.96797696   -113.87136   -2008.3194     4.305062     4.305062     4.305062   -2008.3194   -5515.3716   -29601.079    29091.492    787.67411    12650.003    5763.8577    79.788122 
   79300    799.10226   -114.59912   0.72304452   -113.87608   -11082.572    4.3065304    4.3065304    4.3065304   -11082.572    -23218.57    14612.658   -24641.806   -17526.915   -38369.804   -7072.8153    79.869793 
   79400    818.73562    -114.6187   0.74080919   -113.87789   -6609.7658    4.3050437    4.3050437    4.3050437   -6609.7658   -26438.894    4869.6119    1739.9846      19051.3    -22704.77    -4035.208    79.787103 
   79500    1237.6669   -114.99171    1.1198671   -113.87184    1559.2955     4.306811     4.306811     4.306811    1559.2955   -11111.038   -21500.731    37289.655    32539.407    12679.221     3377.576    79.885408 
   79600    1126.7132   -114.89079    1.0194738   -113.87132   -3739.1684    4.3104231    4.3104231    4.3104231   -3739.1684   -17593.764    8942.6937   -2566.4349   -7719.2662   -27552.247    2245.6702    80.086572 
   79700    692.30091   -114.50362   0.62640841   -113.87721     -5046.58    4.3043408    4.3043408    4.3043408     -5046.58   -29709.039    21409.059     -6839.76   -32.107784   -38953.959   -8632.7164    79.748025 
   79800    878.16192   -114.67195   0.79457936   -113.87737    31.637409    4.3035009    4.3035009    4.3035009    31.637409   -15013.216   -6077.4238    21185.552    42790.729    17737.271   -9091.0157    79.701354 
   79900     1302.735   -115.05154     1.178742    -113.8728   -1232.8709    4.3097371    4.3097371    4.3097371   -1232.8709   -14676.893     6796.808    4181.4724    9047.3284   -1568.0418    5392.2415    80.048339 
   80000    1210.2193   -114.96967    1.0950318   -113.87464    1279.3352    4.3059795    4.3059795    4.3059795    1279.3352   -14904.749    31255.863   -12513.108   -9389.0441   -41697.695   -1387.1267    79.839147 
   80100    654.32377   -114.47404    0.5920459   -113.88199   -3921.2738    4.3029082    4.3029082    4.3029082   -3921.2738    -23465.41    6037.5529    5664.0358    40375.269    -1796.798   -8046.6307    79.668427 
   80200    871.96623   -114.67129   0.78897337   -113.88232   -4214.5088    4.3093757    4.3093757    4.3093757   -4214.5088   -22347.882     2401.243     7303.113    19775.474    28700.252   -3318.7509    80.028207 
   80300    1558.0914   -115.27718    1.4097938   -113.86738     2524.228    4.3103309    4.3103309    4.3103309     2524.228   -10264.917     18385.44   -547.83891   -13906.051   -4916.6154    2764.2467    80.081431 
   80400    967.71481   -114.75225   0.87560869   -113.87664    3559.1172    4.3046344    4.3046344    4.3046344    3559.1172   -9619.5292    2348.3568    17948.524    32505.423   -16421.838   -423.85004    79.764348 
   80500      503.045    -114.3377   0.45516568   -113.88254   -9270.8965     4.308021     4.308021     4.308021   -9270.8965   -33203.391   -7064.1383     12454.84    34194.151    25461.777   -13057.698    79.952753 
   80600    1221.7524   -114.98081    1.1054672   -113.87535    7097.4275    4.3059034    4.3059034    4.3059034    7097.4275   -6236.7963    13126.671    14402.407   -19003.789    24830.982   -1681.1401    79.834914 
   80700     1336.856   -115.08198    1.2096154   -113.87236    12435.773    4.3041662    4.3041662    4.3041662    12435.773    5550.4762   -9764.7493    41521.591    12339.108   -9693.1868    7865.6521    79.738323 
   80800    754.83413    -114.5636   0.68298978   -113.88061   -7176.1336    4.3108101    4.3108101    4.3108101   -7176.1336   -23171.764    -20616.51    22259.873    42735.452    6807.0052   -9762.0174    80.108143 
   80900    739.05573   -114.54782   0.66871316   -113.87911    2406.3069    4.3054938    4.3054938    4.3054938    2406.3069   -6173.1638    11721.131    1670.9529   -9781.7728    29216.515   -10712.322     79.81213 
   81000    1180.8289   -114.93927    1.0684388   -113.87083    6481.1687    4.3046404    4.3046404    4.3046404    6481.1687   -3368.2017   -2479.8385    25291.546   -4473.3476   -2143.0686   -420.62885    79.764681 
   81100    1163.9306   -114.92335    1.0531488    -113.8702   -2953.9685    4.3099267    4.3099267    4.3099267   -2953.9685    -13807.99   -23901.489    28847.574    33065.433   -5334.5964    782.57552    80.058906 
   81200    847.37828   -114.64153   0.76672568    -113.8748     1129.282      4.30571      4.30571      4.30571     1129.282    7047.5604   -1099.3603   -2560.3541      6801.98    41093.883   -9161.8023    79.824154 
   81300     928.5806   -114.71475   0.84019924   -113.87455    6806.8758    4.3032799    4.3032799    4.3032799    6806.8758    1906.4909    6700.5833    11813.553   -12019.167    15766.874   -8206.2626    79.689074 
   81400    1159.3504   -114.91996    1.0490046   -113.87095    8626.3696    4.3069588    4.3069588    4.3069588    8626.3696    17045.159   -16105.624    24939.574    12254.556   -24349.353    7413.0578    79.893632 
   81500    721.36394   -114.52928   0.65270525   -113.87658    -4004.553    4.3092038    4.3092038    4.3092038    -4004.553   -5306.3186   -2285.1553    -4422.185    15624.163    36500.675    4291.2703    80.018626 
   81600    961.76672   -114.74596   0.87022674   -113.87573    2782.2334    4.3050312    4.3050312    4.3050312    2782.2334    752.73249    9857.2803   -2263.3126   -5523.5638    44764.059   -9207.2415    79.786407 
   81700    1555.1601   -115.27404    1.4071415   -113.86689    7900.0941     4.305542     4.305542     4.305542    7900.0941    27852.227    -9099.852    4947.9069    1399.2846   -20129.911   -4893.1818    79.814811 
   81800     661.0309    -114.4822   0.59811465   -113.88408   -8441.9337    4.3088249    4.3088249    4.3088249   -8441.9337   -21035.159   -2764.2063   -1526.4356    21351.995    26566.408    9302.8082    79.997521 
   81900    467.88598   -114.31091   0.42335307   -113.88756   -2284.9481    4.3067397    4.3067397    4.3067397   -2284.9481   -5140.3332    8616.6078   -10331.119    4988.3232    49470.137    3067.0315    79.881437 
   82000    1528.1766   -115.25493    1.3827263    -113.8722    7939.2478    4.3084237    4.3084237    4.3084237    7939.2478    32082.212   -8080.1198   -184.34833   -6150.5942   -19812.921   -12387.064    79.975181 
   82100     1123.032    -114.8942     1.016143   -113.87806    10833.999    4.3024896    4.3024896    4.3024896    10833.999    11349.832     13326.78    7825.3838    4152.2827    17725.537   -1718.6505    79.645176 
   82200    570.88177   -114.40266   0.51654582   -113.88611   -4148.5061    4.3068147    4.3068147    4.3068147   -4148.5061   -8264.2743    4655.4169    -8836.661    14730.407    57854.979    8791.6949     79.88561 
   82300    1203.4223   -114.96593    1.0888818   -113.87705   -7473.8853    4.3100626    4.3100626    4.3100626   -7473.8853   -10542.749   -21382.955    9504.0478    6774.0491   -3804.2648    2254.5405    80.066481 
   82400    1371.8435   -115.11514    1.2412729   -113.87387    10085.905    4.2979653    4.2979653    4.2979653    10085.905   -2780.7213    15624.659    17413.778   -12886.362   -13128.688   -4457.7369    79.394189 
   82500    624.65737   -114.45211   0.56520312   -113.88691   -15485.347    4.3082901    4.3082901    4.3082901   -15485.347   -41524.669    10794.616   -15725.988     11211.96    40773.398    3627.4327    79.967738 
   82600    789.54518   -114.59948   0.71439708   -113.88508   -14734.064    4.3110241    4.3110241    4.3110241   -14734.064   -31313.511   -31471.442     18582.76    29473.364    16270.459    17641.166    80.120076 
   82700    1539.9341   -115.26421    1.3933648   -113.87084    11802.706    4.3000555    4.3000555    4.3000555    11802.706    3227.2073   -819.82538    33000.737    3035.2251   -9909.4642    5286.2982    79.510076 
   82800    1084.2891   -114.86011   0.98108761   -113.87902   -2581.3396    4.3068198    4.3068198    4.3068198   -2581.3396   -35972.778     27039.55    1189.2082   -4892.6891     26080.99   -7945.1988    79.885894 
   82900    497.96014    -114.3368    0.4505648   -113.88623   -8982.9349     4.308608     4.308608     4.308608   -8982.9349   -42644.186   -6949.5632    22644.944    28259.347    20396.827    11268.499    79.985444 
   83000    1105.5579   -114.87953     1.000332    -113.8792    449.71851    4.3056644    4.3056644    4.3056644    449.71851   -7382.2701   -16099.947    24831.373    20354.085    -11137.32    20500.917    79.821618 
   83100    1416.0567   -115.15216    1.2812779   -113.87088    3141.0498    4.3057258    4.3057258    4.3057258    3141.0498   -14589.558    13358.225    10654.482   -13150.579    13459.161   -5427.1894    79.825033 
   83200    903.85905   -114.69675   0.81783066   -113.87892    -4938.506    4.3065361    4.3065361    4.3065361    -4938.506    -38142.03    10084.691     13241.82    19490.302    21509.371   -772.40526    79.870108 
   83300    549.19536   -114.38045    0.4969235   -113.88353   -11417.458    4.3092484    4.3092484    4.3092484   -11417.458   -26446.417   -14128.779    6322.8223        31746   -8795.7194    17367.186    80.021116 
   83400    1140.3689   -114.91093    1.0318298    -113.8791    940.61259    4.3030225    4.3030225    4.3030225    940.61259   -9456.6694   -6773.4594    19051.967   -24968.268   -3455.9093    2411.8386    79.674778 
   83500    1432.9913     -115.169    1.2966006    -113.8724    9872.3093    4.3037311    4.3037311    4.3037311    9872.3093   -7358.6676    9183.1572    27792.438   -2847.0319    6152.0978   -6458.2971    79.714141 
   83600    752.25142   -114.56227   0.68065289   -113.88161   -9104.3759    4.3143663    4.3143663    4.3143663   -9104.3759     -27732.1   -11848.388     12267.36    46745.539    717.02948    9904.3189    80.306566 
   83700    644.48171   -114.46423    0.5831406   -113.88109   -4317.5534    4.3074284    4.3074284    4.3074284   -4317.5534   -19697.909   -15631.289    22376.537   -12564.402   -4463.2376     14131.47    79.919765 
   83800    1287.7934   -115.03595    1.1652225   -113.87073     12622.89     4.300091     4.300091     4.300091     12622.89    1327.4724    2937.7263     33603.47   -24948.928   -6115.9304    628.79477     79.51205 
   83900    1205.0965   -114.96411    1.0903966   -113.87372    3139.9461    4.3074536    4.3074536    4.3074536    3139.9461   -15814.463   -13133.186    38367.487    42891.602    3149.2126   -2903.6813    79.921171 
   84000    919.13535   -114.70871   0.83165298   -113.87706   -3251.4662    4.3093929    4.3093929    4.3093929   -3251.4662    -21092.15   -20246.828     31584.58    10474.697     2277.268    12710.347    80.029163 
   84100     731.4622   -114.54121   0.66184237   -113.87936   -4634.1522    4.3056141    4.3056141    4.3056141   -4634.1522   -17494.047    189.30873    3402.2816   -39007.843   -2547.4638    9032.2395    79.818819 
   84200    1085.2746   -114.85947   0.98197928   -113.87749   -865.51068    4.3037879    4.3037879    4.3037879   -865.51068   -27219.052    5153.7927    19468.727    15811.465   -8594.8581   -5977.0747    79.717298 
   84300    1503.0356   -115.23007    1.3599782   -113.87009    2543.2212    4.3079242    4.3079242    4.3079242    2543.2212   -13688.063   -11265.973      32583.7     19346.71    1454.3342   -81.742452    79.947365 
   84400    649.88089   -114.47033   0.58802589   -113.88231   -14928.648    4.3128087    4.3128087    4.3128087   -14928.648   -40814.089   -15363.371    11391.517   -40467.457    4694.0822    11909.695    80.219617 
   84500     658.5283   -114.48045   0.59585024    -113.8846   -4320.4789     4.302923     4.302923     4.302923   -4320.4789   -41199.589    20144.692    8093.4602   -15066.351   -13536.589    7266.3125     79.66925 
   84600    1545.6191   -115.27231    1.3985086    -113.8738    11772.925    4.3011784    4.3011784    4.3011784    11772.925   -2441.1361    16699.609    21060.303    11686.907   -7162.0519   -11436.497    79.572383 
   84700    1160.9046   -114.93135    1.0504109   -113.88094   -1858.4909    4.3092132    4.3092132    4.3092132   -1858.4909   -15408.509   -18860.539    28693.575   -26635.295    4842.3269   -10414.497    80.019151 
   84800    768.10215   -114.58027   0.69499497   -113.88527   -4240.9708    4.3067037    4.3067037    4.3067037   -4240.9708   -37900.503    6083.0887    19094.502   -26696.563     -12663.8    11138.155    79.879432 
   84900    1083.7407   -114.85728   0.98059135   -113.87669   -841.05439    4.3059419    4.3059419    4.3059419   -841.05439   -17827.213    20938.458    -5634.408    10779.756   -16426.991   -2038.5407    79.837051 
   85000    1036.7504   -114.81227   0.93807351    -113.8742   -4522.5426     4.307104     4.307104     4.307104   -4522.5426   -3281.8044    -26294.91    16009.086   -3367.1011    5644.6525   -24087.941    79.901709 
   85100    1042.7709   -114.81651   0.94352101   -113.87299   -3943.4371    4.3069262    4.3069262    4.3069262   -3943.4371   -11878.917   -24288.903    24337.509    -30404.02    -7125.847    -7362.185    79.891813 
   85200     1099.089   -114.86543   0.99447885   -113.87095   -3204.1261     4.308564     4.308564     4.308564   -3204.1261    -19719.45    20916.921   -10809.849   -5341.7119   -23880.434    6394.6096    79.982992 
   85300    1080.3918    -114.8491   0.97756121   -113.87154   -2664.7027    4.3067145    4.3067145    4.3067145   -2664.7027   -4935.7821   -6377.9044    3319.5784    15675.135    4651.8612   -12169.214    79.880034 
   85400    1093.2843   -114.86097   0.98922659   -113.87175   -967.69229    4.3050083    4.3050083    4.3050083   -967.69229   -5178.1974   -32128.304    34403.424   -7244.3995    4411.9532   -13129.061    79.785135 
   85500    769.55676   -114.57411   0.69631113   -113.87779   -7337.4886     4.308405     4.308405     4.308405   -7337.4886   -16838.417    6395.0003   -11569.049   -13864.428   -36093.566    14535.294     79.97414 
   85600      997.903   -114.78072   0.90292361    -113.8778   -4802.2421    4.3074099    4.3074099    4.3074099   -4802.2421   -12624.025    10079.311   -11862.012    2685.1648   -13324.595    9397.6702    79.918733 
   85700    1444.7362   -115.17791    1.3072277   -113.87068    5936.6751      4.30325      4.30325      4.30325    5936.6751    780.56157   -14426.599    31456.062    20879.407    17428.246   -10545.995    79.687412 
   85800    842.71907   -114.64365   0.76250993   -113.88114   -691.31025    4.3064239    4.3064239    4.3064239   -691.31025    440.39265    2332.7669   -4847.0902    3518.4157   -30940.394    5766.2477    79.863864 
   85900    716.79626   -114.53366   0.64857232   -113.88509   -4701.0362    4.3085144    4.3085144    4.3085144   -4701.0362   -5043.9946    12661.982   -21721.096   -14121.824   -42001.306    20152.107     79.98023 
   86000    1413.5634   -115.15239    1.2790218   -113.87337    10980.609    4.3045976    4.3045976    4.3045976    10980.609    20892.619   -8094.4165    20143.625    15471.207    11511.046    5929.9921    79.762299 
   86100    1193.1377   -114.95485     1.079576   -113.87527    2758.0092    4.3076419    4.3076419    4.3076419    2758.0092    3462.2381    4299.2117    512.57777    20885.828   -10037.822   -3920.5339     79.93165 
   86200    517.69643   -114.35301   0.46842261   -113.88459   -9818.5243    4.3083932    4.3083932    4.3083932   -9818.5243   -25639.248    17466.282   -21282.606   -13543.638   -46344.941    15268.847    79.973479 
   86300    1083.8332   -114.85851   0.98067505   -113.87784    646.39998    4.3055471    4.3055471    4.3055471    646.39998    10160.851   -10893.898    2672.2468    -20455.87   -2048.1559    15699.891    79.815094 
   86400    1540.4334   -115.26198    1.3938166   -113.86816   -893.27145    4.3095839    4.3095839    4.3095839   -893.27145   -522.20287   -5411.2513    3253.6398    13576.322    1825.0614   -6848.7114    80.039807 
   86500    856.50838   -114.65697   0.77498678   -113.88198   -30.339398    4.3023556    4.3023556    4.3023556   -30.339398   -7793.7867    27612.627   -19909.859    11030.478   -41531.209    3414.2077    79.637738 
   86600    521.90949   -114.36128   0.47223467   -113.88905   -6709.8658     4.305231     4.305231     4.305231   -6709.8658    8825.1083   -18667.751   -10286.955   -28728.368   -14660.903     23015.59    79.797517 
   86700    1324.3742     -115.077    1.1983216   -113.87867     -9661.91    4.3129323    4.3129323    4.3129323     -9661.91   -2657.1274   -33649.611    7321.0087   -23884.668    13073.351    8274.8535    80.226515 
   86800    1476.1499   -115.20792    1.3356514   -113.87226    7607.3821    4.3019805    4.3019805    4.3019805    7607.3821     11420.47    21064.532   -9662.8552    11540.044   -22554.051   -5984.9269    79.616911 
   86900    653.59564   -114.47524   0.59138707   -113.88385    -12360.27    4.3061583    4.3061583    4.3061583    -12360.27   -3294.7525   -16441.604   -17344.455   -19868.239   -25921.634    18026.513    79.849088 
   87000    657.04934   -114.47899   0.59451205   -113.88447   -15071.802    4.3100729    4.3100729    4.3100729   -15071.802   -9463.5083   -51697.563    15945.664   -42033.059    9749.1142    19398.598    80.067056 
   87100    1493.4434   -115.22103     1.351299   -113.86973      5696.46    4.3066214    4.3066214    4.3066214      5696.46    12523.382   -5041.7849     9607.783    12210.071   -3695.6219   -9938.4685    79.874857 
   87200     1186.731   -114.94782    1.0737791   -113.87404   -9475.7734    4.3095706    4.3095706    4.3095706   -9475.7734   -526.85329   -13783.377    -14117.09   -292.56651   -21737.162    7541.8363    80.039063 
   87300    463.84524   -114.30521   0.41969692   -113.88551   -5247.0417    4.3006541    4.3006541    4.3006541   -5247.0417    2015.2387   -34312.668    16556.304   -50491.294   -1029.4759    28312.673    79.543287 
   87400    990.32255   -114.78055   0.89606465   -113.88449   -45.174038    4.3069944    4.3069944    4.3069944   -45.174038   -400.47147   -12990.968    13255.917    490.96985    6152.1157    4442.7856    79.895613 
   87500     1556.307   -115.27954    1.4081793   -113.87136   -2673.3905    4.3114987    4.3114987    4.3114987   -2673.3905   -2745.2196   -438.78628   -4836.1654    26316.639     2405.808   -6741.3521    80.146538 
   87600    635.39311   -114.45913   0.57491704   -113.88421    8074.7166    4.2997376    4.2997376    4.2997376    8074.7166    4388.2291    1695.5942    18140.326   -43749.414   -3492.7303     19954.95    79.492447 
   87700    601.97248   -114.43209   0.54467735   -113.88741   -10676.924    4.3116852    4.3116852    4.3116852   -10676.924   -7530.1266   -19613.615   -4887.0316   -30400.495   -3525.1429    17778.071    80.156942 
   87800     1630.307   -115.34318     1.475136   -113.86805    2176.3083    4.3094723    4.3094723    4.3094723    2176.3083    3610.5157    17055.057   -14136.648    20809.107    3492.3442   -11250.422    80.033588 
   87900    1053.4842    -114.8303   0.95321464   -113.87708    5674.9794    4.3010736    4.3010736    4.3010736    5674.9794   -1630.3272   -1276.2453    19931.511    -23974.16    2520.8466    10356.609    79.566565 
   88000    547.37563   -114.37897   0.49527697    -113.8837   -13505.923    4.3082249    4.3082249    4.3082249   -13505.923   -1516.9095   -40973.325    1972.4647     -39730.2   -1674.3595    26720.094    79.964106 
   88100    1178.3316   -114.94116    1.0661792   -113.87498    3944.0185    4.3051264    4.3051264    4.3051264    3944.0185    21107.084    17415.104   -26690.133    9416.4496   -3550.3621   -8510.4334    79.791703 
   88200    1128.4594   -114.89473    1.0210538   -113.87368   -1344.3275    4.3088494    4.3088494    4.3088494   -1344.3275    -14792.37    14125.116   -3365.7286   -8415.7155    7903.8673   -10527.223    79.998886 
   88300    681.98605   -114.49561   0.61707531   -113.87853    -9770.064    4.3072779    4.3072779    4.3072779    -9770.064   -17632.818   -27076.459    15399.085   -45857.325    6303.2759    20637.078    79.911391 
   88400    1203.3017   -114.96139    1.0887726   -113.87261    10971.958    4.3004045    4.3004045    4.3004045    10971.958    36835.323    1829.3828   -5748.8328    1528.6259   -10632.487    5833.2916    79.529442 
   88500    1252.8828   -115.00514    1.1336346    -113.8715    2688.3424    4.3098603    4.3098603    4.3098603    2688.3424    7954.2406    7854.7358    -7743.949    620.32638     7341.431   -12234.944    80.055204 
   88600    534.52615   -114.36452    0.4836505   -113.88087   -1068.2679    4.3092284    4.3092284    4.3092284   -1068.2679     1660.935   -22669.426    17803.687   -49866.723    14978.527    4635.6971        80.02 
   88700    892.38724   -114.68435   0.80745072    -113.8769    1638.6882    4.3053864    4.3053864    4.3053864    1638.6882    17510.233    -19617.17    7023.0011   -1617.6698   -2710.4942    16529.113    79.806158 
   88800    1402.5171   -115.13675    1.2690269   -113.86773    7868.2521     4.303068     4.303068     4.303068    7868.2521    15860.064   -4167.5137    11912.206    29146.481   -2112.0709    1694.2792    79.677303 
   88900    863.67934   -114.65851   0.78147522   -113.87703   -2888.7924     4.307595     4.307595     4.307595   -2888.7924   -19637.023   -14141.962    25112.607   -53650.959    10160.191   -4362.7792    79.929039 
   89000    818.29299   -114.61454   0.74040869   -113.87413   -19162.856    4.3142722    4.3142722    4.3142722   -19162.856   -31932.939   -24161.942   -1393.6848   -28007.519    11842.537    10074.594    80.301312 
   89100    1331.4459   -115.07119    1.2047203   -113.86647    5434.5668    4.2986279    4.2986279    4.2986279    5434.5668    5210.6506   -841.21969     11934.27    43622.955   -4316.6819    8560.6069    79.430916 
   89200    913.10544    -114.7015   0.82619699    -113.8753    -3902.698    4.3015029    4.3015029    4.3015029    -3902.698   -32154.328   -19316.479    39762.712    -32701.37   -5018.7542   -2853.2873    79.590394 
   89300    871.49798    -114.6662   0.78854968   -113.87765   -16604.181    4.3122241    4.3122241    4.3122241   -16604.181   -38983.957   -14988.252     4159.666   -49175.458     16205.67    2411.2081       80.187 
   89400    1271.9743   -115.02156    1.1509091   -113.87065    940.00243    4.3070265    4.3070265    4.3070265    940.00243    6312.8339    8784.4247   -12277.251    21777.241    14853.457    9637.3413    79.897397 
   89500    1122.7023   -114.88796    1.0158447   -113.87212   -5134.7882    4.3041466    4.3041466    4.3041466   -5134.7882   -24784.873   -22593.668    31974.176   -13819.053   -5993.2607    3288.3199    79.737233 
   89600      824.072    -114.6224   0.74563767   -113.87677   -2170.5644    4.3025422    4.3025422    4.3025422   -2170.5644   -37459.149   -1929.4236    32876.879   -45991.529     6383.194   -2028.7386    79.648098 
   89700     1136.714   -114.90152    1.0285227     -113.873   -3410.8107    4.3105656    4.3105656    4.3105656   -3410.8107   -9504.1769    20727.567   -21455.822    4032.3379    23196.893    210.01241    80.094514 
   89800    1012.1094   -114.79035   0.91577787   -113.87457   -2894.0948    4.3075763    4.3075763    4.3075763   -2894.0948    -13594.22   -3380.9088    8292.8442   -5430.0493   -310.34139    4946.0471    79.927999 
   89900    873.83288   -114.66696   0.79066236    -113.8763     11597.88    4.2983082    4.2983082    4.2983082     11597.88   -20806.954    3503.5583    52097.037   -38671.559   -10780.791    533.65699    79.413194 
   90000    1466.8839   -115.19774    1.3272674   -113.87047    1783.8502    4.3093134    4.3093134    4.3093134    1783.8502   -11159.885    7476.6929    9034.7426    -3961.104    13721.916   -1987.2379    80.024734 
   90100    1140.3553   -114.90932    1.0318175    -113.8775    2704.7114    4.3073496    4.3073496    4.3073496    2704.7114     2432.432   -4023.6055    9705.3075    1145.3723    6659.3754     -3125.31    79.915382 
   90200    441.12091   -114.28753   0.39913547   -113.88839   -5981.1557     4.301617     4.301617     4.301617   -5981.1557   -28524.876   -17354.848    27936.257   -40633.496   -13343.526    1487.4142    79.596728 
   90300    1175.2315   -114.94542    1.0633741   -113.88204   -3476.5134    4.3076847    4.3076847    4.3076847   -3476.5134   -29423.595    5102.9299    13891.125   -11590.466   -12760.901    3377.6838    79.934034 
   90400    1499.1171   -115.22733    1.3564327    -113.8709    1074.8268    4.3101262    4.3101262    4.3101262    1074.8268    10074.308   -11510.819    4660.9918     8663.611    2952.6073   -12797.526    80.070022 
   90500    570.08842   -114.39702   0.51582798   -113.88119   -10498.951    4.3093939    4.3093939    4.3093939   -10498.951   -2490.1423   -41988.075    12981.364   -38872.752   -805.31854    1148.0761    80.029221 
   90600    927.24136   -114.71537   0.83898747   -113.87638   -2410.1575    4.3024817    4.3024817    4.3024817   -2410.1575   -22001.433   -5844.4554    20615.416   -28186.037   -20399.055    11117.766    79.644737 
   90700     1452.096   -115.18308     1.313887   -113.86919    9916.5635    4.3032435    4.3032435    4.3032435    9916.5635    2681.7987    11686.685    15381.207    14761.422    1446.7545   -7466.2916    79.687053 
   90800    834.44558   -114.63545    0.7550239   -113.88043   -8933.0366    4.3113401    4.3113401    4.3113401   -8933.0366   -3500.1515   -31705.001    8406.0431   -24067.242      11437.4   -3155.1109    80.137695 
   90900    649.74921   -114.46984   0.58790674   -113.88194   -1593.8616    4.3047702    4.3047702    4.3047702   -1593.8616    -12619.16   -28468.583    36306.158   -41393.636   -10024.392    10274.397    79.771897 
   91000    1323.2072   -115.06857    1.1972657   -113.87131    8728.4806    4.3027391    4.3027391    4.3027391    8728.4806   -5243.0967    9963.2362    21465.302    19901.295    -1266.817    3962.4887    79.659034 
   91100    967.12395   -114.75092   0.87507407   -113.87585   -1436.5161    4.3082714    4.3082714    4.3082714   -1436.5161    -22658.94    3201.3451    15148.047   -1336.5458    9587.8201   -5329.1298    79.966699 
   91200    659.45162   -114.47716   0.59668569   -113.88048   -562.79279    4.3065317    4.3065317    4.3065317   -562.79279   -22373.249   -21621.446    42306.316   -56523.762    3638.7383    4220.3374    79.869863 
   91300    1315.7574   -115.06074    1.1905249   -113.87022      5646.96    4.3071146    4.3071146    4.3071146      5646.96   -2404.9161    2744.7977    16600.998    3537.4354   -3497.1411    4835.9621    79.902301 
   91400    1167.7895   -114.93015    1.0566404   -113.87351   -24.468573    4.3058447    4.3058447    4.3058447   -24.468573   -27649.362    10110.038    17465.919     24440.49     2140.151   -2210.9693    79.831649 
   91500    339.49877   -114.19387   0.30718562   -113.88668   -3145.6671    4.3033988    4.3033988    4.3033988   -3145.6671   -53032.641   -2522.4309     46118.07   -50290.769    10128.277    -98.13742    79.695682 
   91600    1107.7773   -114.88305    1.0023402   -113.88071    182.70178     4.308614     4.308614     4.308614    182.70178   -23295.602    12349.021    11494.686   -23152.136   -4247.5074    2820.4907    79.985775 
   91700    1539.6158   -115.26406    1.3930767   -113.87099    4243.2226    4.3072214    4.3072214    4.3072214    4243.2226   -16071.316    23366.031    5434.9528    16948.544   -9094.7688    1650.4305    79.908245 
   91800    680.19041   -114.49976   0.61545058   -113.88431   -414.02994    4.3010802    4.3010802    4.3010802   -414.02994   -46254.357   -8892.4335      53904.7   -43950.993    8548.3899   -2077.2716    79.566936 
   91900    763.06126   -114.57326   0.69043387   -113.88283   -1631.8321    4.3065901    4.3065901    4.3065901   -1631.8321   -38835.346    9081.4325    24858.417   -22094.405   -466.91739    853.88532    79.873112 
   92000    1331.0089   -115.07411    1.2043249   -113.86978   -3606.7103    4.3112254    4.3112254    4.3112254   -3606.7103   -26828.411    30723.705   -14715.426    12940.329   -21844.545    2056.7007    80.131299 
   92100    882.04334   -114.67312   0.79809135   -113.87503     563.4514    4.3025908    4.3025908    4.3025908     563.4514   -40610.182    3131.3562     39169.18   -46521.706    -7696.813   -337.43421    79.650798 
   92200    931.13443   -114.71776      0.84251   -113.87525    4752.9255    4.3020689    4.3020689    4.3020689    4752.9255   -35814.367   -4751.9851    54825.129   -17952.525     5187.668     667.0704    79.621815 
   92300    1130.7713   -114.89385    1.0231456    -113.8707   -4988.9334    4.3102499    4.3102499    4.3102499   -4988.9334    -36252.12    15085.003    6200.3162    32319.324   -16365.307    -1014.576    80.076916 
   92400    999.84332   -114.77704   0.90467925   -113.87236    -782.6109    4.3059693    4.3059693    4.3059693    -782.6109   -35748.486    18640.613     14760.04    -29541.15   -11591.867    1743.5381    79.838579 
   92500     949.6883    -114.7324   0.85929793   -113.87311   -1696.1181    4.3031805    4.3031805    4.3031805   -1696.1181   -38847.904   -9735.2191    43494.768   -19382.104    7142.8726   -1437.8213    79.683554 
   92600      882.815   -114.67479   0.79878956     -113.876   -4267.0941    4.3049853    4.3049853    4.3049853   -4267.0941   -44632.829   -7675.1066    39506.653    54151.712   -6137.6013   -1108.7845    79.783858 
   92700    1317.2736   -115.06295    1.1918968   -113.87106    2605.4765    4.3052145    4.3052145    4.3052145    2605.4765   -23128.103    26873.425    4071.1075    2011.0785   -11432.373   -2139.8902    79.796601 
   92800    1038.3493   -114.81441    0.9395203   -113.87489   -8865.5934    4.3095901    4.3095901    4.3095901   -8865.5934   -41186.153    9937.3292    4652.0434   -12920.801    4417.5964     -2744.68    80.040152 
   92900    392.09274   -114.24215   0.35477375   -113.88738   -11161.255    4.3025331    4.3025331    4.3025331   -11161.255   -66452.641   -16064.588    49033.464    58211.604    7228.9536    2669.9804    79.647594 
   93000    1315.6742   -115.07321    1.1904497   -113.88276    10580.116      4.30067      4.30067      4.30067    10580.116   -21658.507    32712.837    20686.019    10916.576   -2227.3942   -2191.0013    79.544169 
   93100    1650.6909   -115.36824    1.4935798   -113.87466   -736.67841    4.3118979    4.3118979    4.3118979   -736.67841    -19284.33    27446.162   -10371.867   -476.28551   -931.50055    370.88717    80.168805 
   93200    435.47782    -114.2865   0.39402948   -113.89247   -9092.7006    4.3052694    4.3052694    4.3052694   -9092.7006   -62381.245     2112.184    32990.959    62714.549    8321.6025    2080.7852     79.79965 
   93300    693.07222   -114.51524   0.62710631   -113.88814   -4025.2742    4.2999826    4.2999826    4.2999826   -4025.2742   -44836.612   -1960.0419    34720.832    -6874.524    3355.9146   -1537.8229    79.506032 
   93400    1461.2157   -115.19603    1.3221387   -113.87389   -227.31441    4.3069774    4.3069774    4.3069774   -227.31441   -18351.407    14600.729    3068.7351   -31946.479   -6093.6119    3661.4084    79.894667 
   93500     1117.959   -114.88761    1.0115528   -113.87605   -4579.5041     4.308846     4.308846     4.308846   -4579.5041   -27288.275   -4511.3855    18061.148    54550.358   -2411.2144   -4339.2641    79.998701 
   93600    755.82449   -114.56304   0.68388588   -113.87916   -6957.7975    4.3037078    4.3037078    4.3037078   -6957.7975   -39502.852   -15786.214    34415.674    4285.1766    6981.8588   -1402.1953    79.712852 
   93700    865.82647   -114.66108   0.78341799   -113.87766    -1131.816    4.3008737    4.3008737    4.3008737    -1131.816    -33906.72    10895.929    19615.343   -51761.137    193.83047    1693.4948    79.555475 
   93800    1166.6247   -114.92968    1.0555866   -113.87409   -1882.0601    4.3084488    4.3084488    4.3084488   -1882.0601   -15918.239    11863.619   -1591.5608    16265.364    -21121.03   -7363.1202    79.976579 
   93900    1117.4161   -114.88403    1.0110616   -113.87297   -2690.8657     4.310152     4.310152     4.310152   -2690.8657   -22971.127   -6419.5128    21318.043    11065.313    923.05709    1852.6556    80.071464 
   94000    786.82904   -114.58889   0.71193945   -113.87695    697.91337    4.2991102    4.2991102    4.2991102    697.91337   -38835.351    2117.2574    38811.833   -45252.568     7199.983   -230.43731    79.457653 
   94100    838.74599   -114.63719     0.758915   -113.87827   -1335.5353    4.3039059    4.3039059    4.3039059   -1335.5353   -23505.001    27549.691   -8051.2962    -9458.601    -28839.51    1159.8338    79.723858 
   94200    1087.7248   -114.85662   0.98419629   -113.87242   -7047.4657    4.3117117    4.3117117    4.3117117   -7047.4657   -25293.282    7633.2194   -3482.3346    7562.2603   -13801.063    3093.7771    80.158417 
   94300    933.39108   -114.71894   0.84455187   -113.87439    6001.0462    4.3022516    4.3022516    4.3022516    6001.0462   -20699.636   -11587.595     50290.37   -39873.076     9940.707   -4589.3468     79.63196 
   94400    1021.8645   -114.79827   0.92460452   -113.87367    2366.5752    4.3028187    4.3028187    4.3028187    2366.5752   -24100.591    8903.6942    22296.622   -15497.377   -21103.177    2248.5031    79.663454 
   94500    1124.6788   -114.88911     1.017633   -113.87147    1510.7996    4.3073658    4.3073658    4.3073658    1510.7996   -22810.944    17675.157    9668.1858    9867.3103   -25370.145   -5387.1165     79.91628 
   94600    496.53129   -114.33151   0.44927195   -113.88224   -1783.4432    4.3060474    4.3060474    4.3060474   -1783.4432   -17541.571   -16730.208    28921.449   -34402.599    12716.038   -1939.8616    79.842923 
   94700    898.22827   -114.69725   0.81273582   -113.88451   -4874.1826    4.3060757    4.3060757    4.3060757   -4874.1826   -20358.366   -17163.907    22899.725    -24065.86    6070.2487    491.95188    79.844494 
   94800    1779.2358   -115.47954      1.60989   -113.86965    14062.404    4.3027227    4.3027227    4.3027227    14062.404   -2950.5528    19216.383    25921.382    11879.256   -9719.2395   -1017.0849    79.658125 
   94900    649.16054   -114.47903    0.5873741   -113.89165    -13048.71    4.3119712    4.3119712    4.3119712    -13048.71   -20099.532   -28383.067    9336.4678   -27868.327    3501.7562    1473.9918    80.172893 
   95000    325.93411    -114.1859   0.29491203   -113.89098     -15792.4    4.3119783    4.3119783    4.3119783     -15792.4    -35471.36     -18183.4     6277.561   -32416.997    19571.831   -1458.8751    80.173287 
   95100    1622.3622    -115.3391    1.4679474   -113.87116     14044.34    4.3007427    4.3007427    4.3007427     14044.34   -8002.6202    27928.148    22207.492    11590.942    3606.0968    1748.1052    79.548204 
   95200    1247.7088   -115.00551    1.1289531   -113.87655    1575.2746    4.3047891    4.3047891    4.3047891    1575.2746   -12280.117   -11628.353    28634.294   -17965.714   -13347.182    1940.7996    79.772948 
   95300    671.22072   -114.49133   0.60733461     -113.884   -7193.6295    4.3067279    4.3067279    4.3067279   -7193.6295   -27505.548   -22937.457    28862.117   -37103.713     17623.23     3720.633    79.880781 
   95400    1078.5557   -114.85328   0.97589987   -113.87738   -388.72277    4.3062397    4.3062397    4.3062397   -388.72277   -25423.166    20695.457    3561.5413    5603.4759    5334.5773    -7505.099    79.853616 
   95500    1071.1361   -114.84459   0.96918641   -113.87541   -2822.8211    4.3055386    4.3055386    4.3055386   -2822.8211   -34717.686    21814.753      4434.47    -7468.658   -28201.854   -1092.1479     79.81462 
   95600    928.92904   -114.71821   0.84051451    -113.8777    1402.8995    4.3010939    4.3010939    4.3010939    1402.8995     -33607.2   -5725.7602    43541.659   -38705.995   -4500.0533    5683.5327    79.567696 
   95700     1211.141   -114.96882    1.0958658   -113.87295   -980.37502    4.3082852    4.3082852    4.3082852   -980.37502    -20880.31    883.19652    17055.988    -2366.023    8087.8411    -6872.307    79.967467 
   95800    1033.0868   -114.80964   0.93475862   -113.87488   -7274.6385    4.3097805    4.3097805    4.3097805   -7274.6385   -40422.508    31738.637   -13140.044    6248.2054   -23805.166    3169.3872    80.050757 
   95900    757.40622   -114.56295   0.68531707   -113.87763    1112.2148    4.2992404    4.2992404    4.2992404    1112.2148   -45265.525     16802.02     31800.15   -39570.411   -18912.364    47.109431    79.464873 
   96000    1075.2863   -114.84997   0.97294167   -113.87703   -164.51659    4.3039529    4.3039529    4.3039529   -164.51659   -29687.032   -14209.419    43402.901   -2174.0865     9986.501   -1782.7134    79.726469 
   96100    1113.6394   -114.88192    1.0076443   -113.87428   -6471.2488    4.3103813    4.3103813    4.3103813   -6471.2488   -32244.757    4322.3063    8508.7041    33033.196   -17015.689   -747.38884    80.084243 
   96200    1139.3602   -114.90449     1.030917   -113.87358     937.0226    4.3032764    4.3032764    4.3032764     937.0226   -32693.442    29580.661     5923.849   -27141.877   -18399.753   -4441.1994    79.688882 
   96300    758.09042   -114.56453   0.68593614    -113.8786   -4323.2668    4.3037852    4.3037852    4.3037852   -4323.2668    -43874.63   -4229.2122    35134.042   -9766.2536    8587.5113      3822.58    79.717152 
   96400    833.16995   -114.63496   0.75386968   -113.88109   -7712.0668    4.3059767    4.3059767    4.3059767   -7712.0668   -49120.361   -6836.6719    32820.832    52684.269   -200.09756   -1340.0369     79.83899 
   96500    1526.3115   -115.25291    1.3810387   -113.87187    9443.7849    4.3059455    4.3059455    4.3059455    9443.7849    -15289.74    44363.192   -742.09804    2746.5597    -10526.92    583.31071    79.837254 
   96600    1175.2679   -114.94521     1.063407   -113.88181   -2037.0898    4.3050607    4.3050607    4.3050607   -2037.0898   -33641.844    18449.536    9081.0387   -7436.1186   -1796.2317    8079.9828    79.788046 
   96700    211.75949   -114.08763   0.19160444   -113.89602   -8176.1427    4.3023506    4.3023506    4.3023506   -8176.1427   -73317.307    1751.3745    47037.504    51751.426    8893.7154   -2785.2721    79.637461 
   96800    1304.7842   -115.06891    1.1805962   -113.88832   -3591.4139    4.3075725    4.3075725    4.3075725   -3591.4139   -39745.466    19269.565    9701.6597    6498.9459    5276.7605    590.01702    79.927789 
   96900      1618.34   -115.33966     1.464308   -113.87535    5446.1687    4.3073743    4.3073743    4.3073743    5446.1687   -10252.317    32945.778   -6354.9544   -1070.1775   -3349.6905    4823.7903    79.916756 
   97000    708.59426   -114.52854   0.64115098   -113.88739   -10678.215    4.3027173    4.3027173    4.3027173   -10678.215   -52293.829   -13327.683    33586.868     56348.47    2589.3789   -90.691788    79.657822 
   97100    865.02451   -114.66595   0.78269235   -113.88326   -5930.1972    4.3029609    4.3029609    4.3029609   -5930.1972    -47381.44   -871.63307    30462.482    3634.6511    8917.4171    732.62248    79.671352 
   97200    1356.3167   -115.10068    1.2272239   -113.87345    -3223.228    4.3077369    4.3077369    4.3077369    -3223.228   -22399.864    16390.584   -3660.4043   -24565.901     -8215.71   -307.68122    79.936936 
   97300    810.19809   -114.61346   0.73308426   -113.88037   -9462.5628    4.3082447    4.3082447    4.3082447   -9462.5628   -26705.697   -15043.916    13361.925    44571.626   -10593.667    3561.2051    79.965212 
   97400    1055.7984   -114.83273   0.95530855   -113.87742    1997.9143    4.3013521    4.3013521    4.3013521    1997.9143   -21054.315    -13132.85    40180.908    22426.148    6517.3719   -557.44077    79.582023 
   97500    1529.0742   -115.25308    1.3835385   -113.86954    6185.1828     4.306247     4.306247     4.306247    6185.1828   -15514.613    15535.842     18534.32   -25204.525   -3993.4761   -3752.6044    79.854022 
   97600    717.29759   -114.53212   0.64902594    -113.8831   -5718.5973    4.3111646    4.3111646    4.3111646   -5718.5973   -14889.761   -16428.686    14162.655    22027.242   -15645.773     2583.581    80.127908 
   97700    510.96117   -114.34969    0.4623284   -113.88736   -4010.1559    4.3035499    4.3035499    4.3035499   -4010.1559   -3010.3208   -33935.961    24915.814    40216.917   -4782.3792   -29.704127    79.704074 
   97800    1589.1507   -115.31369    1.4378969   -113.87579    11935.939    4.3029689    4.3029689    4.3029689    11935.939    9824.2895    7255.1773     18728.35   -9009.1721    5841.0062   -2613.6278      79.6718 
   97900    1363.1758   -115.11346    1.2334301   -113.88003     1999.579    4.3095494    4.3095494    4.3095494     1999.579   -14622.672   -5225.5104    25846.919    8885.7921   -4988.9189    3753.8541    80.037881 
   98000    355.79446   -114.21151   0.32193031   -113.88958   -14342.201    4.3101896    4.3101896    4.3101896   -14342.201   -11669.245   -39304.676    7947.3168    45223.887   -13222.697    5184.1047    80.073559 
   98100    936.18843   -114.72608   0.84708296     -113.879   -725.72893     4.304972     4.304972     4.304972   -725.72893    17173.432   -12115.678   -7234.9411    1193.0871    8165.9814   -3462.6975    79.783115 
   98200    1322.4002   -115.06585    1.1965355   -113.86932    1874.2342    4.3043125    4.3043125    4.3043125    1874.2342    -13701.05    1852.2259    17471.527   -7632.7788    14059.737   -4055.8894    79.746456 
   98300    910.63787   -114.69956   0.82396428    -113.8756   -1749.2099    4.3053631    4.3053631    4.3053631   -1749.2099   -23625.538   -15811.041    34188.949      31116.3   -8143.2637    8118.6429     79.80486 
   98400    902.06518   -114.69115   0.81620753   -113.87495    2667.1042    4.3069062    4.3069062    4.3069062    2667.1042     13165.14   -15566.801    10402.974    14661.871     852.7873    5022.3103    79.890702 
   98500    958.31603   -114.74196   0.86710449   -113.87485    141.16885    4.3064088    4.3064088    4.3064088    141.16885   -9291.3654   -159.66263    9874.5346   -17809.936    18459.155   -7226.8418    79.863027 
   98600     806.0078   -114.60633    0.7292928   -113.87703    4518.4291     4.301753     4.301753     4.301753    4518.4291    -33719.37    5421.9105    41852.747    2110.4012    9626.4528   -1796.5044    79.604278 
   98700    928.55724   -114.71731    0.8401781   -113.87713    473.46551    4.3058878    4.3058878    4.3058878    473.46551   -11456.888   -10161.153    23038.438    22807.115   -8896.0101    10050.264    79.834043 
   98800    1078.5022   -114.84973   0.97585143   -113.87388   -116.96317    4.3092094    4.3092094    4.3092094   -116.96317    4169.4701    76.242432   -4596.6021   -3870.5968   -3596.8644    5751.9617    80.018938 
   98900    1092.0292   -114.86124   0.98809097   -113.87315    1594.4192    4.3038431    4.3038431    4.3038431    1594.4192   -24482.313   -29.583744    29295.154    -26106.52    13559.893   -6042.1912     79.72037 
   99000    706.07575   -114.51699   0.63887217   -113.87812   -5844.3018    4.3044651    4.3044651    4.3044651   -5844.3018   -32473.243    -11665.47    26605.808     4793.291    -4744.708    7033.3689    79.754936 
   99100    837.23675   -114.63517   0.75754941   -113.87762   -6831.8174    4.3089461    4.3089461    4.3089461   -6831.8174   -7721.2979    3815.6332   -16589.787    19219.246   -21891.486    20029.959    80.004275 
   99200    1316.5533   -115.06028    1.1912451   -113.86904    127.78703    4.3071963    4.3071963    4.3071963    127.78703   -16509.647    3985.2276     12907.78   -26048.976   -705.90493      1590.33    79.906846 
   99300    968.90791   -114.75047   0.87668824   -113.87378    52.596971    4.3045919    4.3045919    4.3045919    52.596971   -35560.003   -2317.8724    38035.666   -15354.616    1987.5893   -7524.8568    79.761987 
   99400    695.04485   -114.50891   0.62889119   -113.88002   -5955.5192    4.3039392    4.3039392    4.3039392   -5955.5192   -25683.929    3552.7062    4264.6657    28150.178   -18262.431    22463.353    79.725709 
   99500    1109.6383   -114.88093     1.004024    -113.8769      2664.21    4.3051617    4.3051617    4.3051617      2664.21   -11521.814    17485.265    2029.1793   -887.84799   -9514.4508    17204.193    79.793665 
   99600    1342.6362   -115.08653    1.2148455   -113.87169   -2508.2735     4.309943     4.309943     4.309943   -2508.2735   -32695.714     7917.278    17253.616   -17960.556    9635.5352   -10915.249    80.059812 
   99700    687.98138   -114.50097   0.62250001   -113.87847   -5572.9319     4.308013     4.308013     4.308013   -5572.9319   -30209.486   -13373.317    26864.007     23568.64   -6703.7858    13472.749    79.952312 
   99800    807.07784   -114.60511   0.73026099   -113.87485   -411.68666    4.3053149    4.3053149    4.3053149   -411.68666   -6294.4954     7046.869   -1987.4336    13583.667   -11455.475    23386.951    79.802179 
   99900    1438.6738   -115.16847    1.3017423   -113.86673   -908.34248     4.309611     4.309611     4.309611   -908.34248   -10209.123    26156.095       -18672   -9390.5439    13486.772   -10705.093    80.041317 
  100000    1252.6094   -115.00655    1.1333873   -113.87316    3617.2526    4.3030456    4.3030456    4.3030456    3617.2526   -21616.568    15414.324    17054.001    21022.632    2297.3776   -435.76004    79.676058 
Loop time of 22.3072 on 1 procs for 100000 steps with 8 atoms

Pair  time (%) = 7.11219 (31.883)
Kspce time (%) = 5.3597 (24.0268)
Neigh time (%) = 0 (0)
Comm  time (%) = 1.07272 (4.80887)
Outpt time (%) = 0.0259128 (0.116163)
Other time (%) = 8.73664 (39.1652)

Nlocal:    8 ave 8 max 8 min
Histogram: 1 0 0 0 0 0 0 0 0 0
Nghost:    2189 ave 2189 max 2189 min
Histogram: 1 0 0 0 0 0 0 0 0 0
Neighs:    2344 ave 2344 max 2344 min
Histogram: 1 0 0 0 0 0 0 0 0 0

Total # of neighbors = 2344
Ave neighs/atom = 293
Neighbor list builds = 0
Dangerous builds = 0
unfix 20
unfix 21
print "seeds:6278530"
seeds:6278530
