LAMMPS (16 Mar 2018)
# ---- initialize simulations
clear
units metal
dimension 3
boundary p p p
atom_style charge
atom_modify map array
# ---- create atoms
read_data /home/manuelesp/repos/pypospack/dev/MgO_iterative_sampler/rank_1/MgO_NaCl_fr_a.lmps_min_pos/lammps.structure
  triclinic box = (0 0 0) to (14.142 14.142 14.142) with tilt (0 0 0)
  1 by 1 by 1 MPI processor grid
  reading atoms ...
  216 atoms
# ---- define interatomic potential
include potential.mod
mass 1 24.305
mass 2 15.999

group Mg type 1
108 atoms in group Mg
group O type 2
108 atoms in group O

set group Mg charge 1.6102951165102182
  108 settings made for charge
set group O charge -1.6102951165102182
  108 settings made for charge

variable R_cut equal 10.0

pair_style buck/coul/long ${R_cut}
pair_style buck/coul/long 10
pair_coeff 1 1 0.0 0.5 0.0 ${R_cut}
pair_coeff 1 1 0.0 0.5 0.0 10
pair_coeff 1 2 872.8291467350588 0.29889716378497794 0.0 ${R_cut}
pair_coeff 1 2 872.8291467350588 0.29889716378497794 0.0 10
pair_coeff 2 2 3727.0736816732065 0.3476815772257621 63.9105328410665 ${R_cut}
pair_coeff 2 2 3727.0736816732065 0.3476815772257621 63.9105328410665 10

kspace_style pppm 1.0e-5

neighbor 1.0 bin
neigh_modify every 1 delay 0 check yes
# ---- define settings
compute eng all pe/atom
compute eatoms all reduce sum c_eng

# ---- run minimization
reset_timestep 0
thermo 1
thermo_style custom step pe lx ly lz xy xz yz press pxx pyy pzz pxy pxz pyz c_eatoms
min_style cg
minimize 1e-20 1e-20 1000 100000
PPPM initialization ...
  using 12-bit tables for long-range coulomb (../kspace.cpp:321)
  G vector (1/distance) = 0.338487
  grid = 20 20 20
  stencil order = 5
  estimated absolute RMS force accuracy = 9.69911e-05
  estimated relative force accuracy = 6.73566e-06
  using double precision FFTs
  3d grid and FFT values/proc = 19683 8000
Neighbor list info ...
  update every 1 steps, delay 0 steps, check yes
  max neighbors/atom: 2000, page size: 100000
  master list distance cutoff = 11
  ghost atom cutoff = 11
  binsize = 5.5, bins = 3 3 3
  1 neighbor lists, perpetual/occasional/extra = 1 0 0
  (1) pair buck/coul/long, perpetual
      attributes: half, newton on
      pair build: half/bin/newton/tri
      stencil: half/bin/3d/newton/tri
      bin: standard
Per MPI rank memory allocation (min/avg/max) = 7.198 | 7.198 | 7.198 Mbytes
Step PotEng Lx Ly Lz Xy Xz Yz Press Pxx Pyy Pzz Pxy Pxz Pyz c_eatoms 
       0    -2585.667       14.142       14.142       14.142            0            0            0    63464.567    63464.567    63464.567    63464.567   -719.13769   -719.13769   -719.13769    -2585.667 
       1   -2608.2398       14.142       14.142       14.142            0            0            0    49125.734    49125.734    49125.734    49125.734   -458.70446   -458.70446   -458.70446   -2608.2398 
       2   -2622.3966       14.142       14.142       14.142            0            0            0    41662.894    41662.894    41662.894    41662.894   -81.938384   -81.938384   -81.938384   -2622.3966 
       3   -2630.3412       14.142       14.142       14.142            0            0            0    39611.043    39611.043    39611.043    39611.043     328.9769     328.9769     328.9769   -2630.3412 
       4   -2633.4578       14.142       14.142       14.142            0            0            0    40702.846    40702.846    40702.846    40702.846    517.78599    517.78599    517.78599   -2633.4578 
       5   -2634.9256       14.142       14.142       14.142            0            0            0    39879.491    39879.491    39879.491    39879.491    117.62732    117.62732    117.62732   -2634.9256 
       6   -2635.5875       14.142       14.142       14.142            0            0            0     41953.53     41953.53     41953.53     41953.53   -104.62456   -104.62456   -104.62456   -2635.5875 
       7   -2635.9061       14.142       14.142       14.142            0            0            0     43176.75     43176.75     43176.75     43176.75    9.4502875    9.4502875    9.4502875   -2635.9061 
       8   -2636.1067       14.142       14.142       14.142            0            0            0    43512.168    43512.168    43512.168    43512.168   -282.95547   -282.95547   -282.95547   -2636.1067 
       9   -2636.2516       14.142       14.142       14.142            0            0            0    44737.382    44737.382    44737.382    44737.382   -213.25769   -213.25769   -213.25769   -2636.2516 
      10   -2636.3343       14.142       14.142       14.142            0            0            0    45518.791    45518.791    45518.791    45518.791    -383.7841    -383.7841    -383.7841   -2636.3343 
      11   -2636.4143       14.142       14.142       14.142            0            0            0    46563.057    46563.057    46563.057    46563.057   -333.85816   -333.85816   -333.85816   -2636.4143 
      12   -2636.4603       14.142       14.142       14.142            0            0            0    47312.805    47312.805    47312.805    47312.805   -439.97659   -439.97659   -439.97659   -2636.4603 
      13   -2636.5119       14.142       14.142       14.142            0            0            0    48039.051    48039.051    48039.051    48039.051   -520.53712   -520.53712   -520.53712   -2636.5119 
      14   -2636.5585       14.142       14.142       14.142            0            0            0      49059.9      49059.9      49059.9      49059.9   -626.66151   -626.66151   -626.66151   -2636.5585 
      15   -2636.6078       14.142       14.142       14.142            0            0            0    50250.377    50250.377    50250.377    50250.377   -629.01599   -629.01599   -629.01599   -2636.6078 
      16   -2636.6756       14.142       14.142       14.142            0            0            0    51995.154    51995.154    51995.154    51995.154   -515.97385   -515.97385   -515.97385   -2636.6756 
      17   -2636.7474       14.142       14.142       14.142            0            0            0    54170.271    54170.271    54170.271    54170.271   -207.27829   -207.27829   -207.27829   -2636.7474 
      18    -2636.854       14.142       14.142       14.142            0            0            0    57883.734    57883.734    57883.734    57883.734    504.89441    504.89441    504.89441    -2636.854 
      19   -2637.0116       14.142       14.142       14.142            0            0            0    63866.908    63866.908    63866.908    63866.908    1726.4931    1726.4931    1726.4931   -2637.0116 
      20   -2637.2346       14.142       14.142       14.142            0            0            0     72500.57     72500.57     72500.57     72500.57    3953.2112    3953.2112    3953.2112   -2637.2346 
      21   -2637.5961       14.142       14.142       14.142            0            0            0    84240.342    84240.342    84240.342    84240.342    6922.4233    6922.4233    6922.4233   -2637.5961 
      22   -2637.9821       14.142       14.142       14.142            0            0            0    97391.121    97391.121    97391.121    97391.121    10619.024    10619.024    10619.024   -2637.9821 
      23   -2638.6746       14.142       14.142       14.142            0            0            0     113792.3     113792.3     113792.3     113792.3    14209.034    14209.034    14209.034   -2638.6746 
      24   -2639.3924       14.142       14.142       14.142            0            0            0    127506.13    127506.13    127506.13    127506.13    18140.579    18140.579    18140.579   -2639.3924 
      25    -2639.964       14.142       14.142       14.142            0            0            0     139084.7     139084.7     139084.7     139084.7    19924.762    19924.762    19924.761    -2639.964 
      26   -2640.5782       14.142       14.142       14.142            0            0            0    140809.79    140809.79    140809.79    140809.79    20267.237    20267.237    20267.237   -2640.5782 
      27   -2641.3129       14.142       14.142       14.142            0            0            0    144455.18    144455.18    144455.18    144455.18    21969.134    21969.134    21969.134   -2641.3129 
      28   -2641.8424       14.142       14.142       14.142            0            0            0    147986.11    147986.11    147986.11    147986.11    22340.061    22340.061    22340.061   -2641.8424 
      29   -2642.3807       14.142       14.142       14.142            0            0            0    152279.29    152279.29    152279.29    152279.29    23503.914    23503.914    23503.914   -2642.3807 
      30   -2642.7374       14.142       14.142       14.142            0            0            0    156510.64    156510.64    156510.64    156510.64    24359.072    24359.072    24359.072   -2642.7374 
      31   -2642.9442       14.142       14.142       14.142            0            0            0    159885.39     159885.4    159885.39    159885.39    25283.667    25283.667    25283.666   -2642.9442 
      32   -2643.0805       14.142       14.142       14.142            0            0            0    163424.16    163424.16    163424.17    163424.17    25321.015    25321.014    25321.016   -2643.0805 
      33   -2643.2259       14.142       14.142       14.142            0            0            0    168540.17    168540.17    168540.17    168540.17    25679.353    25679.353    25679.353   -2643.2259 
      34   -2643.3754       14.142       14.142       14.142            0            0            0    174795.43    174795.43    174795.43    174795.43    25510.177    25510.177    25510.178   -2643.3754 
      35   -2643.5678       14.142       14.142       14.142            0            0            0    184385.78    184385.77    184385.78    184385.78    25430.206    25430.206    25430.208   -2643.5678 
      36   -2644.0858       14.142       14.142       14.142            0            0            0    200143.46    200143.46    200143.46    200143.47     24077.44    24077.438    24077.439   -2644.0858 
      37   -2645.5414       14.142       14.142       14.142            0            0            0    217351.28     217351.3    217351.28    217351.27    20579.788    20579.792    20579.793   -2645.5414 
      38   -2648.2902       14.142       14.142       14.142            0            0            0    228747.75    228747.77    228747.74    228747.74    16755.499    16755.497    16755.503   -2648.2902 
      39   -2653.2849       14.142       14.142       14.142            0            0            0    231512.03    231512.04    231512.03    231512.02    13498.964    13498.968    13498.971   -2653.2849 
      40   -2660.1591       14.142       14.142       14.142            0            0            0    225341.85    225341.85    225341.86    225341.85    10834.689    10834.685    10834.686   -2660.1591 
      41   -2664.4182       14.142       14.142       14.142            0            0            0    219797.57    219797.58    219797.56    219797.56    11929.386    11929.389    11929.386   -2664.4182 
      42   -2666.8792       14.142       14.142       14.142            0            0            0    216061.22    216061.23    216061.22    216061.22    12176.035    12176.033     12176.03   -2666.8792 
      43   -2670.2725       14.142       14.142       14.142            0            0            0    210437.28    210437.27    210437.28    210437.28    9772.4046    9772.4038     9772.401   -2670.2725 
      44   -2672.6961       14.142       14.142       14.142            0            0            0    208237.82    208237.82    208237.82    208237.82    9231.1427      9231.14    9231.1436   -2672.6961 
      45   -2674.5015       14.142       14.142       14.142            0            0            0    206672.21    206672.22    206672.21    206672.21    6679.7401    6679.7431    6679.7444   -2674.5015 
      46    -2676.069       14.142       14.142       14.142            0            0            0    205867.14    205867.15    205867.14    205867.14    6737.3625    6737.3631    6737.3636    -2676.069 
      47   -2676.7892       14.142       14.142       14.142            0            0            0    205545.75    205545.75    205545.75    205545.75    7200.0216    7200.0157    7200.0236   -2676.7892 
      48   -2677.2474       14.142       14.142       14.142            0            0            0    205278.12    205278.12    205278.12    205278.13    6244.1439     6244.144    6244.1422   -2677.2474 
      49   -2677.9659       14.142       14.142       14.142            0            0            0    205140.36    205140.36    205140.36    205140.36    6449.8549    6449.8502    6449.8494   -2677.9659 
      50    -2678.321       14.142       14.142       14.142            0            0            0     204883.7     204883.7     204883.7     204883.7    6229.8931    6229.8859    6229.8865    -2678.321 
      51   -2678.4718       14.142       14.142       14.142            0            0            0    204803.12    204803.12    204803.12    204803.12    6688.7943    6688.7941    6688.7893   -2678.4718 
      52   -2678.5878       14.142       14.142       14.142            0            0            0    204721.98    204721.99    204721.98    204721.98    6434.7641    6434.7623    6434.7659   -2678.5878 
      53   -2678.6369       14.142       14.142       14.142            0            0            0    204712.89    204712.89    204712.88    204712.89    6525.4211    6525.4158    6525.4185   -2678.6369 
      54   -2678.6697       14.142       14.142       14.142            0            0            0    204598.78    204598.78    204598.78    204598.78    6122.1418    6122.1354    6122.1375   -2678.6697 
      55   -2678.6927       14.142       14.142       14.142            0            0            0    204508.94    204508.94    204508.94    204508.94    6028.9904     6028.985    6028.9884   -2678.6927 
      56   -2678.7113       14.142       14.142       14.142            0            0            0    204412.26    204412.26    204412.26    204412.26    5777.1546    5777.1459    5777.1499   -2678.7113 
      57   -2678.7194       14.142       14.142       14.142            0            0            0    204310.45    204310.45    204310.45    204310.45    5728.9346    5728.9309    5728.9317   -2678.7194 
      58   -2678.7253       14.142       14.142       14.142            0            0            0    204208.97    204208.97    204208.97    204208.97    5498.9543    5498.9474    5498.9508   -2678.7253 
      59   -2678.7292       14.142       14.142       14.142            0            0            0    204169.48    204169.49    204169.48    204169.49    5446.4708    5446.4587    5446.4681   -2678.7292 
      60   -2678.7333       14.142       14.142       14.142            0            0            0    204132.89    204132.89    204132.89    204132.89    5348.2352    5348.2269    5348.2335   -2678.7333 
      61   -2678.7348       14.142       14.142       14.142            0            0            0    204114.43    204114.43    204114.42    204114.43     5354.777    5354.7661    5354.7677   -2678.7348 
      62   -2678.7362       14.142       14.142       14.142            0            0            0    204077.04    204077.03    204077.03    204077.04    5243.4317    5243.4099     5243.419   -2678.7362 
      63    -2678.738       14.142       14.142       14.142            0            0            0    204024.57    204024.57    204024.57    204024.58    5193.4738    5193.4544    5193.4631    -2678.738 
      64   -2678.7389       14.142       14.142       14.142            0            0            0    203982.26    203982.26    203982.26    203982.26    5097.5031    5097.4819    5097.4922   -2678.7389 
      65   -2678.7398       14.142       14.142       14.142            0            0            0    203947.42    203947.43    203947.42    203947.42    5076.3049    5076.2752    5076.2878   -2678.7398 
      66   -2678.7404       14.142       14.142       14.142            0            0            0    203901.53    203901.53    203901.53    203901.54    4995.4728    4995.4455     4995.454   -2678.7404 
      67   -2678.7408       14.142       14.142       14.142            0            0            0    203888.08    203888.08    203888.08    203888.08    4967.4339    4967.3966    4967.4114   -2678.7408 
      68   -2678.7411       14.142       14.142       14.142            0            0            0     203887.8     203887.8     203887.8    203887.81    4937.0349    4936.9986    4937.0183   -2678.7411 
      69   -2678.7416       14.142       14.142       14.142            0            0            0    203883.78    203883.78    203883.78    203883.78    4937.8186    4937.7704    4937.7912   -2678.7416 
      70   -2678.7417       14.142       14.142       14.142            0            0            0    203882.44    203882.44    203882.44    203882.45    4925.2258    4925.1786    4925.1955   -2678.7417 
      71   -2678.7417       14.142       14.142       14.142            0            0            0    203882.44    203882.44    203882.44    203882.45    4925.2258    4925.1786    4925.1955   -2678.7417 
Loop time of 1.16575 on 1 procs for 71 steps with 216 atoms

83.5% CPU use with 1 MPI tasks x no OpenMP threads

Minimization stats:
  Stopping criterion = linesearch alpha is zero
  Energy initial, next-to-last, final = 
        -2585.66703062     -2678.74165173     -2678.74165173
  Force two-norm initial, final = 78.2309 0.0406574
  Force max component initial, final = 21.4578 0.010488
  Final line search alpha, max atom move = 3.8147e-06 4.00086e-08
  Iterations, force evaluations = 71 162

MPI task timing breakdown:
Section |  min time  |  avg time  |  max time  |%varavg| %total
---------------------------------------------------------------
Pair    | 0.66492    | 0.66492    | 0.66492    |   0.0 | 57.04
Kspace  | 0.47158    | 0.47158    | 0.47158    |   0.0 | 40.45
Neigh   | 0.02261    | 0.02261    | 0.02261    |   0.0 |  1.94
Comm    | 0.0033815  | 0.0033815  | 0.0033815  |   0.0 |  0.29
Output  | 0.0017972  | 0.0017972  | 0.0017972  |   0.0 |  0.15
Modify  | 0          | 0          | 0          |   0.0 |  0.00
Other   |            | 0.001453   |            |       |  0.12

Nlocal:    216 ave 216 max 216 min
Histogram: 1 0 0 0 0 0 0 0 0 0
Nghost:    3159 ave 3159 max 3159 min
Histogram: 1 0 0 0 0 0 0 0 0 0
Neighs:    45619 ave 45619 max 45619 min
Histogram: 1 0 0 0 0 0 0 0 0 0

Total # of neighbors = 45619
Ave neighs/atom = 211.199
Neighbor list builds = 6
Dangerous builds = 0

# ---- define output variables ----
variable natoms equal "count(all)"
variable tot_energy equal "c_eatoms"
variable a11 equal "xhi-xlo"
variable a22 equal "yhi-ylo"
variable a33 equal "zhi-zlo"
variable tilt_xy equal "xy"
variable tilt_xz equal "xz"
variable tilt_yz equal "yz"
variable tot_press equal "press"
variable press_xx equal "pxx"
variable press_yy equal "pyy"
variable press_zz equal "pzz"
variable press_xy equal "pxy"
variable press_xz equal "pxz"
variable press_yz equal "pyz"

# ---- output ----
print "pypospack:output_section:begin"
pypospack:output_section:begin
print "tot_energy = ${tot_energy}"
tot_energy = -2678.74165173469
print "num_atoms = ${natoms}"
num_atoms = 216
print "a11 = ${a11}"
a11 = 14.142
print "a22 = ${a22}"
a22 = 14.142
print "a33 = ${a33}"
a33 = 14.142
print "a12 = ${tilt_xy}"
a12 = 0
print "a13 = ${tilt_xz}"
a13 = 0
print "a23 = ${tilt_yz}"
a23 = 0
print "tot_press = ${tot_press}"
tot_press = 203882.443247441
print "pxx = ${press_xx}"
pxx = 203882.444658646
print "pyy = ${press_yy}"
pyy = 203882.439768676
print "pzz = ${press_zz}"
pzz = 203882.445315002
print "pxy = ${press_xy}"
pxy = 4925.22584205618
print "pxz = ${press_xz}"
pxz = 4925.17862957062
print "pyz = ${press_yz}"
pyz = 4925.19551474603
print "pypospack:output_section:done"
pypospack:output_section:done
print "pypospack:lammps_sim:done"
pypospack:lammps_sim:done
Total wall time: 0:00:01
