LAMMPS (10 Feb 2015)
# ---- initialize simulations
clear
units metal
dimension 3
boundary p p p
atom_style charge
atom_modify map array
# ---- create atoms
read_data structure.dat
  triclinic box = (0 0 0) to (4.2565 4.2565 42.5648) with tilt (0 0 0)
  1 by 1 by 1 MPI processor grid
  reading atoms ...
  40 atoms
# ---- define interatomic potential
include potential.mod
mass 1 24.305
mass 2 15.999

group Mg type 1
20 atoms in group Mg
group O type 2
20 atoms in group O

set group Mg charge 2.0
  20 settings made for charge
set group O charge -2.0
  20 settings made for charge

variable R_cut equal 10

pair_style buck/coul/long ${R_cut}
pair_style buck/coul/long 10
pair_coeff 1 1 0.0 0.5 0.0 ${R_cut}
pair_coeff 1 1 0.0 0.5 0.0 10
pair_coeff 1 2 821.6 0.3242 0.0 ${R_cut}
pair_coeff 1 2 821.6 0.3242 0.0 10
pair_coeff 2 2 2274.0 0.149 27.88 ${R_cut}
pair_coeff 2 2 2274.0 0.149 27.88 10

kspace_style pppm 1.0e-5

neighbor 1.0 bin
neigh_modify every 1 delay 0 check yes
# ---- define settings
compute eng all pe/atom
compute eatoms all reduce sum c_eng
# ---- run minimization
reset_timestep 0
thermo 1
thermo_style custom step pe lx ly lz xy xz yz press pxx pyy pzz pxy pxz pyz c_eatoms
min_style cg
minimize 1e-20 1e-20 1000 100000
PPPM initialization ...
  G vector (1/distance) = 0.34269
  grid = 9 9 40
  stencil order = 5
  estimated absolute RMS force accuracy = 9.25495e-05
  estimated relative force accuracy = 6.42721e-06
  using double precision FFTs
  3d grid and FFT values/proc = 11520 3240
Neighbor list info ...
  1 neighbor list requests
  update every 1 steps, delay 0 steps, check yes
  master list distance cutoff = 11
Memory usage per processor = 5.17461 Mbytes
Step PotEng Lx Ly Lz Xy Xz Yz Press Pxx Pyy Pzz Pxy Pxz Pyz eatoms 
       0   -807.97634       4.2565       4.2565      42.5648            0            0            0   -47865.979    -56756.32    -56756.32   -30085.296 -1.6801359e-10 2.6086292e-10 2.039569e-10   -807.97634 
       1    -807.9916       4.2565       4.2565      42.5648            0            0            0   -46751.742   -55791.149   -55791.149   -28672.929 -0.0018420506 -1.0358771e-05 -1.0358846e-05    -807.9916 
       2   -808.01989       4.2565       4.2565      42.5648            0            0            0   -44011.335   -53539.469   -53539.469   -24955.067  0.001428738 0.0001395539 0.00013955399   -808.01989 
       3   -808.02821       4.2565       4.2565      42.5648            0            0            0   -42995.821   -52719.797   -52719.797   -23547.868 0.0018253161 -9.8547642e-06 -9.8547766e-06   -808.02821 
       4   -808.05041       4.2565       4.2565      42.5648            0            0            0   -39538.203   -49920.027   -49920.027   -18774.555 0.0018764354 -0.0019503385 -0.0019503386   -808.05041 
       5   -808.06848       4.2565       4.2565      42.5648            0            0            0   -37073.951   -47985.007   -47985.007   -15251.838 -0.0013640401 0.0011909269 0.0011909267   -808.06848 
       6   -808.07923       4.2565       4.2565      42.5648            0            0            0   -35888.514   -47013.838   -47013.838   -13637.867 -0.0011226328 -0.00087276244 -0.00087276247   -808.07923 
       7   -808.10853       4.2565       4.2565      42.5648            0            0            0   -32839.251    -44587.75    -44587.75   -9342.2547  0.012777408 -0.00010859484 -0.00010859482   -808.10853 
       8   -808.11646       4.2565       4.2565      42.5648            0            0            0   -32221.634   -44082.939   -44082.939   -8499.0246 -0.0032678053 9.1606851e-05 9.1606778e-05   -808.11646 
       9   -808.13183       4.2565       4.2565      42.5648            0            0            0   -30903.621   -42979.292   -42979.292   -6752.2769 -0.00095650866 -0.0090178814 -0.0090178813   -808.13183 
      10   -808.14721       4.2565       4.2565      42.5648            0            0            0   -29632.323   -41978.437   -41978.437   -4940.0954 -0.0063565681 -0.0039231386 -0.0039231388   -808.14721 
      11   -808.15044       4.2565       4.2565      42.5648            0            0            0   -29351.425   -41750.939   -41750.939   -4552.3972 -0.0041835374 -0.00010308628 -0.00010308637   -808.15044 
      12   -808.15312       4.2565       4.2565      42.5648            0            0            0   -29122.409   -41570.468   -41570.468   -4226.2911 0.0047474035 0.0048754612 0.0048754612   -808.15312 
      13    -808.1534       4.2565       4.2565      42.5648            0            0            0   -29102.716   -41555.787   -41555.787   -4196.5729 0.0050641839 0.0026808495 0.0026808494    -808.1534 
      14   -808.15369       4.2565       4.2565      42.5648            0            0            0   -28975.167   -41458.597   -41458.597   -4008.3051 -0.00076421736 -0.0034046961 -0.0034046962   -808.15369 
      15    -808.1542       4.2565       4.2565      42.5648            0            0            0    -28760.06   -41293.947   -41293.947   -3692.2876 0.0073520153 0.0059147136 0.0059147135    -808.1542 
      16   -808.15468       4.2565       4.2565      42.5648            0            0            0   -28316.577   -40944.903   -40944.903   -3059.9251 0.0034433226 -1.3705825e-06 -1.3705973e-06   -808.15468 
      17   -808.15548       4.2565       4.2565      42.5648            0            0            0   -27532.055    -40331.32    -40331.32    -1933.527 0.0034640216   0.00191555 0.0019155503   -808.15548 
      18   -808.15567       4.2565       4.2565      42.5648            0            0            0   -27249.671   -40111.082   -40111.082   -1526.8506 -0.0014587249 -0.0033514152 -0.0033514151   -808.15567 
      19   -808.15629       4.2565       4.2565      42.5648            0            0            0    -26873.34   -39817.436   -39817.436   -985.14678 -0.0015000724 0.0024467804 0.0024467803   -808.15629 
      20   -808.15646       4.2565       4.2565      42.5648            0            0            0    -26802.22   -39762.415   -39762.415   -881.83057 0.0011169491 -0.0040398313 -0.0040398314   -808.15646 
      21   -808.15648       4.2565       4.2565      42.5648            0            0            0    -26752.65   -39724.896   -39724.896   -808.15734 0.0015264606 0.0033521419  0.003352142   -808.15648 
      22   -808.15664       4.2565       4.2565      42.5648            0            0            0   -26684.698   -39674.991   -39674.991    -704.1128 0.0014072747 -0.0030279621 -0.0030279618   -808.15664 
      23   -808.15668       4.2565       4.2565      42.5648            0            0            0    -26666.55   -39660.872   -39660.872   -677.90418 0.0024814284 0.0023404086 0.0023404086   -808.15668 
      24   -808.15672       4.2565       4.2565      42.5648            0            0            0   -26628.399   -39630.628   -39630.628   -623.94056 -0.001181887 -0.0038036197 -0.0038036198   -808.15672 
      25   -808.15673       4.2565       4.2565      42.5648            0            0            0   -26606.095   -39613.112   -39613.112   -592.06084 0.0025698318  0.004265736  0.004265736   -808.15673 
      26   -808.15673       4.2565       4.2565      42.5648            0            0            0   -26578.886   -39591.948   -39591.948   -552.76155  0.013019465 0.0027815439 0.0027815441   -808.15673 
      27   -808.15675       4.2565       4.2565      42.5648            0            0            0   -26503.725   -39533.455   -39533.455    -444.2671 -0.0039054178 0.0049978271 0.0049978273   -808.15675 
      28   -808.15687       4.2565       4.2565      42.5648            0            0            0   -26408.729   -39459.559   -39459.559   -307.06875 0.00087474547 0.0016910381  0.001691038   -808.15687 
      29   -808.15695       4.2565       4.2565      42.5648            0            0            0   -26352.131   -39415.695   -39415.695   -225.00228 -0.0030209849 -0.0029639101 -0.0029639101   -808.15695 
      30   -808.15698       4.2565       4.2565      42.5648            0            0            0   -26326.122   -39395.563   -39395.563    -187.2404 0.0013669663 -0.0030332754 -0.0030332754   -808.15698 
      31   -808.15702       4.2565       4.2565      42.5648            0            0            0   -26293.122   -39369.958   -39369.958   -139.45048 -0.0043029203 -0.0072207709 -0.0072207708   -808.15702 
      32   -808.15702       4.2565       4.2565      42.5648            0            0            0   -26293.122   -39369.958   -39369.958   -139.45048 -0.0043029203 -0.0072207709 -0.0072207707   -808.15702 
Loop time of 0.085562 on 1 procs for 32 steps with 40 atoms

Minimization stats:
  Stopping criterion = linesearch alpha is zero
  Energy initial, next-to-last, final = 
        -807.976340646     -808.157022202     -808.157022202
  Force two-norm initial, final = 0.710592 0.0136797
  Force max component initial, final = 0.335644 0.00452375
  Final line search alpha, max atom move = 6.10352e-05 2.76108e-07
  Iterations, force evaluations = 32 91

Pair  time (%) = 0.0385039 (45.0012)
Kspce time (%) = 0.0449045 (52.4818)
Neigh time (%) = 0 (0)
Comm  time (%) = 0.0013063 (1.52672)
Outpt time (%) = 0.000514507 (0.601327)
Other time (%) = 0.000332832 (0.388996)

Nlocal:    40 ave 40 max 40 min
Histogram: 1 0 0 0 0 0 0 0 0 0
Nghost:    2664 ave 2664 max 2664 min
Histogram: 1 0 0 0 0 0 0 0 0 0
Neighs:    9468 ave 9468 max 9468 min
Histogram: 1 0 0 0 0 0 0 0 0 0

Total # of neighbors = 9468
Ave neighs/atom = 236.7
Neighbor list builds = 0
Dangerous builds = 0
# ---- define output variables ----
variable natoms equal "count(all)"
variable tot_energy equal "c_eatoms"
variable length_x equal "lx"
variable length_y equal "ly"
variable length_z equal "lz"
variable tilt_xy equal "xy"
variable tilt_xz equal "xz"
variable tilt_yz equal "yz"
variable tot_press equal "press"
variable press_xx equal "pxx"
variable press_yy equal "pyy"
variable press_zz equal "pzz"
variable press_xy equal "pxy"
variable press_xz equal "pxz"
variable press_yz equal "pyz"

# ---- output ----
print "pypospack:output_section:begin"
pypospack:output_section:begin
print "tot_energy = ${tot_energy}"
tot_energy = -808.157022202004
print "num_atoms = ${natoms}"
num_atoms = 40
print "xx = ${length_x}"
xx = 4.2565
print "yy = ${length_y}"
yy = 4.2565
print "zz = ${length_z}"
zz = 42.5648
print "xy = ${tilt_xy}"
xy = 0
print "xz = ${tilt_xz}"
xz = 0
print "yz = ${tilt_yz}"
yz = 0
print "tot_press = ${tot_press}"
tot_press = -26293.1220380655
print "pxx = ${press_xx}"
pxx = -39369.957816467
print "pyy = ${press_yy}"
pyy = -39369.9578164672
print "pzz = ${press_zz}"
pzz = -139.450481262382
print "pxy = ${press_xy}"
pxy = -0.00430292032985059
print "pxz = ${press_xz}"
pxz = -0.0072207708677859
print "pyz = ${press_yz}"
pyz = -0.00722077071201403
print "pypospack:output_section:done"
pypospack:output_section:done
print "pypospack:lammps_sim:done"
pypospack:lammps_sim:done
