LAMMPS (10 Feb 2015)
# ---- initialize simulations
clear
units metal
dimension 3
boundary p p p
atom_style charge
atom_modify map array
# ---- create atoms
read_data /Users/eugeneragasa/pyflamestk_git/pypospack/tests/tests_integration/workflow/WorkflowLammpsThermalExpansion/param_7495/MgO_NaCl_unit.npt.T1400/lammps.structure
  triclinic box = (0 0 0) to (4.2565 4.2565 4.2565) with tilt (0 0 0)
  1 by 1 by 1 MPI processor grid
  reading atoms ...
  8 atoms
# ---- define interatomic potential
include potential.mod
mass 1 24.305
mass 2 15.999

group Mg type 1
4 atoms in group Mg
group O type 2
4 atoms in group O

set group Mg charge 1.61805343549
  4 settings made for charge
set group O charge -1.61805343549
  4 settings made for charge

variable R_cut equal 10.0

pair_style buck/coul/long ${R_cut}
pair_style buck/coul/long 10
pair_coeff 1 1 0.0 0.5 0.0 ${R_cut}
pair_coeff 1 1 0.0 0.5 0.0 10
pair_coeff 1 2 1411.7842896 0.281421547192 0.0 ${R_cut}
pair_coeff 1 2 1411.7842896 0.281421547192 0.0 10
pair_coeff 2 2 12275.1016291 0.0833185517679 22.1397903537 ${R_cut}
pair_coeff 2 2 12275.1016291 0.0833185517679 22.1397903537 10

kspace_style pppm 1.0e-5

neighbor 1.0 bin
neigh_modify every 1 delay 0 check yes
# ---- define settings
compute eng all pe/atom
compute eatoms all reduce sum c_eng
# ---- run minimization
reset_timestep 0
fix 1 all box/relax iso 0.0 vmax 0.001
thermo 10
thermo_style custom step pe lx ly lz xy xz yz press pxx pyy pzz pxy pxz pyz c_eatoms
min_style cg
minimize 1e-25 1e-25 5000 10000
PPPM initialization ...
  G vector (1/distance) = 0.352505
  grid = 8 8 8
  stencil order = 5
  estimated absolute RMS force accuracy = 3.81397e-05
  estimated relative force accuracy = 2.64865e-06
  using double precision FFTs
  3d grid and FFT values/proc = 3375 512
Neighbor list info ...
  1 neighbor list requests
  update every 1 steps, delay 0 steps, check yes
  master list distance cutoff = 11
Memory usage per processor = 4.06549 Mbytes
Step PotEng Lx Ly Lz Xy Xz Yz Press Pxx Pyy Pzz Pxy Pxz Pyz eatoms 
       0   -106.97328       4.2565       4.2565       4.2565            0            0            0    38192.574    38192.574    38192.574    38192.574 8.7875882e-11 -6.3416216e-11 -7.5192229e-11   -106.97328 
       9   -106.99342    4.2893301    4.2893301    4.2893301            0            0            0     -3.54441     -3.54441     -3.54441     -3.54441 -1.7895043e-11 -1.1181496e-10 -2.9549514e-11   -106.99342 
Loop time of 0.00879884 on 1 procs for 9 steps with 8 atoms

Minimization stats:
  Stopping criterion = linesearch alpha is zero
  Energy initial, next-to-last, final = 
        -106.973281584     -106.993416645     -106.993416645
  Force two-norm initial, final = 5.51503 0.00172663
  Force max component initial, final = 5.51503 0.00051974
  Final line search alpha, max atom move = 0.00390625 2.03024e-06
  Iterations, force evaluations = 9 26

Pair  time (%) = 0.00241375 (27.4326)
Kspce time (%) = 0.00139523 (15.8569)
Neigh time (%) = 0 (0)
Comm  time (%) = 0.000268698 (3.05379)
Outpt time (%) = 0 (0)
Other time (%) = 0.00472116 (53.6567)

Nlocal:    8 ave 8 max 8 min
Histogram: 1 0 0 0 0 0 0 0 0 0
Nghost:    2189 ave 2189 max 2189 min
Histogram: 1 0 0 0 0 0 0 0 0 0
Neighs:    2344 ave 2344 max 2344 min
Histogram: 1 0 0 0 0 0 0 0 0 0

Total # of neighbors = 2344
Ave neighs/atom = 293
Neighbor list builds = 0
Dangerous builds = 0
unfix 1
# ---- define output variables ----
variable natoms equal "count(all)"
variable tot_energy equal "c_eatoms"
variable length_x equal "lx"
variable length_y equal "ly"
variable length_z equal "lz"
variable tilt_xy equal "xy"
variable tilt_xz equal "xz"
variable tilt_yz equal "yz"
variable tot_press equal "press"
variable press_xx equal "pxx"
variable press_yy equal "pyy"
variable press_zz equal "pzz"
variable press_xy equal "pxy"
variable press_xz equal "pxz"
variable press_yz equal "pyz"

# ---- output ----
print "pypospack:output_section:begin"
pypospack:output_section:begin
print "tot_energy = ${tot_energy}"
tot_energy = -106.993416644887
print "num_atoms = ${natoms}"
num_atoms = 8
print "xx = ${length_x}"
xx = 4.28933011317114
print "yy = ${length_y}"
yy = 4.28933011317114
print "zz = ${length_z}"
zz = 4.28933011317114
print "xy = ${tilt_xy}"
xy = 0
print "xz = ${tilt_xz}"
xz = 0
print "yz = ${tilt_yz}"
yz = 0
print "tot_press = ${tot_press}"
tot_press = -3.54441004469774
print "pxx = ${press_xx}"
pxx = -3.5444100447524
print "pyy = ${press_yy}"
pyy = -3.54441004470836
print "pzz = ${press_zz}"
pzz = -3.54441004463246
print "pxy = ${press_xy}"
pxy = -1.78950429729069e-11
print "pxz = ${press_xz}"
pxz = -1.1181495634962e-10
print "pyz = ${press_yz}"
pyz = -2.95495135207349e-11
print "pypospack:output_section:done"
pypospack:output_section:done
print "pypospack:lammps_sim:done"
pypospack:lammps_sim:done
#------------------------------------------------------------------------------
# RUN THERMOSTAT
# running using an NPT Nose-Hoover style thermostat
#------------------------------------------------------------------------------
variable tempdamp equal 0.1
variable pressdamp equal 1.0
# set initial velocities
velocity all create 1400 3408863 mom yes dist gaussian loop all
# fix for Nose-Hoover style thermostat
fix 20 all npt temp 1400 1400 0.1 aniso 0.0 0.0 1.0 drag 1.0 couple xyz
variable boxx equal lx
variable boxy equal ly
variable boxz equal lz
variable boxp equal press
variable boxt equal temp
# calculate averages every 10000 steps
reset_timestep 0
fix 21 all ave/time 10 10 100 v_boxx v_boxy v_boxz v_boxp v_boxt file lattice.out
thermo_style custom step temp pe ke etotal press lx ly lz press pxx pyy pzz pxy pxz pyz vol
thermo_modify flush yes
thermo 100
run 100000
PPPM initialization ...
  G vector (1/distance) = 0.352181
  grid = 8 8 8
  stencil order = 5
  estimated absolute RMS force accuracy = 3.87093e-05
  estimated relative force accuracy = 2.68821e-06
  using double precision FFTs
  3d grid and FFT values/proc = 3375 512
Memory usage per processor = 3.06549 Mbytes
Step Temp PotEng KinEng TotEng Press Lx Ly Lz Press Pxx Pyy Pzz Pxy Pxz Pyz Volume 
       0         1400   -106.99342    1.2667494   -105.72667    17140.573    4.2893301    4.2893301    4.2893301    17140.573    30424.382    18479.282    2518.0539   -512.86518    2435.4433    228.51634    78.916609 
     100    565.68763   -106.08047   0.51184605   -105.56863    8072.5471    4.3176077    4.3176077    4.3176077    8072.5471     32809.89    38094.129   -46686.378    2476.9704   -5873.6991   -5723.4566    80.487706 
     200    635.28354   -105.78371    0.5748179   -105.20889   -17705.455     4.355512     4.355512     4.355512   -17705.455    42745.667   -13369.492   -82492.541   -3978.2312    99.418866   -751.08655    82.626176 
     300    1285.1166   -106.07904    1.1628005   -104.91624    13740.618    4.3458561    4.3458561    4.3458561    13740.618    37742.314     54203.39    -50723.85    12507.925   -700.09158   -1291.3607    82.077862 
     400    1136.8065   -105.71825    1.0286064   -104.68964   -8835.8143     4.328416     4.328416     4.328416   -8835.8143    -22816.21    66097.076   -69788.309   -13419.125    2439.6079   -7677.0556    81.093675 
     500    1550.8413   -105.94959    1.4032338   -104.54636    -8588.052     4.338387     4.338387     4.338387    -8588.052    16865.173    10651.647   -53280.976    479.55571   -11.253409    15225.231    81.655395 
     600    1574.7807   -105.90595    1.4248947   -104.48106     12162.23    4.3521881    4.3521881    4.3521881     12162.23    62368.123    31797.966   -57679.398   -1843.3973    5090.7097   -3571.9573    82.437153 
     700    981.64231   -105.35315   0.88821059   -104.46494   -35214.286    4.3660685    4.3660685    4.3660685   -35214.286    -37683.97    29858.642   -97817.531   -7247.3797    -4406.651    17422.207    83.228419 
     800    1673.6998    -105.9496    1.5143988    -104.4352    9119.6649    4.3464452    4.3464452    4.3464452    9119.6649    21681.935    49230.654   -43553.595   -6272.9054    -933.1173     7637.192    82.111242 
     900    1553.8838   -105.84905    1.4059867   -104.44306   -5261.0129    4.3370464    4.3370464    4.3370464   -5261.0129    1399.8209    49266.497   -66449.356    14007.362   -1823.4973    136.46087    81.579721 
    1000    1088.3372   -105.45292   0.98475033   -104.46817    11707.778    4.3526712    4.3526712    4.3526712    11707.778    50599.424     40577.42   -56053.511     -1012.28   -4508.6799    9700.6117    82.464607 
    1100    1859.6232   -106.12097    1.6826261   -104.43835   -16355.646    4.3753066    4.3753066    4.3753066   -16355.646   -29045.393    48207.579   -68229.124     20368.42   -4008.1039   -5216.1836    83.757843 
    1200    786.55161   -105.13891   0.71168842   -104.42722    2871.4185    4.3566635    4.3566635    4.3566635    2871.4185     35434.29     51843.41   -78663.445    -15218.85    525.00451    14168.146    82.691726 
    1300    2097.9406   -106.30933    1.8982608   -104.41107   -8318.5478    4.3332455    4.3332455    4.3332455   -8318.5478    10450.066   -1385.1931   -34020.516    -448.0522   -10258.668   -10057.114    81.365424 
    1400     1340.728   -105.65986    1.2131188   -104.44675    2528.7803     4.338989     4.338989     4.338989    2528.7803    42370.755     28180.57   -62964.984     14235.13   -178.76779    17382.073    81.689388 
    1500    1237.4703   -105.57137    1.1196891   -104.45168   -27258.156    4.3646906    4.3646906    4.3646906   -27258.156   -11016.288    10118.944   -80877.124   -10429.372    147.12752   -4820.3481    83.149646 
    1600    1495.8032     -105.782    1.3534342   -104.42857    399.93561    4.3571928    4.3571928    4.3571928    399.93561    65280.456    7953.2177   -72033.867    13994.063   -8789.7533     1011.901    82.721866 
    1700    1131.3705   -105.45521    1.0236878   -104.43152   -3869.3542    4.3326999    4.3326999    4.3326999   -3869.3542     36898.58     5687.756   -54194.399   -706.62983    -6725.573    1258.2707    81.334695 
    1800    2103.2769    -106.3459    1.9030892   -104.44281     3613.219     4.337629     4.337629     4.337629     3613.219    859.41967    34679.029   -24698.792   -11981.599   -738.20779    5927.9679    81.612597 
    1900    1237.4824   -105.59145    1.1197001   -104.47175   -28916.203    4.3658198    4.3658198    4.3658198   -28916.203    16811.115   -32744.831   -70814.893    16906.797    4884.2474    5544.7982    83.214197 
    2000    1230.0657   -105.55518    1.1129893   -104.44219   -31970.388    4.3674429    4.3674429    4.3674429   -31970.388   -1247.7541   -21822.395   -72841.014   -37167.168    4799.5603   -15303.537     83.30704 
    2100    1505.7625   -105.76773    1.3624456   -104.40529    15703.689    4.3421822    4.3421822    4.3421822    15703.689    73179.695    2905.2949   -28973.923     41606.49    1197.0662    10882.327    81.869877 
    2200    1288.5588   -105.58995     1.165915   -104.42404   -23227.494    4.3433817    4.3433817    4.3433817   -23227.494    4923.2824   -12944.927   -61660.838   -5397.8016    6392.0078    -26949.26    81.937744 
    2300    1479.8278   -105.76802    1.3389793   -104.42905    11263.533    4.3505304    4.3505304    4.3505304    11263.533    72669.818    8469.4454   -47348.663   -4201.0269    -8854.647     4076.978    82.342989 
    2400    1213.3106   -105.53745    1.0978289   -104.43962   -15540.152    4.3555888    4.3555888    4.3555888   -15540.152    19672.532    3849.1979   -70142.186    4464.5369    691.97302   -19811.724    82.630546 
    2500    1693.4287   -105.95347    1.5322499   -104.42122    6882.1019    4.3437675    4.3437675    4.3437675    6882.1019      54677.8    26701.953   -60733.447   -14960.851   -2104.8722    5939.4952    81.959579 
    2600    1418.8663   -105.70891    1.2838201   -104.42509   -19795.435    4.3490976    4.3490976    4.3490976   -19795.435    15046.171   -15941.395   -58491.081    -1672.973   -4029.3513   -14639.464    82.261659 
    2700    1208.4526   -105.51906    1.0934333   -104.42563    14119.912    4.3454342    4.3454342    4.3454342    14119.912    56240.971    36698.416    -50579.65   -10395.147    3629.5589    5215.4707    82.053956 
    2800    1857.3751   -106.10156    1.6805921   -104.42097   -4162.5866    4.3466912    4.3466912    4.3466912   -4162.5866     22119.54    22239.847   -56847.147    10479.295   -1862.1765    326.76293    82.125185 
    2900    1000.8825   -105.33546   0.90561948   -104.42984    17273.236     4.347903     4.347903     4.347903    17273.236    27353.658      78748.6   -54282.551     6972.128   -3638.6546   -5664.5347     82.19389 
    3000    1326.8858   -105.63638    1.2005942   -104.43579   -5833.7213    4.3443155    4.3443155    4.3443155   -5833.7213    20440.229    34195.664   -72137.057    22353.007    3485.5778    22144.445      81.9906 
    3100    1927.0482   -106.18189    1.7436337   -104.43826    5537.2948    4.3458579    4.3458579    4.3458579    5537.2948    21941.715    35684.215   -41014.045    5436.0947   -2373.7883   -6435.5048    82.077963 
    3200    887.05824   -105.24953   0.80262894    -104.4469    3469.4758    4.3450141    4.3450141    4.3450141    3469.4758    48838.994    26603.808   -65034.375   -3607.1156   -4480.1685    10639.054    82.030164 
    3300    1310.5642   -105.62389     1.185826   -104.43807    27040.027    4.3491109    4.3491109    4.3491109    27040.027    27077.975    88194.925   -34152.821    3044.7927   -8218.8322   -2534.6921    82.262416 
    3400    1733.4251   -106.00109    1.5684395   -104.43265   -7430.1942    4.3539985    4.3539985    4.3539985   -7430.1942   -20501.791    43386.818   -45175.609   -794.97089    2869.9025    8135.5586    82.540066 
    3500    954.54741   -105.29229   0.86369456   -104.42859     20428.58    4.3249572    4.3249572    4.3249572     20428.58    26059.414    82404.021   -47177.695    7467.7691   -4343.7094    7084.1017    80.899429 
    3600    1764.9323    -106.0571    1.5969478   -104.46015   -7965.9955    4.3457345    4.3457345    4.3457345   -7965.9955    7584.4998     8266.828   -39749.314   -11693.882   -9511.2194   -16938.918    82.070969 
    3700    1629.3713   -105.91129    1.4742894     -104.437   -38297.716    4.3774454    4.3774454    4.3774454   -38297.716   -71712.556     28458.49   -71639.081    -880.3709   -7910.1485    6592.9458    83.880733 
    3800    658.43697   -105.01528    0.5957676   -104.41951   -9114.1447     4.368251     4.368251     4.368251   -9114.1447   -15912.527    54655.391   -66085.299    26307.467    1128.1639   -1867.4755    83.353292 
    3900    1645.0016   -105.88311     1.488432   -104.39468    14756.432    4.3334261    4.3334261    4.3334261    14756.432     38935.75    24697.852   -19364.306   -11909.401    4920.4031   -2587.1815    81.375594 
    4000    1587.3795   -105.85949    1.4362943    -104.4232   -11187.906    4.3431606    4.3431606    4.3431606   -11187.906   -10964.498    30019.693   -52618.913    18209.923   -11851.592   -4224.5992    81.925231 
    4100    1084.3697   -105.41819   0.98116048   -104.43703   -8729.6747     4.361991     4.361991     4.361991   -8729.6747    52112.636   -1571.1914   -76730.469    -12779.15    2033.9529    -13577.35    82.995451 
    4200    1473.7977   -105.77122    1.3335231   -104.43769   -12218.456    4.3652466    4.3652466    4.3652466   -12218.456   -52300.091      84604.2   -68959.476   -10213.353    5558.6454     6252.025    83.181423 
    4300    1835.8134   -106.08491    1.6610825   -104.42383    4648.4068    4.3457596    4.3457596    4.3457596    4648.4068    16315.936    42040.388   -44411.104    7842.8963   -1051.6918   -27064.404    82.072392 
    4400     1132.363   -105.45589    1.0245858    -104.4313   -4435.4958    4.3488841    4.3488841    4.3488841   -4435.4958   -6989.8528     35376.97   -41693.605    14339.881    6788.6386   -7635.6781    82.249545 
    4500    1436.8559   -105.72409    1.3000974   -104.42399    2659.7544    4.3670559    4.3670559    4.3670559    2659.7544   -30112.734     71694.91   -33602.913    6374.5755    1649.3206   -10983.914    83.284896 
    4600    1436.3099   -105.71522    1.2996034   -104.41562   -17800.358    4.3707488    4.3707488    4.3707488   -17800.358   -24530.505    8448.7857   -37319.356    17365.357     3804.562    105.48085    83.496361 
    4700    851.31738   -105.18807   0.77028985   -104.41778   -20886.415    4.3472619    4.3472619    4.3472619   -20886.415   -48143.898    3741.6155   -18256.962   -25064.229   -7385.0616    24027.217    82.157537 
    4800    1964.1373   -106.18504    1.7771927   -104.40785    28121.419    4.3187948    4.3187948    4.3187948    28121.419    -3612.618    105948.33   -17971.454   -11808.023    6028.4669   -11640.832     80.55411 
    4900    1423.6034   -105.75112    1.2881063   -104.46302   -15640.244    4.3467608    4.3467608    4.3467608   -15640.244   -47393.139    28109.181   -27636.773    470.12354   -11842.866    16489.205    82.129131 
    5000    1114.4152   -105.46296    1.0083463   -104.45461   -14788.134    4.3694635    4.3694635    4.3694635   -14788.134   -48717.055    47825.343   -43472.692   -25634.269   -1243.4458    2014.7503    83.422719 
    5100    1767.8494   -106.02617    1.5995872   -104.42658   -9173.7974    4.3590092    4.3590092    4.3590092   -9173.7974   -41798.701    68819.361   -54542.052    10491.502    4841.7443   -741.19663    82.825367 
    5200    1391.9862   -105.68622    1.2594983   -104.42672    940.52458    4.3231454    4.3231454    4.3231454    940.52458   -20033.076    51105.214   -28250.563   -30330.327   -19599.481    7925.2113    80.797801 
    5300    1491.8904    -105.7952    1.3498938    -104.4453    5180.7369    4.3245124    4.3245124    4.3245124    5180.7369   -6333.6943    14785.495    7090.4102   -8389.4153    6950.8286    8029.7712    80.874469 
    5400    1440.8809    -105.7582    1.3037393   -104.45446   -11924.408    4.3598078    4.3598078    4.3598078   -11924.408   -59474.294    94858.728   -71157.659    9197.2943   -11490.502   -8306.0957    82.870896 
    5500    1263.2867   -105.58346    1.1430483   -104.44041   -44300.865    4.3696656    4.3696656    4.3696656   -44300.865    -20361.05   -45063.199   -67478.346   -14642.699   -3086.6183    14576.355    83.434296 
    5600    1293.9742   -105.60618     1.170815   -104.43537     72.60982    4.3241034    4.3241034    4.3241034     72.60982   -7338.3816   -4773.6804    12329.891    16101.242   -1845.5497    685.58457    80.851523 
    5700    1551.5151   -105.83543    1.4038435   -104.43158    27570.432    4.3094324    4.3094324    4.3094324    27570.432   -7767.4348    93908.145   -3429.4149    5900.6599   -6727.9426   -1969.7006    80.031364 
    5800    1577.3614   -105.87348    1.4272298   -104.44625   -35768.468    4.3547636    4.3547636    4.3547636   -35768.468   -23263.604   -45670.741   -38371.058   -24916.092   -3918.3209    8473.1779     82.58359 
    5900    1227.3436   -105.53019    1.1105263   -104.41967   -5229.1925    4.3620171    4.3620171    4.3620171   -5229.1925   -52022.529    34607.456    1727.4955    18321.302   -8486.2611    -12565.71    82.996944 
    6000    1884.6324   -106.09822     1.705255   -104.39297    -18.58271      4.35106      4.35106      4.35106    -18.58271   -3798.0024    17646.482   -13904.227   -9982.8102    536.28597    12549.619    82.373064 
    6100    1142.4813    -105.4478    1.0337411   -104.41406    -8855.956    4.3248742    4.3248742    4.3248742    -8855.956    1115.4398   -40115.438     12432.13    8478.5817    3814.1624   -6689.0344    80.894768 
    6200    1096.7049   -105.42991    0.9923216   -104.43758    45803.586    4.3152959    4.3152959    4.3152959    45803.586    54462.854    45677.746    37270.159    29519.394   -19323.027   -2309.6435    80.358488 
    6300    2064.1583   -106.31412    1.8676938   -104.44643    2254.2313    4.3517439    4.3517439    4.3517439    2254.2313    28384.432    9659.3148   -31281.053   -6365.3508    9381.3701    4951.7575    82.411912 
    6400    793.67035   -105.16479   0.71812961   -104.44666    7524.6484    4.3510764    4.3510764    4.3510764    7524.6484   -22743.235    26916.316    18400.865    33317.755   -11994.437   -13317.437    82.373997 
    6500    1497.7432   -105.78082    1.3551895   -104.42563    11257.617    4.3454987    4.3454987    4.3454987    11257.617    37451.665   -1379.5752    -2299.237    -6768.227   -1663.7404    2455.4143    82.057612 
    6600    1967.1248   -106.20163    1.7798959   -104.42174   -10204.899     4.336708     4.336708     4.336708   -10204.899   -16825.806   -10671.778   -3117.1124    29832.212   -330.39713    6873.0425    81.560622 
    6700    951.83376   -105.30268   0.86123919   -104.44144    17699.682    4.3359348    4.3359348    4.3359348    17699.682   -4160.7798    27277.126    29982.701    14026.419   -8444.0113   -18097.185    81.517005 
    6800    1607.0664   -105.88385    1.4541074   -104.42974    9183.1077     4.358902     4.358902     4.358902    9183.1077    49501.224    -19107.04     -2844.86    2614.8624    8716.9515   -1959.2632    82.819254 
    6900    1438.4255   -105.73366    1.3015177   -104.43214   -41811.247    4.3568916    4.3568916    4.3568916   -41811.247   -53546.034   -65144.019   -6743.6869    30252.942   -307.63113   -3664.2906    82.704712 
    7000    1583.2604   -105.84833    1.4325673   -104.41576     33570.84     4.328515     4.328515     4.328515     33570.84    44587.468    18115.372    38009.679   -23225.435   -15312.452    1445.1769     81.09924 
    7100    1176.0511   -105.50252    1.0641158    -104.4384    2860.5887    4.3330018    4.3330018    4.3330018    2860.5887    8791.4318   -30735.138    30525.473    27115.196   -8128.2559   -4390.9159    81.351694 
    7200    1456.9098   -105.76978    1.3182426   -104.45154   -3236.1868    4.3502829    4.3502829    4.3502829   -3236.1868    3708.5531   -32600.067    19182.953   -6640.0358   -7473.5073   -1172.1908    82.328938 
    7300     1381.073   -105.68492    1.2496238   -104.43529   -28840.857    4.3608038    4.3608038    4.3608038   -28840.857   -20705.558   -50067.656   -15749.356    25099.646   -10596.748    1192.9152    82.927706 
    7400    1135.1946   -105.45344    1.0271479   -104.42629     31978.52    4.3239662    4.3239662    4.3239662     31978.52    73695.523   -34861.986    57102.024    25441.645    18596.725   -8949.5861    80.843826 
    7500    1913.7279   -106.14666    1.7315812   -104.41508    21887.757    4.3145306    4.3145306    4.3145306    21887.757    19120.743    7817.4313    38725.098   -2082.3644    409.59279    6515.6986    80.315737 
    7600    624.79805   -105.02323    0.5653304    -104.4579    10452.854     4.348576     4.348576     4.348576    10452.854    17118.425   -53807.966    68048.103     19653.59    3917.2062   -10668.814    82.232067 
    7700     1735.727   -105.99493    1.5705223   -104.42441   -27331.868    4.3649723    4.3649723    4.3649723   -27331.868    -10507.09   -37778.474   -33710.038    1873.5007    17032.281   -12988.019    83.165746 
    7800    1487.6513   -105.75899    1.3460582   -104.41293    30097.454    4.3269606    4.3269606    4.3269606    30097.454    67047.029   -30337.172    53582.505    10826.141     3108.223    9020.8621    81.011903 
    7900    1172.1952   -105.48059    1.0606268   -104.41997    6063.6287    4.3166245    4.3166245    4.3166245    6063.6287   -1371.1866   -4166.2941    23728.367    16193.081    6715.5209   -32931.835    80.432729 
    8000    1559.4507      -105.84    1.4110238   -104.42898     15183.99    4.3441743    4.3441743    4.3441743     15183.99    58874.626   -22772.614    9449.9588     -1262.72    11173.007    16998.098    81.982606 
    8100    1354.0009   -105.65417    1.2251285   -104.42904   -24605.232    4.3652819    4.3652819    4.3652819   -24605.232   -2956.8002   -63661.159   -7197.7372    17701.669    -11124.81   -18991.955    83.183439 
    8200    1377.3145   -105.67181    1.2462231   -104.42559   -31939.189    4.3458853    4.3458853    4.3458853   -31939.189   -18342.518   -43847.166   -33627.884   -6849.0923    25013.455   -2040.5202    82.079517 
    8300    1612.7192   -105.85993    1.4592222   -104.40071    48650.011    4.2966245    4.2966245    4.2966245    48650.011    69191.493   -4457.1762    81215.715    15832.088   -20083.499    12315.894    79.319906 
    8400    994.29376   -105.35779   0.89965789   -104.45813   -9775.5354    4.3301907    4.3301907    4.3301907   -9775.5354   -4972.7576   -37208.308    12854.459    2841.8115    18055.505   -26995.628    81.193465 
    8500    1537.6599     -105.815    1.3913069    -104.4237   -34437.506    4.3597647    4.3597647    4.3597647   -34437.506   -19442.198   -62390.858   -21479.463   -5538.4977    9384.2715     25107.48    82.868439 
    8600    1537.9794    -105.8082    1.3915961    -104.4166   -5268.0391    4.3486692    4.3486692    4.3486692   -5268.0391   -13306.673   -40163.345    37665.901    15277.584   -24100.997   -18644.456     82.23735 
    8700    1166.9102   -105.48063    1.0558448   -104.42478    14082.308    4.3296456    4.3296456    4.3296456    14082.308   -4446.0157   -13443.964    60136.903    -3051.445    40744.884   -4678.1361    81.162803 
    8800    1189.4315   -105.51908    1.0762226   -104.44285     11338.36    4.3217941    4.3217941    4.3217941     11338.36    19029.737   -6596.5976    21581.941    16230.679   -15645.117    17500.879    80.722057 
    8900    1637.3293   -105.93445    1.4814899   -104.45296   -13732.346    4.3294689    4.3294689    4.3294689   -13732.346   -21184.177   -15738.821   -4274.0391   -3994.2432    6937.7721   -30237.485    81.152866 
    9000     1217.651   -105.54991    1.1017562   -104.44815    -12258.47    4.3479817    4.3479817    4.3479817    -12258.47   -407.69509   -37560.079    1192.3638    2943.9856     18838.11    17927.562    82.198354 
    9100    1242.2756   -105.55796    1.1240371   -104.43393   -698.81383    4.3370997    4.3370997    4.3370997   -698.81383   -9384.1941   -21442.503    28730.255     12762.29   -24789.685   -10676.688    81.582729 
    9200    1585.7008   -105.86281    1.4347754   -104.42804    2883.2836    4.3185321    4.3185321    4.3185321    2883.2836    17085.922    4429.7661   -12865.837   -9714.5208    26806.224    5137.9699    80.539415 
    9300    1373.9033   -105.68477    1.2431366   -104.44164   -1690.1944    4.3289866    4.3289866    4.3289866   -1690.1944    1903.5995   -25653.869    18679.687    21051.416   -18340.551    3538.7376    81.125751 
    9400     1461.397   -105.76241    1.3223027    -104.4401    -13952.51    4.3335532    4.3335532    4.3335532    -13952.51   -27522.674   -1103.1337   -13231.721   -5254.1768   -15641.564   -10167.994    81.382754 
    9500    1497.3771   -105.78796    1.3548583    -104.4331    52.140939    4.3319107    4.3319107    4.3319107    52.140939      10615.1   -19001.316    8542.6382     22937.64    26702.263    4276.9755    81.290256 
    9600    1213.1907   -105.53241    1.0977204   -104.43469   -8190.9816     4.331423     4.331423     4.331423   -8190.9816   -45561.571   -4823.6884    25812.315    10283.499   -32526.604    -8119.347    81.262805 
    9700    1467.9527   -105.75681    1.3282344   -104.42858    21192.526    4.3209658    4.3209658    4.3209658    21192.526    2219.3117    40796.671    20561.596    4918.0533    28931.634   -13542.912    80.675652 
    9800    1652.8254   -105.92125    1.4955112   -104.42574   -3384.2485    4.3264639    4.3264639    4.3264639   -3384.2485   -2883.6583   -5169.9436   -2099.1435     37317.57   -8748.0716    1766.4216    80.984006 
    9900    1078.6081    -105.4025   0.97594731   -104.42656     1578.389      4.33623      4.33623      4.33623     1578.389   -25386.249    40940.001   -10818.585   -17676.574   -16756.912   -7794.9822     81.53366 
   10000    1734.1562   -105.98706     1.569101   -104.41796   -9968.8543    4.3326731    4.3326731    4.3326731   -9968.8543   -7862.5551   -14982.241   -7061.7665     38300.16    28141.593    1727.0223    81.333184 
   10100    1474.6654   -105.75696    1.3343083   -104.42265    5426.4332    4.3314486    4.3314486    4.3314486    5426.4332   -4049.7417    25381.307   -5052.2659     5243.346   -33845.224   -1053.4225    81.264245 
   10200    1244.9499   -105.54692    1.1264568   -104.42046    3066.7342    4.3263163    4.3263163    4.3263163    3066.7342   -1246.5488   -14570.745    25017.496    14193.729    9162.5198    5234.6759    80.975715 
   10300    1280.7629   -105.58897    1.1588612    -104.4301    2702.5726    4.3308541    4.3308541    4.3308541    2702.5726   -8554.8351   -7369.9263    24032.479     25921.49   -2416.9032   -13.716402    81.230788 
   10400    1736.8652   -105.99136    1.5715521   -104.41981    14142.915    4.3341015    4.3341015    4.3341015    14142.915     22775.67    -1812.416    21465.491   -19355.636   -14797.678     15227.47    81.413652 
   10500    836.96361   -105.18152   0.75730226   -104.42421   -4984.5158    4.3380405    4.3380405    4.3380405   -4984.5158    9539.3485   -50685.248    26192.352    31434.615    25623.205   -3854.2798    81.635831 
   10600    2114.7884   -106.32184     1.913505   -104.40833   -6129.8442    4.3380042    4.3380042    4.3380042   -6129.8442    10417.773   -14174.151   -14633.154   -19423.001   -26234.234    15356.917    81.633777 
   10700     1119.764   -105.43831     1.013186   -104.42513   -7891.0271    4.3232579    4.3232579    4.3232579   -7891.0271    3059.1304   -32974.943     6242.731    38477.622    20930.529    7872.0036    80.804107 
   10800    1463.0286   -105.75596     1.323779   -104.43218   -9177.3657    4.3194068    4.3194068    4.3194068   -9177.3657    1563.9342   -21687.724   -7408.3073    1650.1916    8805.2145   -5190.4822    80.588362 
   10900    1653.5791    -105.9234    1.4961931    -104.4272   -17946.388    4.3404494    4.3404494    4.3404494   -17946.388    17997.853    -46872.78   -24964.238    11027.556   -808.13068    15416.627    81.771901 
   11000    1062.2374   -105.38306   0.96113476   -104.42192   -29817.713    4.3486764    4.3486764    4.3486764   -29817.713   -8509.6766   -44731.698   -36211.764    34122.928    23784.439    1081.2976    82.237758 
   11100    1893.6473   -106.11488    1.7134119   -104.40147    2384.1201    4.3297935    4.3297935    4.3297935    2384.1201    5241.2558   -3778.9695    5690.0739   -2732.5809   -16838.604     4136.654    81.171122 
   11200    1080.8724   -105.39523   0.97799606   -104.41723    10844.952    4.3129776    4.3129776    4.3129776    10844.952    50521.685   -21781.258    3794.4293    22461.504    25812.978    7415.8557    80.229041 
   11300    1447.4843   -105.73898    1.3097142   -104.42927    9519.3524    4.3337781    4.3337781    4.3337781    9519.3524   -29756.238    34669.086    23645.209    9151.4445    6087.7626   -14728.599    81.395429 
   11400    1533.3549   -105.80426    1.3874118   -104.41685   -9827.8163    4.3479433    4.3479433    4.3479433   -9827.8163   -16645.738    7987.7615   -20825.473    8207.9419   -13652.978    548.41714    82.196179 
   11500    891.22904    -105.2187   0.80640277    -104.4123    13721.549    4.3326118    4.3326118    4.3326118    13721.549    -4575.295    20856.485    24883.458      12274.8     34237.65   -6436.3857    81.329731 
   11600    1668.6939   -105.91658    1.5098693   -104.40671    13810.372    4.3229896    4.3229896    4.3229896    13810.372   -8434.5309    57521.993   -7656.3461   -3067.0461   -31305.878   -6932.9616    80.789066 
   11700    1239.7611   -105.54552    1.1217619   -104.42376    29334.972    4.3287219    4.3287219    4.3287219    29334.972    14276.475    63008.124    10720.315    26810.734    24759.455   -3384.5766    81.110867 
   11800    1371.0545   -105.65648    1.2405589   -104.41592   -28530.885    4.3543898    4.3543898    4.3543898   -28530.885   -46844.709    4979.9421   -43727.887   -3990.7405     -7187.48   -3375.3578    82.562327 
   11900    1458.7604   -105.72508     1.319917   -104.40516   -16800.439    4.3437517    4.3437517    4.3437517   -16800.439   -35765.005    17216.859   -31853.171    8015.6694   -14755.996    2139.4403    81.958686 
   12000    1503.2115   -105.75557    1.3601373   -104.39543    21114.207    4.3022569    4.3022569    4.3022569    21114.207     12758.19    59163.653   -8579.2237    16842.663    30034.275    3776.1112    79.632257 
   12100    1191.4972    -105.5085    1.0780917   -104.43041    768.75855    4.3167233    4.3167233    4.3167233    768.75855   -16700.866    27417.871   -8410.7299   -10126.578   -46098.029   -6477.8198    80.438254 
   12200    1708.5521   -105.97424    1.5459338   -104.42831   -2269.9564    4.3434277    4.3434277    4.3434277   -2269.9564   -13360.778    30536.724   -23985.815    17140.355     20911.94    3800.1283    81.940348 
   12300    1041.3785    -105.3691   0.94226119   -104.42684    818.58944    4.3466517    4.3466517    4.3466517    818.58944    19174.708    29943.276   -46662.216   -2799.2121   -30879.429   -16158.589    82.122945 
   12400    1582.9557    -105.8453    1.4322916   -104.41301   -7901.8663    4.3218444    4.3218444    4.3218444   -7901.8663   -18931.251    9602.8465   -14377.195    6457.2987   -912.75151    1881.7572    80.724874 
   12500    1233.2184   -105.52577     1.115842   -104.40993     55024.48    4.3020845    4.3020845    4.3020845     55024.48    66898.565    67698.379    30476.495   -6599.3441   -9620.9357   -2169.7185    79.622685 
   12600    1754.5905   -106.02147    1.5875904   -104.43387   -24553.251    4.3363351    4.3363351    4.3363351   -24553.251   -12117.543   -8351.5911   -53190.619   -258.10022   -22219.043    170.07308    81.539586 
   12700    1190.5717   -105.50381    1.0772543   -104.42655    1352.5639    4.3428381    4.3428381    4.3428381    1352.5639    11137.823   -11119.807    4039.6756    15232.159    10606.054    2406.6463    81.906982 
   12800    1293.5994   -105.58563    1.1704759   -104.41515    6933.7989    4.3275213    4.3275213    4.3275213    6933.7989   -36659.429    51607.651    5853.1741    900.55839   -30444.309    3133.3889    81.043396 
   12900    1751.5112   -105.99466    1.5848042   -104.40985    10321.657    4.3123157    4.3123157    4.3123157    10321.657    14181.779    14859.719    1923.4733    16565.261    16601.653     11937.14    80.192113 
   13000    989.87759   -105.33084   0.89566205   -104.43518    1554.8558    4.3230485    4.3230485    4.3230485    1554.8558   -18847.242    21036.675    2475.1346   -12553.604   -22913.683   -321.83516    80.792365 
   13100    1955.5051   -106.18357    1.7693821   -104.41418   -16713.641    4.3441358    4.3441358    4.3441358   -16713.641   -26640.251    8128.3991   -31629.072    5882.4542   -16134.325    14315.267     81.98043 
   13200    1162.2364   -105.46762    1.0516159     -104.416   -9067.6284    4.3365039    4.3365039    4.3365039   -9067.6284   -9540.4527   -4501.2479   -13161.185   -2553.6207    7322.6374    -1299.664    81.549111 
   13300    1563.6966    -105.8245    1.4148655   -104.40964    9807.4335    4.3231395    4.3231395    4.3231395    9807.4335    2919.8252    45982.105    -19479.63   -15339.359   -19571.437    3301.9396    80.797465 
   13400    1645.5871   -105.90284    1.4889618   -104.41388    12903.489    4.3185527    4.3185527    4.3185527    12903.489    39081.804    1206.3934   -1577.7322    20728.684    14627.088     2742.273    80.540567 
   13500    1118.5595   -105.44681    1.0120961   -104.43472    1418.1482    4.3318869    4.3318869    4.3318869    1418.1482   -44344.406     58607.57   -10008.719   -20922.431   -17486.307     588.8046    81.288914 
   13600    1763.3943   -106.01319    1.5955562   -104.41763    -1555.563    4.3380246    4.3380246    4.3380246    -1555.563    8300.3136    17949.951   -30916.954    13896.808    14440.798   -4233.7775    81.634931 
   13700    1178.3717   -105.49077    1.0662155   -104.42455   -1057.0482    4.3257094    4.3257094    4.3257094   -1057.0482   -23584.923    37102.387   -16688.609   -5904.6042   -3718.7256    5930.0531    80.941643 
   13800    1600.9764   -105.87007    1.4485971   -104.42147    18363.328    4.3157338    4.3157338    4.3157338    18363.328    40921.635    28065.672   -13897.323   -23671.586   -8970.1142   -9980.9604    80.382949 
   13900    1391.2973   -105.69185     1.258875   -104.43297    1010.1567    4.3300691    4.3300691    4.3300691    1010.1567    27681.464    2371.4866   -27022.481    7619.4908     17281.96    3445.9989    81.186624 
   14000    1292.3457   -105.59955    1.1693416   -104.43021   -9303.2139    4.3386249    4.3386249    4.3386249   -9303.2139   -10035.251    8947.9718   -26822.362   -24441.006   -31043.226   -2665.4144    81.668827 
   14100    1747.7322   -105.99746    1.5813848   -104.41607    35.705841    4.3297358    4.3297358    4.3297358    35.705841    16137.815    19280.406   -35311.103    15190.438    24041.939    1321.7608    81.167876 
   14200    908.09473   -105.25888   0.82166319   -104.43721   -13163.415    4.3174946    4.3174946    4.3174946   -13163.415   -18509.778   -3055.6147   -17924.852   -12199.039   -13955.494    8372.4628    80.481381 
   14300    1626.9006    -105.9094    1.4720538   -104.43734    30149.376    4.3143279    4.3143279    4.3143279    30149.376    85002.996    11336.686   -5891.5532   -4782.1463    1103.6564    441.24517    80.304422 
   14400     1315.759   -105.64144    1.1905263   -104.45092   -40976.213    4.3391383    4.3391383    4.3391383   -40976.213   -37095.028   -26776.527   -59057.085    815.87038    31748.433    2294.5307    81.697823 
   14500    1480.9526   -105.78134     1.339997   -104.44134   -9401.7581    4.3367173    4.3367173    4.3367173   -9401.7581    12240.777   -25631.261    -14814.79   -19905.694   -38684.326    5123.5539    81.561149 
   14600    1493.2461    -105.7865    1.3511204   -104.43538    20195.769    4.3172708    4.3172708    4.3172708    20195.769    45934.159    28419.009   -13765.862    5218.9837    41041.495    2081.4216    80.468866 
   14700     1037.089   -105.38581   0.93837993   -104.44743   -5803.6145    4.3168708    4.3168708    4.3168708   -5803.6145    696.95462   -3976.0065   -14131.792   -1019.9243   -24926.928    1368.4555    80.446498 
   14800    1759.7291   -106.02733    1.5922399   -104.43509   -2642.8854    4.3308741    4.3308741    4.3308741   -2642.8854    -9330.044    4012.5062   -2611.1185    8079.2304    15925.734    5103.4942    81.231914 
   14900    1098.1455   -105.41861   0.99362513   -104.42498   -2815.2478    4.3422506    4.3422506    4.3422506   -2815.2478   -7307.6778     17002.92   -18140.985    -469.0144    13992.594     274.4195    81.873742 
   15000    1720.6833   -105.96273    1.5569104   -104.40582   -6333.2425     4.330409     4.330409     4.330409   -6333.2425    12527.853   -10314.821   -21212.759    557.97421   -22568.929    3591.5175    81.205742 
   15100    1389.3887   -105.65707    1.2571481   -104.39993    27155.078    4.3194871    4.3194871    4.3194871    27155.078    46677.481    33904.873    882.88093    7343.5779    42183.669    1772.1531    80.592857 
   15200    1355.1747   -105.63459    1.2261906    -104.4084   -19176.041    4.3354577    4.3354577    4.3354577   -19176.041   -11239.321    9439.5759   -55728.376    -5193.945   -52901.014    6314.8449    81.490099 
   15300    1513.4125   -105.77228    1.3693675   -104.40291   -13893.524    4.3432974    4.3432974    4.3432974   -13893.524   -16318.237    11589.483    -36951.82    1684.8743    37097.766    5221.1456    81.932974 
   15400    1532.7359   -105.78664    1.3868517   -104.39979   -16574.229    4.3321797    4.3321797    4.3321797   -16574.229   -29918.767    29812.899   -49616.819   -8849.1294    -45907.81    4012.2003      81.3054 
   15500    1209.6228   -105.49532    1.0944922   -104.40082   -1472.6992    4.3183009    4.3183009    4.3183009   -1472.6992    18435.095    5648.8447   -28502.037   -7818.2868    10425.659    9429.0052     80.52648 
   15600    1437.7885   -105.71498    1.3009413   -104.41404    -18474.83    4.3267324    4.3267324    4.3267324    -18474.83   -48855.893    24003.426   -30572.023   -9517.3043   -16279.822   -2331.7335    80.999082 
   15700    1267.7722   -105.56361     1.147107   -104.41651   -12186.067    4.3388459    4.3388459    4.3388459   -12186.067    12342.134    5292.7865    -54193.12   -2267.8506   -39272.515    3421.1825    81.681304 
   15800    1477.0557   -105.74385     1.336471   -104.40738    -5228.309    4.3319894    4.3319894    4.3319894    -5228.309   -3122.8422    21788.105    -34350.19   -11938.511    15440.061    5891.3162    81.294687 
   15900    1199.2249   -105.49263    1.0850839   -104.40755   -10034.359     4.327273     4.327273     4.327273   -10034.359    -16017.39    34651.813     -48737.5   -2815.2956   -57891.516   -4963.6691    81.029448 
   16000     2012.225   -106.22313    1.8207035   -104.40243    1446.6637    4.3268946    4.3268946    4.3268946    1446.6637    28522.144   -22950.948   -1231.2048   -7136.9953    12883.938    467.31611    81.008194 
   16100    877.71076   -105.22704   0.79417114   -104.43287   -17895.529     4.330449     4.330449     4.330449   -17895.529   -16439.545    27614.358     -64861.4    2939.5873   -55591.571   -4827.1503    81.207995 
   16200     2056.409   -106.28068    1.8606821      -104.42   -1900.4774     4.332397     4.332397     4.332397   -1900.4774    8288.5671    -7226.125   -6763.8744    744.11298     8779.108   -6242.9847    81.317634 
   16300    991.66364   -105.33625   0.89727811   -104.43897   -13410.296    4.3395572    4.3395572    4.3395572   -13410.296   -23838.019    9943.3848   -26336.254   -10145.993   -39326.611    7850.0673    81.721486 
   16400    1654.7038   -105.92752    1.4972108   -104.43031   -4192.5699    4.3277815    4.3277815    4.3277815   -4192.5699    11234.754    9031.5794   -32844.043     8053.228   -12854.252   -6985.8811    81.058015 
   16500    1581.7502   -105.86031    1.4312009   -104.42911    22287.115    4.3235426    4.3235426    4.3235426    22287.115     13021.29    29505.556    24334.498   -24943.937    10309.213   -2665.8035    80.820072 
   16600    1206.4638   -105.53328    1.0916338   -104.44164    4853.7198    4.3308266    4.3308266    4.3308266    4853.7198    28281.093    2968.9649   -16688.898   -977.13187   -44135.413   -888.31707    81.229239 
   16700    1781.5747   -106.04368    1.6120063   -104.43167   -1859.6846    4.3427138    4.3427138    4.3427138   -1859.6846    49395.917   -24766.842   -30208.128   -11849.033    27719.991   -1726.6695     81.89995 
   16800     1436.164   -105.71988    1.2994714   -104.42041   -7124.0789    4.3380272    4.3380272    4.3380272   -7124.0789   -24542.279   -14584.408    17754.451   -16448.057   -32094.662    1757.7599    81.635076 
   16900    1266.4644   -105.56184    1.1459236   -104.41592    13119.846    4.3262753    4.3262753    4.3262753    13119.846    78082.671   -14954.327   -23768.807    9852.2852    8760.9401   -4851.6928    80.973416 
   17000    1646.3083   -105.91391    1.4896144    -104.4243   -22743.424    4.3281672    4.3281672    4.3281672   -22743.424   -22313.782    -17643.94    -28272.55   -19652.032    21284.824    4414.7423    81.079691 
   17100    1718.4774   -105.97913    1.5549145   -104.42421    16028.456    4.3305264    4.3305264    4.3305264    16028.456    61474.436   -19559.859    6170.7902      5708.47    -17920.03   -9826.3374    81.212349 
   17200    810.55019    -105.1647   0.73340284    -104.4313   -31188.455    4.3475619    4.3475619    4.3475619   -31188.455   -17550.559   -23442.002   -52572.805   -2428.2719    27617.771     4658.811    82.174547 
   17300     1752.134   -105.99797    1.5853676    -104.4126    9727.7957    4.3262758    4.3262758    4.3262758    9727.7957    32916.385    975.77817   -4708.7759    -6939.234    4698.5881   -9387.9563    80.973441 
   17400    1054.6544   -105.38093   0.95427343   -104.42665    19393.105    4.3189165    4.3189165    4.3189165    19393.105    60269.702    8627.2055   -10717.591    6445.5463    7946.0367   -4568.8273    80.560922 
   17500    1262.7917   -105.57907    1.1426005   -104.43647   -35628.835    4.3404009    4.3404009    4.3404009   -35628.835     -59594.3    -5404.333   -41887.872    5006.4022    33582.321   -1806.2323    81.769159 
   17600    1735.8043   -105.99138    1.5705922   -104.42079    4953.4341    4.3359078    4.3359078    4.3359078    4953.4341    22690.175    2489.9255   -10319.799   -3565.2243   -16406.832   -7220.0432    81.515484 
   17700    1303.7556   -105.61626    1.1796654    -104.4366   -2837.4751    4.3317717    4.3317717    4.3317717   -2837.4751    46455.651   -20105.651   -34862.426     6374.896    28250.082    2008.6523    81.282429 
   17800    1182.2473   -105.50759    1.0697222   -104.43786    34362.479    4.3202561    4.3202561    4.3202561    34362.479    90310.281    13458.507   -681.35079    674.51967   -9852.7912    -5545.715    80.635909 
   17900    1457.8579   -105.77395    1.3191005   -104.45485   -15803.341    4.3412015    4.3412015    4.3412015   -15803.341    16743.151   -41417.032   -22736.142    -5340.228   -19220.567   -4397.6673    81.814417 
   18000    1945.8721   -106.18339     1.760666   -104.42273   -7433.1605    4.3491377    4.3491377    4.3491377   -7433.1605    12670.066   -20633.298   -14336.249    9710.5599    5496.8845   -6425.2809    82.263937 
   18100    961.19636   -105.29559   0.86971067   -104.42588    5574.2691     4.329133     4.329133     4.329133    5574.2691    50858.157   -2901.1889    -31234.16    -2107.016   -36886.081   -10295.449    81.133981 
   18200    1370.4155     -105.667    1.2399807   -104.42702    7770.0744    4.3292263    4.3292263    4.3292263    7770.0744    68912.672   -24326.312   -21276.136     286.1976   -9908.5028   -689.67534    81.139224 
   18300    1444.8772   -105.73677    1.3073553   -104.42942    7981.6117    4.3358882    4.3358882    4.3358882    7981.6117    3689.2642    3276.7612     16978.81    15154.074   -9587.0737   -9902.1128    81.514379 
   18400    1338.5857   -105.63675    1.2111805   -104.42557   -34680.566    4.3474443    4.3474443    4.3474443   -34680.566   -16892.705   -30944.492     -56204.5   -3998.2947   -26598.403    2370.7048    82.167878 
   18500    1546.9344    -105.8162    1.3996988    -104.4165   -635.27214    4.3279878    4.3279878    4.3279878   -635.27214    2982.7287   -6595.3337    1706.7886    22959.199    34123.467    9068.0455    81.069611 
   18600    1548.5928   -105.82434    1.4011993   -104.42314    5175.8843     4.321089     4.321089     4.321089    5175.8843    8861.0113    11328.075   -4661.4335    3540.5398   -26547.645   -2522.4641    80.682551 
   18700    1070.8479   -105.40786   0.96892566   -104.43893     -14113.2    4.3383237    4.3383237    4.3383237     -14113.2   -14910.091    1186.6987   -28616.208   -5097.8122     18172.74    2662.3999    81.651817 
   18800     1565.173   -105.84717    1.4162015   -104.43097   -17672.179    4.3500244    4.3500244    4.3500244   -17672.179   -13514.966    -23556.03   -15945.542    17408.133    13315.084    3872.1314    82.314263 
   18900    1567.5002   -105.83618    1.4183071   -104.41788     -13382.1    4.3424634    4.3424634    4.3424634     -13382.1   -6213.5455   -15014.573    -18918.18   -15672.478   -25448.915    2697.6618    81.885782 
   19000    933.06046    -105.2715   0.84425271   -104.42725    420.23652    4.3194788    4.3194788    4.3194788    420.23652   -369.33384    6236.2188   -4606.1754    20070.199    41925.968    8223.0272    80.592389 
   19100    1916.9368   -106.16433    1.7344847   -104.42985    20005.792    4.3306744    4.3306744    4.3306744    20005.792    22182.812   -18056.327    55890.892   -11455.764   -13157.996   -1837.0934    81.220678 
   19200    1216.5139   -105.54226    1.1007274   -104.44153   -37489.903    4.3494428    4.3494428    4.3494428   -37489.903   -39414.218   -31734.574   -41320.916    12943.891    47433.384   -5546.9585    82.281249 
   19300    1118.2082   -105.44231    1.0117783   -104.43053    280.13726     4.342723     4.342723     4.342723    280.13726    18070.591   -33577.309     16347.13    9427.0943   -2430.6256    3838.7534    81.900471 
   19400    1946.5162   -106.18189    1.7612487   -104.42064    10974.116    4.3282972    4.3282972    4.3282972    10974.116    20117.264    2553.8021    10251.281   -3635.2748    7705.2587   -4118.9854       81.087 
   19500    989.86394     -105.347    0.8956497   -104.45135    2392.6445    4.3201881    4.3201881    4.3201881    2392.6445   -7835.9753     14491.23     522.6785    27130.018    27046.857    5118.5533      80.6321 
   19600    1708.8497   -106.00125    1.5462031   -104.45504    483.95734    4.3456019    4.3456019    4.3456019    483.95734    21933.531   -8467.9639   -12013.695   -287.07977   -8575.0451   -3683.6212    82.063457 
   19700    1595.8639   -105.88577    1.4439712    -104.4418   -22223.849    4.3459625    4.3459625    4.3459625   -22223.849   -38562.825    230.90391   -28339.626     4005.192    15920.134    1676.2257    82.083887 
   19800    956.09921   -105.29376   0.86509866   -104.42866    36514.819    4.3175006    4.3175006    4.3175006    36514.819     29936.25    64332.669    15275.538    22095.231    12238.618    9777.6001    80.481716 
   19900    2058.9133    -106.2882     1.862948   -104.42526    2758.1985    4.3261728    4.3261728    4.3261728    2758.1985    -2971.474    24794.766   -13548.697   -17118.496   -22269.363   -237.88996     80.96766 
   20000    1096.8922   -105.42484   0.99249114   -104.43235    37098.009    4.3369112    4.3369112    4.3369112    37098.009   -3613.6592    96010.097    18897.588    13833.509    17257.757    13285.388    81.572092 
   20100    1113.3651   -105.43817    1.0073962   -104.43077   -6741.4145    4.3517913    4.3517913    4.3517913   -6741.4145   -8818.1684    5312.4775   -16718.552    552.24157   -25018.467    14339.968    82.414604 
   20200    1626.7856   -105.88187    1.4719498   -104.40992    10649.155    4.3417585    4.3417585    4.3417585    10649.155   -10723.714    21812.081    20859.099    4490.9535     4910.914    428.29787    81.845912 
   20300    1144.6504   -105.45874    1.0357037   -104.42304   -4858.6415    4.3211986    4.3211986    4.3211986   -4858.6415   -26876.321   -7623.2159    19923.613    15791.731   -18970.638    21629.319    80.688694 
   20400    1328.4189   -105.64471    1.2019813   -104.44272     5848.266    4.3157501    4.3157501    4.3157501     5848.266    5553.1421    2720.9413    9270.7145   -4560.5565   -25641.736   -8946.0923    80.383863 
   20500    1854.2818   -106.12753    1.6777932   -104.44974   -7965.0188    4.3440765    4.3440765    4.3440765   -7965.0188   -8290.5676   -10986.241   -4618.2482     7381.854   -1971.3726   -7752.4609    81.977072 
   20600    1238.8596   -105.56325    1.1209462   -104.44231   -35504.064    4.3503124    4.3503124    4.3503124   -35504.064   -27363.756   -56977.165    -22171.27   -1001.0631   -27456.069    15477.872    82.330613 
   20700    1326.1053   -105.62759    1.1998879   -104.42771    34268.054    4.3204212    4.3204212    4.3204212    34268.054    26702.935     16771.49    59329.736   -11674.738    3016.9966   -15136.945    80.645152 
   20800     1530.465   -105.81476    1.3847969   -104.42996    22715.727    4.3193722    4.3193722    4.3193722    22715.727    9639.2513     -45.4639    58553.394    2408.2271    17670.203     29163.24    80.586425 
   20900     1254.349   -105.58052    1.1349613   -104.44556   -12435.316    4.3351287    4.3351287    4.3351287   -12435.316    11471.377   -27014.796    -21762.53   -8725.1619   -25218.727    12738.605     81.47155 
   21000    1449.7861   -105.75063    1.3117969   -104.43883    13623.294    4.3476598    4.3476598    4.3476598    13623.294    14449.428   -943.98376    27364.436   -12700.659    22533.901   -14996.059    82.180098 
   21100    1446.1798   -105.74308    1.3085339   -104.43454   -10827.464    4.3442384    4.3442384    4.3442384   -10827.464    2411.2326   -38894.716    4001.0915    4618.1253   -13766.101    19797.742    81.986238 
   21200    1368.2689   -105.66339    1.2380384   -104.42536    25665.345    4.3106978    4.3106978    4.3106978    25665.345     53868.21    4800.4126    18327.413    -27250.72   -14145.956   -10820.801    80.101882 
   21300    1514.6264   -105.80984    1.3704658   -104.43938    15631.528    4.3189748    4.3189748    4.3189748    15631.528    4873.0557    15869.091    26152.438    3602.1321    40044.486    2000.4136    80.564186 
   21400    1715.9965    -105.9849    1.5526697   -104.43223   -28954.204    4.3486141    4.3486141    4.3486141   -28954.204   -381.70716   -44195.261   -42285.644   -269.30442   -19112.666    11263.038    82.234228 
   21500    1367.6964   -105.65511    1.2375204   -104.41759    4220.4905    4.3445461    4.3445461    4.3445461    4220.4905    20209.935    161.00119   -7709.4641   -18856.175    20790.969    -14164.02     82.00366 
   21600    1444.3248   -105.71261    1.3068554   -104.40575   -18498.118    4.3393366    4.3393366    4.3393366   -18498.118   -7390.6633   -30921.547   -17182.142    17659.068     2353.553    7771.9584    81.709024 
   21700    1213.1815   -105.50976    1.0977122   -104.41204     6233.887    4.3226208    4.3226208    4.3226208     6233.887    23307.847   -20470.583    15864.397   -12669.356   -30652.212   -1622.6745    80.768388 
   21800    1444.7636   -105.73378    1.3072525   -104.42653    9210.3345    4.3231571    4.3231571    4.3231571    9210.3345   -9358.7402   -3530.4699    40520.213   -13856.968    23167.684   -6170.9029    80.798457 
   21900    1163.0374   -105.49189    1.0523407   -104.43955   -13028.653    4.3395438    4.3395438    4.3395438   -13028.653   -18958.404    -45927.58    25800.026    22623.424   -17043.302    13818.959    81.720727 
   22000    1188.3263   -105.50292    1.0752226   -104.42769   -16303.321    4.3479899    4.3479899    4.3479899   -16303.321   -31676.557   -56457.362    39223.957   -38649.426   -9899.8021   -10249.725    82.198821 
   22100    1672.7266   -105.92569    1.5135182   -104.41217    14528.721    4.3205748    4.3205748    4.3205748    14528.721    3514.6488      -4651.8    44723.313    19481.757    13171.531    4577.4508    80.653756 
   22200    852.65129    -105.2021    0.7714968    -104.4306    3461.2765    4.3136053    4.3136053    4.3136053    3461.2765   -18344.564   -3161.9149    31890.308   -18218.195   -18990.329    8304.8526    80.264078 
   22300    1589.3115   -105.87261    1.4380424   -104.43457   -10330.946     4.337499     4.337499     4.337499   -10330.946    11040.296   -32160.728   -9872.4067   -16489.058    7687.9649   -11681.716    81.605263 
   22400     1377.867   -105.67356     1.246723   -104.42683   -8912.4861    4.3465162    4.3465162    4.3465162   -8912.4861   -19941.306    -24687.97    17891.818      6125.28   -3319.0648    7480.1165    82.115268 
   22500    1034.0699   -105.35718   0.93564815   -104.42154    -34500.56    4.3426352    4.3426352    4.3426352    -34500.56   -43301.489   -52845.531   -7354.6589   -32407.333   -23820.086   -3117.7899    81.895503 
   22600    2199.2914   -106.39452    1.9899651   -104.40456    25862.174    4.3185607    4.3185607    4.3185607    25862.174    49437.465    4224.0551    23925.001    16546.484    4826.4632   -9006.3262    80.541011 
   22700    1207.0518   -105.53016    1.0921658   -104.43799   -22579.095    4.3201157    4.3201157    4.3201157   -22579.095   -47981.294   -6064.9978   -13690.992   -42126.186   -21065.813    6553.0983    80.628047 
   22800    1142.7221   -105.48185     1.033959   -104.44789    8586.0857    4.3317831    4.3317831    4.3317831    8586.0857    47516.069   -31666.235    9908.4235   -5014.3326    757.15901   -19514.324    81.283071 
   22900    1946.6635   -106.18855     1.761382   -104.42716   -13144.701    4.3457878    4.3457878    4.3457878   -13144.701   -23446.772    5157.9883   -21145.319   -11522.633   -11183.511    843.37138    82.073993 
   23000    1086.4945   -105.41046   0.98308307   -104.42737   -32449.434    4.3374849    4.3374849    4.3374849   -32449.434    -33609.23   -45612.574   -18126.499   -18628.584   -29517.944    700.67123    81.604465 
   23100      1529.09   -105.79396    1.3835528   -104.41041    38279.144    4.3061675    4.3061675    4.3061675    38279.144    58753.912    16932.974    39150.545    12984.327    9069.6826   -8801.0544    79.849601 
   23200    1326.7637   -105.64113    1.2004837   -104.44064   -2350.9416    4.3220003    4.3220003    4.3220003   -2350.9416   -26408.783    12981.075    6374.8832   -16034.649   -41835.471    3620.8855    80.733608 
   23300    1211.3532   -105.53515    1.0960578   -104.43909   -19536.342    4.3452947    4.3452947    4.3452947   -19536.342   -18821.615   -45954.622    6167.2094    2826.1988   -20368.218    -14556.67    82.046056 
   23400    1700.0767   -105.95878    1.5382651   -104.42052   -11305.409    4.3351393    4.3351393    4.3351393   -11305.409    -22974.08   -26063.323    15121.176    22695.507   -6750.0319   -12446.025     81.47215 
   23500    1509.2639   -105.78415    1.3656137   -104.41854   -7599.5404    4.3274686    4.3274686    4.3274686   -7599.5404   -29781.447    5021.1413    1961.6839    -11724.09   -15583.238    6335.9945    81.040435 
   23600    1093.0952   -105.42054   0.98905548   -104.43148   -9130.9141    4.3264805    4.3264805    4.3264805   -9130.9141   -2010.5784   -45422.992    20040.828    35611.798    5373.0529   -11484.849    80.984937 
   23700    1613.6672   -105.88711      1.46008   -104.42703    13577.162    4.3322854    4.3322854    4.3322854    13577.162   -21436.787     6215.294     55952.98   -5013.3049   -12075.681   -266.41931    81.311353 
   23800      1281.96   -105.59507    1.1599444   -104.43513   -39017.265    4.3479357    4.3479357    4.3479357   -39017.265   -45666.767   -54879.496   -16505.531    30685.875    -7417.693   -13398.023    82.195748 
   23900    1305.9418   -105.60475    1.1816435    -104.4231    3829.5061    4.3341182    4.3341182    4.3341182    3829.5061    10789.017   -26028.821    26728.323    3883.0924   -5990.7455   -12542.398    81.414591 
   24000    1649.6999    -105.9061    1.4926832   -104.41341     12389.95    4.3123249    4.3123249    4.3123249     12389.95   -21337.414    41657.665    16849.598    22380.429   -32012.062    10283.843    80.192626 
   24100    1315.2448   -105.62409    1.1900611   -104.43403   -6958.1644    4.3276444    4.3276444    4.3276444   -6958.1644   -729.76341   -31143.884    10999.154    19873.324    2866.3024   -25497.888    81.050317 
   24200    1262.9096   -105.56158    1.1427072   -104.41888   -2086.2724    4.3441339    4.3441339    4.3441339   -2086.2724   -7034.0952    3823.4607   -3048.1825   -12029.154   -25724.289    10492.586    81.980318 
   24300    1495.8969   -105.76552     1.353519     -104.412   -16287.059    4.3341848    4.3341848    4.3341848   -16287.059   -25973.034   -22172.135   -716.00607     39020.39    -2281.283     -17745.3    81.418347 
   24400    1510.7503   -105.78638    1.3669586   -104.41943   -1822.5254    4.3242441    4.3242441    4.3242441   -1822.5254    24151.965   -8084.4164   -21535.125   -9932.6853    2876.5416   -19651.456    80.859414 
   24500    1267.2388   -105.57463    1.1466243   -104.42801    11813.066    4.3201693    4.3201693    4.3201693    11813.066   -27317.613    47554.308    15202.504    13571.749   -11608.139     11498.52    80.631045 
   24600    1280.2267   -105.59964    1.1583761   -104.44127   -27103.087    4.3388988    4.3388988    4.3388988   -27103.087   -21722.067   -37088.413    -22498.78    27962.756    13796.954   -25378.943    81.684292 
   24700    1835.8429    -106.0768    1.6611092   -104.41569    -8097.466    4.3389675    4.3389675    4.3389675    -8097.466   -3536.6712    4211.2085   -24966.935   -2353.3091   -5815.6069    4015.8211    81.688173 
   24800    1157.4017   -105.46999    1.0472414   -104.42275   -10154.063    4.3170143    4.3170143    4.3170143   -10154.063   -35481.968   -23552.226    28572.006     37414.48    4581.2001   -14959.688    80.454521 
   24900    1335.6883   -105.65438    1.2085589   -104.44582   -7507.8587    4.3225524    4.3225524    4.3225524   -7507.8587   -4197.1387    12771.141   -31097.579   -5930.2286    12281.122    -23321.92    80.764555 
   25000    1898.2567   -106.15524    1.7175825   -104.43766    11854.825     4.327437     4.327437     4.327437    11854.825    7040.2985     19163.94    9360.2354    1604.6809   -10288.025    13962.941     81.03866 
   25100     566.0143   -104.97069   0.51214163   -104.45854   -38110.575    4.3380494    4.3380494    4.3380494   -38110.575   -31084.966   -45339.751   -37907.006     14361.85    23877.808   -40999.901    81.636331 
   25200    1842.8154   -106.09544    1.6674181   -104.42802    11763.857    4.3246648    4.3246648    4.3246648    11763.857     57583.51    655.11741   -22947.056   -20981.251   -3952.1005    1865.3202    80.883021 
   25300    1527.4355   -105.81251    1.3820557   -104.43046   -10204.702    4.3224119    4.3224119    4.3224119   -10204.702    16901.074   -42066.806   -5448.3742    26663.258   -2594.5927   -12249.241    80.756682 
   25400    1191.3029   -105.50658    1.0779159   -104.42866   -40092.256     4.339904     4.339904     4.339904   -40092.256   -44941.027   -45848.955   -29486.786    1045.5916    12680.797   -24052.733    81.741079 
   25500    1730.4944   -105.97297    1.5657877   -104.40718    2747.1226    4.3297064    4.3297064    4.3297064    2747.1226    23573.837   -4158.6023   -11173.866    8437.3015   -19179.654    34357.048    81.166224 
   25600    1220.5506   -105.51948    1.1043799    -104.4151   -8104.8004    4.3321838    4.3321838    4.3321838   -8104.8004   -28491.012   -19537.371    23713.982    20132.676    11411.073   -31814.312    81.305632 
   25700    1330.8799   -105.61536    1.2042081   -104.41115   -6844.7556    4.3345819    4.3345819    4.3345819   -6844.7556   -25065.379    16150.223    -11619.11    -4270.002   -5311.8766    37796.689    81.440728 
   25800    1267.7613   -105.56317    1.1470971   -104.41607     9782.509    4.3288652    4.3288652    4.3288652     9782.509   -2292.1994   -11711.474      43351.2    12614.538    9106.9397    6504.3506    81.118923 
   25900    1374.7786   -105.67047    1.2439286   -104.42654   -16285.751    4.3316741    4.3316741    4.3316741   -16285.751   -6106.6305   -4803.8496   -37946.772    3112.5254    19924.342   -11466.375    81.276934 
   26000    1737.8857    -105.9893    1.5724755   -104.41682    7785.9757    4.3255936    4.3255936    4.3255936    7785.9757     26098.94   -12046.085    9305.0718    -3505.686    5022.1088    27704.606    80.935146 
   26100    774.72823   -105.13595   0.70099038   -104.43496   -8872.3719    4.3273029    4.3273029    4.3273029   -8872.3719    15676.861   -39136.241   -3157.7363    14331.356    13075.887   -58010.402    81.031127 
   26200    1783.2213   -106.04304    1.6134961   -104.42955    9543.8379    4.3177339    4.3177339    4.3177339    9543.8379    17576.061    16309.948   -5254.4949   -2098.0599    13833.935    4954.0558     80.49476 
   26300    1415.7664   -105.72337    1.2810152   -104.44236   -2304.0291    4.3298952    4.3298952    4.3298952   -2304.0291    30166.474    -41443.14    4364.5782     280.8404   -8084.9454   -11782.101    81.176843 
   26400    908.15884   -105.25764    0.8217212   -104.43592   -31970.982    4.3398878    4.3398878    4.3398878   -31970.982   -4840.9508   -31903.641   -59168.354    22615.554    18793.366   -38824.707    81.740164 
   26500    2109.2453     -106.324    1.9084895   -104.41551    25307.167    4.3187655    4.3187655    4.3187655    25307.167    34139.014    32864.468    8918.0203   -19882.659    1027.6354    12749.463    80.552473 
   26600    906.10507   -105.26353    0.8198629   -104.44366   -22670.159    4.3215127    4.3215127    4.3215127   -22670.159    780.70723   -36350.996   -32440.188    20677.004    19827.077   -42206.342    80.706292 
   26700    1799.3915   -106.05895    1.6281272   -104.43082    7651.0725    4.3250611    4.3250611    4.3250611    7651.0725    26242.726    9293.9986   -12583.507    6278.8337    10008.074    10740.949    80.905257 
   26800    1303.1364   -105.61027    1.1791052   -104.43116   -744.99705      4.33196      4.33196      4.33196   -744.99705    20907.549    340.32834   -23482.868   -3991.8085   -902.27099   -19337.189    81.293028 
   26900    1112.7986   -105.43898    1.0068835   -104.43209   -20999.037    4.3291825    4.3291825    4.3291825   -20999.037   -48154.163    6906.7186   -21749.666    20097.308    29845.114   -14169.894    81.136763 
   27000    1885.5792    -106.1252    1.7061116   -104.41909    9715.5479    4.3181098    4.3181098    4.3181098    9715.5479    41493.577   -15238.101    2891.1676   -873.26512   -10635.809    9622.9964    80.515788 
   27100    998.78156   -105.33498   0.90371854   -104.43126   -10726.823    4.3305971    4.3305971    4.3305971   -10726.823   -12119.947    4535.6414   -24596.164    6510.6668     28387.78   -32893.833    81.216326 
   27200     1348.389   -105.63936    1.2200507   -104.41931   -14824.975    4.3317453    4.3317453    4.3317453   -14824.975   -26332.031    11936.689   -30079.583    14694.242    18995.034    30111.748    81.280942 
   27300    1790.2984   -106.03379    1.6198996   -104.41389     9148.086    4.3188776    4.3188776    4.3188776     9148.086    18069.329    26111.458   -16736.529   -1278.5015    -12803.52   -20865.252    80.558744 
   27400     1255.026   -105.56684    1.1355739   -104.43127   -11277.773    4.3224601    4.3224601    4.3224601   -11277.773   -6453.5219   -2004.6158   -25375.182     7404.836    18981.001     12039.71    80.759383 
   27500    1141.6712   -105.47208    1.0330081   -104.43907    7189.6404    4.3280879    4.3280879    4.3280879    7189.6404    43268.955    15560.768   -37260.802   -371.87848    2597.1087    38860.475    81.075234 
   27600    1926.5114   -106.16792     1.743148   -104.42477   -2609.4378     4.334895     4.334895     4.334895   -2609.4378   -2982.6087    4618.8118   -9464.5165    10192.357   -5920.3503   -16658.029    81.458377 
   27700     665.0797   -105.04108   0.60177808    -104.4393   -21037.763    4.3268756    4.3268756    4.3268756   -21037.763    34089.233   -39680.557   -57521.966    20080.177    10265.296    58374.327    81.007127 
   27800    1708.7217   -105.96158    1.5460873    -104.4155    46723.737    4.3146467    4.3146467    4.3146467    46723.737    37182.043    85094.962    17894.207   -4645.2431   -249.42822   -9674.1454    80.322221 
   27900    1263.0341   -105.58544    1.1428198   -104.44262   -22196.772    4.3318098    4.3318098    4.3318098   -22196.772   -8680.9675   -11723.953   -46185.396     14395.49   -5887.4135    39550.121    81.284573 
   28000    1453.2487   -105.74611      1.31493   -104.43118   -4980.7951    4.3368875    4.3368875    4.3368875   -4980.7951   -7596.2216    12500.131   -19846.295    10636.382    7307.5984    5951.8379    81.570752 
   28100    1479.3422   -105.76532    1.3385399   -104.42678    2720.4612    4.3250272    4.3250272    4.3250272    2720.4612    26680.365   -5696.4456   -12822.536   -11730.149   -4047.9735   -6553.0851    80.903356 
   28200    1222.3189   -105.53899    1.1059798   -104.43301   -4758.7955     4.312116     4.312116     4.312116   -4758.7955   -379.16317    13490.261   -27387.484    27250.514    3207.6243     44811.52    80.180968 
   28300    1605.4527   -105.88698    1.4526473   -104.43433    17597.885    4.3188678    4.3188678    4.3188678    17597.885    20447.451    16597.276    15748.927    5325.4503    9215.9664   -34698.149    80.558195 
   28400    1319.7387   -105.62115    1.1941273   -104.42703    -19701.22    4.3395453    4.3395453    4.3395453    -19701.22   -11336.364   -8278.8509   -39488.446     -8581.37   -5221.6824    23625.934    81.720811 
   28500    1314.2712   -105.60695    1.1891802   -104.41777    -6116.156    4.3302613    4.3302613    4.3302613    -6116.156   -34610.199    19177.095   -2915.3637    39280.001    6052.4717    1044.9885    81.197435 
   28600    1567.7759   -105.83706    1.4185566   -104.41851    20721.169    4.3145374    4.3145374    4.3145374    20721.169    34592.194    42333.394   -14762.081   -23361.399    -1036.736   -17446.403    80.316117 
   28700     1189.977   -105.52006    1.0767162   -104.44334   -376.59532    4.3124911    4.3124911    4.3124911   -376.59532   -28035.666   -8226.1422    35132.022    36644.791    1394.9022    25801.678    80.201896 
   28800     1802.574   -106.07804    1.6310068   -104.44704   -6712.0894    4.3295406    4.3295406    4.3295406   -6712.0894   -5724.4004   -10874.589   -3537.2791    20341.224    199.25639   -8083.7669      81.1569 
   28900    1181.1702   -105.51092    1.0687476   -104.44217   -12348.147    4.3376928    4.3376928    4.3376928   -12348.147   -16885.869    6131.3671   -26289.939    2055.0631   -7870.3076    3083.7318    81.616202 
   29000    1238.4993   -105.56123    1.1206202   -104.44061     -19296.4     4.324002     4.324002     4.324002     -19296.4   -32220.457   -51688.899    26020.157    48975.078    3086.9772    22503.099    80.845836 
   29100    1940.6543    -106.1738    1.7559448   -104.41785    57068.216    4.3038541    4.3038541    4.3038541    57068.216    39350.548    85626.753    46227.346    -14378.86   -3439.0852   -5408.8504    79.720979 
   29200    702.57683   -105.08958   0.63570628   -104.45388   -22996.276    4.3256341    4.3256341    4.3256341   -22996.276    411.79115   -82967.056    13566.436    56210.888   -4614.2035    28489.821    80.937415 
   29300    1796.3274    -106.0514    1.6253548   -104.42605   -12231.924    4.3360772    4.3360772    4.3360772   -12231.924   -13554.859   -6533.7934   -16607.118   -7338.5842    6133.3803   -1709.8889    81.525039 
   29400    1397.9844   -105.69144    1.2649257   -104.42652    11803.124    4.3192255    4.3192255    4.3192255    11803.124    23520.802   -8964.3174    20852.889    36885.625    3682.5972   -688.02208    80.578215 
   29500    1103.9692   -105.43243   0.99889452   -104.43353   -18300.011    4.3220363    4.3220363    4.3220363   -18300.011    -20426.08   -38868.252    4394.2995    32999.626    -2707.337    19162.092    80.735629 
   29600    1502.0487   -105.79166    1.3590852   -104.43257    13412.526    4.3170127    4.3170127    4.3170127    13412.526    11465.474    44601.274   -15829.171   -15302.627    22341.134   -19533.348    80.454433 
   29700    1193.5062   -105.52613    1.0799095   -104.44622   -20329.609    4.3298915    4.3298915    4.3298915   -20329.609   -52739.862   -40146.925    31897.961    60513.726   -14410.083   -630.01348    81.176633 
   29800    1612.9405   -105.88916    1.4594224   -104.42974    105.67261      4.32725      4.32725      4.32725    105.67261    -15867.18    39872.422   -23688.224   -12334.511    16419.649    995.97202    81.028155 
   29900    1137.1466    -105.4595    1.0289141   -104.43059   -9242.3932    4.3143161    4.3143161    4.3143161   -9242.3932   -12564.977   -22093.325    6931.1223    43041.085    14131.736   -9377.0344    80.303763 
   30000    1303.6338   -105.61891    1.1795552   -104.43936   -5420.1094     4.322186     4.322186     4.322186   -5420.1094    3566.5204   -7345.5144   -12481.334    16892.117   -24076.382    12941.488    80.744018 
   30100    1644.8477   -105.91848    1.4882928   -104.43018   -2637.5693    4.3291559    4.3291559    4.3291559   -2637.5693    13022.636   -7674.7233    -13260.62    14022.238    26456.659    9312.4715    81.135271 
   30200    922.42743   -105.27202   0.83463172   -104.43739    -24611.81     4.331088     4.331088     4.331088    -24611.81   -52178.231    -13382.21   -8274.9898    38801.624   -19676.828   -72.536925     81.24395 
   30300    1788.4725   -106.03839    1.6182475   -104.42014   -2566.7866    4.3206346    4.3206346    4.3206346   -2566.7866    25178.588   -17732.529   -15146.419   -12257.139   -14278.297    22548.857      80.6571 
   30400    1373.3194    -105.6742    1.2426083   -104.43159    4405.7948    4.3172279    4.3172279    4.3172279    4405.7948   -17822.866    17223.072    13817.178    39150.813    13007.643   -3552.8058    80.466465 
   30500    1422.0424   -105.72273    1.2866939   -104.43603   -8067.3763    4.3232518    4.3232518    4.3232518   -8067.3763    19900.231   -15487.388   -28614.972    -3236.486   -34031.769    17652.604    80.803763 
   30600    1214.4779   -105.53733    1.0988851   -104.43844   -3501.8724    4.3263398    4.3263398    4.3263398   -3501.8724   -21706.751   -13277.707    24478.841    4820.7446     15176.73    7164.0551    80.977039 
   30700    1416.3047   -105.72223    1.2815022   -104.44073   -15221.623    4.3269099    4.3269099    4.3269099   -15221.623   -21869.453   -23568.597   -226.81993    36634.231   -9686.4385   -1133.7139    81.009055 
   30800    1754.8821   -106.01255    1.5878542   -104.42469    13413.371    4.3229321    4.3229321    4.3229321    13413.371    25391.902   -5915.6016    20763.812    -21617.74   -1127.4406     8350.969    80.785838 
   30900    683.20535   -105.05746   0.61817856   -104.43928    -10344.58    4.3284739    4.3284739    4.3284739    -10344.58   -44594.511   -39688.729    53249.498    33440.049    7682.6566   -10266.082    81.096931 
   31000    1903.0251   -106.14308    1.7218971   -104.42118    15158.124    4.3247909    4.3247909    4.3247909    15158.124    51610.023   -11052.049    4916.3991   -10754.399    10725.359   -2219.1013    80.890096 
   31100    1226.4361   -105.54442    1.1097052   -104.43472   -11414.875    4.3280001    4.3280001    4.3280001   -11414.875    -33475.67   -54809.499    54040.544    17521.775    3675.3982    306.30573    81.070301 
   31200    1269.4539   -105.57985    1.1486285   -104.43122   -9899.3426    4.3226377    4.3226377    4.3226377   -9899.3426    20726.709   -30744.322   -19680.415     7133.371      16793.1   -17033.454    80.769338 
   31300    1666.9914   -105.93274    1.5083289   -104.42441   -1164.8274    4.3229686    4.3229686    4.3229686   -1164.8274    24082.112   -26033.201   -1543.3925    7648.3782   -7517.0739    918.19901    80.787884 
   31400    904.52727   -105.25729   0.81843528   -104.43885    -14875.29    4.3318379    4.3318379    4.3318379    -14875.29    3565.7386    -57698.43      9506.82    33768.004    4868.5731    -11444.29    81.286159 
   31500    1899.4631   -106.14509    1.7186741   -104.42642   -7345.6819     4.325097     4.325097     4.325097   -7345.6819    31695.582   -18526.037   -35206.591   -12785.467   -7479.7455   -17685.044    80.907269 
   31600    1160.9465   -105.48249    1.0504488   -104.43204   -9157.5889    4.3201227    4.3201227    4.3201227   -9157.5889   -12683.584   -24026.082    9236.8993    34451.927   -14231.096    12788.289    80.628439 
   31700    1222.3071   -105.54042    1.1059692   -104.43445   -4213.7645     4.319303     4.319303     4.319303   -4213.7645    25412.911   -31891.955   -6162.2488   -9905.6883    14563.978   -19496.855    80.582551 
   31800    1502.1087    -105.7898    1.3591395   -104.43066   -8063.9946    4.3303742    4.3303742    4.3303742   -8063.9946    18729.538   -5105.7051   -37815.817    6062.0928   -27965.898    11285.906    81.203787 
   31900    1672.0807   -105.93848    1.5129338   -104.42554   -15355.764    4.3277281    4.3277281    4.3277281   -15355.764   -5883.1869   -36898.937   -3285.1674    22584.684    11207.218   -1160.1578    81.055019 
   32000     967.4171   -105.30564   0.87533932    -104.4303    6505.2303    4.3239273    4.3239273    4.3239273    6505.2303    60553.143   -6798.7872   -34238.665   -14788.815   -17891.604    6558.1211    80.841648 
   32100    1636.2405     -105.908    1.4805048   -104.42749   -5254.5806    4.3191919    4.3191919    4.3191919   -5254.5806   -2653.7942    2391.6883   -15501.636    17394.683   -27897.807     14380.63    80.576335 
   32200    1484.2028    -105.7753    1.3429379   -104.43236    14510.638    4.3236378    4.3236378    4.3236378    14510.638     55397.24   -28355.965    16490.638   -6743.7693    19708.206   -6237.6721    80.825411 
   32300    999.99184   -105.33955   0.90481363   -104.43474   -26765.342    4.3425652    4.3425652    4.3425652   -26765.342   -27773.102   -9781.6844   -42741.238   -8062.6038   -42423.393    18997.468    81.891542 
   32400    2083.9113   -106.30063    1.8855667   -104.41506    5836.6371    4.3247737    4.3247737    4.3247737    5836.6371    21363.494   -7095.1222    3241.5394     9262.705    18397.325   -9456.8272     80.88913 
   32500    676.59859   -105.05521   0.61220063   -104.44301    21582.337    4.3094779    4.3094779    4.3094779    21582.337    25045.878    1351.1053    38350.027   -15380.875     -27419.8    4518.7626    80.033896 
   32600    1703.4728   -105.99533     1.541338     -104.454   -3164.5649    4.3241084    4.3241084    4.3241084   -3164.5649    4770.2344   -16369.195    2105.2659    2718.8832    -26362.39    9370.4189    80.851806 
   32700    1653.0477   -105.93072    1.4957123     -104.435   -15852.995     4.346924     4.346924     4.346924   -15852.995    21720.205   -46693.752   -22585.439    2792.3394    10731.018   -11754.821    82.138381 
   32800    653.36482   -105.03095   0.59117822   -104.43977   -13872.701     4.321849     4.321849     4.321849   -13872.701   -5786.4275   -7323.0928   -28508.582   -13152.454   -42761.065    26960.213    80.725135 
   32900    2001.7176   -106.22747    1.8111962   -104.41628    25584.293    4.3089465    4.3089465    4.3089465    25584.293    19490.441    13864.383    43398.054    21412.599    14087.942   -5304.6052    80.004295 
   33000     1394.375    -105.6948    1.2616598   -104.43314   -23977.925      4.33407      4.33407      4.33407   -23977.925    367.59083   -28871.573   -43429.793      -3773.5    -25792.91    7948.3175    81.411876 
   33100    1081.0401   -105.40618   0.97814785   -104.42803   -15564.488    4.3428221    4.3428221    4.3428221   -15564.488   -15010.529   -30283.116   -1399.8194    11046.135   -10626.679    25718.548    81.906074 
   33200    1841.4712   -106.07055    1.6662018   -104.40434   -9358.5086    4.3386967    4.3386967    4.3386967   -9358.5086    205.95053   -2011.9753   -26269.501      10929.7    6135.3441   -5828.8409    81.672878 
   33300    923.71882   -105.25651    0.8358002   -104.42071   -13334.796    4.3188607    4.3188607    4.3188607   -13334.796    20986.605   -38745.405   -22245.587   -7761.4499   -38043.877    36931.775    80.557798 
   33400    2004.9259   -106.23437    1.8140991   -104.42027    7834.6477    4.3198919    4.3198919    4.3198919    7834.6477    8792.3336   -21400.235    36111.844        13345    3541.1838   -902.89834    80.615519 
   33500    1295.4645   -105.60769    1.1721635   -104.43553   -17145.926    4.3323553    4.3323553    4.3323553   -17145.926    4823.1301   -25716.676   -30544.232   -4080.6344   -35463.379     14705.55    81.315287 
   33600    1152.8125   -105.47695     1.043089   -104.43386   -8220.7224    4.3308706    4.3308706    4.3308706   -8220.7224   -8620.8666    -53725.72    37684.419   -6325.2781    350.33089    26466.463    81.231717 
   33700     1647.745   -105.91794    1.4909143   -104.42702   -5017.3596    4.3343422    4.3343422    4.3343422   -5017.3596    25415.064   -15405.094   -25062.048    9552.2733    -1562.454   -22551.985    81.427219 
   33800    1342.4332   -105.65203    1.2146617   -104.43737   -27849.224    4.3269027    4.3269027    4.3269027   -27849.224    -5991.632   -44434.895   -33121.144   -13523.574    -16395.04    31470.779    81.008646 
   33900    1433.6331   -105.72775    1.2971814   -104.43057    6554.9441    4.3177764    4.3177764    4.3177764    6554.9441   -6493.2915   -5251.4109    31409.535   -18740.468    9495.6214   -23443.764    80.497136 
   34000    1176.8385   -105.50393    1.0648282    -104.4391    8995.5847    4.3262619    4.3262619    4.3262619    8995.5847    52685.036   -6360.1994   -19338.083    1309.4988   -9422.9989    1776.9165    80.972662 
   34100    1543.2485   -105.83398    1.3963637   -104.43762   -15165.155    4.3357304    4.3357304    4.3357304   -15165.155   -15213.894   -34378.347    4096.7741   -36123.668   -13784.461     5248.042    81.505478 
   34200    1296.8614     -105.604    1.1734274   -104.43057    9881.1762    4.3395922    4.3395922    4.3395922    9881.1762    47977.351   -9943.0716   -8390.7503    1428.4013    6158.3716   -32226.582    81.723464 
   34300    1487.1618   -105.77459    1.3456153   -104.42897   -21182.333    4.3268747    4.3268747    4.3268747   -21182.333   -56326.013   -6117.5965   -1103.3883    -27618.89   -40128.952    16235.141    81.007076 
   34400    1162.4601   -105.48277    1.0518184   -104.43095    27517.792    4.3093767    4.3093767    4.3093767    27517.792    41145.011   -7751.8791    49160.243   -14510.621    18472.499   -37329.474    80.028263 
   34500    1787.7385   -106.05561    1.6175834   -104.43803   -11823.036    4.3298495    4.3298495    4.3298495   -11823.036   -38802.276   -2135.7934     5468.962   -5956.9083   -28712.648    4583.6154    81.174272 
   34600    923.98937    -105.2786     0.836045   -104.44255   -13410.507    4.3400031    4.3400031    4.3400031   -13410.507    -26612.83   -40758.689    27139.998   -28837.733   -6558.9645   -20176.859     81.74668 
   34700     1693.445   -105.95489    1.5322646   -104.42263   -1262.5087    4.3339497    4.3339497    4.3339497   -1262.5087    6667.9476   -27379.716    16924.242    3491.7017    6240.3947   -17683.529    81.405095 
   34800    1327.2902   -105.62606      1.20096    -104.4251   -572.97118    4.3260214    4.3260214    4.3260214   -572.97118    -15294.73   -27706.819    41282.636   -32238.889   -20122.117    8441.8855    80.959161 
   34900    1399.2628   -105.69898    1.2660824    -104.4329    5779.4142    4.3277649    4.3277649    4.3277649    5779.4142    31326.778   -30432.305     16443.77     3614.828    11111.859   -30237.134    81.057086 
   35000    1482.8488    -105.7736    1.3417127   -104.43189   -290.82957    4.3431629    4.3431629    4.3431629   -290.82957   -31022.518   -50069.019    80219.048   -26604.699    7866.9129    6162.4039    81.925359 
   35100     1253.031   -105.56645    1.1337688   -104.43268    -2521.793    4.3348506    4.3348506    4.3348506    -2521.793   -13209.634   -31116.221    36760.476   -7293.1006   -15067.261   -17164.398    81.455876 
   35200    1447.4216    -105.7411    1.3096575   -104.43145   -4393.9816    4.3181797    4.3181797    4.3181797   -4393.9816    23162.386   -27931.033   -8413.2979   -7817.5939    2289.8304    -30757.74    80.519699 
   35300    1539.3071   -105.83228    1.3927974   -104.43948    979.88979    4.3238498    4.3238498    4.3238498    979.88979   -3732.1308   -27769.246    34441.046   -23834.077    9420.3875    11184.867    80.837301 
   35400    1264.6548   -105.58693    1.1442862   -104.44264   -4524.1998    4.3426308    4.3426308    4.3426308   -4524.1998   -10641.502   -31540.575    28609.478    11440.937   -25700.329    -40787.59    81.895253 
   35500    1253.5878   -105.56554    1.1342726   -104.43127   -12283.314    4.3415518    4.3415518    4.3415518   -12283.314    5817.0132   -52138.994    9472.0397   -34066.565    10507.559    17715.658    81.834224 
   35600    1430.2069   -105.70744    1.2940813   -104.41335    23970.661    4.3174485    4.3174485    4.3174485    23970.661    24009.504   -19080.515    66982.993    4294.9485   -11295.689   -18380.743      80.4788 
   35700    1318.8794   -105.61839    1.1933498   -104.42504    6735.7573    4.3216632    4.3216632    4.3216632    6735.7573    13675.474    20705.001   -14173.203   -21613.495   -2920.0942   -16804.224    80.714723 
   35800    1643.6245   -105.90453     1.487186   -104.41734   -20372.986    4.3432974    4.3432974    4.3432974   -20372.986    9160.2811   -43821.638   -26457.602   -14621.233    4855.6773    29488.085     81.93297 
   35900    1295.2267   -105.58842    1.1719484   -104.41648    -8172.264    4.3386049    4.3386049    4.3386049    -8172.264    15008.803   -27617.911   -11907.683    6482.4672   -4029.8075   -27265.804    81.667696 
   36000    1518.6262   -105.78323    1.3740849   -104.40915    5037.0396    4.3239508    4.3239508    4.3239508    5037.0396   -28550.524    33338.846    10322.797   -31573.474   -1859.0165    9819.2733    80.842965 
   36100    1370.0548   -105.66153    1.2396544   -104.42188   -4723.5986    4.3224227    4.3224227    4.3224227   -4723.5986     25411.58   -29243.434   -10338.942    7290.2578    5581.3603     16227.93    80.757283 
   36200    1355.6387   -105.65673    1.2266104   -104.43012   -10289.937    4.3334375    4.3334375    4.3334375   -10289.937   -20272.136   -1029.5728   -9568.1027    -21543.11   -20555.664   -24054.696    81.376238 
   36300    1481.9975   -105.76004    1.3409425    -104.4191   -13702.256    4.3416022    4.3416022    4.3416022   -13702.256    13772.646   -22457.931   -32421.485   -3990.1582   -7198.2575    38712.466    81.837073 
   36400     1390.474   -105.66962    1.2581301   -104.41149   -16957.435    4.3381978    4.3381978    4.3381978   -16957.435    31715.443   -34358.253   -48229.494   -3342.3537    -10736.84   -23911.977     81.64471 
   36500    1622.3212   -105.87231    1.4679103    -104.4044   -1944.7541    4.3284161    4.3284161    4.3284161   -1944.7541    -887.9089    29157.534   -34103.887   -7545.5131   -14461.733    26026.246    81.093681 
   36600    1041.9721   -105.36123   0.94279824   -104.41844    6976.8063    4.3243081    4.3243081    4.3243081    6976.8063    65428.825   -15169.495   -29328.911    11418.721   -1209.6698   -9768.9345    80.863006 
   36700    1624.0925   -105.88899    1.4695131   -104.41948    2226.3698     4.337207     4.337207     4.337207    2226.3698   -4712.6981    46732.917   -35341.109    3167.1065   -11100.371   -17337.981    81.588783 
   36800    1172.4158   -105.47354    1.0608265   -104.41271   -16629.712    4.3473684    4.3473684    4.3473684   -16629.712    27112.554   -33398.648   -43603.042    2583.0123    4465.9921    8138.1188    82.163576 
   36900    1307.7781   -105.59266    1.1833051   -104.40936   -7485.8932     4.329454     4.329454     4.329454   -7485.8932    24379.782   -43296.368   -3541.0934    3534.5173    978.07294   -42845.766    81.152028 
   37000    1626.0585   -105.87229    1.4712919   -104.40099    35626.051    4.3120705    4.3120705    4.3120705    35626.051    53670.774    40791.058    12416.321    2441.6721    3299.3379    17941.338    80.178429 
   37100     943.1447   -105.28594   0.85337715   -104.43256   -15286.863    4.3263615    4.3263615    4.3263615   -15286.863    47674.868   -49175.454   -44360.002   -12918.064    5503.2371   -28800.178    80.978258 
   37200    2039.6116   -106.25592    1.8454834   -104.41043    2995.2601    4.3414366    4.3414366    4.3414366    2995.2601    14320.529    1821.0682   -7155.8171     16979.55    1456.9552    12391.322    81.827708 
   37300    991.70266   -105.31829   0.89731341   -104.42098    -5427.869     4.340811     4.340811     4.340811    -5427.869    45215.503    17446.414   -78945.524   -2549.7238   -4888.0057   -24131.297    81.792337 
   37400    1741.0085   -105.98451    1.5753011   -104.40921   -517.10571    4.3287907    4.3287907    4.3287907   -517.10571    18012.382    17296.098   -36859.797     9356.989   -1211.5092    2298.2112    81.114736 
   37500    1637.8067    -105.8966    1.4819219   -104.41468    19716.673    4.3234495    4.3234495    4.3234495    19716.673    54018.411    29394.145   -24262.536    1432.2365   -4183.0387   -28298.733    80.814849 
   37600     1181.286   -105.50179    1.0688524   -104.43294    -11583.32    4.3385828    4.3385828    4.3385828    -11583.32    22273.261    1305.8008   -58329.022     4027.276    3512.9819   -11020.621    81.666451 
   37700    2041.7006    -106.2555    1.8473736   -104.40813   -609.93725    4.3443249    4.3443249    4.3443249   -609.93725    11086.046    1627.6296   -14543.487   -3365.9038   -3648.4028    793.48586    81.991134 
   37800    738.96137    -105.0935   0.66862778   -104.42487    15557.388    4.3288907    4.3288907    4.3288907    15557.388    50373.752    22179.883   -25881.472   -3517.5074   -1472.8742   -28456.579    81.120356 
   37900    1716.2346   -105.97459    1.5528851    -104.4217    23212.665    4.3205786    4.3205786    4.3205786    23212.665    14947.681    16517.992    38172.323   -3542.8472    4615.0161    40347.468    80.653964 
   38000    1305.2246   -105.61622    1.1809946   -104.43523    25205.332    4.3252268    4.3252268    4.3252268    25205.332    48514.772    32223.148   -5121.9253    11342.476   -5921.0105   -48558.461    80.914555 
   38100    1584.8709    -105.8659    1.4340245   -104.43188   -32425.741    4.3487188    4.3487188    4.3487188   -32425.741     1470.274   -51853.287    -46894.21    4109.2885    6443.0125    5582.8369    82.240168 
   38200    1844.6297   -106.07506    1.6690597     -104.406   -10390.769    4.3433454    4.3433454    4.3433454   -10390.769   -21212.865   -221.49885   -9737.9426    2415.2597   -6132.4497   -21325.527    81.935687 
   38300    1440.9661   -105.70252    1.3038164   -104.39871   -30271.455    4.3364314    4.3364314    4.3364314   -30271.455    15266.998    -42765.73   -63315.634    6365.2787    -4581.593   -30485.383    81.545018 
   38400    1615.3055   -105.86064    1.4615623   -104.39908    14390.574    4.3415434    4.3415434    4.3415434    14390.574   -4808.1809    27730.419    20249.483    6136.9432   -6198.8905     33004.37     81.83375 
   38500      1187.11   -105.48573    1.0741221   -104.41161    8626.0982    4.3387993    4.3387993    4.3387993    8626.0982   -3150.8283    15120.121    13909.002    153.52099   -12875.419   -35794.816    81.678676 
   38600    1086.2464   -105.40177   0.98285861   -104.41891    29892.138     4.330398     4.330398     4.330398    29892.138    19358.889    24164.574    46152.951    9830.3353   -10481.268    35234.926    81.205124 
   38700    1607.1145   -105.87701     1.454151   -104.42285    2731.3837    4.3372127    4.3372127    4.3372127    2731.3837    -24608.45    48501.325   -15698.724    4036.3221    6285.1901   -20397.465    81.589105 
   38800    1310.4421   -105.61745    1.1857156   -104.43174   -17357.473    4.3365106    4.3365106    4.3365106   -17357.473   -2607.2589   -38762.206   -10702.953    6191.5753   -9702.5003   -40071.873    81.549486 
   38900    1480.3022   -105.77119    1.3394085   -104.43178    15392.038    4.3288826    4.3288826    4.3288826    15392.038   -33373.241    28549.357    50999.998     8923.426    17960.853    29026.471    81.119901 
   39000    1446.8565   -105.75066    1.3091461   -104.44151   -34703.724    4.3385257    4.3385257    4.3385257   -34703.724   -16981.838   -39040.206   -48089.127    2581.1074    6838.3232   -40030.629    81.663227 
   39100    1466.1362   -105.76368    1.3265909   -104.43709     3586.553    4.3322331    4.3322331    4.3322331     3586.553   -32294.833    -9149.366    52203.858     4982.364   -4355.5033    13916.704    81.308409 
   39200    1473.6395   -105.76436      1.33338   -104.43098   -4192.0241    4.3318594    4.3318594    4.3318594   -4192.0241   -30156.744    10904.572    6676.0991    1859.3757    18831.819    -10241.38    81.287366 
   39300    1325.0843   -105.62486    1.1989642   -104.42589   -17009.134    4.3394867    4.3394867    4.3394867   -17009.134   -32507.847   -39021.321    20501.766    9737.2423   -16476.259   -42147.627    81.717504 
   39400    1357.1536   -105.65459    1.2279811   -104.42661   -8056.1881    4.3380772    4.3380772    4.3380772   -8056.1881   -39741.054    30569.383   -14996.894   -1265.3543    2684.4662    20537.687    81.637901 
   39500    1630.9372   -105.90295    1.4757063   -104.42725    5655.3015     4.325145     4.325145     4.325145    5655.3015    578.48856   -365.59927    16753.015   -7382.8276    3454.4072   -22024.889    80.909966 
   39600     1265.733   -105.58741    1.1452618   -104.44215    -2816.841    4.3240789    4.3240789    4.3240789    -2816.841   -51081.698    27332.577    15298.598    7552.1445   -39766.999    3365.9639    80.850149 
   39700    1374.4185   -105.68051    1.2436028   -104.43691    31996.416    4.3354994    4.3354994    4.3354994    31996.416    22417.492     27753.61    45818.147   -10967.726     26781.35    16110.213    81.492453 
   39800    1333.3109   -105.63966    1.2064077   -104.43326   -14354.306    4.3458502    4.3458502    4.3458502   -14354.306    -14836.44    -14157.09   -14069.387   -1256.1559   -35379.994   -15761.887    82.077524 
   39900    1603.5847   -105.86473    1.4509571   -104.41378   -1961.2005     4.335007     4.335007     4.335007   -1961.2005   -5235.3058    -2030.258    1381.9624   -1826.1426   -14867.943    4592.1693    81.464689 
   40000    1310.5738   -105.60051    1.1858348   -104.41468    34693.137    4.3216272    4.3216272    4.3216272    34693.137    14161.827    59528.061    30389.524   -8851.0916   -25382.198   -1109.6075    80.712705 
   40100    1120.9235   -105.45597    1.0142352   -104.44173   -7031.0344    4.3395304    4.3395304    4.3395304   -7031.0344   -40922.402    28426.578   -8597.2796    2890.3294   -37498.485   -13815.657    81.719969 
   40200    1717.8005    -105.9743     1.554302      -104.42    24983.414      4.34001      4.34001      4.34001    24983.414   -16435.319    22120.609    69264.952   -7956.2194    6526.4259   -7256.2929    81.747071 
   40300    1153.7033   -105.46578     1.043895   -104.42189   -7341.2932    4.3359462    4.3359462    4.3359462   -7341.2932   -15252.834    22461.716   -29232.762    10522.607   -45664.727   -938.89858     81.51765 
   40400    1548.2134   -105.81614     1.400856   -104.41529    -6555.183    4.3302634    4.3302634    4.3302634    -6555.183   -33496.287    11822.224    2008.5134   -5350.1168    35539.487     -15235.5    81.197554 
   40500    1634.9571   -105.89856    1.4793435   -104.41921    21977.551    4.3189432    4.3189432    4.3189432    21977.551    1611.7506    66693.797   -2372.8952   -2222.2854   -24349.214    7142.9962    80.562413 
   40600    1398.7381   -105.70427    1.2656076   -104.43866   -18367.816    4.3367147    4.3367147    4.3367147   -18367.816   -9676.2292    6536.2524   -51963.471   -127.58455    1089.5652    10264.487    81.561001 
   40700    1307.5117   -105.61186    1.1830641    -104.4288    8808.0821    4.3372287    4.3372287    4.3372287    8808.0821   -42877.229    90616.315    -21314.84   -6388.7401    23032.707    -12485.48    81.590004 
   40800    1798.0352   -106.04712       1.6269   -104.42022    -3291.554    4.3312166    4.3312166    4.3312166    -3291.554    27514.807   -1941.7205   -35447.749    6317.0287   -23344.646    32080.621    81.251185 
   40900    1455.1494    -105.7437    1.3166498   -104.42705   -17998.528    4.3312201    4.3312201    4.3312201   -17998.528   -37706.326    25907.135   -42196.391   -5116.6738    33064.183    686.94749    81.251383 
   41000    1367.3668   -105.66901    1.2372222   -104.43179   -3208.4452    4.3317425    4.3317425    4.3317425   -3208.4452   -4533.7715     21820.35   -26911.914   -3814.4595    4223.7602   -2777.1597    81.280786 
   41100    1416.0743    -105.7094    1.2812938    -104.4281   -13278.513    4.3341128    4.3341128    4.3341128   -13278.513    11897.725    1464.2966    -53197.56    8509.2573    415.72399    30089.737    81.414288 
   41200    1351.3868   -105.64762    1.2227632   -104.42486   -7625.8302    4.3378252    4.3378252    4.3378252   -7625.8302   -23048.898    26155.894   -25984.486   -8970.6285    33538.437   -13735.665    81.623674 
   41300    1482.1931   -105.76024    1.3411194   -104.41912    3650.0206    4.3298743    4.3298743    4.3298743    3650.0206    38419.002   -3947.3883   -23521.552    7808.3506    -11947.36    32541.046    81.175667 
   41400    1455.5767   -105.73637    1.3170364   -104.41934   -7579.6057    4.3330939    4.3330939    4.3330939   -7579.6057   -34316.886    39098.647   -27520.578   -3559.2472    30902.518   -1235.3174    81.356881 
   41500     963.4432   -105.30507   0.87174366   -104.43333   -15610.187    4.3299868    4.3299868    4.3299868   -15610.187    1385.0027   -20043.617   -28171.945    2118.6607      1549.67    24127.449    81.181995 
   41600    1646.8933   -105.92645    1.4901437   -104.43631    6799.3342    4.3234357    4.3234357    4.3234357    6799.3342    14682.686    34714.755   -28999.438   -7602.6941    9812.2865     22204.19    80.814075 
   41700    1534.7477   -105.83182     1.388672   -104.44315   -11320.611    4.3371512    4.3371512    4.3371512   -11320.611   -28984.552    24472.208    -29449.49    5603.6681    17481.561    2425.2205    81.585634 
   41800    1035.6223   -105.37285   0.93705284    -104.4358     11079.45    4.3243721    4.3243721    4.3243721     11079.45    16320.436    35764.516   -18846.601   -5063.8383    8084.9827    52803.479    80.866598 
   41900    1822.4888   -106.08526    1.6490262   -104.43623   -13545.611     4.333149     4.333149     4.333149   -13545.611   -3267.6404   -8394.5179   -28974.675    1015.7952    12631.692   -35467.861    81.359988 
   42000    1339.1084   -105.64851    1.2116534   -104.43686   -6707.1732    4.3376967    4.3376967    4.3376967   -6707.1732   -9708.4464    21348.401   -31761.475     21746.56    2762.2685    40569.293    81.616423 
   42100    1302.1731   -105.61285    1.1782336   -104.43461   -2997.5744     4.327924     4.327924     4.327924   -2997.5744    14988.916   -16683.675    -7297.964   -14903.568     3071.614   -7026.9082    81.066025 
   42200    1401.6649   -105.70345    1.2682558    -104.4352   -4787.4905     4.324662     4.324662     4.324662   -4787.4905    2295.6454   -5121.4554   -11536.662    17044.922    12037.402   -14270.569    80.882862 
   42300    1468.8813   -105.76724    1.3290747   -104.43816   -1589.8335    4.3338122    4.3338122    4.3338122   -1589.8335   -10133.029    16648.249   -11284.721   -8961.8577   -11254.397    33399.949    81.397348 
   42400    1133.7449   -105.46644    1.0258362   -104.44061   -20397.822    4.3369616    4.3369616    4.3369616   -20397.822    9187.9104   -38452.807   -31928.569    -3303.681    6448.2208   -32466.364    81.574935 
   42500    1598.8724   -105.87144    1.4466933   -104.42475    4840.6783    4.3285727    4.3285727    4.3285727    4840.6783    13495.436    28335.816   -27309.218    6268.4533    9519.8628    13212.658    81.102481 
   42600    1341.8396   -105.63867    1.2141247   -104.42455   -14312.956    4.3328873    4.3328873    4.3328873   -14312.956    13624.525   -32260.708   -24302.686   -23445.029   -17849.514    1494.0052    81.345244 
   42700    1218.1842   -105.53455    1.1022387   -104.43231    -9606.883    4.3345745    4.3345745    4.3345745    -9606.883    3308.3195    2428.8963   -34557.865    3846.2104     23133.89   -30450.904    81.440307 
   42800    1970.9635    -106.2015    1.7833692   -104.41813   -3346.4131    4.3259282    4.3259282    4.3259282   -3346.4131    2568.0429   -1981.5223    -10625.76   -23303.683   -17192.973    15217.676    80.953925 
   42900    881.28097   -105.23376   0.79740155   -104.43636   -19984.065    4.3322929    4.3322929    4.3322929   -19984.065    406.24984   -21183.117   -39175.327   -8641.8987    312.00334   -22078.428    81.311775 
   43000     1724.353   -105.98638    1.5602308   -104.42614   -7591.9983    4.3409939    4.3409939    4.3409939   -7591.9983    11452.119   -13812.291   -20415.823    3638.4282    18715.654    -6938.481    81.802679 
   43100    1292.3311   -105.59306    1.1693283   -104.42373    18689.995    4.3329021    4.3329021    4.3329021    18689.995     45991.33    16055.491   -5976.8372    -7738.742   -15610.772   -12658.418    81.346082 
   43200    1145.1639   -105.47133    1.0361683   -104.43516   -9492.8379    4.3323536    4.3323536    4.3323536   -9492.8379    2897.1068    14005.846   -45381.467    9090.9165     30738.44   -12196.402    81.315192 
   43300    1744.3377   -105.99882    1.5783134   -104.42051    2468.4063    4.3398309    4.3398309    4.3398309    2468.4063    26697.981   -9537.7905   -9754.9722    8921.4606    1675.6776    20158.487    81.736949 
   43400    1403.0448     -105.694    1.2695044    -104.4245    2557.8527    4.3323903    4.3323903    4.3323903    2557.8527   -12373.843    16996.166    3051.2358   -6933.4834    2340.7559   -37621.503    81.317259 
   43500    1090.9266   -105.41651   0.98709328   -104.42941    8675.4856     4.324763     4.324763     4.324763    8675.4856    34198.133    27413.556   -35585.232    6826.1587    15537.477    35606.474     80.88853 
   43600    2003.9882   -106.23516    1.8132506   -104.42191    5110.3368    4.3396808    4.3396808    4.3396808    5110.3368    30707.699   -6685.3987   -8691.2895    1669.7521   -10815.713    -12276.83    81.728467 
   43700    842.79216   -105.18669   0.76257605   -104.42412   -23258.652     4.348008     4.348008     4.348008   -23258.652    17364.695   -27595.767   -59544.883   -4765.4309    17358.095    18353.223    82.199847 
   43800    1182.5114    -105.4804    1.0699611   -104.41043    28445.958    4.3298754    4.3298754    4.3298754    28445.958    68005.703    44654.775   -27322.603    2245.3455   -4296.7359    11205.568     81.17573 
   43900    1840.1895   -106.07565    1.6650421   -104.41061    8177.2328    4.3269149    4.3269149    4.3269149    8177.2328    20262.739    16624.969    -12356.01   -1970.6426    4910.9415   -4619.3052    81.009335 
   44000    586.89171   -104.96571   0.53103195   -104.43468     5823.994      4.33618      4.33618      4.33618     5823.994    15306.238    72166.103   -70000.359   -1106.3158    26104.318    33037.661    81.530836 
   44100     1970.119   -106.19748    1.7826051   -104.41487   -4046.7185    4.3429493    4.3429493    4.3429493   -4046.7185    5290.5999    16860.524    -34291.28    7874.3348   -2917.1448   -11744.522    81.913274 
   44200      1506.94   -105.79323    1.3635109   -104.42972   -14291.823     4.331119     4.331119     4.331119   -14291.823   -9608.8128    19326.886   -52593.542    10258.414    21165.955     36015.58    81.245691 
   44300    1248.7841   -105.56363    1.1299261    -104.4337    3634.7943    4.3226804    4.3226804    4.3226804    3634.7943    29950.892    14302.686   -33349.195    17449.727    8892.7797   -5250.7108    80.771729 
   44400    1591.2152   -105.87484     1.439765   -104.43507   -23942.698    4.3376213    4.3376213    4.3376213   -23942.698   -17289.413   -21195.046   -33343.635    12457.662     6055.868    8102.8841    81.612164 
   44500     1419.662   -105.70975    1.2845401   -104.42521   -7795.5677    4.3447848    4.3447848    4.3447848   -7795.5677    -13253.92    51067.646   -61200.429   -197.59376     11274.62    1549.6144    82.017175 
   44600    1065.4218   -105.38053   0.96401605   -104.41651    21823.055    4.3269427    4.3269427    4.3269427    21823.055    40046.193    16781.109    8641.8637    11570.642    290.29159   -19216.261    81.010894 
   44700    1627.8037   -105.89174     1.472871   -104.41886    10210.697    4.3214964    4.3214964    4.3214964    10210.697   -899.30168    41072.997   -9541.6037   -5154.0558    26374.632    13392.048    80.705377 
   44800    1521.0434   -105.80232    1.3762721   -104.42605    2408.6476     4.334592     4.334592     4.334592    2408.6476    20162.092   -4265.0346   -8671.1148    16173.662   -7638.4607   -18670.086    81.441296 
   44900    1248.8745   -105.55824    1.1300079   -104.42823   -1600.5343    4.3365533    4.3365533    4.3365533   -1600.5343   -23350.228   -22630.747    41179.372    5617.1181    14509.995     3726.395    81.551894 
   45000    1381.4181   -105.67034    1.2499362    -104.4204   -6952.0449    4.3363904    4.3363904    4.3363904   -6952.0449    8405.8749   -8875.7331   -20386.276   -9713.7521    17836.294   -11578.397    81.542707 
   45100    1641.5709   -105.90354    1.4853279   -104.41821    169.57334    4.3263062    4.3263062    4.3263062    169.57334    -33144.29    -26994.55     60647.56    29969.569    -8156.458   -8021.2032    80.975148 
   45200    979.40195   -105.32005   0.88618347   -104.43386    522.29253    4.3316695    4.3316695    4.3316695    522.29253   -14719.374   -6733.0941    23019.346   -31122.874    25787.874    308.88807    81.276679 
   45300    1771.8156   -106.02126     1.603176   -104.41808   -15820.056    4.3319661    4.3319661    4.3319661   -15820.056   -10805.623   -23294.001   -13360.543    4382.1168   -16050.939   -19710.551    81.293371 
   45400    1285.6418    -105.5907    1.1632757   -104.42742    12590.662    4.3280036    4.3280036    4.3280036    12590.662   -8344.2368   -19966.547    66082.769   -1642.4869    28506.469    8527.5236    81.070495 
   45500    1182.1118   -105.50038    1.0695996   -104.43078    11663.407    4.3369899    4.3369899    4.3369899    11663.407    5946.6812    571.25664    28472.282   -15327.251    6540.1817    -21319.01    81.576531 
   45600    1692.7546   -105.94598    1.5316399   -104.41434    1774.2318    4.3373206    4.3373206    4.3373206    1774.2318   -14254.603   -4303.8949    23881.194     -2436.46   -4419.6844    10379.806    81.595192 
   45700    1076.1089   -105.39323    0.9736859   -104.41954    10108.435    4.3239014    4.3239014    4.3239014    10108.435   -11671.081     12853.41    29142.977   -3937.6013    30162.012   -1285.0136    80.840196 
   45800    1470.0785   -105.75431    1.3301579   -104.42416     13481.83    4.3252214    4.3252214    4.3252214     13481.83    4191.8263   -7185.2984    43438.962   -9319.5377   -21904.207   -23404.163    80.914255 
   45900    1597.6379   -105.86806    1.4455764   -104.42248    9157.7446    4.3324086    4.3324086    4.3324086    9157.7446   -24829.574    43183.725    9119.0834   -7641.6755    23241.244    28142.459     81.31829 
   46000    1086.1711   -105.41267   0.98279047   -104.42988    -5622.975    4.3328449    4.3328449    4.3328449    -5622.975   -20688.487    -28352.16    32171.722   -6315.1879    -10625.76   -27750.994    81.342858 
   46100    1698.9725   -105.96246     1.537266   -104.42519   -773.99148    4.3234273    4.3234273    4.3234273   -773.99148   -11886.775    27859.406   -18294.606   -1553.7823   -9727.7243   -7504.5952    80.813604 
   46200    1421.3213   -105.71708    1.2860413   -104.43104    15196.771    4.3144118    4.3144118    4.3144118    15196.771    2041.9706    18713.953    24834.391   -15152.583   -1444.9177    23146.656    80.309106 
   46300    1180.1566   -105.50575    1.0678305   -104.43792   -14490.054    4.3331115    4.3331115    4.3331115   -14490.054    -16184.35    1620.9542   -28906.767    1072.9088   -26767.792   -45789.869    81.357873 
   46400    1701.5194    -105.9545    1.5395705   -104.41493   -8171.1403    4.3391687    4.3391687    4.3391687   -8171.1403   -24568.479   -14351.472     14406.53    6658.3024    7571.0086    25183.126     81.69954 
   46500    1173.3954   -105.47904    1.0617128   -104.41732   -12452.065    4.3279071    4.3279071    4.3279071   -12452.065   -22055.734   -17740.491    2440.0295    -7980.858   -27902.441    -19134.29    81.065077 
   46600    1236.3759   -105.54087    1.1186989   -104.42217    3020.8479    4.3177454    4.3177454    4.3177454    3020.8479   -7342.6675   -8245.6813    24650.892    25304.127   -7382.7177   -18216.426    80.495404 
   46700    1805.5953   -106.05949    1.6337406   -104.42575   -670.23732    4.3278858    4.3278858    4.3278858   -670.23732   -12669.598   -1686.9097    12345.796   -5393.8268   -11325.919    10533.932    81.063878 
   46800    925.86871   -105.26833   0.83774547   -104.43059   -52458.157    4.3399254    4.3399254    4.3399254   -52458.157   -61481.135   -55718.841   -40174.495    20684.877   -13278.651   -38645.987    81.742288 
   46900    1831.9144   -106.07127    1.6575547   -104.41372    16396.205    4.3189558    4.3189558    4.3189558    16396.205   -4781.6656     21218.41     32751.87    15235.514    5343.7773    16907.916    80.563122 
   47000     1297.598   -105.60245     1.174094   -104.42836   -18134.448    4.3200033    4.3200033    4.3200033   -18134.448    -22007.92   -18222.085   -14173.337   -7675.2003   -10702.545   -18829.516    80.621753 
   47100    1180.7518   -105.49747     1.068369   -104.42911    -22361.31    4.3351545    4.3351545    4.3351545    -22361.31   -47218.142   -30526.117    10660.329    43313.908   -2184.9554   -12245.899    81.473004 
   47200    1751.8589   -105.99717    1.5851187   -104.41205    3596.5274    4.3364687    4.3364687    4.3364687    3596.5274   -20810.971   -7927.4149    39527.968   -17307.104    4959.9079    4912.7519    81.547123 
   47300    998.65577   -105.32924   0.90360473   -104.42563   -20475.647    4.3287358    4.3287358    4.3287358   -20475.647   -9690.7418   -37203.715   -14532.485    31520.976   -22639.867   -23616.036    81.111652 
   47400    1865.6046   -106.09928    1.6880383   -104.41125    14278.555    4.3120549    4.3120549    4.3120549    14278.555    16250.983     13622.28    12962.401    10603.037    18584.759    16612.692    80.177562 
   47500    1094.9756    -105.4197   0.99075694   -104.42895    8814.9426    4.3300568    4.3300568    4.3300568    8814.9426   -8078.0707    -574.8012      35097.7   -2511.3108    -10863.54   -12799.118     81.18593 
   47600    1274.5905   -105.57675    1.1532763   -104.42347    -28315.54    4.3395438    4.3395438    4.3395438    -28315.54    6980.3457   -54283.782   -37643.184    26082.961   -7402.8729    6604.7329    81.720729 
   47700    1879.4109   -106.12029    1.7005305   -104.41976    -796.0336    4.3253351    4.3253351    4.3253351    -796.0336    18467.305    16061.404    -36916.81   -8481.6587    19359.795    24674.087    80.920632 
   47800    1106.2816   -105.43266    1.0009868   -104.43167    12383.451    4.3143214    4.3143214    4.3143214    12383.451    27589.343   -5889.3909      15450.4    26985.005   -23830.935   -15063.424    80.304055 
   47900    1082.3577   -105.42043   0.97934003   -104.44109   -13964.715    4.3237409    4.3237409    4.3237409   -13964.715    21561.899   -25887.965   -37568.078    11715.342    11462.085    43311.084     80.83119 
   48000    1888.1857   -106.12853    1.7084701   -104.42006   -8070.8636     4.336055     4.336055     4.336055   -8070.8636     11914.31    837.09481   -36963.996   -895.87083   -7156.2154   -12425.595    81.523786 
   48100    850.08042    -105.2015   0.76917063   -104.43233   -27739.644    4.3333792    4.3333792    4.3333792   -27739.644    1541.6465   -60393.751   -24366.828    29257.241   -10575.056    43562.561    81.372954 
   48200    1835.8702   -106.07551    1.6611339   -104.41437    6046.3461    4.3195898    4.3195898    4.3195898    6046.3461    7418.3627    15669.718   -4949.0425   -14444.723    1415.9099    4876.9977    80.598607 
   48300    1124.0618   -105.44603    1.0170747   -104.42895   -13140.975    4.3180988    4.3180988    4.3180988   -13140.975   -16091.404   -9222.6158   -14108.905    13966.203   -29905.072      21844.5     80.51517 
   48400    1256.4263    -105.5691    1.1368409   -104.43226   -4738.6708    4.3224948    4.3224948    4.3224948   -4738.6708    14755.354    -13658.53   -15312.837    2579.0663    2937.7206    32679.745    80.761323 
   48500    1836.0039   -106.08211    1.6612549   -104.42085     -24051.3    4.3351186    4.3351186    4.3351186     -24051.3   -48951.876   -26986.868    3784.8451   -29447.793   -1060.4993   -10431.049    81.470982 
   48600    807.35924   -105.16446   0.73051561   -104.43395   -24727.137     4.325861     4.325861     4.325861   -24727.137   -6803.6041   -29880.799   -37497.007    27297.698   -14544.742    50539.685    80.950152 
   48700    1856.6777   -106.09513     1.679961   -104.41517    19611.785    4.3121965    4.3121965    4.3121965    19611.785    4995.9306     3699.601    50139.823   -33595.798    19410.643   -15306.343    80.185461 
   48800    952.76683    -105.2872   0.86208345   -104.42511   -29489.034     4.328138     4.328138     4.328138   -29489.034   -15562.679   -30472.891   -42431.532     6668.198   -17478.868    51839.725    81.078052 
   48900    1537.8413   -105.81972    1.3914711   -104.42825   -7957.2427    4.3268097    4.3268097    4.3268097   -7957.2427    -21085.65    -21981.68    19195.602      10055.5    1901.2046    8493.4111    81.003426 
   49000    1761.6265   -106.01346    1.5939567    -104.4195    4560.0352    4.3240854    4.3240854    4.3240854    4560.0352    592.89774    2742.6581     10344.55   -8428.0644     3934.885    22564.681    80.850513 
   49100      624.094   -105.00261   0.56469337   -104.43791   -13465.472    4.3160043    4.3160043    4.3160043   -13465.472    15255.115   -38975.646   -16675.884     16382.06   -16851.087    54309.517    80.398068 
   49200    2116.5962   -106.33228    1.9151408   -104.41714    1220.8457    4.3293446    4.3293446    4.3293446    1220.8457   -16633.897    -9977.511    30273.946   -104.46603   -2124.0212   -11523.209     81.14588 
   49300    996.76568   -105.33081   0.90189453   -104.42892   -33116.482    4.3387193    4.3387193    4.3387193   -33116.482    3592.9883     -46861.2   -56081.235    10971.591   -9458.1572    68356.368    81.674156 
   49400    1754.0481   -105.99099    1.5870995   -104.40389    8712.9018    4.3236482    4.3236482    4.3236482    8712.9018   -1854.1638   -7312.7497    35305.619     17268.13   -10401.191   -12154.655    80.825992 
   49500    1157.3994   -105.45732    1.0472393   -104.41008   -8716.7944    4.3300427    4.3300427    4.3300427   -8716.7944    24370.231   -18159.157   -32361.458   -3040.2234   -8801.0086    51465.659    81.185137 
   49600     1309.793   -105.59755    1.1851283   -104.41242   -20280.674    4.3270095    4.3270095    4.3270095   -20280.674   -34908.325   -6601.6582   -19332.039    14647.518   -18670.045      18034.5    81.014649 
   49700    1614.6005   -105.87326    1.4609245   -104.41233     22568.85    4.3230586    4.3230586    4.3230586     22568.85    31284.603   -11633.712    48055.658    4756.7834    6156.6544    12833.147     80.79293 
   49800    1182.3008   -105.49422    1.0697707   -104.42445   -22651.464    4.3307312    4.3307312    4.3307312   -22651.464    7498.2422   -36035.002   -39417.633   -2086.2467     -12456.8    40568.629     81.22387 
   49900    1547.2209    -105.8157     1.399958   -104.41574    6689.0041    4.3194297    4.3194297    4.3194297    6689.0041    11740.623   -5446.5233    13772.912    13161.741   -9890.7859   -3606.7343    80.589643 
   50000    1436.2536   -105.72626    1.2995524   -104.42671   -11840.856    4.3291846    4.3291846    4.3291846   -11840.856    40312.251   -34440.687   -41394.134   -7257.7301    15459.514    55348.427    81.136879 
   50100    1710.2336   -105.95487    1.5474553   -104.40742   -14280.456    4.3418713    4.3418713    4.3418713   -14280.456   -29905.688    23163.916   -36099.595    11480.604   -8871.1418   -11298.488     81.85229 
   50200    982.90577   -105.29279    0.8893538   -104.40344    729.89052    4.3398316    4.3398316    4.3398316    729.89052    69520.027   -36489.761   -30840.594    -2486.003    6478.7375    43184.707    81.736988 
   50300    1831.2751   -106.04428    1.6569762   -104.38731    6047.6753    4.3347204    4.3347204    4.3347204    6047.6753   -4367.3205    33603.651   -11093.305   -10111.621   -1438.1931   -13719.822    81.448531 
   50400     1265.048   -105.55087     1.144642   -104.40623     700.8749    4.3180914    4.3180914    4.3180914     700.8749    15346.136   -1430.8872   -11812.624    8628.8576   -14389.602    25660.756    80.514758 
   50500    1452.2829   -105.73301    1.3140561   -104.41895    20416.542    4.3231202    4.3231202    4.3231202    20416.542    71864.703   -11626.988    1011.9096   -9807.0376    1029.0486    10262.016    80.796384 
   50600    1676.4767   -105.93247    1.5169113   -104.41556   -31487.055    4.3408154    4.3408154    4.3408154   -31487.055   -30906.164   -19306.873   -44248.128    5810.5354   -19500.432   -1008.1029    81.792591 
   50700    1143.5267   -105.45693     1.034687   -104.42225    7069.2886    4.3287811    4.3287811    4.3287811    7069.2886    17240.492    15067.837   -11100.463    13256.578     10422.91    39468.149    81.114198 
   50800    1613.8215   -105.86882    1.4602196    -104.4086    27764.508    4.3342575    4.3342575    4.3342575    27764.508    6145.5085     105173.7   -28025.684    6930.8831    10468.642   -7369.9726    81.422441 
   50900    752.78582    -105.1037   0.68113643   -104.42257   -17059.202      4.33553      4.33553      4.33553   -17059.202    16070.203   -6243.5615   -61004.248    30529.364   -6606.1504    58030.742    81.494178 
   51000    1884.1258   -106.11838    1.7047966   -104.41358   -6841.1365    4.3260559    4.3260559    4.3260559   -6841.1365   -18808.729    8335.6707   -10050.351    13427.112    29286.841   -271.66142    80.961094 
   51100    1662.2646    -105.9221    1.5040519   -104.41805    -9017.939    4.3322162    4.3322162    4.3322162    -9017.939    33043.817   -20695.564    -39402.07    2301.5143   -15249.053    31483.524    81.307456 
   51200    740.51213   -105.09986   0.67003093   -104.42983    277.75907     4.329274     4.329274     4.329274    277.75907    17185.651    17787.093   -34139.467    12884.521    7857.9766    20393.456     81.14191 
   51300    1579.7107   -105.85401    1.4293555   -104.42466    17280.151    4.3305552    4.3305552    4.3305552    17280.151   -2897.6346    76051.651   -21313.562   -11085.694    8569.8767   -18048.907    81.213967 
   51400    1241.0343   -105.55458    1.1229139   -104.43167   -2162.6259    4.3311232    4.3311232    4.3311232   -2162.6259    21655.129   -4302.2198   -23840.787   -5154.8921   -8727.3586    38224.729    81.245928 
   51500    1245.0241    -105.5559     1.126524   -104.42937   -2407.4928    4.3251349    4.3251349    4.3251349   -2407.4928   -13980.592    15491.988   -8733.8746    14270.177    18468.501   -17773.463    80.909397 
   51600    1655.4545   -105.92102      1.49789   -104.42313   -6530.9182    4.3291973    4.3291973    4.3291973   -6530.9182    8718.1371   -9510.2356   -18800.656   -2826.3491   -3147.0592    12071.905    81.137595 
   51700     1298.274   -105.60305    1.1747056   -104.42834   -23638.467    4.3313932    4.3313932    4.3313932   -23638.467   -41269.327   -22011.153   -7634.9223    26080.356    13560.792     28288.73    81.261125 
   51800    1382.6423    -105.6798    1.2510438   -104.42876   -12723.898    4.3283762    4.3283762    4.3283762   -12723.898   -1053.7452   -2774.9176   -34343.031    9772.7767    9992.1329   -30076.235    81.091437 
   51900    1416.6389   -105.71349    1.2818046   -104.43168   -3684.9713    4.3221084    4.3221084    4.3221084   -3684.9713    16500.406    7923.4618   -35478.782    10865.985   -2545.6885    33169.224     80.73967 
   52000    1607.8439   -105.88339     1.454811   -104.42858   -10273.232    4.3315021    4.3315021    4.3315021   -10273.232   -34211.286    8387.2428   -4995.6536     3717.184    11363.271   -22124.608    81.267257 
   52100    1286.1838    -105.5874    1.1637662   -104.42363   -28122.253     4.330061     4.330061     4.330061   -28122.253    6166.9387    -46874.19   -43659.507   -3846.3104    3378.0861   -24307.193    81.186167 
   52200    1263.5249   -105.56406    1.1432639    -104.4208    10739.241    4.3260134    4.3260134    4.3260134    10739.241   -28000.089    48719.729    11498.083    2400.0324   -12978.589    30827.895    80.958712 
   52300    1508.3251   -105.78314    1.3647643   -104.41838   -14264.809    4.3340149    4.3340149    4.3340149   -14264.809    11976.026   -44215.351   -10555.102   -2607.4322    587.11651   -50614.687     81.40877 
   52400    1126.1652   -105.43667     1.018978    -104.4177    14294.922     4.328458     4.328458     4.328458    14294.922    5007.3851    36458.067    1419.3155   -5444.8251   -5985.8103    34952.036    81.096037 
   52500    1505.0128   -105.77376    1.3617672   -104.41199   -10158.623    4.3343193    4.3343193    4.3343193   -10158.623   -7755.9279    1556.7691   -24276.711    4146.3312   -15025.549   -28583.627    81.425927 
   52600    1431.2321   -105.70659    1.2950088   -104.41158   -27266.063    4.3309868    4.3309868    4.3309868   -27266.063   -1609.2981   -31559.362   -48629.531   -6139.4149   -635.14883   -29471.876    81.238253 
   52700    1566.8472   -105.82599    1.4177162   -104.40827    17672.907    4.3185965    4.3185965    4.3185965    17672.907   -587.86756    61665.668   -8059.0789   -367.81362   -22823.617     21673.05    80.543013 
   52800    1434.1007   -105.71555    1.2976044   -104.41795   -19407.083    4.3273631    4.3273631    4.3273631   -19407.083    22598.417    -24568.28   -56251.384    1648.3665    3532.1071   -70076.528    81.034508 
   52900     1239.446   -105.54251    1.1214768   -104.42103   -2351.6272    4.3285398    4.3285398    4.3285398   -2351.6272   -24184.328    48179.657   -31050.211     1397.736   -21004.688    42238.593    81.100633 
   53000    1345.8209   -105.64687     1.217727   -104.42915    6127.5386     4.329891     4.329891     4.329891    6127.5386    -1342.043    43003.315   -23278.657   -11695.174   -11239.173   -39123.783    81.176606 
   53100    1762.3964   -106.02134    1.5946533   -104.42669   -19413.632    4.3357537    4.3357537    4.3357537   -19413.632   -22877.347   -2083.8872   -33279.663    1926.8788   -8785.1505   -4778.0165    81.506795 
   53200    979.58651   -105.31276   0.88635046   -104.42641    17630.218    4.3302699    4.3302699    4.3302699    17630.218   -12129.878    88663.942    -23643.41   -4348.3468   -10993.647    10899.819     81.19792 
   53300    1520.5765   -105.79777    1.3758495   -104.42192    10541.459    4.3291104    4.3291104    4.3291104    10541.459    21404.354    26608.951   -16388.929    7887.0754   -1232.1164   -36526.842    81.132709 
   53400    1524.5249   -105.81232    1.3794222    -104.4329   -12101.948    4.3315896    4.3315896    4.3315896   -12101.948   -38704.807    31345.182    -28946.22    11461.089   -15533.169    29583.926    81.272178 
   53500    1542.5975   -105.82801    1.3957746   -104.43223   -2589.1308    4.3364293    4.3364293    4.3364293   -2589.1308   -4391.7223    20194.967   -23570.637      -7869.4    7503.9862   -12275.948    81.544904 
   53600    1122.9757   -105.45137     1.016092   -104.43528    5297.4165    4.3382917    4.3382917    4.3382917    5297.4165   -29127.038    61969.976   -16950.689    12819.739   -24640.122    4872.3115     81.65001 
   53700    1486.4355   -105.76975    1.3449581   -104.42479   -21747.331    4.3509568    4.3509568    4.3509568   -21747.331   -26068.893    3844.2553   -43017.355   -11633.321    15678.658    11701.362    82.367201 
   53800    1391.7175   -105.68584    1.2592552   -104.42659   -15713.235    4.3288483    4.3288483    4.3288483   -15713.235   -42104.592    3401.2927   -8436.4063    5238.6219   -41790.444   -3051.9715    81.117972 
   53900    1370.8011   -105.66847    1.2403297   -104.42814    16299.204    4.3151013    4.3151013    4.3151013    16299.204   -195.34716    26002.169    23090.789     15286.94    1023.4094   -451.93917    80.347615 
   54000     1382.963   -105.68801    1.2513339   -104.43668   -10603.723    4.3434827    4.3434827    4.3434827   -10603.723   -41585.095   -1951.7773    11725.702   -9029.8329   -2122.9907    22296.912    81.943456 
   54100    1248.3082   -105.55881    1.1294955   -104.42931   -16682.573    4.3373335    4.3373335    4.3373335   -16682.573   -51354.084   -10307.314    11613.679    14507.787   -30052.584   -10392.271    81.595922 
   54200    1382.0463   -105.67325    1.2505046   -104.42275    1416.2046    4.3360491    4.3360491    4.3360491    1416.2046   -18279.853    54872.116   -32343.649   -5050.1032    22151.403     16946.37    81.523456 
   54300    1191.6333   -105.50816    1.0782148   -104.42994    4209.6705    4.3321031    4.3321031    4.3321031    4209.6705   -51517.558    21254.897    42891.672    5045.3184   -29529.602    6282.2377    81.301089 
   54400    1509.8205   -105.79873    1.3661173   -104.43261    4920.7067    4.3325297    4.3325297    4.3325297    4920.7067    -14865.26    42049.404   -12422.024    17092.076    13231.604   -12305.693    81.325107 
   54500    1391.0791    -105.6881    1.2586776   -104.42943   -17887.942    4.3458656    4.3458656    4.3458656   -17887.942   -5281.1144   -28147.224   -20235.488    3460.8034   -10672.698    38308.274    82.078397 
   54600    1548.7097   -105.81277    1.4013051   -104.41147    9100.9931    4.3421718    4.3421718    4.3421718    9100.9931   -35560.039    43717.327    19145.692     17378.27    4177.7432   -18528.086    81.869289 
   54700    1075.6793   -105.38955   0.97329727   -104.41625   -6229.1108    4.3378568    4.3378568    4.3378568   -6229.1108   -22468.902   -8042.8782    11824.448   -919.47797    6828.5443    12585.502     81.62546 
   54800     1558.909   -105.82051    1.4105336   -104.40997    32461.163    4.3318231    4.3318231    4.3318231    32461.163    16975.314    61014.083    19394.092     24836.79    -6144.377    23575.542    81.285322 
   54900    1096.7734   -105.41549   0.99238366    -104.4231   -16842.338    4.3425131    4.3425131    4.3425131   -16842.338   -26009.401   -3776.2114     -20741.4    11264.517    19238.884   -15570.295    81.888593 
   55000    1523.3744   -105.78756    1.3783812   -104.40918    15015.481    4.3348384    4.3348384    4.3348384    15015.481    26975.164    19789.883   -1718.6055    5609.8305   -3972.2687    18053.841    81.455187 
   55100    1345.1201   -105.62961    1.2170929   -104.41252    6506.7273    4.3392774    4.3392774    4.3392774    6506.7273   -10648.624    37830.715   -7661.9096    17087.017    20587.818    -13628.62    81.705678 
   55200    1535.5842   -105.78789    1.3894289   -104.39846   -20652.228    4.3462712    4.3462712    4.3462712   -20652.228    -140.9856   -26196.098     -35619.6    1615.3458    2485.1934     2242.051    82.101384 
   55300    1438.7505   -105.69551    1.3018117   -104.39369     37947.37    4.3263359    4.3263359    4.3263359     37947.37    37936.188     34964.45     40941.47    926.03962    18524.415    8381.4848    80.976816 
   55400    1258.3452   -105.55458    1.1385772     -104.416    -18104.37    4.3410044    4.3410044    4.3410044    -18104.37   -4150.3662   -2433.8988   -47728.845    10666.268    6967.8205    -26562.53    81.803275 
   55500     1535.913   -105.79206    1.3897264   -104.40233    8972.5785    4.3367538    4.3367538    4.3367538    8972.5785    28498.954   -11096.799    9515.5809   -3193.8998   -670.94536   -1294.0452    81.563209 
   55600      1412.51   -105.68416    1.2780687   -104.40609    7906.6025    4.3288443    4.3288443    4.3288443    7906.6025   -12501.828    37005.035   -783.39904    3808.2435    23943.798   -6353.8268     81.11775 
   55700    1362.6785   -105.63707    1.2329801   -104.40409   -24404.584    4.3530443    4.3530443    4.3530443   -24404.584    16335.698   -48817.087   -40732.364    3628.1853   -7670.4394   -25686.858    82.485815 
   55800     1564.294   -105.81766    1.4154061   -104.40225   -2039.0241    4.3308538    4.3308538    4.3308538   -2039.0241   -27271.433     19267.49    1886.8709   -3057.3959     12469.56    14084.502    81.230768 
   55900    1034.7549    -105.3466   0.93626796   -104.41034    28696.384     4.318452     4.318452     4.318452    28696.384    49687.778    7693.7748    28707.599    8786.0331   -3014.3062   -57762.241    80.534933 
   56000    1873.0537    -106.1105    1.6947783   -104.41573   -7573.6673     4.341274     4.341274     4.341274   -7573.6673   -24686.248   -16267.915    18233.162   -17484.751   -3627.2734   -556.40527    81.818513 
   56100    821.53282   -105.16967   0.74334016   -104.42633    -1662.573    4.3496324    4.3496324    4.3496324    -1662.573    20283.967   -9361.1637   -15910.522    13234.368    13255.238   -40234.394    82.292011 
   56200    1776.3165   -106.01951    1.6072485   -104.41226   -612.04838    4.3435687    4.3435687    4.3435687   -612.04838    15259.966   -13431.001   -3665.1099   -10231.882   -6311.9073    -23211.65    81.948325 
   56300    1267.6555   -105.56408    1.1470014   -104.41707    13785.082    4.3282442    4.3282442    4.3282442    13785.082    68708.101   -11651.014   -15701.842   -7964.3145    11313.271   -10069.321    81.084021 
   56400    1319.4332   -105.62768    1.1938509   -104.43383   -4580.4742    4.3261623    4.3261623    4.3261623   -4580.4742    49188.944   -15105.834   -47824.533   -6128.4454    991.42763   -38300.136    80.967071 
   56500    1844.8513   -106.08997    1.6692602   -104.42071    -2226.979    4.3438041    4.3438041    4.3438041    -2226.979    35211.537   -25128.398   -16764.075   -5227.8664   -16563.044    4070.1169    81.961653 
   56600    985.23098   -105.31309    0.8914577   -104.42163   -25248.428    4.3459841    4.3459841    4.3459841   -25248.428    5264.3249   -50215.873   -30793.736    4125.3109    17993.312   -50902.946    82.085113 
   56700    2042.5544   -106.23787    1.8481462   -104.38973    -4341.406    4.3432483    4.3432483    4.3432483    -4341.406   -1853.1521   -10850.634   -320.43169   -21818.418   -16098.433    20668.706    81.930192 
   56800    1060.2597   -105.35411   0.95934529   -104.39476   -46265.008    4.3439654    4.3439654    4.3439654   -46265.008   -12978.679   -57879.499   -67936.845    7054.9343   -838.38338   -53517.407    81.970782 
   56900    1820.9133   -106.03859    1.6476006   -104.39099    11757.263    4.3328687    4.3328687    4.3328687    11757.263   -3639.5038    2351.2507    36560.044   -11060.236   -876.07416    13825.733      81.3442 
   57000    1569.4575   -105.82365    1.4200781   -104.40358   -20750.406    4.3400696    4.3400696    4.3400696   -20750.406    14656.814   -40270.588   -36637.446   -4230.2096   -7393.3601   -30368.562    81.750439 
   57100    1336.4422   -105.62038     1.209241   -104.41114   -18916.045      4.34552      4.34552      4.34552   -18916.045   -1832.3609   -20303.304   -34612.472    7533.8207    18277.743    3577.1919    82.058819 
   57200    1671.8568   -105.90388    1.5127312   -104.39115   -15021.745    4.3566447    4.3566447    4.3566447   -15021.745   -8494.4479   -47222.466    10651.679   -7693.9467   -19624.282   -6304.0449    82.690654 
   57300    1340.0792   -105.59824    1.2125318   -104.38571   -38414.243    4.3492922    4.3492922    4.3492922   -38414.243   -42172.959   -30698.403   -42371.367   -3733.9942    14264.567   -8256.1523    82.272701 
   57400    1835.3302   -106.03924    1.6606454   -104.37859    2135.9097    4.3258417    4.3258417    4.3258417    2135.9097   -1198.9724   -16139.619    23746.321   -7333.2808   -2747.7771    8426.2883    80.949071 
   57500    1321.4573   -105.59992    1.1956823   -104.40423    6191.2757    4.3222919    4.3222919    4.3222919    6191.2757        17326      -5183.8    6431.6274   -10875.592    16947.179   -24124.108    80.749952 
   57600    1663.2799   -105.92737    1.5049706    -104.4224     950.7875    4.3422836    4.3422836    4.3422836     950.7875   -29652.322    41435.469   -8930.7841     -2455.49     13030.76    3911.9988    81.875611 
   57700    935.95731   -105.26525   0.84687385   -104.41838   -5246.9176    4.3568014    4.3568014    4.3568014   -5246.9176   -14859.235    23089.801   -23971.318    -2141.831   -5665.3817    -9577.455    82.699578 
   57800    1313.3566   -105.60232    1.1883527   -104.41397   -3857.0752    4.3331097    4.3331097    4.3331097   -3857.0752   -32000.221    57091.013   -36662.017   -17861.845    24993.557   -20277.903    81.357775 
   57900    1835.7345   -106.06286    1.6610112   -104.40185    31853.369    4.3167179    4.3167179    4.3167179    31853.369    9944.2291    50634.251    34981.626    6751.4145    -8466.403    3699.8013     80.43795 
   58000    782.78617   -105.14865   0.70828138   -104.44037   -32730.141    4.3359804    4.3359804    4.3359804   -32730.141   -25404.597   -22026.914   -50758.912   -12858.046    30022.735   -16086.104     81.51958 
   58100     1777.022   -106.02476    1.6078868   -104.41687     2936.297    4.3453449    4.3453449    4.3453449     2936.297   -19655.231   -21170.063    49634.185    7985.1001    617.68212    381.86558      82.0489 
   58200    1644.3297   -105.90911    1.4878241   -104.42129   -25322.086    4.3402448    4.3402448    4.3402448   -25322.086   -26967.225   -16638.565   -32360.469     4485.315     10837.84    5460.6568     81.76034 
   58300    1211.9459   -105.51773    1.0965941   -104.42114   -9405.9787    4.3302439    4.3302439    4.3302439   -9405.9787   -28372.267   -14147.897    14302.228   -3007.4388    25554.282   -2333.4976    81.196459 
   58400    2053.6153   -106.26952    1.8581542   -104.41136   -15190.271    4.3421557    4.3421557    4.3421557   -15190.271   -30819.027   -12704.248   -2047.5374    12794.094   -4269.4302    16259.114    81.868377 
   58500    1227.0982   -105.52201    1.1103042   -104.41171   -28536.689    4.3478552    4.3478552    4.3478552   -28536.689   -60028.774    7164.4391   -32745.733   -4988.4031    46654.483   -17893.468    82.191182 
   58600    1665.0043   -105.90473    1.5065309    -104.3982    1175.8784    4.3421103    4.3421103    4.3421103    1175.8784   -38422.577    17777.319    24172.893    6408.4441   -22987.227    1355.0531    81.865806 
   58700    1262.4764   -105.53544    1.1423151   -104.39313   -6090.5268    4.3402754    4.3402754    4.3402754   -6090.5268   -38416.522    59208.665   -39063.724   -19431.342    40817.917   -14113.246    81.762066 
   58800    1318.6183   -105.58978    1.1931135   -104.39667     19142.11    4.3371377    4.3371377    4.3371377     19142.11    -21644.93    56624.272    22446.989    3568.6178   -12354.964   -25023.799    81.584869 
   58900     1076.112   -105.37629   0.97368874    -104.4026    -2218.584    4.3407217    4.3407217    4.3407217    -2218.584   -48587.172    60374.289    -18442.87   -6082.2112    28623.806    4669.3585    81.787293 
   59000    1625.0568   -105.87127    1.4703856   -104.40088    11010.188    4.3302357    4.3302357    4.3302357    11010.188    3302.6298    11254.866    18473.066   -4379.5784   -3505.0927   -25153.966    81.195997 
   59100     1141.437   -105.45151    1.0327962   -104.41872    1975.2366    4.3293358    4.3293358    4.3293358    1975.2366    -46472.74    9059.5934    43338.856    16862.503    9831.8902    3539.4288    81.145384 
   59200    1461.1694   -105.74526    1.3220967   -104.42317   -10992.611    4.3313269    4.3313269    4.3313269   -10992.611    -16905.86    18771.489    -34843.46    2801.6369    22923.275     24364.54    81.257393 
   59300    1619.2003   -105.88921    1.4650865   -104.42412   -13017.852     4.339671     4.339671     4.339671   -13017.852   -32008.285   -850.55147   -6194.7186    156.68195   -5784.1098   -22000.572    81.727915 
   59400    1170.9377   -105.49246     1.059489   -104.43297   -32277.515    4.3411669    4.3411669    4.3411669   -32277.515   -45022.376   -19944.445   -31865.723    4273.8741    24662.024    32689.769    81.812458 
   59500    1739.5226   -106.00097    1.5739566   -104.42701    5817.5103    4.3176678    4.3176678    4.3176678    5817.5103    3182.3926    5920.2692    8349.8691   -8731.5444   -6807.2088    23287.021    80.491067 
   59600    1048.4024   -105.39348   0.94861649   -104.44487    21082.011    4.3225545    4.3225545    4.3225545    21082.011   -7419.8317     44510.96    26154.904   -1334.4182    16401.018    5503.7811    80.764672 
   59700    1131.4537   -105.45797    1.0237631    -104.4342    -29352.99    4.3494062    4.3494062    4.3494062    -29352.99    3042.2542   -8857.8334   -82243.391    -3754.666    2351.9124    69423.344    82.279173 
   59800    1819.8234   -106.04901    1.6466144    -104.4024    4464.3884    4.3385096    4.3385096    4.3385096    4464.3884   -35232.194    21980.686    26644.673     7608.614    13545.608   -21406.459    81.662318 
   59900    864.54729    -105.2003   0.78226056   -104.41804   -16079.426    4.3295587    4.3295587    4.3295587   -16079.426    18797.007   -24252.088   -42783.197    966.23764    9189.0062    65023.268    81.157918 
   60000     1837.353   -106.07509    1.6624756   -104.41262    5954.6732    4.3200741    4.3200741    4.3200741    5954.6732   -1420.2182    1893.4565    17390.781    2633.4633   -6593.2414    4743.0924    80.625716 
   60100    1415.6161    -105.7137    1.2808792   -104.43282    -9054.578    4.3261046    4.3261046    4.3261046    -9054.578   -16609.213   -11581.619    1027.0981    6306.6913    18247.212     33293.71    80.963832 
   60200    1141.4471   -105.47642    1.0328053   -104.44362   -14678.936    4.3408551    4.3408551    4.3408551   -14678.936    10904.523   -51006.273   -3935.0598   -212.68495   -3509.4963    41727.782    81.794834 
   60300    1636.4761   -105.90461    1.4807179    -104.4239   -20197.484    4.3411404    4.3411404    4.3411404   -20197.484   -29238.259   -12431.166   -18923.028    5016.1644    7120.0188   -28419.664    81.810961 
   60400    884.96898   -105.22951   0.80073854   -104.42877   -21981.866    4.3304111    4.3304111    4.3304111   -21981.866    6700.4768   -19306.619   -53339.457   -5034.3391    17972.683    66294.059    81.205864 
   60500    1997.2292   -106.21575    1.8071349   -104.40862     14481.32     4.319595     4.319595     4.319595     14481.32    10109.518    12120.978    21213.464   -4026.1313   -3778.2569   -34561.405    80.598897 
   60600    1153.4096   -105.47774    1.0436292   -104.43411   -30417.556    4.3372669    4.3372669    4.3372669   -30417.556   -19947.804   -39937.395   -31367.468    10928.893    13647.607    56133.775     81.59216 
   60700    1133.6145   -105.44919    1.0257182   -104.42347   -4710.4877    4.3447018    4.3447018    4.3447018   -4710.4877    -16332.53   -13072.348    15273.415   -6043.6971    16565.008     11292.04    82.012476 
   60800    1533.1697    -105.8052    1.3872442   -104.41795    18103.445    4.3234782    4.3234782    4.3234782    18103.445    36581.922   -8100.8988    25829.312    5202.5832    654.02256   -3743.2204    80.816457 
   60900    1280.2209   -105.58514    1.1583708   -104.42677    -6562.113    4.3283203    4.3283203    4.3283203    -6562.113    2383.7941   -26610.061    4539.9277    6757.0397    13540.225    50911.391    81.088296 
   61000    1816.9591   -106.05488    1.6440228   -104.41086   -9577.4912    4.3411057    4.3411057    4.3411057   -9577.4912   -18255.292   -6683.0458   -3794.1355    2639.0271   -4287.9325   -27516.643    81.808999 
   61100    1002.4426   -105.32128   0.90703113   -104.41425     2821.006    4.3334167    4.3334167    4.3334167     2821.006    5918.1593   -11212.773    13757.631    193.14536   -2625.9507    52736.839    81.375065 
   61200    1804.5749   -106.03725    1.6328173   -104.40444    6470.1953    4.3311204    4.3311204    4.3311204    6470.1953   -4970.5381    11760.268    12620.856    2442.4754    2893.2222   -15523.475    81.245774 
   61300    940.45281   -105.26563   0.85094147   -104.41469      35472.5    4.3237594    4.3237594    4.3237594      35472.5    39099.193    44026.495    23291.812    11568.784   -17921.317    48324.477    80.832227 
   61400    1560.4494   -105.82679    1.4119274   -104.41487    10910.664    4.3323952    4.3323952    4.3323952    10910.664   -13010.674     18075.38    27667.286    947.69481    12126.887   -8280.3392    81.317532 
   61500    1427.4601   -105.70099    1.2915959    -104.4094   -19604.074    4.3402452    4.3402452    4.3402452   -19604.074   -11442.826   -10824.154   -36545.243     3276.849   -7443.7304    17336.308    81.760362 
   61600    1329.3484   -105.59236    1.2028224   -104.38954    45287.077    4.3285836    4.3285836    4.3285836    45287.077     47887.19    46694.751    41279.289    6341.8898   -7132.9519    8746.8005    81.103098 
   61700     965.8377   -105.27786   0.87391025   -104.40395   -3652.7779     4.336591     4.336591     4.336591   -3652.7779    11207.594     4556.513   -26722.441   -3220.7535   -14240.037    2995.0047    81.554023 
   61800    1994.7189   -106.19542    1.8048636   -104.39056    -4726.265    4.3304489    4.3304489    4.3304489    -4726.265    24544.937   -26925.317   -11798.414   -8682.0011    5320.9879    20863.246    81.207988 
   61900    778.33274   -105.11355   0.70425182    -104.4093    19190.759    4.3279973    4.3279973    4.3279973    19190.759   -2797.4692    62224.417   -1854.6713   -12306.136   -20625.417   -23552.043    81.070145 
   62000    1418.1905   -105.69017    1.2832085   -104.40696    3528.0301    4.3381795    4.3381795    4.3381795    3528.0301   -3680.8406    12154.054     2110.877   -7740.8167     14713.95    19428.466    81.643677 
   62100    1584.5991   -105.83385    1.4337786   -104.40007   -18028.523    4.3394928    4.3394928    4.3394928   -18028.523   -45717.166    89.981438   -8458.3843   -3954.4307    -29909.91   -33954.478    81.717849 
   62200    1071.7898   -105.36907   0.96977797   -104.39929    3042.7533     4.334328     4.334328     4.334328    3042.7533   -41723.835    39670.966    11181.129    -2697.397     22722.93    2611.5356    81.426418 
   62300    1775.5701   -106.00389    1.6065731   -104.39732    10931.263    4.3296395    4.3296395    4.3296395    10931.263   -24389.264    39508.055    17674.998   -3850.4778   -14789.854   -18491.102    81.162465 
   62400    1092.8952   -105.41081   0.98887451   -104.42194   -14188.115    4.3295491    4.3295491    4.3295491   -14188.115    -46755.94    21257.405   -17065.809   -1482.3795   -16857.183     4592.651     81.15738 
   62500    1899.9349   -106.12782     1.719101   -104.40872    -1040.104      4.33112      4.33112      4.33112    -1040.104   -22722.093    23090.156   -3488.3753    5196.7165    25415.117    4013.4407    81.245749 
   62600    882.09742   -105.22194   0.79814028    -104.4238    25842.083     4.327482     4.327482     4.327482    25842.083    5342.0988    52930.531     19253.62   -1822.4719   -31371.552    -21113.95    81.041191 
   62700    1709.8861   -105.95625    1.5471409   -104.40911   -5185.2147    4.3427911    4.3427911    4.3427911   -5185.2147   -11797.959     15575.31   -19332.995    6944.2979    29746.307    4913.6393    81.904323 
   62800    1498.8394   -105.76281    1.3561814   -104.40663   -8291.2751    4.3342889    4.3342889    4.3342889   -8291.2751    15274.758   -15326.253    -24822.33    602.52545   -23761.057    -2042.945    81.424215 
   62900    1116.8379   -105.41797    1.0105384   -104.40743    24776.186     4.316707     4.316707     4.316707    24776.186   -4408.3167    49368.259    29368.616    7905.7034    8720.8731   -18219.077     80.43734 
   63000    1649.2521   -105.90149     1.492278   -104.40922   -6782.0228     4.333211     4.333211     4.333211   -6782.0228   -7670.9118   -22947.717    10272.561    127.80621     9677.589    5223.1473    81.363481 
   63100    1082.6082   -105.40641   0.97956664   -104.42685   -22281.555    4.3345655    4.3345655    4.3345655   -22281.555   -30078.457   -14128.943   -22637.266    4083.3307   -31616.934   -8312.3125      81.4398 
   63200    2040.1672   -106.25575    1.8459862   -104.40976    5094.0387    4.3310814    4.3310814    4.3310814    5094.0387   -12514.953    13649.431    14147.638   -5545.4559   -1179.4477   -2118.3233    81.243579 
   63300    860.81453   -105.20575   0.77888308   -104.42687   -35164.295    4.3343826    4.3343826    4.3343826   -35164.295   -572.26259   -58535.435   -46385.188   -183.51948   -20598.532    6114.7956    81.429492 
   63400    1572.0727   -105.84201    1.4224444   -104.41957    14808.351    4.3201409    4.3201409    4.3201409    14808.351   -7786.6929    15899.055    36312.692    820.05911   -21958.009   -14652.412    80.629454 
   63500     1580.565   -105.86188    1.4301284   -104.43176   -7487.2469    4.3285803    4.3285803    4.3285803   -7487.2469    368.75115  -0.17692183   -22830.315    -7893.452    16692.077    29742.288    81.102911 
   63600     1174.048    -105.5026    1.0623033    -104.4403   -35184.437    4.3359934    4.3359934    4.3359934   -35184.437   -17248.617    -35923.59   -52381.105    10890.761   -34537.693   -18811.565    81.520314 
   63700    1816.2169   -106.06551    1.6433512   -104.42216    16455.386    4.3293897    4.3293897    4.3293897    16455.386   -16658.398     33379.23    32645.326   -877.75446    21229.127    5232.6415    81.148413 
   63800    861.35014   -105.21385    0.7793677   -104.43448    859.76158    4.3301595    4.3301595    4.3301595    859.76158     3452.117   -25948.685    25075.853    780.28225   -18872.534    946.19034    81.191708 
   63900    1613.9768   -105.88654    1.4603602   -104.42618   -9269.2866    4.3266917    4.3266917    4.3266917   -9269.2866   -9607.4027   -2139.2262   -16061.231    659.51725    5953.1658   -25332.366      80.9968 
   64000    1522.5907   -105.80698    1.3776721   -104.42931   -11738.589     4.327135     4.327135     4.327135   -11738.589   -15708.068    1111.3853   -20619.086    7532.4978    23350.765     11911.87    81.021697 
   64100    1344.8319   -105.64775    1.2168322   -104.43092   -16546.038    4.3371391    4.3371391    4.3371391   -16546.038   -24862.904   -34010.221    9235.0109    7223.9041   -21072.612   -28420.098    81.584951 
   64200    1165.0311   -105.48148    1.0541446   -104.42734   -20363.312    4.3338297    4.3338297    4.3338297   -20363.312   -50008.519    11648.249   -22729.667   -16201.769    57179.053    4326.2558    81.398337 
   64300    1592.2071   -105.85418    1.4406625   -104.41352    23746.096    4.3224794    4.3224794    4.3224794    23746.096     13770.09   -16625.573    74093.769    15340.865   -20954.923   -6854.5344    80.760461 
   64400    1142.5065   -105.46898    1.0337639   -104.43522   -38930.114    4.3357649    4.3357649    4.3357649   -38930.114   -65571.141   -8785.7633   -42433.437   -3432.0888    39207.671   -853.12639    81.507427 
   64500    1484.4963   -105.77869    1.3432034   -104.43548   -3087.2524    4.3311564    4.3311564    4.3311564   -3087.2524   -24224.953    5460.9952    9502.2007   -4279.8503    20115.031   -3655.0875    81.247795 
   64600    1474.9953   -105.76692    1.3346067   -104.43232    177.50758     4.328497     4.328497     4.328497    177.50758    31774.888   -10868.232   -20374.133    17540.945    8029.1079   -9272.5525    81.098225 
   64700    1242.5675   -105.55449    1.1243012   -104.43019   -5553.2035    4.3262996    4.3262996    4.3262996   -5553.2035   -2554.4689     10699.23   -24804.372     -17316.3    44153.868    3903.3472    80.974779 
   64800    1545.2861   -105.82472    1.3982073   -104.42651    10881.849     4.334856     4.334856     4.334856    10881.849      47284.8   -19047.863    4408.6109    25493.503   -17501.546   -7873.5204    81.456177 
   64900    1476.2198   -105.75123    1.3357147   -104.41551   -30085.207    4.3425379    4.3425379    4.3425379   -30085.207   -35145.726    -14708.03   -40401.864    3833.3029    56210.258   -2668.8116    81.889994 
   65000    1311.0723   -105.59444    1.1862858   -104.40816    22740.367    4.3222152    4.3222152    4.3222152    22740.367    68027.262   -19927.569    20121.406    11916.638   -22977.676   -2016.5767    80.745654 
   65100    1222.0197   -105.53558    1.1057091   -104.42987   -3301.6797    4.3266328    4.3266328    4.3266328   -3301.6797   -3877.3425   -18677.657    12649.961    24654.161    23573.875    -793.2252    80.993493 
   65200    1817.2161   -106.05854    1.6442553   -104.41428    16698.136       4.3333       4.3333       4.3333    16698.136    65174.265   -27326.035    12246.177   -1205.6586    20220.094   -3012.2305    81.368491 
   65300    715.72088   -105.08801    0.6475993   -104.44041   -39273.155    4.3402952    4.3402952    4.3402952   -39273.155   -55768.435     -87578.1    25527.071    16047.577   -16438.654   -4741.3241    81.763189 
   65400    2333.0656   -106.51841    2.1110068    -104.4074    1399.9552    4.3319623    4.3319623    4.3319623    1399.9552     29870.96    -19411.81   -6259.2844    2415.9941    15786.564    3299.8813    81.293159 
   65500    776.12576   -105.12553    0.7022549   -104.42327    17190.484    4.3209897    4.3209897    4.3209897    17190.484    54885.642   -39436.028    36121.839    10643.099   -18966.007    316.33278    80.676989 
   65600    1342.1157   -105.64585    1.2143745   -104.43147    4421.3733    4.3320973    4.3320973    4.3320973    4421.3733     22004.09   -39091.047    30351.076   -2780.4823   -10617.773    1160.7599    81.300763 
   65700    1809.7518   -106.06128    1.6375015   -104.42378   -8870.6414    4.3305121    4.3305121    4.3305121   -8870.6414    12495.237   -24888.959   -14218.202    11263.085    11013.175    8326.3978    81.211547 
   65800    1102.1183   -105.43287   0.99721977   -104.43565    12498.093    4.3201722    4.3201722    4.3201722    12498.093    11140.003   -39918.067    66272.343    826.50139   -13425.251   -542.30653    80.631207 
   65900    1321.9583    -105.6319    1.1961356   -104.43577    5692.9074    4.3287124    4.3287124    4.3287124    5692.9074     50909.17    4722.0288   -38552.477   -7727.9527    20399.406    9439.0735    81.110335 
   66000    1225.3482    -105.5443    1.1087208   -104.43558   -6296.2844    4.3319334    4.3319334    4.3319334   -6296.2844    10336.149   -27660.357   -1564.6457    14973.944    21279.377   -3105.4527    81.291531 
   66100    1801.1688   -106.06018    1.6297354   -104.43045   -4118.0642    4.3241781    4.3241781    4.3241781   -4118.0642    2646.0503   -21633.442     6633.199    -11223.84   -5706.3833    11273.129    80.855712 
   66200    1049.5226   -105.39446   0.94963006   -104.44483    7871.8762    4.3279857    4.3279857    4.3279857    7871.8762    43607.232    13457.341   -33448.945    1540.7039    36769.445    6663.7775    81.069494 
   66300    1561.8458   -105.85178    1.4131909   -104.43859    5239.0819    4.3332529    4.3332529    4.3332529    5239.0819    56986.431   -41449.508    180.32272    172.07199   -8676.3431   -908.39906    81.365839 
   66400    1296.0359   -105.61579    1.1726805   -104.44311    1641.6382    4.3256256    4.3256256    4.3256256    1641.6382    31776.437    7163.7699   -34015.292   -7963.0122    31076.934    14044.926    80.936942 
   66500    1658.1386   -105.93527    1.5003187   -104.43495   -9058.8463    4.3229541    4.3229541    4.3229541   -9058.8463   -3760.1822    1877.7084   -25294.065   -769.91534    30025.452    5265.2147    80.787074 
   66600     1330.304   -105.64156     1.203687   -104.43788   -4409.6633     4.330991     4.330991     4.330991   -4409.6633    19466.125   -48587.326    15892.211   -468.49869    -966.7633    361.35149    81.238489 
   66700    1401.5281   -105.70677    1.2681321   -104.43864   -11698.105    4.3431843    4.3431843    4.3431843   -11698.105    38483.231   -25141.464   -48436.083   -2279.9439    31327.762    24568.591    81.926569 
   66800    1641.0277   -105.90727    1.4848364   -104.42243   -2240.3384    4.3394816    4.3394816    4.3394816   -2240.3384       7688.5    -2173.095    -12236.42   -6708.5506   -24227.811    709.51529    81.717214 
   66900    987.19424   -105.31809   0.89323409   -104.42485    393.77003    4.3177847    4.3177847    4.3177847    393.77003    13516.745   -28486.221    16150.786   -13310.694    14896.762    22522.167    80.497601 
   67000    1652.6941    -105.9267    1.4953923    -104.4313   -1232.7877    4.3236362    4.3236362    4.3236362   -1232.7877      820.801    7105.0732   -11624.237   -3900.0688    5063.9877    12302.398     80.82532 
   67100    1688.9873     -105.957    1.5282312   -104.42877   -7230.5761    4.3389584    4.3389584    4.3389584   -7230.5761   -3686.0335   -27401.761    9396.0662   -8906.7681   -7191.7613    6840.8807    81.687661 
   67200    797.79206   -105.15756   0.72185902    -104.4357   -7909.5671     4.342409     4.342409     4.342409   -7909.5671    38326.066   -28637.741   -33417.026   -255.40141     26931.32    19939.086    81.882706 
   67300    1784.2966   -106.03047     1.614469     -104.416    18075.457    4.3268255    4.3268255    4.3268255    18075.457    36002.597    6434.9698    11788.805    5141.9037   -6615.1506   -21697.518     81.00431 
   67400    1236.2341   -105.54268    1.1185706   -104.42411    13904.787    4.3205223    4.3205223    4.3205223    13904.787    66352.151    2622.1586   -27259.948   -1251.0629    15076.917    42680.594    80.650814 
   67500    1156.3632   -105.48109    1.0463017   -104.43479   -8067.7423    4.3423073    4.3423073    4.3423073   -8067.7423   -9215.0671   -1416.2164   -13571.944    -5431.803     11087.64   -27025.999    81.876952 
   67600    1622.1479   -105.88399    1.4677535   -104.41624    7734.0185    4.3364534    4.3364534    4.3364534    7734.0185    15173.442   -10356.945    18385.558    14630.752   -21203.794    18210.278    81.546259 
   67700    867.18929   -105.21134   0.78465109   -104.42669    25806.594     4.330502     4.330502     4.330502    25806.594     34400.74    39416.859    3602.1821    3022.4103    8670.7419    21451.451    81.210973 
   67800    1275.2903   -105.57652    1.1539094   -104.42261    1716.3967     4.344166     4.344166     4.344166    1716.3967    3746.9264   -37585.819    38988.083    23968.551   -13066.152   -10921.781    81.982138 
   67900    1463.7297   -105.73166    1.3244134   -104.40725    16126.802    4.3401836    4.3401836    4.3401836    16126.802    50830.452   -15553.443    13103.396    1388.3145   -12719.778    32899.593    81.756878 
   68000    768.16581   -105.11106   0.69505257     -104.416    3886.8596    4.3355151    4.3355151    4.3355151    3886.8596    20685.417   -24781.186    15756.348    1166.4152    4775.7904   -29681.704    81.493338 
   68100    1565.1144   -105.83328    1.4161484   -104.41713   -3920.3332    4.3329956    4.3329956    4.3329956   -3920.3332    10313.883   -24153.203    2078.3204    4960.5467   -19436.486    12580.411    81.351348 
   68200    1637.8115   -105.90912    1.4819263   -104.42719    8085.4974    4.3276065    4.3276065    4.3276065    8085.4974    49975.182    2918.9512   -28637.641   -9093.9884   -9726.1824   -23493.637    81.048182 
   68300    1007.8034   -105.35777   0.91188165   -104.44589   -27349.719    4.3301977    4.3301977    4.3301977   -27349.719   -36670.172   -51161.324    5782.3387      19352.2    6395.7073   -21591.135    81.193859 
   68400    1436.9583   -105.74134    1.3001901   -104.44115     -2389.94    4.3251281    4.3251281    4.3251281     -2389.94   -28322.885    33717.487   -12564.423     1638.401    -21718.92    7823.6226    80.909017 
   68500     1803.724    -106.0764    1.6320474   -104.44435   -17399.069    4.3316093    4.3316093    4.3316093   -17399.069    24970.764    -32273.86    -44894.11    6500.6658   -4957.8628    -34612.62     81.27329 
   68600    1136.7529   -105.47925    1.0285579   -104.45069    8516.3052    4.3276733    4.3276733    4.3276733    8516.3052   -2906.3158      38492.5   -10037.269    2979.4419   -11271.525    8343.2294    81.051939 
   68700     890.3601   -105.26086   0.80561653   -104.45524    16507.306    4.3271048    4.3271048    4.3271048    16507.306    53589.919    7693.3662   -11761.368   -17954.279   -18439.637   -7163.0324    81.019998 
   68800    1972.4518   -106.21808    1.7847159   -104.43337    9481.0296     4.336265     4.336265     4.336265    9481.0296    35588.783    14436.274   -21581.968   -2333.3903    5246.2876   -12642.894    81.535632 
   68900    957.47679   -105.31455   0.86634512    -104.4482    10793.076    4.3302163    4.3302163    4.3302163    10793.076    11835.234    44469.037   -23925.043   -4787.4135   -29531.346    5570.8913    81.194902 
   69000    1451.1872   -105.74357    1.3130647    -104.4305   -6750.9346    4.3302241    4.3302241    4.3302241   -6750.9346   -7329.2942    -8155.824   -4767.6856   -10424.036    13883.593   -17088.544    81.195345 
   69100    1813.1303   -106.06193    1.6405584   -104.42137   -4070.1288    4.3312954    4.3312954    4.3312954   -4070.1288    466.32047    14492.451   -27169.158    9826.4755   -20766.764    2918.6092     81.25562 
   69200     1366.789   -105.66827    1.2366994   -104.43157   -18588.057    4.3256699    4.3256699    4.3256699   -18588.057   -1921.1676   -9617.9749   -44225.029   -11418.368    9775.1351   -15959.411    80.939425 
   69300    1244.3695   -105.56689    1.1259316   -104.44096    6150.6814    4.3316123    4.3316123    4.3316123    6150.6814   -12655.391     45667.89   -14560.455    6920.5879    3034.6701   -2107.8807    81.273459 
   69400    1514.0386   -105.80715     1.369934   -104.43722   -6732.8307     4.334274     4.334274     4.334274   -6732.8307    11709.146    14151.585   -46059.223     4735.907   -2576.3614   -6703.8459    81.423375 
   69500    1034.9064    -105.3794   0.93640505   -104.44299    9431.2093    4.3234179    4.3234179    4.3234179    9431.2093   -2870.4386    60045.506   -28881.439   -11941.629    23450.755   -8766.2783    80.813078 
   69600    1716.3539   -105.99269    1.5529931    -104.4397   -14054.681    4.3316003    4.3316003    4.3316003   -14054.681   -17344.217   -19846.182   -4973.6426    30942.536   -10139.064    2930.9752    81.272779 
   69700    1161.8852   -105.48677    1.0512982   -104.43547    10771.025    4.3331377    4.3331377    4.3331377    10771.025    219.17243      91956.4   -59862.498    824.48897    28179.934   -18904.425    81.359351 
   69800    1515.1095   -105.80876    1.3709029   -104.43786    -22525.74    4.3322742    4.3322742    4.3322742    -22525.74   -31837.708   -36603.997    864.48586    11469.117      124.983     521.0042    81.310719 
   69900    1365.5571   -105.67294    1.2355847   -104.43736    7562.5764    4.3280887    4.3280887    4.3280887    7562.5764    6482.9585     40680.66   -24475.889    4077.7613    2051.3962   -13540.657    81.075281 
   70000     1504.563   -105.79829    1.3613603   -104.43693    714.02297    4.3290803    4.3290803    4.3290803    714.02297    24786.202    6070.5464    -28714.68    5349.4202    23447.797   -20854.154    81.131017 
   70100    1067.1158   -105.40652   0.96554877   -104.44097     9446.558    4.3336223    4.3336223    4.3336223     9446.558    11173.803    16992.552    173.31885    9996.0018   -14937.197    9525.7191    81.386652 
   70200    1599.3562   -105.88165    1.4471311   -104.43452     -18913.2    4.3421841    4.3421841    4.3421841     -18913.2    42530.431   -37707.818   -61562.213   -1026.1121    8382.3167   -40641.887    81.869981 
   70300     1416.106    -105.7108    1.2813224   -104.42947   -3977.8151    4.3304496    4.3304496    4.3304496   -3977.8151    7936.7464   -3736.9581   -16133.234    8424.2427   -8568.7741    1862.0343    81.208031 
   70400    1165.4815   -105.48831    1.0545521   -104.43375   -4965.5289    4.3208735    4.3208735    4.3208735   -4965.5289    -2907.018   -13719.028    1729.4592   -12608.969   -437.81619   -18096.308    80.670484 
   70500    1476.7941   -105.77242    1.3362343   -104.43619    4082.8139    4.3386261    4.3386261    4.3386261    4082.8139    25302.815    40108.611   -53162.984    1688.5162   -7045.3392   -12362.571    81.668894 
   70600    1367.3433   -105.67673    1.2372009   -104.43953   -16742.778    4.3377367    4.3377367    4.3377367   -16742.778   -34547.597   -25249.888    9569.1516     11573.09   -9873.7772   -1053.9034    81.618679 
   70700    1279.0857   -105.58858    1.1573437   -104.43124   -13910.366    4.3283249    4.3283249    4.3283249   -13910.366    6390.9115   -38084.076   -10037.934    -9054.579     1247.587   -27224.061    81.088552 
   70800    1656.5373   -105.92358    1.4988698   -104.42471   -8885.8538    4.3358949    4.3358949    4.3358949   -8885.8538   -1130.0857   -13357.745   -12169.731    8562.2692   -9067.6503    19135.223    81.514759 
   70900    1488.5952   -105.76919    1.3469122   -104.42228   -6709.5109    4.3372566    4.3372566    4.3372566   -6709.5109    -27744.75   -14804.848    22421.066   -10105.584   -264.95889    -14235.82    81.591579 
   71000    1023.7918   -105.34971   0.92634838   -104.42336    10739.657    4.3319624    4.3319624    4.3319624    10739.657    4426.2564    22529.334    5263.3808   -2981.3847    1087.2495    26377.783    81.293167 
   71100    1679.7367   -105.93772    1.5198611   -104.41785   -13692.293    4.3387082    4.3387082    4.3387082   -13692.293   -31133.087    14896.813   -24840.605   -11738.719    1448.6641    5224.8773    81.673531 
   71200    1287.5447   -105.57974    1.1649975   -104.41475    17153.835    4.3324247    4.3324247    4.3324247    17153.835    4612.2702    6122.4069    40726.829   -14222.309   -6852.3477    16885.405    81.319194 
   71300    1239.4237   -105.53733    1.1214566   -104.41587   -4693.8424    4.3391416    4.3391416    4.3391416   -4693.8424   -14138.156   -12710.765    12767.393   -4176.9649    13524.106    24183.646    81.698008 
   71400    1423.8633   -105.70025    1.2883414    -104.4119   -6756.5403    4.3438569    4.3438569    4.3438569   -6756.5403   -42036.113   -11964.938     33731.43   -17261.873    16015.285   -3447.3109    81.964639 
   71500    1865.9376    -106.0919    1.6883396   -104.40356   -146.83251    4.3318078    4.3318078    4.3318078   -146.83251    14464.417   -17700.446     2795.532   -2559.5426    10155.279    28499.998     81.28446 
   71600    753.11951   -105.11558   0.68143836   -104.43414   -15897.105    4.3263077    4.3263077    4.3263077   -15897.105   -14923.229   -1384.2386   -31383.847   -8196.4302    11015.907    -17446.65    80.975232 
   71700    1655.1254     -105.942    1.4975923   -104.44441    2440.6515    4.3266166    4.3266166    4.3266166    2440.6515   -4247.0467    1937.4003    9631.6008   -12276.206    2758.4465    4814.6586    80.992582 
   71800    1356.2353   -105.66885    1.2271502    -104.4417     28916.87    4.3366816    4.3366816    4.3366816     28916.87    28905.705    20065.919    37778.986    3716.2239     4211.435   -1705.4075    81.559135 
   71900    980.04789   -105.32936   0.88676792   -104.44259   -37575.018    4.3395776    4.3395776    4.3395776   -37575.018    -82852.42    18923.614   -48796.249   -11306.798    10645.924   -12931.334    81.722637 
   72000     1954.889   -106.18735    1.7688247   -104.41852    15599.341      4.33017      4.33017      4.33017    15599.341    11265.419   -22884.989    58417.592    3203.1003    3237.2229    1933.8001    81.192298 
   72100    1532.3096   -105.81804    1.3864659   -104.43157    502.13471    4.3198995    4.3198995    4.3198995    502.13471   -6615.5263    3839.3043    4282.6261    5857.1975    20780.048   -15705.685    80.615941 
   72200    1115.1619   -105.45975    1.0090219   -104.45073   -15859.429    4.3325563    4.3325563    4.3325563   -15859.429   -15888.815   -13768.415   -17921.056     473.3171   -13836.005    4965.0516    81.326607 
   72300    1324.1829   -105.64437    1.1981486   -104.44622   -2973.6278    4.3372659    4.3372659    4.3372659   -2973.6278    23407.997   -57293.874    24964.994    18971.063   -9823.3148    22930.994    81.592103 
   72400    1873.9479   -106.12862    1.6955874   -104.43303    15565.907    4.3230001    4.3230001    4.3230001    15565.907   -9303.8014    17749.911     38251.61   -34.595653   -8349.1839   -403.55663     80.78965 
   72500    411.07447   -104.83268   0.37194882   -104.46073   -6637.5348    4.3391326    4.3391326    4.3391326   -6637.5348   -12619.884   -11535.445    4242.7252    23322.444   -12256.123    40561.477    81.697502 
   72600    1953.8546   -106.18072    1.7678887   -104.41283    6085.5498    4.3462014    4.3462014    4.3462014    6085.5498   -5168.4135    4070.4034     19354.66    3774.6055    6625.7986    8328.2115    82.097428 
   72700    1352.7491   -105.65428    1.2239958   -104.43029   -19347.777    4.3358947    4.3358947    4.3358947   -19347.777   -10203.009    -45650.09    -2190.231    7018.8749   -3940.5203    22153.031    81.514744 
   72800    767.78221   -105.14107   0.69470548   -104.44636    8017.9851    4.3121131    4.3121131    4.3121131    8017.9851   -10098.851   -6739.4541    40892.261    12404.409    11591.689    19289.213    80.180808 
   72900    1930.8269   -106.20181    1.7470528   -104.45476    14841.922    4.3171965    4.3171965    4.3171965    14841.922   -9651.2038    2911.7809    51265.188   -3705.0708    11182.589   -6832.2458     80.46471 
   73000    1308.1553   -105.64725    1.1836464    -104.4636    -29839.88     4.343798     4.343798     4.343798    -29839.88   -30210.366    -56933.89   -2375.3846    15025.732   -10859.514    36296.225    81.961303 
   73100    1266.0787   -105.59187    1.1455747   -104.44629   -19658.227    4.3358877    4.3358877    4.3358877   -19658.227   -27535.467    2925.9147   -34365.128   -7599.7259    24384.565   -6087.0013    81.514351 
   73200    1555.0052   -105.84064    1.4070014   -104.43364    22882.626    4.3168945    4.3168945    4.3168945    22882.626   -13021.837    36938.926    44730.789    4676.3845   -5204.9741   -6437.5605    80.447825 
   73300    1537.1501    -105.8371    1.3908457   -104.44626    3105.2802    4.3176279    4.3176279    4.3176279    3105.2802   -18455.864    22535.016    5236.6887    13065.689    10270.359    10519.928    80.488832 
   73400    826.10989   -105.20936   0.74748158   -104.46188   -6808.9343    4.3423653    4.3423653    4.3423653   -6808.9343   -43078.711    24011.979   -1360.0711   -3920.9229    15404.465   -12908.126     81.88023 
   73500    1846.0257   -106.10927    1.6703228   -104.43895    -13690.15     4.338508     4.338508     4.338508    -13690.15   -26732.273   -25694.249    11356.071      9358.61   -10348.286   -24522.841    81.662223 
   73600         1556   -105.84445    1.4079015   -104.43654    8268.7857    4.3160332    4.3160332    4.3160332    8268.7857   -33928.604        58337     397.9606    4183.3728    17585.324    1646.0303    80.399682 
   73700    760.03077   -105.14196   0.68769182   -104.45427   -2345.1557    4.3212033    4.3212033    4.3212033   -2345.1557   -8382.9988   -17827.574    19175.106   -5194.1502   -8957.2275    -37310.61    80.688959 
   73800    1974.7483   -106.22962    1.7867938   -104.44282    1945.5699    4.3334872    4.3334872    4.3334872    1945.5699   -14958.543    807.07553    19988.177    6643.4632    10598.592    15923.253    81.379039 
   73900    1264.4578   -105.59251     1.144108    -104.4484   -1629.8614    4.3372011    4.3372011    4.3372011   -1629.8614   -46891.946   -1477.7963    43480.158    405.90178   -16401.515   -21451.313    81.588449 
   74000    1102.3784   -105.45326   0.99745517   -104.45581   -11775.665    4.3312333    4.3312333    4.3312333   -11775.665   -361.48154   -29884.936   -5080.5785    671.72695   -8002.0589   -2099.2326    81.252126 
   74100    1656.4579   -105.94159    1.4987979   -104.44279    24249.381    4.3199612    4.3199612    4.3199612    24249.381    20447.408    19419.446    32881.288    3817.8946    6132.0373    36417.185    80.619393 
   74200    1309.7821   -105.63367    1.1851183   -104.44855    7715.9938    4.3285823    4.3285823    4.3285823    7715.9938   -5898.6611   -1951.2676     30997.91    5332.1163   -16151.071   -29620.892    81.103021 
   74300    996.80445   -105.35229   0.90192962   -104.45036   -31860.019    4.3312502    4.3312502    4.3312502   -31860.019    13165.465   -49578.177   -59167.346    8781.0442   -271.38955    47422.922    81.253076 
   74400     1959.055   -106.20181    1.7725941   -104.42921    18191.638    4.3245074    4.3245074    4.3245074    18191.638   -6480.0166   -3290.2545    64345.187    4202.3552    6762.0527   -8037.3216    80.874188 
   74500    1219.7454   -105.54561    1.1036513   -104.44195   -20364.807    4.3310502    4.3310502    4.3310502   -20364.807    6301.2454    -49420.85   -17974.816    5520.4867   -2771.1883    33101.729    81.241823 
   74600    1156.9262   -105.49661    1.0468111    -104.4498   -11406.518    4.3290915    4.3290915    4.3290915   -11406.518    3089.5276   -42938.963    5629.8826    5210.3439    6410.6427    18969.403     81.13165 
   74700    1804.9464   -106.06716    1.6331534   -104.43401    13707.984    4.3281577    4.3281577    4.3281577    13707.984   -5162.6267   -8254.9663    54541.546    7421.1242    -5531.071    1992.8038    81.079157 
   74800    1221.3168   -105.54175    1.1050731   -104.43668   -29878.698    4.3319117    4.3319117    4.3319117   -29878.698   -9095.7043   -48366.871   -32173.518   -1574.3516     3792.016    38979.541     81.29031 
   74900    1319.7372   -105.62447    1.1941259   -104.43035   -9744.7391    4.3307728    4.3307728    4.3307728   -9744.7391   -31659.481     2327.806    97.457674    8627.2101    7508.4474   -22076.716    81.226212 
   75000    1922.9435   -106.16224    1.7399197   -104.42232    1867.5822     4.320066     4.320066     4.320066    1867.5822    9854.7084   -15590.435    11338.473   -1841.8886   -25525.237    35120.773    80.625262 
   75100    993.53515   -105.34365   0.89897148   -104.44468   -893.90457     4.317236     4.317236     4.317236   -893.90457   -3534.4401    4384.6442   -3531.9178    5782.8493    30038.679   -15136.524    80.466917 
   75200    1277.5989   -105.61404    1.1559984   -104.45804   -7841.6055    4.3285164    4.3285164    4.3285164   -7841.6055   -41713.402    12020.934     6167.651   -4905.3927    -33266.48   -7309.8485     81.09932 
   75300     1923.713   -106.17175    1.7406159   -104.43113    15893.202    4.3349902    4.3349902    4.3349902    15893.202    5999.5284    24362.355    17317.723   -932.81261    16497.738     -2690.52    81.463744 
   75400    748.65998   -105.12052   0.67740328   -104.44312   -21198.826    4.3246349    4.3246349    4.3246349   -21198.826   -39135.853    11796.553   -36257.179   -5485.3222   -5156.8577   -24534.905    80.881344 
   75500    1371.1033   -105.67515    1.2406031   -104.43455    27260.277    4.3166682    4.3166682    4.3166682    27260.277    11705.343     32481.34    37594.149   -3938.3632   -17176.818    5405.9632    80.435171 
   75600    1744.5163   -106.01056     1.578475   -104.43209    14788.284    4.3234129    4.3234129    4.3234129    14788.284    6484.6791    20318.777    17561.395   -8860.7024    10695.154   -15493.329      80.8128 
   75700    980.23332   -105.32617   0.88693571   -104.43923   -8629.2787    4.3360304    4.3360304    4.3360304   -8629.2787   -12879.135    -1456.177   -11552.524   -1232.7209   -24741.897   -8045.3435    81.522401 
   75800    1369.6789   -105.66331    1.2393143   -104.42399   -3374.1097    4.3361143    4.3361143    4.3361143   -3374.1097    12489.323    -10896.95   -11714.702   -4192.4223    13946.666     27111.96    81.527132 
   75900    1597.6423   -105.86456    1.4455803   -104.41898    11422.567    4.3176684    4.3176684    4.3176684    11422.567   -6594.0165    24410.751    16450.966    2243.0338   -28820.038   -9408.1468    80.491099 
   76000    1284.6303   -105.59434    1.1623605   -104.43198    4912.7248    4.3106737    4.3106737    4.3106737    4912.7248    37789.607   -6003.7851   -17047.648   -2398.4482   -6455.6939    32496.351    80.100541 
   76100    1188.2832   -105.51447    1.0751836   -104.43929     14446.76     4.330504     4.330504     4.330504     14446.76    30819.165    22153.154   -9632.0378    384.62867   -1537.9083     2760.935     81.21109 
   76200    1616.0416   -105.88958    1.4622284   -104.42735   -6888.7037    4.3369831    4.3369831    4.3369831   -6888.7037   -8643.0372   -27611.576    15588.502    6575.5523    -21423.89    14486.093     81.57615 
   76300    1158.1032   -105.47601    1.0478761   -104.42813     4902.817    4.3285027    4.3285027    4.3285027     4902.817    41526.282   -4825.6405   -21992.191    6587.5178    8783.4083    27989.676    81.098548 
   76400    1506.6287    -105.7872    1.3632293   -104.42397    10806.567    4.3127652    4.3127652    4.3127652    10806.567    5213.0897    1692.3581    25514.253    1121.5979   -15261.383   -13626.054    80.217188 
   76500    1190.4793   -105.51804    1.0771707   -104.44086    7552.3753    4.3162446    4.3162446    4.3162446    7552.3753    28755.618   -4538.2133    -1560.279    9730.6868   -16273.343    48092.429    80.411497 
   76600    1636.7999   -105.91135    1.4810109   -104.43034   -8728.6818    4.3376914    4.3376914    4.3376914   -8728.6818    10048.474   -28086.431   -8148.0879   -1255.2706   -1237.1987   -20450.095    81.616124 
   76700    1177.3314   -105.48625    1.0652742   -104.42098    10917.419    4.3314032    4.3314032    4.3314032    10917.419    824.98201     14730.61    17196.664     7674.793   -21910.343    18951.875    81.261687 
   76800    1312.1537   -105.59903    1.1872642   -104.41176    14945.538    4.3257873    4.3257873    4.3257873    14945.538    48032.356   -11313.588    8117.8471    517.95139   -5393.7249    5663.4397    80.946019 
   76900    1584.6282   -105.84419    1.4338049   -104.41039    17384.158     4.322721     4.322721     4.322721    17384.158    26337.342    5056.1768    20758.954   -6931.0103   -9617.8878   -34852.055    80.774007 
   77000     933.1895   -105.27386   0.84436947   -104.42949    -9027.873    4.3235117    4.3235117    4.3235117    -9027.873    2644.3902   -14501.318   -15226.691    10559.024   -16369.793     43078.54    80.818337 
   77100    1650.8102   -105.92222    1.4936878   -104.42853    4733.0713    4.3246539    4.3246539    4.3246539    4733.0713    56394.752   -9284.3373   -32911.201   -5564.5667    10258.316   -33609.952    80.882408 
   77200    1393.0401   -105.69556     1.260452   -104.43511    13145.674    4.3183023    4.3183023    4.3183023    13145.674    24681.344    17257.581   -2501.9013    4436.5221   -22441.606    26472.775    80.526556 
   77300    1274.6993    -105.5904    1.1533748   -104.43702   -10994.781    4.3371922    4.3371922    4.3371922   -10994.781    3410.6305     -7507.25   -28887.723    10327.056    13247.216    6425.1502    81.587946 
   77400    1812.7538    -106.0638    1.6402177   -104.42358    9935.6405    4.3232725    4.3232725    4.3232725    9935.6405    36850.964    774.15639   -7818.1989   -15980.009   -11360.586   -2793.3362    80.804926 
   77500    791.61526   -105.15663   0.71627013   -104.44036    10620.251    4.3096387    4.3096387    4.3096387    10620.251    26484.952    20295.087   -14919.286    10166.868   -8386.9329    34626.971    80.042859 
   77600    2132.9771   -106.35312    1.9299625   -104.42316    1393.2343     4.326398     4.326398     4.326398    1393.2343     5035.677   -16556.081    15700.107   -3615.1198   -1588.5062   -11065.222    80.980304 
   77700    958.82516   -105.29845   0.86756515   -104.43088    8583.4685    4.3337925    4.3337925    4.3337925    8583.4685    33108.729     6388.717   -13747.041   -18269.869   -23030.223    39118.532    81.396238 
   77800    1348.4032   -105.64003    1.2200635   -104.41996    -16091.75    4.3374412    4.3374412    4.3374412    -16091.75   -12527.661   -5786.4474   -29961.142    22139.917   -3621.4636   -5139.9647    81.602002 
   77900    1448.9475   -105.73086    1.3110382   -104.41982    17211.714    4.3109665    4.3109665    4.3109665    17211.714        74637   -23942.639    940.78031   -30821.131    5102.7949    12780.172    80.116867 
   78000    1578.4518   -105.86105    1.4282164   -104.43284    9935.8957    4.3072375    4.3072375    4.3072375    9935.8957    4898.7692     17971.64    6937.2777     2160.748   -23008.513    24514.267    79.909139 
   78100    1477.3489   -105.76635    1.3367363   -104.42962   -13544.463     4.333282     4.333282     4.333282   -13544.463   -2408.5797   -28601.214   -9623.5958   -8319.5309    13304.877   -15404.998    81.367478 
   78200     1033.235   -105.37199    0.9348927    -104.4371   -15694.745    4.3269003    4.3269003    4.3269003   -15694.745     29334.83   -60211.233   -16207.831   -25022.188   -10716.123    37103.595    81.008511 
   78300    1652.7932   -105.92748     1.495482     -104.432    1482.1075    4.3227115    4.3227115    4.3227115    1482.1075   -4086.6412    10799.591    -2266.627    5676.3566       -16481    -4374.514     80.77347 
   78400    1311.6608   -105.62111    1.1868183    -104.4343    4908.5643    4.3216597    4.3216597    4.3216597    4908.5643    70131.196   -43050.456   -12355.047    -17002.39    9248.0247    12797.311    80.714527 
   78500    1460.3128   -105.74953    1.3213217   -104.42821    -29148.65    4.3342828    4.3342828    4.3342828    -29148.65   -28407.686   -27027.086   -32011.179   -1813.8348   -14720.219    15608.972     81.42387 
   78600    1312.3859   -105.60664    1.1874743   -104.41916   -27078.379    4.3389401    4.3389401    4.3389401   -27078.379   -34296.197   -18274.614   -28664.326    9152.0369    12705.702    1611.7681    81.686628 
   78700    1758.3892   -105.99256    1.5910275   -104.40153    17461.897    4.3150325    4.3150325    4.3150325    17461.897    52160.362   -13505.997    13731.326   -5386.6134    -5052.803    21408.846    80.343774 
   78800    1043.7012   -105.36706   0.94436274    -104.4227     14080.48    4.3196666    4.3196666    4.3196666     14080.48   -16264.167     37937.31    20568.297    10072.736   -39718.054   -2933.7498    80.602903 
   78900    1514.0896   -105.78625    1.3699801   -104.41627    5181.0334    4.3415131    4.3415131    4.3415131    5181.0334    58775.069   -44902.843    1670.8743   -571.83192    1743.2988    28132.073    81.832035 
   79000    1357.6906   -105.62917     1.228467    -104.4007    1831.2517    4.3461579    4.3461579    4.3461579    1831.2517   -792.18108   -15302.979    21588.916    75.123681   -58014.712    3570.6852    82.094959 
   79100    1608.6223    -105.8411    1.4555152   -104.38558    9374.3974    4.3360957    4.3360957    4.3360957    9374.3974    41349.288    2345.1232   -15571.219    8751.0695    8446.9836    16827.567    81.526086 
   79200    1120.9164   -105.40384    1.0142287   -104.38962    8773.5255    4.3237102    4.3237102    4.3237102    8773.5255    33231.773    2596.9419   -9508.1387   -9069.1999   -35818.153    16888.582     80.82947 
   79300    1610.5286    -105.8576    1.4572401   -104.40036    20333.435    4.3273676    4.3273676    4.3273676    20333.435    20414.533   -4674.2037    45259.975    9119.5066    -7318.381    3096.5455    81.034763 
   79400    1520.5018   -105.78254     1.375782   -104.40676   -21144.869    4.3405916    4.3405916    4.3405916   -21144.869   -2498.1528   -21989.059   -38947.397   -2682.3522   -12234.401    21635.326    81.779935 
   79500    1194.8657   -105.48617    1.0811396   -104.40503    1552.7642     4.335142     4.335142     4.335142    1552.7642    -24650.81    4379.3075    24929.795    -10297.22   -40943.411   -7062.8801    81.472303 
   79600    1965.0107   -106.16977     1.777983   -104.39179   -2058.8007    4.3338882    4.3338882    4.3338882   -2058.8007   -1318.6195   -21504.132    16646.349    2862.6592    5328.5865    15649.483     81.40163 
   79700    793.27231   -105.13457   0.71776946    -104.4168   -13357.985      4.32227      4.32227      4.32227   -13357.985   -8806.1755    22620.182   -53887.962    969.95986   -65862.397    6896.0491    80.748726 
   79800    1906.9764   -106.13112    1.7254723   -104.40565    15502.671    4.3264718    4.3264718    4.3264718    15502.671    28386.552   -13524.061    31645.522   -9503.7381    14335.733   -6212.5187    80.984449 
   79900    568.33856    -104.9364   0.51424467   -104.42216   -23081.551    4.3427334    4.3427334    4.3427334   -23081.551   -40104.928    26750.956   -55890.681     10100.57   -81453.094    14709.117    81.901055 
   80000    1981.1476   -106.18166     1.792584   -104.38908    5825.4904    4.3240549    4.3240549    4.3240549    5825.4904    6071.5123   -6125.4098    17530.369    -15169.59   -4914.4713   -6268.8294    80.848802 
   80100    1032.2589   -105.33924   0.93400957   -104.40523   -21031.496    4.3262204    4.3262204    4.3262204   -21031.496    -24270.66    18331.622   -57155.449    2593.5908    -45390.58    23917.112    80.970331 
   80200    1315.9885   -105.60131     1.190734   -104.41058   -10913.478    4.3299965    4.3299965    4.3299965   -10913.478   -24472.618    -1448.141   -6819.6757   -11215.817   -28616.851   -4543.5238     81.18254 
   80300    1448.2363    -105.7223    1.3103947    -104.4119    11642.396    4.3307645    4.3307645    4.3307645    11642.396    -3988.695    46172.025   -7256.1433   -5813.8908   -17602.153    171.38225    81.225745 
   80400    1325.0022   -105.61297    1.1988899   -104.41408   -45229.517    4.3441332    4.3441332    4.3441332   -45229.517   -35711.161   -21739.771    -78237.62   -8127.3542   -43428.201     15393.78    81.980283 
   80500    1481.7432   -105.74737    1.3407124   -104.40666    32471.536    4.3189138    4.3189138    4.3189138    32471.536    17784.734    50320.244    29309.631   -5223.9512    3432.4614   -128.00827    80.560772 
   80600    1167.4697   -105.48299    1.0563511   -104.42664    5761.7812    4.3173467    4.3173467    4.3173467    5761.7812     10573.62    28333.258   -21621.534    -2462.582   -60773.099   -2115.9182    80.473106 
   80700    1868.3447   -106.09607    1.6905175   -104.40555   -5483.2686    4.3446336    4.3446336    4.3446336   -5483.2686   -16017.379   -10546.325    10113.898   -2212.8321    28531.718    6069.4546    82.008614 
   80800    949.83958   -105.25959   0.85943482   -104.40015   -7262.4005    4.3430403    4.3430403    4.3430403   -7262.4005   -14154.441    -5279.477   -2353.2836   -2235.9634   -67318.144   -11382.573     81.91842 
   80900      1522.74   -105.76022    1.3778071   -104.38241    22084.475    4.3341634    4.3341634    4.3341634    22084.475    44625.064    9435.0741    12193.286   -2669.2041    25977.613    13611.774    81.417137 
   81000    1230.7909   -105.50459    1.1136455   -104.39094   -2020.5502    4.3268647    4.3268647    4.3268647   -2020.5502   -43830.237    18171.487    19597.099   -6079.3073   -61584.822   -8407.0534    81.006513 
   81100    1480.0533   -105.73451    1.3391833   -104.39533    24925.043    4.3337728    4.3337728    4.3337728    24925.043    57604.518    16774.588    396.02306   -2759.2601    2426.1263    23616.481     81.39513 
   81200    936.01195   -105.25335   0.84692328   -104.40642   -37398.146    4.3472516    4.3472516    4.3472516   -37398.146   -54003.509    22227.288   -80418.218   -3945.2648   -43560.694    12806.716    82.156954 
   81300    1745.0716    -105.9587    1.5789775   -104.37972    11083.229    4.3293966    4.3293966    4.3293966    11083.229   -4641.2039    29093.506    8797.3832   -19529.953   -12617.038   -8891.3569    81.148805 
   81400    1224.2601   -105.50174    1.1077363     -104.394   -291.53699    4.3323248    4.3323248    4.3323248   -291.53699   -21974.452    61305.812    -40205.97   -13137.204   -18393.898    18466.279    81.313567 
   81500     1208.438   -105.48785    1.0934201   -104.39443   -20009.906    4.3443777    4.3443777    4.3443777   -20009.906   -43316.995    33623.271   -50335.993   -15688.004   -16525.634   -5306.0426    81.994123 
   81600    1779.6231   -105.99541    1.6102403   -104.38517    8256.4043    4.3390686    4.3390686    4.3390686    8256.4043    -26285.11    24261.858    26792.465   -9804.4316    319.04644    7342.3028    81.693887 
   81700    1153.5119   -105.44436    1.0437218   -104.40064   -9709.3191    4.3375312    4.3375312    4.3375312   -9709.3191     -53495.9    57241.882   -32873.939   -284.84682   -35169.716    8996.9901    81.607079 
   81800    1657.3921    -105.8881    1.4996432   -104.38845    12484.387    4.3280586    4.3280586    4.3280586    12484.387    15868.437    17093.684    4491.0385     2295.071    11076.007   -17964.914    81.073587 
   81900    1080.8473   -105.38705   0.97797338   -104.40907    16333.879    4.3333152    4.3333152    4.3333152    16333.879     20149.62    31047.957   -2195.9413    7822.1492   -70840.646    11623.637     81.36935 
   82000    1485.7361   -105.74743    1.3443253    -104.4031     8555.709      4.34252      4.34252      4.34252     8555.709    55842.177   -2983.4888   -27191.561    11467.522    19803.345   -19248.915    81.888982 
   82100    838.63465    -105.1675   0.75881425   -104.40868    10207.412    4.3339074    4.3339074    4.3339074    10207.412    9175.5754    30455.497   -9008.8365    5848.8723   -59439.315   -2245.5652    81.402716 
   82200    1913.5927   -106.12875    1.7314589   -104.39729   -1376.5198    4.3284496    4.3284496    4.3284496   -1376.5198      6911.24   -2967.1556   -8073.6437    5515.0176    2140.5909   -2412.0451    81.095563 
   82300    1270.9855   -105.56521    1.1500144    -104.4152   -11121.052    4.3283069    4.3283069    4.3283069   -11121.052   -29343.563    17133.864   -21153.457   -2116.1977   -5997.6551   -13865.278     81.08754 
   82400     1543.645     -105.821    1.3967225   -104.42428   -11757.306    4.3413068    4.3413068    4.3413068   -11757.306    5099.1015    8126.7204   -48497.741   -6727.0522   -24226.008    480.06557    81.820367 
   82500    1820.3795   -106.05938    1.6471176   -104.41226   -15164.013    4.3451266    4.3451266    4.3451266   -15164.013    7427.5226    -47360.89   -5558.6728   -6401.6057    11424.077   -27613.088    82.036537 
   82600    857.56979   -105.19434   0.77594716    -104.4184    22791.623    4.3259674    4.3259674    4.3259674    22791.623    37096.307    23826.873    7451.6904    448.75486   -53877.442    -510.9941    80.956128 
   82700    1615.7591   -105.86612    1.4619728   -104.40415    22059.118    4.3335035    4.3335035    4.3335035    22059.118    58343.829   -18207.499    26041.023   -9050.4799    3231.1599   -10646.798    81.379956 
   82800    836.59175   -105.17441    0.7569658   -104.41744   -3610.3704    4.3390227    4.3390227    4.3390227   -3610.3704    -1697.003      17030.3   -26164.408    4795.3562   -67239.707   -12789.901    81.691295 
   82900    1845.3494   -106.07165    1.6697109   -104.40194     4357.246    4.3346063    4.3346063    4.3346063     4357.246    24817.976   -13604.598    1858.3603    -20639.95    10330.231     1604.482    81.442099 
   83000    1168.6292     -105.476    1.0574003    -104.4186   -19630.815    4.3363581    4.3363581    4.3363581   -19630.815    19381.296   -10778.409   -67495.332   -1815.5639   -36621.117   -13557.088    81.540885 
   83100     1753.227   -106.00513    1.5863567   -104.41878   -13922.799    4.3367143    4.3367143    4.3367143   -13922.799   -7708.6756   -13665.696   -20394.025   -10565.919   -28968.975    -313.5021    81.560982 
   83200    1419.6046   -105.70423    1.2844881   -104.41974    7552.2559     4.339792     4.339792     4.339792    7552.2559    48912.671   -19786.227   -6469.6766   -10021.568   -4149.1896   -2353.2472    81.734749 
   83300    944.82342   -105.28759   0.85489608   -104.43269    -5515.378    4.3352226    4.3352226    4.3352226    -5515.378   -5274.4064    16079.588   -27351.316    7233.2785   -68100.763   -14471.601    81.476843 
   83400    1719.1789   -105.96625    1.5555492    -104.4107    41184.981    4.3348039    4.3348039    4.3348039    41184.981    52198.096    4198.1984    67158.648   -9758.9619    16349.957    4717.7557    81.453239 
   83500    738.63538   -105.10026   0.66833281   -104.43192   -3795.2454    4.3425604    4.3425604    4.3425604   -3795.2454   -27581.393   -6916.6761    23112.333    135.01625   -69049.591   -13713.912     81.89127 
   83600    2209.0146   -106.40057    1.9987629   -104.40181   -18919.556    4.3484182    4.3484182    4.3484182   -18919.556   -32161.998   -51264.342    26667.673    11423.438    25431.135   -1655.5399    82.223112 
   83700     1302.954   -105.59083    1.1789402   -104.41189    7418.6088    4.3295083    4.3295083    4.3295083    7418.6088   -4041.6029    26344.646   -47.217041   -5531.4601   -41147.818   -1306.1353    81.155084 
   83800    1451.8958   -105.73485    1.3137058   -104.42114     3289.434    4.3287101    4.3287101    4.3287101     3289.434   -8401.9143   -33577.845    51848.062    19527.074   -4462.9908   -2289.0074    81.110205 
   83900    1546.0888    -105.8229    1.3989336   -104.42397    7326.4188    4.3419599    4.3419599    4.3419599    7326.4188    815.07916   -3588.4975    24752.675    4631.8621   -19125.951    10281.639    81.857303 
   84000    1236.7948   -105.53863    1.1190779   -104.41955   -5095.0575    4.3446375    4.3446375    4.3446375   -5095.0575    8722.4399    4852.9173    -28860.53    14849.643    -55994.21    -3749.405    82.008833 
   84100    1599.8295   -105.85326    1.4475593    -104.4057    746.99059    4.3394077    4.3394077    4.3394077    746.99059    76032.323   -41950.022    -31841.33    17702.077    10642.364    5000.8122    81.713037 
   84200    1229.6001   -105.52245     1.112568   -104.40988    16993.935    4.3264435    4.3264435    4.3264435    16993.935    33583.301    22631.929   -5233.4265   -4256.8805   -49299.128    1600.9981    80.982863 
   84300     1759.775   -106.00799    1.5922814   -104.41571   -15787.963    4.3338463    4.3338463    4.3338463   -15787.963    17353.837   -46358.711   -18359.014    24645.387    17804.036   -14371.124    81.399268 
   84400    1373.8219    -105.6625     1.243063   -104.41943   -10090.938    4.3391148    4.3391148    4.3391148   -10090.938    6734.3766     5965.634   -42972.824   -4261.4655   -41002.917    12593.566    81.696497 
   84500    1183.3584   -105.49329    1.0707276   -104.42257   -1335.2485    4.3468851    4.3468851    4.3468851   -1335.2485    32855.076   -35112.536   -1748.2861    8721.3938   -2757.4537   -24150.709    82.136177 
   84600    1707.4689   -105.96404    1.5449537   -104.41909   -10510.569    4.3297878    4.3297878    4.3297878   -10510.569     14818.73   -14360.158   -31990.279    10502.671   -20103.642    4604.4678    81.170804 
   84700    840.02363   -105.19236   0.76007104   -104.43228    36345.767    4.3203818    4.3203818    4.3203818    36345.767    20293.873    26511.333    62232.096   -1746.2071   -43718.134   -801.81992    80.642944 
   84800    1952.1231   -106.18332     1.766322   -104.41699    -19975.02    4.3437768    4.3437768    4.3437768    -19975.02   -1426.0426   -40512.214   -17986.803    16566.719    6003.4139   -3940.3843    81.960105 
   84900    1042.8392   -105.36154   0.94358283   -104.41796   -8984.2631    4.3445582    4.3445582    4.3445582   -8984.2631    -49289.65    24603.212   -2266.3515    -6999.823   -60462.796   -2263.7245    82.004345 
   85000    1708.0254   -105.94073    1.5454573   -104.39528    16455.005    4.3378224    4.3378224    4.3378224    16455.005    34282.114   -16326.611    31409.511    8696.6476    18349.884    4915.4976    81.623519 
   85100    1132.5369   -105.43008    1.0247432   -104.40533   -19618.152     4.334312     4.334312     4.334312   -19618.152   -70311.659    53989.326   -42532.124   -223.59787   -70441.282   -7640.2959    81.425513 
   85200    1857.3111   -106.08434    1.6805341    -104.4038    20357.206    4.3331365    4.3331365    4.3331365    20357.206    46468.595    2122.7094    12480.313    8357.0239     7189.384    19002.483    81.359282 
   85300    1161.2496   -105.46972    1.0507231     -104.419   -18499.069    4.3415339    4.3415339    4.3415339   -18499.069   -27723.663    19318.333   -47091.876   -1595.2689   -61368.562    1060.4733    81.833213 
   85400    1552.4185   -105.81114    1.4046608   -104.40648     18759.48    4.3400914    4.3400914    4.3400914     18759.48    43132.688    1944.2541    11201.497    5447.1344   -426.26592    8785.0835    81.751669 
   85500    1388.8996   -105.67039    1.2567055   -104.41368   -26459.716    4.3423849    4.3423849    4.3423849   -26459.716   -28197.962   -29040.761   -22140.425    2028.4723   -39900.157    14342.835     81.88134 
   85600    1465.1288   -105.73985    1.3256794   -104.41418    10973.344    4.3325664    4.3325664    4.3325664    10973.344    9020.1542    20402.361    3497.5159   -152.46235   -24195.584   -1105.2869    81.327173 
   85700    1513.0191   -105.78289    1.3690115   -104.41387   -11620.892    4.3382978    4.3382978    4.3382978   -11620.892   -4999.1138    -26816.25   -3047.3128    18498.508   -15139.489     28207.96    81.650358 
   85800    1328.9209   -105.60754    1.2024355    -104.4051   -24527.874    4.3475328    4.3475328    4.3475328   -24527.874   -49814.953     29017.95   -52786.619    996.69024   -43432.451   -5350.7122    82.172899 
   85900    1907.7793   -106.11477    1.7261988   -104.38858    -9650.929    4.3439888    4.3439888    4.3439888    -9650.929   -317.79898   -5517.1853   -23117.803    18453.851    10034.904    26298.936    81.972105 
   86000    828.62482   -105.14628   0.74975715   -104.39652   -32171.886    4.3482808    4.3482808    4.3482808   -32171.886    -74686.11    25976.468   -47806.018    3491.3704   -73172.978    8047.6194    82.215318 
   86100    2256.6656   -106.41342    2.0418785   -104.37154    9359.4137     4.335759     4.335759     4.335759    9359.4137    11151.958     1290.485    15635.798    10812.697    25127.961    18283.766    81.507093 
   86200    840.61619   -105.16304   0.76060719   -104.40244    -25171.66     4.346235     4.346235     4.346235    -25171.66   -49621.329    15549.849     -41443.5    11913.336   -64671.276    18436.302     82.09933 
   86300    2455.3643   -106.58749    2.2216653   -104.36582   -23106.164    4.3558722    4.3558722    4.3558722   -23106.164   -25019.692   -26606.282   -17692.517    10024.075    24101.762   -194.54373    82.646676 
   86400    754.94704   -105.06161   0.68309195   -104.37852   -17034.038    4.3449629    4.3449629    4.3449629   -17034.038   -38736.901    8979.4512   -21344.663      7751.36   -52986.706    23188.288    82.027263 
   86500    1915.6975   -106.10717    1.7333633   -104.37381    19417.158     4.328739     4.328739     4.328739    19417.158    61173.315   -15023.215    12101.373    8821.2157    11989.032    12855.248     81.11183 
   86600    1222.4797   -105.51234    1.1061254   -104.40621   -11463.774    4.3369028    4.3369028    4.3369028   -11463.774   -4887.5994    6837.0851   -36340.806    6913.9991   -49048.855   -92.509848    81.571618 
   86700    1312.7424   -105.60291    1.1877969   -104.41511    7192.4027    4.3432316    4.3432316    4.3432316    7192.4027    27278.235   -28453.668     22752.64    17988.613    -19421.84    26677.645     81.92925 
   86800     1586.456   -105.84891    1.4354587   -104.41345   -25561.049    4.3476939    4.3476939    4.3476939   -25561.049   -54802.449   -5295.6181   -16585.078   -9.7249324   -27755.901    -9872.237    82.182032 
   86900     1050.147   -105.37073    0.9501951   -104.42053     4409.629    4.3213675    4.3213675    4.3213675     4409.629   -10021.747    14003.493    9247.1403     643.3713   -47103.056    11553.108    80.698157 
   87000    1844.6425   -106.08417    1.6690713    -104.4151    4261.0233    4.3172928    4.3172928    4.3172928    4261.0233    -4897.119   -5763.0293    23443.218    21230.734     11948.73    8469.2801    80.470092 
   87100    934.64887   -105.27173   0.84568994   -104.42604   -33673.581    4.3479326    4.3479326    4.3479326   -33673.581   -57749.978     1128.788   -44399.554   -8952.4229    -54570.11   -15336.269     82.19557 
   87200    2128.8505   -106.32056    1.9262287   -104.39433   -4749.5269    4.3488257    4.3488257    4.3488257   -4749.5269   -6623.3582   -40324.548    32699.325    17733.732    26643.116    19707.323    82.246229 
   87300     974.3184   -105.29162   0.88158377   -104.41004   -28082.967    4.3424796    4.3424796    4.3424796   -28082.967   -30981.548     -10401.6   -42865.752    5942.2559   -54610.365   -17446.376    81.886696 
   87400    1656.9033   -105.89864    1.4992009   -104.39944    30789.214    4.3233056    4.3233056    4.3233056    30789.214    45128.299    27149.187    20090.155    3432.1324   -9269.7898    5388.4346     80.80678 
   87500    1014.3318   -105.34556   0.91778876   -104.42777    5131.0661     4.335563     4.335563     4.335563    5131.0661    17603.183   -7418.8908    5208.9061    15650.233   -28096.182   -3738.7779     81.49604 
   87600    1143.4141   -105.46255    1.0345851   -104.42797   -17627.549    4.3489327    4.3489327    4.3489327   -17627.549   -26774.343   -17635.801   -8472.5026   -5564.0505   -37679.683   -18175.945    82.252301 
   87700    1855.8801   -106.07967    1.6792393   -104.40043    6531.8474    4.3424051    4.3424051    4.3424051    6531.8474    618.58129    -10970.73    29947.691     8911.325   -1763.5305    9898.7885    81.882482 
   87800    949.00289   -105.26675   0.85867776   -104.40807    -41484.09    4.3450813    4.3450813    4.3450813    -41484.09   -43955.156   -17145.128   -63351.986   -6263.7765   -45782.957   -17374.465     82.03397 
   87900    1922.3489   -106.13175    1.7393817   -104.39237    23018.604    4.3355245    4.3355245    4.3355245    23018.604    60881.806    -17083.31    25257.317   -10472.486    22432.199   -202.77906    81.493869 
   88000    1120.9964   -105.43477    1.0143011   -104.42047   -20216.144    4.3297892    4.3297892    4.3297892   -20216.144   -34770.609    20659.518   -46537.341    11596.891   -52429.848   -17070.454    81.170881 
   88100    1397.0336   -105.68697    1.2640654    -104.4229    30615.975    4.3337441    4.3337441    4.3337441    30615.975    96643.802    -22900.57    18104.695   -9881.1836   -2315.9839   -2607.6979    81.393515 
   88200    1444.7811    -105.7361    1.3072683   -104.42883   -8309.4057    4.3462399    4.3462399    4.3462399   -8309.4057   -7403.5172   -30037.458    12512.758   -2771.1529   -16899.051   -6262.3508     82.09961 
   88300    938.85353   -105.27322    0.8494944   -104.42373    21086.225    4.3356533    4.3356533    4.3356533    21086.225    38771.062    12685.266    11802.346    10161.195   -34091.112   -19955.555    81.501131 
   88400    1458.2438   -105.74325    1.3194497    -104.4238   -16758.336    4.3338963    4.3338963    4.3338963   -16758.336   -12258.994   -27560.077   -10455.936   -19231.207    24430.715     10472.18    81.402088 
   88500    1503.3328   -105.78745    1.3602471    -104.4272   -10098.035    4.3265318    4.3265318    4.3265318   -10098.035    872.23952    3975.9765    -35142.32    6657.8552   -23425.094   -14043.397    80.987818 
   88600     1350.247   -105.65494    1.2217318    -104.4332   -15977.714    4.3362403    4.3362403    4.3362403   -15977.714    3386.5102   -43239.836   -8079.8172    16512.609     7569.836    16960.012    81.534241 
   88700       1185.4   -105.50338    1.0725748    -104.4308   -28015.351     4.343458     4.343458     4.343458   -28015.351    13962.566   -36416.719   -61591.899   -16740.393    4579.7239     19694.99    81.942059 
   88800    1664.0832   -105.92775    1.5056975   -104.42205    7828.8947    4.3256323    4.3256323    4.3256323    7828.8947     24529.38   -10838.302    9795.6052     27250.12   -18542.814   -8145.0731    80.937315 
   88900    1106.1242   -105.43483    1.0008444   -104.43398   -5079.5079    4.3266584    4.3266584    4.3266584   -5079.5079    354.04141   -26989.139    11396.574     -2539.55   -2684.7001    38107.728    80.994928 
   89000    1844.8654    -106.0916    1.6692729   -104.42233   -6631.5931    4.3368821    4.3368821    4.3368821   -6631.5931   -20297.043    6916.9617   -6514.6985    11350.299    554.14632   -12409.734    81.570446 
   89100    959.72458   -105.28532   0.86837897   -104.41694   -20581.981    4.3574008    4.3574008    4.3574008   -20581.981   -16048.612   -45554.358   -142.97396    23275.236   -4834.2241    17942.993    82.733715 
   89200    1754.6294   -105.98402    1.5876256    -104.3964   -11210.573    4.3442919    4.3442919    4.3442919   -11210.573    3042.2742   -36025.647   -648.34505   -10365.242    19987.247    6864.9448    81.989268 
   89300    990.65344   -105.29445   0.89636405   -104.39808    42044.147    4.3152317    4.3152317    4.3152317    42044.147    85612.594   -641.39117    41161.239    42537.247     4467.099   -3146.4996    80.354899 
   89400    1433.1067   -105.71796     1.296705   -104.42125    6271.6299    4.3312048    4.3312048    4.3312048    6271.6299    23354.801   -26696.409    22156.498   -15467.359    16842.397    31941.507    81.250523 
   89500    1256.1358   -105.55472    1.1365781   -104.41814    1330.8267    4.3517931    4.3517931    4.3517931    1330.8267    20150.433   -19835.049    3677.0956    15656.079    15869.998   -12068.368    82.414709 
   89600    1238.0952    -105.5263    1.1202546   -104.40604   -19446.941    4.3523718    4.3523718    4.3523718   -19446.941   -33949.561   -27581.258    3189.9963    12330.962   -7525.7183    28522.314    82.447591 
   89700    1784.7963   -106.00999    1.6149212   -104.39507    25956.518    4.3258774    4.3258774    4.3258774    25956.518    33084.587    1788.1202    42996.848   -12814.002    18963.027   -15260.079    80.951073 
   89800    843.15792   -105.18415     0.762907   -104.42124    22620.314    4.3163169    4.3163169    4.3163169    22620.314    50160.638   -6840.9605    24541.263    25595.507   -13724.162    34746.771     80.41554 
   89900    1854.0049   -106.10142    1.6775426   -104.42388   -2610.9705    4.3366276    4.3366276    4.3366276   -2610.9705    21008.548   -10040.016   -18801.443   -12855.986      12385.8     11723.76    81.556087 
   90000    1173.1224   -105.48589    1.0614658   -104.42442   -3264.1793    4.3460856    4.3460856    4.3460856   -3264.1793     43356.02   -13949.918    -39198.64    25232.521    15103.514    8004.2136    82.090866 
   90100    1570.8535   -105.82812    1.4213413   -104.40678    -9809.302    4.3424595    4.3424595    4.3424595    -9809.302   -2891.1811   -12714.137   -13822.588    4430.2313      5987.03    37052.499    81.885562 
   90200    1588.3629   -105.83552    1.4371842   -104.39833   -3472.8646    4.3381209    4.3381209    4.3381209   -3472.8646    -15585.39   -3744.9956    8911.7924   -12162.206    27865.212   -17616.172     81.64037 
   90300    1380.5754   -105.64533    1.2491736   -104.39616   -5474.4896     4.338639     4.338639     4.338639   -5474.4896    25355.629    -39779.41   -1999.6883    14859.702    11944.014    28939.646    81.669622 
   90400    1485.2791   -105.74328    1.3439117   -104.39937    9550.3753    4.3350339    4.3350339    4.3350339    9550.3753   -39599.398    12861.287    55389.237    -30741.61    4512.4575   -11821.325    81.466206 
   90500    1356.9307   -105.64107    1.2277794   -104.41329   -24311.828    4.3421664    4.3421664    4.3421664   -24311.828   -20156.527   -42008.923   -10770.033   -2730.6134    9335.8651    18328.043     81.86898 
   90600     1706.701   -105.94224     1.544259   -104.39799    16007.907    4.3343153    4.3343153    4.3343153    16007.907   -1049.7007   -16378.393    65451.816   -16508.399   -19825.267      7422.56    81.425701 
   90700    1073.8053   -105.38495   0.97160157   -104.41335   -24093.675     4.336653     4.336653     4.336653   -24093.675   -20831.317   -40345.256   -11104.452   -18898.399    5092.2803    12330.778    81.557522 
   90800    1988.8823   -106.20064    1.7995825   -104.40106   -11434.596    4.3366818    4.3366818    4.3366818   -11434.596    21633.895   -43213.223    -12724.46   -4878.6835   -4140.5792    33882.958    81.559147 
   90900    1054.9594   -105.36899   0.95454939   -104.41444   -18052.357    4.3403327    4.3403327    4.3403327   -18052.357   -55302.245    -31798.19    32943.363   -15047.765    9943.6792   -2896.6462    81.765305 
   91000    1740.7666   -105.98189    1.5750822   -104.40681    8275.6596    4.3349719    4.3349719    4.3349719    8275.6596     11433.22   -14269.059    27662.819    9431.9755    12295.496   -3143.5758    81.462713 
   91100    1059.6104   -105.37312   0.95875773   -104.41436    23299.855    4.3280384    4.3280384    4.3280384    23299.855    7190.8924     13296.04    49412.632   -11421.657    3122.5074   -3230.1489    81.072454 
   91200     1294.014   -105.59754     1.170851   -104.42669    5298.2142    4.3401982    4.3401982    4.3401982    5298.2142   -6908.9726    50732.494   -27928.878    10421.098    13696.925   -21778.338    81.757704 
   91300    1429.1275   -105.70811    1.2931046     -104.415    32747.341    4.3349874    4.3349874    4.3349874    32747.341    27278.602    54602.637    16360.784    10172.068    -10553.26   -6325.4883    81.463586 
   91400    995.73756   -105.32778   0.90096427   -104.42681    13472.998    4.3289346    4.3289346    4.3289346    13472.998    314.39366    12766.544    27338.057    -23949.85    3159.6258   -14909.187    81.122827 
   91500    2017.4005   -106.23193    1.8253864   -104.40655   -6624.8537    4.3402288    4.3402288    4.3402288   -6624.8537    14356.495   -27611.597   -6619.4595    1625.6897   -4901.7665   -7158.5462    81.759433 
   91600    1084.4403   -105.39159   0.98122439   -104.41036   -4744.9894    4.3373727    4.3373727    4.3373727   -4744.9894   -23594.119   -19509.136    28868.287   -18739.384    -5470.223    9226.8075    81.598131 
   91700    1663.1175   -105.89517    1.5048237   -104.39034   -2579.9339    4.3385599    4.3385599    4.3385599   -2579.9339   -2795.0635    6841.7751   -11786.513   -11889.256   -1610.8716   -259.76998    81.665154 
   91800     1128.155    -105.4315    1.0207784   -104.41072   -22862.988    4.3361014    4.3361014    4.3361014   -22862.988   -17646.948   -29690.241   -21251.774      2848.08   -20304.284    18143.124    81.526404 
   91900    1370.7586   -105.66043    1.2402912   -104.42014    26176.843    4.3286382    4.3286382    4.3286382    26176.843    3429.2153    55683.018    19418.296   -30774.038    12237.328   -3045.8763    81.106165 
   92000    1384.5877   -105.67615    1.2528041   -104.42335    5778.0139    4.3308981    4.3308981    4.3308981    5778.0139     47936.81   -10231.608   -20371.161     16057.48   -30152.019    22858.297    81.233263 
   92100    1026.9563   -105.36132   0.92921165   -104.43211   -5485.6876    4.3395937    4.3395937    4.3395937   -5485.6876   -34166.986    13744.667    3965.2568   -17171.146    16537.666    17856.899    81.723548 
   92200     1822.676   -106.06792    1.6491955   -104.41873   -3985.4478    4.3351672    4.3351672    4.3351672   -3985.4478   -23300.056    9834.9119    1508.8006    556.47904   -34923.179    5797.1078    81.473719 
   92300    1113.3209   -105.43728    1.0073561   -104.42992     1170.798    4.3227644    4.3227644    4.3227644     1170.798   -41264.096    15747.611    29028.879    1078.9313   -6182.7016     17034.01    80.776441 
   92400    1812.0794   -106.05712    1.6396075   -104.41751   -6445.4373    4.3368033    4.3368033    4.3368033   -6445.4373   -24230.423    10138.284   -5244.1721    -10025.77   -6661.8249   -1158.0502    81.566004 
   92500    1008.1526   -105.33492   0.91219769   -104.42273   -24365.453     4.341267     4.341267     4.341267   -24365.453    -56068.04    15252.408   -32280.726    12091.663   -39942.207   -5252.0725    81.818121 
   92600    1743.2442   -105.97754    1.5773239   -104.40022    21239.648    4.3290619    4.3290619    4.3290619    21239.648    2772.0999    47459.622    13487.222    4321.2318    18488.873    13101.525    81.129986 
   92700    1262.8289   -105.56168    1.1426341   -104.41905   -22252.712    4.3314424    4.3314424    4.3314424   -22252.712    -39046.35    11815.226   -39527.011    5702.7259   -54981.186   -30397.833    81.263893 
   92800    1536.4559   -105.80089    1.3902176   -104.41068    23717.584    4.3313195    4.3313195    4.3313195    23717.584   -3122.2366    54564.187    19710.801    14335.517    23197.843    24388.034    81.256977 
   92900     1225.461   -105.52322    1.1088229    -104.4144    4861.9903    4.3386753    4.3386753    4.3386753    4861.9903    3833.4749    11228.132   -475.63555    1616.3519   -49762.886   -23942.632    81.671672 
   93000    1486.5886   -105.74957    1.3450966   -104.40447   -10059.761    4.3477244    4.3477244    4.3477244   -10059.761   -33412.076    11916.453   -8683.6605    11546.421    13442.684   -513.16081    82.183762 
   93100    1461.1746   -105.71525    1.3221015   -104.39315    10362.212    4.3337981    4.3337981    4.3337981    10362.212    31696.759    15607.457   -16217.579    704.16594   -30940.286   -9141.0168    81.396553 
   93200    1346.9245   -105.62608    1.2187256   -104.40736   -2191.6126      4.32911      4.32911      4.32911   -2191.6126   -22399.821    49028.103   -33203.119    5544.4897   -22449.996   -22947.651    81.132688 
   93300    1606.3403   -105.85713    1.4534505   -104.40368     15131.41    4.3316119    4.3316119    4.3316119     15131.41    36701.547    24680.458   -15987.774   -2118.8184    1018.6405    707.57699    81.273437 
   93400    1038.3473   -105.35836   0.93951843   -104.41884   -12555.302    4.3354678    4.3354678    4.3354678   -12555.302   -26996.476    34282.903   -44952.334     15517.35   -54508.407   -16967.275    81.490672 
   93500    1830.5519   -106.06221    1.6563219   -104.40589    11097.954    4.3331743    4.3331743    4.3331743    11097.954    36900.388    17208.004   -20814.531   -9289.3269    26615.329   -10361.101    81.361412 
   93600    1023.9603   -105.34709   0.92650082   -104.42059   -8949.8879     4.334391     4.334391     4.334391   -8949.8879   -1510.3594    12500.525   -37839.829    10252.477   -61355.496    3000.7603    81.429965 
   93700    1654.5508   -105.91307    1.4970723     -104.416    1984.4888     4.327457     4.327457     4.327457    1984.4888    16326.319    7091.1728   -17464.025   -1857.1559    10890.312   -27574.446    81.039788 
   93800    1098.3962   -105.42178   0.99385194   -104.42793    14786.181    4.3243064    4.3243064    4.3243064    14786.181    19499.585    23965.454    893.50487   -9041.4348   -49924.435    778.00631    80.862912 
   93900    1512.5416   -105.79482    1.3685795   -104.42624   -16401.263    4.3420242    4.3420242    4.3420242   -16401.263    25873.298   -23896.402   -51180.686    12784.566   -23633.867   -19420.611    81.860941 
   94000    1401.7251   -105.69031    1.2683104     -104.422    -10148.92     4.342669     4.342669     4.342669    -10148.92   -24949.747    10463.446   -15960.458   -12408.994   -21117.775   -7502.5791    81.897416 
   94100    1241.4301   -105.53999     1.123272   -104.41671   -10178.551    4.3379083    4.3379083    4.3379083   -10178.551   -5912.4573    24459.742   -49082.939    4843.2872   -44509.769   -2287.0744    81.628367 
   94200    1593.8717   -105.84538    1.4421686   -104.40321    14714.952    4.3272267    4.3272267    4.3272267    14714.952     26047.85   -11441.605    29538.612   -7971.9176   -5035.6026   -26194.894     81.02685 
   94300    1217.7678   -105.52759    1.1018619   -104.42573   -27243.125    4.3412876    4.3412876    4.3412876   -27243.125    -24708.89    4580.7528   -61601.238   -9602.7207   -52201.186    10752.505    81.819286 
   94400    1410.5047   -105.68234    1.2762543   -104.40609    15357.022    4.3433213    4.3433213    4.3433213    15357.022    31670.312   -11226.505    25627.259   -5783.8717    15486.802   -13376.997    81.934324 
   94500    1290.6917   -105.58285    1.1678449   -104.41501   -30590.506    4.3314174    4.3314174    4.3314174   -30590.506   -54915.408   -5200.0247   -31656.086   -18930.619   -61939.568    1267.7797    81.262488 
   94600    1792.1357   -106.03266    1.6215621    -104.4111     9435.707    4.3299084    4.3299084    4.3299084     9435.707   -5302.1533    33315.671    293.60299    12354.975    24326.366    1301.6412    81.177582 
   94700     819.9689   -105.16737   0.74192509   -104.42545     3210.623    4.3369304    4.3369304    4.3369304     3210.623    1262.9146     34905.39   -26536.436   -28191.094   -39467.402   -11860.032    81.573171 
   94800    1709.7261   -105.95694    1.5469961   -104.40995   -10522.384    4.3473677    4.3473677    4.3473677   -10522.384   -23865.696   -7322.4794   -378.97562   -19792.597    7687.3629    9658.6138    82.163536 
   94900    1256.3639   -105.53562    1.1367844   -104.39883   -15948.769    4.3475338    4.3475338    4.3475338   -15948.769     9059.108   -10719.706   -46185.711     3117.884    347.27683     223.2737    82.172955 
   95000    1221.1584   -105.50093    1.1049298     -104.396   -903.16541    4.3379261    4.3379261    4.3379261   -903.16541   -12699.955    61.081383     9929.377   -31828.827   -34199.978    3671.8977    81.629372 
   95100    1869.3645   -106.08363    1.6914403   -104.39219    13246.772    4.3298494    4.3298494    4.3298494    13246.772     24689.58    17580.402   -2529.6668     -10403.9    13754.444    14255.915    81.174265 
   95200      926.217   -105.26607   0.83806061   -104.42801   -24141.945    4.3381058    4.3381058    4.3381058   -24141.945   -65263.599    5429.7159   -12591.953   -20862.703    -56181.13   -18912.124    81.639513 
   95300    1948.6596   -106.17474    1.7631882   -104.41155    3693.2605    4.3447263    4.3447263    4.3447263    3693.2605   -29239.966   -6703.0493    47022.797   -21394.598    11073.037    2867.9469    82.013864 
   95400    1163.5438   -105.46835    1.0527989   -104.41555   -4867.9959    4.3376003    4.3376003    4.3376003   -4867.9959    -34587.85    11004.328    8979.5345   -6070.9224   -45968.718   -22318.244    81.610979 
   95500    1432.2364   -105.70444    1.2959176   -104.40852   -1999.9988    4.3381581    4.3381581    4.3381581   -1999.9988   -35065.435    4718.0013    24347.437   -19284.127      10060.8   -8836.8312    81.642467 
   95600    1334.5746   -105.60951    1.2075511   -104.40196   -2203.2462    4.3420881    4.3420881    4.3420881   -2203.2462    -50730.33    77421.891     -33301.3    4306.6462   -34236.567   -3439.3855    81.864553 
   95700    1477.9124   -105.73733    1.3372462   -104.40008   -27235.301    4.3440206    4.3440206    4.3440206   -27235.301   -40562.239   -19759.375   -21384.288   -15491.479   -2143.1009   -24235.145    81.973907 
   95800    1204.5045   -105.48915     1.089861   -104.39929    -2742.989    4.3378116    4.3378116    4.3378116    -2742.989   -20637.756    17911.124   -5502.3347    15503.705   -5751.1254    11262.032    81.622908 
   95900    1512.9058   -105.77409     1.368909   -104.40518   -1007.9388    4.3271886    4.3271886    4.3271886   -1007.9388     28886.09    6062.6115   -37972.518   -8023.2891   -24539.743    -18398.59    81.024709 
   96000     1199.674   -105.50993    1.0854903   -104.42444   -17274.194    4.3392378    4.3392378    4.3392378   -17274.194   -31046.581    -10721.55   -10054.453   -11331.976    16079.784   -3901.2565    81.703443 
   96100    1601.5841   -105.86008    1.4491469   -104.41093   -24484.594    4.3482067    4.3482067    4.3482067   -24484.594   -41604.284   -8939.9677    -22909.53    4349.7682   -43327.889   -1675.5705    82.211114 
   96200    831.90184   -105.16735   0.75272226   -104.41462    3588.8072    4.3328936    4.3328936    4.3328936    3588.8072    24287.485   -11909.406   -1611.6577   -13438.137    4776.0816   -11176.152    81.345603 
   96300    1916.5965   -106.14508    1.7341768    -104.4109   -5655.7328    4.3243302    4.3243302    4.3243302   -5655.7328   -38198.869    26144.873   -4913.2022    7769.1153   -12169.348    925.60584    80.864249 
   96400     1376.582   -105.67209    1.2455603   -104.42653   -677.34747    4.3352031    4.3352031    4.3352031   -677.34747    255.27476    4042.2447   -6329.5619   -4785.8019   -14206.824   -28999.527    81.475748 
   96500    1029.1002   -105.36532   0.93115151   -104.43417     15633.14    4.3374283    4.3374283    4.3374283     15633.14   -18461.187    34136.669    31223.938   -10964.732    9257.1178   -7349.3063    81.601269 
   96600    2137.0509   -106.34209    1.9336486   -104.40844   -24705.605    4.3506247    4.3506247    4.3506247   -24705.605   -33260.672   -3021.7237   -37834.421    16351.815   -9719.9657   -24651.125    82.348344 
   96700    838.99879   -105.18125   0.75914373   -104.42211   -5698.2924    4.3298999    4.3298999    4.3298999   -5698.2924   -20693.224    3003.2145    595.13256   -29677.044    9941.8936   -11265.578    81.177106 
   96800    1964.7284   -106.17797    1.7777275   -104.40025    25648.358    4.3204979    4.3204979    4.3204979    25648.358    12300.951     55654.63    8989.4921    9129.3479   -8227.0028   -1909.0587    80.649446 
   96900    1001.3323   -105.32863   0.90602655    -104.4226   -26369.613    4.3337699    4.3337699    4.3337699   -26369.613   -19980.029   -30630.757   -28498.052   -18160.171    4633.2967    5256.4196    81.394969 
   97000    1531.5591    -105.8058    1.3857868   -104.42001    22180.266    4.3352446    4.3352446    4.3352446    22180.266   -30752.607    79302.423    17990.983   -21028.383    368.06083   -4191.4073    81.478087 
   97100    1522.6543   -105.80036    1.3777296   -104.42263   -31383.077    4.3458658    4.3458658    4.3458658   -31383.077   -3111.1887    -46523.47   -44514.573    3888.3528   -10857.946    12015.071     82.07841 
   97200    907.59806   -105.24514    0.8212138   -104.42393     18402.89    4.3250702    4.3250702    4.3250702     18402.89   -14464.961    65993.549    3680.0824   -34676.765    11417.637   -18520.847    80.905766 
   97300    1625.8513   -105.89303    1.4711044   -104.42192    13086.599    4.3230464    4.3230464    4.3230464    13086.599    12597.988    23719.686    2942.1245    8444.1335   -14070.555    14336.106    80.792247 
   97400    1365.1838     -105.675     1.235247   -104.43975   -34163.352    4.3381573    4.3381573    4.3381573   -34163.352    648.38599   -55701.986   -47436.455   -26774.732    4269.5989   -16714.083    81.642424 
   97500     1345.658   -105.64307    1.2175796   -104.42549    13255.314    4.3397272    4.3397272    4.3397272    13255.314    6606.4637      38008.2   -4848.7206    940.67736    982.76176   -12741.263     81.73109 
   97600    1097.7623   -105.42423   0.99327838   -104.43096   -14370.273    4.3372379    4.3372379    4.3372379   -14370.273   -11321.886   -26144.736   -5644.1966     17252.74   -10214.734     3490.649    81.590525 
   97700    1968.0163   -106.19971    1.7807025   -104.41901   -365.04942    4.3290266    4.3290266    4.3290266   -365.04942    34651.309   -18217.543   -17528.914   -7838.6805    9820.3337   -23064.757    81.127999 
   97800    833.63758   -105.19952   0.75429281   -104.44522    17945.645    4.3233036    4.3233036    4.3233036    17945.645     17242.97    11247.555    25346.409    29661.276   -8700.0423    19705.842    80.806669 
   97900    1489.0051    -105.7908    1.3472831   -104.44352     12196.56    4.3350505    4.3350505    4.3350505     12196.56      6397.75    52771.945   -22580.014    10730.591    10268.572   -18706.405    81.467144 
   98000    1670.9308   -105.94759    1.5118933   -104.43569     -4143.39    4.3380652    4.3380652    4.3380652     -4143.39    10654.082   -1979.5256   -21104.727   -9665.5306   -20615.271    12929.653    81.637226 
   98100    1035.9066   -105.38099    0.9373101   -104.44368   -6632.5412    4.3282003    4.3282003    4.3282003   -6632.5412   -6342.8698    19968.983   -33523.737     18249.44   -3426.8955    575.29168    81.081551 
   98200    1761.2974   -106.02598    1.5936589   -104.43232    588.36739    4.3265435    4.3265435    4.3265435    588.36739   -20896.133    19232.579    3428.6555   -20228.038   -4327.1113   -15054.206    80.988478 
   98300    1255.5847   -105.57603    1.1360794   -104.43995   -8525.0148    4.3249713    4.3249713    4.3249713   -8525.0148   -12227.033    23290.885   -36638.897   -2233.0381   -19923.445    10625.535    80.900216 
   98400    1583.4337    -105.8665    1.4327241   -104.43378    9984.2247    4.3341049    4.3341049    4.3341049    9984.2247   -10122.165    33711.451    6363.3887     21176.97    6375.2789   -12537.984    81.413844 
   98500      1006.89   -105.34581   0.91105524   -104.43476   -31536.359    4.3415244    4.3415244    4.3415244   -31536.359   -71091.698    16921.213   -40438.593   -31145.555   -22030.857    7699.7601    81.832674 
   98600    1963.0325    -106.1933    1.7761931   -104.41711    12231.434    4.3174349    4.3174349    4.3174349    12231.434    24656.614    11362.312    675.37539    24750.373    4894.2641    14984.459    80.478043 
   98700    873.57628   -105.23116   0.79043017   -104.44073    11607.318    4.3286219    4.3286219    4.3286219    11607.318   -27783.314    64703.875   -2098.6069   -13361.372   -13310.418   -7342.5308    81.105248 
   98800    1513.4478   -105.80237    1.3693994   -104.43297   -26024.439    4.3378951    4.3378951    4.3378951   -26024.439   -6387.9468   -10330.994   -61354.376   -5916.9271    7534.1194    18954.332    81.627622 
   98900    1894.5404   -106.13199    1.7142199   -104.41777    2455.6095    4.3351963    4.3351963    4.3351963    2455.6095     5448.395    23447.223   -21528.789   -16661.884   -13920.342    5766.7404     81.47536 
   99000    676.09096   -105.04982   0.61174131   -104.43808    -952.0655    4.3300436    4.3300436    4.3300436    -952.0655   -44110.471    62732.344    -21478.07   -13923.403    10506.764    -2174.099    81.185187 
   99100     1995.076   -106.22636    1.8051867   -104.42118    584.93309    4.3199271    4.3199271    4.3199271    584.93309     25514.13   -664.35284   -23094.978   -8903.6072    3395.4238    10481.464    80.617489 
   99200    1163.1903   -105.49353    1.0524791   -104.44105   -9551.6026    4.3351257    4.3351257    4.3351257   -9551.6026   -20709.696    28568.515   -36513.626   -4052.9536   -7073.4713   -7941.0935    81.471384 
   99300    1535.8553   -105.81636    1.3896741   -104.42668   -21061.318    4.3380775    4.3380775    4.3380775   -21061.318   -27816.096    2949.9413   -38317.799   -23843.844    20023.072    1857.8017    81.637919 
   99400     1273.494   -105.57396    1.1522841   -104.42167    16794.783    4.3309173    4.3309173    4.3309173    16794.783     34929.83    11401.383    4053.1346     39141.77   -9144.4683   -6140.5186    81.234341 
   99500    1608.9981   -105.88364    1.4558553   -104.42779   -19212.521    4.3240391    4.3240391    4.3240391   -19212.521   -26200.866    7101.8556   -38538.553   -20531.549     4224.363   -12267.124    80.847918 
   99600    1204.6597   -105.52786    1.0900015   -104.43786    22304.598    4.3229986    4.3229986    4.3229986    22304.598    27411.573    18108.148    21394.072    25296.934    2526.6593    831.60464     80.78957 
   99700    1700.8254    -105.9778    1.5389425   -104.43886   -13962.378    4.3396439    4.3396439    4.3396439   -13962.378   -4928.9841   -9936.7463   -27021.403    34661.315    95.673731   -14483.221    81.726383 
   99800    1397.5918   -105.69736    1.2645704   -104.43279    11917.311    4.3340632    4.3340632    4.3340632    11917.311   -1216.2379    25596.733    11371.437   -16334.111    2088.1765   -7147.0476    81.411495 
   99900    781.36172   -105.14176   0.70699251   -104.43476    26241.077    4.3283327    4.3283327    4.3283327    26241.077    43840.466    7083.9682    27798.797    59060.431     4374.279   -8770.9981    81.088992 
  100000    2387.9539   -106.57215    2.1606709   -104.41148   -7507.0527    4.3354742    4.3354742    4.3354742   -7507.0527    15172.692   -12237.452   -25456.397   -22807.039    5851.6939   -13662.105     81.49103 
Loop time of 23.3609 on 1 procs for 100000 steps with 8 atoms

Pair  time (%) = 7.38107 (31.5958)
Kspce time (%) = 5.66479 (24.249)
Neigh time (%) = 0.153458 (0.656899)
Comm  time (%) = 1.19044 (5.09586)
Outpt time (%) = 0.0291462 (0.124765)
Other time (%) = 8.94203 (38.2777)

Nlocal:    8 ave 8 max 8 min
Histogram: 1 0 0 0 0 0 0 0 0 0
Nghost:    2062 ave 2062 max 2062 min
Histogram: 1 0 0 0 0 0 0 0 0 0
Neighs:    2168 ave 2168 max 2168 min
Histogram: 1 0 0 0 0 0 0 0 0 0

Total # of neighbors = 2168
Ave neighs/atom = 271
Neighbor list builds = 1752
Dangerous builds = 0
unfix 20
unfix 21
print "seeds:3408863"
seeds:3408863
