LAMMPS (10 Feb 2015)
# ---- initialize simulations
clear
units metal
dimension 3
boundary p p p
atom_style charge
atom_modify map array
# ---- create atoms
read_data /Users/eugeneragasa/pyflamestk_git/pypospack/tests/tests_integration/workflow/WorkflowLammpsThermalExpansion/param_5378/MgO_NaCl_unit.npt.T400/lammps.structure
  triclinic box = (0 0 0) to (4.2565 4.2565 4.2565) with tilt (0 0 0)
  1 by 1 by 1 MPI processor grid
  reading atoms ...
  8 atoms
# ---- define interatomic potential
include potential.mod
mass 1 24.305
mass 2 15.999

group Mg type 1
4 atoms in group Mg
group O type 2
4 atoms in group O

set group Mg charge 1.67557694923
  4 settings made for charge
set group O charge -1.67557694923
  4 settings made for charge

variable R_cut equal 10.0

pair_style buck/coul/long ${R_cut}
pair_style buck/coul/long 10
pair_coeff 1 1 0.0 0.5 0.0 ${R_cut}
pair_coeff 1 1 0.0 0.5 0.0 10
pair_coeff 1 2 1405.50211521 0.282257384366 0.0 ${R_cut}
pair_coeff 1 2 1405.50211521 0.282257384366 0.0 10
pair_coeff 2 2 19860.1058829 0.143671361936 6.84969713079 ${R_cut}
pair_coeff 2 2 19860.1058829 0.143671361936 6.84969713079 10

kspace_style pppm 1.0e-5

neighbor 1.0 bin
neigh_modify every 1 delay 0 check yes
# ---- define settings
compute eng all pe/atom
compute eatoms all reduce sum c_eng
# ---- run minimization
reset_timestep 0
fix 1 all box/relax iso 0.0 vmax 0.001
thermo 10
thermo_style custom step pe lx ly lz xy xz yz press pxx pyy pzz pxy pxz pyz c_eatoms
min_style cg
minimize 1e-25 1e-25 5000 10000
PPPM initialization ...
  G vector (1/distance) = 0.352969
  grid = 8 8 8
  stencil order = 5
  estimated absolute RMS force accuracy = 4.01483e-05
  estimated relative force accuracy = 2.78815e-06
  using double precision FFTs
  3d grid and FFT values/proc = 3375 512
Neighbor list info ...
  1 neighbor list requests
  update every 1 steps, delay 0 steps, check yes
  master list distance cutoff = 11
Memory usage per processor = 4.06549 Mbytes
Step PotEng Lx Ly Lz Xy Xz Yz Press Pxx Pyy Pzz Pxy Pxz Pyz eatoms 
       0   -115.02334       4.2565       4.2565       4.2565            0            0            0    14836.064    14836.064    14836.064    14836.064 5.7083842e-11 -5.8546636e-11 3.613515e-11   -115.02334 
       4   -115.02629     4.268627     4.268627     4.268627            0            0            0   -3.7663252   -3.7663252   -3.7663252   -3.7663252 5.5364648e-11 -5.1262271e-11 1.3911233e-11   -115.02629 
Loop time of 0.00714397 on 1 procs for 4 steps with 8 atoms

Minimization stats:
  Stopping criterion = linesearch alpha is zero
  Energy initial, next-to-last, final = 
        -115.023341276       -115.0262927       -115.0262927
  Force two-norm initial, final = 2.14234 0.00179672
  Force max component initial, final = 2.14234 0.000546963
  Final line search alpha, max atom move = 0.00390625 2.13657e-06
  Iterations, force evaluations = 4 21

Pair  time (%) = 0.00193048 (27.0224)
Kspce time (%) = 0.00113964 (15.9525)
Neigh time (%) = 0 (0)
Comm  time (%) = 0.000219584 (3.07369)
Outpt time (%) = 0 (0)
Other time (%) = 0.00385427 (53.9514)

Nlocal:    8 ave 8 max 8 min
Histogram: 1 0 0 0 0 0 0 0 0 0
Nghost:    2189 ave 2189 max 2189 min
Histogram: 1 0 0 0 0 0 0 0 0 0
Neighs:    2344 ave 2344 max 2344 min
Histogram: 1 0 0 0 0 0 0 0 0 0

Total # of neighbors = 2344
Ave neighs/atom = 293
Neighbor list builds = 0
Dangerous builds = 0
unfix 1
# ---- define output variables ----
variable natoms equal "count(all)"
variable tot_energy equal "c_eatoms"
variable length_x equal "lx"
variable length_y equal "ly"
variable length_z equal "lz"
variable tilt_xy equal "xy"
variable tilt_xz equal "xz"
variable tilt_yz equal "yz"
variable tot_press equal "press"
variable press_xx equal "pxx"
variable press_yy equal "pyy"
variable press_zz equal "pzz"
variable press_xy equal "pxy"
variable press_xz equal "pxz"
variable press_yz equal "pyz"

# ---- output ----
print "pypospack:output_section:begin"
pypospack:output_section:begin
print "tot_energy = ${tot_energy}"
tot_energy = -115.026292700229
print "num_atoms = ${natoms}"
num_atoms = 8
print "xx = ${length_x}"
xx = 4.26862697136346
print "yy = ${length_y}"
yy = 4.26862697136346
print "zz = ${length_z}"
zz = 4.26862697136346
print "xy = ${tilt_xy}"
xy = 0
print "xz = ${tilt_xz}"
xz = 0
print "yz = ${tilt_yz}"
yz = 0
print "tot_press = ${tot_press}"
tot_press = -3.7663252179344
print "pxx = ${press_xx}"
pxx = -3.76632521787482
print "pyy = ${press_yy}"
pyy = -3.76632521789834
print "pzz = ${press_zz}"
pzz = -3.76632521803003
print "pxy = ${press_xy}"
pxy = 5.53646482695888e-11
print "pxz = ${press_xz}"
pxz = -5.12622707696674e-11
print "pyz = ${press_yz}"
pyz = 1.39112332535826e-11
print "pypospack:output_section:done"
pypospack:output_section:done
print "pypospack:lammps_sim:done"
pypospack:lammps_sim:done
#------------------------------------------------------------------------------
# RUN THERMOSTAT
# running using an NPT Nose-Hoover style thermostat
#------------------------------------------------------------------------------
variable tempdamp equal 0.1
variable pressdamp equal 1.0
# set initial velocities
velocity all create 400 4799858 mom yes dist gaussian loop all
# fix for Nose-Hoover style thermostat
fix 20 all npt temp 400 400 0.1 aniso 0.0 0.0 1.0 drag 1.0 couple xyz
variable boxx equal lx
variable boxy equal ly
variable boxz equal lz
variable boxp equal press
variable boxt equal temp
# calculate averages every 10000 steps
reset_timestep 0
fix 21 all ave/time 10 10 100 v_boxx v_boxy v_boxz v_boxp v_boxt file lattice.out
thermo_style custom step temp pe ke etotal press lx ly lz press pxx pyy pzz pxy pxz pyz vol
thermo_modify flush yes
thermo 100
run 100000
PPPM initialization ...
  G vector (1/distance) = 0.352845
  grid = 8 8 8
  stencil order = 5
  estimated absolute RMS force accuracy = 4.03767e-05
  estimated relative force accuracy = 2.80401e-06
  using double precision FFTs
  3d grid and FFT values/proc = 3375 512
Memory usage per processor = 3.06549 Mbytes
Step Temp PotEng KinEng TotEng Press Lx Ly Lz Press Pxx Pyy Pzz Pxy Pxz Pyz Volume 
       0          400    -115.0263   0.36192841   -114.66437    4966.0102     4.268627     4.268627     4.268627    4966.0102      6833.71    5235.5841    2828.7364    2616.8724   -1098.8121    1048.7237    77.779404 
     100    176.71326    -114.7736   0.15989387   -114.61371   -8252.6395    4.2837083    4.2837083    4.2837083   -8252.6395   -11887.834   -4945.5846   -7924.4993   -3831.4442    92.706181    1752.4685    78.606718 
     200     185.9566   -114.68508   0.16825744   -114.51682    6536.8408    4.2703656    4.2703656    4.2703656    6536.8408    1202.7367    15782.508    2625.2777   -7982.2726      7146.39   -3750.3714    77.874483 
     300    329.58067   -114.72841   0.29821152    -114.4302   -1594.2047    4.2908441    4.2908441    4.2908441   -1594.2047    1474.3493     1994.564   -8251.5275    1701.2685    227.04811   -652.25421    79.000201 
     400    580.05141   -114.89107   0.52484271   -114.36622    9377.6185    4.2716108    4.2716108    4.2716108    9377.6185    9458.7362    11737.079    6937.0401    2827.0531   -1156.4649   -1125.5442    77.942623 
     500    295.23843   -114.59244   0.26713794   -114.32531   -12341.114    4.2898647    4.2898647    4.2898647   -12341.114   -9020.4968   -14638.509   -13364.337   -13319.564    3640.4897    3602.7906    78.946121 
     600    395.11145   -114.65964   0.35750515   -114.30213   -801.98653    4.2819173    4.2819173    4.2819173   -801.98653   -2259.2162   -1282.6113    1135.8679    -10311.33     3054.481   -1122.8096    78.508163 
     700    522.07034    -114.7662   0.47238021   -114.29382    13330.075    4.2792145    4.2792145    4.2792145    13330.075    15594.878    23695.235    700.11279    8012.4433    1302.8464    274.54985    78.359593 
     800    346.73097   -114.61194   0.31372947   -114.29821    385.12343    4.2877246    4.2877246    4.2877246    385.12343   -3160.6841    4447.4826   -131.42824    1101.3841    4226.3961    -3683.186    78.828028 
     900    228.98166   -114.50852   0.20718741   -114.30133   -3708.8578    4.2805928    4.2805928    4.2805928   -3708.8578   -20638.634    10161.488    -649.4279   -13105.228    2546.0897    1240.6014    78.435337 
    1000    584.85273   -114.82782   0.52918704   -114.29864   -4531.3774    4.2811376    4.2811376    4.2811376   -4531.3774   -6799.3484   -6535.3575    -259.4264    -5347.403   -2220.0227   -378.64949    78.465283 
    1100    486.52812   -114.73986   0.44022087   -114.29964   -2608.5866    4.2893328    4.2893328    4.2893328   -2608.5866   -4379.0942    8679.7146    -12126.38    4761.6766    -1347.438    59.179831    78.916756 
    1200    244.72903   -114.52335   0.22143597   -114.30192    3566.7203    4.2765266    4.2765266    4.2765266    3566.7203   -3950.6613    11931.431    2719.3916   -6346.2148    4862.4621    544.96906    78.212026 
    1300    249.47261   -114.52818   0.22572806   -114.30246    1039.5035     4.286962     4.286962     4.286962    1039.5035    2235.2406    8146.7097   -7263.4397   -5261.4273    4530.2934   -4683.4438    78.785973 
    1400    554.43503   -114.79827   0.50166447   -114.29661   -817.73018    4.2845281    4.2845281    4.2845281   -817.73018   -997.35662   -6825.7996    5369.9656    5142.2909    428.50058   -661.65785    78.651861 
    1500    386.49109    -114.6489   0.34970526   -114.29919    2978.0717    4.2771882    4.2771882    4.2771882    2978.0717   -130.77279    2140.7662    6924.2217   -3449.8419    2770.1234   -3087.4484    78.248332 
    1600    309.31059   -114.57963   0.27987072   -114.29976   -14697.857    4.2920153    4.2920153    4.2920153   -14697.857   -18017.262   -12613.872   -13462.438   -12884.301    1738.1543    4871.9168    79.064911 
    1700    387.43247    -114.6473   0.35055704   -114.29675    7504.0718    4.2779425    4.2779425    4.2779425    7504.0718    3038.1513    17628.723    1845.3417    5451.0306   -1677.9748   -2354.7558    78.289738 
    1800    464.03665   -114.71681   0.41987011   -114.29694   -200.29362    4.2831773    4.2831773    4.2831773   -200.29362    9259.8809   -3908.1479   -5952.6138    9119.8411   -1198.5098   -3006.1442    78.577491 
    1900     272.0802   -114.54666   0.24618388   -114.30047   -6374.6419    4.2877305    4.2877305    4.2877305   -6374.6419   -16538.084    2309.0521   -4894.8937   -9795.2888    11398.306   -2498.2029     78.82835 
    2000    365.35432   -114.63044   0.33058026   -114.29986    138.10443    4.2764765    4.2764765    4.2764765    138.10443   -12021.996   -6726.1664    19162.476   -11042.945    2294.1256    1042.1115    78.209277 
    2100    445.14811   -114.70246   0.40277936   -114.29968     2086.467    4.2867409    4.2867409    4.2867409     2086.467   -6842.9746     10998.09    2104.2855    8562.5577   -1953.3941    3264.0279    78.773786 
    2200    377.88744   -114.64257    0.3419205   -114.30064   -7.7863785    4.2838719    4.2838719    4.2838719   -7.7863785   -4054.2135   -1555.5057      5586.36   -780.64989   -1442.9733    23.504508    78.615728 
    2300    309.18713   -114.57985   0.27975902   -114.30009    5693.5088    4.2758878    4.2758878    4.2758878    5693.5088    5348.2676    5851.7304    5880.5283   -11347.388    4829.3343   -612.27234    78.176981 
    2400    432.77976   -114.68958   0.39158823   -114.29799   -8144.1566    4.2924577    4.2924577    4.2924577   -8144.1566    1828.3754   -21367.186   -4893.6595    2768.6104    2409.1019   -2639.3467    79.089364 
    2500    465.12167   -114.71802   0.42085186   -114.29717    6761.3316    4.2742982    4.2742982    4.2742982    6761.3316    1037.1538    717.14324    18529.698    6774.9842   -677.18903    373.46826    78.089827 
    2600    351.02761   -114.61782   0.31761716   -114.30021   -4047.7355     4.286033     4.286033     4.286033   -4047.7355   -2952.6194   -13931.353    4740.7656   -8550.2942    3408.2174   -1456.6451    78.734766 
    2700    362.30261   -114.62682   0.32781901   -114.29901   -4346.2169    4.2857826    4.2857826    4.2857826   -4346.2169   -8873.2323   -2589.3833   -1576.0351   -1100.0379    1484.6245    3184.4666    78.720965 
    2800    413.23497   -114.67179   0.37390369   -114.29789    3821.8471    4.2763048    4.2763048    4.2763048    3821.8471    9475.8554   -3375.7124    5365.3984    16169.245    430.40827   -2043.2771    78.199859 
    2900    475.23444   -114.72852   0.43000211   -114.29852   -10609.658    4.2895777    4.2895777    4.2895777   -10609.658   -7957.3106   -9221.1085   -14650.556   -4866.1601    78.483312    1548.3505    78.930277 
    3000    403.77215   -114.66489   0.36534152   -114.29955   -1616.4694    4.2792266    4.2792266    4.2792266   -1616.4694   -13283.357      4210.81    4223.1391   -10366.336    7440.9484   -146.26899    78.360258 
    3100    419.77703   -114.67985   0.37982308   -114.30002    890.41544    4.2789007    4.2789007    4.2789007    890.41544   -8802.1806    979.07032    10494.357    8220.5963    618.41273    1449.5599    78.342356 
    3200    353.30175    -114.6198   0.31967485   -114.30012    1806.6461    4.2898016    4.2898016    4.2898016    1806.6461    5392.9073    -507.6457    534.67679    11156.819   -5010.9124    713.57748    78.942635 
    3300    479.99248   -114.73322   0.43430728   -114.29891      7955.84     4.274499     4.274499     4.274499      7955.84    16581.854   -2329.0173     9614.683   -12153.131    1300.2056    -463.0386    78.100829 
    3400    402.47247   -114.66491   0.36416555   -114.30075   -3091.8069    4.2877956    4.2877956    4.2877956   -3091.8069    4602.4352   -4962.0727   -8915.7832   -1864.1036    4476.3845    -889.5375     78.83194 
    3500    518.06031   -114.76704   0.46875186   -114.29829   -8786.8084    4.2846385    4.2846385    4.2846385   -8786.8084   -6905.7152   -14660.907    -4793.803    11866.467    2987.1561   -502.00965    78.657936 
    3600    449.65948    -114.7042   0.40686134   -114.29734    5058.7518    4.2787748    4.2787748    4.2787748    5058.7518    9844.2138    6036.2649   -704.22324    675.90499   -2801.3311    -532.8205    78.335441 
    3700    392.10249   -114.65246   0.35478257   -114.29768   -1978.5946    4.2895175    4.2895175    4.2895175   -1978.5946    13993.714   -15963.445   -3966.0527   -6366.9007    151.85007    1588.4669    78.926954 
    3800     261.2253   -114.53571   0.23636214   -114.29935     4562.253    4.2794226    4.2794226    4.2794226     4562.253    4482.3626   -948.79782    10153.194    12820.734   -2369.5212    2409.7217    78.371026 
    3900    420.17832    -114.6791   0.38018617   -114.29892   -2154.6749    4.2827335    4.2827335    4.2827335   -2154.6749   -108.60248   -12688.737    6333.3148    10302.488   -5431.6441   -1009.7153     78.55307 
    4000    521.48861   -114.76986   0.47185385   -114.29801   -5918.0118    4.2868742    4.2868742    4.2868742   -5918.0118   -6101.3712   -6509.8505   -5142.8136   -8010.9305    3191.1759   -400.85498    78.781134 
    4100    362.13043   -114.62723   0.32766323   -114.29956    3819.2968    4.2774271    4.2774271    4.2774271    3819.2968    9291.5671    1796.7724    369.55098    2004.3697    8419.8641    -2904.641    78.261441 
    4200    343.65516   -114.61171   0.31094641   -114.30077   -6555.8959    4.2875823    4.2875823    4.2875823   -6555.8959    10741.347   -14742.897   -15666.137    13338.089   -1487.1624    1267.4578    78.820177 
    4300    412.75325   -114.67281   0.37346781   -114.29934    4899.7594    4.2800684    4.2800684    4.2800684    4899.7594      5588.42    17444.506   -8333.6474    2560.2065   -9881.9528    922.13289    78.406513 
    4400    524.09875   -114.77285   0.47421556   -114.29863   -2668.5454    4.2819116    4.2819116    4.2819116   -2668.5454   -2257.7567   -8283.0199    2535.1404   -5659.9942    329.76548    2834.7598    78.507853 
    4500    217.66146   -114.49841   0.19694467   -114.30147    2557.1065    4.2860562    4.2860562    4.2860562    2557.1065    5712.8463   -748.49816    2706.9714    6196.2057    6529.8127    1119.0434    78.736041 
    4600    378.17233   -114.64249   0.34217827   -114.30031   -29.547441       4.2781       4.2781       4.2781   -29.547441    3871.3847    -9488.496    5528.4689    7515.9312   -4154.9195   -1271.7083    78.298381 
    4700    367.87619   -114.63249   0.33286211   -114.29962    2866.9491    4.2858673    4.2858673    4.2858673    2866.9491    12705.297    7916.0408   -12020.491    1412.3712   -1537.3472   -4515.4244    78.725631 
    4800    497.20884   -114.74899     0.449885   -114.29911   -5650.9132    4.2821085    4.2821085    4.2821085   -5650.9132   -10424.596   -3005.7523   -3522.3913    2664.2316    3917.1203   -237.81343    78.518682 
    4900    259.65456    -114.5359    0.2349409   -114.30096   -2002.9264    4.2808132    4.2808132    4.2808132   -2002.9264   -2349.4527    2430.2947   -6089.6211    10753.447   -3248.5119    1018.0906    78.447452 
    5000    446.99782   -114.70402   0.40445303   -114.29957   -8747.5196    4.2861078    4.2861078    4.2861078   -8747.5196    919.84337   -13664.051   -13498.351   -1610.3575   -7295.6508    258.96065    78.738886 
    5100    419.53828   -114.67807   0.37960705   -114.29846    4202.9884    4.2816436    4.2816436    4.2816436    4202.9884    2313.8544     8623.596    1671.5149    3868.2615    2790.0524    1275.8791    78.493109 
    5200    329.66646   -114.59827   0.29828914   -114.29998    1019.7231     4.280316     4.280316     4.280316    1019.7231   -1886.7617   -5050.6928    9996.6239    9808.6708    4962.3509   -3405.3582     78.42012 
    5300    248.43714   -114.52578   0.22479115   -114.30099   -3290.2676    4.2866987    4.2866987    4.2866987   -3290.2676     -14110.7     12651.96   -8412.0636     3825.427   -11250.666   -1272.8439    78.771455 
    5400    485.99415   -114.73788   0.43973772   -114.29814    2429.4911    4.2782579    4.2782579    4.2782579    2429.4911    5767.2031    4825.5265   -3304.2565   -4119.5346   -7288.7783   -2041.7946    78.307055 
    5500    494.91425   -114.74667   0.44780881   -114.29886   -1812.3935     4.284243     4.284243     4.284243   -1812.3935   -139.72461    839.31459   -6136.7706    4260.2307    6028.3952    3847.4134    78.636157 
    5600    324.13014   -114.59452   0.29327977   -114.30124   -3247.2068     4.283433     4.283433     4.283433   -3247.2068    3776.1764   -4497.5085   -9020.2884    8732.4126   -2397.0458    556.71162    78.591567 
    5700    332.86639   -114.60321    0.3011845   -114.30203    2891.4417    4.2810552    4.2810552    4.2810552    2891.4417   -6500.6875    16230.598   -1055.5858    1167.6062   -10279.488   -1993.0067    78.460756 
    5800    491.14776   -114.74353   0.44440082   -114.29913    3998.8366      4.28386      4.28386      4.28386    3998.8366    7694.1295    4747.2255   -444.84519   -1133.9946   -645.67426   -5253.2565    78.615068 
    5900    385.80616   -114.64907   0.34908552   -114.29998   -265.30119    4.2820657    4.2820657    4.2820657   -265.30119   -3140.1889   -2023.5807     4367.866    5564.7204     714.0977    251.62112    78.516329 
    6000    285.55636   -114.55971   0.25837739   -114.30133   -5640.6637    4.2825848    4.2825848    4.2825848   -5640.6637    3570.1062   -8843.8257   -11648.271    6358.3034    -12203.39    319.91299    78.544886 
    6100    539.74667    -114.7889   0.48837413   -114.30053   -5451.1591    4.2829103    4.2829103    4.2829103   -5451.1591   -4554.2043    2449.3127   -14248.586   -2364.4745   -2686.4035     2306.445    78.562799 
    6200    495.50257    -114.7487   0.44834114   -114.30036    1182.2246     4.282551     4.282551     4.282551    1182.2246    5255.5139    1324.9449   -3033.7852    6405.7755    4198.2483   -1169.9804    78.543025 
    6300    308.12531    -114.5813   0.27879826    -114.3025   -142.47032    4.2815946    4.2815946    4.2815946   -142.47032   -11395.219    13031.186   -2063.3776    2968.2069   -8002.7719   -1674.7209    78.490415 
    6400    290.13684    -114.5652   0.26252191   -114.30268    1922.9074    4.2845168    4.2845168    4.2845168    1922.9074    9166.7303    -4.124741   -3393.8833   -1105.3225   -12617.891   -2671.2963    78.651237 
    6500    592.05936   -114.83384   0.53570775   -114.29813    2717.2833     4.282084     4.282084     4.282084    2717.2833    5277.4082   -1671.6552     4546.097   -1468.0081   -165.58678    759.47351    78.517335 
    6600    475.58928   -114.73001   0.43032317   -114.29969   -1019.6491    4.2836192    4.2836192    4.2836192   -1019.6491    294.76382    3164.4108   -6518.1218    8572.9616    2492.2386     2362.414    78.601813 
    6700    334.24569   -114.60338   0.30243252   -114.30095   -3944.3792    4.2829312    4.2829312    4.2829312   -3944.3792   -7405.1492    9425.2039   -13853.192    980.40843   -11424.506    2568.3058    78.563944 
    6800    419.32466   -114.67955   0.37941376   -114.30013    1404.9111    4.2850828    4.2850828    4.2850828    1404.9111    4687.5049    11154.183   -11626.955   -4531.0441   -1559.8867   -2905.4452    78.682408 
    6900    501.95692   -114.75196   0.45418117   -114.29778    5975.5098    4.2810137    4.2810137    4.2810137    5975.5098    8031.9107    3498.5106     6396.108   -3644.2326   -92.671394   -3447.0302    78.458475 
    7000    307.66662    -114.5793   0.27838322   -114.30092   -4401.7168    4.2847684    4.2847684    4.2847684   -4401.7168   -14481.712   -2444.8406    3721.4024     9819.298   -11702.363   -3093.8787    78.665095 
    7100    347.62503   -114.61521   0.31453843   -114.30067   -4815.6777    4.2821224    4.2821224    4.2821224   -4815.6777   -8759.1085   -5339.9135   -348.01107   -1416.5081   -8344.0852    3529.2589    78.519446 
    7200    525.54245   -114.77408   0.47552186   -114.29855   -1341.5465    4.2834453    4.2834453    4.2834453   -1341.5465   -4944.5698    4145.4924   -3225.5621   -3247.2937    4445.7678    3923.7784    78.592242 
    7300    466.58207   -114.72165   0.42217327   -114.29948   -780.57552    4.2832058    4.2832058    4.2832058   -780.57552    338.98706    10467.151   -13147.865    1169.9273   -1425.0323     -178.722    78.579057 
    7400    258.85775   -114.53598   0.23421993   -114.30176   -1690.0826    4.2831712    4.2831712    4.2831712   -1690.0826   -13120.115    15424.237   -7374.3707    105.44291   -12791.486   -3507.3113    78.577156 
    7500    431.60142   -114.69095   0.39052204   -114.30042    2222.7558    4.2798853    4.2798853    4.2798853    2222.7558    8611.1626   -5593.9202     3651.025   -3223.6704   -1665.1543    -3638.456    78.396451 
    7600    482.69452   -114.73526   0.43675214   -114.29851    194.96406     4.286905     4.286905     4.286905    194.96406   -11204.144    6106.8254    5682.2107   -1493.2214   -197.39783     2816.174    78.782833 
    7700    360.32505   -114.62651   0.32602968   -114.30048    4835.1906    4.2783537    4.2783537    4.2783537    4835.1906   -2353.0469     16806.56    52.058979    4124.3598   -10217.926    2468.8884    78.312315 
    7800    302.04768   -114.57478   0.27329908   -114.30148   -3444.7165    4.2858152    4.2858152    4.2858152   -3444.7165     -7361.96    13387.987   -16360.176   -4314.0887   -4535.1086   -1756.5478    78.722764 
    7900    487.19496   -114.73948   0.44082424   -114.29866   -3772.1622    4.2827407    4.2827407    4.2827407   -3772.1622   -3343.8441   -5134.4178   -2838.2249   -6459.1069    2489.4794   -3098.6138    78.553464 
    8000    421.24734   -114.68013   0.38115345   -114.29898    824.02439    4.2804543    4.2804543    4.2804543    824.02439    -4268.413    6403.1236    337.36252   -850.08026   -6868.8274    707.05363     78.42772 
    8100    347.00685   -114.61446   0.31397909   -114.30048    -4170.389    4.2853906    4.2853906    4.2853906    -4170.389   -12399.946    756.84194   -868.06278    5507.8199   -11787.585    1211.6516    78.699368 
    8200    276.36167   -114.55147   0.25005785   -114.30141   -458.49868     4.283203     4.283203     4.283203   -458.49868   -10933.741    4631.6974    4926.5481   -9317.0788    2546.3574    2554.3163    78.578905 
    8300    478.58856   -114.73265   0.43303699   -114.29961    543.42212    4.2773084    4.2773084    4.2773084    543.42212   -2836.9186     8300.441    -3833.256    -4060.353   -2899.8443   -1744.2637    78.254929 
    8400    412.16907   -114.67257   0.37293923   -114.29963   -8726.7577    4.2906284    4.2906284    4.2906284   -8726.7577   -11290.675   -344.85353   -14544.744   -34.690162   -8366.5964   -214.37436    78.988291 
    8500    396.57212   -114.65864   0.35882679   -114.29981    2898.9476    4.2756312    4.2756312    4.2756312    2898.9476   -1028.6499   -888.05531    10613.548   -843.62816   -1467.6729   -3646.9808    78.162911 
    8600    327.17382   -114.59747   0.29603375   -114.30143    2963.4619    4.2845787    4.2845787    4.2845787    2963.4619   -2463.1228    3008.4257    8345.0827   -5702.9804    105.65518    1696.8052    78.654644 
    8700    333.33314   -114.60169   0.30160683   -114.30008    4233.9879    4.2859704    4.2859704    4.2859704    4233.9879   -5938.2105    4857.4947     13782.68    1375.5671   -6835.2051     4215.261    78.731313 
    8800    460.92646   -114.71462   0.41705594   -114.29756    6541.5496    4.2757346    4.2757346    4.2757346    6541.5496   -2804.5258    16317.638    6111.5365    289.02985   -6294.2274     678.9844    78.168577 
    8900    442.45374   -114.69919   0.40034144   -114.29885   -8247.0414    4.2886689    4.2886689    4.2886689   -8247.0414   -4868.8412   -22588.471    2716.1883   -5764.7674    4069.1922   -5300.2363    78.880121 
    9000    389.15387   -114.65227    0.3521146   -114.30015   -2262.6577    4.2811036    4.2811036    4.2811036   -2262.6577   -1679.8769   -3778.6216   -1329.4746   -4363.6438   -6540.3545    535.22542    78.463417 
    9100    345.65506   -114.61352   0.31275596   -114.30077    4758.1585    4.2805211    4.2805211    4.2805211    4758.1585   -6266.6041    11785.122    8755.9571    2466.4189   -10982.252    4853.3204    78.431392 
    9200    327.21234   -114.59557    0.2960686    -114.2995    181.93601    4.2890937    4.2890937    4.2890937    181.93601   -11697.052     1390.002    10852.858     -1734.61    326.58978    5580.4289    78.903563 
    9300    392.44254   -114.65349   0.35509026    -114.2984   -1373.4059    4.2776022    4.2776022    4.2776022   -1373.4059   -3964.0658    -6492.968    6336.8159   -3930.9252    63.572543   -1665.7402    78.271056 
    9400    379.78589   -114.64315   0.34363825   -114.29951   -5779.8923    4.2847175    4.2847175    4.2847175   -5779.8923   -15122.915    2409.5856    -4626.348    469.90987   -12204.739    -2038.275    78.662287 
    9500    485.55725   -114.73843    0.4393424   -114.29909   -3496.0015    4.2836075    4.2836075    4.2836075   -3496.0015   -13560.902   -13108.999    16181.897   -2761.5727   -4685.1637   -1451.4344    78.601169 
    9600    450.57179   -114.70703   0.40768683   -114.29934    8102.6306    4.2766013    4.2766013    4.2766013    8102.6306   -4602.4388    3177.8489    25732.482   -5635.3089    3553.6186    1544.0545    78.216124 
    9700    269.60334   -114.54534   0.24394277    -114.3014   -808.44824    4.2885154    4.2885154    4.2885154   -808.44824   -18172.973   -1535.3052    17282.934    778.76955   -9421.7949    2401.9841    78.871651 
    9800    374.49783   -114.63918   0.33885351   -114.30032    1156.0904     4.277657     4.277657     4.277657    1156.0904      -2124.3    17396.338   -11803.767    2541.2919   -10572.549     2744.893    78.274064 
    9900    468.66079   -114.72336   0.42405413   -114.29931   -1626.8504    4.2836438    4.2836438    4.2836438   -1626.8504   -9298.1464   -7694.6322    12112.227   -4230.0137    3070.9403   -1980.2256    78.603166 
   10000    449.99131   -114.70722    0.4071616   -114.30006   -4576.2992    4.2834099    4.2834099    4.2834099   -4576.2992   -11366.908    -13965.11     11603.12   -5336.6694    1687.1127   -917.18365    78.590292 
   10100    342.94978   -114.61157   0.31030817   -114.30127    -988.8073    4.2802269    4.2802269    4.2802269    -988.8073   -681.62135   -76.568374   -2208.2322    823.88798   -15231.826    4068.0386     78.41522 
   10200    449.40645   -114.70677    0.4066324   -114.30014    -4568.136    4.2873205    4.2873205    4.2873205    -4568.136   -17927.178    398.01853    3824.7512   -3034.1766   -3460.6686    3415.2528    78.805741 
   10300    423.84317    -114.6824   0.38350221    -114.2989    13017.258    4.2768135    4.2768135    4.2768135    13017.258    6342.5105    13924.176    18785.087   -5226.0794    3178.0201   -2060.1895     78.22777 
   10400    358.51046   -114.62524    0.3243878   -114.30085   -2236.9221     4.286037     4.286037     4.286037   -2236.9221   -8365.3637    5557.4362    -3902.839    2813.8605   -6197.6098   -2304.5613    78.734984 
   10500    349.89522   -114.61682   0.31659255   -114.30023     1757.284    4.2811771    4.2811771    4.2811771     1757.284   -6917.1597    818.33131     11370.68     2042.788   -11227.437    1544.9696    78.467458 
   10600    557.70396   -114.80412   0.50462226    -114.2995   -864.84649     4.278867     4.278867     4.278867   -864.84649   -2803.4243    -6638.576    6847.4608   -6741.9852    2072.5594    2616.3665    78.340504 
   10700    450.72041   -114.70824    0.4078213   -114.30042   -10271.252    4.2889332    4.2889332    4.2889332   -10271.252   -24475.421   -4950.2851   -1388.0513   -5983.8112   -2445.3171   -962.86752    78.894703 
   10800    293.05393   -114.56629   0.26516135   -114.30113    924.26035    4.2768865    4.2768865    4.2768865    924.26035   -12683.774    18056.036   -2599.4814    3451.6782   -18133.493   -3159.9485    78.231774 
   10900    401.92733    -114.6635    0.3636723   -114.29983    -1326.111     4.284579     4.284579     4.284579    -1326.111   -6887.9426    7987.2335   -5077.6238     749.8574    1647.8896    1638.2006    78.654659 
   11000    445.32451   -114.70108   0.40293897   -114.29814   -2376.9186    4.2853035    4.2853035    4.2853035   -2376.9186   -13474.685    -1779.672    8123.6012   -4051.7137    2613.6948   -1615.6589    78.694569 
   11100    386.14244   -114.64819    0.3493898    -114.2988   -817.32902     4.276587     4.276587     4.276587   -817.32902   -1967.0958    7371.4397    -7856.331   -787.44832   -11826.433     4159.076    78.215342 
   11200    418.72808   -114.67834   0.37887397   -114.29946   -4848.7382    4.2886552    4.2886552    4.2886552   -4848.7382    -12467.33   -10381.821    8302.9364   -890.06286   -10226.269   -1708.0363    78.879363 
   11300    501.91068   -114.75264   0.45413933    -114.2985    4640.7947    4.2792657    4.2792657    4.2792657    4640.7947   -6963.7273    4308.6936    16577.418   -6183.7746    4237.0926     846.9594    78.362406 
   11400    377.42376   -114.64158   0.34150095   -114.30008     5346.088     4.279009     4.279009     4.279009     5346.088   -9607.0289    16340.226    9305.0673   -3390.4419   -596.06613   -2982.3819    78.348306 
   11500    317.21491   -114.58703   0.28702272       -114.3   -2309.6387    4.2902696    4.2902696    4.2902696   -2309.6387   -13071.337    9953.5996   -3811.1791    4646.5668   -11120.765    336.28779    78.968476 
   11600    505.94343   -114.75549   0.45778825    -114.2977    8025.5737    4.2734333    4.2734333    4.2734333    8025.5737     8649.338    3428.1597    11999.223   -822.76666    465.58227    1719.5975    78.042432 
   11700    448.04033   -114.70588    0.4053963   -114.30048    -5314.984    4.2882189    4.2882189    4.2882189    -5314.984   -6870.9956   -10981.176    1907.2199   -4276.7624   -318.57792    2761.8481    78.855289 
   11800    338.43459   -114.60771   0.30622273   -114.30149   -2691.5552    4.2825935    4.2825935    4.2825935   -2691.5552   -7702.2708    4757.7557   -5130.1507   -2542.6786   -10589.163    -1384.605    78.545365 
   11900    445.99966   -114.70292   0.40354987   -114.29937    3078.1951    4.2752128    4.2752128    4.2752128    3078.1951   -1695.2907     15365.53   -4435.6544    3506.7083   -8145.9414   -1915.5026    78.139965 
   12000    465.14244   -114.71909   0.42087065   -114.29822   -5640.3729    4.2912982    4.2912982    4.2912982   -5640.3729   -9289.3334   -5690.9002    -1940.885   -2669.9683    5639.9086   -523.19781    79.025288 
   12100    318.58286   -114.58712   0.28826047   -114.29886    5227.5117    4.2765235    4.2765235    4.2765235    5227.5117   -3846.7246      15128.4    4400.8591   -1131.3551    -9170.745     3404.955    78.211858 
   12200    353.46026   -114.61998   0.31981828   -114.30017   -1184.8914    4.2803163    4.2803163    4.2803163   -1184.8914   -5170.7933   -1415.7374    3031.8566     2276.454   -9821.4032    1421.5936    78.420136 
   12300    479.27853   -114.73201   0.43366129   -114.29835   -8282.1697    4.2900024    4.2900024    4.2900024   -8282.1697   -3776.7145   -19691.553   -1378.2418     -655.545    1832.3894   -1663.4116    78.953719 
   12400    458.93168   -114.71287   0.41525103   -114.29762    3402.9861    4.2732054    4.2732054    4.2732054    3402.9861   -1944.7744    13479.736   -1326.0033   -5287.1369   -626.87337   -3526.9515    78.029944 
   12500    272.32574   -114.54763   0.24640605   -114.30122   -2755.5921     4.285878     4.285878     4.285878   -2755.5921   -18349.087    9609.5707    472.73986    1096.5353    -5054.423    3834.3373    78.726221 
   12600    323.53016     -114.593   0.29273689   -114.30027   -1149.0435     4.284929     4.284929     4.284929   -1149.0435    8067.3638   -2287.9533    -9226.541    6440.1864   -5169.9865    1434.1524    78.673939 
   12700    469.05529   -114.72269   0.42441108   -114.29828    6770.4677    4.2742477    4.2742477    4.2742477    6770.4677    13454.125   -2643.7475    9501.0253    1208.1889    2278.0174    1563.5272    78.087058 
   12800    350.26029    -114.6167   0.31692287   -114.29977   -5929.4341    4.2906663    4.2906663    4.2906663   -5929.4341    3465.9174   -3515.0282   -17739.192   -3557.3138    -5595.893   -3893.6855    78.990385 
   12900    391.64873   -114.65332     0.354372   -114.29895   -5945.5818    4.2784624    4.2784624    4.2784624   -5945.5818    1278.8552   -4783.9634   -14331.637    1936.2673   -4977.6057     2008.674    78.318284 
   13000    371.41127   -114.63544   0.33606073   -114.29938    3406.1508     4.280569     4.280569     4.280569    3406.1508    5467.8147    6355.9089   -1605.2711    6166.2046     2376.183     819.7618    78.434028 
   13100    428.40594   -114.68609    0.3876307   -114.29846   -1576.3787    4.2878284    4.2878284    4.2878284   -1576.3787    4394.1623   -4063.0959   -5060.2025    1888.3676   -3361.3674    2930.6706    78.833752 
   13200    232.30575   -114.51039   0.21019513    -114.3002    6853.5109    4.2763505    4.2763505    4.2763505    6853.5109    9454.3617    13876.147   -2769.9763    2407.5578   -9317.8903    3796.1272    78.202364 
   13300    369.10235   -114.63425   0.33397156   -114.30027   -6555.6823     4.284927     4.284927     4.284927   -6555.6823   -700.62885   -20288.349    1321.9304    5268.2327   -1996.6253    455.14702    78.673827 
   13400     488.5044    -114.7404   0.44200904   -114.29839   -4177.0018     4.285425     4.285425     4.285425   -4177.0018    3647.6815   -5522.9428   -10655.744    205.00988    3011.6617   -3664.5078    78.701261 
   13500    468.30615   -114.72199   0.42373324   -114.29826     2982.879    4.2743771    4.2743771    4.2743771     2982.879   -3075.9711    13996.827   -1972.2186   -1779.6175   -391.64034   -2432.4377     78.09415 
   13600    244.95197   -114.52278   0.22163769   -114.30114   -3374.3935    4.2901843    4.2901843    4.2901843   -3374.3935    8869.6555   -328.22731   -18664.609    6329.2239   -5276.7129    4288.1455    78.963763 
   13700    377.90207   -114.64028   0.34193373   -114.29835    6531.2029    4.2799274    4.2799274    4.2799274    6531.2029    15285.473   -2167.2592     6475.395    8198.0733   -1955.4121     1328.628    78.398761 
   13800    470.20842    -114.7229   0.42545446   -114.29745    7882.0359    4.2790274    4.2790274    4.2790274    7882.0359    11694.987    3296.7225    8654.3976   -1184.5631   -6622.2886    2063.7758    78.349315 
   13900    349.32389   -114.61565    0.3160756   -114.29958    -8220.791    4.2895959    4.2895959    4.2895959    -8220.791   -11983.492   -910.81343   -11768.067    -1443.065   -4059.6387   -2048.9382    78.931279 
   14000    388.33679   -114.65044   0.35137529   -114.29906   -3349.3654    4.2761075    4.2761075    4.2761075   -3349.3654   -566.17237   -9766.0474    284.12346    9608.8645    3087.0436    1437.0787    78.189035 
   14100    477.90304   -114.73078   0.43241671   -114.29836   -1055.2114    4.2853216    4.2853216    4.2853216   -1055.2114     4677.995    2665.0713     -10508.7     4445.475    1672.6182   -1620.5347    78.695563 
   14200    471.40008   -114.72484    0.4265327   -114.29831   -5508.2949     4.284614     4.284614     4.284614   -5508.2949    2866.0843   -3408.8091    -15982.16   -792.52282   -7467.8937    1577.4944    78.656586 
   14300    259.63357   -114.53536   0.23492191   -114.30044    3535.3235    4.2753992    4.2753992    4.2753992    3535.3235    1232.2607    10250.938   -877.22824    6253.8955   -6187.8245    4681.0229    78.150188 
   14400    475.47507   -114.72994   0.43021984   -114.29972   -7192.5998    4.2886201    4.2886201    4.2886201   -7192.5998   -4515.9175   -23035.683    5973.8013    5073.7594    1804.0391    614.94582    78.877425 
   14500    486.66144   -114.73909    0.4403415   -114.29875    4969.3491    4.2788402    4.2788402    4.2788402    4969.3491   -735.34117      16106.1   -462.71119   -2468.7718   -3357.9545   -1459.4879    78.339035 
   14600    424.82959   -114.68454   0.38439474   -114.30014   -738.99688    4.2787083    4.2787083    4.2787083   -738.99688    4114.5877    2749.3711   -9080.9494    522.48356   -1448.2972   -160.59808    78.331786 
   14700    321.60835   -114.59178     0.290998   -114.30079   -2596.3143    4.2887629    4.2887629    4.2887629   -2596.3143    4222.6328    3874.2452   -15885.821    9560.7163    490.72334    2809.3822    78.885308 
   14800    542.05432   -114.78848   0.49046214   -114.29802    6616.6791    4.2736036    4.2736036    4.2736036    6616.6791    7467.0754     2327.547    10055.415   -1113.1858   -1642.7316    292.33967    78.051762 
   14900    406.07901    -114.6671   0.36742882   -114.29967    -969.2623    4.2864424    4.2864424    4.2864424    -969.2623      -7261.9    8626.6816   -4272.5685    -3678.706   -5661.8235   -500.51581    78.757329 
   15000    380.12418   -114.64349   0.34394435   -114.29954   -3568.1532    4.2830679    4.2830679    4.2830679   -3568.1532   -9641.7436    4748.9937   -5811.7098    3934.5546    -1849.954   -2441.6736    78.571468 
   15100    382.64525   -114.64526   0.34622547   -114.29903    5384.3271    4.2761048    4.2761048    4.2761048    5384.3271    3172.4025    4605.7449     8374.834    10592.197    5307.6849    2130.0181    78.188885 
   15200    472.64252   -114.72724   0.42765688   -114.29959   -7316.2153    4.2871434    4.2871434    4.2871434   -7316.2153   -1499.3933   -5275.6774   -15173.575   -5609.9769   -4396.9881    170.40975    78.795977 
   15300    382.85029   -114.64748   0.34641099   -114.30107   -4495.1924    4.2795115    4.2795115    4.2795115   -4495.1924   -2678.2012    3283.1315   -14090.507    382.17292   -3198.8384    3763.7881     78.37591 
   15400    411.09861   -114.67251   0.37197066   -114.30054    243.74084    4.2777096    4.2777096    4.2777096    243.74084   -3133.1065   -2647.7902    6512.1192    5560.9879    457.30639    2244.3337    78.276951 
   15500    421.24062   -114.68075   0.38114736    -114.2996   -5705.8207    4.2900821    4.2900821    4.2900821   -5705.8207   -8083.3252   -5962.4734   -3071.6636   -1380.1736    311.94762   -1931.9682    78.958122 
   15600    340.54027   -114.60709   0.30812799   -114.29896      10877.9    4.2724169    4.2724169    4.2724169      10877.9    9727.3645    15583.305    7323.0312   -3902.8331   -1219.8381   -3533.2895    77.986758 
   15700    367.62966   -114.63242   0.33263904   -114.29978   -2146.5748    4.2871088    4.2871088    4.2871088   -2146.5748    3593.9712    1838.4458   -11872.141    5115.6242    62.162514    2414.0525    78.794068 
   15800     441.6902   -114.69674   0.39965058   -114.29709    4075.6062    4.2815574    4.2815574    4.2815574    4075.6062     15197.86    534.19882   -3505.2406     2100.824    1395.8329    4212.6622    78.488369 
   15900    462.11191   -114.71578   0.41812857   -114.29766   -1946.9628    4.2777828    4.2777828    4.2777828   -1946.9628   -6412.8466   -1963.0903    2535.0484   -10452.189   -5802.3631    1199.8455    78.280969 
   16000    326.47705   -114.59512    0.2954033   -114.29971   -4407.5959    4.2874439    4.2874439    4.2874439   -4407.5959   -9812.5134    8816.2909   -12226.565   -594.00702   -1625.0951   -587.59945    78.812546 
   16100    389.91668   -114.65173    0.3528048   -114.29892     4735.798    4.2793189    4.2793189    4.2793189     4735.798    16869.094   -6750.0434    4088.3437     5492.802    5584.7073    2838.7427    78.365328 
   16200    317.53308   -114.58615    0.2873106   -114.29884    7557.3013    4.2803423    4.2803423    4.2803423    7557.3013    19578.997    21.924433     3070.982   -137.63604    3087.0591   -410.89615    78.421563 
   16300    363.96539   -114.62933   0.32932354       -114.3   -10571.128    4.2869866    4.2869866    4.2869866   -10571.128     -6942.29   -14879.853    -9891.241   -8154.8868   -3963.0671   -1617.4929    78.787327 
   16400    385.45864   -114.64846   0.34877108   -114.29969   -2774.2514    4.2759083    4.2759083    4.2759083   -2774.2514   -191.68977    3061.5561    -11192.62    4254.1609   -3635.0691    5432.9517    78.178107 
   16500    517.85607   -114.76731   0.46856706   -114.29875   -8374.1945    4.2848105    4.2848105    4.2848105   -8374.1945    1569.9353   -17769.934   -8922.5847   -1036.6008    1659.3077    4164.4902    78.667413 
   16600    321.51969   -114.59066   0.29091777   -114.29974    1731.8639    4.2839157    4.2839157    4.2839157    1731.8639    12827.742   -5926.7302   -1705.4198   -9265.4522   -553.87021    584.46063    78.618139 
   16700    324.14053   -114.59306   0.29328916   -114.29977    6731.1356     4.274465     4.274465     4.274465    6731.1356    14002.533    1035.8765    5154.9977   -439.80292    2092.9136   -1586.6566     78.09897 
   16800     349.7141   -114.61615   0.31642867   -114.29972   -1030.3923    4.2887028    4.2887028    4.2887028   -1030.3923    1953.3103    1747.6405   -6792.1276     3428.879    4330.2483    5285.0078    78.881988 
   16900    539.50976   -114.78557   0.48815977   -114.29741     267.2349    4.2777277    4.2777277    4.2777277     267.2349   -13.938612   -5409.8527     6225.496   -8570.3044   -2507.4984    -37.60039    78.277941 
   17000    385.39367   -114.64799   0.34871229   -114.29928    428.23174    4.2807634    4.2807634    4.2807634    428.23174    2376.3486     1611.833   -2703.4864   -8481.7206   -3644.1359    1107.9666    78.444712 
   17100    346.91966   -114.61358    0.3139002   -114.29968   -2191.7971    4.2863018    4.2863018    4.2863018   -2191.7971    8829.2996    8447.2712   -23851.962    4225.8756   -1430.5859    1615.3925     78.74958 
   17200    406.86023   -114.66727   0.36813568   -114.29913    1413.1299    4.2780343    4.2780343    4.2780343    1413.1299    12416.671   -8437.0432    259.76199    193.77278    6124.9439    3286.9635    78.294774 
   17300    411.24833   -114.67202   0.37210614   -114.29992     1689.047     4.281984     4.281984     4.281984     1689.047   -4897.9266    2696.3799    7268.6877   -10267.373    365.74546   -2495.0631    78.511832 
   17400    460.26241   -114.71533    0.4164551   -114.29888   -11303.664    4.2860015    4.2860015    4.2860015   -11303.664   -14324.468   -10283.922   -9302.6022   -2204.0425   -3050.2945     4193.573    78.733027 
   17500    335.85173   -114.60298    0.3038857   -114.29909    5871.3822    4.2739108    4.2739108    4.2739108    5871.3822    12915.113    10795.173   -6096.1393    2917.2779   -1864.2449    8432.2395    78.068593 
   17600    463.66441   -114.71874    0.4195333   -114.29921   -8752.0703    4.2879707    4.2879707    4.2879707   -8752.0703     4918.911   -16387.356   -14787.766   -4410.1079    403.06547   -3076.9536    78.841598 
   17700    383.67906   -114.64663   0.34716088   -114.29947    8408.0432    4.2772974    4.2772974    4.2772974    8408.0432    13307.678    12308.805   -392.35337   -5362.3595    1361.1019    245.72831    78.254324 
   17800    465.13453   -114.71986    0.4208635     -114.299   -6044.8818    4.2826955    4.2826955    4.2826955   -6044.8818   -6805.2336   -4039.7356   -7289.6761    137.86028     438.2424    2279.4596    78.550976 
   17900     356.7463   -114.62256   0.32279155   -114.29977    2743.2888    4.2828917    4.2828917    4.2828917    2743.2888   -3089.8202    12948.034   -1628.3469     -4199.95    2642.4733       3399.6    78.561773 
   18000    448.74143   -114.70453   0.40603068    -114.2985    1318.5279    4.2807669    4.2807669    4.2807669    1318.5279    2938.0917   -3656.4597    4673.9518   -9506.8796   -4485.5401   -3904.1328    78.444903 
   18100    376.29799   -114.63936   0.34048233   -114.29888    8514.5062    4.2792977    4.2792977    4.2792977    8514.5062    10469.208    22151.053   -7076.7427    4370.8281   -2018.4879    4153.1649    78.364164 
   18200    393.50572   -114.65539   0.35605225   -114.29934   -6697.6807     4.286843     4.286843     4.286843   -6697.6807   -2231.9503    5782.9864   -23644.078    1436.1377   -280.03679    4945.0903    78.779414 
   18300    394.37616   -114.65563   0.35683984   -114.29879     3221.944    4.2747686    4.2747686    4.2747686     3221.944    3233.0864    4523.0137    1909.7319   -8126.4752    2807.0287   -6642.0053    78.115609 
   18400    473.14779   -114.72698   0.42811406   -114.29886   -9697.8961    4.2866701    4.2866701    4.2866701   -9697.8961   -15884.476   -8735.4166    -4473.796   -9336.5753   -464.18878   -2973.0045    78.769879 
   18500    405.80855    -114.6669   0.36718411   -114.29971    -294.4588    4.2791842    4.2791842    4.2791842    -294.4588   -890.92679    6415.4041   -6407.8537    4812.4516   -6452.9675    5129.9119    78.357928 
   18600    275.98075   -114.55078   0.24971319   -114.30107    1756.1205    4.2801465    4.2801465    4.2801465    1756.1205    15118.597    767.29483    -10617.53    -309.2378    557.62947    5195.6942    78.410802 
   18700    354.52748   -114.62073   0.32078391   -114.29995   -2579.7259    4.2835935    4.2835935    4.2835935   -2579.7259    5193.8372   -9538.7047   -3394.3102   -8156.9095   -1520.9581   -6417.8376    78.600398 
   18800    465.71971   -114.71979   0.42139298    -114.2984    -1715.754    4.2796439    4.2796439    4.2796439    -1715.754    3134.9026    2508.2985   -10790.463   -1440.3378    581.60217    3271.0283    78.383187 
   18900    471.68894   -114.72581   0.42679406   -114.29902   -6910.9334     4.282684     4.282684     4.282684   -6910.9334   -5356.1157   -961.35069   -14415.334   -1304.4405   -8.9948205    3863.1594    78.550343 
   19000    305.73447   -114.57698   0.27663497   -114.30035     23.61048     4.282563     4.282563     4.282563     23.61048    5423.5594    1393.2696   -6745.9976   -6414.0241    3205.4868   -4376.0105    78.543688 
   19100    361.67693   -114.62717   0.32725288   -114.29992    2113.2651    4.2804467    4.2804467    4.2804467    2113.2651    13402.656   -7044.9525   -17.908121   -7192.2272   -3602.7721    -1683.131    78.427301 
   19200      399.475   -114.66077   0.36145337   -114.29932    9025.2144    4.2797319    4.2797319    4.2797319    9025.2144    13613.256    16750.711   -3288.3243    7319.3106   -4129.7203    4628.5625    78.388018 
   19300    375.74395    -114.6408   0.33998102   -114.30082   -7633.0047    4.2852954    4.2852954    4.2852954   -7633.0047    1038.6196   -9542.2468   -14395.387   -5197.2034    235.45496   -1265.4136     78.69412 
   19400    329.90665   -114.59956   0.29850647   -114.30106    720.09282    4.2753404    4.2753404    4.2753404    720.09282     196.1684    85.519164    1878.5909   -8960.0939    3624.9751   -12501.234    78.146962 
   19500    528.88739   -114.77767   0.47854842   -114.29912    -7414.632    4.2865828    4.2865828    4.2865828    -7414.632    -5958.336   -9397.9874   -6887.5725   -3803.3354   -138.92225    3519.6743    78.765066 
   19600    359.20725   -114.62442   0.32501827    -114.2994    9563.6001    4.2776956    4.2776956    4.2776956    9563.6001    25426.253     4471.676   -1207.1289    7445.3929   -4234.0491    3018.8891    78.276184 
   19700     288.9027   -114.56295   0.26140523   -114.30154   -4572.4903    4.2815705    4.2815705    4.2815705   -4572.4903     8306.724   -14885.589   -7138.6057   -8540.3544   -1049.3312   -7029.5394    78.489088 
   19800     390.8356   -114.65313   0.35363626    -114.2995   -2747.5293    4.2833076    4.2833076    4.2833076   -2747.5293   -931.83904   -14551.033    7240.2843   -9324.2851    423.49191   -3157.7281    78.584661 
   19900    582.60184   -114.82431   0.52715039   -114.29716   -1253.1006    4.2792083    4.2792083    4.2792083   -1253.1006    4980.1734    299.78015   -9039.2553    2206.7938   -352.85994    3484.5627     78.35925 
   20000     408.1219   -114.66995   0.36927727   -114.30067   -3694.4119    4.2807943    4.2807943    4.2807943   -3694.4119    4701.7549   -6740.5697   -9044.4209   -453.47662    699.17954   -817.99915    78.446413 
   20100    220.55509   -114.50337   0.19956288    -114.3038    247.32596    4.2840296    4.2840296    4.2840296    247.32596    8897.8155   -2012.8975   -6142.9401   -7744.6028     673.8251    -7331.357     78.62441 
   20200    490.27619   -114.74374    0.4436122   -114.30013    5938.7188    4.2777824    4.2777824    4.2777824    5938.7188    11388.721    866.72507    5560.7103   -5417.9194   -4368.8873    5393.0839    78.280945 
   20300    488.18702   -114.74114   0.44172187   -114.29941    3443.0893    4.2829428    4.2829428    4.2829428    3443.0893    1032.1728    9973.8364   -676.74116    3318.1506   -1722.5898    1559.2935    78.564583 
   20400    372.26596   -114.63854   0.33683407   -114.30171   -8200.1147    4.2827506    4.2827506    4.2827506   -8200.1147   -9113.0344   -4559.7671   -10927.543   -8349.7755    3204.5384   -9030.3552     78.55401 
   20500    356.82999   -114.62465   0.32286727   -114.30178    3623.9905    4.2778455    4.2778455    4.2778455    3623.9905    2178.8817    6933.4675    1759.6222   -5863.7909     3874.328   -8003.9691    78.284411 
   20600    573.66754   -114.81745   0.51906645   -114.29838   -898.14004    4.2853577    4.2853577    4.2853577   -898.14004    8305.4561   -790.13655    -10209.74     1143.581   -5485.2794     5854.679    78.697556 
   20700    361.96166   -114.62776   0.32751051   -114.30025    5857.6718    4.2778805    4.2778805    4.2778805    5857.6718    18764.442    440.81696   -1632.2432   -67.092873   -4469.1358   -4065.8936    78.286335 
   20800    262.26587   -114.54011   0.23730367   -114.30281   -6474.1907    4.2824739    4.2824739    4.2824739   -6474.1907   -3716.6763   -15036.334   -669.56223   -11678.098    1524.9922   -9118.8279    78.538784 
   20900     511.2144   -114.76249   0.46255753   -114.29994   -3622.2625    4.2825275    4.2825275    4.2825275   -3622.2625   -11061.451    -6585.832    6780.4953   -4623.9632    4092.4409   -889.42055    78.541733 
   21000    564.85744   -114.80908   0.51109488   -114.29798   -3343.4958    4.2823201    4.2823201    4.2823201   -3343.4958   -3930.8963    5146.5096   -11246.101    3929.5177   -1522.5946    1471.1588    78.530322 
   21100    332.24755   -114.60147   0.30062457   -114.30085   -3258.4178    4.2799851    4.2799851    4.2799851   -3258.4178     2872.257   -8804.1851   -3843.3254   -6422.3594    1184.4452   -5748.3929    78.401936 
   21200    262.80209   -114.53954   0.23778886   -114.30175   -1816.1434    4.2853173    4.2853173    4.2853173   -1816.1434   -1279.6991     106.2835   -4275.0146   -9445.6406    4406.3111   -2691.9263    78.695327 
   21300    539.37042   -114.78529    0.4880337   -114.29726    9842.3622    4.2764611    4.2764611    4.2764611    9842.3622    10803.417    6986.0781    11737.592    1842.1223    -5072.133     1417.375     78.20843 
   21400    405.24184   -114.66728   0.36667133    -114.3006    212.93182    4.2859212    4.2859212    4.2859212    212.93182   -7686.7679    11026.094   -2700.5305   -3065.8907   -4798.4214   -4469.0443    78.728604 
   21500    266.60085   -114.54318   0.24122605   -114.30196   -255.74301    4.2792956    4.2792956    4.2792956   -255.74301   -10772.832    7036.6919    2968.9107   -10561.501    4144.2186   -8213.4067    78.364049 
   21600    466.90755   -114.72268   0.42246776   -114.30021   -1709.9729    4.2810143    4.2810143    4.2810143   -1709.9729   -9340.3541     10711.38   -6500.9442   -3525.0731    7892.3106   -183.64327    78.458508 
   21700     579.0096   -114.82167   0.52390006   -114.29777   -1863.7679    4.2837815    4.2837815    4.2837815   -1863.7679    190.78987    6552.7394   -12334.833    6545.9975   -1124.9401     2240.954    78.610747 
   21800     278.1937     -114.553   0.25171551   -114.30129   -664.80208    4.2805685    4.2805685    4.2805685   -664.80208    7238.8921     2178.516   -11411.814   -9745.6252   -3812.4849   -9384.5605    78.433999 
   21900    232.41336   -114.51262   0.21029249   -114.30232   -1429.3342    4.2825034    4.2825034    4.2825034   -1429.3342   -3305.2441    1224.7193   -2207.4778   -10731.697    3475.1532   -6677.2623    78.540405 
   22000    522.68802    -114.7707    0.4729391   -114.29776   -1697.0251    4.2838379    4.2838379    4.2838379   -1697.0251   -11576.733    5261.9968    1223.6613   -183.70205   -1870.6804   -841.38714    78.613853 
   22100    457.79656   -114.71364   0.41422395   -114.29942    2864.8468    4.2773658    4.2773658    4.2773658    2864.8468    2502.5522    717.53332     5374.455    2715.6408   -2165.8977   -6046.1921    78.258077 
   22200    267.45347   -114.54505   0.24199752   -114.30305   -5473.2911    4.2831707    4.2831707    4.2831707   -5473.2911   -9479.4429    2296.7753   -9237.2059   -11155.721    5543.1952    -4388.245     78.57713 
   22300     392.5124   -114.65678   0.35515347   -114.30162   -1514.0188    4.2830728    4.2830728    4.2830728   -1514.0188   -10892.862    18537.922   -12187.116   -5454.4345    7920.4602    1146.5452    78.571738 
   22400    578.31558   -114.82122   0.52327209   -114.29795    8486.0809    4.2767604    4.2767604    4.2767604    8486.0809    8120.1012    13464.653     3873.489    3475.5381   -2176.6956    435.40677    78.224852 
   22500    308.59042   -114.58068    0.2792191   -114.30146   -315.97818     4.285032     4.285032     4.285032   -315.97818   -7720.4283    13736.969   -6964.4748   -6421.0511   -3663.7477   -6342.4286    78.679609 
   22600    252.71464   -114.53198   0.22866151   -114.30332   -4377.3014    4.2776956    4.2776956    4.2776956   -4377.3014     -15832.9   -6410.6212    9111.6174   -10798.351    6795.4793   -3630.3401    78.276182 
   22700    451.87395    -114.7109   0.40886504   -114.30203    1622.8863    4.2810124    4.2810124    4.2810124    1622.8863   -9155.7084    15540.571    -1516.204   -469.55912    2617.5841    759.09798    78.458401 
   22800     583.8763   -114.82774   0.52830354   -114.29943   -6044.6793     4.283975     4.283975     4.283975   -6044.6793    -8319.889   -7411.0166   -2403.1324     2567.229    -1536.624   -1549.0503    78.621405 
   22900    222.70283   -114.50441    0.2015062   -114.30291   -2944.7589    4.2765156    4.2765156    4.2765156   -2944.7589   -1782.7142    1722.5586   -8774.1212   -11152.755    4027.4653   -8056.6666    78.211422 
   23000    359.91413   -114.62917   0.32565787   -114.30351   -8996.3687    4.2843867    4.2843867    4.2843867   -8996.3687   -7457.0673   -8512.6816   -11019.357   -5521.2531    8125.7869   -1799.7854    78.644072 
   23100    486.96679    -114.7404   0.44061778   -114.29978    10662.697    4.2802578    4.2802578    4.2802578    10662.697    1180.5044    19457.636    11349.951    3079.0214   -2856.5973    5496.7962    78.416921 
   23200    429.81472   -114.69033   0.38890539   -114.30142     3025.513     4.277143     4.277143     4.277143     3025.513    2137.1402    2693.4674    4245.9314   -3803.2995   -2634.8635   -5333.3841    78.245847 
   23300    199.42416   -114.48371   0.18044317   -114.30326    -9017.867     4.287443     4.287443     4.287443    -9017.867    -18018.83    8297.9883   -17332.759   -10709.573     11637.43   -3570.9552    78.812496 
   23400    507.99866   -114.75903   0.45964786   -114.29939     3477.261     4.276702     4.276702     4.276702     3477.261    -2001.251    11845.497    587.53725   -2152.0035    4713.1393   -2568.3292    78.221651 
   23500    533.29529   -114.78081   0.48253679   -114.29828    4699.1397    4.2814825    4.2814825    4.2814825    4699.1397    4547.5696    12120.233   -2570.3837    3190.6308   -2840.6128    3244.2471    78.484253 
   23600    239.01152   -114.51945   0.21626264   -114.30319   -5814.5814     4.283689     4.283689     4.283689   -5814.5814   -13740.006     390.5902   -4094.3282   -8326.5852    2171.1439   -2631.1431    78.605655 
   23700    233.59041   -114.51581   0.21135751   -114.30445     -3343.58    4.2770947    4.2770947    4.2770947     -3343.58   -10806.642   -2239.9621    3015.8636   -6659.0972    11008.431   -1629.3855    78.243199 
   23800    551.66309   -114.79931   0.49915635   -114.30016     289.3335    4.2823923    4.2823923    4.2823923     289.3335   -4075.6594    4248.1995    695.46044    1530.2475     213.8095    509.91691    78.534297 
   23900    484.27546   -114.73935   0.43818261   -114.30117   -9495.4944    4.2841009    4.2841009    4.2841009   -9495.4944   -12033.502   -6919.3178   -9533.6634   -5393.2887   -1077.7954   -3881.9072    78.628332 
   24000     214.5366   -114.49715   0.19411722   -114.30304   -3953.8193    4.2751765    4.2751765    4.2751765   -3953.8193   -4800.1778    3570.2856   -10631.566   -9358.0952    11349.979    -5028.751    78.137974 
   24100    335.79844   -114.60638   0.30383749   -114.30254   -1051.9478    4.2882046    4.2882046    4.2882046   -1051.9478   -5859.9868    2830.8809   -126.73743    674.01389    2489.7232     1936.931    78.854502 
   24200    558.92228   -114.80362   0.50572463   -114.29789    10642.856    4.2762437    4.2762437    4.2762437    10642.856    8438.0916    10844.038    12646.439    2638.3526   -3404.1839    2568.7104    78.196505 
   24300    318.28469   -114.59054   0.28799068   -114.30254   -1649.0245     4.281615     4.281615     4.281615   -1649.0245   -7238.0027    3826.1712    -1535.242   -9141.0075     4014.211    -5541.637    78.491541 
   24400    264.91115   -114.54229   0.23969718   -114.30259   -2434.5883    4.2847142    4.2847142    4.2847142   -2434.5883   -9526.3941     12524.49   -10301.861   -5843.3276    13533.237    -2967.877    78.662107 
   24500    585.12009   -114.82787   0.52942896   -114.29844    4288.5322    4.2772936    4.2772936    4.2772936    4288.5322    971.06026    8088.5587    3805.9775    1581.3406   -954.85351     2722.552    78.254114 
   24600    436.24009   -114.69458    0.3947192   -114.29986    6758.5991     4.281097     4.281097     4.281097    6758.5991    5210.8157    9384.8314    5680.1501    203.37444   -3494.8234    2951.0226    78.463053 
   24700    245.24244   -114.52562   0.22190052   -114.30372   -9036.2504    4.2852277    4.2852277    4.2852277   -9036.2504   -20778.289   -12559.151    6228.6884   -12425.102    7685.1334   -6206.2324    78.690391 
   24800    332.62108    -114.6036   0.30096255   -114.30264    5241.0533     4.273485     4.273485     4.273485    5241.0533   -2906.9876    8142.4618    10487.686   -2755.6203    7202.1097   -3941.8354    78.045263 
   24900    629.13728   -114.86837   0.56925663   -114.29911   -12148.217     4.290034     4.290034     4.290034   -12148.217   -13257.503   -9606.1185    -13581.03    1004.5091   -371.12926    4812.5129    78.955468 
   25000    398.01772   -114.66092    0.3601348   -114.30079   -4149.7316    4.2779621    4.2779621    4.2779621   -4149.7316   -16059.154    3571.1227    38.836236   -10410.688    5487.2804    713.54705    78.290814 
   25100    274.14855   -114.55029   0.24805537   -114.30223   -2983.8872    4.2789607    4.2789607    4.2789607   -2983.8872   -14307.165   -2171.2745    7526.7776   -3066.1767    11330.242   -5314.2851    78.345649 
   25200    444.72197   -114.70229   0.40239378   -114.29989   -146.89929     4.288788     4.288788     4.288788   -146.89929   -6762.1838    3824.3656    2497.1203    381.39667    -4576.805   -1285.7495    78.886692 
   25300    535.06076   -114.78197   0.48413422   -114.29784    8038.1469    4.2741827    4.2741827    4.2741827    8038.1469    6438.8349    3493.0188    14182.587   -2420.9458   -816.06072    3298.9999    78.083494 
   25400    307.70959   -114.57972   0.27842211    -114.3013   -354.31248    4.2837327    4.2837327    4.2837327   -354.31248   -13261.231    22318.247   -10119.953    -9221.889    10465.188   -2671.8859    78.608064 
   25500    457.80553   -114.71392   0.41423207   -114.29969   -3745.5717    4.2853426    4.2853426    4.2853426   -3745.5717   -11.856915    196.78024   -11421.638    463.41971    8528.1541   -4150.8937    78.696722 
   25600    542.16781   -114.78824   0.49056483   -114.29768    11037.866    4.2745999    4.2745999    4.2745999    11037.866    3241.9404    12267.788     17603.87    1508.5499   -3873.5942    4601.7155    78.106364 
   25700    416.79015   -114.67826   0.37712048   -114.30114    584.93781    4.2854752    4.2854752    4.2854752    584.93781   -6455.8648    -4207.806    12418.484   -5570.8492    3041.6228    2095.4108    78.704028 
   25800    304.79459   -114.57859   0.27578455   -114.30281   -3432.4065    4.2830127    4.2830127    4.2830127   -3432.4065   -7781.4001   -1596.6227   -919.19684   -3820.6021    8378.7501   -7066.5354    78.568431 
   25900    491.17991   -114.74433    0.4444299    -114.2999    6167.7058    4.2744643    4.2744643    4.2744643    6167.7058    8237.6598    12408.364   -2142.9063   -1047.5849   -811.25036   -5508.9538    78.098932 
   26000    494.97231   -114.74535   0.44786134   -114.29748   -10153.576    4.2912722    4.2912722    4.2912722   -10153.576    -12113.83   -9905.7046   -8441.1942   -2276.8102    597.94947    5288.9336    79.023851 
   26100    322.05977   -114.58993   0.29140645   -114.29852    2723.8538    4.2735643    4.2735643    4.2735643    2723.8538   -11997.331    2980.0735    17188.819   -11339.683    10274.695    1146.9365    78.049606 
   26200     360.0738   -114.62603   0.32580234   -114.30023   -6025.0535    4.2858716    4.2858716    4.2858716   -6025.0535   -15054.741   -2700.2522   -320.16716    4448.8563    8843.4284   -5840.5827     78.72587 
   26300    498.10157   -114.74871   0.45069277   -114.29802    537.03623    4.2814845    4.2814845    4.2814845    537.03623   -5083.3198    312.30148     6382.127   -4403.6975   -5219.1032   -1906.3512    78.484363 
   26400      386.827   -114.64946    0.3500092   -114.29945   -2868.9475     4.278131     4.278131     4.278131   -2868.9475     -8316.79    5490.6078   -5780.6603   -6443.8942     4866.377    2690.0193    78.300088 
   26500    349.87416   -114.61768   0.31657349   -114.30111   -4205.5733    4.2832985    4.2832985    4.2832985   -4205.5733   -13766.131    9779.5896   -8630.1786   -3483.1424    9135.5974   -3410.1345    78.584159 
   26600    375.20768   -114.64011   0.33949579   -114.30062    2483.5709     4.282528     4.282528     4.282528    2483.5709    6949.8518   -12526.304    13027.165    3192.1055    2796.6766   -1779.6002    78.541763 
   26700    436.12294   -114.69449    0.3946132   -114.29988    8136.6056    4.2737605    4.2737605    4.2737605    8136.6056     1903.048    8734.6776    13772.091   -1878.3995    822.61919    762.39777    78.060361 
   26800    366.77759   -114.63233   0.33186807   -114.30046   -14391.716    4.2921316    4.2921316    4.2921316   -14391.716    -16028.68   -9332.6291   -17813.839   -6370.2681    7156.6917   -2680.9958    79.071338 
   26900    328.03256   -114.59526   0.29681075   -114.29845    9794.7622    4.2737546    4.2737546    4.2737546    9794.7622    8837.5764    14379.149    6167.5613    2386.0479    3843.1041   -7117.1533    78.060033 
   27000    466.29307   -114.71992   0.42191177   -114.29801   -4527.6748    4.2831975    4.2831975    4.2831975   -4527.6748   -1427.2618    -9880.127   -2275.6357   -2832.0229   -4587.1354    2507.5659      78.5786 
   27100    308.88602   -114.57899   0.27948656   -114.29951   -24.569276    4.2838052    4.2838052    4.2838052   -24.569276   -2010.9067   -6304.7138    8241.9126   -3403.7486    6831.0824    5251.7648    78.612051 
   27200    363.72568   -114.62932   0.32910664   -114.30021    -3294.618    4.2771433    4.2771433    4.2771433    -3294.618   -7129.4972   -2143.9903   -610.36649   -2984.5348    8403.4507   -10986.618    78.245867 
   27300    390.03572   -114.65307   0.35291252   -114.30016    1198.6686    4.2822863    4.2822863    4.2822863    1198.6686    3665.1697    9202.7878   -9271.9517    4352.0112    1152.3733   -6012.2251    78.528462 
   27400     425.5186   -114.68448   0.38501817   -114.29946   -3568.1041    4.2843065    4.2843065    4.2843065   -3568.1041   -8513.3114    3019.3457   -5210.3467   -1686.9792   -2145.4804    5976.5036    78.639653 
   27500    318.84193   -114.58856   0.28849488   -114.30006    5489.5625    4.2746114    4.2746114    4.2746114    5489.5625   -10109.367    18943.301    7634.7535   -5671.8343     11069.71    3328.3387    78.106993 
   27600    368.96762   -114.63414   0.33384966   -114.30029   -5463.7507    4.2865414    4.2865414    4.2865414   -5463.7507   -9958.9068    -4224.593   -2207.7524   -422.09861    5621.5125   -10822.302    78.762785 
   27700     515.5054   -114.76424   0.46644012    -114.2978   -5739.4198    4.2809038    4.2809038    4.2809038   -5739.4198   -3516.8464   -2309.2173   -11392.196   -1515.5218   -3893.4964   -3664.3331    78.452433 
   27800    371.41824    -114.6344   0.33606703   -114.29833   -204.85587    4.2796943    4.2796943    4.2796943   -204.85587   -9367.7323    12223.726   -3470.5609   -2877.6479     6003.293    4317.4056    78.385956 
   27900    319.70622   -114.58904   0.28927691   -114.29976   -2173.1359    4.2840106    4.2840106    4.2840106   -2173.1359   -14459.315    6962.8119    977.09545    809.75927    5898.0706   -3980.8061    78.623364 
   28000    358.50301   -114.62411   0.32438105   -114.29972    1902.6321    4.2795481    4.2795481    4.2795481    1902.6321    7457.6271   -7149.6386    5399.9079    3629.6573   -159.94015   -6703.8347     78.37792 
   28100     496.8373    -114.7483   0.44954883   -114.29875   -4880.4601    4.2814188    4.2814188    4.2814188   -4880.4601   -8388.4125   -6367.9473    114.97939   -5555.2205    -1102.908     5061.181    78.480747 
   28200    423.87007   -114.68344   0.38352655   -114.29991   -4783.9748    4.2826108    4.2826108    4.2826108   -4783.9748   -6067.3239   -3637.4978   -4647.1029   -3597.6458    7166.3824   -3209.6599    78.546316 
   28300    378.56466   -114.64295   0.34253326   -114.30042    1353.4046    4.2784897    4.2784897    4.2784897    1353.4046    3727.2217    3640.9544   -3307.9624    805.80933    3905.7887   -12461.278    78.319781 
   28400    388.58076   -114.65189   0.35159604   -114.30029    4993.5274    4.2829824    4.2829824    4.2829824    4993.5274   -1231.0077     7560.383    8651.2067    1653.7795   -2831.7763    1623.8614    78.566763 
   28500    426.62584   -114.68576   0.38602002   -114.29974    5526.6356     4.280166     4.280166     4.280166    5526.6356    2726.7367    5978.5483    7874.6218   -2892.8239    2128.7323    8888.2783    78.411873 
   28600    391.63142   -114.65459   0.35435634   -114.30024     -2593.99    4.2801824    4.2801824    4.2801824     -2593.99   -11337.592    4950.3487   -1394.7267   0.98837335    9642.4061   -8575.5832    78.412775 
   28700    450.35016   -114.70764   0.40748629   -114.30015   -4082.6989      4.28188      4.28188      4.28188   -4082.6989    5888.5526   -8658.6559   -9477.9935    468.24597   -88.632501   -13059.744    78.506115 
   28800    449.52382   -114.70583    0.4067386   -114.29909    1313.6226    4.2821512    4.2821512    4.2821512    1313.6226   -7420.0629    3179.8713    8181.0595   -985.23232    3390.0194    4293.1294    78.521029 
   28900    360.55818    -114.6259   0.32624061   -114.29965    2062.0986    4.2789002    4.2789002    4.2789002    2062.0986    -10142.42    5915.9973    10412.718   -3172.8611    7142.5637    6739.9857     78.34233 
   29000    317.38578   -114.58759   0.28717732   -114.30041   -4832.4642    4.2834696    4.2834696    4.2834696   -4832.4642   -1869.6178   -10647.451   -1980.3236    33.908301    1629.4695   -14623.801     78.59358 
   29100    516.43932   -114.76538   0.46728515    -114.2981   -3984.7559    4.2801352    4.2801352    4.2801352   -3984.7559    3242.6272   -8391.6681   -6805.2269    457.20294    -3994.826   -4995.4197    78.410181 
   29200    442.75739   -114.69982   0.40061619   -114.29921    371.35764    4.2796288    4.2796288    4.2796288    371.35764   -9635.1672   -2538.7104    13287.951     -4600.65    4547.4044    5198.9929    78.382352 
   29300    352.20504   -114.61959   0.31868252   -114.30091   -3083.4539    4.2816632    4.2816632    4.2816632   -3083.4539   -3523.6912   -6761.8557    1035.1852    1760.1486    9352.6767   -3840.3023    78.494189 
   29400    292.22242   -114.56482   0.26440899   -114.30041    3825.5027    4.2828814    4.2828814    4.2828814    3825.5027    1497.8791    1615.2382    8363.3906   -100.92493   -3181.7162    -8659.683    78.561205 
   29500    531.62486   -114.77902   0.48102535     -114.298     3973.567    4.2762084    4.2762084    4.2762084     3973.567    1175.6029    10696.792     48.30601   -450.60844   -65.440604    2714.0625    78.194569 
   29600    393.29908   -114.65635   0.35586527   -114.30048   -3586.3664    4.2857458    4.2857458    4.2857458   -3586.3664   -3212.2148   -1845.1227   -5701.7616   -1580.1166    5210.3894   -916.28633     78.71894 
   29700    333.29299   -114.60223    0.3015705   -114.30066    1071.6571    4.2793347    4.2793347    4.2793347    1071.6571    -3211.621   -2991.9826     9418.575   -364.82086    5964.0082   -12372.417    78.366195 
   29800     393.3396   -114.65633   0.35590194   -114.30043    6629.0168    4.2778093    4.2778093    4.2778093    6629.0168     8869.463    3092.0893     7925.498   -552.89316     -4227.36    -1216.778    78.282423 
   29900    447.50154   -114.70401   0.40490879    -114.2991   -3807.9204    4.2873899    4.2873899    4.2873899   -3807.9204   -9329.1723    7021.1935   -9115.7824   -1986.1906    3805.6777    7254.7688    78.809568 
   30000    359.26006   -114.62473   0.32506605   -114.29966   -2680.2466    4.2777219    4.2777219    4.2777219   -2680.2466   -7288.0229    2929.6948   -3682.4118    4269.6859    6432.0597   -9001.3485    78.277627 
   30100    354.25946   -114.62077    0.3205414   -114.30022   -227.18858    4.2797188    4.2797188    4.2797188   -227.18858    6999.3285   -4362.4245   -3318.4697    609.50657    949.32607   -16877.652    78.387299 
   30200    455.42581   -114.71043   0.41207884   -114.29835   -7568.2419    4.2872582    4.2872582    4.2872582   -7568.2419   -15230.763   -13768.724     6294.762   -1414.7214    526.77814     6201.094    78.802307 
   30300    367.15371   -114.63151   0.33220839    -114.2993    1859.8945    4.2745204    4.2745204    4.2745204    1859.8945   -6388.4322     11132.94    835.17545   -4535.5082    9918.1099    4671.3731    78.102006 
   30400    365.61853   -114.63164   0.33081933   -114.30082   -5972.0737    4.2837513    4.2837513    4.2837513   -5972.0737   -7868.0676     1367.439   -11415.593    808.75761     3397.632   -11246.194    78.609089 
   30500    400.35413   -114.66147   0.36224883   -114.29922   -4763.3054    4.2859428    4.2859428    4.2859428   -4763.3054   -11917.678    5905.0522     -8277.29   -145.88802     -8170.76    -7836.492    78.729796 
   30600     418.9988   -114.67632   0.37911892   -114.29721    5613.5898    4.2735012    4.2735012    4.2735012    5613.5898   -7040.8191    8464.5111    15417.078   -2071.1038    7945.0647     3539.093    78.046151 
   30700    359.87679   -114.62555   0.32562408   -114.29992     -3281.01    4.2870619    4.2870619    4.2870619     -3281.01   -13012.993    -1867.846    5037.8085     1350.837    7849.0813   -3077.4123     78.79148 
   30800    432.00004   -114.69057   0.39088271   -114.29969   -2296.3849    4.2803022    4.2803022    4.2803022   -2296.3849    3416.1628   -686.72622   -9618.5912   -286.03985   -3760.6162   -9907.1597    78.419363 
   30900    477.43609   -114.73072   0.43199421   -114.29873    2570.5795    4.2759657    4.2759657    4.2759657    2570.5795   -4577.5524    12845.093   -555.80213    342.87345   -2400.6373    1814.3052    78.181254 
   31000    307.53532   -114.57777   0.27826442    -114.2995    2941.2056     4.288764     4.288764     4.288764    2941.2056      -1054.6    95.008103    9783.2088   -1488.6431    6868.1145   -450.72095    78.885364 
   31100    380.72897   -114.64336   0.34449157   -114.29887    4035.1709    4.2758954    4.2758954    4.2758954    4035.1709     5261.353   -1012.1195    7856.2794   -1171.4594    298.53357   -11592.409    78.177399 
   31200    434.55864   -114.69217   0.39319779   -114.29897   -366.02466    4.2800739    4.2800739    4.2800739   -366.02466    3401.8543   -353.20103   -4146.7272   -888.78383   -7378.1829   -5726.1845    78.406812 
   31300    486.46151   -114.73946    0.4401606   -114.29929   -3995.8622    4.2853085    4.2853085    4.2853085   -3995.8622    2167.0468   -7566.1648   -6588.4687   -563.49817    2548.9641    6003.2564    78.694842 
   31400    413.82972   -114.67515   0.37444183   -114.30071    3029.1939    4.2747284    4.2747284    4.2747284    3029.1939   -1232.2111    893.79091    9426.0018    3062.2469    10376.515   -4389.7123    78.113407 
   31500    313.75601   -114.58616   0.28389303   -114.30227    2057.7004    4.2832811    4.2832811    4.2832811    2057.7004    7182.1146   -7934.2045    6925.1911   -559.03064   -7664.4693   -13248.229    78.583203 
   31600     434.7532   -114.69334   0.39337383   -114.29996   -1795.2614    4.2841175    4.2841175    4.2841175   -1795.2614    -10910.01    3356.2433    2167.9825   -3549.0482   -5635.4841   -327.12884    78.629248 
   31700    487.28776   -114.73918    0.4409082   -114.29828    3207.5542    4.2739338    4.2739338    4.2739338    3207.5542   -2146.3203    9478.3518    2290.6312   -2810.6599    8996.0493    1970.3874    78.069857 
   31800    361.85433   -114.62774    0.3274134   -114.30033   -6620.5301    4.2872216    4.2872216    4.2872216   -6620.5301   -7786.9693   -9700.0468   -2374.5742    925.58003    4540.6224   -4707.6451    78.800284 
   31900    390.55313   -114.65319   0.35338068   -114.29981   -2363.7242    4.2793596    4.2793596    4.2793596   -2363.7242   -7087.9512   -5581.1785     5577.957    588.31841   -13069.899   -6106.7954    78.367562 
   32000    445.86056   -114.70251     0.403424   -114.29908     2452.363    4.2776938    4.2776938    4.2776938     2452.363   -11602.579    6920.8179     12038.85   -1147.9424   -5299.6313   -277.55705    78.276081 
   32100    476.33815   -114.73019   0.43100076   -114.29919   -9627.8969    4.2868697    4.2868697    4.2868697   -9627.8969   -6962.2777   -5764.7525   -16156.661   -1357.7026      9807.61   -4375.7473    78.780886 
   32200    338.13585   -114.60596   0.30595242   -114.30001   -143.00556    4.2768935    4.2768935    4.2768935   -143.00556    1045.5525     2614.011   -4088.5802   -1373.2999   -8666.2011   -5598.6586    78.232155 
   32300    314.34656   -114.58559   0.28442737   -114.30117    4066.4909    4.2810181    4.2810181    4.2810181    4066.4909   -10686.106    6747.8313    16137.747    -1052.562   -7776.5171    3591.8714    78.458714 
   32400    485.77734   -114.73867   0.43954155   -114.29912    3971.7738    4.2822991    4.2822991    4.2822991    3971.7738    3564.2067   -3991.4044    12342.519    227.15207    4714.9763    1948.5404    78.529167 
   32500    470.79113   -114.72594    0.4259817   -114.29996   -5001.9964    4.2806411    4.2806411    4.2806411   -5001.9964   -796.32164   -10505.562   -3704.1054    -680.6489    92.871254   -9443.6309    78.437991 
   32600    318.52415    -114.5896   0.28820734   -114.30139   -1609.5439    4.2799939    4.2799939    4.2799939   -1609.5439    3549.5264   -9848.5676    1470.4095   -53.552421   -14986.135   -8850.9339    78.402415 
   32700    447.16486   -114.70484   0.40460416   -114.30023   -1655.9656    4.2847003    4.2847003    4.2847003   -1655.9656   -4700.8184   -7256.2491    6989.1707   -1460.9964   -2596.6997    2711.0194    78.661343 
   32800    453.68262    -114.7092   0.41050157    -114.2987    11275.553     4.275167     4.275167     4.275167    11275.553    6948.6888    190.97759    26686.992    72.094133     10834.64    2391.2218    78.137452 
   32900    320.66966   -114.59237   0.29014865   -114.30222   -9525.8653    4.2847333    4.2847333    4.2847333   -9525.8653   -5092.7335   -6610.3922    -16874.47   -617.53389   -8461.6695   -6340.3942     78.66316 
   33000     298.7741   -114.57267   0.27033708   -114.30233   -2985.0782    4.2800728    4.2800728    4.2800728   -2985.0782   -5846.6111      3029.75   -6138.3735   -2596.8623   -15681.972    -2500.567    78.406755 
   33100    507.35439   -114.75802   0.45906492   -114.29896    3504.8491    4.2802102    4.2802102    4.2802102    3504.8491   -6906.5134    -1429.944    18851.005   -553.19595    4536.4773   -995.18353    78.414303 
   33200     404.1467   -114.66617   0.36568043   -114.30049    1965.3064    4.2808336    4.2808336    4.2808336    1965.3064    856.31534   -9820.4416    14860.046   -1145.3288    3087.3795   -6967.5374    78.448573 
   33300    258.93847   -114.53786   0.23429297   -114.30357   -12219.688     4.282667     4.282667     4.282667   -12219.688   -15015.838   -13231.499   -8411.7289   -1258.2077    -18550.05   -3840.8045    78.549411 
   33400    419.40253   -114.68219   0.37948422   -114.30271    1964.6083    4.2768782    4.2768782    4.2768782    1964.6083   -2583.8942    2146.1039    6331.6152   -1690.6385   -9603.4466     1185.048    78.231316 
   33500    576.66383   -114.82163   0.52177755   -114.29986    1223.9682    4.2837216    4.2837216    4.2837216    1223.9682     1668.903   -10450.427    12453.428     1847.053      8999.48    2748.9147    78.607454 
   33600    264.87428   -114.54334   0.23966382   -114.30368    937.08628    4.2790151    4.2790151    4.2790151    937.08628   -8162.6017   -3179.8354    14153.696    1259.0022   -8072.9756   -8664.0335    78.348639 
   33700    195.87683   -114.48273   0.17723347   -114.30549   -1266.8425    4.2805636    4.2805636    4.2805636   -1266.8425   -570.03914    284.50157     -3514.99   -1109.0044   -17518.349   -2356.1428    78.433728 
   33800    594.90819   -114.83719   0.53828543   -114.29891    -1058.092    4.2816455    4.2816455    4.2816455    -1058.092   -3486.5452    -844.2364    1156.5056   -1623.7655   -1563.9444    1803.0963    78.493218 
   33900    457.88338   -114.71519    0.4143025   -114.30089    6466.9803     4.276435     4.276435     4.276435    6466.9803    8480.8365   -4079.7482    14999.853   -1520.4561    1451.4973    -2393.668    78.207001 
   34000    202.98606   -114.48977   0.18366606   -114.30611   -3039.1534    4.2828474    4.2828474    4.2828474   -3039.1534   -7775.3648   -8978.2504     7636.155   -81.728371   -12759.323   -2932.8456    78.559337 
   34100    322.96179   -114.59568   0.29222261   -114.30346   -715.04706    4.2822793    4.2822793    4.2822793   -715.04706   -332.63202   -9920.2321     8107.723   -3311.3151   -8613.0398   -363.63488    78.528078 
   34200    605.57213   -114.84605   0.54793439   -114.29812    6034.5721    4.2745813    4.2745813    4.2745813    6034.5721     7576.648   -1303.8934    11830.962    343.07139    6085.8305    3113.7189    78.105341 
   34300    380.67055   -114.64621   0.34443871   -114.30177   -7225.0612    4.2869061    4.2869061    4.2869061   -7225.0612   -6250.8688   -13916.889   -1507.4257    1041.5291   -10729.029   -5817.8297    78.782891 
   34400    137.12484   -114.42861   0.12407344   -114.30453    3125.6472     4.276796     4.276796     4.276796    3125.6472   -1741.3921   -4972.4376    16090.771   -3444.6509   -13847.662    517.25804    78.226808 
   34500    464.53532   -114.72227   0.42032132   -114.30195   -929.19056    4.2778341    4.2778341    4.2778341   -929.19056    823.21542   -3087.7486   -523.03848   -777.03121   -1651.8795    5294.1121    78.283786 
   34600      544.574    -114.7926     0.492742   -114.29986   -6908.1182    4.2872175    4.2872175    4.2872175   -6908.1182    987.48547   -14127.165   -7584.6749   -1038.6596    3460.1448   -1559.1048     78.80006 
   34700    250.18231   -114.52877   0.22637021    -114.3024   -108.26596    4.2754948    4.2754948    4.2754948   -108.26596   -10133.151    984.63576    8823.7172   -691.52365   -16659.601   -5826.0178    78.155431 
   34800    278.08103   -114.55455   0.25161356   -114.30294   -1950.6117    4.2803069    4.2803069    4.2803069   -1950.6117    3307.4808   -9921.9904    762.67437   -1656.9366   -9927.3376    2207.6476     78.41962 
   34900    569.55259   -114.81392   0.51534315   -114.29857   -8481.1251    4.2858642    4.2858642    4.2858642   -8481.1251   -9616.6647   -11579.792   -4246.9188    896.62373    7865.5175    4291.0091     78.72546 
   35000    350.32822   -114.61785   0.31698433   -114.30086    8772.9541    4.2718741    4.2718741    4.2718741    8772.9541    2100.9257    10847.239    13370.698    3061.8585   -11115.973   -866.69856    77.957042 
   35100    317.96974   -114.59024    0.2877057   -114.30253   -10706.508    4.2864868    4.2864868    4.2864868   -10706.508   -14469.093   -8040.9578   -9609.4722   -3001.5977   -12285.537   -5233.2982    78.759778 
   35200    343.24886   -114.61122   0.31057878   -114.30064    5583.8919    4.2810731    4.2810731    4.2810731    5583.8919    5395.7307   -3625.3261    14981.271    835.22525    1692.1252    1198.1703     78.46174 
   35300    494.71411   -114.74674   0.44762773   -114.29912    6823.3697    4.2743401    4.2743401    4.2743401    6823.3697   -1275.3941    6548.0783    15197.425    339.48589    6384.6449    1618.5446    78.092122 
   35400    344.17666   -114.61288   0.31141828   -114.30146   -6829.6453    4.2865755    4.2865755    4.2865755   -6829.6453    2567.2207   -7579.7535   -15476.403    904.12327   -13623.924   -3024.6153    78.764664 
   35500    378.00087   -114.64332   0.34202313   -114.30129    441.92533    4.2775034    4.2775034    4.2775034    441.92533     3013.144   -3957.3406    2269.9725   -3459.8816   -6063.2513   -383.81967    78.265632 
   35600    429.49017    -114.6893   0.38861173   -114.30068    8535.8206    4.2786154    4.2786154    4.2786154    8535.8206    12934.994   -4985.3373    17657.805    480.55914    8367.4347    610.78118    78.326687 
   35700    391.15112    -114.6554   0.35392175   -114.30148   -4077.9297    4.2853398    4.2853398    4.2853398   -4077.9297   -4275.6301   -3533.7893   -4424.3697     1813.435   -3370.1155    401.76626    78.696568 
   35800    345.41317   -114.61354    0.3125371     -114.301   -1890.6294    4.2768598    4.2768598    4.2768598   -1890.6294   -1996.5368    5338.1946   -9013.5461   -1053.9775   -16370.876   -4795.4552    78.230309 
   35900    480.29563   -114.73429   0.43458158   -114.29971   -1247.6988    4.2811502    4.2811502    4.2811502   -1247.6988    6036.9231   -6543.6045    -3236.415    1373.1575    2511.5638    4475.4127    78.465978 
   36000     366.1165   -114.63232    0.3312699   -114.30105    523.65286    4.2827997    4.2827997    4.2827997    523.65286   -10454.423   -3903.5256    15928.907   -1730.9139    8617.4077    4390.9459    78.556712 
   36100    332.65828   -114.60264    0.3009962   -114.30165   -421.54976    4.2760192    4.2760192    4.2760192   -421.54976   -7179.8516    4371.9746    1543.2278    3532.2034   -10664.771   -2014.1435    78.184191 
   36200    522.63641   -114.77265    0.4728924   -114.29975   -12248.573    4.2866371    4.2866371    4.2866371   -12248.573   -9363.9965   -15381.695   -12000.029   -2199.7392   -9068.4487   -3508.7739    78.768063 
   36300    452.87771   -114.70907   0.40977327    -114.2993    4802.3814    4.2774464    4.2774464    4.2774464    4802.3814    6467.4973   -6151.0075    14090.654    1053.3866    10363.467     876.6592    78.262501 
   36400     376.8138    -114.6417   0.34094904   -114.30075   -1989.2641    4.2805668    4.2805668    4.2805668   -1989.2641   -14557.832   -1637.6393     10227.68   -553.58152    2589.5324    3964.7605    78.433906 
   36500    383.38579     -114.648   0.34689552   -114.30111   -397.91495    4.2837213    4.2837213    4.2837213   -397.91495    3917.7175   -3255.4006   -1856.0618   -805.62377   -11751.071   -1269.5418    78.607437 
   36600    509.49197   -114.76091   0.46099904   -114.29991     3001.726    4.2760186    4.2760186    4.2760186     3001.726    4237.7577    1117.5513    3649.8691    2333.1598    -395.3409   -2309.3294    78.184158 
   36700    405.69921   -114.66842   0.36708517   -114.30134    8.3165619    4.2826095    4.2826095    4.2826095    8.3165619    5136.7028   -1324.4661    -3787.287   -959.34747    9319.8911    218.10433    78.546245 
   36800    338.59433   -114.60758   0.30636726   -114.30122   -1050.0476    4.2840682    4.2840682    4.2840682   -1050.0476   -11841.984    -910.1681    9602.0095    1506.0015   -4710.7667   -3259.1046    78.626536 
   36900    426.26289   -114.68452   0.38569162   -114.29883    9594.1632    4.2741108    4.2741108    4.2741108    9594.1632    10452.048   -2.9522861    18333.394   -2132.9645   -7052.1547   -7131.1388    78.079556 
   37000    538.76099    -114.7864   0.48748226   -114.29892   -11580.498    4.2867038    4.2867038    4.2867038   -11580.498    -3696.237   -18716.961   -12328.295   -19.013792    6689.2179   -227.65225    78.771739 
   37100    386.19361   -114.65031    0.3494361   -114.30087    124.43051    4.2780762    4.2780762    4.2780762    124.43051   -6207.1209    1841.1873    4739.2251    249.33042    1976.9042    5009.5112    78.297074 
   37200    393.38631   -114.65682    0.3559442   -114.30087    2015.0767    4.2793055    4.2793055    4.2793055    2015.0767     -4056.87   -3715.6565    13817.757   -1456.3973   -7175.5301   -3377.6005    78.364594 
   37300    469.16059   -114.72448   0.42450636   -114.29997   -1649.7024    4.2830653    4.2830653    4.2830653   -1649.7024    -2720.547   -8652.4891     6423.929    1362.3424    2468.6355   -8042.9515    78.571326 
   37400    344.57713   -114.61238   0.31178063    -114.3006    2095.0986    4.2800682    4.2800682    4.2800682    2095.0986   -1185.2178    4117.7269    3352.7867    903.25685    11618.583    1497.3992    78.406498 
   37500    481.12288   -114.73527   0.43533009   -114.29994   -2294.8437    4.2774632    4.2774632    4.2774632   -2294.8437   -5955.5774    4281.4989   -5210.4527    2141.0109   -5962.6919    394.43266    78.263422 
   37600    352.92413   -114.62013   0.31933317    -114.3008    4081.8086    4.2840143    4.2840143    4.2840143    4081.8086    3891.3071   -221.41233    8575.5311   -2444.0172   -8330.4585   -3077.7915    78.623566 
   37700    440.36328   -114.69802   0.39844995   -114.29957    1583.1272     4.277823     4.277823     4.277823    1583.1272   -669.63957   -6005.7792      11424.8   -1014.2778    9350.8243   -2192.3444    78.283175 
   37800    386.48053   -114.64978   0.34969571   -114.30008   -954.83281     4.280541     4.280541     4.280541   -954.83281    1543.7833   -1600.3416   -2807.9401    -1424.321    6931.2037    3784.2824    78.432489 
   37900    427.58455   -114.68662   0.38688749   -114.29973   -3153.0312    4.2819032    4.2819032    4.2819032   -3153.0312   -5524.2778    3122.8858   -7057.7017    406.80595    -9404.929   -3320.0701     78.50739 
   38000    373.56117   -114.63841     0.338006    -114.3004    2455.7279    4.2784839    4.2784839    4.2784839    2455.7279    5307.4602   -9167.1295    11226.853   -1326.4392   -2261.3768   -8903.9781    78.319464 
   38100    326.49304   -114.59702   0.29541776    -114.3016   -10.724247    4.2802887    4.2802887    4.2802887   -10.724247   -3460.9566   -3689.7418    7118.5257   -1207.6587    11229.222    3079.6783    78.418621 
   38200     408.2438   -114.66976   0.36938757   -114.30038   -7287.0574    4.2816222    4.2816222    4.2816222   -7287.0574    -14450.37   -214.67335   -7196.1287    1274.1691    4887.6567    2539.5394    78.491934 
   38300     446.8422   -114.70374   0.40431221   -114.29942   -4847.3036    4.2798443    4.2798443    4.2798443   -4847.3036    826.83688   -9036.1524   -6332.5954   -3784.0464   -8508.8439   -9381.4895    78.394197 
   38400    334.82266   -114.60375   0.30295458    -114.3008   -386.52564    4.2805536    4.2805536    4.2805536   -386.52564   -4600.7956   -11553.389    14994.608    -986.1574    5643.9081   -7475.8798    78.433177 
   38500    295.71324   -114.56945   0.26756756   -114.30188   -333.14723    4.2805631    4.2805631    4.2805631   -333.14723   -8244.6654    4854.7754    2390.4483   -155.28653    8176.3357    9506.0203    78.433701 
   38600    488.26027   -114.74194   0.44178815   -114.30016   -2395.7879    4.2785809    4.2785809    4.2785809   -2395.7879   -2598.2713    681.41529   -5270.5078    536.72522   -2553.6244   -59.156021    78.324789 
   38700    348.63065   -114.61679   0.31544833   -114.30134    2827.3194    4.2828571    4.2828571    4.2828571    2827.3194    5493.1592   -350.99635    3339.7954   -2053.5705   -1596.3184   -12134.966    78.559872 
   38800    339.88183   -114.60819   0.30753222   -114.30065    2102.9362    4.2779887    4.2779887    4.2779887    2102.9362   -1893.2568    2734.8886    5467.1768   -203.13634    8021.8488    -2528.663    78.292273 
   38900    387.30217   -114.65061   0.35043914   -114.30018   -540.47318    4.2824553    4.2824553    4.2824553   -540.47318     1842.153   -4705.4448    1241.8723    659.58016    3775.5239    5376.4365    78.537762 
   39000    393.27064   -114.65534   0.35583954    -114.2995     5690.801     4.279733     4.279733     4.279733     5690.801    5994.1253    2061.6609    9016.6167   -613.71312   -5705.6982   -6074.1503    78.388079 
   39100    428.92978    -114.6887   0.38810468    -114.3006   -6381.0331    4.2789713    4.2789713    4.2789713   -6381.0331    1355.5801   -8300.5718   -12198.108   -1912.0947    4352.6084   -8301.0935    78.346236 
   39200    295.14491   -114.56892   0.26705332   -114.30186    271.70486    4.2821135    4.2821135    4.2821135    271.70486   -5935.9679    3435.2998    3315.7827   -1208.1091    10163.638    3258.5925    78.518957 
   39300     431.9226   -114.69041   0.39081265    -114.2996   -1909.9049    4.2811858    4.2811858    4.2811858   -1909.9049   -9103.4014   -4611.2982     7984.985   -859.51672   -66.513898   -1690.8231    78.467938 
   39400    367.84382   -114.63274   0.33283282   -114.29991    1609.5323    4.2774541    4.2774541    4.2774541    1609.5323     5984.997   -7699.9865    6543.5865   -4778.4647   -6645.6128   -11440.998    78.262927 
   39500    388.01601   -114.65154   0.35108504   -114.30045   -12235.471    4.2857743    4.2857743    4.2857743   -12235.471   -11695.068   -10076.628   -14934.717    1611.6281    8547.8584   -525.02295    78.720505 
   39600    423.66792   -114.68256   0.38334363   -114.29921   -1351.2009    4.2781031    4.2781031    4.2781031   -1351.2009   -5660.9608   -835.64412    2443.0023    228.13885    9130.3093    7676.8636    78.298553 
   39700    372.52241   -114.63676    0.3370661    -114.2997    3841.5628    4.2789672    4.2789672    4.2789672    3841.5628    -727.7012   -7896.8973    20149.287   -3774.8196   -635.23286   -8757.7452     78.34601 
   39800    392.60383   -114.65602   0.35523619   -114.30078   -5114.6889    4.2837319    4.2837319    4.2837319   -5114.6889   -5620.7183   -6046.8588   -3676.4895   -2164.8498    1630.1271   -8224.9246     78.60802 
   39900    459.66763   -114.71662   0.41591693    -114.3007   -1045.7131    4.2765889    4.2765889    4.2765889   -1045.7131   -7813.3725    11349.989   -6673.7558    2371.6676    8251.2668    4469.9842    78.215442 
   40000    404.68645   -114.66739   0.36616881   -114.30122    3599.5353    4.2815373    4.2815373    4.2815373    3599.5353    4431.3342   -2745.3165    9112.5882   -984.55835    1638.6189    3578.3273    78.487264 
   40100    386.44046   -114.65025   0.34965945   -114.30059    1502.7146     4.282675     4.282675     4.282675    1502.7146    721.48763   -4152.6225    7939.2787   -3940.1864   -1140.0334   -11297.308    78.549846 
   40200    414.12741   -114.67457   0.37471118   -114.29986    4004.4163    4.2757623    4.2757623    4.2757623    4004.4163    454.94184    3581.6128    7976.6942    1859.6734    6176.2683    -1201.374    78.170096 
   40300    424.21929   -114.68411   0.38384253   -114.30027    68.159695    4.2831604    4.2831604    4.2831604    68.159695   -2006.3283   -1565.8587    3776.6661    2808.8996    6815.4735    7816.2437    78.576563 
   40400    477.27827   -114.73132   0.43185141   -114.29947   -2019.3891    4.2803526    4.2803526    4.2803526   -2019.3891   -2238.2004   -9944.2472    6124.2802   -1653.4559   -3307.8399   -4272.3392    78.422133 
   40500    393.31809   -114.65639   0.35588248   -114.30051    4600.2267    4.2766878    4.2766878    4.2766878    4600.2267   -121.86439   -6303.8452     20226.39   -3116.4821    80.718132   -8465.6861    78.220871 
   40600    378.32152     -114.643   0.34231326   -114.30068   -3795.9415    4.2849306    4.2849306    4.2849306   -3795.9415   -12112.909   -7312.4301    8037.5143    2054.8017    8066.9377    3860.3549    78.674029 
   40700    475.43791   -114.73004   0.43018622   -114.29986   -4285.9464    4.2766267    4.2766267    4.2766267   -4285.9464   -460.51162    -8746.331   -3650.9966    -1089.597     6319.148    9347.8744    78.217517 
   40800    395.68872   -114.65923   0.35802747    -114.3012    86.197604    4.2812067    4.2812067    4.2812067    86.197604    -800.0284   -14292.604    15351.226   -3513.6844    -4574.234   -10084.241    78.469083 
   40900    423.46542   -114.68416   0.38316041     -114.301   -3743.4616    4.2816536    4.2816536    4.2816536   -3743.4616    -11194.42   -4260.2582    4224.2935    4190.8993    3882.9613   -2148.1386    78.493661 
   41000    362.54417   -114.62975   0.32803759   -114.30171   -2352.8045    4.2775458    4.2775458    4.2775458   -2352.8045   -12944.977    1842.9495    4043.6141    1333.0609    9064.7045     6800.927    78.267957 
   41100    468.96136   -114.72527    0.4243261   -114.30094      -3496.7    4.2831094    4.2831094    4.2831094      -3496.7   -6731.3559    -7468.416    3709.6719   -3961.1189    2863.8523    33.448771    78.573753 
   41200    508.96681    -114.7607   0.46052387   -114.30018    2429.7221    4.2792006    4.2792006    4.2792006    2429.7221    599.28199    3193.7654    3496.1189   -1584.1235   -1691.6234    -5135.666     78.35883 
   41300    284.31569   -114.55989   0.25725482   -114.30264    6489.8626     4.277854     4.277854     4.277854    6489.8626   -5104.5371    4833.1226    19741.002    5317.7809    2931.1633    2225.2731    78.284877 
   41400     308.5812   -114.58205   0.27921076   -114.30284   -380.36016    4.2843861    4.2843861    4.2843861   -380.36016   -2123.0459   -2605.1991    3587.1645    1726.4755    1293.7146    10136.627    78.644037 
   41500    585.93164   -114.82896   0.53016326    -114.2988    1224.0758    4.2781144    4.2781144    4.2781144    1224.0758    2094.0249   -1481.0147    3059.2172   -1824.2219     528.0566   -5236.9059    78.299175 
   41600    430.17907    -114.6897   0.38923506   -114.30046   -1253.8836    4.2810654    4.2810654    4.2810654   -1253.8836   -9951.0747   -1042.0802    7231.5041     3818.549    3707.4452   -3664.4308    78.461317 
   41700    272.31823   -114.54883   0.24639925   -114.30243   -5856.4357    4.2823943    4.2823943    4.2823943   -5856.4357   -15029.897   -7140.8245    4601.4148    2720.7379    5985.4255    4791.4288    78.534402 
   41800    391.88119   -114.65561   0.35458233   -114.30103   -1477.1445    4.2807369    4.2807369    4.2807369   -1477.1445   -2177.2092   -13882.078    11627.854   -1951.8791   -1313.3118    5572.1455    78.443256 
   41900    522.05429   -114.77108   0.47236569   -114.29871    2675.5312    4.2787794    4.2787794    4.2787794    2675.5312    4745.3357   -3965.8537    7247.1115   -517.89111   -5579.1761   -1323.7482    78.335693 
   42000    376.48934   -114.64222   0.34065546   -114.30156   -11499.576    4.2848433    4.2848433    4.2848433   -11499.576   -13435.517   -8948.2186   -12114.993    7254.1286    7617.8002     2715.553    78.669219 
   42100    177.74098   -114.46407   0.16082378   -114.30324    4910.0612    4.2777183    4.2777183    4.2777183    4910.0612   -5544.9234    2607.8626    17667.244     587.4216    9509.3814    8718.7333    78.277429 
   42200    549.16993   -114.79654   0.49690049   -114.29964     -457.184    4.2816268    4.2816268    4.2816268     -457.184   -8515.4625   -6472.6592     13616.57   -773.01029    1013.9185   -3805.6426    78.492184 
   42300    488.06863   -114.74199   0.44161475   -114.30038    795.54266    4.2811437    4.2811437    4.2811437    795.54266   -12600.716    7363.8624    7623.4819    2012.6485   -2237.9989   -1796.7409    78.465619 
   42400    269.87649   -114.54849   0.24418992    -114.3043   -6189.4712    4.2782998    4.2782998    4.2782998   -6189.4712   -15356.057   -1891.1145   -1321.2424    2409.0633    7451.9971    9292.4461    78.309357 
   42500    345.80212   -114.61753   0.31288903   -114.30464   -459.44906    4.2820822    4.2820822    4.2820822   -459.44906   -4440.0844    4471.9135   -1410.1764    -642.9334    1682.1786    9435.4891    78.517237 
   42600    503.21966   -114.75514   0.45532372   -114.29981    3328.3514    4.2834789    4.2834789    4.2834789    3328.3514   -8713.9998   -3366.8034    22065.857    1408.5539     2638.466   -3275.4383    78.594093 
   42700    348.60389   -114.61702   0.31542413   -114.30159    9304.1854    4.2723453    4.2723453    4.2723453    9304.1854   -2698.6625    9900.7761    20710.443    6527.7809    2673.6986   -1062.6312     77.98284 
   42800    287.90509   -114.56315   0.26050258   -114.30265     -13491.7    4.2890973    4.2890973    4.2890973     -13491.7   -18547.803   -5647.3158   -16279.981   -115.75206    6063.2885    10994.114    78.903759 
   42900    470.56051   -114.72668   0.42577304   -114.30091    4788.6997    4.2746974    4.2746974    4.2746974    4788.6997   -2706.5557   -2478.1076    19550.762    864.75242   -3437.1818    4223.4549     78.11171 
   43000    465.39284   -114.72234   0.42109722   -114.30124    7994.9033     4.278322     4.278322     4.278322    7994.9033   -6218.8489    790.05522    29413.504    4341.2488    1038.6128   -3884.0488    78.310576 
   43100    332.70861   -114.60382   0.30104174   -114.30278   -11054.327    4.2872303    4.2872303    4.2872303   -11054.327   -19234.579   -14038.651    110.24963    2111.2382    7315.3539    6045.4664    78.800766 
   43200     280.6453   -114.55587   0.25393377   -114.30194    1211.8769    4.2738284    4.2738284    4.2738284    1211.8769    2963.3719    4137.5968    -3465.338   -1543.4881     3714.283    14240.566    78.064081 
   43300    536.68603   -114.78531    0.4856048   -114.29971   -1250.1902    4.2819651    4.2819651    4.2819651   -1250.1902   -6023.9478   -10732.144    13005.521    2839.9983   -2885.1947   -3431.0615    78.510792 
   43400    366.49525   -114.63376    0.3316126   -114.30215     643.2172    4.2823262    4.2823262    4.2823262     643.2172   -11952.318   -7616.4181    21498.388    4771.7986    1062.5433   -2656.6012    78.530659 
   43500    300.02037   -114.57451   0.27146474   -114.30304   -2407.1516    4.2748342    4.2748342    4.2748342   -2407.1516   -4969.3495    953.15398   -3205.2593    -1507.058    10694.004    11061.009    78.119208 
   43600    501.30328   -114.75491   0.45358975   -114.30132   -11061.044    4.2863497    4.2863497    4.2863497   -11061.044   -16938.725   -12728.292   -3516.1156   -444.50401   -534.01001    5060.1805    78.752218 
   43700    391.80869   -114.65479   0.35451674   -114.30027    10986.542    4.2770227    4.2770227    4.2770227    10986.542    58.721112     494.1719    32406.732    2586.0482   -1588.5996   -7790.5022    78.239249 
   43800    364.47908    -114.6306   0.32978833   -114.30081   -1639.2029    4.2790023    4.2790023    4.2790023   -1639.2029   -4346.0667   -9453.7701    8882.2279    2967.3437    2003.1941    4553.2827    78.347935 
   43900    376.10339   -114.64178   0.34030625   -114.30148   -6612.1088    4.2838594    4.2838594    4.2838594   -6612.1088   -2903.3619   -530.78508    -16402.18   -204.08861    5579.7316    8955.4489    78.615037 
   44000    418.73515   -114.67961   0.37888037   -114.30073    4424.9723    4.2767526    4.2767526    4.2767526    4424.9723    7349.4307   -8247.5621    14173.048    1875.5119    297.69611   -5358.5958    78.224425 
   44100    421.61738   -114.68214   0.38148826   -114.30065   -1496.9824    4.2826672    4.2826672    4.2826672   -1496.9824    -8039.044   -9938.4114    13486.508    3811.3057    3164.5077    -8603.753    78.549422 
   44200    384.60024   -114.64857   0.34799438   -114.30058      293.617    4.2812771    4.2812771    4.2812771      293.617   -7079.9998    1934.0023    6026.8486    -1262.051    4364.7479    9258.4895    78.472958 
   44300    442.74162   -114.70013   0.40060192   -114.29953   -1582.1097      4.27901      4.27901      4.27901   -1582.1097   -6787.9187   -5827.9967    7869.5864    3169.0389   -126.39451    3682.2265    78.348356 
   44400    471.76859   -114.72669   0.42686614   -114.29982   -3774.1697     4.281586     4.281586     4.281586   -3774.1697    -2939.762   -10075.774    1693.0272    4000.7178   -3409.0205   -10845.777    78.489942 
   44500    393.50035   -114.65674   0.35604738   -114.30069    2264.6343    4.2821556    4.2821556    4.2821556    2264.6343    -1713.914   -7324.2047    15832.021   -105.74494    6842.3474   -1036.2775    78.521274 
   44600    363.98762   -114.62996   0.32934365   -114.30061    7380.8913      4.27715      4.27715      4.27715    7380.8913    5581.9595   -1296.6811    17857.395   -728.81973    11706.811    8625.4155    78.246231 
   44700    413.75334   -114.67519   0.37437272   -114.30082   -8002.2212    4.2834518    4.2834518    4.2834518   -8002.2212    2676.4443    -18833.18   -7849.9279    3261.1529    413.63783   -4765.1926    78.592598 
   44800    400.81382   -114.66246   0.36266477   -114.29979    -1392.751    4.2819149    4.2819149    4.2819149    -1392.751    2814.0283   -8503.8286    1511.5474    2316.8842   -3628.5374   -13263.362    78.508035 
   44900     505.1369   -114.75539   0.45705849   -114.29833   -414.20589    4.2783033    4.2783033    4.2783033   -414.20589    -3898.999   -6360.0026    9016.3839   -1954.5277    1971.4973    8742.6289    78.309549 
   45000    381.94799   -114.64591   0.34559457   -114.30032    962.65111    4.2811366    4.2811366    4.2811366    962.65111   -7675.3422   -6190.2411    16753.537    1053.5921    5220.7057    1621.1681    78.465233 
   45100    342.64253    -114.6116   0.31003016   -114.30157   -5342.7948    4.2844092    4.2844092    4.2844092   -5342.7948   -2071.7737    -19876.15    5919.5394    2995.5822   -673.38203   -13846.832     78.64531 
   45200    547.04038   -114.79442   0.49497363   -114.29945    3826.2869    4.2736518    4.2736518    4.2736518    3826.2869    10515.081   -1660.2146    2623.9941    396.66622    3705.6944   -6285.1552    78.054402 
   45300    389.26584   -114.65262   0.35221592    -114.3004    3356.8928    4.2866191    4.2866191    4.2866191    3356.8928    917.52585   -4096.3766    13249.529   -323.56231    1661.4967    7652.8526    78.767067 
   45400    312.54946   -114.58424   0.28280132   -114.30144     1871.781    4.2781089    4.2781089    4.2781089     1871.781    5313.1851   -17796.571    18098.729    2854.5083    -2428.524   -6574.1779    78.298871 
   45500    339.73811   -114.60924   0.30740218   -114.30184    142.23595     4.277853     4.277853     4.277853    142.23595    5356.3616    -8632.217    3702.5633    4499.0855   -4058.7873   -13455.411    78.284824 
   45600    539.53051   -114.78751   0.48817854   -114.29933   -5119.0883    4.2846117    4.2846117    4.2846117   -5119.0883   -6821.0388   -7117.5446   -1418.6816   -1794.6412    3934.2279     1875.478    78.656464 
   45700    442.22364   -114.70126   0.40013324   -114.30112   -1636.9536    4.2760061    4.2760061    4.2760061   -1636.9536   -6896.6731   -4858.6609    6844.4733    4981.8499    8557.4142    2152.6383    78.183474 
   45800    218.74867   -114.50252   0.19792839   -114.30459   -986.93816    4.2805532    4.2805532    4.2805532   -986.93816   -1026.6248   -19771.337    17837.147    3954.2215   -4103.4309   -13777.581    78.433159 
   45900    376.90338   -114.64263    0.3410301    -114.3016   -3970.9045     4.285185     4.285185     4.285185   -3970.9045   -1688.1736   -15766.471    5541.9311    -1619.131    -2513.324   -6400.5827    78.688038 
   46000    551.20851   -114.79652   0.49874504   -114.29777    6134.2609    4.2721995    4.2721995    4.2721995    6134.2609     2384.378    7649.5844    8368.8202   -683.29689    477.68752    4303.4267    77.974856 
   46100    290.44076   -114.56526   0.26279691   -114.30247   -6527.9666    4.2864385    4.2864385    4.2864385   -6527.9666   -9527.1088   -21814.195    11757.404    2520.6826    6988.4552   -6526.5857    78.757112 
   46200     204.8852   -114.48986   0.18538444   -114.30447   -426.50772    4.2764275    4.2764275    4.2764275   -426.50772     3022.972   -9577.7191     5275.224    179.58461   -7199.9335   -13103.773     78.20659 
   46300    527.41283    -114.7786   0.47721421   -114.30138   -4308.3747    4.2788708    4.2788708    4.2788708   -4308.3747   -9115.3405   -6675.0491    2865.2655   -2277.2007    1711.8962   -316.36748    78.340713 
   46400    456.65527   -114.71368   0.41319128   -114.30049   -1729.7205    4.2841791    4.2841791    4.2841791   -1729.7205   -7683.6686   -4089.4395    6583.9465    2584.4731    3792.3378   -589.84499    78.632641 
   46500    268.35393    -114.5455   0.24281227   -114.30269    -1839.863    4.2747641    4.2747641    4.2747641    -1839.863    8948.3665    -12594.64   -1873.3154    423.84509   -1565.6928   -15575.719    78.115364 
   46600     272.9216   -114.55168    0.2469452   -114.30474   -1982.6553    4.2818397    4.2818397    4.2818397   -1982.6553   -3009.4209   -13101.554    10163.009   -3046.7368   -3403.2846   -3981.7855    78.503896 
   46700    492.93877   -114.74686   0.44602136   -114.30084    8059.5143    4.2801726    4.2801726    4.2801726    8059.5143    1193.3349    5165.6322    17819.576   -1300.3416   -2501.3348    3697.4624     78.41224 
   46800    542.48897   -114.79154   0.49085542   -114.30069   -2654.9491     4.277952     4.277952     4.277952   -2654.9491   -513.23815   -10924.998    3473.3891    2231.5655    5345.0911   -8085.8328     78.29026 
   46900     197.4674   -114.48276   0.17867265   -114.30409    1391.1823    4.2818463    4.2818463    4.2818463    1391.1823    237.55039   -11747.026    15683.022    1288.6683    -5097.289    -12708.87    78.504261 
   47000    399.24931   -114.66309   0.36124917   -114.30184    2303.6619    4.2801728    4.2801728    4.2801728    2303.6619   -23.817059   -10048.916    16983.719   -3279.8161    763.29128    3645.8898    78.412247 
   47100    595.68256    -114.8378    0.5389861   -114.29881    2089.4445    4.2778832    4.2778832    4.2778832    2089.4445    1921.2986   -3259.2278    7606.2626   -138.19052    267.55666    1154.8042     78.28648 
   47200    346.79505   -114.61716   0.31378745   -114.30337   -440.99019    4.2807609    4.2807609    4.2807609   -440.99019    11940.902   -13671.145    407.27177    1734.3127    1269.8408   -14410.073    78.444576 
   47300    333.11336   -114.60529   0.30140797   -114.30388   -3455.1321    4.2802342    4.2802342    4.2802342   -3455.1321   -3042.8468    -18031.21     10708.66   -4208.7563   -9265.8348   -5358.4661    78.415621 
   47400    449.89097   -114.70824    0.4070708   -114.30117    976.41447    4.2819308    4.2819308    4.2819308    976.41447   -13126.337   -6671.6961    22727.276    -2326.972   -917.96235    7042.4702    78.508908 
   47500    566.56279   -114.81241   0.51263792   -114.29977    2132.6723    4.2771125    4.2771125    4.2771125    2132.6723    2803.3796   -8630.8784    12225.516    90.018817    5159.2984   -5979.1029    78.244178 
   47600    411.31676    -114.6744   0.37216805   -114.30223   -9019.5565    4.2837574    4.2837574    4.2837574   -9019.5565   -5483.4292   -17528.988   -4046.2521   -2114.0196   -2008.8524   -11778.651    78.609421 
   47700    319.65346   -114.59275   0.28922917   -114.30352    1733.9265    4.2779037    4.2779037    4.2779037    1733.9265   -1564.2503   -11285.284    18051.314   -3386.9142   -10809.465    2832.7038    78.287608 
   47800    455.86649   -114.71365   0.41247758   -114.30117    4263.3265    4.2820561    4.2820561    4.2820561    4263.3265    2522.4826   -8417.7647    18685.262    996.27223   -4723.4611    3310.1006    78.515801 
   47900    504.70707   -114.75719   0.45666956   -114.30052   -1022.4907    4.2804751    4.2804751    4.2804751   -1022.4907    7977.7376   -11315.675    270.46502    137.27817    2190.4351   -9624.4985    78.428862 
   48000    329.44174   -114.60041   0.29808581   -114.30233   -5279.3277    4.2793296    4.2793296    4.2793296   -5279.3277   -2462.6076   -9853.5921   -3521.7835   -3419.2495   -4384.0719   -2516.2154    78.365915 
   48100    375.59763   -114.64179   0.33984863   -114.30194    730.56849    4.2821163    4.2821163    4.2821163    730.56849   -8765.7695   -6410.4025    17367.878    128.06005   -2454.1929    9185.5854    78.519112 
   48200     550.7315   -114.79738   0.49831344   -114.29906     2751.651    4.2801335    4.2801335    4.2801335     2751.651    1152.7736   -8489.0932    15591.273    346.15664   -1857.8042    -6124.263    78.410091 
   48300    391.35466   -114.65481   0.35410592   -114.30071    3252.0037    4.2793728    4.2793728    4.2793728    3252.0037    2677.1288   -715.23457    7794.1169   -339.17289   -3681.4664   -8791.3079    78.368288 
   48400     330.4204   -114.60075   0.29897132   -114.30178   -6960.1869    4.2845382    4.2845382    4.2845382   -6960.1869    4894.9231   -15878.302   -9897.1814   -3774.7261   -6836.1161    6270.9767    78.652413 
   48500    349.74069   -114.61732   0.31645272   -114.30087    11300.408    4.2764295    4.2764295    4.2764295    11300.408    11228.135    503.95201    22169.136    1067.2047    1745.9652    7259.2585    78.206697 
   48600    432.39256   -114.69034   0.39123788    -114.2991    2456.2332    4.2832227    4.2832227    4.2832227    2456.2332    2716.0758   -9005.8564     13658.48    877.08442    6223.8637    -9513.946     78.57999 
   48700    378.26817   -114.64371   0.34226499   -114.30144   -9447.6872    4.2807883    4.2807883    4.2807883   -9447.6872   -8356.4236   -14248.293   -5738.3451    -4940.666   -6559.4773    -4028.977    78.446081 
   48800    310.51742   -114.58404   0.28096269   -114.30308   -4453.8346    4.2777081    4.2777081    4.2777081   -4453.8346   -10445.331   -3826.0328    909.86003   -2887.2246   -11326.215    12012.579    78.276866 
   48900    474.10839    -114.7305   0.42898323   -114.30152    -7175.253    4.2856687    4.2856687    4.2856687    -7175.253    -10057.61   -18142.901    6674.7522    1009.0226   -1280.7449   -364.05538    78.714687 
   49000    439.61528   -114.69787   0.39777314    -114.3001    5591.4038     4.275428     4.275428     4.275428    5591.4038    8033.3268    -4909.121    13650.005   -2064.1786    5870.6083   -7919.4299    78.151763 
   49100    190.76283   -114.47636   0.17260622   -114.30375   -1296.1615    4.2831375    4.2831375    4.2831375   -1296.1615   -1849.6114   -16934.871    14895.998   -4413.8106   -3015.6589    6369.5821    78.575302 
   49200    382.72753    -114.6481   0.34629991    -114.3018   -6666.9374    4.2808573    4.2808573    4.2808573   -6666.9374    3966.0002   -12517.816   -11448.997    1928.7866   -6415.9213    11806.512    78.449876 
   49300    475.83637   -114.72952   0.43054674   -114.29897    3836.8065    4.2797525    4.2797525    4.2797525    3836.8065    766.41157   -5503.4962    16247.504    345.93817   -2329.4241   -4907.1016    78.389154 
   49400     424.1208   -114.68462   0.38375342   -114.30086   -3758.7901    4.2818157    4.2818157    4.2818157   -3758.7901   -10914.763   -13591.862    13230.255   -4049.0798   -2488.9853   -999.55349    78.502577 
   49500     241.0144    -114.5217   0.21807489   -114.30363   -4419.1036    4.2785782    4.2785782    4.2785782   -4419.1036   -5688.0029   -5976.4728    -1592.835   -597.64074   -5554.3522    10727.806    78.324644 
   49600    462.01897   -114.72016   0.41804448   -114.30211   -3645.7736    4.2826042    4.2826042    4.2826042   -3645.7736   -999.36773   -8846.8791   -1091.0739    1368.9686   -2823.0097    4163.8314    78.545954 
   49700    512.82269   -114.76357   0.46401275   -114.29956    9731.1082    4.2786407    4.2786407    4.2786407    9731.1082    2432.6627    2096.3109    24664.351   -2815.7889    3764.0583   -3971.6303    78.328077 
   49800    292.83416   -114.56898   0.26496251   -114.30402     1339.607    4.2791968    4.2791968    4.2791968     1339.607    -2737.483   -10675.509    17431.813   -1522.2481   -9684.2797    7078.6786    78.358618 
   49900    233.45764    -114.5169   0.21123738   -114.30566   -1953.8733    4.2816325    4.2816325    4.2816325   -1953.8733   -6100.7941   -6349.5218     6588.696    1835.0415   -4454.3809    10724.765      78.4925 
   50000     653.6913   -114.89196   0.59147362   -114.30048    454.05064    4.2778005    4.2778005    4.2778005    454.05064   -3958.8809    595.42418    4725.6086    1841.1778   -1844.0076   -412.27498    78.281938 
   50100    466.95546   -114.72454   0.42251111   -114.30203    2627.7872    4.2816197    4.2816197    4.2816197    2627.7872   -9868.3862   -10617.943    28369.691   -6959.1099    3609.5258   -1136.6013    78.491796 
   50200    199.80251    -114.4858   0.18078551   -114.30501   -4551.1858     4.280152     4.280152     4.280152   -4551.1858   -8562.1235   -7773.3794    2681.9456   -1342.2016   -13085.507    9327.7463    78.411103 
   50300    430.56855   -114.69388   0.38958747    -114.3043   -5315.3425    4.2792696    4.2792696    4.2792696   -5315.3425    1464.1692   -11656.418   -5753.7792    3373.4286   -3810.5498    6396.9832    78.362619 
   50400     558.5627   -114.80674   0.50539927   -114.30134    4880.0449    4.2803547    4.2803547    4.2803547    4880.0449    2185.7385   -6353.8818    18808.278   -3240.3428    3433.7498   -3804.4313    78.422244 
   50500    401.10186   -114.66682   0.36292539    -114.3039    1613.9808    4.2788225    4.2788225    4.2788225    1613.9808    -417.6696   -12986.457    18246.069   -3552.0179   -1130.5159    8797.6968    78.338058 
   50600    288.48419   -114.56637   0.26102656   -114.30534   -7687.7309      4.28339      4.28339      4.28339   -7687.7309   -10367.581   -17371.549    4675.9369    4127.0575   -9372.7332    9463.4905    78.589195 
   50700    509.22775   -114.76213   0.46075997   -114.30137    2199.6719    4.2776247    4.2776247    4.2776247    2199.6719   -3056.6819    -7417.064    17072.761    4153.1134   -4031.3081    270.47978    78.272289 
   50800    600.31382   -114.84256   0.54317656   -114.29939    -3186.634    4.2831511    4.2831511    4.2831511    -3186.634   -1110.7758   -13734.133    5285.0067   -5224.5397    3834.1861   -4177.4608    78.576051 
   50900    233.96131   -114.51451   0.21169311   -114.30282    395.72914    4.2814347    4.2814347    4.2814347    395.72914    4050.1904    -15302.58    12439.578    1087.9567   -3221.0589    14246.915    78.481623 
   51000     288.2493   -114.56379   0.26081402   -114.30297   -902.82121    4.2766735    4.2766735    4.2766735   -902.82121    5011.3963   -9145.5431    1425.6832    3976.4312   -4760.0984     5609.758    78.220085 
   51100     545.8095   -114.79316   0.49385991    -114.2993   -4633.5374    4.2855699    4.2855699    4.2855699   -4633.5374   -7461.8646   -8865.6984    2426.9508   -1250.4263   -1493.5568   -3535.3681    78.709246 
   51200    474.60158   -114.72977   0.42942948   -114.30034    -3607.607    4.2799886    4.2799886    4.2799886    -3607.607   -7446.3807   -11284.117    7907.6765   -950.67034   -1671.0466     5619.462    78.402127 
   51300    262.61228   -114.54033   0.23761711   -114.30271    2738.0522    4.2755018    4.2755018    4.2755018    2738.0522   -5648.1596    343.11332    13519.203    3416.9427   -11542.931    7919.0463    78.155814 
   51400    394.23536   -114.65855   0.35671244   -114.30184   -6590.8349    4.2882986    4.2882986    4.2882986   -6590.8349   -12041.901   -12846.319    5115.7149    2437.0154    882.99012   -1110.3387     78.85969 
   51500    497.67743    -114.7492     0.450309   -114.29889    12979.218    4.2728537    4.2728537    4.2728537    12979.218    14074.944    821.85994     24040.85   -4276.6044    4449.0189   -3191.7778    78.010682 
   51600    345.90847   -114.61421   0.31298525   -114.30123   -5801.4396    4.2866367    4.2866367    4.2866367   -5801.4396   -3483.3164   -12940.575   -980.42774    600.57001    -5691.709    9089.6007    78.768038 
   51700    227.44649   -114.50836   0.20579836   -114.30256    4084.0792    4.2786978    4.2786978    4.2786978    4084.0792   -951.52743   -6475.5888    19679.354     3410.609   -13134.407    3399.1428    78.331211 
   51800    431.96712   -114.69154   0.39085293   -114.30069    2662.5411    4.2800203    4.2800203    4.2800203    2662.5411   -6409.8702   -5992.4216    20389.915   -1394.4308   -1081.1337   -5204.9798    78.403869 
   51900    523.78934   -114.77391    0.4739356   -114.29997    -6844.284    4.2816161    4.2816161    4.2816161    -6844.284   -7170.1281   -9391.4897   -3971.2342   -965.37464    6275.0455    2611.9759    78.491597 
   52000    306.38508   -114.58004   0.27722366   -114.30281   -5786.8209    4.2794588    4.2794588    4.2794588   -5786.8209   -7469.7127   -10618.337    727.58707    4928.1563   -5911.1626    10986.466    78.373013 
   52100     299.8915   -114.57457   0.27134813   -114.30322     5832.259    4.2801388    4.2801388    4.2801388     5832.259   -7541.1305   -7054.0119    32091.919     1856.986   -8872.8601   -4058.2988    78.410379 
   52200    506.46001    -114.7586   0.45825566   -114.30035   -588.30902    4.2820306    4.2820306    4.2820306   -588.30902   -774.39955   -11089.622    10099.094   -3000.0086    1088.4553   -3091.5867    78.514399 
   52300    346.97707   -114.61561   0.31395214   -114.30166    -1118.442    4.2786296    4.2786296    4.2786296    -1118.442   -462.78656   -9332.7173    6440.1777    3111.7622    927.98065     3829.312    78.327467 
   52400    300.31038   -114.57439   0.27172714   -114.30266   -3997.6079    4.2816814    4.2816814    4.2816814   -3997.6079   -10956.591   -11029.748    9993.5152     4358.332    -6058.866    5666.5738    78.495188 
   52500    415.26108   -114.67687   0.37573695   -114.30114    2339.3703    4.2786678    4.2786678    4.2786678    2339.3703   -4459.1543   -5140.2332    16617.498   -1942.7136   -1893.3638   -9173.6516    78.329566 
   52600    467.24947    -114.7235   0.42277714   -114.30072   -6957.5131    4.2818231    4.2818231    4.2818231   -6957.5131   -10951.162   -8427.4348   -1493.9426    465.44609    5399.4143    333.19516    78.502983 
   52700    371.36756   -114.63846   0.33602117   -114.30244   -5827.3125    4.2790727    4.2790727    4.2790727   -5827.3125   -7862.4238   -5290.9184   -4328.5953    3272.2439   -3329.8292    7851.3803    78.351805 
   52800    304.95917   -114.57913   0.27593346    -114.3032    3945.7228    4.2806311    4.2806311    4.2806311    3945.7228   -5012.6059   -736.97996    17586.754    1778.6504   -9428.5767   -667.69513    78.437442 
   52900    436.77488   -114.69675   0.39520309   -114.30155     4075.251     4.279572     4.279572     4.279572     4075.251    1025.6271   -4124.5825    15324.709    -850.1155    6028.8101   -3038.2987    78.379236 
   53000    467.10789   -114.72536   0.42264903   -114.30271   -1816.6212    4.2799677    4.2799677    4.2799677   -1816.6212   -4320.2611    786.21383   -1915.8162    1845.0035    4129.8978    385.71117    78.400979 
   53100    331.10576   -114.60295   0.29959145   -114.30336     -443.695    4.2822877    4.2822877    4.2822877     -443.695   -9528.8858   -6334.2093     14532.01    2956.9566   -11565.989      2839.38    78.528541 
   53200    379.64347   -114.64552   0.34350939   -114.30201    4333.9749    4.2773114    4.2773114    4.2773114    4333.9749   -565.18201   -2116.5856    15683.692   -1322.5666   -4064.3038   -3207.7579    78.255092 
   53300    505.31339   -114.75861   0.45721817   -114.30139   -3167.5428    4.2819463    4.2819463    4.2819463   -3167.5428   -5306.6958    -910.8807    -3285.052    967.68575    9488.8866   -141.88797    78.509759 
   53400    342.12626   -114.61243   0.30956303   -114.30287   -2510.8836    4.2806947    4.2806947    4.2806947   -2510.8836   -1592.9855   -9633.0091    3693.3438     4755.331    611.30111    6115.9721    78.440934 
   53500    349.16714   -114.61844   0.31593376    -114.3025   -493.33056    4.2774109    4.2774109    4.2774109   -493.33056   -3046.8318   -1435.9155    3002.7556    1000.7145   -15532.599     846.1522    78.260551 
   53600    466.28019   -114.72362   0.42190011   -114.30172   -2147.3153    4.2838418    4.2838418    4.2838418   -2147.3153   -8604.2824   -10865.312    13027.649   -1263.8551    3070.9695   -5156.1334    78.614067 
   53700    393.02762   -114.65755   0.35561965   -114.30193    2004.8256    4.2779995    4.2779995    4.2779995    2004.8256   -2582.2948   -5238.9608    13835.732    3146.8246    9267.6498    1022.6143    78.292863 
   53800     372.1274   -114.63903   0.33670869   -114.30232    -5219.861    4.2801911    4.2801911    4.2801911    -5219.861   -11801.875   -9294.3273    5436.6198    4439.4834   -7567.5226     1095.612    78.413255 
   53900    443.11435   -114.70164   0.40093917    -114.3007   -3261.0194    4.2836015    4.2836015    4.2836015   -3261.0194    -7045.737   -11683.286    8945.9644   -1208.1563   -9174.2561    164.58129     78.60084 
   54000    347.11649   -114.61452   0.31407829   -114.30044    9976.7766    4.2766624    4.2766624    4.2766624    9976.7766    4973.3856   -3908.9282    28865.872   -795.08241    5484.3759    -6203.084    78.219476 
   54100    414.49605   -114.67662   0.37504474   -114.30157    -10286.47     4.281866     4.281866     4.281866    -10286.47    -12105.77   -8551.9708   -10201.668    3853.6184    4297.2935    5108.8928    78.505341 
   54200     357.9298   -114.62535    0.3238624   -114.30149   -2031.9415    4.2805962    4.2805962    4.2805962   -2031.9415   -6653.4408    -2437.252    2994.8683   -665.81802   -9459.5576   -323.22607    78.435522 
   54300    454.26488    -114.7111   0.41102841   -114.30007    1460.9722    4.2799702    4.2799702    4.2799702    1460.9722   -6369.8571   -8955.4362     19708.21   -118.24038    3884.7898   -2413.1964    78.401114 
   54400     369.4642   -114.63638   0.33429897   -114.30208     1788.467    4.2799712    4.2799712    4.2799712     1788.467    -11621.38     1664.779    15322.002    2594.0956    7747.7161   -1327.5769     78.40117 
   54500    359.57403    -114.6278   0.32535014   -114.30245   -2384.5789    4.2822267    4.2822267    4.2822267   -2384.5789   -5146.3995   -2760.3876    753.05031    3443.8007   -6477.9948    1430.5948    78.525182 
   54600    453.66696   -114.71134    0.4104874   -114.30085    3236.1156      4.27919      4.27919      4.27919    3236.1156    1078.2768   -6957.0175    15587.088   -1633.8218   -7453.8271    1598.6158    78.358244 
   54700    400.76381    -114.6649   0.36261951   -114.30228    4119.4882    4.2785008    4.2785008    4.2785008    4119.4882   -2107.4178    279.78019    14186.102   -2449.9777    12726.311   -2502.3685    78.320393 
   54800    299.68891   -114.57495   0.27116483   -114.30379   -812.47188    4.2830047    4.2830047    4.2830047   -812.47188   -9406.0353   -5638.5002     12607.12    4596.6386    7593.0119    1012.0989    78.567992 
   54900    482.31265   -114.73788   0.43640662   -114.30147   -6227.2407     4.279339     4.279339     4.279339   -6227.2407   -10546.802   -5202.9868   -2931.9333    290.48586   -10088.094    4157.9381    78.366432 
   55000    459.67156   -114.71648   0.41592049   -114.30055   -2251.2122    4.2795406    4.2795406    4.2795406   -2251.2122   -6386.4012   -4480.9118    4113.6764   -1794.3087   -3113.3963    533.33233     78.37751 
   55100    277.34995   -114.55346   0.25095206   -114.30251   -910.92373    4.2828125    4.2828125    4.2828125   -910.92373   -12364.696   -9433.9547    19065.879    3817.8371    15947.678   -1483.2744    78.557417 
   55200    424.20023   -114.68597   0.38382528   -114.30214   -787.09994    4.2749571    4.2749571    4.2749571   -787.09994   -6295.9946   -1124.4943     5059.189    3599.7555    2743.7465    3721.5011    78.125942 
   55300    491.02229   -114.74518   0.44428729   -114.30089   -6775.4308    4.2861432    4.2861432    4.2861432   -6775.4308   -11650.645   -12310.285    3634.6381   -2037.9699   -9955.3623    401.72696     78.74084 
   55400    403.54772   -114.66605   0.36513845   -114.30091    474.34462    4.2786096    4.2786096    4.2786096    474.34462   -10605.479   -2547.0113    14575.524   -3371.6753    7541.1205   -327.43988    78.326366 
   55500    371.02817   -114.63743   0.33571409   -114.30171    489.15108    4.2772757    4.2772757    4.2772757    489.15108   -14659.878    644.22474    15483.107    5199.6053    10019.846   -6244.2371    78.253134 
   55600     470.1362   -114.72621   0.42538911   -114.30082   -2896.1232    4.2837813    4.2837813    4.2837813   -2896.1232   -9711.4879   -3855.3312    4878.4494   -185.58576   -2893.8728    4906.2097     78.61074 
   55700    444.86716   -114.70419   0.40252516   -114.30167     1697.933    4.2778031    4.2778031    4.2778031     1697.933    85.944612   -557.85086    5565.7054    -4193.636   -3443.3672    1919.6822    78.282081 
   55800    383.00572   -114.65019   0.34655162   -114.30364    824.64453    4.2790249    4.2790249    4.2790249    824.64453   -9903.0631   -631.08186    13008.079    3502.5233    10823.044    571.69854    78.349176 
   55900    338.20099   -114.60872   0.30601136    -114.3027    1107.3088    4.2858062    4.2858062    4.2858062    1107.3088   -9928.3529   -6259.5618    19509.841    3958.6564    2140.4088   -483.49138    78.722268 
   56000    617.32511   -114.85744   0.55856873   -114.29887     2776.367    4.2743992    4.2743992    4.2743992     2776.367    429.40602   -331.58908     8231.284   -2393.9832   -3779.1209   -614.04632    78.095361 
   56100    435.65978   -114.69584   0.39419412   -114.30165    -3428.485    4.2843246    4.2843246    4.2843246    -3428.485   -14582.016   -3873.0561    8169.6173   -4755.3495    4872.3031   -2.1189267    78.640654 
   56200    333.37076    -114.6045   0.30164087   -114.30286    1504.8036    4.2798218    4.2798218    4.2798218    1504.8036   -7194.0029     1078.966    10629.448    5398.6865    10635.413   -2312.7418    78.392961 
   56300    433.32851   -114.69297   0.39208474   -114.30088    5933.4376    4.2786032    4.2786032    4.2786032    5933.4376   -3080.9004   -2404.8513    23286.064    2306.8502   -3392.5944    6656.4649    78.326015 
   56400    500.68004   -114.75326   0.45302582   -114.30023   -2354.5299    4.2831729    4.2831729    4.2831729   -2354.5299   -6933.7535   -3065.9614    2936.1253   -3934.1407   -3428.3322     3557.279    78.577247 
   56500    339.74495   -114.60976   0.30740837   -114.30235   -6266.3455    4.2785784    4.2785784    4.2785784   -6266.3455   -13439.617   -4565.0437   -794.37603    3035.9026    14863.437     -5059.41    78.324651 
   56600    409.14909    -114.6724    0.3702067    -114.3022   -7026.9383    4.2806251    4.2806251    4.2806251   -7026.9383   -19115.187   -7562.9788    5597.3509    3685.1958    9035.6672   -4478.1181    78.437112 
   56700    490.31747   -114.74445   0.44364955    -114.3008    5588.5664    4.2801487    4.2801487    4.2801487    5588.5664   -6797.6199   -6973.3191    30536.638   -2569.9888   -5022.5783    1581.9317    78.410926 
   56800    431.95225   -114.69314   0.39083947    -114.3023   -3720.7382    4.2818108    4.2818108    4.2818108   -3720.7382   -15218.787   -4540.4231    8596.9957   -2200.3896    1086.2697     3500.356    78.502307 
   56900    292.37936   -114.56819   0.26455099   -114.30364   -5849.2096    4.2791276    4.2791276    4.2791276   -5849.2096   -17403.109   -3518.6569    3374.1375    6066.3209    17217.133   -3689.8322    78.354819 
   57000    390.73777   -114.65689   0.35354775   -114.30334     5963.278    4.2801255    4.2801255    4.2801255     5963.278   -4765.6215   -1288.7581    23944.214     388.9962    4275.6495    1150.7316     78.40965 
   57100    499.25016    -114.7525   0.45173203   -114.30077     3690.344     4.281386     4.281386     4.281386     3690.344   -9116.4843   -5459.5767    25647.093   -4271.9224    584.08246    265.42604    78.478945 
   57200     309.2206   -114.58375    0.2797893   -114.30396   -5279.3641     4.277554     4.277554     4.277554   -5279.3641   -16136.946    3121.9437   -2823.0898    4484.1732    9761.1646   -443.48136    78.268407 
   57300    298.54657   -114.57496   0.27013121   -114.30483   -6579.5398    4.2833805    4.2833805    4.2833805   -6579.5398    -18933.94   -6244.1068     5439.427    4039.9527    8762.7486   -4405.9347    78.588675 
   57400    541.83621   -114.79192   0.49026479   -114.30165    3977.9347    4.2780573    4.2780573    4.2780573    3977.9347   -7064.9637   -7664.7255    26663.493   -1657.5344   -4599.5183    870.25134    78.296037 
   57500    400.44165   -114.66546   0.36232802   -114.30313    7052.3795     4.277368     4.277368     4.277368    7052.3795    -7693.338    6353.8835    22496.593    146.16289    6917.8971    643.69758    78.258199 
   57600    217.31923   -114.50152   0.19663501   -114.30488   -11436.229    4.2873233    4.2873233    4.2873233   -11436.229   -23500.083   -15478.295    4669.6907    7651.8048    14100.606   -2666.6915    78.805896 
   57700    430.91944   -114.69145   0.38990497   -114.30155    3478.1146    4.2732106    4.2732106    4.2732106    3478.1146    643.21233   -4179.5374    13970.669    1518.1928    1339.9412   -3470.5626     78.03023 
   57800    464.37847   -114.72021    0.4201794   -114.30003    1937.5723    4.2848457    4.2848457    4.2848457    1937.5723   -10412.456   -13117.599    29342.773    -2975.966   -6226.0073    3356.9988    78.669351 
   57900    299.71488   -114.57627   0.27118833   -114.30508   -5391.1905    4.2785463    4.2785463    4.2785463   -5391.1905   -20192.935   -5292.2471    9311.6105    5888.3222    10576.842   -3524.4757    78.322892 
   58000    301.49379   -114.57896   0.27279792   -114.30616   -8957.5759    4.2762708    4.2762708    4.2762708   -8957.5759   -16317.414   -6415.5897   -4139.7236    4191.0121    11518.175   -5607.8987     78.19799 
   58100    481.94347   -114.73872   0.43607258   -114.30265   -3316.2337    4.2874072    4.2874072    4.2874072   -3316.2337   -14478.491    -15196.26     19726.05   -661.66263   -3367.0136   -2373.6987     78.81052 
   58200    466.53743   -114.72319   0.42213287   -114.30106    13225.746    4.2723085    4.2723085    4.2723085    13225.746   -653.82302    7148.4783    33182.583    3370.2892    1492.9786    366.18251    77.980822 
   58300    275.86381   -114.55458   0.24960738   -114.30497   -7966.2308    4.2837288    4.2837288    4.2837288   -7966.2308   -21636.059   -10888.883    8626.2502    6485.9206    10629.485   -1367.8586    78.607849 
   58400    330.80071   -114.60453   0.29931543   -114.30521   -2124.8046    4.2803981    4.2803981    4.2803981   -2124.8046   -7491.1458   -1978.6917    3095.4236   -127.17731    5614.0377   -7161.1155    78.424632 
   58500    522.65444   -114.77459   0.47290872   -114.30168    9371.5864    4.2767718    4.2767718    4.2767718    9371.5864   -4085.0634    921.96586    31277.857   -2335.9857   -4821.7078    4006.2081    78.225478 
   58600    425.39531   -114.68795   0.38490662   -114.30304   -5832.1522    4.2848094    4.2848094    4.2848094   -5832.1522    -19609.11   -7654.9601    9767.6133    4901.5983    8526.2023   -962.32537    78.667353 
   58700    242.37625   -114.52329   0.21930712   -114.30399   -5048.7103    4.2780501    4.2780501    4.2780501   -5048.7103   -11269.626    6613.6931   -10490.198       2515.5    6157.8754   -1563.4336    78.295645 
   58800    521.60898   -114.77391   0.47196277   -114.30194   -2947.2288    4.2806854    4.2806854    4.2806854   -2947.2288   -7577.5928   -8117.9212    6853.8278   -345.01819   -1835.2872   -9320.4557    78.440424 
   58900    448.60857     -114.709   0.40591046   -114.30309    12650.475    4.2772678    4.2772678    4.2772678    12650.475    2335.0179    3997.2716    31619.135    1734.7859    1519.4225     1169.156    78.252699 
   59000    289.19146    -114.5672   0.26166651   -114.30553   -596.03194    4.2828536    4.2828536    4.2828536   -596.03194   -11383.288   -5243.2233    14838.415    6676.4947    13307.214   -190.34486    78.559678 
   59100    433.65476   -114.69417   0.39237994   -114.30179    -8214.583    4.2829452    4.2829452    4.2829452    -8214.583   -8312.2292   -11300.721   -5030.7989    1061.8348   -11.609128   -2882.6357    78.564719 
   59200    484.21525   -114.73733   0.43812813    -114.2992    8654.4184     4.274895     4.274895     4.274895    8654.4184    1277.0354   -1393.2952    26079.515   -1732.6148   -7679.2502   -410.26562     78.12254 
   59300    384.62353   -114.64867   0.34801545   -114.30066   -10784.626     4.287892     4.287892     4.287892   -10784.626   -25618.727   -16476.509    9741.3576    3168.8892      5528.91    1572.8209    78.837257 
   59400    323.42139   -114.59424   0.29263847    -114.3016   -4576.3713    4.2758031    4.2758031    4.2758031   -4576.3713   -11012.136   -2068.0884   -648.88996    226.45871    13507.904    -7943.976    78.172336 
   59500    481.41333   -114.73628    0.4355929   -114.30068   -4891.5476    4.2821915    4.2821915    4.2821915   -4891.5476    -5430.127   -5900.6574   -3343.8585    812.92805   -3756.7502   -5343.2715    78.523247 
   59600    385.17362   -114.65023   0.34851319   -114.30172    1705.2085    4.2827311    4.2827311    4.2827311    1705.2085   -8211.7791   -9813.7319    23141.136    5015.8339   -3870.9888    5067.6226    78.552936 
   59700    307.75973   -114.58058   0.27846747   -114.30211    3871.1009    4.2757891    4.2757891    4.2757891    3871.1009    2580.7152   -2338.9867    11371.574    4907.2791     5770.832    5879.4691     78.17157 
   59800    362.12928    -114.6285   0.32766218   -114.30083    -1090.108    4.2851596    4.2851596    4.2851596    -1090.108   -8444.5479     -6375.89    11550.114    147.51084    3682.1399   -6037.4885    78.686643 
   59900    517.00092   -114.76747    0.4677933   -114.29967   -2539.0558    4.2780008    4.2780008    4.2780008   -2539.0558   -1650.9588   -6771.5042    805.29573   -1003.8352   -565.92602   -1563.6392    78.292934 
   60000    331.44388     -114.602   0.29989739    -114.3021   -4394.5368    4.2837328    4.2837328    4.2837328   -4394.5368    -13315.24   -15624.876    15756.505    2810.3119    3641.8239    7083.5988    78.608068 
   60100    332.20633   -114.60224   0.30058727   -114.30165   -893.62127    4.2806129    4.2806129    4.2806129   -893.62127   -13561.914   -5009.0162    15890.066   -843.67867    8863.9618   -983.28675    78.436438 
   60200    503.49305   -114.75502    0.4555711   -114.29944   -951.98859    4.2771688    4.2771688    4.2771688   -951.98859   -3200.4118     4857.138   -4512.6919     63.02088    -4490.122      -1750.8    78.247264 
   60300    373.12797   -114.63804   0.33761403   -114.30043   -4203.6941    4.2867308    4.2867308    4.2867308   -4203.6941   -8801.1681   -14530.993    10721.079    4202.7026   -1788.3545    2262.9256    78.773229 
   60400    292.68723   -114.56641   0.26482955   -114.30159    7262.6897    4.2750134    4.2750134    4.2750134    7262.6897   -3271.1303     4919.022    20140.177    3711.8772    12215.478    5251.5297    78.129031 
   60500    396.90453   -114.66015   0.35912756   -114.30102    5889.0289    4.2805275    4.2805275    4.2805275    5889.0289   -5791.6604   -87.835242    23546.582    542.54595    8664.2331   -6901.4231    78.431745 
   60600    497.26064   -114.75037   0.44993188   -114.30044   -9657.2548    4.2854675    4.2854675    4.2854675   -9657.2548   -11963.465   -15080.178   -1928.1219    1297.6793   -6444.5694    1332.2468    78.703605 
   60700    324.55833   -114.59549    0.2936672   -114.30182    1951.9697    4.2722607    4.2722607    4.2722607    1951.9697   -3711.2075   -6928.3482    16495.465    3901.3126   -109.87845    10906.237    77.978203 
   60800     403.0058   -114.66641   0.36464812   -114.30177   -10824.818    4.2882534    4.2882534    4.2882534   -10824.818   -21998.261   -18797.276     8321.083   -1161.9958    7676.6813    2565.0316    78.857192 
   60900    446.96843   -114.70377   0.40442643   -114.29934    5616.8582    4.2776276    4.2776276    4.2776276    5616.8582   -1998.2476   -1552.4187    20401.241    60.753371    909.72406   -8109.3619    78.272446 
   61000    468.46823   -114.72467    0.4238799   -114.30079   -3938.2135    4.2787967    4.2787967    4.2787967   -3938.2135   -7238.8412   -10629.715     6053.916    5602.4192   -3251.2166    4036.7036    78.336644 
   61100    325.85891   -114.60019   0.29484399   -114.30535   -2660.4631    4.2824223    4.2824223    4.2824223   -2660.4631   -6101.5102   -13503.209     11623.33    2190.5788    5785.4273    11053.109    78.535946 
   61200    411.20619   -114.67609     0.372068   -114.30402    12533.753    4.2764747    4.2764747    4.2764747    12533.753    2207.5696    1426.0264    33967.662   -378.48045     6814.861    665.24804    78.209176 
   61300    574.00313   -114.82066   0.51937009   -114.30129   -2594.8641    4.2825446    4.2825446    4.2825446   -2594.8641   -8750.9705   -10976.788    11943.167    2108.3548   -6094.1893   -1161.1181    78.542676 
   61400    348.89199   -114.61867   0.31568481   -114.30298   -2028.0963    4.2785479    4.2785479    4.2785479   -2028.0963    3624.5831   -14919.404    5210.5318    2493.1641    1328.7345    10680.557    78.322979 
   61500    365.84587   -114.63432   0.33102503    -114.3033   -5017.5628    4.2824405    4.2824405    4.2824405   -5017.5628   -10959.801   -16048.417     11955.53   -1514.7013    7507.8804    6740.2886    78.536949 
   61600    525.24382   -114.77666   0.47525164    -114.3014    4986.7476    4.2761873    4.2761873    4.2761873    4986.7476   -2875.0281    2776.2064    15059.065   -1195.3347    7406.6311   -3309.8639    78.193409 
   61700    467.44175   -114.72579   0.42295112   -114.30284    -7796.153    4.2835483    4.2835483    4.2835483    -7796.153   -3785.1294   -14172.439   -5430.8903    5422.2835   -7498.2012    6121.8053    78.597914 
   61800    259.78544   -114.53888   0.23505932   -114.30382   -1156.4059    4.2808086    4.2808086    4.2808086   -1156.4059   -9718.4547   -9472.8772    15722.114    1497.5539    7975.6679     8830.638    78.447198 
   61900    462.73874   -114.72018   0.41869573   -114.30148    3426.3696    4.2758575    4.2758575    4.2758575    3426.3696   -8198.4405     4299.123    14178.426   -360.80149     9689.531   -665.23035    78.175321 
   62000    503.18529   -114.75569   0.45529263    -114.3004    1956.7185    4.2823977    4.2823977    4.2823977    1956.7185    -7690.782   -8554.1163    22115.054    454.43323   -1606.8028   -2661.0745    78.534595 
   62100    390.09943   -114.65661   0.35297016   -114.30364   -9910.7803    4.2819813    4.2819813    4.2819813   -9910.7803   -9964.6043   -19353.836   -413.90092     2261.188   -3916.9721    14285.371    78.511686 
   62200    319.40745   -114.59372   0.28900657   -114.30471   -962.16363    4.2761436    4.2761436    4.2761436   -962.16363   -7311.5873   -5431.6937    9856.7901   -1156.6354    10817.644    6430.8753    78.191015 
   62300    430.79101   -114.69173   0.38978876   -114.30194   -3384.3201    4.2875216    4.2875216    4.2875216   -3384.3201   -17584.869   -6805.5448    14237.454   -681.06112    6077.2612   -4976.8348    78.816832 
   62400    428.01132   -114.68838   0.38727364    -114.3011    5737.8213    4.2748305    4.2748305    4.2748305    5737.8213    1796.6928   -1060.0605    16476.832    6027.0146   -4417.0408   -1345.6578    78.119004 
   62500    286.51908   -114.56297   0.25924849   -114.30372   -7413.3365    4.2828897    4.2828897    4.2828897   -7413.3365   -9529.8793   -5123.9133   -7586.2168    537.98562    2865.5005    13701.956    78.561665 
   62600    329.18066   -114.60193   0.29784958   -114.30408    2605.0373    4.2807375    4.2807375    4.2807375    2605.0373   -8471.8944   -4683.5078    20970.514    -1892.136    7120.6874    4544.4898     78.44329 
   62700    512.88638   -114.76493   0.46407037   -114.30086    9288.0539     4.277495     4.277495     4.277495    9288.0539   -4348.6503   -148.17056    32360.983    374.16665    666.50674   -1729.2892    78.265171 
   62800    387.81808    -114.6534   0.35090595   -114.30249   -4099.9575    4.2843311    4.2843311    4.2843311   -4099.9575   -5129.5173   -15177.176    8006.8208    614.61979     -2560.69    7416.9398    78.641008 
   62900    259.70646   -114.53826   0.23498787   -114.30327    -4188.527    4.2787759    4.2787759    4.2787759    -4188.527   -2811.8296    -9444.756   -308.99545   -2813.4481    8638.0333    6763.8727    78.335501 
   63000    417.72787    -114.6798   0.37796896   -114.30183    2586.9555    4.2801672    4.2801672    4.2801672    2586.9555   -9814.5275   -3584.6371    21160.031   -2980.7645    2572.9669    1094.1946    78.411941 
   63100    423.13306   -114.68382   0.38285968   -114.30096    1776.3867    4.2829268    4.2829268    4.2829268    1776.3867     -1965.64   -5882.0544    13176.855    4441.0221   -5397.9528    4105.4363    78.563707 
   63200    258.63819   -114.53723   0.23402127   -114.30321   -7974.4043    4.2800152    4.2800152    4.2800152   -7974.4043   -1182.2661   -7341.5656   -15399.381     346.0449    1084.7487    13762.676    78.403585 
   63300    353.26336   -114.62323   0.31964011   -114.30359   -4453.9188    4.2799559    4.2799559    4.2799559   -4453.9188   -13821.517   -2494.9807    2954.7411   -1995.2632    15191.544   -433.32336    78.400328 
   63400    491.33545   -114.74585   0.44457064   -114.30128    8410.2728    4.2789026    4.2789026    4.2789026    8410.2728   -5283.9005   -694.33888    31209.058     35.34864   -767.54649   -3841.5699    78.342461 
   63500    400.91853   -114.66638   0.36275951   -114.30362    -3091.901    4.2821404    4.2821404    4.2821404    -3091.901   -5877.1454   -16462.318    13063.761   -1548.0766   -5874.3161    8465.0162    78.520436 
   63600    332.37707   -114.60507   0.30074176   -114.30433   -10982.064    4.2812409    4.2812409    4.2812409   -10982.064   -11385.545   -11393.711   -10166.935   -2235.5979    5386.2173    11494.466    78.470967 
   63700    421.36146   -114.68459    0.3812567   -114.30333     4126.041    4.2803923    4.2803923    4.2803923     4126.041   -6865.3957    -2847.817    22091.336   -2853.3076     8277.506    -4219.671    78.424315 
   63800     473.9466   -114.72939   0.42883685   -114.30055    2306.5695    4.2822573    4.2822573    4.2822573    2306.5695   -5338.8177   -6092.9876    18351.514    2933.1132   -1919.7326   -636.29396    78.526865 
   63900    292.14568   -114.56805   0.26433955   -114.30371    -1892.167    4.2786583    4.2786583    4.2786583    -1892.167    5718.9404   -6594.9596   -4800.4817   -951.63256     1364.459    6405.0425     78.32904 
   64000    346.65227   -114.61724   0.31365826   -114.30358   -7414.9331    4.2842132    4.2842132    4.2842132   -7414.9331   -9510.1495   -4363.3069   -8371.3428   -2804.8029     12227.61    6662.4135    78.634517 
   64100    531.71118   -114.78211   0.48110345   -114.30101    9010.6982    4.2763116    4.2763116    4.2763116    9010.6982    334.19901     327.2862    26370.609    2016.5653   -2011.6875   -2996.6018    78.200232 
   64200    464.36184   -114.72263   0.42016435   -114.30247    1440.0149    4.2827942    4.2827942    4.2827942    1440.0149   -2741.6779   -9996.3404    17058.063   -1991.6003   -5221.6753    6792.2357    78.556407 
   64300     278.7384   -114.55601   0.25220836    -114.3038   -2515.9058    4.2820962    4.2820962    4.2820962   -2515.9058   -10493.376   -7393.7089    10339.367   -4054.9324    7230.7496    7166.1221    78.518007 
   64400    526.54462   -114.77835   0.47642864   -114.30192   -2890.7897    4.2775938    4.2775938    4.2775938   -2890.7897   -7185.7767   -5263.5448    3776.9525   -4519.7721    11106.995    -267.8085    78.270595 
   64500    491.28191    -114.7455   0.44452219   -114.30098    5118.5703    4.2840919    4.2840919    4.2840919    5118.5703   -5084.3874   -4375.9855    24816.084    2109.5602   -6679.0191    1505.3347    78.627838 
   64600    294.43187   -114.57006   0.26640814   -114.30365   -566.23488    4.2808472    4.2808472    4.2808472   -566.23488   -4372.6402   -13260.952    15934.887     850.9921    -5689.932    8371.2144    78.449319 
   64700    328.68643   -114.60074   0.29740239   -114.30334   -4693.6437    4.2777344    4.2777344    4.2777344   -4693.6437   -5674.8116   -2283.9633   -6122.1562     -3674.65    10459.941    6775.9419    78.278311 
   64800    548.39453   -114.79735    0.4961989   -114.30116   -3555.7913    4.2845493    4.2845493    4.2845493   -3555.7913   -8140.8363   -8299.2139    5772.6762    2281.8672    6597.7613   -4796.7753    78.653026 
   64900    468.49181   -114.72602   0.42390124   -114.30212    7926.4336    4.2757091    4.2757091    4.2757091    7926.4336    795.88439   -4775.8436     27759.26   -2517.7608   -3147.3547    6800.6995    78.167181 
   65000    241.57954   -114.52408   0.21858625    -114.3055   -2321.7007     4.283308     4.283308     4.283308   -2321.7007   -11999.601   -13431.645    18466.144   -3071.0678    1777.9584    8656.9881    78.584685 
   65100    434.63687   -114.69548   0.39326858   -114.30221   -5003.1888    4.2825163    4.2825163    4.2825163   -5003.1888   -10283.673   -7018.9281     2293.035   -2723.2975    8213.0682    1371.1362    78.541118 
   65200     541.1294    -114.7891   0.48962525   -114.29947    6804.3801    4.2772203    4.2772203    4.2772203    6804.3801    -1141.925    2887.4298    18667.636    1003.1706   -3662.0377    -2873.766    78.250095 
   65300    348.61892    -114.6176   0.31543772   -114.30216   -640.11292    4.2834806    4.2834806    4.2834806   -640.11292   -6528.9099   -15770.754    20379.325    405.92592    1107.6072    4126.1864    78.594183 
   65400    132.10084   -114.42387   0.11952762   -114.30434    2445.9103    4.2815395    4.2815395    4.2815395    2445.9103   -6264.5188   -3826.3057    17428.555    -3922.565    10076.256     1525.568    78.487383 
   65500    537.82226   -114.78695   0.48663289   -114.30032   -5382.9022    4.2796875    4.2796875    4.2796875   -5382.9022   -10074.281   -5667.2429   -407.18298    4836.5336    7228.6583   -853.71577    78.385578 
   65600    511.35257   -114.76365   0.46268255   -114.30097    2924.0356    4.2793193    4.2793193    4.2793193    2924.0356    2273.7442   -3541.5725    10039.935   -306.93573   -8141.1707    2338.1301    78.365351 
   65700    255.63849   -114.53575   0.23130708   -114.30444   -307.90851    4.2823617    4.2823617    4.2823617   -307.90851    -11777.86   -9306.2131    20160.348   -5573.2793    1932.6234     9145.754    78.532612 
   65800    258.79581   -114.53832   0.23416389   -114.30416   -1311.1767    4.2808208    4.2808208    4.2808208   -1311.1767   -20085.975   -6956.1765    23108.622    328.49508    9630.5008   -2164.9766    78.447868 
   65900    570.09942   -114.81651   0.51583793   -114.30067    1098.6326    4.2781814    4.2781814    4.2781814    1098.6326   -2766.0049   -438.85657    6500.7593    1849.8752     2529.156   -438.08906    78.302852 
   66000    483.38089   -114.73889   0.43737319   -114.30152   -3829.1786    4.2854297    4.2854297    4.2854297   -3829.1786   -9258.2716   -12577.575    10348.311    278.07638   -2099.0498    3356.4066    78.701519 
   66100    202.59398   -114.48794   0.18331129   -114.30462    2516.8741     4.276419     4.276419     4.276419    2516.8741   -7222.6217   -4703.3691    19476.613   -3249.0649     5642.118    8853.1638     78.20612 
   66200     333.4896   -114.60607    0.3017484   -114.30433   -2906.6034    4.2831615    4.2831615    4.2831615   -2906.6034    -9687.112   -13007.299    13974.601    5517.7564    5252.7741   -428.02545    78.576622 
   66300    587.64105   -114.83189   0.53170997   -114.30018   -1777.8963    4.2819457    4.2819457    4.2819457   -1777.8963   -903.10741   -7732.5891    3302.0077    3018.9271   -4934.5573    211.37261    78.509724 
   66400    475.76561   -114.73233   0.43048273   -114.30184   -132.99502    4.2756379    4.2756379    4.2756379   -132.99502    6185.2659   -10445.313    3861.0625   -4974.5704    5994.4573    8752.0168    78.163278 
   66500    164.52798   -114.45429   0.14886837   -114.30542   -1091.6875    4.2858202    4.2858202    4.2858202   -1091.6875   -13987.463   -12527.163    23239.564    2147.2368      9757.22    578.47922    78.723035 
   66600    474.40923    -114.7321   0.42925544   -114.30284    1650.1722    4.2778707    4.2778707    4.2778707    1650.1722   -5431.0414   -8280.0664    18661.624    1548.2615    3578.7167    1345.6838    78.285793 
   66700    618.14026   -114.86008    0.5593063   -114.30077    2888.6752    4.2786426    4.2786426    4.2786426    2888.6752    6467.1078   -6937.2154    9136.1334    1275.9247   -6726.2652    1305.7345     78.32818 
   66800    381.00267   -114.64882   0.34473922   -114.30408   -8485.5032    4.2857245    4.2857245    4.2857245   -8485.5032   -12104.839   -13234.199   -117.47164    1653.7336    7423.5273    3630.6741    78.717762 
   66900     223.6137   -114.50776   0.20233037   -114.30543    4108.4695    4.2759784    4.2759784    4.2759784    4108.4695   -10610.829   -5130.8035    28067.041    5871.2633    8494.6417   -5003.8376    78.181953 
   67000    536.61883   -114.78699     0.485544   -114.30144   -1685.6772    4.2843307    4.2843307    4.2843307   -1685.6772   -7078.0463   -14563.918    16584.933    2051.3505    249.78151   -2147.4191     78.64099 
   67100    551.06189   -114.80048   0.49861238   -114.30187    2567.0908    4.2783823    4.2783823    4.2783823    2567.0908    3963.2281   -4797.0961    8535.1403   -4756.2335    -618.1473    4059.8557    78.313887 
   67200    347.04137   -114.61875   0.31401032   -114.30474   -5855.1676    4.2795483    4.2795483    4.2795483   -5855.1676   -11205.699   -6443.7284    83.925185    6621.1714    8894.7542     4014.604    78.377932 
   67300    284.26469   -114.56271   0.25720867    -114.3055    2386.5015    4.2834749    4.2834749    4.2834749    2386.5015   -8711.2796   -14076.832    29947.616    4365.1042    3722.7396   -2722.3326    78.593872 
   67400    552.62432   -114.80013   0.50002609   -114.30011    10114.878    4.2774005    4.2774005    4.2774005    10114.878    4416.6709    4747.3787    21180.584   -2599.6211   -7214.1804   -868.49503    78.259981 
   67500    524.49559   -114.77716   0.47457463   -114.30259   -3687.8044    4.2808753    4.2808753    4.2808753   -3687.8044   -5162.4016   -12091.624    6190.6125    3276.0605     6523.291    476.63182    78.450866 
   67600    224.85159   -114.51024   0.20345044   -114.30679   -3263.0233    4.2798548    4.2798548    4.2798548   -3263.0233   -9539.3313   -2668.0229    2418.2844    5330.9249    9167.6852    3952.0768    78.394771 
   67700    379.95984   -114.64931   0.34379565   -114.30552   -519.82601    4.2810992    4.2810992    4.2810992   -519.82601   -10036.013   -9798.7881    18275.323    2394.5919    2003.8196   -5976.7887    78.463174 
   67800     519.6558   -114.77161   0.47019549   -114.30141    2149.7738    4.2812139    4.2812139    4.2812139    2149.7738   -3517.8214   -11589.805    21556.947   -2977.0764   -7654.3541    3237.8843    78.469484 
   67900    340.90528   -114.61251   0.30845826   -114.30405   -543.47052    4.2787413    4.2787413    4.2787413   -543.47052   -9341.3161   -2603.0547    10313.959    3988.1408    8263.7598    1857.4006    78.333603 
   68000    303.45477   -114.57957   0.27457225     -114.305   -9212.1011    4.2828822    4.2828822    4.2828822   -9212.1011   -19642.533    -12944.77    4951.0004    3550.6752    6290.5756    73.612569    78.561252 
   68100    438.57383   -114.69944   0.39683081   -114.30261    4646.5228    4.2783871    4.2783871    4.2783871    4646.5228    -2129.801   -3079.2734    19148.643   -2443.1398   -340.30871   -4106.2028     78.31415 
   68200     424.5168   -114.68567   0.38411172   -114.30156     6334.642    4.2809795    4.2809795    4.2809795     6334.642   -7503.7841   -8308.1978    34815.908    4916.2833    -203.7031    1372.9084     78.45659 
   68300    331.33096   -114.60358   0.29979522   -114.30379   -7963.2797    4.2817305    4.2817305    4.2817305   -7963.2797   -17610.086   -4863.3438   -1416.4089    4451.3213    9451.9506    1176.0441     78.49789 
   68400    312.56941   -114.58704   0.28281937   -114.30422   -1670.5181    4.2767566    4.2767566    4.2767566   -1670.5181   -4305.1509   -6276.4136    5570.0104    623.06642    2007.1197   -7636.8135    78.224647 
   68500    428.13899   -114.68973   0.38738916   -114.30234    677.03631    4.2854977    4.2854977    4.2854977    677.03631   -12936.752    -5898.231    20866.091   -1890.6572    -6191.965   -724.20319    78.705266 
   68600    388.60027   -114.65416   0.35161369   -114.30254    6301.9194    4.2767283    4.2767283    4.2767283    6301.9194   -6888.1437   -1118.7523    26912.654    4431.3576    5509.9739    3672.8461    78.223092 
   68700    348.62233   -114.61924   0.31544081    -114.3038   -8145.6442    4.2819787    4.2819787    4.2819787   -8145.6442   -15184.606   -8205.5296   -1046.7971    3029.9385    8089.1475    18.326148     78.51154 
   68800    350.39708   -114.61995   0.31704664   -114.30291    -166.4276    4.2837995    4.2837995    4.2837995    -166.4276   -12434.805   -819.05028    12754.573   -4869.6654   -1810.1169   -7216.2287    78.611739 
   68900    514.10439   -114.76488   0.46517246    -114.2997    4895.2213    4.2763732    4.2763732    4.2763732    4895.2213   -4899.6813   -5959.0243     25544.37    5586.2249   -6000.8883   -848.81077    78.203609 
   69000    338.09129   -114.60874    0.3059121   -114.30283   -2446.4854    4.2831083    4.2831083    4.2831083   -2446.4854   -15196.145    -5751.448    13608.136    3261.7095    8222.7554    3761.7466    78.573692 
   69100    343.56274   -114.61553   0.31086278   -114.30467   -7636.0682    4.2785204    4.2785204    4.2785204   -7636.0682   -11448.173   -5621.0987    -5838.933   -3051.2257    4783.7249   -4115.7383     78.32147 
   69200    461.09587   -114.72045   0.41720923   -114.30324   -4875.1554    4.2820604    4.2820604    4.2820604   -4875.1554   -8294.2325   -9676.2018    3344.9681   -2008.8854   -3163.6453   -8457.6725    78.516034 
   69300    421.48226   -114.68262   0.38136601   -114.30126    2565.7637    4.2812456    4.2812456    4.2812456    2565.7637   -8724.0432   -8031.2556     24452.59    892.21732    3908.3971    3853.7063    78.471223 
   69400    355.44701   -114.62456   0.32161592   -114.30295   -2700.3881    4.2789137    4.2789137    4.2789137   -2700.3881   -12162.106     -4052.16    8113.1014    2909.9806    8738.6152   -1310.9055    78.343071 
   69500    410.00498   -114.67385   0.37098112   -114.30287   -6292.3862    4.2829994    4.2829994    4.2829994   -6292.3862   -7087.3276   -10108.336    -1681.495   -4473.3219   -3352.4627    -3820.032    78.567698 
   69600    517.77979   -114.76911   0.46849804   -114.30061    4016.2377    4.2798395    4.2798395    4.2798395    4016.2377    1128.0992   -6180.6977    17101.311    1912.3471   -2287.2894   -4186.4756     78.39393 
   69700    387.63172   -114.65226   0.35073732   -114.30152    6538.8632    4.2809703    4.2809703    4.2809703    6538.8632   -8090.8033     413.1623    27294.231     1050.115    9589.3775    5881.4866    78.456087 
   69800    368.09425    -114.6367   0.33305941   -114.30364    -3979.548    4.2791537    4.2791537    4.2791537    -3979.548   -3403.0335   -6996.2385   -1539.3721   -1591.5653    5409.9449   -8199.2753     78.35625 
   69900    410.49444    -114.6749     0.371424   -114.30348   -1157.4153    4.2804722    4.2804722    4.2804722   -1157.4153    3930.2047   -1848.1103   -5554.3403   -170.02274   -5009.7041   -6351.8064    78.428705 
   70000    527.47393   -114.77845    0.4772695   -114.30118    1536.2478    4.2819473    4.2819473    4.2819473    1536.2478    -7384.547   -3975.6015    15968.892   -1552.8589   -966.34638     1489.449    78.509816 
   70100    300.74125    -114.5757     0.272117   -114.30358    7462.4468    4.2782123    4.2782123    4.2782123    7462.4468   -1435.3524   -1668.1221    25490.815    1145.7692    9875.7112     3933.501    78.304551 
   70200    337.73847   -114.60889   0.30559286    -114.3033   -6494.8422    4.2839812    4.2839812    4.2839812   -6494.8422   -8306.9975   -9339.6285   -1837.9006   -5071.3563   -1271.7625    -6704.328    78.621743 
   70300    533.13387   -114.78266   0.48239073   -114.30027    1720.0444    4.2789548    4.2789548    4.2789548    1720.0444   -1019.6388   -2674.4478    8854.2197     2506.959   -1540.4353   -5446.2403     78.34533 
   70400    418.64545   -114.67985    0.3787992   -114.30105    5496.9869    4.2798512    4.2798512    4.2798512    5496.9869   -5648.6005   -3376.9781    25516.539    2319.7382    5463.3705    4701.1758    78.394573 
   70500    262.35242   -114.54103   0.23738198   -114.30365   -5978.5108    4.2832431    4.2832431    4.2832431   -5978.5108   -16707.417   -8674.2406    7446.1254   -4482.3689    6822.9509   -3133.0429     78.58111 
   70600    396.19353    -114.6613   0.35848423   -114.30282   -3033.0858    4.2766005    4.2766005    4.2766005   -3033.0858    2399.4485   -7143.4362   -4355.2696   -608.92987   -4738.8089   -12865.061     78.21608 
   70700    519.91884   -114.77078    0.4704335   -114.30035    -5877.369    4.2840603    4.2840603    4.2840603    -5877.369   -11996.749   -12309.147    6673.7887   -2074.7729    1503.3515    357.60079    78.626099 
   70800    260.68555   -114.53857   0.23587376    -114.3027   -235.30636     4.279276     4.279276     4.279276   -235.30636   -15107.109   -663.42569    15064.616    1087.4983    13754.369    4361.7868    78.362974 
   70900    312.30791   -114.58642   0.28258276   -114.30384   -6446.1962    4.2799128    4.2799128    4.2799128   -6446.1962   -8169.9234   -12327.626    1158.9602   -3808.1666    405.45275    -7373.261    78.397958 
   71000    474.01582   -114.72933   0.42889947   -114.30044   -2610.2957    4.2839946    4.2839946    4.2839946   -2610.2957   -6436.1876   -9297.3785     7902.679   -72.041373   -3372.6967   -6493.2252    78.622482 
   71100    458.28837   -114.71416   0.41466895   -114.29949    604.90001    4.2786966    4.2786966    4.2786966    604.90001   -9653.5227    1764.8014    9703.4213     1720.535    6794.7253    2427.2825    78.331146 
   71200    258.69371   -114.53736   0.23407151   -114.30329   -2409.7417    4.2811869    4.2811869    4.2811869   -2409.7417    -15646.57   -7781.4462    16198.791   -4104.4918    8350.4265   -3507.6439    78.467994 
   71300    339.26301   -114.61046    0.3069723   -114.30349    1563.2134    4.2788756    4.2788756    4.2788756    1563.2134    4393.8666   -9420.2063    9715.9799    185.37621    -3359.952   -13394.472    78.340976 
   71400    540.75918   -114.79032   0.48929027   -114.30103    -4874.758    4.2822405    4.2822405    4.2822405    -4874.758   -9232.2768   -2827.4034    -2564.594   -2335.6226    1636.4147    1843.4868    78.525941 
   71500    365.73256   -114.63371    0.3309225   -114.30279   -587.17158    4.2802053    4.2802053    4.2802053   -587.17158   -12030.543   -3606.4358    13875.465   -448.61043    9022.4859    1994.0191    78.414035 
   71600    213.37588   -114.49741   0.19306698   -114.30434    4085.4509    4.2800166    4.2800166    4.2800166    4085.4509   -38.025597   -11631.787    23926.165   -3587.6567    2487.4734   -7863.8068    78.403666 
   71700    466.45516   -114.72333   0.42205843   -114.30127   -2068.0996    4.2828459    4.2828459    4.2828459   -2068.0996   -3905.5738   -7372.4834    5073.7584     -249.555    -4762.719   -10752.659    78.559255 
   71800    570.04679   -114.81529   0.51579032    -114.2995    2020.9083    4.2777808    4.2777808    4.2777808    2020.9083    -1571.577   -2578.1721    10212.474    2377.2441    7750.0762    5259.2194    78.280858 
   71900    260.19317   -114.53824   0.23542825   -114.30281    3760.5667    4.2832002    4.2832002    4.2832002    3760.5667   -12385.173   -8423.2281    32090.102   -5227.8197    5790.0836   -2389.8499    78.578753 
   72000    371.54451   -114.63914   0.33618128   -114.30296   -1968.8487    4.2796179    4.2796179    4.2796179   -1968.8487    201.49307   -17341.565    11233.526    1864.9246    593.67608   -13905.848    78.381755 
   72100    559.23995   -114.80701   0.50601206   -114.30099    574.17523    4.2777868    4.2777868    4.2777868    574.17523      2761.22   -6297.8292    5259.1349   -857.03116   -3415.5509   -4872.7354    78.281189 
   72200    452.19429   -114.71072   0.40915489   -114.30156   -7111.7441    4.2859017    4.2859017    4.2859017   -7111.7441   -18152.079   -9010.5998    5827.4463   -1770.1326    8277.1422    3613.6472    78.727527 
   72300     259.8319    -114.5384   0.23510137    -114.3033     1804.806    4.2759593    4.2759593    4.2759593     1804.806   -1708.7771   -12381.595     19504.79   -2102.8109    4505.0607   -11404.162    78.180904 
   72400    440.25115   -114.70054   0.39834849   -114.30219   -3024.8195    4.2836823    4.2836823    4.2836823   -3024.8195   -1747.3385   -16171.577    8844.4573    519.53388   -765.29022   -7942.5476    78.605289 
   72500    590.70525    -114.8337   0.53448253   -114.29921   -3435.1319    4.2824572    4.2824572    4.2824572   -3435.1319   -11413.672    -5585.891    6694.1669    3407.1447     8280.881     2042.849    78.537866 
   72600    385.74194   -114.64989   0.34902742   -114.30086   -244.01193    4.2769349    4.2769349    4.2769349   -244.01193   -4866.4036   -3640.1099    7774.4778   -5117.7803    4920.2515   -3938.2082     78.23443 
   72700     298.8388     -114.574   0.27039562    -114.3036     94.66756    4.2828415    4.2828415    4.2828415     94.66756   -3575.1199   -20949.927     24809.05    989.44707   -481.84861   -16791.673    78.559013 
   72800    495.88416    -114.7498   0.44868641   -114.30112    4441.5083    4.2793872    4.2793872    4.2793872    4441.5083   -671.68201    2119.7231    11876.484   -17.901346   -3650.6674    -237.2192    78.369083 
   72900    549.25582   -114.79754   0.49697821   -114.30056   -4717.5717    4.2806748    4.2806748    4.2806748   -4717.5717    -9774.626   -5250.2328     872.1436   -1209.3446    10303.164    2888.4507    78.439841 
   73000    260.66262   -114.53972   0.23585301   -114.30386   -1783.1748    4.2816959    4.2816959    4.2816959   -1783.1748   -5028.0834   -11162.673    10841.232   -1763.6659    5251.4055    -11484.15    78.495986 
   73100    309.76725   -114.58307   0.28028392   -114.30279    4149.8113     4.279715     4.279715     4.279715    4149.8113    833.65903   -10536.411    22152.186    31.504311   -1521.5527   -9617.5189     78.38709 
   73200    615.64935   -114.85644   0.55705247   -114.29939   -3571.4996    4.2816198    4.2816198    4.2816198   -3571.4996    -10482.74   -6969.5101    6737.7511    2764.3518    2365.5537    4001.3349      78.4918 
   73300    364.58562   -114.63252   0.32988473   -114.30264    2701.2868    4.2808032    4.2808032    4.2808032    2701.2868   -65.552995    -1073.344    9242.7572   -4001.6652    6256.8021   -2863.3198    78.446898 
   73400     282.5183   -114.55945    0.2556285   -114.30382   -2809.2983    4.2813094    4.2813094    4.2813094   -2809.2983   -4406.9814   -20872.912    16851.999    2973.7502    132.33765   -19725.246     78.47473 
   73500    446.69328   -114.70631   0.40417747   -114.30214    4641.9972    4.2782766    4.2782766    4.2782766    4641.9972    1792.7513   -5370.1534    17503.394    1095.9839    766.83049   -4009.0476     78.30808 
   73600      494.627   -114.74903    0.4475489   -114.30148   -808.21332    4.2827582    4.2827582    4.2827582   -808.21332   -6468.3716   -6274.5293    10318.261   -3331.3337    2619.6622    4404.9761    78.554428 
   73700    294.58603   -114.57009   0.26654763   -114.30355   -9863.4715    4.2809796    4.2809796    4.2809796   -9863.4715   -3117.2307   -17122.193   -9350.9908   -554.31271    6764.4777   -13147.735    78.456597 
   73800    294.25408   -114.57008   0.26624728   -114.30384     1715.084    4.2786869    4.2786869    4.2786869     1715.084    1772.2951   -16594.784    19967.741    262.34916   -4595.3159   -12448.221    78.330613 
   73900    524.45734   -114.77409   0.47454003   -114.29955   -1777.9834    4.2858218    4.2858218    4.2858218   -1777.9834   -15221.158   -10488.562     20375.77    2882.2204     3818.617    3954.9583    78.723124 
   74000    360.40052   -114.62801   0.32609797   -114.30191   -336.43532    4.2768531    4.2768531    4.2768531   -336.43532    2229.8653   -3346.5896    107.41837    -2749.204    6517.8196    -8914.801    78.229942 
   74100    312.36672     -114.586   0.28263597   -114.30336   -5938.5762     4.282303     4.282303     4.282303   -5938.5762   -7854.4659   -13980.273    4019.0102    3000.1781    1848.1016   -14203.293    78.529383 
   74200    380.31643   -114.64566    0.3441183   -114.30154    8552.8973    4.2826619    4.2826619    4.2826619    8552.8973   -6135.3329   -2245.4689    34039.494    1268.8771   -2095.4902    1264.7789    78.549128 
   74300    532.94033   -114.78227   0.48221561   -114.30005    2938.2205    4.2757718    4.2757718    4.2757718    2938.2205   -1857.9835   -1384.2704    12056.915   -2967.9403   -1718.7983    7662.4113    78.170622 
   74400    287.82575   -114.56407   0.26043079   -114.30364   -10732.097     4.285853     4.285853     4.285853   -10732.097   -9888.0225   -9631.7565   -12676.513    688.89828    8384.1304   -15625.586    78.724847 
   74500    305.75561   -114.58054    0.2766541   -114.30389    4781.4984     4.278177     4.278177     4.278177    4781.4984    17.206572   -8803.3555    23130.644    257.37044    249.09742   -9202.0094    78.302609 
   74600    497.56261   -114.75105    0.4502051   -114.30084    922.99994     4.281889     4.281889     4.281889    922.99994   -10896.318   -7027.0867    20692.404     1372.668    3590.7311    8221.4252     78.50661 
   74700    369.09658   -114.63692   0.33396635   -114.30295    -2752.651    4.2826668    4.2826668    4.2826668    -2752.651   -6599.2757    2677.3255   -4336.0029   -2593.4976    4402.7567   -427.36994      78.5494 
   74800    302.27982   -114.57717   0.27350914   -114.30366   -924.59212    4.2788499    4.2788499    4.2788499   -924.59212   -520.57581   -11679.907    9426.7064    3142.0602    1432.3553   -20617.006    78.339565 
   74900    418.25029   -114.68125   0.37844166   -114.30281    2673.9273    4.2799582    4.2799582    4.2799582    2673.9273   -2629.0799     -10392.5    21043.362    1799.7208     -3008.51   -2129.5626    78.400453 
   75000    513.31715   -114.76666   0.46446014    -114.3022    -2411.976    4.2815611    4.2815611    4.2815611    -2411.976   -8885.4923   -7250.7206    8900.2849   -3006.9327    903.91444     8946.323    78.488573 
   75100    295.17777   -114.57156   0.26708305   -114.30448   -2200.4144    4.2803498    4.2803498    4.2803498   -2200.4144   -1685.7325   -10806.312    5890.8013     2185.889     6604.646    -9967.656    78.421978 
   75200    365.59185   -114.63472   0.33079519   -114.30393   -7056.6514    4.2811897    4.2811897    4.2811897   -7056.6514   -4610.4719   -16482.492   -76.989973    -900.2948    2484.4339   -14893.683    78.468151 
   75300    426.55642   -114.68723   0.38595722   -114.30128    3072.6705     4.281041     4.281041     4.281041    3072.6705   -5057.0745   -7134.8757    21409.962   -468.14396   -5034.8786    6034.8411    78.459976 
   75400    380.94114   -114.64692   0.34468355   -114.30224   -3146.3822    4.2819355    4.2819355    4.2819355   -3146.3822   -4394.9983   -8734.7332    3690.5849    -798.7186    4183.3269   -2446.1216    78.509168 
   75500    346.75003   -114.61604   0.31374671    -114.3023   -4239.9804    4.2784285    4.2784285    4.2784285   -4239.9804   -825.12502    -12311.34    416.52393    2898.4436    3487.6738    -15719.53    78.316423 
   75600    413.23187   -114.67543   0.37390088   -114.30153    708.88187    4.2848497    4.2848497    4.2848497    708.88187   -9343.2832   -14566.438    26036.367    1355.6302     1429.895    125.94069    78.669572 
   75700     483.2661   -114.73826   0.43726932   -114.30099    6914.4393    4.2762124    4.2762124    4.2762124    6914.4393    320.23165   -2466.0169    22889.103   -2952.6469   -488.46016    4206.5105    78.194787 
   75800    341.21239   -114.61232   0.30873614   -114.30359   -4401.8196    4.2821176    4.2821176    4.2821176   -4401.8196   -9651.2745   -1399.3952    -2154.789    2510.3486    4322.2037   -9942.1124    78.519184 
   75900    333.89185   -114.60551   0.30211236    -114.3034   -3301.2708    4.2842367    4.2842367    4.2842367   -3301.2708   -12245.418   -3965.3829    6306.9891    -225.6337    3308.0482   -6162.9271    78.635812 
   76000    493.12518   -114.74655   0.44619003   -114.30036    9221.3095    4.2754123    4.2754123    4.2754123    9221.3095   -1206.1425   -2648.3136    31518.385   -1670.7763   -2698.1801    10878.704    78.150904 
   76100    421.40437   -114.68368   0.38129553   -114.30238   -7955.2508    4.2868526    4.2868526    4.2868526   -7955.2508   -16124.662    -7792.241    51.150657    21.248938    5839.9245   -3400.6837    78.779941 
   76200    300.08608    -114.5752   0.27152419   -114.30367   -2639.1969     4.277558     4.277558     4.277558   -2639.1969   -2697.8717    -6374.636     1154.917    2844.7243    4605.6862   -17128.665     78.26863 
   76300    507.53942   -114.76115   0.45923233   -114.30192   -508.37089    4.2810528    4.2810528    4.2810528   -508.37089   -7432.6265   -4644.4118    10551.926    25.480078   -775.93688    587.33167    78.460622 
   76400    424.11389   -114.68517   0.38374716   -114.30142    9747.8319     4.282231     4.282231     4.282231    9747.8319   -10900.957     6165.391    33979.061   -632.46844   -1753.7185    13544.525    78.525418 
   76500    357.96001   -114.62682   0.32388974   -114.30293   -428.77651    4.2792053    4.2792053    4.2792053   -428.77651   -8506.7794    1916.7713    5303.6786    3255.0347    6247.8888   -9514.2252    78.359087 
   76600    407.48338    -114.6713   0.36869953    -114.3026   -4359.5051    4.2825053    4.2825053    4.2825053   -4359.5051   -9709.3047   -8181.8665    4812.6559   -651.39069    2992.8753   -12144.758    78.540509 
   76700     582.4162   -114.82739   0.52698242   -114.30041   -800.65721    4.2809803    4.2809803    4.2809803   -800.65721    -8751.784   -7089.3001    13439.112   -1487.2414   -2416.9399    2911.4576    78.456636 
   76800    363.81373   -114.63189   0.32918631   -114.30271    5312.9745    4.2792442    4.2792442    4.2792442    5312.9745   -6844.7066    390.40863    22393.221    1368.6294    2636.3443    6533.6769    78.361225 
   76900    376.32987   -114.64427   0.34051117   -114.30376   -12269.276    4.2836258    4.2836258    4.2836258   -12269.276   -10281.686   -8043.0873   -18483.053    2653.1037    7448.2672   -15158.377     78.60218 
   77000    415.83994   -114.67865   0.37626072   -114.30239    3093.2465    4.2779714    4.2779714    4.2779714    3093.2465   -1290.0577    3957.0884    6612.7087   -2646.7198   -1536.0427   -6518.5268    78.291325 
   77100     524.3772   -114.77513   0.47446751   -114.30066    3366.9023    4.2821521    4.2821521    4.2821521    3366.9023   -9650.9878   -3011.7031    22763.398   -617.96442    1273.7131    5926.4817     78.52108 
   77200     389.9879   -114.65711   0.35286924   -114.30424   -1795.5867    4.2801862    4.2801862    4.2801862   -1795.5867   -5360.7601   -5344.7558    5318.7557     3064.892    6022.6873   -5767.5741    78.412983 
   77300    355.89038   -114.62594    0.3220171   -114.30392   -2877.2994    4.2824592    4.2824592    4.2824592   -2877.2994   -8171.1901   -1437.0917    976.38348   -420.86239    2046.2646   -7906.5403    78.537974 
   77400    570.75643   -114.81726   0.51643241   -114.30083    3449.3545    4.2804059    4.2804059    4.2804059    3449.3545   -5121.4832   -2585.5796    18055.126   -886.68917   -2935.3901   -316.32305    78.425062 
   77500    409.86648    -114.6732   0.37085581   -114.30234    7790.9595    4.2791509    4.2791509    4.2791509    7790.9595   -6249.9911    3967.3845    25655.485    272.31948    4079.4634   -306.66431    78.356098 
   77600    245.36667   -114.52609   0.22201292   -114.30408   -7432.7842    4.2853398    4.2853398    4.2853398   -7432.7842   -12518.956   -4867.8186   -4911.5777    2987.6691    8714.9746   -14598.449    78.696569 
   77700    425.37973   -114.68751   0.38489251   -114.30262    2698.2608    4.2763689    4.2763689    4.2763689    2698.2608   -150.86446     3423.036    4822.6108   -3514.9174   -5040.9936   -2620.5289    78.203372 
   77800    582.01805   -114.82679   0.52662216   -114.30017   -3095.0575    4.2839007    4.2839007    4.2839007   -3095.0575   -10293.518   -6678.6825    7687.0281    895.27873   -1294.9633     5691.295    78.617309 
   77900    253.66252   -114.53283   0.22951917   -114.30332   -1002.6915    4.2819531    4.2819531    4.2819531   -1002.6915   -9194.3402    -9944.616    16130.882    2577.9141    5538.4203   -8246.4256    78.510135 
   78000    326.69229   -114.59838   0.29559805   -114.30278   -5688.8244    4.2791025    4.2791025    4.2791025   -5688.8244   -7915.2081    182.45623   -9333.7212   -2303.6386    4777.2703   -15783.495    78.353439 
   78100    473.34064   -114.72833   0.42828856   -114.30004    1820.1301    4.2838564    4.2838564    4.2838564    1820.1301   -6995.6947   -1815.2235    14271.308    -710.5704   -3109.0266    1290.1524     78.61487 
   78200    440.23534   -114.69881   0.39833419   -114.30047    440.93913    4.2802601    4.2802601    4.2802601    440.93913   -7756.2211    3122.5582    5956.4803    1063.9261    2877.0326    5014.4524    78.417044 
   78300    188.80019   -114.47555   0.17083038   -114.30472   -1567.8589    4.2819849    4.2819849    4.2819849   -1567.8589   -4173.3032   -10790.272    10259.999    2463.0579    3945.3857   -8565.7569    78.511881 
   78400    355.92321   -114.62478    0.3220468   -114.30274   -2467.9153    4.2816076    4.2816076    4.2816076   -2467.9153   -367.70737   -11282.933    4246.8946   -4688.6804   -4385.5288    -8536.252    78.491131 
   78500    551.97151   -114.79905   0.49943543   -114.29962   -1526.1219    4.2799051    4.2799051    4.2799051   -1526.1219    1808.4023     -4631.55   -1755.2182   -449.60687   -387.03123     770.3397    78.397539 
   78600    375.58961    -114.6419   0.33984137   -114.30206   -5089.6358    4.2844786    4.2844786    4.2844786   -5089.6358   -6151.5108   -9913.0039     795.6074    1807.5768    11096.902   -2238.3319    78.649131 
   78700    154.84932   -114.44409   0.14011091   -114.30398    8530.0507    4.2789984    4.2789984    4.2789984    8530.0507    651.50793    4750.3619    20188.282   -3054.9695    2094.0408   -6080.2982     78.34772 
   78800    414.42799   -114.67567   0.37498316   -114.30069   -1247.0975    4.2849207    4.2849207    4.2849207   -1247.0975   -7480.6783   -680.18854    4419.5745    1323.3049   -5381.5735    2258.1373    78.673482 
   78900    547.62227   -114.79416   0.49550014   -114.29866    176.27738    4.2790847    4.2790847    4.2790847    176.27738    -97.20912    3949.6084   -3323.5671    1655.4602   -771.17451   -279.05105     78.35246 
   79000    283.63545   -114.55855   0.25663932   -114.30191   -1966.7053    4.2834178    4.2834178    4.2834178   -1966.7053   -4208.9202   -7519.6394    5828.4437    1006.6943     9757.517   -12073.905    78.590729 
   79100    303.48083   -114.57696   0.27459583   -114.30236   -2441.3759     4.280969     4.280969     4.280969   -2441.3759   -7645.9399   -12881.662    13203.474   -4500.3915    1026.2819   -6944.9826    78.456016 
   79200    483.14061   -114.73685   0.43715577   -114.29969   -718.43891    4.2810174    4.2810174    4.2810174   -718.43891   -7157.7806   -686.36323    5688.8271    946.21883     -4176.92    6542.9259    78.458675 
   79300    453.06255   -114.71009   0.40994051   -114.30015   -3072.5253    4.2835524    4.2835524    4.2835524   -3072.5253    -11583.28    4499.4541   -2133.7496    1804.1572    8583.4259   -1276.1727    78.598138 
   79400    271.45516   -114.54855   0.24561833   -114.30293   -4060.8078     4.280176     4.280176     4.280176   -4060.8078   -8280.2914   -3172.0939   -730.03798   -3530.6398   -556.22124    -16236.72    78.412422 
   79500    325.52989   -114.59714   0.29454628    -114.3026     1983.502    4.2805827    4.2805827    4.2805827     1983.502   -7283.2808    -6157.367    19391.154     608.3766   -1790.5902   -5636.1972    78.434777 
   79600    531.60352    -114.7805   0.48100603   -114.29949    -3018.508    4.2850431    4.2850431    4.2850431    -3018.508   -9768.5684   -9054.8683    9767.9127    2531.7228   -617.53515    3131.1535    78.680221 
   79700    455.03834   -114.71294   0.41172825   -114.30121   -3550.7615    4.2765093    4.2765093    4.2765093   -3550.7615    1232.4955   -7957.1099   -3927.6702   -2640.3542    8842.6515   -6115.2375    78.211077 
   79800    256.89646   -114.53662   0.23244531   -114.30418   -4942.8003     4.286476     4.286476     4.286476   -4942.8003   -7689.1059   -16756.395    9617.0996   -5985.1336   -4439.2061   -8364.8624    78.759181 
   79900     446.7868   -114.70584   0.40426208   -114.30158    6459.5219     4.279015     4.279015     4.279015    6459.5219   -7191.5569    2428.8093    24141.313    1985.3309   -3075.4127    722.91644    78.348631 
   80000    476.49999   -114.73168    0.4311472   -114.30053    4384.2405    4.2789292    4.2789292    4.2789292    4384.2405   -6663.0787    5949.9041    13865.896      3678.34    2141.4791     -5004.25    78.343919 
   80100    292.68939   -114.56751   0.26483151   -114.30268   -5428.4079    4.2869077    4.2869077    4.2869077   -5428.4079   -2098.2595   -4189.6032   -9997.3611   -3817.2043    5177.8536   -9876.6662    78.782979 
   80200    413.03725   -114.67462   0.37372479   -114.30089    1499.8163    4.2769262    4.2769262    4.2769262    1499.8163   -4901.1034   -2749.4991    12150.051   -169.27768    -4889.282   -1390.8574    78.233953 
   80300    497.88734   -114.75021   0.45049893   -114.29971    2466.9331    4.2818617    4.2818617    4.2818617    2466.9331   -8057.3996   -6211.0343    21669.233    2279.2029   -2331.1974    4789.8107    78.505109 
   80400     380.0962    -114.6454   0.34391903   -114.30148   -5356.2686    4.2850613    4.2850613    4.2850613   -5356.2686   -6114.7528   -8903.0552   -1050.9976    -2230.041    4669.3562   -12826.888    78.681227 
   80500    353.68392   -114.62162   0.32002064    -114.3016   -2728.7154    4.2766544    4.2766544    4.2766544   -2728.7154   -5516.8932     3836.285   -6505.5381   -4386.1706    1731.4024   -10133.028    78.219037 
   80600    390.05131   -114.65386   0.35292662   -114.30094     1969.043    4.2844995    4.2844995    4.2844995     1969.043   -17171.001    3454.2296    19623.901    1870.7027   -2988.1059    7606.6004    78.650283 
   80700    478.69776   -114.73248   0.43313579   -114.29934   -349.27677    4.2816415    4.2816415    4.2816415   -349.27677   -10140.882   -3602.4401    12695.492    2861.7357   -2483.2217    1148.5407    78.492997 
   80800    338.67055   -114.60873   0.30643623   -114.30229   -3831.1252    4.2797848    4.2797848    4.2797848   -3831.1252   -1541.6565   -15098.296    5146.5767   -3793.5587    4164.6173   -15065.995    78.390928 
   80900    421.89436   -114.68387   0.38173889   -114.30213   -6605.7235    4.2833644    4.2833644    4.2833644   -6605.7235    -8449.461   -9490.1887   -1877.5207   -985.14429   -3137.2729   -6480.2019    78.587786 
   81000    508.27409   -114.75967   0.45989708   -114.29978    1040.7527    4.2832898    4.2832898    4.2832898    1040.7527   -5251.9506    581.70999    7792.4987     1269.699    2945.9229     7015.384    78.583682 
   81100    351.09896   -114.61807   0.31768172   -114.30039    6939.3797    4.2798395    4.2798395    4.2798395    6939.3797   -5829.0497    1209.9594    25437.229   -4320.5941    3036.6135   -1943.8887    78.393934 
   81200    231.03468   -114.51211   0.20904503   -114.30306    2242.3773    4.2823712    4.2823712    4.2823712    2242.3773   -2063.1903     -743.739    9534.0613    -2729.359    2226.1721   -7226.0317    78.533134 
   81300    530.19191   -114.77973   0.47972878       -114.3   -5297.7181    4.2844319    4.2844319    4.2844319   -5297.7181   -5628.8697   -6338.7113   -3925.5734    4191.0026   -8428.3613   -1378.4198    78.646558 
   81400    594.19538   -114.83617   0.53764046   -114.29853   -1205.2622    4.2800278    4.2800278    4.2800278   -1205.2622    -3291.076   -4879.5852    4554.8746    2462.2911    248.41467   -630.33573    78.404282 
   81500     337.2573   -114.60647   0.30515749   -114.30131    858.24366     4.282487     4.282487     4.282487    858.24366    6653.9381   -12890.286    8811.0788   -4750.6643    5090.4316   -11969.674    78.539503 
   81600    292.89757   -114.56668   0.26501988   -114.30166   -2605.8364    4.2863216    4.2863216    4.2863216   -2605.8364   -9295.4359   -11082.501    12560.428     -1150.79    2507.6726    1027.5164    78.750669 
   81700    482.41648   -114.73477   0.43650057   -114.29827    9823.6348    4.2758471    4.2758471    4.2758471    9823.6348    -2853.539    23680.673    8643.7705    2411.1016   -5362.5578    7813.5119     78.17475 
   81800    508.39497   -114.75894   0.46000645   -114.29893   -8511.1504    4.2889889    4.2889889    4.2889889   -8511.1504   -10546.016    -1421.886   -13565.549   -3121.2228    -1461.054   -5667.0018    78.897775 
   81900    338.59299   -114.60703   0.30636606   -114.30066    -3223.429    4.2793808    4.2793808    4.2793808    -3223.429   -5425.8805   -8973.9291    4729.5227   -2739.0594    1915.0594   -17472.377    78.368727 
   82000    433.34604   -114.69225   0.39210061   -114.30015   -3014.5228     4.282554     4.282554     4.282554   -3014.5228   -15032.807   -6082.6635    12071.902    3153.8617   -6294.4246   -311.27127    78.543193 
   82100     537.2555   -114.78492   0.48612007    -114.2988    1812.9592    4.2830404    4.2830404    4.2830404    1812.9592    -7623.678    4057.6177    9004.9378     1325.947    -237.5643    7256.5557    78.569957 
   82200    349.85393   -114.61858   0.31655519   -114.30203    2404.5588    4.2787383    4.2787383    4.2787383    2404.5588   -940.91709    15997.102   -7842.5087   -4326.1866     3077.559   -7822.0589    78.333436 
   82300    344.33855   -114.61504   0.31156476   -114.30348   -6238.6834    4.2841555    4.2841555    4.2841555   -6238.6834   -9568.2898    2770.3689   -11918.129   -2326.1645    1715.0897   -11461.936    78.631341 
   82400    480.46849   -114.73511   0.43473798   -114.30037    2414.3271    4.2822752    4.2822752    4.2822752    2414.3271    2200.2368   -4700.4717    9743.2161    3063.6879   -7366.7864    1210.9838    78.527851 
   82500    485.41848   -114.73881   0.43921684   -114.29959    4839.1562    4.2787398    4.2787398    4.2787398    4839.1562    210.99137    87.906744    14218.571   -731.35023   -2668.6855    1031.4658    78.333516 
   82600    322.49345   -114.59388   0.29179885   -114.30208   -4664.3539    4.2858993    4.2858993    4.2858993   -4664.3539   -4053.3131   -4309.6873   -5630.0612   -567.00998    3587.8146   -7407.1919    78.727394 
   82700    324.43355   -114.59444    0.2935543   -114.30089    3623.9432    4.2813493    4.2813493    4.2813493    3623.9432   -1741.9789     17624.39   -5010.5817    1658.9722   -1562.6667   -2567.3174    78.476924 
   82800    499.58259   -114.74988   0.45203283   -114.29785    4100.9627    4.2806722    4.2806722    4.2806722    4100.9627   -5901.0948    11284.264    6919.7193   -968.55643    -1670.327   -1093.4546      78.4397 
   82900    367.36684   -114.63242   0.33240123   -114.30002   -2391.6606    4.2846771    4.2846771    4.2846771   -2391.6606   -3673.1174   -15026.625     11524.76   -4558.7525   -1144.7398   -9885.5294    78.660065 
   83000    292.39108   -114.56609   0.26456159   -114.30152   -3925.6009    4.2802113    4.2802113    4.2802113   -3925.6009    -8434.926   -10731.999    7390.1223    732.11074   -2008.4714   -6424.0989    78.414366 
   83100    429.12895   -114.68894   0.38828489   -114.30066   -4258.6935    4.2826971    4.2826971    4.2826971   -4258.6935    -15709.18    9588.3983   -6655.2992    5607.2581    -4656.609    4865.0963    78.551067 
   83200    437.24441   -114.69531   0.39562793   -114.29968   -224.28239    4.2828408    4.2828408    4.2828408   -224.28239   -9461.1699    8492.4887    295.83406   -1815.5726    851.30739   -1990.4077    78.558972 
   83300    251.53474   -114.52915   0.22759391   -114.30156     -108.094    4.2813353    4.2813353    4.2813353     -108.094   -12884.625    99.331484    12461.012   -2188.6187    2962.1809    -16733.72    78.476158 
   83400    256.03974   -114.53453   0.23167013   -114.30286   -3888.7982    4.2816738    4.2816738    4.2816738   -3888.7982    -21995.68   -5807.0437    16136.329    2235.1742   -4735.3878   -5069.1678    78.494772 
   83500    482.99338   -114.73684   0.43702256   -114.29982   -3763.6598    4.2824342    4.2824342    4.2824342   -3763.6598   -9496.0465   -5082.3595    3287.4267    393.43619   -6707.0766    5203.8487      78.5366 
   83600    504.96867   -114.75598   0.45690627   -114.29907    -7279.566    4.2852892    4.2852892    4.2852892    -7279.566   -9575.1243   -17439.515    5175.9417   -2559.1763     1100.255   -1526.8172     78.69378 
   83700    294.25824    -114.5677   0.26625104   -114.30144   -908.99301    4.2785867    4.2785867    4.2785867   -908.99301    -7286.459   -7319.2152    11878.695    2275.3032    1785.7869    -11060.14     78.32511 
   83800    249.87254   -114.52901   0.22608992   -114.30292    4193.6097    4.2838412    4.2838412    4.2838412    4193.6097   -9914.8852    3804.2177    18691.496    3982.2305   -4188.9021   -4205.1827    78.614038 
   83900     488.8691   -114.74194   0.44233904    -114.2996     1038.775    4.2830263    4.2830263    4.2830263     1038.775   -8453.7238    9812.3704    1757.6783   -840.12986   -2032.4848   -2519.4851    78.569183 
   84000    383.69155   -114.64803   0.34717218   -114.30085    3625.5799    4.2774966    4.2774966    4.2774966    3625.5799    9622.4513    3216.8598   -1962.5716   -522.24651    1450.8726   -6960.2251     78.26526 
   84100     280.2282   -114.55532   0.25355636   -114.30176   -9208.7022    4.2886579    4.2886579    4.2886579   -9208.7022    -16721.04   -12346.402     1441.336    2800.7963    237.65763    414.05888    78.879514 
   84200    471.95343   -114.72647   0.42703338   -114.29944    4618.0804    4.2760317    4.2760317    4.2760317    4618.0804    -3662.161   -1845.3767    19361.779    1870.6267   -6172.2445    2689.4268    78.184878 
   84300    520.80392   -114.77067   0.47123433   -114.29944    1305.2227    4.2839316    4.2839316    4.2839316    1305.2227    3345.8977   -9154.8173    9724.5877   -987.08831     436.9181   -7031.5555    78.619012 
   84400    398.01094   -114.66197   0.36012867   -114.30184   -8274.8617    4.2841026    4.2841026    4.2841026   -8274.8617   -10137.555   -4638.5756   -10048.455    2496.5511   -1077.7279     -9366.06    78.628429 
   84500    269.48678   -114.54703    0.2438373   -114.30319    3166.5289    4.2786936    4.2786936    4.2786936    3166.5289   -11543.976    14055.809    6987.7541    4123.0703   -4762.4759    4792.0712    78.330982 
   84600       437.98   -114.69645   0.39629351   -114.30015    7664.8191    4.2839377    4.2839377    4.2839377    7664.8191   -7019.4856    358.27794    29655.665   -799.40504   -1093.8033    7539.9157    78.619346 
   84700    482.52863   -114.73811   0.43660204   -114.30151   -4440.0953    4.2812785    4.2812785    4.2812785   -4440.0953   -345.12226   -10521.915   -2453.2488    844.90709   -804.12832   -3868.2043    78.473034 
   84800    364.04259   -114.63309   0.32939339   -114.30369    -10188.81     4.279662     4.279662     4.279662    -10188.81   -9693.5921   -9431.4479   -11441.391    5624.9627   -1271.5576   -9609.1091    78.384177 
   84900    405.83554   -114.67066   0.36720853   -114.30345   -3347.7879    4.2857504    4.2857504    4.2857504   -3347.7879   -9214.5467   -12483.168    11654.351    1108.5954    -4934.724    1688.3506     78.71919 
   85000    531.78114   -114.78126   0.48116675   -114.30009    9441.1416    4.2764999    4.2764999    4.2764999    9441.1416    6269.1742   -725.99442    22780.245   -734.64537    2188.6786    2793.2288    78.210558 
   85100    350.91161   -114.62039    0.3175122   -114.30288   -3221.3881    4.2857033    4.2857033    4.2857033   -3221.3881    -8949.053   -4262.3663     3547.255    3816.5668   -2276.5967   -1315.3623    78.716597 
   85200    265.78667   -114.54378   0.24048936   -114.30329    2261.1791    4.2803459    4.2803459    4.2803459    2261.1791   -436.66713    10776.847   -3556.6427    2961.9001   -4165.2985   -3951.9068    78.421762 
   85300    484.06559   -114.73872   0.43799271   -114.30073    4446.8743    4.2789797    4.2789797    4.2789797    4446.8743   -6237.8567    3767.0516    15811.428   -1228.4205   -2693.8312   -423.10394    78.346692 
   85400    438.12602   -114.69719   0.39642563   -114.30076    873.28322    4.2855027    4.2855027    4.2855027    873.28322   -1741.0832   -13704.422    18065.355   -374.45746    1256.6618   -3444.7694    78.705545 
   85500    342.43447   -114.61195   0.30984191   -114.30211   -5866.9196    4.2797643    4.2797643    4.2797643   -5866.9196   -6854.2073   -10529.594   -216.95716    4355.5528   -6462.6931   -4685.3364    78.389799 
   85600    434.25373   -114.69407    0.3929219   -114.30115   -8889.1826    4.2814144    4.2814144    4.2814144   -8889.1826   -19316.146   -5887.9484   -1463.4533    1527.6569   -2319.3321    2592.1085    78.480505 
   85700    437.15633   -114.69639   0.39554824   -114.30084    1195.5597    4.2831681    4.2831681    4.2831681    1195.5597     -5890.67    -7127.527    16604.876   -1651.1299    1597.1636    599.10968    78.576984 
   85800    344.42658   -114.61345   0.31164441    -114.3018    2479.5285    4.2807876    4.2807876    4.2807876    2479.5285   -9680.0245    -1010.655    18129.265    1957.6367   -4176.2208   -9932.7284    78.446042 
   85900    278.36411    -114.5555    0.2518697   -114.30363   -2806.9655    4.2813871    4.2813871    4.2813871   -2806.9655   -19646.866    8136.6468    3089.3224    2465.1504   -8073.2637   -6289.9905    78.479004 
   86000    453.08425   -114.71153   0.40996015   -114.30157   -1430.2873    4.2827819    4.2827819    4.2827819   -1430.2873   -5759.2851    3023.4306   -1555.0075   -2798.9754   -2167.9444    6987.8008    78.555731 
   86100    509.74895   -114.76081   0.46123156   -114.29958   -693.14156    4.2835132    4.2835132    4.2835132   -693.14156   -3987.4396   -13714.808    15622.823   -336.21611    4386.9113     4442.269     78.59598 
   86200    363.51038   -114.63076   0.32891183   -114.30185    2659.9682    4.2768823    4.2768823    4.2768823    2659.9682   -3404.2841   -5772.7846    17156.973    4950.0026   -4300.4698   -6521.2065    78.231542 
   86300    340.59959   -114.61051   0.30818166   -114.30233   -3596.7615    4.2876698    4.2876698    4.2876698   -3596.7615   -7401.4411   -6997.0481    3608.2048    999.31397   -4384.1476   -6536.9013    78.825005 
   86400    549.62655    -114.7961   0.49731365   -114.29879   -134.99466    4.2797374    4.2797374    4.2797374   -134.99466   -3991.0782    5123.5066   -1537.4124   -2768.7826   -538.54007    5583.8803     78.38832 
   86500    368.02782   -114.63326   0.33299931   -114.30026    9376.8433    4.2775453    4.2775453    4.2775453    9376.8433    5491.1576    9482.8215    13156.551   -123.19045   -1183.2155    2515.3664    78.267931 
   86600     275.7611   -114.55144   0.24951444   -114.30192   -3779.6974    4.2904544    4.2904544    4.2904544   -3779.6974   -15048.754   -8227.3681     11937.03     392.7855   -3345.9016    60.608467    78.978678 
   86700    447.06201   -114.70329    0.4045111   -114.29878     4744.449    4.2746657    4.2746657    4.2746657     4744.449    -5246.731   -376.70495    19856.783   -3082.3737    362.83791    3884.0917    78.109972 
   86800    586.14366   -114.82919   0.53035511   -114.29883    -5579.606    4.2839066    4.2839066    4.2839066    -5579.606   -3310.4657   -14879.333    1450.9805   -1932.8416    288.07472    266.09747    78.617637 
   86900    451.45043   -114.70878   0.40848184    -114.3003   -9753.6487    4.2875391    4.2875391    4.2875391   -9753.6487   -16141.418   -17150.274    4030.7464    2739.4936   -9278.3497   -6647.4743    78.817794 
   87000    295.58241   -114.56805   0.26744917    -114.3006    7163.7941    4.2737612    4.2737612    4.2737612    7163.7941   -12207.978    4728.5787    28970.782   -2235.5004   -6489.9781    1159.1583    78.060399 
   87100     427.6567   -114.68685   0.38695276    -114.2999    -2505.594    4.2869579    4.2869579    4.2869579    -2505.594   -15684.568   -1277.9236    9445.7096   -3837.3736    2606.8464    10308.714    78.785747 
   87200    514.67721   -114.76549   0.46569076    -114.2998    -2580.079    4.2809836    4.2809836    4.2809836    -2580.079     -4951.37    9534.3926    -12323.26    2486.6816    203.11742    424.02509     78.45682 
   87300    338.44815   -114.60881     0.306235   -114.30257   -12.896279    4.2788541    4.2788541    4.2788541   -12.896279   -12730.027    2751.1978    9940.1409   -1386.8476   -8500.7243   -10019.618    78.339793 
   87400    382.70957   -114.64837   0.34628366   -114.30208   -5912.0207    4.2856423    4.2856423    4.2856423   -5912.0207   -12853.693   -17132.049    12249.679   -6506.0399   -742.83683   -474.32653    78.713233 
   87500    515.37182   -114.76534   0.46631925   -114.29902    1907.6557    4.2790961    4.2790961    4.2790961    1907.6557    4448.1177   -8306.3899    9581.2394   -2476.0298   -160.78804    8426.6801    78.353089 
   87600    426.21441   -114.68656   0.38564776   -114.30091    4137.3934    4.2799003    4.2799003    4.2799003    4137.3934   -3352.0762    8265.9502    7498.3062    3721.9799    -5775.726   -760.75006    78.397275 
   87700    288.19536   -114.56331   0.26076522   -114.30254   -991.99101    4.2845226    4.2845226    4.2845226   -991.99101   -3152.7005   -46.772783    223.50029   -4163.7122   -4890.1869   -5576.9154    78.651556 
   87800    376.08313   -114.64047   0.34028792   -114.30019    5959.3972    4.2792146    4.2792146    4.2792146    5959.3972   -3928.5748     448.7741    21357.992   -5131.8726    2946.2302    14.214078    78.359596 
   87900    422.48472   -114.68203   0.38227305   -114.29975    6237.2469    4.2808026    4.2808026    4.2808026    6237.2469   -538.85162   -4259.8529    23510.445    1532.2298    485.04224    1544.3466    78.446868 
   88000    421.84132   -114.68346   0.38169089   -114.30176   -11242.649    4.2818938    4.2818938    4.2818938   -11242.649   -6430.7909    -15217.67   -12079.487   -1234.5918   -8153.0965   -4708.1165    78.506874 
   88100    309.16789   -114.58285   0.27974161   -114.30311   -7799.3894    4.2815814    4.2815814    4.2815814   -7799.3894   -16842.904   -13996.538     7441.274   -7686.9445   -661.23379   -1935.6819    78.489692 
   88200    402.34445   -114.66485   0.36404971    -114.3008    6532.3751    4.2804942    4.2804942    4.2804942    6532.3751   -7440.9556    -1486.065    28524.146     -2980.22   -52.681063    518.05872    78.429916 
   88300    365.69294   -114.63245   0.33088666   -114.30157   -1832.2196    4.2830346    4.2830346    4.2830346   -1832.2196   -12015.224    49.024309    6469.5405    3245.6192   -724.32753   -5707.9289     78.56964 
   88400    215.29333   -114.49837   0.19480193   -114.30356   -7598.7143    4.2801408    4.2801408    4.2801408   -7598.7143   -19123.766   -3784.3323    111.95544   -8109.7199   -8333.1233   -6594.4629    78.410492 
   88500    434.51374   -114.69607   0.39315717   -114.30292   -1491.4525    4.2810888    4.2810888    4.2810888   -1491.4525   -10765.242   -5125.6419    11416.526    -5891.342    3090.3291    5834.1526      78.4626 
   88600    526.35163   -114.77545   0.47625402    -114.2992   -4193.5867    4.2858318    4.2858318    4.2858318   -4193.5867   -8472.5096   -12901.149    8792.8988    2515.0032   -1334.2059    2521.5123    78.723676 
   88700    240.70889   -114.51913   0.21779846   -114.30133    1346.7715    4.2765401    4.2765401    4.2765401    1346.7715    -9440.168   -1214.8876     14695.37   -2509.2593   -5802.6962   -9304.4276    78.212767 
   88800    260.59287   -114.53914   0.23578991   -114.30335   -3944.0216    4.2853024    4.2853024    4.2853024   -3944.0216   -14030.415    3174.1512   -975.80146   -7363.3503   -4076.9131   -7567.9086    78.694507 
   88900     499.0994   -114.75123   0.45159562   -114.29964    5664.2797    4.2805244    4.2805244    4.2805244    5664.2797    280.63185    14565.674    2146.5335   -1540.1536     3532.366    4547.6279    78.431576 
   89000    438.82737   -114.69734   0.39706022   -114.30028   -404.80978     4.280307     4.280307     4.280307   -404.80978    -1767.882    292.36944    261.08327   -501.37737   -508.33618    5509.8995    78.419624 
   89100     232.7278   -114.51442     0.210577   -114.30384   -4684.5848    4.2848839    4.2848839    4.2848839   -4684.5848   -3968.4643    -19745.74    9660.4496   -6433.7871   -4167.5948   -8727.1238    78.671452 
   89200    393.19965   -114.65753    0.3557753   -114.30176    2327.6997    4.2806006    4.2806006    4.2806006    2327.6997   -6008.3997   -3589.4155    16580.914   -1301.7991    1051.5354   -4636.5535    78.435765 
   89300     570.6123   -114.81512     0.516302   -114.29882    4409.9896    4.2800361    4.2800361    4.2800361    4409.9896   -1350.6097    16518.359   -1937.7807    2815.1066   -703.39006    -1685.218    78.404735 
   89400    354.66629   -114.62247   0.32090951   -114.30156   -7590.2645    4.2878272    4.2878272    4.2878272   -7590.2645   -9703.0964    328.78545   -13396.482   -5545.6127   -4737.3657   -450.87985    78.833684 
   89500    271.77755    -114.5476   0.24591004   -114.30169     2939.975    4.2781134    4.2781134    4.2781134     2939.975   -7662.9984   -2742.4622    19225.386   -11526.123   -4938.3527   -2649.6599    78.299122 
   89600    538.33265   -114.78594    0.4870947   -114.29884   -407.86381    4.2836211    4.2836211    4.2836211   -407.86381   -2606.9709   -10351.087    11734.467    684.71449    9252.5102    4053.6491     78.60192 
   89700    501.27597   -114.75281   0.45356503   -114.29924   -301.58011    4.2837862    4.2837862    4.2837862   -301.58011   -924.44701    -5871.202    5890.9087    1949.5418    1377.4282   -4212.9928    78.611009 
   89800    274.86042   -114.55169   0.24869948   -114.30299   -4665.9401    4.2802992    4.2802992    4.2802992   -4665.9401   -8207.8302   -651.29953   -5138.6906   -7471.9527   -5795.1789   -7849.4465    78.419197 
   89900    416.22275    -114.6793    0.3766071    -114.3027   -2506.3325    4.2816155    4.2816155    4.2816155   -2506.3325   -9483.5537    2178.2737   -213.71773   -3912.7761   -4074.2643   -3621.2157    78.491564 
   90000    551.63414   -114.79899   0.49913016   -114.29986    2416.8152     4.285037     4.285037     4.285037    2416.8152   -3465.2656   -937.39939     11653.11    1147.6926    2277.3976    7502.3951    78.679886 
   90100    443.57803   -114.70314   0.40135872   -114.30178    6185.1351    4.2758191    4.2758191    4.2758191    6185.1351   -1533.6064    -5406.354    25495.366   -4925.4421     1809.861   -1972.1931    78.173212 
   90200    273.53278   -114.55097    0.2474982   -114.30347   -7438.7212    4.2879928    4.2879928    4.2879928   -7438.7212   -2069.6352   -21641.026    1394.4981   -7608.5796   -2395.7681   -10666.234    78.842818 
   90300     490.9516   -114.74403   0.44422333   -114.29981    4753.2545     4.279098     4.279098     4.279098    4753.2545    4795.1236    5452.7918     4011.848    4046.7519    2077.1468   -1654.8939    78.353192 
   90400      533.012   -114.78095   0.48228046   -114.29867    3649.0954     4.282121     4.282121     4.282121    3649.0954   -2701.6827    7600.0591    6048.9097    961.34402   -3578.2853    4438.8955    78.519371 
   90500    221.46899   -114.50341   0.20038979   -114.30302    1981.2015    4.2829125    4.2829125    4.2829125    1981.2015   -9874.8955    -7345.499    23163.999   -7013.3609   -5926.4155    781.16402    78.562917 
   90600    310.00646    -114.5831   0.28050036    -114.3026   -6931.1259    4.2822303    4.2822303    4.2822303   -6931.1259   -19670.745   -12492.725    11370.091     -6863.42   -2941.2298   -7021.5638     78.52538 
   90700    577.03228   -114.82067   0.52211093   -114.29856   -3014.8569    4.2818826    4.2818826    4.2818826   -3014.8569   -6484.2186    -5657.189    3096.8368    2952.1243    8899.7163    314.22925    78.506254 
   90800    472.94148   -114.72847   0.42792739   -114.30055   -5092.3031    4.2835864    4.2835864    4.2835864   -5092.3031   -3855.9852   -12599.332    1178.4081   -4454.8818     -1528.97   -3011.0049    78.600007 
   90900     222.5373   -114.50496   0.20135643    -114.3036    423.35153    4.2794223    4.2794223    4.2794223    423.35153    -9403.768   -191.15191    10864.975   -4632.4634   -9578.7885   -1863.9086    78.371007 
   91000    279.04924   -114.55536   0.25248962   -114.30287     4255.946     4.284974     4.284974     4.284974     4255.946   -10452.217     1033.517    22186.538    4050.5818   -3439.3257     427.3663    78.676416 
   91100    493.08097   -114.74459   0.44615002   -114.29844    8303.8896    4.2792124    4.2792124    4.2792124    8303.8896   -1110.9626    9413.8227    16608.809   -411.86528    1201.7011    4418.6211    78.359475 
   91200    455.85105   -114.71364   0.41246361   -114.30118    -8632.899    4.2828572    4.2828572    4.2828572    -8632.899   -14642.117   -8496.3761   -2760.2043   -7116.9727   -835.29672   -5980.0985    78.559877 
   91300     311.5843   -114.58412   0.28192802   -114.30219   -7358.1661    4.2842086    4.2842086    4.2842086   -7358.1661   -6691.8797   -15793.544    410.92486   -3954.6283   -3946.4936   -10442.689    78.634265 
   91400    459.84915   -114.71593   0.41608117   -114.29985    1219.7324    4.2822445    4.2822445    4.2822445    1219.7324   -7528.8065   -3531.9882    14719.992    3219.6336    4717.7699     1841.183    78.526165 
   91500    403.26606   -114.66364    0.3648836   -114.29875    9449.0971    4.2811187    4.2811187    4.2811187    9449.0971   -5008.2607    14003.107    19352.445   -2689.1739   -3442.2979    8218.9052    78.464248 
   91600    245.79683   -114.52435   0.22240213   -114.30195    607.82357    4.2848747    4.2848747    4.2848747    607.82357   -8656.0719     9252.822    1226.7206    -2013.147   -8861.0572    -2313.292    78.670946 
   91700    402.07349   -114.66378   0.36380454   -114.29997   -5322.3892    4.2826763    4.2826763    4.2826763   -5322.3892   -5953.9647    1560.7017   -11573.904    4586.5847   -59.098642   -7914.3922    78.549921 
   91800    599.14216   -114.83932   0.54211642    -114.2972   -2174.2861    4.2822387    4.2822387    4.2822387   -2174.2861   -3686.8665   -5682.3432    2846.3515    225.10641    4209.5122   -1211.6316    78.525844 
   91900    478.13037   -114.73173   0.43262241    -114.2991   -1089.9877    4.2834205    4.2834205    4.2834205   -1089.9877   -10295.118   -2512.1737    9537.3288   -8602.4368   -1425.7684    -138.3545    78.590875 
   92000    241.39012   -114.52087   0.21841486   -114.30246    882.40665    4.2819745    4.2819745    4.2819745    882.40665   -14472.578      16039.7    1080.0983   -1582.4746   -5138.6839   -581.85649    78.511313 
   92100    398.66839   -114.66239   0.36072354   -114.30167    4584.7436    4.2796093    4.2796093    4.2796093    4584.7436   -3584.4984    15543.125    1795.6042    6232.7052    2596.1032    -792.0176    78.381285 
   92200      614.424   -114.85476   0.55594375   -114.29882   -7540.3069    4.2866173    4.2866173    4.2866173   -7540.3069   -10981.481    933.03881   -12572.478   -47.049702   -3524.2381    82.097694    78.766971 
   92300    415.41213   -114.67734   0.37587362   -114.30147   -4091.3497    4.2786474    4.2786474    4.2786474   -4091.3497   -5928.8379   -4872.4011   -1472.8101   -5682.0939   -8985.7432   -7186.6234    78.328442 
   92400    350.62014   -114.62027   0.31724847   -114.30302   -4478.5305    4.2829682    4.2829682    4.2829682   -4478.5305   -2631.0673   -1175.4011   -9629.1229    621.74225    2756.1007   -7376.5885    78.565984 
   92500    375.22954    -114.6407   0.33951557   -114.30118    6613.3182    4.2843213    4.2843213    4.2843213    6613.3182   -7400.0496      22521.2    4718.8041    1598.0807    3567.3042    7485.0986     78.64047 
   92600    479.42186   -114.73398   0.43379098   -114.30019    7264.7811    4.2768349    4.2768349    4.2768349    7264.7811   -7918.6028    19853.894    9859.0517   -4791.3428   -4959.1006     2498.991    78.228941 
   92700    410.57334   -114.67247   0.37149539   -114.30098   -11667.722    4.2891043    4.2891043    4.2891043   -11667.722   -13493.191    -10042.97   -11467.006   -1623.5866   -3752.2923   -6470.9392    78.904147 
   92800    451.70649   -114.70794   0.40871352   -114.29923    960.64008    4.2778967    4.2778967    4.2778967    960.64008    1156.1496   -672.25996    2398.0306     4754.909    4079.7419   -5991.6892    78.287222 
   92900    448.43739   -114.70499   0.40575557   -114.29923    3456.5527     4.282266     4.282266     4.282266    3456.5527    -12841.02    21533.326    1677.3513    2016.0188   -4646.7734     3991.351    78.527349 
   93000    301.60448   -114.57371   0.27289808   -114.30081    3225.4263    4.2846462    4.2846462    4.2846462    3225.4263   -13628.312    17424.399    5880.1914   -7747.6697   -4701.3306     3141.973    78.658363 
   93100    306.26118   -114.57865   0.27711155   -114.30154    -514.8116    4.2774925    4.2774925    4.2774925    -514.8116   -4161.3384     994.8914    1622.0122   -804.44315     2725.798   -10494.698     78.26503 
   93200    481.06429   -114.73569   0.43527707   -114.30041   -8614.9173    4.2837382    4.2837382    4.2837382   -8614.9173   -10543.896   -10498.453   -4802.4028    5208.3807    2853.7164   -3737.0425    78.608364 
   93300    399.82141   -114.66267   0.36176681    -114.3009   -3375.2179    4.2838143    4.2838143    4.2838143   -3375.2179   -18951.507    11597.765    -2771.912   -762.80422   -8461.2404    523.37848    78.612554 
   93400    340.62855   -114.60867   0.30820787   -114.30046    2362.5337    4.2761421    4.2761421    4.2761421    2362.5337   -15939.221     17689.35    5337.4722   -5091.6838   -4783.5222   -1261.1407     78.19093 
   93500    229.29988   -114.50898   0.20747535   -114.30151   -789.89296    4.2870214    4.2870214    4.2870214   -789.89296   -18536.139    10055.496     6110.964    1288.4527    4982.7421   -1612.3116    78.789247 
   93600    453.91609   -114.70997   0.41071282   -114.29926   -2936.7741    4.2788507    4.2788507    4.2788507   -2936.7741   -10625.885   -154.74898    1970.3113    2473.4785   -6536.9175    596.90289     78.33961 
   93700    434.31338   -114.69226   0.39297587   -114.29929   -4038.8807    4.2828506    4.2828506    4.2828506   -4038.8807   -20299.935    7867.1099    316.18304   -4022.6692    -3851.078   -2364.6118    78.559511 
   93800    347.21424   -114.61487   0.31416674    -114.3007   -1930.7696    4.2825798    4.2825798    4.2825798   -1930.7696   -16363.589    9692.9168    878.36356    1153.5646    1814.4753   -6843.8247    78.544611 
   93900    267.60026   -114.54361   0.24213034   -114.30148    4962.4595     4.278931     4.278931     4.278931    4962.4595   -7369.0227    19905.685    2350.7159    5849.7166   -727.47109    1213.1319    78.344021 
   94000    352.73764   -114.61997   0.31916443    -114.3008   -2419.9195    4.2850105    4.2850105    4.2850105   -2419.9195   -22094.999    1454.4731    13380.768   -1897.5552   -9512.2519     5758.433    78.678428 
   94100    485.09024   -114.73844   0.43891985   -114.29952   -1954.2976    4.2776567    4.2776567    4.2776567   -1954.2976   -7511.7006    -1467.342    3116.1499   -5589.7904   -2938.8115    -4714.087    78.274045 
   94200    412.24854   -114.67343   0.37301114   -114.30042   -8357.8926    4.2846894    4.2846894    4.2846894   -8357.8926   -11881.135   -9400.8064   -3791.7366    3570.9481    4117.5303   -9887.6269    78.660739 
   94300    276.20696   -114.55216   0.24991786   -114.30224    4162.0671    4.2794755    4.2794755    4.2794755    4162.0671   -8375.9677    20325.182    536.98749    5176.5735   -9242.6439    2990.6136    78.373932 
   94400    405.72775   -114.66898     0.367111   -114.30187    2845.1542    4.2795511    4.2795511    4.2795511    2845.1542   -11046.441    12145.585    7436.3189   -2998.5459   -2740.1623     7514.892    78.378083 
   94500     443.7312   -114.70151   0.40149732   -114.30001   -685.33433    4.2852388    4.2852388    4.2852388   -685.33433   -12217.951   -916.35914    11078.307   -3089.0361   -333.63354   -3642.1323    78.691005 
   94600    470.21777   -114.72572   0.42546292   -114.30025   -6081.9844    4.2792053    4.2792053    4.2792053   -6081.9844   -6532.3642    -8696.881   -3016.7079    5603.2681    56.000655   -5019.8612    78.359088 
   94700    358.56178   -114.62597   0.32443423   -114.30153   -245.38745     4.281039     4.281039     4.281039   -245.38745   -7695.1771    10130.603    -3171.588   -895.39662   -8305.1023    754.18931    78.459866 
   94800    430.12526   -114.69043   0.38918637   -114.30124    718.51193    4.2843804    4.2843804    4.2843804    718.51193   -14921.618    6276.7246    10800.429   -5847.4392   -1754.0055    6618.7459    78.643727 
   94900    454.79206   -114.71236   0.41150542   -114.30085    10076.823    4.2748563    4.2748563    4.2748563    10076.823   -219.88472     12574.88    17875.474    155.44537    1162.3624   -2470.1263    78.120416 
   95000    321.01092   -114.59289   0.29045742   -114.30243   -3121.5921     4.287919     4.287919     4.287919   -3121.5921   -11783.124   -7963.6986    10382.046    5398.0641   -9776.5646   -360.46711    78.838747 
   95100    474.39934   -114.72919   0.42924649   -114.29994   -7248.8262    4.2797885    4.2797885    4.2797885   -7248.8262   -7798.8691     -9262.29   -4685.3196   -2240.2126   -2477.0508    3493.8803     78.39113 
   95200    542.29439   -114.78939   0.49067936   -114.29871    360.84448     4.278877     4.278877     4.278877    360.84448   -2258.3298   -4242.3209    7583.1841   -6384.6825    3039.7712    481.51727    78.341054 
   95300    409.11791   -114.66985   0.37017848   -114.29967   -622.62966     4.286642     4.286642     4.286642   -622.62966   -16537.084    634.89113    14034.304   -30.558577   -1917.1817   -696.54641    78.768332 
   95400    239.72341   -114.51927   0.21690677   -114.30236     1689.431    4.2769396    4.2769396    4.2769396     1689.431   -9142.6095    14522.081   -311.17835   -359.31402   -10824.622    10323.367    78.234685 
   95500     423.0565   -114.68447   0.38279041   -114.30168   -4835.7216    4.2834788    4.2834788    4.2834788   -4835.7216   -10918.063    175.44728    -3764.549   -1273.1623   -2170.5074    4419.7969    78.594086 
   95600    586.98562    -114.8291   0.53111692   -114.29798   -4734.9147    4.2859595    4.2859595    4.2859595   -4734.9147   -7276.7631   -6572.4836   -355.49749     1206.021    257.06479   -4069.1112    78.730715 
   95700    445.94421   -114.70266    0.4034997   -114.29916    1712.8924    4.2748961    4.2748961    4.2748961    1712.8924    641.93629    1255.5828    3241.1581   -509.56268   -5502.0057   -3134.4691      78.1226 
   95800    218.05419   -114.50004   0.19730002   -114.30274   -1413.6111    4.2878045    4.2878045    4.2878045   -1413.6111   -15488.354    1459.9676     9787.553   -4644.0425   -308.64349    9474.1515    78.832434 
   95900    405.56176   -114.66715    0.3669608   -114.30019    8056.7672    4.2800185    4.2800185    4.2800185    8056.7672   -4788.8783    18769.127    10190.053   -4789.1763    6394.9586     6626.362    78.403767 
   96000    469.84734   -114.72412   0.42512775   -114.29899    9562.6895    4.2784012    4.2784012    4.2784012    9562.6895   -9890.1597    25785.806    12792.422     2944.156   -5395.2422    -647.2433    78.314923 
   96100    388.03973   -114.65152    0.3511065   -114.30041   -14745.632    4.2894996    4.2894996    4.2894996   -14745.632   -25309.423   -4474.3154   -14453.157   -715.82277   -8351.0239   -619.70314    78.925965 
   96200    374.88776   -114.63882   0.33920633   -114.29962   -4712.7808     4.275677     4.275677     4.275677   -4712.7808   -8715.8256   -2808.6488   -2613.8678   -1661.7613    4814.3308    4608.5166    78.165422 
   96300    439.13556    -114.6965   0.39733908   -114.29916   -2616.8524    4.2863595    4.2863595    4.2863595   -2616.8524    -15766.26    3085.4348    4830.2681     339.2078    3462.0624    1886.5047    78.752758 
   96400    380.78074    -114.6428   0.34453841   -114.29826    4188.5592    4.2814408    4.2814408    4.2814408    4188.5592   -15651.176    28554.313   -337.45954   -891.87023   -3656.3036    4018.3341    78.481958 
   96500    169.42448    -114.4551   0.15329883    -114.3018   -2129.4249    4.2812573    4.2812573    4.2812573   -2129.4249   -15485.201    19106.574   -10009.648   -8024.8041    1527.8846    8906.0942    78.471867 
   96600    361.34749   -114.62766    0.3269548    -114.3007   -3925.3585    4.2817361    4.2817361    4.2817361   -3925.3585   -9097.0496    16.648482   -2695.6745   -5070.2899    9233.0557    1147.9331      78.4982 
   96700    553.95428   -114.79864   0.50122947   -114.29741   -5833.8748    4.2860788    4.2860788    4.2860788   -5833.8748   -9515.5474   -6950.0931   -1035.9839    3445.5716   -4892.7834   -3024.4899    78.737288 
   96800    411.70677   -114.67097   0.37252094   -114.29845    2704.4833    4.2769739    4.2769739    4.2769739    2704.4833   -10639.235    14497.278    4255.4067    3179.0122   -6788.5388    369.28993    78.236569 
   96900    170.10589   -114.45615   0.15391538   -114.30223   -4335.7141    4.2875153    4.2875153    4.2875153   -4335.7141   -25863.458    12791.855    64.461103   -3008.2742    7747.2433    8944.0548    78.816483 
   97000    354.19353   -114.62142   0.32048175   -114.30094    10247.972    4.2762179    4.2762179    4.2762179    10247.972   -2340.8667    21819.971     11264.81   -2502.4062     3419.744    89.659704    78.195089 
   97100    579.80846   -114.82342   0.52462288    -114.2988   -2899.8792    4.2839881    4.2839881    4.2839881   -2899.8792    -11688.15   -821.42324     3809.936   -2190.7585   -517.37765    611.53643    78.622126 
   97200    358.92146   -114.62616   0.32475968    -114.3014   -8142.9644     4.283328     4.283328     4.283328   -8142.9644   -10094.819   -9118.4797   -5215.5945   -3839.1116    3587.2806    1576.1341    78.585786 
   97300    267.51422    -114.5449   0.24205248   -114.30285   -4196.5874    4.2792323    4.2792323    4.2792323   -4196.5874   -4759.6167    2480.0208   -10310.166    -1510.315    9590.6019    5438.2776    78.360571 
   97400    450.47357   -114.70854   0.40759796   -114.30095    4237.3667    4.2823141    4.2823141    4.2823141    4237.3667   -4852.3724    15366.232    2198.2409    4142.9337   -4902.3084   -1400.9173    78.529992 
   97500    419.04773   -114.67944   0.37916319   -114.30027    4032.6531    4.2825492    4.2825492    4.2825492    4032.6531   -13684.617    18345.773    7436.8038    2400.0955   -4245.4609    3984.2236    78.542927 
   97600     356.6271   -114.62534    0.3226837   -114.30265   -9211.2357    4.2799186    4.2799186    4.2799186   -9211.2357   -16189.322   -3244.4647   -8199.9201   -6250.9223    12761.282    6596.2976    78.398279 
   97700    415.06919   -114.67763   0.37556333   -114.30206   -4240.5651    4.2830162    4.2830162    4.2830162   -4240.5651     -9260.47    -10338.93     6877.705   -4055.9979    3527.0165   -2952.9205    78.568622 
   97800    644.30974   -114.88289     0.582985    -114.2999    1366.7195    4.2805782    4.2805782    4.2805782    1366.7195   -2820.1884     1398.374     5521.973    322.74856    232.33237   -2859.5744    78.434534 
   97900     364.0428   -114.63171   0.32939358   -114.30232     7637.688    4.2808728    4.2808728    4.2808728     7637.688   -9617.1384    16552.992    15977.211    1582.8843    1504.1602    6294.7262    78.450729 
   98000    221.83333   -114.50429   0.20071946   -114.30357    675.72951    4.2841368    4.2841368    4.2841368    675.72951   -12431.325    10985.925    3472.5891   -3545.8166    7075.4476    10153.646    78.630312 
   98100    511.71527   -114.76235   0.46301073   -114.29934    4320.8505    4.2779405    4.2779405    4.2779405    4320.8505    4825.9544    3436.8598    4699.7374    1574.2798   -2671.4086   -6502.4811    78.289628 
   98200    658.82551   -114.89364   0.59611917   -114.29752   -8798.2852    4.2854025    4.2854025    4.2854025   -8798.2852   -11063.659   -11462.909   -3868.2884    776.22144    98.863644   -3782.3268    78.700021 
   98300    357.98258   -114.62601   0.32391016    -114.3021    3112.5729    4.2773938    4.2773938    4.2773938    3112.5729   -2834.1552    7119.0575    5052.8166   -5066.3127    11375.735    6144.5803    78.259615 
   98400    335.54962   -114.60626   0.30361235   -114.30265   -2118.6976    4.2855143    4.2855143    4.2855143   -2118.6976   -12193.854    6303.7628   -466.00167   -3477.5882      2449.42    8139.1132    78.706185 
   98500    414.24453   -114.67351   0.37481716   -114.29869    10663.188    4.2809735    4.2809735    4.2809735    10663.188   -6564.2381    20213.999    18339.802    1646.8976   -2442.3512   -655.42859    78.456265 
   98600     485.5384   -114.73823   0.43932535    -114.2989    -1337.406    4.2809434    4.2809434    4.2809434    -1337.406   -7224.2408    6754.1096   -3542.0868    1766.3678    3738.8986    24.307494    78.454609 
   98700    385.13627   -114.64879   0.34847939   -114.30032     -5019.09    4.2820902    4.2820902    4.2820902     -5019.09   -8860.2536   -11877.829    5680.8127   -5556.5556    5456.0686    4247.7157    78.517676 
   98800    445.67506   -114.70366   0.40325616   -114.30041   -5047.8496    4.2831898    4.2831898    4.2831898   -5047.8496    -9194.414   -6468.3315    519.19666    -2170.525   -1002.8195   -4265.9382    78.578179 
   98900    428.66466   -114.68709   0.38786479   -114.29923    6551.1283    4.2791654    4.2791654    4.2791654    6551.1283    -9364.133    19052.131    9965.3866   -280.03722    1727.8466    1060.8164    78.356898 
   99000    237.79512   -114.51704   0.21516202   -114.30188     4354.877    4.2856695    4.2856695    4.2856695     4354.877   -18216.733    20061.807    11219.557   -4552.9959    5521.2456    8594.4962    78.714731 
   99100    373.23389   -114.63789   0.33770987   -114.30018   -501.91242    4.2770594    4.2770594    4.2770594   -501.91242   -8663.8251    6083.1597    1074.9281   -3397.2146    1844.0131    8353.9608    78.241259 
   99200    494.65764   -114.74688   0.44757663   -114.29931   -10433.288    4.2859333    4.2859333    4.2859333   -10433.288   -15051.223    -11562.16   -4686.4813    2732.3981   -3982.8291   -8707.3471    78.729271 
   99300    437.06065   -114.69486   0.39546166    -114.2994   -5263.7935      4.28136      4.28136      4.28136   -5263.7935   -18879.603    3143.2031   -54.980967   -1396.0991    6040.9228   -3365.7174    78.477516 
   99400     279.4547   -114.55378   0.25285648   -114.30092    6830.9031    4.2768763    4.2768763    4.2768763    6830.9031   -8992.7862    20636.125    8849.3709   -4092.0105    4466.0543     11364.31    78.231211 
   99500     281.4084   -114.55475   0.25462423   -114.30012   -992.55432    4.2882989    4.2882989    4.2882989   -992.55432   -16824.798    9825.2194    4021.9161   -3311.4583   -2870.4624    5742.5709    78.859702 
   99600    446.86702   -114.70188   0.40433467   -114.29754    2117.1318    4.2763901    4.2763901    4.2763901    2117.1318   -10201.116    12257.117    4295.3949    983.46719    4754.5665   -5336.5309    78.204535 
   99700    429.34242   -114.68737   0.38847804   -114.29889   -7832.3796    4.2831891    4.2831891    4.2831891   -7832.3796   -15713.981   -10927.055    3143.8976   -4399.4854    2693.0374   -615.68799    78.578142 
   99800    324.19259   -114.59389   0.29333627   -114.30056    653.84161    4.2819486    4.2819486    4.2819486    653.84161   -5602.7512     4115.175     3449.101   -2690.0595   -484.27235    10989.343    78.509887 
   99900     379.7837   -114.64471   0.34363627   -114.30107    2533.1943     4.278211     4.278211     4.278211    2533.1943   -9603.0665    18629.169   -1426.5193    3261.6407    -4456.869   -2356.8953    78.304478 
  100000    362.35741   -114.62926    0.3278686   -114.30139    5794.4717     4.281166     4.281166     4.281166    5794.4717   -14944.632    17947.715    14380.332    31.729872    3056.1878   -1597.1135    78.466846 
Loop time of 22.2906 on 1 procs for 100000 steps with 8 atoms

Pair  time (%) = 7.14197 (32.0402)
Kspce time (%) = 5.35262 (24.0128)
Neigh time (%) = 0 (0)
Comm  time (%) = 1.07679 (4.83067)
Outpt time (%) = 0.0254085 (0.113987)
Other time (%) = 8.69386 (39.0023)

Nlocal:    8 ave 8 max 8 min
Histogram: 1 0 0 0 0 0 0 0 0 0
Nghost:    2189 ave 2189 max 2189 min
Histogram: 1 0 0 0 0 0 0 0 0 0
Neighs:    2344 ave 2344 max 2344 min
Histogram: 1 0 0 0 0 0 0 0 0 0

Total # of neighbors = 2344
Ave neighs/atom = 293
Neighbor list builds = 0
Dangerous builds = 0
unfix 20
unfix 21
print "seeds:4799858"
seeds:4799858
